# vtk DataFile Version 3.0
# Dislocation lines converted from MoDELib file
ASCII
DATASET UNSTRUCTURED_GRID
POINTS 6202 double
-1.429999999999877e+00  3.863858941524650e+02 -2.918975276816622e+03
-1.429999999999897e+00 -3.863858941524674e+02 -2.918975276816622e+03
-1.429999999999897e+00  0.000000000000000e+00 -2.918975276816622e+03
-1.430000000000221e+00  0.000000000000000e+00  2.918975276816619e+03
-1.430000000000221e+00 -3.863858941524674e+02  2.918975276816619e+03
-1.430000000000201e+00  3.863858941524653e+02  2.918975276816619e+03
-1.145430000000000e+03  0.000000000000000e+00 -2.918975276816622e+03
-1.145430000000000e+03 -9.984131631848139e-01 -2.918975276816622e+03
-1.145430000000000e+03 -1.996826326369303e+00 -2.918975276816622e+03
-1.145430000000000e+03 -2.995239489554117e+00 -2.918975276816622e+03
-1.145430000000000e+03 -3.993652652738606e+00 -2.918975276816622e+03
-1.145430000000000e+03 -4.992065815923421e+00 -2.918975276816622e+03
-1.145430000000000e+03 -5.990478979107908e+00 -2.918975276816622e+03
-1.145430000000000e+03 -6.988892142292723e+00 -2.918975276816622e+03
-1.145430000000000e+03 -7.987305305477212e+00 -2.918975276816622e+03
-1.145430000000000e+03 -8.985718468662027e+00 -2.918975276816622e+03
-1.145430000000000e+03 -9.984131631846514e+00 -2.918975276816622e+03
-1.145430000000000e+03 -1.098254479503133e+01 -2.918975276816622e+03
-1.145430000000000e+03 -1.198095795821614e+01 -2.918975276816622e+03
-1.145430000000000e+03 -1.297937112140063e+01 -2.918975276816622e+03
-1.145430000000000e+03 -1.397778428458545e+01 -2.918975276816622e+03
-1.145430000000000e+03 -1.497619744776993e+01 -2.918975276816622e+03
-1.145430000000000e+03 -1.597461061095474e+01 -2.918975276816622e+03
-1.145430000000000e+03 -1.697302377413924e+01 -2.918975276816622e+03
-1.145430000000000e+03 -1.797143693732405e+01 -2.918975276816622e+03
-1.145430000000000e+03 -1.896985010050854e+01 -2.918975276816622e+03
-1.145430000000000e+03 -1.996826326369335e+01 -2.918975276816622e+03
-1.145430000000000e+03 -2.096667642687817e+01 -2.918975276816622e+03
-1.145430000000000e+03 -2.196508959006266e+01 -2.918975276816622e+03
-1.145430000000000e+03 -2.296350275324747e+01 -2.918975276816622e+03
-1.145430000000000e+03 -2.396191591643196e+01 -2.918975276816622e+03
-1.145430000000000e+03 -2.496032907961677e+01 -2.918975276816622e+03
-1.145430000000000e+03 -2.595874224280126e+01 -2.918975276816622e+03
-1.145430000000000e+03 -2.695715540598608e+01 -2.918975276816622e+03
-1.145430000000000e+03 -2.795556856917056e+01 -2.918975276816622e+03
-1.145430000000000e+03 -2.895398173235539e+01 -2.918975276816622e+03
-1.145430000000000e+03 -2.995239489553986e+01 -2.918975276816622e+03
-1.145430000000000e+03 -3.095080805872470e+01 -2.918975276816622e+03
-1.145430000000000e+03 -3.194922122190951e+01 -2.918975276816622e+03
-1.145430000000000e+03 -3.294763438509401e+01 -2.918975276816622e+03
-1.145430000000000e+03 -3.394604754827881e+01 -2.918975276816622e+03
-1.145430000000000e+03 -3.494446071146330e+01 -2.918975276816622e+03
-1.145430000000000e+03 -3.594287387464811e+01 -2.918975276816622e+03
-1.145430000000000e+03 -3.694128703783261e+01 -2.918975276816622e+03
-1.145430000000000e+03 -3.793970020101742e+01 -2.918975276816622e+03
-1.145430000000000e+03 -3.893811336420191e+01 -2.918975276816622e+03
-1.145430000000000e+03 -3.993652652738672e+01 -2.918975276816622e+03
-1.145430000000000e+03 -4.093493969057153e+01 -2.918975276816622e+03
-1.145430000000000e+03 -4.193335285375603e+01 -2.918975276816622e+03
-1.145430000000000e+03 -4.293176601694083e+01 -2.918975276816622e+03
-1.145430000000000e+03 -4.393017918012533e+01 -2.918975276816622e+03
-1.145430000000000e+03 -4.492859234331014e+01 -2.918975276816622e+03
-1.145430000000000e+03 -4.592700550649462e+01 -2.918975276816622e+03
-1.145430000000000e+03 -4.692541866967943e+01 -2.918975276816622e+03
-1.145430000000000e+03 -4.792383183286393e+01 -2.918975276816622e+03
-1.145430000000000e+03 -4.892224499604874e+01 -2.918975276816622e+03
-1.145430000000000e+03 -4.992065815923323e+01 -2.918975276816622e+03
-1.145430000000000e+03 -5.091907132241803e+01 -2.918975276816622e+03
-1.145430000000000e+03 -5.191748448560285e+01 -2.918975276816622e+03
-1.145430000000000e+03 -5.291589764878734e+01 -2.918975276816622e+03
-1.145430000000000e+03 -5.391431081197216e+01 -2.918975276816622e+03
-1.145430000000000e+03 -5.491272397515664e+01 -2.918975276816622e+03
-1.145430000000000e+03 -5.591113713834146e+01 -2.918975276816622e+03
-1.145430000000000e+03 -5.690955030152595e+01 -2.918975276816622e+03
-1.145430000000000e+03 -5.790796346471076e+01 -2.918975276816622e+03
-1.145430000000000e+03 -5.890637662789525e+01 -2.918975276816622e+03
-1.145430000000000e+03 -5.990478979108006e+01 -2.918975276816622e+03
-1.145430000000000e+03 -6.090320295426487e+01 -2.918975276816622e+03
-1.145430000000000e+03 -6.190161611744936e+01 -2.918975276816622e+03
-1.145430000000000e+03 -6.290002928063417e+01 -2.918975276816622e+03
-1.145430000000000e+03 -6.389844244381867e+01 -2.918975276816622e+03
-1.145430000000000e+03 -6.489685560700347e+01 -2.918975276816622e+03
-1.145430000000000e+03 -6.589526877018797e+01 -2.918975276816622e+03
-1.145430000000000e+03 -6.689368193337278e+01 -2.918975276816622e+03
-1.145430000000000e+03 -6.789209509655727e+01 -2.918975276816622e+03
-1.145430000000000e+03 -6.889050825974208e+01 -2.918975276816622e+03
-1.145430000000000e+03 -6.988892142292659e+01 -2.918975276816622e+03
-1.145430000000000e+03 -7.088733458611138e+01 -2.918975276816622e+03
-1.145430000000000e+03 -7.188574774929620e+01 -2.918975276816622e+03
-1.145430000000000e+03 -7.288416091248068e+01 -2.918975276816622e+03
-1.145430000000000e+03 -7.388257407566550e+01 -2.918975276816622e+03
-1.145430000000000e+03 -7.488098723884998e+01 -2.918975276816622e+03
-1.145430000000000e+03 -7.587940040203480e+01 -2.918975276816622e+03
-1.145430000000000e+03 -7.687781356521928e+01 -2.918975276816622e+03
-1.145430000000000e+03 -7.787622672840411e+01 -2.918975276816622e+03
-1.145430000000000e+03 -7.887463989158859e+01 -2.918975276816622e+03
-1.145430000000000e+03 -7.987305305477341e+01 -2.918975276816622e+03
-1.145430000000000e+03 -8.087146621795824e+01 -2.918975276816622e+03
-1.145430000000000e+03 -8.186987938114271e+01 -2.918975276816622e+03
-1.145430000000000e+03 -8.286829254432755e+01 -2.918975276816622e+03
-1.145430000000000e+03 -8.386670570751201e+01 -2.918975276816622e+03
-1.145430000000000e+03 -8.486511887069685e+01 -2.918975276816622e+03
-1.145430000000000e+03 -8.586353203388131e+01 -2.918975276816622e+03
-1.145430000000000e+03 -8.686194519706615e+01 -2.918975276816622e+03
-1.145430000000000e+03 -8.786035836025063e+01 -2.918975276816622e+03
-1.145430000000000e+03 -8.885877152343545e+01 -2.918975276816622e+03
-1.145430000000000e+03 -8.985718468661993e+01 -2.918975276816622e+03
-1.145430000000000e+03 -9.085559784980477e+01 -2.918975276816622e+03
-1.145430000000000e+03 -9.185401101298956e+01 -2.918975276816622e+03
-1.145430000000000e+03 -9.285242417617407e+01 -2.918975276816622e+03
-1.145430000000000e+03 -9.385083733935886e+01 -2.918975276816622e+03
-1.145430000000000e+03 -9.484925050254337e+01 -2.918975276816622e+03
-1.145430000000000e+03 -9.584766366572816e+01 -2.918975276816622e+03
-1.145430000000000e+03 -9.684607682891267e+01 -2.918975276816622e+03
-1.145430000000000e+03 -9.784448999209748e+01 -2.918975276816622e+03
-1.145430000000000e+03 -9.884290315528197e+01 -2.918975276816622e+03
-1.145430000000000e+03 -9.984131631846678e+01 -2.918975276816622e+03
-1.145430000000000e+03 -1.008397294816516e+02 -2.918975276816622e+03
-1.145430000000000e+03 -1.018381426448361e+02 -2.918975276816622e+03
-1.145430000000000e+03 -1.028365558080209e+02 -2.918975276816622e+03
-1.145430000000000e+03 -1.038349689712054e+02 -2.918975276816622e+03
-1.145430000000000e+03 -1.048333821343902e+02 -2.918975276816622e+03
-1.145430000000000e+03 -1.058317952975747e+02 -2.918975276816622e+03
-1.145430000000000e+03 -1.068302084607595e+02 -2.918975276816622e+03
-1.145430000000000e+03 -1.078286216239440e+02 -2.918975276816622e+03
-1.145430000000000e+03 -1.088270347871288e+02 -2.918975276816622e+03
-1.145430000000000e+03 -1.098254479503133e+02 -2.918975276816622e+03
-1.145430000000000e+03 -1.108238611134981e+02 -2.918975276816622e+03
-1.145430000000000e+03 -1.118222742766829e+02 -2.918975276816622e+03
-1.145430000000000e+03 -1.128206874398674e+02 -2.918975276816622e+03
-1.145430000000000e+03 -1.138191006030522e+02 -2.918975276816622e+03
-1.145430000000000e+03 -1.148175137662367e+02 -2.918975276816622e+03
-1.145430000000000e+03 -1.158159269294215e+02 -2.918975276816622e+03
-1.145430000000000e+03 -1.168143400926060e+02 -2.918975276816622e+03
-1.145430000000000e+03 -1.178127532557908e+02 -2.918975276816622e+03
-1.145430000000000e+03 -1.188111664189753e+02 -2.918975276816622e+03
-1.145430000000000e+03 -1.198095795821601e+02 -2.918975276816622e+03
-1.145430000000000e+03 -1.208079927453449e+02 -2.918975276816622e+03
-1.145430000000000e+03 -1.218064059085294e+02 -2.918975276816622e+03
-1.145430000000000e+03 -1.228048190717142e+02 -2.918975276816622e+03
-1.145430000000000e+03 -1.238032322348987e+02 -2.918975276816622e+03
-1.145430000000000e+03 -1.248016453980835e+02 -2.918975276816622e+03
-1.145430000000000e+03 -1.258000585612680e+02 -2.918975276816622e+03
-1.145430000000000e+03 -1.267984717244529e+02 -2.918975276816622e+03
-1.145430000000000e+03 -1.277968848876373e+02 -2.918975276816622e+03
-1.145430000000000e+03 -1.287952980508221e+02 -2.918975276816622e+03
-1.145430000000000e+03 -1.297937112140066e+02 -2.918975276816622e+03
-1.145430000000000e+03 -1.307921243771914e+02 -2.918975276816622e+03
-1.145430000000000e+03 -1.317905375403762e+02 -2.918975276816622e+03
-1.145430000000000e+03 -1.327889507035608e+02 -2.918975276816622e+03
-1.145430000000000e+03 -1.337873638667456e+02 -2.918975276816622e+03
-1.145430000000000e+03 -1.347857770299301e+02 -2.918975276816622e+03
-1.145430000000000e+03 -1.357841901931149e+02 -2.918975276816622e+03
-1.145430000000000e+03 -1.367826033562994e+02 -2.918975276816622e+03
-1.145430000000000e+03 -1.377810165194842e+02 -2.918975276816622e+03
-1.145430000000000e+03 -1.387794296826687e+02 -2.918975276816622e+03
-1.145430000000000e+03 -1.397778428458535e+02 -2.918975276816622e+03
-1.145430000000000e+03 -1.407762560090383e+02 -2.918975276816622e+03
-1.145430000000000e+03 -1.417746691722228e+02 -2.918975276816622e+03
-1.145430000000000e+03 -1.427730823354076e+02 -2.918975276816622e+03
-1.145430000000000e+03 -1.437714954985921e+02 -2.918975276816622e+03
-1.145430000000000e+03 -1.447699086617769e+02 -2.918975276816622e+03
-1.145430000000000e+03 -1.457683218249614e+02 -2.918975276816622e+03
-1.145430000000000e+03 -1.467667349881462e+02 -2.918975276816622e+03
-1.145430000000000e+03 -1.477651481513307e+02 -2.918975276816622e+03
-1.145430000000000e+03 -1.487635613145155e+02 -2.918975276816622e+03
-1.145430000000000e+03 -1.497619744777000e+02 -2.918975276816622e+03
-1.145430000000000e+03 -1.507603876408848e+02 -2.918975276816622e+03
-1.145430000000000e+03 -1.517588008040696e+02 -2.918975276816622e+03
-1.145430000000000e+03 -1.527572139672541e+02 -2.918975276816622e+03
-1.145430000000000e+03 -1.537556271304389e+02 -2.918975276816622e+03
-1.145430000000000e+03 -1.547540402936234e+02 -2.918975276816622e+03
-1.145430000000000e+03 -1.557524534568082e+02 -2.918975276816622e+03
-1.145430000000000e+03 -1.567508666199927e+02 -2.918975276816622e+03
-1.145430000000000e+03 -1.577492797831775e+02 -2.918975276816622e+03
-1.145430000000000e+03 -1.587476929463620e+02 -2.918975276816622e+03
-1.145430000000000e+03 -1.597461061095468e+02 -2.918975276816622e+03
-1.145430000000000e+03 -1.607445192727317e+02 -2.918975276816622e+03
-1.145430000000000e+03 -1.617429324359161e+02 -2.918975276816622e+03
-1.145430000000000e+03 -1.627413455991010e+02 -2.918975276816622e+03
-1.145430000000000e+03 -1.637397587622854e+02 -2.918975276816622e+03
-1.145430000000000e+03 -1.647381719254702e+02 -2.918975276816622e+03
-1.145430000000000e+03 -1.657365850886547e+02 -2.918975276816622e+03
-1.145430000000000e+03 -1.667349982518395e+02 -2.918975276816622e+03
-1.145430000000000e+03 -1.677334114150240e+02 -2.918975276816622e+03
-1.145430000000000e+03 -1.687318245782089e+02 -2.918975276816622e+03
-1.145430000000000e+03 -1.697302377413933e+02 -2.918975276816622e+03
-1.145430000000000e+03 -1.707286509045782e+02 -2.918975276816622e+03
-1.145430000000000e+03 -1.717270640677630e+02 -2.918975276816622e+03
-1.145430000000000e+03 -1.727254772309475e+02 -2.918975276816622e+03
-1.145430000000000e+03 -1.737238903941323e+02 -2.918975276816622e+03
-1.145430000000000e+03 -1.747223035573168e+02 -2.918975276816622e+03
-1.145430000000000e+03 -1.757207167205016e+02 -2.918975276816622e+03
-1.145430000000000e+03 -1.767191298836861e+02 -2.918975276816622e+03
-1.145430000000000e+03 -1.777175430468709e+02 -2.918975276816622e+03
-1.145430000000000e+03 -1.787159562100554e+02 -2.918975276816622e+03
-1.145430000000000e+03 -1.797143693732402e+02 -2.918975276816622e+03
-1.145430000000000e+03 -1.807127825364250e+02 -2.918975276816622e+03
-1.145430000000000e+03 -1.817111956996095e+02 -2.918975276816622e+03
-1.145430000000000e+03 -1.827096088627943e+02 -2.918975276816622e+03
-1.145430000000000e+03 -1.837080220259788e+02 -2.918975276816622e+03
-1.145430000000000e+03 -1.847064351891636e+02 -2.918975276816622e+03
-1.145430000000000e+03 -1.857048483523481e+02 -2.918975276816622e+03
-1.145430000000000e+03 -1.867032615155329e+02 -2.918975276816622e+03
-1.145430000000000e+03 -1.877016746787174e+02 -2.918975276816622e+03
-1.145430000000000e+03 -1.887000878419022e+02 -2.918975276816622e+03
-1.145430000000000e+03 -1.896985010050867e+02 -2.918975276816622e+03
-1.145430000000000e+03 -1.906969141682715e+02 -2.918975276816622e+03
-1.145430000000000e+03 -1.916953273314563e+02 -2.918975276816622e+03
-1.145430000000000e+03 -1.926937404946408e+02 -2.918975276816622e+03
-1.145430000000000e+03 -1.936921536578257e+02 -2.918975276816622e+03
-1.145430000000000e+03 -1.946905668210101e+02 -2.918975276816622e+03
-1.145430000000000e+03 -1.956889799841950e+02 -2.918975276816622e+03
-1.145430000000000e+03 -1.966873931473794e+02 -2.918975276816622e+03
-1.145430000000000e+03 -1.976858063105643e+02 -2.918975276816622e+03
-1.145430000000000e+03 -1.986842194737487e+02 -2.918975276816622e+03
-1.145430000000000e+03 -1.996826326369336e+02 -2.918975276816622e+03
-1.145430000000000e+03 -2.006810458001183e+02 -2.918975276816622e+03
-1.145430000000000e+03 -2.016794589633029e+02 -2.918975276816622e+03
-1.145430000000000e+03 -2.026778721264876e+02 -2.918975276816622e+03
-1.145430000000000e+03 -2.036762852896721e+02 -2.918975276816622e+03
-1.145430000000000e+03 -2.046746984528569e+02 -2.918975276816622e+03
-1.145430000000000e+03 -2.056731116160414e+02 -2.918975276816622e+03
-1.145430000000000e+03 -2.066715247792262e+02 -2.918975276816622e+03
-1.145430000000000e+03 -2.076699379424107e+02 -2.918975276816622e+03
-1.145430000000000e+03 -2.086683511055955e+02 -2.918975276816622e+03
-1.145430000000000e+03 -2.096667642687800e+02 -2.918975276816622e+03
-1.145430000000000e+03 -2.106651774319648e+02 -2.918975276816622e+03
-1.145430000000000e+03 -2.116635905951497e+02 -2.918975276816622e+03
-1.145430000000000e+03 -2.126620037583342e+02 -2.918975276816622e+03
-1.145430000000000e+03 -2.136604169215190e+02 -2.918975276816622e+03
-1.145430000000000e+03 -2.146588300847035e+02 -2.918975276816622e+03
-1.145430000000000e+03 -2.156572432478883e+02 -2.918975276816622e+03
-1.145430000000000e+03 -2.166556564110728e+02 -2.918975276816622e+03
-1.145430000000000e+03 -2.176540695742576e+02 -2.918975276816622e+03
-1.145430000000000e+03 -2.186524827374421e+02 -2.918975276816622e+03
-1.145430000000000e+03 -2.196508959006269e+02 -2.918975276816622e+03
-1.145430000000000e+03 -2.206493090638117e+02 -2.918975276816622e+03
-1.145430000000000e+03 -2.216477222269962e+02 -2.918975276816622e+03
-1.145430000000000e+03 -2.226461353901810e+02 -2.918975276816622e+03
-1.145430000000000e+03 -2.236445485533655e+02 -2.918975276816622e+03
-1.145430000000000e+03 -2.246429617165503e+02 -2.918975276816622e+03
-1.145430000000000e+03 -2.256413748797348e+02 -2.918975276816622e+03
-1.145430000000000e+03 -2.266397880429196e+02 -2.918975276816622e+03
-1.145430000000000e+03 -2.276382012061041e+02 -2.918975276816622e+03
-1.145430000000000e+03 -2.286366143692889e+02 -2.918975276816622e+03
-1.145430000000000e+03 -2.296350275324734e+02 -2.918975276816622e+03
-1.145430000000000e+03 -2.306334406956582e+02 -2.918975276816622e+03
-1.145430000000000e+03 -2.316318538588430e+02 -2.918975276816622e+03
-1.145430000000000e+03 -2.326302670220275e+02 -2.918975276816622e+03
-1.145430000000000e+03 -2.336286801852123e+02 -2.918975276816622e+03
-1.145430000000000e+03 -2.346270933483968e+02 -2.918975276816622e+03
-1.145430000000000e+03 -2.356255065115816e+02 -2.918975276816622e+03
-1.145430000000000e+03 -2.366239196747661e+02 -2.918975276816622e+03
-1.145430000000000e+03 -2.376223328379509e+02 -2.918975276816622e+03
-1.145430000000000e+03 -2.386207460011354e+02 -2.918975276816622e+03
-1.145430000000000e+03 -2.396191591643202e+02 -2.918975276816622e+03
-1.145430000000000e+03 -2.406175723275051e+02 -2.918975276816622e+03
-1.145430000000000e+03 -2.416159854906895e+02 -2.918975276816622e+03
-1.145430000000000e+03 -2.426143986538744e+02 -2.918975276816622e+03
-1.145430000000000e+03 -2.436128118170589e+02 -2.918975276816622e+03
-1.145430000000000e+03 -2.446112249802437e+02 -2.918975276816622e+03
-1.145430000000000e+03 -2.456096381434282e+02 -2.918975276816622e+03
-1.145430000000000e+03 -2.466080513066130e+02 -2.918975276816622e+03
-1.145430000000000e+03 -2.476064644697975e+02 -2.918975276816622e+03
-1.145430000000000e+03 -2.486048776329823e+02 -2.918975276816622e+03
-1.145430000000000e+03 -2.496032907961668e+02 -2.918975276816622e+03
-1.145430000000000e+03 -2.506017039593516e+02 -2.918975276816622e+03
-1.145430000000000e+03 -2.516001171225364e+02 -2.918975276816622e+03
-1.145430000000000e+03 -2.525985302857209e+02 -2.918975276816622e+03
-1.145430000000000e+03 -2.535969434489057e+02 -2.918975276816622e+03
-1.145430000000000e+03 -2.545953566120902e+02 -2.918975276816622e+03
-1.145430000000000e+03 -2.555937697752750e+02 -2.918975276816622e+03
-1.145430000000000e+03 -2.565921829384595e+02 -2.918975276816622e+03
-1.145430000000000e+03 -2.575905961016443e+02 -2.918975276816622e+03
-1.145430000000000e+03 -2.585890092648288e+02 -2.918975276816622e+03
-1.145430000000000e+03 -2.595874224280136e+02 -2.918975276816622e+03
-1.145430000000000e+03 -2.605858355911981e+02 -2.918975276816622e+03
-1.145430000000000e+03 -2.615842487543829e+02 -2.918975276816622e+03
-1.145430000000000e+03 -2.625826619175677e+02 -2.918975276816622e+03
-1.145430000000000e+03 -2.635810750807522e+02 -2.918975276816622e+03
-1.145430000000000e+03 -2.645794882439370e+02 -2.918975276816622e+03
-1.145430000000000e+03 -2.655779014071215e+02 -2.918975276816622e+03
-1.145430000000000e+03 -2.665763145703064e+02 -2.918975276816622e+03
-1.145430000000000e+03 -2.675747277334908e+02 -2.918975276816622e+03
-1.145430000000000e+03 -2.685731408966756e+02 -2.918975276816622e+03
-1.145430000000000e+03 -2.695715540598601e+02 -2.918975276816622e+03
-1.145430000000000e+03 -2.705699672230450e+02 -2.918975276816622e+03
-1.145430000000000e+03 -2.715683803862298e+02 -2.918975276816622e+03
-1.145430000000000e+03 -2.725667935494142e+02 -2.918975276816622e+03
-1.145430000000000e+03 -2.735652067125990e+02 -2.918975276816622e+03
-1.145430000000000e+03 -2.745636198757836e+02 -2.918975276816622e+03
-1.145430000000000e+03 -2.755620330389683e+02 -2.918975276816622e+03
-1.145430000000000e+03 -2.765604462021528e+02 -2.918975276816622e+03
-1.145430000000000e+03 -2.775588593653376e+02 -2.918975276816622e+03
-1.145430000000000e+03 -2.785572725285221e+02 -2.918975276816622e+03
-1.145430000000000e+03 -2.795556856917070e+02 -2.918975276816622e+03
-1.145430000000000e+03 -2.805540988548914e+02 -2.918975276816622e+03
-1.145430000000000e+03 -2.815525120180762e+02 -2.918975276816622e+03
-1.145430000000000e+03 -2.825509251812611e+02 -2.918975276816622e+03
-1.145430000000000e+03 -2.835493383444456e+02 -2.918975276816622e+03
-1.145430000000000e+03 -2.845477515076304e+02 -2.918975276816622e+03
-1.145430000000000e+03 -2.855461646708148e+02 -2.918975276816622e+03
-1.145430000000000e+03 -2.865445778339997e+02 -2.918975276816622e+03
-1.145430000000000e+03 -2.875429909971842e+02 -2.918975276816622e+03
-1.145430000000000e+03 -2.885414041603691e+02 -2.918975276816622e+03
-1.145430000000000e+03 -2.895398173235534e+02 -2.918975276816622e+03
-1.145430000000000e+03 -2.905382304867383e+02 -2.918975276816622e+03
-1.145430000000000e+03 -2.915366436499231e+02 -2.918975276816622e+03
-1.145430000000000e+03 -2.925350568131077e+02 -2.918975276816622e+03
-1.145430000000000e+03 -2.935334699762925e+02 -2.918975276816622e+03
-1.145430000000000e+03 -2.945318831394769e+02 -2.918975276816622e+03
-1.145430000000000e+03 -2.955302963026617e+02 -2.918975276816622e+03
-1.145430000000000e+03 -2.965287094658462e+02 -2.918975276816622e+03
-1.145430000000000e+03 -2.975271226290312e+02 -2.918975276816622e+03
-1.145430000000000e+03 -2.985255357922155e+02 -2.918975276816622e+03
-1.145430000000000e+03 -2.995239489554003e+02 -2.918975276816622e+03
-1.145430000000000e+03 -3.005223621185849e+02 -2.918975276816622e+03
-1.145430000000000e+03 -3.015207752817698e+02 -2.918975276816622e+03
-1.145430000000000e+03 -3.025191884449544e+02 -2.918975276816622e+03
-1.145430000000000e+03 -3.035176016081389e+02 -2.918975276816622e+03
-1.145430000000000e+03 -3.045160147713238e+02 -2.918975276816622e+03
-1.145430000000000e+03 -3.055144279345084e+02 -2.918975276816622e+03
-1.145430000000000e+03 -3.065128410976930e+02 -2.918975276816622e+03
-1.145430000000000e+03 -3.075112542608775e+02 -2.918975276816622e+03
-1.145430000000000e+03 -3.085096674240624e+02 -2.918975276816622e+03
-1.145430000000000e+03 -3.095080805872470e+02 -2.918975276816622e+03
-1.145430000000000e+03 -3.105064937504316e+02 -2.918975276816622e+03
-1.145430000000000e+03 -3.115049069136164e+02 -2.918975276816622e+03
-1.145430000000000e+03 -3.125033200768010e+02 -2.918975276816622e+03
-1.145430000000000e+03 -3.135017332399859e+02 -2.918975276816622e+03
-1.145430000000000e+03 -3.145001464031702e+02 -2.918975276816622e+03
-1.145430000000000e+03 -3.154985595663550e+02 -2.918975276816622e+03
-1.145430000000000e+03 -3.164969727295396e+02 -2.918975276816622e+03
-1.145430000000000e+03 -3.174953858927245e+02 -2.918975276816622e+03
-1.145430000000000e+03 -3.184937990559088e+02 -2.918975276816622e+03
-1.145430000000000e+03 -3.194922122190936e+02 -2.918975276816622e+03
-1.145430000000000e+03 -3.204906253822782e+02 -2.918975276816622e+03
-1.145430000000000e+03 -3.214890385454631e+02 -2.918975276816622e+03
-1.145430000000000e+03 -3.224874517086477e+02 -2.918975276816622e+03
-1.145430000000000e+03 -3.234858648718322e+02 -2.918975276816622e+03
-1.145430000000000e+03 -3.244842780350171e+02 -2.918975276816622e+03
-1.145430000000000e+03 -3.254826911982017e+02 -2.918975276816622e+03
-1.145430000000000e+03 -3.264811043613863e+02 -2.918975276816622e+03
-1.145430000000000e+03 -3.274795175245708e+02 -2.918975276816622e+03
-1.145430000000000e+03 -3.284779306877557e+02 -2.918975276816622e+03
-1.145430000000000e+03 -3.294763438509403e+02 -2.918975276816622e+03
-1.145430000000000e+03 -3.304747570141249e+02 -2.918975276816622e+03
-1.145430000000000e+03 -3.314731701773097e+02 -2.918975276816622e+03
-1.145430000000000e+03 -3.324715833404943e+02 -2.918975276816622e+03
-1.145430000000000e+03 -3.334699965036792e+02 -2.918975276816622e+03
-1.145430000000000e+03 -3.344684096668635e+02 -2.918975276816622e+03
-1.145430000000000e+03 -3.354668228300483e+02 -2.918975276816622e+03
-1.145430000000000e+03 -3.364652359932329e+02 -2.918975276816622e+03
-1.145430000000000e+03 -3.374636491564178e+02 -2.918975276816622e+03
-1.145430000000000e+03 -3.384620623196021e+02 -2.918975276816622e+03
-1.145430000000000e+03 -3.394604754827869e+02 -2.918975276816622e+03
-1.145430000000000e+03 -3.404588886459715e+02 -2.918975276816622e+03
-1.145430000000000e+03 -3.414573018091564e+02 -2.918975276816622e+03
-1.145430000000000e+03 -3.424557149723413e+02 -2.918975276816622e+03
-1.145430000000000e+03 -3.434541281355255e+02 -2.918975276816622e+03
-1.145430000000000e+03 -3.444525412987104e+02 -2.918975276816622e+03
-1.145430000000000e+03 -3.454509544618950e+02 -2.918975276816622e+03
-1.145430000000000e+03 -3.464493676250799e+02 -2.918975276816622e+03
-1.145430000000000e+03 -3.474477807882641e+02 -2.918975276816622e+03
-1.145430000000000e+03 -3.484461939514490e+02 -2.918975276816622e+03
-1.145430000000000e+03 -3.494446071146336e+02 -2.918975276816622e+03
-1.145430000000000e+03 -3.504430202778185e+02 -2.918975276816622e+03
-1.145430000000000e+03 -3.514414334410030e+02 -2.918975276816622e+03
-1.145430000000000e+03 -3.524398466041876e+02 -2.918975276816622e+03
-1.145430000000000e+03 -3.534382597673725e+02 -2.918975276816622e+03
-1.145430000000000e+03 -3.544366729305571e+02 -2.918975276816622e+03
-1.145430000000000e+03 -3.554350860937416e+02 -2.918975276816622e+03
-1.145430000000000e+03 -3.564334992569262e+02 -2.918975276816622e+03
-1.145430000000000e+03 -3.574319124201111e+02 -2.918975276816622e+03
-1.145430000000000e+03 -3.584303255832957e+02 -2.918975276816622e+03
-1.145430000000000e+03 -3.594287387464802e+02 -2.918975276816622e+03
-1.145430000000000e+03 -3.604271519096648e+02 -2.918975276816622e+03
-1.145430000000000e+03 -3.614255650728497e+02 -2.918975276816622e+03
-1.145430000000000e+03 -3.624239782360346e+02 -2.918975276816622e+03
-1.145430000000000e+03 -3.634223913992188e+02 -2.918975276816622e+03
-1.145430000000000e+03 -3.644208045624037e+02 -2.918975276816622e+03
-1.145430000000000e+03 -3.654192177255883e+02 -2.918975276816622e+03
-1.145430000000000e+03 -3.664176308887732e+02 -2.918975276816622e+03
-1.145430000000000e+03 -3.674160440519575e+02 -2.918975276816622e+03
-1.145430000000000e+03 -3.684144572151423e+02 -2.918975276816622e+03
-1.145430000000000e+03 -3.694128703783269e+02 -2.918975276816622e+03
-1.145430000000000e+03 -3.704112835415118e+02 -2.918975276816622e+03
-1.145430000000000e+03 -3.714096967046967e+02 -2.918975276816622e+03
-1.145430000000000e+03 -3.724081098678809e+02 -2.918975276816622e+03
-1.145430000000000e+03 -3.734065230310658e+02 -2.918975276816622e+03
-1.145430000000000e+03 -3.744049361942504e+02 -2.918975276816622e+03
-1.145430000000000e+03 -3.754033493574353e+02 -2.918975276816622e+03
-1.145430000000000e+03 -3.764017625206195e+02 -2.918975276816622e+03
-1.145430000000000e+03 -3.774001756838044e+02 -2.918975276816622e+03
-1.145430000000000e+03 -3.783985888469890e+02 -2.918975276816622e+03
-1.145430000000000e+03 -3.793970020101739e+02 -2.918975276816622e+03
-1.145430000000000e+03 -3.803954151733581e+02 -2.918975276816622e+03
-1.145430000000000e+03 -3.813938283365430e+02 -2.918975276816622e+03
-1.145430000000000e+03 -3.823922414997278e+02 -2.918975276816622e+03
-1.145430000000000e+03 -3.833906546629125e+02 -2.918975276816622e+03
-1.145430000000000e+03 -3.843890678260971e+02 -2.918975276816622e+03
-1.145430000000000e+03 -3.853874809892816e+02 -2.918975276816622e+03
-1.145430000000000e+03 -3.863858941524674e+02 -2.918975276816622e+03
-1.145430000000000e+03  3.863858941524653e+02 -2.918975276816622e+03
-1.145430000000000e+03  3.853874809892819e+02 -2.918975276816622e+03
-1.145430000000000e+03  3.843890678260977e+02 -2.918975276816622e+03
-1.145430000000000e+03  3.833906546629128e+02 -2.918975276816622e+03
-1.145430000000000e+03  3.823922414997282e+02 -2.918975276816622e+03
-1.145430000000000e+03  3.813938283365433e+02 -2.918975276816622e+03
-1.145430000000000e+03  3.803954151733585e+02 -2.918975276816622e+03
-1.145430000000000e+03  3.793970020101742e+02 -2.918975276816622e+03
-1.145430000000000e+03  3.783985888469892e+02 -2.918975276816622e+03
-1.145430000000000e+03  3.774001756838047e+02 -2.918975276816622e+03
-1.145430000000000e+03  3.764017625206199e+02 -2.918975276816622e+03
-1.145430000000000e+03  3.754033493574355e+02 -2.918975276816622e+03
-1.145430000000000e+03  3.744049361942506e+02 -2.918975276816622e+03
-1.145430000000000e+03  3.734065230310661e+02 -2.918975276816622e+03
-1.145430000000000e+03  3.724081098678813e+02 -2.918975276816622e+03
-1.145430000000000e+03  3.714096967046969e+02 -2.918975276816622e+03
-1.145430000000000e+03  3.704112835415120e+02 -2.918975276816622e+03
-1.145430000000000e+03  3.694128703783272e+02 -2.918975276816622e+03
-1.145430000000000e+03  3.684144572151426e+02 -2.918975276816622e+03
-1.145430000000000e+03  3.674160440519581e+02 -2.918975276816622e+03
-1.145430000000000e+03  3.664176308887734e+02 -2.918975276816622e+03
-1.145430000000000e+03  3.654192177255886e+02 -2.918975276816622e+03
-1.145430000000000e+03  3.644208045624040e+02 -2.918975276816622e+03
-1.145430000000000e+03  3.634223913992195e+02 -2.918975276816622e+03
-1.145430000000000e+03  3.624239782360348e+02 -2.918975276816622e+03
-1.145430000000000e+03  3.614255650728500e+02 -2.918975276816622e+03
-1.145430000000000e+03  3.604271519096651e+02 -2.918975276816622e+03
-1.145430000000000e+03  3.594287387464808e+02 -2.918975276816622e+03
-1.145430000000000e+03  3.584303255832960e+02 -2.918975276816622e+03
-1.145430000000000e+03  3.574319124201114e+02 -2.918975276816622e+03
-1.145430000000000e+03  3.564334992569265e+02 -2.918975276816622e+03
-1.145430000000000e+03  3.554350860937422e+02 -2.918975276816622e+03
-1.145430000000000e+03  3.544366729305574e+02 -2.918975276816622e+03
-1.145430000000000e+03  3.534382597673728e+02 -2.918975276816622e+03
-1.145430000000000e+03  3.524398466041879e+02 -2.918975276816622e+03
-1.145430000000000e+03  3.514414334410036e+02 -2.918975276816622e+03
-1.145430000000000e+03  3.504430202778188e+02 -2.918975276816622e+03
-1.145430000000000e+03  3.494446071146339e+02 -2.918975276816622e+03
-1.145430000000000e+03  3.484461939514493e+02 -2.918975276816622e+03
-1.145430000000000e+03  3.474477807882644e+02 -2.918975276816622e+03
-1.145430000000000e+03  3.464493676250801e+02 -2.918975276816622e+03
-1.145430000000000e+03  3.454509544618953e+02 -2.918975276816622e+03
-1.145430000000000e+03  3.444525412987106e+02 -2.918975276816622e+03
-1.145430000000000e+03  3.434541281355258e+02 -2.918975276816622e+03
-1.145430000000000e+03  3.424557149723415e+02 -2.918975276816622e+03
-1.145430000000000e+03  3.414573018091567e+02 -2.918975276816622e+03
-1.145430000000000e+03  3.404588886459718e+02 -2.918975276816622e+03
-1.145430000000000e+03  3.394604754827872e+02 -2.918975276816622e+03
-1.145430000000000e+03  3.384620623196027e+02 -2.918975276816622e+03
-1.145430000000000e+03  3.374636491564181e+02 -2.918975276816622e+03
-1.145430000000000e+03  3.364652359932332e+02 -2.918975276816622e+03
-1.145430000000000e+03  3.354668228300486e+02 -2.918975276816622e+03
-1.145430000000000e+03  3.344684096668641e+02 -2.918975276816622e+03
-1.145430000000000e+03  3.334699965036795e+02 -2.918975276816622e+03
-1.145430000000000e+03  3.324715833404946e+02 -2.918975276816622e+03
-1.145430000000000e+03  3.314731701773101e+02 -2.918975276816622e+03
-1.145430000000000e+03  3.304747570141254e+02 -2.918975276816622e+03
-1.145430000000000e+03  3.294763438509406e+02 -2.918975276816622e+03
-1.145430000000000e+03  3.284779306877559e+02 -2.918975276816622e+03
-1.145430000000000e+03  3.274795175245711e+02 -2.918975276816622e+03
-1.145430000000000e+03  3.264811043613868e+02 -2.918975276816622e+03
-1.145430000000000e+03  3.254826911982019e+02 -2.918975276816622e+03
-1.145430000000000e+03  3.244842780350173e+02 -2.918975276816622e+03
-1.145430000000000e+03  3.234858648718325e+02 -2.918975276816622e+03
-1.145430000000000e+03  3.224874517086482e+02 -2.918975276816622e+03
-1.145430000000000e+03  3.214890385454633e+02 -2.918975276816622e+03
-1.145430000000000e+03  3.204906253822785e+02 -2.918975276816622e+03
-1.145430000000000e+03  3.194922122190939e+02 -2.918975276816622e+03
-1.145430000000000e+03  3.184937990559091e+02 -2.918975276816622e+03
-1.145430000000000e+03  3.174953858927247e+02 -2.918975276816622e+03
-1.145430000000000e+03  3.164969727295399e+02 -2.918975276816622e+03
-1.145430000000000e+03  3.154985595663553e+02 -2.918975276816622e+03
-1.145430000000000e+03  3.145001464031704e+02 -2.918975276816622e+03
-1.145430000000000e+03  3.135017332399861e+02 -2.918975276816622e+03
-1.145430000000000e+03  3.125033200768012e+02 -2.918975276816622e+03
-1.145430000000000e+03  3.115049069136167e+02 -2.918975276816622e+03
-1.145430000000000e+03  3.105064937504318e+02 -2.918975276816622e+03
-1.145430000000000e+03  3.095080805872472e+02 -2.918975276816622e+03
-1.145430000000000e+03  3.085096674240626e+02 -2.918975276816622e+03
-1.145430000000000e+03  3.075112542608778e+02 -2.918975276816622e+03
-1.145430000000000e+03  3.065128410976932e+02 -2.918975276816622e+03
-1.145430000000000e+03  3.055144279345086e+02 -2.918975276816622e+03
-1.145430000000000e+03  3.045160147713240e+02 -2.918975276816622e+03
-1.145430000000000e+03  3.035176016081392e+02 -2.918975276816622e+03
-1.145430000000000e+03  3.025191884449546e+02 -2.918975276816622e+03
-1.145430000000000e+03  3.015207752817700e+02 -2.918975276816622e+03
-1.145430000000000e+03  3.005223621185852e+02 -2.918975276816622e+03
-1.145430000000000e+03  2.995239489554006e+02 -2.918975276816622e+03
-1.145430000000000e+03  2.985255357922157e+02 -2.918975276816622e+03
-1.145430000000000e+03  2.975271226290314e+02 -2.918975276816622e+03
-1.145430000000000e+03  2.965287094658465e+02 -2.918975276816622e+03
-1.145430000000000e+03  2.955302963026620e+02 -2.918975276816622e+03
-1.145430000000000e+03  2.945318831394771e+02 -2.918975276816622e+03
-1.145430000000000e+03  2.935334699762928e+02 -2.918975276816622e+03
-1.145430000000000e+03  2.925350568131079e+02 -2.918975276816622e+03
-1.145430000000000e+03  2.915366436499234e+02 -2.918975276816622e+03
-1.145430000000000e+03  2.905382304867385e+02 -2.918975276816622e+03
-1.145430000000000e+03  2.895398173235539e+02 -2.918975276816622e+03
-1.145430000000000e+03  2.885414041603693e+02 -2.918975276816622e+03
-1.145430000000000e+03  2.875429909971845e+02 -2.918975276816622e+03
-1.145430000000000e+03  2.865445778339999e+02 -2.918975276816622e+03
-1.145430000000000e+03  2.855461646708152e+02 -2.918975276816622e+03
-1.145430000000000e+03  2.845477515076307e+02 -2.918975276816622e+03
-1.145430000000000e+03  2.835493383444459e+02 -2.918975276816622e+03
-1.145430000000000e+03  2.825509251812614e+02 -2.918975276816622e+03
-1.145430000000000e+03  2.815525120180766e+02 -2.918975276816622e+03
-1.145430000000000e+03  2.805540988548918e+02 -2.918975276816622e+03
-1.145430000000000e+03  2.795556856917073e+02 -2.918975276816622e+03
-1.145430000000000e+03  2.785572725285224e+02 -2.918975276816622e+03
-1.145430000000000e+03  2.775588593653380e+02 -2.918975276816622e+03
-1.145430000000000e+03  2.765604462021532e+02 -2.918975276816622e+03
-1.145430000000000e+03  2.755620330389687e+02 -2.918975276816622e+03
-1.145430000000000e+03  2.745636198757838e+02 -2.918975276816622e+03
-1.145430000000000e+03  2.735652067125994e+02 -2.918975276816622e+03
-1.145430000000000e+03  2.725667935494146e+02 -2.918975276816622e+03
-1.145430000000000e+03  2.715683803862300e+02 -2.918975276816622e+03
-1.145430000000000e+03  2.705699672230452e+02 -2.918975276816622e+03
-1.145430000000000e+03  2.695715540598604e+02 -2.918975276816622e+03
-1.145430000000000e+03  2.685731408966760e+02 -2.918975276816622e+03
-1.145430000000000e+03  2.675747277334912e+02 -2.918975276816622e+03
-1.145430000000000e+03  2.665763145703067e+02 -2.918975276816622e+03
-1.145430000000000e+03  2.655779014071218e+02 -2.918975276816622e+03
-1.145430000000000e+03  2.645794882439374e+02 -2.918975276816622e+03
-1.145430000000000e+03  2.635810750807526e+02 -2.918975276816622e+03
-1.145430000000000e+03  2.625826619175680e+02 -2.918975276816622e+03
-1.145430000000000e+03  2.615842487543832e+02 -2.918975276816622e+03
-1.145430000000000e+03  2.605858355911984e+02 -2.918975276816622e+03
-1.145430000000000e+03  2.595874224280140e+02 -2.918975276816622e+03
-1.145430000000000e+03  2.585890092648291e+02 -2.918975276816622e+03
-1.145430000000000e+03  2.575905961016446e+02 -2.918975276816622e+03
-1.145430000000000e+03  2.565921829384598e+02 -2.918975276816622e+03
-1.145430000000000e+03  2.555937697752753e+02 -2.918975276816622e+03
-1.145430000000000e+03  2.545953566120905e+02 -2.918975276816622e+03
-1.145430000000000e+03  2.535969434489060e+02 -2.918975276816622e+03
-1.145430000000000e+03  2.525985302857212e+02 -2.918975276816622e+03
-1.145430000000000e+03  2.516001171225367e+02 -2.918975276816622e+03
-1.145430000000000e+03  2.506017039593519e+02 -2.918975276816622e+03
-1.145430000000000e+03  2.496032907961671e+02 -2.918975276816622e+03
-1.145430000000000e+03  2.486048776329826e+02 -2.918975276816622e+03
-1.145430000000000e+03  2.476064644697978e+02 -2.918975276816622e+03
-1.145430000000000e+03  2.466080513066133e+02 -2.918975276816622e+03
-1.145430000000000e+03  2.456096381434285e+02 -2.918975276816622e+03
-1.145430000000000e+03  2.446112249802440e+02 -2.918975276816622e+03
-1.145430000000000e+03  2.436128118170592e+02 -2.918975276816622e+03
-1.145430000000000e+03  2.426143986538747e+02 -2.918975276816622e+03
-1.145430000000000e+03  2.416159854906899e+02 -2.918975276816622e+03
-1.145430000000000e+03  2.406175723275054e+02 -2.918975276816622e+03
-1.145430000000000e+03  2.396191591643206e+02 -2.918975276816622e+03
-1.145430000000000e+03  2.386207460011358e+02 -2.918975276816622e+03
-1.145430000000000e+03  2.376223328379513e+02 -2.918975276816622e+03
-1.145430000000000e+03  2.366239196747665e+02 -2.918975276816622e+03
-1.145430000000000e+03  2.356255065115820e+02 -2.918975276816622e+03
-1.145430000000000e+03  2.346270933483971e+02 -2.918975276816622e+03
-1.145430000000000e+03  2.336286801852127e+02 -2.918975276816622e+03
-1.145430000000000e+03  2.326302670220279e+02 -2.918975276816622e+03
-1.145430000000000e+03  2.316318538588434e+02 -2.918975276816622e+03
-1.145430000000000e+03  2.306334406956585e+02 -2.918975276816622e+03
-1.145430000000000e+03  2.296350275324737e+02 -2.918975276816622e+03
-1.145430000000000e+03  2.286366143692892e+02 -2.918975276816622e+03
-1.145430000000000e+03  2.276382012061044e+02 -2.918975276816622e+03
-1.145430000000000e+03  2.266397880429199e+02 -2.918975276816622e+03
-1.145430000000000e+03  2.256413748797351e+02 -2.918975276816622e+03
-1.145430000000000e+03  2.246429617165506e+02 -2.918975276816622e+03
-1.145430000000000e+03  2.236445485533658e+02 -2.918975276816622e+03
-1.145430000000000e+03  2.226461353901813e+02 -2.918975276816622e+03
-1.145430000000000e+03  2.216477222269965e+02 -2.918975276816622e+03
-1.145430000000000e+03  2.206493090638120e+02 -2.918975276816622e+03
-1.145430000000000e+03  2.196508959006272e+02 -2.918975276816622e+03
-1.145430000000000e+03  2.186524827374424e+02 -2.918975276816622e+03
-1.145430000000000e+03  2.176540695742579e+02 -2.918975276816622e+03
-1.145430000000000e+03  2.166556564110731e+02 -2.918975276816622e+03
-1.145430000000000e+03  2.156572432478886e+02 -2.918975276816622e+03
-1.145430000000000e+03  2.146588300847038e+02 -2.918975276816622e+03
-1.145430000000000e+03  2.136604169215193e+02 -2.918975276816622e+03
-1.145430000000000e+03  2.126620037583345e+02 -2.918975276816622e+03
-1.145430000000000e+03  2.116635905951500e+02 -2.918975276816622e+03
-1.145430000000000e+03  2.106651774319652e+02 -2.918975276816622e+03
-1.145430000000000e+03  2.096667642687804e+02 -2.918975276816622e+03
-1.145430000000000e+03  2.086683511055959e+02 -2.918975276816622e+03
-1.145430000000000e+03  2.076699379424111e+02 -2.918975276816622e+03
-1.145430000000000e+03  2.066715247792266e+02 -2.918975276816622e+03
-1.145430000000000e+03  2.056731116160418e+02 -2.918975276816622e+03
-1.145430000000000e+03  2.046746984528573e+02 -2.918975276816622e+03
-1.145430000000000e+03  2.036762852896724e+02 -2.918975276816622e+03
-1.145430000000000e+03  2.026778721264880e+02 -2.918975276816622e+03
-1.145430000000000e+03  2.016794589633031e+02 -2.918975276816622e+03
-1.145430000000000e+03  2.006810458001187e+02 -2.918975276816622e+03
-1.145430000000000e+03  1.996826326369338e+02 -2.918975276816622e+03
-1.145430000000000e+03  1.986842194737490e+02 -2.918975276816622e+03
-1.145430000000000e+03  1.976858063105645e+02 -2.918975276816622e+03
-1.145430000000000e+03  1.966873931473798e+02 -2.918975276816622e+03
-1.145430000000000e+03  1.956889799841952e+02 -2.918975276816622e+03
-1.145430000000000e+03  1.946905668210105e+02 -2.918975276816622e+03
-1.145430000000000e+03  1.936921536578259e+02 -2.918975276816622e+03
-1.145430000000000e+03  1.926937404946412e+02 -2.918975276816622e+03
-1.145430000000000e+03  1.916953273314567e+02 -2.918975276816622e+03
-1.145430000000000e+03  1.906969141682719e+02 -2.918975276816622e+03
-1.145430000000000e+03  1.896985010050870e+02 -2.918975276816622e+03
-1.145430000000000e+03  1.887000878419026e+02 -2.918975276816622e+03
-1.145430000000000e+03  1.877016746787177e+02 -2.918975276816622e+03
-1.145430000000000e+03  1.867032615155333e+02 -2.918975276816622e+03
-1.145430000000000e+03  1.857048483523484e+02 -2.918975276816622e+03
-1.145430000000000e+03  1.847064351891639e+02 -2.918975276816622e+03
-1.145430000000000e+03  1.837080220259791e+02 -2.918975276816622e+03
-1.145430000000000e+03  1.827096088627946e+02 -2.918975276816622e+03
-1.145430000000000e+03  1.817111956996098e+02 -2.918975276816622e+03
-1.145430000000000e+03  1.807127825364253e+02 -2.918975276816622e+03
-1.145430000000000e+03  1.797143693732405e+02 -2.918975276816622e+03
-1.145430000000000e+03  1.787159562100557e+02 -2.918975276816622e+03
-1.145430000000000e+03  1.777175430468712e+02 -2.918975276816622e+03
-1.145430000000000e+03  1.767191298836864e+02 -2.918975276816622e+03
-1.145430000000000e+03  1.757207167205019e+02 -2.918975276816622e+03
-1.145430000000000e+03  1.747223035573171e+02 -2.918975276816622e+03
-1.145430000000000e+03  1.737238903941326e+02 -2.918975276816622e+03
-1.145430000000000e+03  1.727254772309478e+02 -2.918975276816622e+03
-1.145430000000000e+03  1.717270640677633e+02 -2.918975276816622e+03
-1.145430000000000e+03  1.707286509045785e+02 -2.918975276816622e+03
-1.145430000000000e+03  1.697302377413937e+02 -2.918975276816622e+03
-1.145430000000000e+03  1.687318245782092e+02 -2.918975276816622e+03
-1.145430000000000e+03  1.677334114150244e+02 -2.918975276816622e+03
-1.145430000000000e+03  1.667349982518399e+02 -2.918975276816622e+03
-1.145430000000000e+03  1.657365850886551e+02 -2.918975276816622e+03
-1.145430000000000e+03  1.647381719254706e+02 -2.918975276816622e+03
-1.145430000000000e+03  1.637397587622858e+02 -2.918975276816622e+03
-1.145430000000000e+03  1.627413455991013e+02 -2.918975276816622e+03
-1.145430000000000e+03  1.617429324359165e+02 -2.918975276816622e+03
-1.145430000000000e+03  1.607445192727320e+02 -2.918975276816622e+03
-1.145430000000000e+03  1.597461061095472e+02 -2.918975276816622e+03
-1.145430000000000e+03  1.587476929463623e+02 -2.918975276816622e+03
-1.145430000000000e+03  1.577492797831779e+02 -2.918975276816622e+03
-1.145430000000000e+03  1.567508666199930e+02 -2.918975276816622e+03
-1.145430000000000e+03  1.557524534568086e+02 -2.918975276816622e+03
-1.145430000000000e+03  1.547540402936237e+02 -2.918975276816622e+03
-1.145430000000000e+03  1.537556271304393e+02 -2.918975276816622e+03
-1.145430000000000e+03  1.527572139672544e+02 -2.918975276816622e+03
-1.145430000000000e+03  1.517588008040699e+02 -2.918975276816622e+03
-1.145430000000000e+03  1.507603876408851e+02 -2.918975276816622e+03
-1.145430000000000e+03  1.497619744777003e+02 -2.918975276816622e+03
-1.145430000000000e+03  1.487635613145158e+02 -2.918975276816622e+03
-1.145430000000000e+03  1.477651481513310e+02 -2.918975276816622e+03
-1.145430000000000e+03  1.467667349881465e+02 -2.918975276816622e+03
-1.145430000000000e+03  1.457683218249617e+02 -2.918975276816622e+03
-1.145430000000000e+03  1.447699086617772e+02 -2.918975276816622e+03
-1.145430000000000e+03  1.437714954985924e+02 -2.918975276816622e+03
-1.145430000000000e+03  1.427730823354079e+02 -2.918975276816622e+03
-1.145430000000000e+03  1.417746691722231e+02 -2.918975276816622e+03
-1.145430000000000e+03  1.407762560090386e+02 -2.918975276816622e+03
-1.145430000000000e+03  1.397778428458538e+02 -2.918975276816622e+03
-1.145430000000000e+03  1.387794296826690e+02 -2.918975276816622e+03
-1.145430000000000e+03  1.377810165194845e+02 -2.918975276816622e+03
-1.145430000000000e+03  1.367826033562997e+02 -2.918975276816622e+03
-1.145430000000000e+03  1.357841901931152e+02 -2.918975276816622e+03
-1.145430000000000e+03  1.347857770299304e+02 -2.918975276816622e+03
-1.145430000000000e+03  1.337873638667459e+02 -2.918975276816622e+03
-1.145430000000000e+03  1.327889507035611e+02 -2.918975276816622e+03
-1.145430000000000e+03  1.317905375403766e+02 -2.918975276816622e+03
-1.145430000000000e+03  1.307921243771918e+02 -2.918975276816622e+03
-1.145430000000000e+03  1.297937112140069e+02 -2.918975276816622e+03
-1.145430000000000e+03  1.287952980508225e+02 -2.918975276816622e+03
-1.145430000000000e+03  1.277968848876376e+02 -2.918975276816622e+03
-1.145430000000000e+03  1.267984717244532e+02 -2.918975276816622e+03
-1.145430000000000e+03  1.258000585612683e+02 -2.918975276816622e+03
-1.145430000000000e+03  1.248016453980839e+02 -2.918975276816622e+03
-1.145430000000000e+03  1.238032322348990e+02 -2.918975276816622e+03
-1.145430000000000e+03  1.228048190717146e+02 -2.918975276816622e+03
-1.145430000000000e+03  1.218064059085297e+02 -2.918975276816622e+03
-1.145430000000000e+03  1.208079927453453e+02 -2.918975276816622e+03
-1.145430000000000e+03  1.198095795821604e+02 -2.918975276816622e+03
-1.145430000000000e+03  1.188111664189756e+02 -2.918975276816622e+03
-1.145430000000000e+03  1.178127532557911e+02 -2.918975276816622e+03
-1.145430000000000e+03  1.168143400926063e+02 -2.918975276816622e+03
-1.145430000000000e+03  1.158159269294218e+02 -2.918975276816622e+03
-1.145430000000000e+03  1.148175137662370e+02 -2.918975276816622e+03
-1.145430000000000e+03  1.138191006030525e+02 -2.918975276816622e+03
-1.145430000000000e+03  1.128206874398677e+02 -2.918975276816622e+03
-1.145430000000000e+03  1.118222742766832e+02 -2.918975276816622e+03
-1.145430000000000e+03  1.108238611134984e+02 -2.918975276816622e+03
-1.145430000000000e+03  1.098254479503136e+02 -2.918975276816622e+03
-1.145430000000000e+03  1.088270347871291e+02 -2.918975276816622e+03
-1.145430000000000e+03  1.078286216239443e+02 -2.918975276816622e+03
-1.145430000000000e+03  1.068302084607598e+02 -2.918975276816622e+03
-1.145430000000000e+03  1.058317952975750e+02 -2.918975276816622e+03
-1.145430000000000e+03  1.048333821343905e+02 -2.918975276816622e+03
-1.145430000000000e+03  1.038349689712057e+02 -2.918975276816622e+03
-1.145430000000000e+03  1.028365558080212e+02 -2.918975276816622e+03
-1.145430000000000e+03  1.018381426448364e+02 -2.918975276816622e+03
-1.145430000000000e+03  1.008397294816519e+02 -2.918975276816622e+03
-1.145430000000000e+03  9.984131631846709e+01 -2.918975276816622e+03
-1.145430000000000e+03  9.884290315528227e+01 -2.918975276816622e+03
-1.145430000000000e+03  9.784448999209779e+01 -2.918975276816622e+03
-1.145430000000000e+03  9.684607682891297e+01 -2.918975276816622e+03
-1.145430000000000e+03  9.584766366572849e+01 -2.918975276816622e+03
-1.145430000000000e+03  9.484925050254368e+01 -2.918975276816622e+03
-1.145430000000000e+03  9.385083733935917e+01 -2.918975276816622e+03
-1.145430000000000e+03  9.285242417617438e+01 -2.918975276816622e+03
-1.145430000000000e+03  9.185401101298989e+01 -2.918975276816622e+03
-1.145430000000000e+03  9.085559784980508e+01 -2.918975276816622e+03
-1.145430000000000e+03  8.985718468662027e+01 -2.918975276816622e+03
-1.145430000000000e+03  8.885877152343578e+01 -2.918975276816622e+03
-1.145430000000000e+03  8.786035836025097e+01 -2.918975276816622e+03
-1.145430000000000e+03  8.686194519706646e+01 -2.918975276816622e+03
-1.145430000000000e+03  8.586353203388167e+01 -2.918975276816622e+03
-1.145430000000000e+03  8.486511887069716e+01 -2.918975276816622e+03
-1.145430000000000e+03  8.386670570751237e+01 -2.918975276816622e+03
-1.145430000000000e+03  8.286829254432786e+01 -2.918975276816622e+03
-1.145430000000000e+03  8.186987938114305e+01 -2.918975276816622e+03
-1.145430000000000e+03  8.087146621795856e+01 -2.918975276816622e+03
-1.145430000000000e+03  7.987305305477375e+01 -2.918975276816622e+03
-1.145430000000000e+03  7.887463989158894e+01 -2.918975276816622e+03
-1.145430000000000e+03  7.787622672840445e+01 -2.918975276816622e+03
-1.145430000000000e+03  7.687781356521963e+01 -2.918975276816622e+03
-1.145430000000000e+03  7.587940040203515e+01 -2.918975276816622e+03
-1.145430000000000e+03  7.488098723885032e+01 -2.918975276816622e+03
-1.145430000000000e+03  7.388257407566584e+01 -2.918975276816622e+03
-1.145430000000000e+03  7.288416091248104e+01 -2.918975276816622e+03
-1.145430000000000e+03  7.188574774929654e+01 -2.918975276816622e+03
-1.145430000000000e+03  7.088733458611173e+01 -2.918975276816622e+03
-1.145430000000000e+03  6.988892142292690e+01 -2.918975276816622e+03
-1.145430000000000e+03  6.889050825974242e+01 -2.918975276816622e+03
-1.145430000000000e+03  6.789209509655758e+01 -2.918975276816622e+03
-1.145430000000000e+03  6.689368193337312e+01 -2.918975276816622e+03
-1.145430000000000e+03  6.589526877018828e+01 -2.918975276816622e+03
-1.145430000000000e+03  6.489685560700381e+01 -2.918975276816622e+03
-1.145430000000000e+03  6.389844244381898e+01 -2.918975276816622e+03
-1.145430000000000e+03  6.290002928063451e+01 -2.918975276816622e+03
-1.145430000000000e+03  6.190161611744968e+01 -2.918975276816622e+03
-1.145430000000000e+03  6.090320295426522e+01 -2.918975276816622e+03
-1.145430000000000e+03  5.990478979108038e+01 -2.918975276816622e+03
-1.145430000000000e+03  5.890637662789556e+01 -2.918975276816622e+03
-1.145430000000000e+03  5.790796346471107e+01 -2.918975276816622e+03
-1.145430000000000e+03  5.690955030152626e+01 -2.918975276816622e+03
-1.145430000000000e+03  5.591113713834177e+01 -2.918975276816622e+03
-1.145430000000000e+03  5.491272397515696e+01 -2.918975276816622e+03
-1.145430000000000e+03  5.391431081197247e+01 -2.918975276816622e+03
-1.145430000000000e+03  5.291589764878765e+01 -2.918975276816622e+03
-1.145430000000000e+03  5.191748448560316e+01 -2.918975276816622e+03
-1.145430000000000e+03  5.091907132241835e+01 -2.918975276816622e+03
-1.145430000000000e+03  4.992065815923355e+01 -2.918975276816622e+03
-1.145430000000000e+03  4.892224499604905e+01 -2.918975276816622e+03
-1.145430000000000e+03  4.792383183286424e+01 -2.918975276816622e+03
-1.145430000000000e+03  4.692541866967975e+01 -2.918975276816622e+03
-1.145430000000000e+03  4.592700550649494e+01 -2.918975276816622e+03
-1.145430000000000e+03  4.492859234331045e+01 -2.918975276816622e+03
-1.145430000000000e+03  4.393017918012564e+01 -2.918975276816622e+03
-1.145430000000000e+03  4.293176601694115e+01 -2.918975276816622e+03
-1.145430000000000e+03  4.193335285375634e+01 -2.918975276816622e+03
-1.145430000000000e+03  4.093493969057185e+01 -2.918975276816622e+03
-1.145430000000000e+03  3.993652652738703e+01 -2.918975276816622e+03
-1.145430000000000e+03  3.893811336420222e+01 -2.918975276816622e+03
-1.145430000000000e+03  3.793970020101773e+01 -2.918975276816622e+03
-1.145430000000000e+03  3.694128703783292e+01 -2.918975276816622e+03
-1.145430000000000e+03  3.594287387464843e+01 -2.918975276816622e+03
-1.145430000000000e+03  3.494446071146362e+01 -2.918975276816622e+03
-1.145430000000000e+03  3.394604754827913e+01 -2.918975276816622e+03
-1.145430000000000e+03  3.294763438509432e+01 -2.918975276816622e+03
-1.145430000000000e+03  3.194922122190982e+01 -2.918975276816622e+03
-1.145430000000000e+03  3.095080805872501e+01 -2.918975276816622e+03
-1.145430000000000e+03  2.995239489554020e+01 -2.918975276816622e+03
-1.145430000000000e+03  2.895398173235571e+01 -2.918975276816622e+03
-1.145430000000000e+03  2.795556856917089e+01 -2.918975276816622e+03
-1.145430000000000e+03  2.695715540598641e+01 -2.918975276816622e+03
-1.145430000000000e+03  2.595874224280159e+01 -2.918975276816622e+03
-1.145430000000000e+03  2.496032907961710e+01 -2.918975276816622e+03
-1.145430000000000e+03  2.396191591643229e+01 -2.918975276816622e+03
-1.145430000000000e+03  2.296350275324779e+01 -2.918975276816622e+03
-1.145430000000000e+03  2.196508959006298e+01 -2.918975276816622e+03
-1.145430000000000e+03  2.096667642687849e+01 -2.918975276816622e+03
-1.145430000000000e+03  1.996826326369368e+01 -2.918975276816622e+03
-1.145430000000000e+03  1.896985010050886e+01 -2.918975276816622e+03
-1.145430000000000e+03  1.797143693732438e+01 -2.918975276816622e+03
-1.145430000000000e+03  1.697302377413956e+01 -2.918975276816622e+03
-1.145430000000000e+03  1.597461061095507e+01 -2.918975276816622e+03
-1.145430000000000e+03  1.497619744777026e+01 -2.918975276816622e+03
-1.145430000000000e+03  1.397778428458577e+01 -2.918975276816622e+03
-1.145430000000000e+03  1.297937112140096e+01 -2.918975276816622e+03
-1.145430000000000e+03  1.198095795821647e+01 -2.918975276816622e+03
-1.145430000000000e+03  1.098254479503165e+01 -2.918975276816622e+03
-1.145430000000000e+03  9.984131631846841e+00 -2.918975276816622e+03
-1.145430000000000e+03  8.985718468662350e+00 -2.918975276816622e+03
-1.145430000000000e+03  7.987305305477538e+00 -2.918975276816622e+03
-1.145430000000000e+03  6.988892142293047e+00 -2.918975276816622e+03
-1.145430000000000e+03  5.990478979108235e+00 -2.918975276816622e+03
-1.145430000000000e+03  4.992065815923743e+00 -2.918975276816622e+03
-1.145430000000000e+03  3.993652652738932e+00 -2.918975276816622e+03
-1.145430000000000e+03  2.995239489554441e+00 -2.918975276816622e+03
-1.145430000000000e+03  1.996826326369628e+00 -2.918975276816622e+03
-1.145430000000000e+03  9.984131631851392e-01 -2.918975276816622e+03
1.142570000000000e+03 0.000000000000000e+00 2.918975276816622e+03
 1.142570000000000e+03 -9.984131631848139e-01  2.918975276816622e+03
 1.142570000000000e+03 -1.996826326369303e+00  2.918975276816622e+03
 1.142570000000000e+03 -2.995239489554117e+00  2.918975276816622e+03
 1.142570000000000e+03 -3.993652652738606e+00  2.918975276816622e+03
 1.142570000000000e+03 -4.992065815923421e+00  2.918975276816622e+03
 1.142570000000000e+03 -5.990478979107908e+00  2.918975276816622e+03
 1.142570000000000e+03 -6.988892142292723e+00  2.918975276816622e+03
 1.142570000000000e+03 -7.987305305477212e+00  2.918975276816622e+03
 1.142570000000000e+03 -8.985718468662027e+00  2.918975276816622e+03
 1.142570000000000e+03 -9.984131631846514e+00  2.918975276816622e+03
 1.142570000000000e+03 -1.098254479503133e+01  2.918975276816622e+03
 1.142570000000000e+03 -1.198095795821614e+01  2.918975276816622e+03
 1.142570000000000e+03 -1.297937112140063e+01  2.918975276816622e+03
 1.142570000000000e+03 -1.397778428458545e+01  2.918975276816622e+03
 1.142570000000000e+03 -1.497619744776993e+01  2.918975276816622e+03
 1.142570000000000e+03 -1.597461061095474e+01  2.918975276816622e+03
 1.142570000000000e+03 -1.697302377413924e+01  2.918975276816622e+03
 1.142570000000000e+03 -1.797143693732405e+01  2.918975276816622e+03
 1.142570000000000e+03 -1.896985010050854e+01  2.918975276816622e+03
 1.142570000000000e+03 -1.996826326369335e+01  2.918975276816622e+03
 1.142570000000000e+03 -2.096667642687817e+01  2.918975276816622e+03
 1.142570000000000e+03 -2.196508959006266e+01  2.918975276816622e+03
 1.142570000000000e+03 -2.296350275324747e+01  2.918975276816622e+03
 1.142570000000000e+03 -2.396191591643196e+01  2.918975276816622e+03
 1.142570000000000e+03 -2.496032907961677e+01  2.918975276816622e+03
 1.142570000000000e+03 -2.595874224280126e+01  2.918975276816622e+03
 1.142570000000000e+03 -2.695715540598608e+01  2.918975276816622e+03
 1.142570000000000e+03 -2.795556856917056e+01  2.918975276816622e+03
 1.142570000000000e+03 -2.895398173235539e+01  2.918975276816622e+03
 1.142570000000000e+03 -2.995239489553986e+01  2.918975276816622e+03
 1.142570000000000e+03 -3.095080805872470e+01  2.918975276816622e+03
 1.142570000000000e+03 -3.194922122190951e+01  2.918975276816622e+03
 1.142570000000000e+03 -3.294763438509401e+01  2.918975276816622e+03
 1.142570000000000e+03 -3.394604754827881e+01  2.918975276816622e+03
 1.142570000000000e+03 -3.494446071146330e+01  2.918975276816622e+03
 1.142570000000000e+03 -3.594287387464811e+01  2.918975276816622e+03
 1.142570000000000e+03 -3.694128703783261e+01  2.918975276816622e+03
 1.142570000000000e+03 -3.793970020101742e+01  2.918975276816622e+03
 1.142570000000000e+03 -3.893811336420191e+01  2.918975276816622e+03
 1.142570000000000e+03 -3.993652652738672e+01  2.918975276816622e+03
 1.142570000000000e+03 -4.093493969057153e+01  2.918975276816622e+03
 1.142570000000000e+03 -4.193335285375603e+01  2.918975276816622e+03
 1.142570000000000e+03 -4.293176601694083e+01  2.918975276816622e+03
 1.142570000000000e+03 -4.393017918012533e+01  2.918975276816622e+03
 1.142570000000000e+03 -4.492859234331014e+01  2.918975276816622e+03
 1.142570000000000e+03 -4.592700550649462e+01  2.918975276816622e+03
 1.142570000000000e+03 -4.692541866967943e+01  2.918975276816622e+03
 1.142570000000000e+03 -4.792383183286393e+01  2.918975276816622e+03
 1.142570000000000e+03 -4.892224499604874e+01  2.918975276816622e+03
 1.142570000000000e+03 -4.992065815923323e+01  2.918975276816622e+03
 1.142570000000000e+03 -5.091907132241803e+01  2.918975276816622e+03
 1.142570000000000e+03 -5.191748448560285e+01  2.918975276816622e+03
 1.142570000000000e+03 -5.291589764878734e+01  2.918975276816622e+03
 1.142570000000000e+03 -5.391431081197216e+01  2.918975276816622e+03
 1.142570000000000e+03 -5.491272397515664e+01  2.918975276816622e+03
 1.142570000000000e+03 -5.591113713834146e+01  2.918975276816622e+03
 1.142570000000000e+03 -5.690955030152595e+01  2.918975276816622e+03
 1.142570000000000e+03 -5.790796346471076e+01  2.918975276816622e+03
 1.142570000000000e+03 -5.890637662789525e+01  2.918975276816622e+03
 1.142570000000000e+03 -5.990478979108006e+01  2.918975276816622e+03
 1.142570000000000e+03 -6.090320295426487e+01  2.918975276816622e+03
 1.142570000000000e+03 -6.190161611744936e+01  2.918975276816622e+03
 1.142570000000000e+03 -6.290002928063417e+01  2.918975276816622e+03
 1.142570000000000e+03 -6.389844244381867e+01  2.918975276816622e+03
 1.142570000000000e+03 -6.489685560700347e+01  2.918975276816622e+03
 1.142570000000000e+03 -6.589526877018797e+01  2.918975276816622e+03
 1.142570000000000e+03 -6.689368193337278e+01  2.918975276816622e+03
 1.142570000000000e+03 -6.789209509655727e+01  2.918975276816622e+03
 1.142570000000000e+03 -6.889050825974208e+01  2.918975276816622e+03
 1.142570000000000e+03 -6.988892142292659e+01  2.918975276816622e+03
 1.142570000000000e+03 -7.088733458611138e+01  2.918975276816622e+03
 1.142570000000000e+03 -7.188574774929620e+01  2.918975276816622e+03
 1.142570000000000e+03 -7.288416091248068e+01  2.918975276816622e+03
 1.142570000000000e+03 -7.388257407566550e+01  2.918975276816622e+03
 1.142570000000000e+03 -7.488098723884998e+01  2.918975276816622e+03
 1.142570000000000e+03 -7.587940040203480e+01  2.918975276816622e+03
 1.142570000000000e+03 -7.687781356521928e+01  2.918975276816622e+03
 1.142570000000000e+03 -7.787622672840411e+01  2.918975276816622e+03
 1.142570000000000e+03 -7.887463989158859e+01  2.918975276816622e+03
 1.142570000000000e+03 -7.987305305477341e+01  2.918975276816622e+03
 1.142570000000000e+03 -8.087146621795824e+01  2.918975276816622e+03
 1.142570000000000e+03 -8.186987938114271e+01  2.918975276816622e+03
 1.142570000000000e+03 -8.286829254432755e+01  2.918975276816622e+03
 1.142570000000000e+03 -8.386670570751201e+01  2.918975276816622e+03
 1.142570000000000e+03 -8.486511887069685e+01  2.918975276816622e+03
 1.142570000000000e+03 -8.586353203388131e+01  2.918975276816622e+03
 1.142570000000000e+03 -8.686194519706615e+01  2.918975276816622e+03
 1.142570000000000e+03 -8.786035836025063e+01  2.918975276816622e+03
 1.142570000000000e+03 -8.885877152343545e+01  2.918975276816622e+03
 1.142570000000000e+03 -8.985718468661993e+01  2.918975276816622e+03
 1.142570000000000e+03 -9.085559784980477e+01  2.918975276816622e+03
 1.142570000000000e+03 -9.185401101298956e+01  2.918975276816622e+03
 1.142570000000000e+03 -9.285242417617407e+01  2.918975276816622e+03
 1.142570000000000e+03 -9.385083733935886e+01  2.918975276816622e+03
 1.142570000000000e+03 -9.484925050254337e+01  2.918975276816622e+03
 1.142570000000000e+03 -9.584766366572816e+01  2.918975276816622e+03
 1.142570000000000e+03 -9.684607682891267e+01  2.918975276816622e+03
 1.142570000000000e+03 -9.784448999209748e+01  2.918975276816622e+03
 1.142570000000000e+03 -9.884290315528197e+01  2.918975276816622e+03
 1.142570000000000e+03 -9.984131631846678e+01  2.918975276816622e+03
 1.142570000000000e+03 -1.008397294816516e+02  2.918975276816622e+03
 1.142570000000000e+03 -1.018381426448361e+02  2.918975276816622e+03
 1.142570000000000e+03 -1.028365558080209e+02  2.918975276816622e+03
 1.142570000000000e+03 -1.038349689712054e+02  2.918975276816622e+03
 1.142570000000000e+03 -1.048333821343902e+02  2.918975276816622e+03
 1.142570000000000e+03 -1.058317952975747e+02  2.918975276816622e+03
 1.142570000000000e+03 -1.068302084607595e+02  2.918975276816622e+03
 1.142570000000000e+03 -1.078286216239440e+02  2.918975276816622e+03
 1.142570000000000e+03 -1.088270347871288e+02  2.918975276816622e+03
 1.142570000000000e+03 -1.098254479503133e+02  2.918975276816622e+03
 1.142570000000000e+03 -1.108238611134981e+02  2.918975276816622e+03
 1.142570000000000e+03 -1.118222742766829e+02  2.918975276816622e+03
 1.142570000000000e+03 -1.128206874398674e+02  2.918975276816622e+03
 1.142570000000000e+03 -1.138191006030522e+02  2.918975276816622e+03
 1.142570000000000e+03 -1.148175137662367e+02  2.918975276816622e+03
 1.142570000000000e+03 -1.158159269294215e+02  2.918975276816622e+03
 1.142570000000000e+03 -1.168143400926060e+02  2.918975276816622e+03
 1.142570000000000e+03 -1.178127532557908e+02  2.918975276816622e+03
 1.142570000000000e+03 -1.188111664189753e+02  2.918975276816622e+03
 1.142570000000000e+03 -1.198095795821601e+02  2.918975276816622e+03
 1.142570000000000e+03 -1.208079927453449e+02  2.918975276816622e+03
 1.142570000000000e+03 -1.218064059085294e+02  2.918975276816622e+03
 1.142570000000000e+03 -1.228048190717142e+02  2.918975276816622e+03
 1.142570000000000e+03 -1.238032322348987e+02  2.918975276816622e+03
 1.142570000000000e+03 -1.248016453980835e+02  2.918975276816622e+03
 1.142570000000000e+03 -1.258000585612680e+02  2.918975276816622e+03
 1.142570000000000e+03 -1.267984717244529e+02  2.918975276816622e+03
 1.142570000000000e+03 -1.277968848876373e+02  2.918975276816622e+03
 1.142570000000000e+03 -1.287952980508221e+02  2.918975276816622e+03
 1.142570000000000e+03 -1.297937112140066e+02  2.918975276816622e+03
 1.142570000000000e+03 -1.307921243771914e+02  2.918975276816622e+03
 1.142570000000000e+03 -1.317905375403762e+02  2.918975276816622e+03
 1.142570000000000e+03 -1.327889507035608e+02  2.918975276816622e+03
 1.142570000000000e+03 -1.337873638667456e+02  2.918975276816622e+03
 1.142570000000000e+03 -1.347857770299301e+02  2.918975276816622e+03
 1.142570000000000e+03 -1.357841901931149e+02  2.918975276816622e+03
 1.142570000000000e+03 -1.367826033562994e+02  2.918975276816622e+03
 1.142570000000000e+03 -1.377810165194842e+02  2.918975276816622e+03
 1.142570000000000e+03 -1.387794296826687e+02  2.918975276816622e+03
 1.142570000000000e+03 -1.397778428458535e+02  2.918975276816622e+03
 1.142570000000000e+03 -1.407762560090383e+02  2.918975276816622e+03
 1.142570000000000e+03 -1.417746691722228e+02  2.918975276816622e+03
 1.142570000000000e+03 -1.427730823354076e+02  2.918975276816622e+03
 1.142570000000000e+03 -1.437714954985921e+02  2.918975276816622e+03
 1.142570000000000e+03 -1.447699086617769e+02  2.918975276816622e+03
 1.142570000000000e+03 -1.457683218249614e+02  2.918975276816622e+03
 1.142570000000000e+03 -1.467667349881462e+02  2.918975276816622e+03
 1.142570000000000e+03 -1.477651481513307e+02  2.918975276816622e+03
 1.142570000000000e+03 -1.487635613145155e+02  2.918975276816622e+03
 1.142570000000000e+03 -1.497619744777000e+02  2.918975276816622e+03
 1.142570000000000e+03 -1.507603876408848e+02  2.918975276816622e+03
 1.142570000000000e+03 -1.517588008040696e+02  2.918975276816622e+03
 1.142570000000000e+03 -1.527572139672541e+02  2.918975276816622e+03
 1.142570000000000e+03 -1.537556271304389e+02  2.918975276816622e+03
 1.142570000000000e+03 -1.547540402936234e+02  2.918975276816622e+03
 1.142570000000000e+03 -1.557524534568082e+02  2.918975276816622e+03
 1.142570000000000e+03 -1.567508666199927e+02  2.918975276816622e+03
 1.142570000000000e+03 -1.577492797831775e+02  2.918975276816622e+03
 1.142570000000000e+03 -1.587476929463620e+02  2.918975276816622e+03
 1.142570000000000e+03 -1.597461061095468e+02  2.918975276816622e+03
 1.142570000000000e+03 -1.607445192727317e+02  2.918975276816622e+03
 1.142570000000000e+03 -1.617429324359161e+02  2.918975276816622e+03
 1.142570000000000e+03 -1.627413455991010e+02  2.918975276816622e+03
 1.142570000000000e+03 -1.637397587622854e+02  2.918975276816622e+03
 1.142570000000000e+03 -1.647381719254702e+02  2.918975276816622e+03
 1.142570000000000e+03 -1.657365850886547e+02  2.918975276816622e+03
 1.142570000000000e+03 -1.667349982518395e+02  2.918975276816622e+03
 1.142570000000000e+03 -1.677334114150240e+02  2.918975276816622e+03
 1.142570000000000e+03 -1.687318245782089e+02  2.918975276816622e+03
 1.142570000000000e+03 -1.697302377413933e+02  2.918975276816622e+03
 1.142570000000000e+03 -1.707286509045782e+02  2.918975276816622e+03
 1.142570000000000e+03 -1.717270640677630e+02  2.918975276816622e+03
 1.142570000000000e+03 -1.727254772309475e+02  2.918975276816622e+03
 1.142570000000000e+03 -1.737238903941323e+02  2.918975276816622e+03
 1.142570000000000e+03 -1.747223035573168e+02  2.918975276816622e+03
 1.142570000000000e+03 -1.757207167205016e+02  2.918975276816622e+03
 1.142570000000000e+03 -1.767191298836861e+02  2.918975276816622e+03
 1.142570000000000e+03 -1.777175430468709e+02  2.918975276816622e+03
 1.142570000000000e+03 -1.787159562100554e+02  2.918975276816622e+03
 1.142570000000000e+03 -1.797143693732402e+02  2.918975276816622e+03
 1.142570000000000e+03 -1.807127825364250e+02  2.918975276816622e+03
 1.142570000000000e+03 -1.817111956996095e+02  2.918975276816622e+03
 1.142570000000000e+03 -1.827096088627943e+02  2.918975276816622e+03
 1.142570000000000e+03 -1.837080220259788e+02  2.918975276816622e+03
 1.142570000000000e+03 -1.847064351891636e+02  2.918975276816622e+03
 1.142570000000000e+03 -1.857048483523481e+02  2.918975276816622e+03
 1.142570000000000e+03 -1.867032615155329e+02  2.918975276816622e+03
 1.142570000000000e+03 -1.877016746787174e+02  2.918975276816622e+03
 1.142570000000000e+03 -1.887000878419022e+02  2.918975276816622e+03
 1.142570000000000e+03 -1.896985010050867e+02  2.918975276816622e+03
 1.142570000000000e+03 -1.906969141682715e+02  2.918975276816622e+03
 1.142570000000000e+03 -1.916953273314563e+02  2.918975276816622e+03
 1.142570000000000e+03 -1.926937404946408e+02  2.918975276816622e+03
 1.142570000000000e+03 -1.936921536578257e+02  2.918975276816622e+03
 1.142570000000000e+03 -1.946905668210101e+02  2.918975276816622e+03
 1.142570000000000e+03 -1.956889799841950e+02  2.918975276816622e+03
 1.142570000000000e+03 -1.966873931473794e+02  2.918975276816622e+03
 1.142570000000000e+03 -1.976858063105643e+02  2.918975276816622e+03
 1.142570000000000e+03 -1.986842194737487e+02  2.918975276816622e+03
 1.142570000000000e+03 -1.996826326369336e+02  2.918975276816622e+03
 1.142570000000000e+03 -2.006810458001183e+02  2.918975276816622e+03
 1.142570000000000e+03 -2.016794589633029e+02  2.918975276816622e+03
 1.142570000000000e+03 -2.026778721264876e+02  2.918975276816622e+03
 1.142570000000000e+03 -2.036762852896721e+02  2.918975276816622e+03
 1.142570000000000e+03 -2.046746984528569e+02  2.918975276816622e+03
 1.142570000000000e+03 -2.056731116160414e+02  2.918975276816622e+03
 1.142570000000000e+03 -2.066715247792262e+02  2.918975276816622e+03
 1.142570000000000e+03 -2.076699379424107e+02  2.918975276816622e+03
 1.142570000000000e+03 -2.086683511055955e+02  2.918975276816622e+03
 1.142570000000000e+03 -2.096667642687800e+02  2.918975276816622e+03
 1.142570000000000e+03 -2.106651774319648e+02  2.918975276816622e+03
 1.142570000000000e+03 -2.116635905951497e+02  2.918975276816622e+03
 1.142570000000000e+03 -2.126620037583342e+02  2.918975276816622e+03
 1.142570000000000e+03 -2.136604169215190e+02  2.918975276816622e+03
 1.142570000000000e+03 -2.146588300847035e+02  2.918975276816622e+03
 1.142570000000000e+03 -2.156572432478883e+02  2.918975276816622e+03
 1.142570000000000e+03 -2.166556564110728e+02  2.918975276816622e+03
 1.142570000000000e+03 -2.176540695742576e+02  2.918975276816622e+03
 1.142570000000000e+03 -2.186524827374421e+02  2.918975276816622e+03
 1.142570000000000e+03 -2.196508959006269e+02  2.918975276816622e+03
 1.142570000000000e+03 -2.206493090638117e+02  2.918975276816622e+03
 1.142570000000000e+03 -2.216477222269962e+02  2.918975276816622e+03
 1.142570000000000e+03 -2.226461353901810e+02  2.918975276816622e+03
 1.142570000000000e+03 -2.236445485533655e+02  2.918975276816622e+03
 1.142570000000000e+03 -2.246429617165503e+02  2.918975276816622e+03
 1.142570000000000e+03 -2.256413748797348e+02  2.918975276816622e+03
 1.142570000000000e+03 -2.266397880429196e+02  2.918975276816622e+03
 1.142570000000000e+03 -2.276382012061041e+02  2.918975276816622e+03
 1.142570000000000e+03 -2.286366143692889e+02  2.918975276816622e+03
 1.142570000000000e+03 -2.296350275324734e+02  2.918975276816622e+03
 1.142570000000000e+03 -2.306334406956582e+02  2.918975276816622e+03
 1.142570000000000e+03 -2.316318538588430e+02  2.918975276816622e+03
 1.142570000000000e+03 -2.326302670220275e+02  2.918975276816622e+03
 1.142570000000000e+03 -2.336286801852123e+02  2.918975276816622e+03
 1.142570000000000e+03 -2.346270933483968e+02  2.918975276816622e+03
 1.142570000000000e+03 -2.356255065115816e+02  2.918975276816622e+03
 1.142570000000000e+03 -2.366239196747661e+02  2.918975276816622e+03
 1.142570000000000e+03 -2.376223328379509e+02  2.918975276816622e+03
 1.142570000000000e+03 -2.386207460011354e+02  2.918975276816622e+03
 1.142570000000000e+03 -2.396191591643202e+02  2.918975276816622e+03
 1.142570000000000e+03 -2.406175723275051e+02  2.918975276816622e+03
 1.142570000000000e+03 -2.416159854906895e+02  2.918975276816622e+03
 1.142570000000000e+03 -2.426143986538744e+02  2.918975276816622e+03
 1.142570000000000e+03 -2.436128118170589e+02  2.918975276816622e+03
 1.142570000000000e+03 -2.446112249802437e+02  2.918975276816622e+03
 1.142570000000000e+03 -2.456096381434282e+02  2.918975276816622e+03
 1.142570000000000e+03 -2.466080513066130e+02  2.918975276816622e+03
 1.142570000000000e+03 -2.476064644697975e+02  2.918975276816622e+03
 1.142570000000000e+03 -2.486048776329823e+02  2.918975276816622e+03
 1.142570000000000e+03 -2.496032907961668e+02  2.918975276816622e+03
 1.142570000000000e+03 -2.506017039593516e+02  2.918975276816622e+03
 1.142570000000000e+03 -2.516001171225364e+02  2.918975276816622e+03
 1.142570000000000e+03 -2.525985302857209e+02  2.918975276816622e+03
 1.142570000000000e+03 -2.535969434489057e+02  2.918975276816622e+03
 1.142570000000000e+03 -2.545953566120902e+02  2.918975276816622e+03
 1.142570000000000e+03 -2.555937697752750e+02  2.918975276816622e+03
 1.142570000000000e+03 -2.565921829384595e+02  2.918975276816622e+03
 1.142570000000000e+03 -2.575905961016443e+02  2.918975276816622e+03
 1.142570000000000e+03 -2.585890092648288e+02  2.918975276816622e+03
 1.142570000000000e+03 -2.595874224280136e+02  2.918975276816622e+03
 1.142570000000000e+03 -2.605858355911981e+02  2.918975276816622e+03
 1.142570000000000e+03 -2.615842487543829e+02  2.918975276816622e+03
 1.142570000000000e+03 -2.625826619175677e+02  2.918975276816622e+03
 1.142570000000000e+03 -2.635810750807522e+02  2.918975276816622e+03
 1.142570000000000e+03 -2.645794882439370e+02  2.918975276816622e+03
 1.142570000000000e+03 -2.655779014071215e+02  2.918975276816622e+03
 1.142570000000000e+03 -2.665763145703064e+02  2.918975276816622e+03
 1.142570000000000e+03 -2.675747277334908e+02  2.918975276816622e+03
 1.142570000000000e+03 -2.685731408966756e+02  2.918975276816622e+03
 1.142570000000000e+03 -2.695715540598601e+02  2.918975276816622e+03
 1.142570000000000e+03 -2.705699672230450e+02  2.918975276816622e+03
 1.142570000000000e+03 -2.715683803862298e+02  2.918975276816622e+03
 1.142570000000000e+03 -2.725667935494142e+02  2.918975276816622e+03
 1.142570000000000e+03 -2.735652067125990e+02  2.918975276816622e+03
 1.142570000000000e+03 -2.745636198757836e+02  2.918975276816622e+03
 1.142570000000000e+03 -2.755620330389683e+02  2.918975276816622e+03
 1.142570000000000e+03 -2.765604462021528e+02  2.918975276816622e+03
 1.142570000000000e+03 -2.775588593653376e+02  2.918975276816622e+03
 1.142570000000000e+03 -2.785572725285221e+02  2.918975276816622e+03
 1.142570000000000e+03 -2.795556856917070e+02  2.918975276816622e+03
 1.142570000000000e+03 -2.805540988548914e+02  2.918975276816622e+03
 1.142570000000000e+03 -2.815525120180762e+02  2.918975276816622e+03
 1.142570000000000e+03 -2.825509251812611e+02  2.918975276816622e+03
 1.142570000000000e+03 -2.835493383444456e+02  2.918975276816622e+03
 1.142570000000000e+03 -2.845477515076304e+02  2.918975276816622e+03
 1.142570000000000e+03 -2.855461646708148e+02  2.918975276816622e+03
 1.142570000000000e+03 -2.865445778339997e+02  2.918975276816622e+03
 1.142570000000000e+03 -2.875429909971842e+02  2.918975276816622e+03
 1.142570000000000e+03 -2.885414041603691e+02  2.918975276816622e+03
 1.142570000000000e+03 -2.895398173235534e+02  2.918975276816622e+03
 1.142570000000000e+03 -2.905382304867383e+02  2.918975276816622e+03
 1.142570000000000e+03 -2.915366436499231e+02  2.918975276816622e+03
 1.142570000000000e+03 -2.925350568131077e+02  2.918975276816622e+03
 1.142570000000000e+03 -2.935334699762925e+02  2.918975276816622e+03
 1.142570000000000e+03 -2.945318831394769e+02  2.918975276816622e+03
 1.142570000000000e+03 -2.955302963026617e+02  2.918975276816622e+03
 1.142570000000000e+03 -2.965287094658462e+02  2.918975276816622e+03
 1.142570000000000e+03 -2.975271226290312e+02  2.918975276816622e+03
 1.142570000000000e+03 -2.985255357922155e+02  2.918975276816622e+03
 1.142570000000000e+03 -2.995239489554003e+02  2.918975276816622e+03
 1.142570000000000e+03 -3.005223621185849e+02  2.918975276816622e+03
 1.142570000000000e+03 -3.015207752817698e+02  2.918975276816622e+03
 1.142570000000000e+03 -3.025191884449544e+02  2.918975276816622e+03
 1.142570000000000e+03 -3.035176016081389e+02  2.918975276816622e+03
 1.142570000000000e+03 -3.045160147713238e+02  2.918975276816622e+03
 1.142570000000000e+03 -3.055144279345084e+02  2.918975276816622e+03
 1.142570000000000e+03 -3.065128410976930e+02  2.918975276816622e+03
 1.142570000000000e+03 -3.075112542608775e+02  2.918975276816622e+03
 1.142570000000000e+03 -3.085096674240624e+02  2.918975276816622e+03
 1.142570000000000e+03 -3.095080805872470e+02  2.918975276816622e+03
 1.142570000000000e+03 -3.105064937504316e+02  2.918975276816622e+03
 1.142570000000000e+03 -3.115049069136164e+02  2.918975276816622e+03
 1.142570000000000e+03 -3.125033200768010e+02  2.918975276816622e+03
 1.142570000000000e+03 -3.135017332399859e+02  2.918975276816622e+03
 1.142570000000000e+03 -3.145001464031702e+02  2.918975276816622e+03
 1.142570000000000e+03 -3.154985595663550e+02  2.918975276816622e+03
 1.142570000000000e+03 -3.164969727295396e+02  2.918975276816622e+03
 1.142570000000000e+03 -3.174953858927245e+02  2.918975276816622e+03
 1.142570000000000e+03 -3.184937990559088e+02  2.918975276816622e+03
 1.142570000000000e+03 -3.194922122190936e+02  2.918975276816622e+03
 1.142570000000000e+03 -3.204906253822782e+02  2.918975276816622e+03
 1.142570000000000e+03 -3.214890385454631e+02  2.918975276816622e+03
 1.142570000000000e+03 -3.224874517086477e+02  2.918975276816622e+03
 1.142570000000000e+03 -3.234858648718322e+02  2.918975276816622e+03
 1.142570000000000e+03 -3.244842780350171e+02  2.918975276816622e+03
 1.142570000000000e+03 -3.254826911982017e+02  2.918975276816622e+03
 1.142570000000000e+03 -3.264811043613863e+02  2.918975276816622e+03
 1.142570000000000e+03 -3.274795175245708e+02  2.918975276816622e+03
 1.142570000000000e+03 -3.284779306877557e+02  2.918975276816622e+03
 1.142570000000000e+03 -3.294763438509403e+02  2.918975276816622e+03
 1.142570000000000e+03 -3.304747570141249e+02  2.918975276816622e+03
 1.142570000000000e+03 -3.314731701773097e+02  2.918975276816622e+03
 1.142570000000000e+03 -3.324715833404943e+02  2.918975276816622e+03
 1.142570000000000e+03 -3.334699965036792e+02  2.918975276816622e+03
 1.142570000000000e+03 -3.344684096668635e+02  2.918975276816622e+03
 1.142570000000000e+03 -3.354668228300483e+02  2.918975276816622e+03
 1.142570000000000e+03 -3.364652359932329e+02  2.918975276816622e+03
 1.142570000000000e+03 -3.374636491564178e+02  2.918975276816622e+03
 1.142570000000000e+03 -3.384620623196021e+02  2.918975276816622e+03
 1.142570000000000e+03 -3.394604754827869e+02  2.918975276816622e+03
 1.142570000000000e+03 -3.404588886459715e+02  2.918975276816622e+03
 1.142570000000000e+03 -3.414573018091564e+02  2.918975276816622e+03
 1.142570000000000e+03 -3.424557149723413e+02  2.918975276816622e+03
 1.142570000000000e+03 -3.434541281355255e+02  2.918975276816622e+03
 1.142570000000000e+03 -3.444525412987104e+02  2.918975276816622e+03
 1.142570000000000e+03 -3.454509544618950e+02  2.918975276816622e+03
 1.142570000000000e+03 -3.464493676250799e+02  2.918975276816622e+03
 1.142570000000000e+03 -3.474477807882641e+02  2.918975276816622e+03
 1.142570000000000e+03 -3.484461939514490e+02  2.918975276816622e+03
 1.142570000000000e+03 -3.494446071146336e+02  2.918975276816622e+03
 1.142570000000000e+03 -3.504430202778185e+02  2.918975276816622e+03
 1.142570000000000e+03 -3.514414334410030e+02  2.918975276816622e+03
 1.142570000000000e+03 -3.524398466041876e+02  2.918975276816622e+03
 1.142570000000000e+03 -3.534382597673725e+02  2.918975276816622e+03
 1.142570000000000e+03 -3.544366729305571e+02  2.918975276816622e+03
 1.142570000000000e+03 -3.554350860937416e+02  2.918975276816622e+03
 1.142570000000000e+03 -3.564334992569262e+02  2.918975276816622e+03
 1.142570000000000e+03 -3.574319124201111e+02  2.918975276816622e+03
 1.142570000000000e+03 -3.584303255832957e+02  2.918975276816622e+03
 1.142570000000000e+03 -3.594287387464802e+02  2.918975276816622e+03
 1.142570000000000e+03 -3.604271519096648e+02  2.918975276816622e+03
 1.142570000000000e+03 -3.614255650728497e+02  2.918975276816622e+03
 1.142570000000000e+03 -3.624239782360346e+02  2.918975276816622e+03
 1.142570000000000e+03 -3.634223913992188e+02  2.918975276816622e+03
 1.142570000000000e+03 -3.644208045624037e+02  2.918975276816622e+03
 1.142570000000000e+03 -3.654192177255883e+02  2.918975276816622e+03
 1.142570000000000e+03 -3.664176308887732e+02  2.918975276816622e+03
 1.142570000000000e+03 -3.674160440519575e+02  2.918975276816622e+03
 1.142570000000000e+03 -3.684144572151423e+02  2.918975276816622e+03
 1.142570000000000e+03 -3.694128703783269e+02  2.918975276816622e+03
 1.142570000000000e+03 -3.704112835415118e+02  2.918975276816622e+03
 1.142570000000000e+03 -3.714096967046967e+02  2.918975276816622e+03
 1.142570000000000e+03 -3.724081098678809e+02  2.918975276816622e+03
 1.142570000000000e+03 -3.734065230310658e+02  2.918975276816622e+03
 1.142570000000000e+03 -3.744049361942504e+02  2.918975276816622e+03
 1.142570000000000e+03 -3.754033493574353e+02  2.918975276816622e+03
 1.142570000000000e+03 -3.764017625206195e+02  2.918975276816622e+03
 1.142570000000000e+03 -3.774001756838044e+02  2.918975276816622e+03
 1.142570000000000e+03 -3.783985888469890e+02  2.918975276816622e+03
 1.142570000000000e+03 -3.793970020101739e+02  2.918975276816622e+03
 1.142570000000000e+03 -3.803954151733581e+02  2.918975276816622e+03
 1.142570000000000e+03 -3.813938283365430e+02  2.918975276816622e+03
 1.142570000000000e+03 -3.823922414997278e+02  2.918975276816622e+03
 1.142570000000000e+03 -3.833906546629125e+02  2.918975276816622e+03
 1.142570000000000e+03 -3.843890678260971e+02  2.918975276816622e+03
 1.142570000000000e+03 -3.853874809892816e+02  2.918975276816622e+03
 1.142570000000000e+03 -3.863858941524674e+02  2.918975276816622e+03
1.142570000000000e+03 3.863858941524653e+02 2.918975276816622e+03
1.142570000000000e+03 3.853874809892819e+02 2.918975276816622e+03
1.142570000000000e+03 3.843890678260977e+02 2.918975276816622e+03
1.142570000000000e+03 3.833906546629128e+02 2.918975276816622e+03
1.142570000000000e+03 3.823922414997282e+02 2.918975276816622e+03
1.142570000000000e+03 3.813938283365433e+02 2.918975276816622e+03
1.142570000000000e+03 3.803954151733585e+02 2.918975276816622e+03
1.142570000000000e+03 3.793970020101742e+02 2.918975276816622e+03
1.142570000000000e+03 3.783985888469892e+02 2.918975276816622e+03
1.142570000000000e+03 3.774001756838047e+02 2.918975276816622e+03
1.142570000000000e+03 3.764017625206199e+02 2.918975276816622e+03
1.142570000000000e+03 3.754033493574355e+02 2.918975276816622e+03
1.142570000000000e+03 3.744049361942506e+02 2.918975276816622e+03
1.142570000000000e+03 3.734065230310661e+02 2.918975276816622e+03
1.142570000000000e+03 3.724081098678813e+02 2.918975276816622e+03
1.142570000000000e+03 3.714096967046969e+02 2.918975276816622e+03
1.142570000000000e+03 3.704112835415120e+02 2.918975276816622e+03
1.142570000000000e+03 3.694128703783272e+02 2.918975276816622e+03
1.142570000000000e+03 3.684144572151426e+02 2.918975276816622e+03
1.142570000000000e+03 3.674160440519581e+02 2.918975276816622e+03
1.142570000000000e+03 3.664176308887734e+02 2.918975276816622e+03
1.142570000000000e+03 3.654192177255886e+02 2.918975276816622e+03
1.142570000000000e+03 3.644208045624040e+02 2.918975276816622e+03
1.142570000000000e+03 3.634223913992195e+02 2.918975276816622e+03
1.142570000000000e+03 3.624239782360348e+02 2.918975276816622e+03
1.142570000000000e+03 3.614255650728500e+02 2.918975276816622e+03
1.142570000000000e+03 3.604271519096651e+02 2.918975276816622e+03
1.142570000000000e+03 3.594287387464808e+02 2.918975276816622e+03
1.142570000000000e+03 3.584303255832960e+02 2.918975276816622e+03
1.142570000000000e+03 3.574319124201114e+02 2.918975276816622e+03
1.142570000000000e+03 3.564334992569265e+02 2.918975276816622e+03
1.142570000000000e+03 3.554350860937422e+02 2.918975276816622e+03
1.142570000000000e+03 3.544366729305574e+02 2.918975276816622e+03
1.142570000000000e+03 3.534382597673728e+02 2.918975276816622e+03
1.142570000000000e+03 3.524398466041879e+02 2.918975276816622e+03
1.142570000000000e+03 3.514414334410036e+02 2.918975276816622e+03
1.142570000000000e+03 3.504430202778188e+02 2.918975276816622e+03
1.142570000000000e+03 3.494446071146339e+02 2.918975276816622e+03
1.142570000000000e+03 3.484461939514493e+02 2.918975276816622e+03
1.142570000000000e+03 3.474477807882644e+02 2.918975276816622e+03
1.142570000000000e+03 3.464493676250801e+02 2.918975276816622e+03
1.142570000000000e+03 3.454509544618953e+02 2.918975276816622e+03
1.142570000000000e+03 3.444525412987106e+02 2.918975276816622e+03
1.142570000000000e+03 3.434541281355258e+02 2.918975276816622e+03
1.142570000000000e+03 3.424557149723415e+02 2.918975276816622e+03
1.142570000000000e+03 3.414573018091567e+02 2.918975276816622e+03
1.142570000000000e+03 3.404588886459718e+02 2.918975276816622e+03
1.142570000000000e+03 3.394604754827872e+02 2.918975276816622e+03
1.142570000000000e+03 3.384620623196027e+02 2.918975276816622e+03
1.142570000000000e+03 3.374636491564181e+02 2.918975276816622e+03
1.142570000000000e+03 3.364652359932332e+02 2.918975276816622e+03
1.142570000000000e+03 3.354668228300486e+02 2.918975276816622e+03
1.142570000000000e+03 3.344684096668641e+02 2.918975276816622e+03
1.142570000000000e+03 3.334699965036795e+02 2.918975276816622e+03
1.142570000000000e+03 3.324715833404946e+02 2.918975276816622e+03
1.142570000000000e+03 3.314731701773101e+02 2.918975276816622e+03
1.142570000000000e+03 3.304747570141254e+02 2.918975276816622e+03
1.142570000000000e+03 3.294763438509406e+02 2.918975276816622e+03
1.142570000000000e+03 3.284779306877559e+02 2.918975276816622e+03
1.142570000000000e+03 3.274795175245711e+02 2.918975276816622e+03
1.142570000000000e+03 3.264811043613868e+02 2.918975276816622e+03
1.142570000000000e+03 3.254826911982019e+02 2.918975276816622e+03
1.142570000000000e+03 3.244842780350173e+02 2.918975276816622e+03
1.142570000000000e+03 3.234858648718325e+02 2.918975276816622e+03
1.142570000000000e+03 3.224874517086482e+02 2.918975276816622e+03
1.142570000000000e+03 3.214890385454633e+02 2.918975276816622e+03
1.142570000000000e+03 3.204906253822785e+02 2.918975276816622e+03
1.142570000000000e+03 3.194922122190939e+02 2.918975276816622e+03
1.142570000000000e+03 3.184937990559091e+02 2.918975276816622e+03
1.142570000000000e+03 3.174953858927247e+02 2.918975276816622e+03
1.142570000000000e+03 3.164969727295399e+02 2.918975276816622e+03
1.142570000000000e+03 3.154985595663553e+02 2.918975276816622e+03
1.142570000000000e+03 3.145001464031704e+02 2.918975276816622e+03
1.142570000000000e+03 3.135017332399861e+02 2.918975276816622e+03
1.142570000000000e+03 3.125033200768012e+02 2.918975276816622e+03
1.142570000000000e+03 3.115049069136167e+02 2.918975276816622e+03
1.142570000000000e+03 3.105064937504318e+02 2.918975276816622e+03
1.142570000000000e+03 3.095080805872472e+02 2.918975276816622e+03
1.142570000000000e+03 3.085096674240626e+02 2.918975276816622e+03
1.142570000000000e+03 3.075112542608778e+02 2.918975276816622e+03
1.142570000000000e+03 3.065128410976932e+02 2.918975276816622e+03
1.142570000000000e+03 3.055144279345086e+02 2.918975276816622e+03
1.142570000000000e+03 3.045160147713240e+02 2.918975276816622e+03
1.142570000000000e+03 3.035176016081392e+02 2.918975276816622e+03
1.142570000000000e+03 3.025191884449546e+02 2.918975276816622e+03
1.142570000000000e+03 3.015207752817700e+02 2.918975276816622e+03
1.142570000000000e+03 3.005223621185852e+02 2.918975276816622e+03
1.142570000000000e+03 2.995239489554006e+02 2.918975276816622e+03
1.142570000000000e+03 2.985255357922157e+02 2.918975276816622e+03
1.142570000000000e+03 2.975271226290314e+02 2.918975276816622e+03
1.142570000000000e+03 2.965287094658465e+02 2.918975276816622e+03
1.142570000000000e+03 2.955302963026620e+02 2.918975276816622e+03
1.142570000000000e+03 2.945318831394771e+02 2.918975276816622e+03
1.142570000000000e+03 2.935334699762928e+02 2.918975276816622e+03
1.142570000000000e+03 2.925350568131079e+02 2.918975276816622e+03
1.142570000000000e+03 2.915366436499234e+02 2.918975276816622e+03
1.142570000000000e+03 2.905382304867385e+02 2.918975276816622e+03
1.142570000000000e+03 2.895398173235539e+02 2.918975276816622e+03
1.142570000000000e+03 2.885414041603693e+02 2.918975276816622e+03
1.142570000000000e+03 2.875429909971845e+02 2.918975276816622e+03
1.142570000000000e+03 2.865445778339999e+02 2.918975276816622e+03
1.142570000000000e+03 2.855461646708152e+02 2.918975276816622e+03
1.142570000000000e+03 2.845477515076307e+02 2.918975276816622e+03
1.142570000000000e+03 2.835493383444459e+02 2.918975276816622e+03
1.142570000000000e+03 2.825509251812614e+02 2.918975276816622e+03
1.142570000000000e+03 2.815525120180766e+02 2.918975276816622e+03
1.142570000000000e+03 2.805540988548918e+02 2.918975276816622e+03
1.142570000000000e+03 2.795556856917073e+02 2.918975276816622e+03
1.142570000000000e+03 2.785572725285224e+02 2.918975276816622e+03
1.142570000000000e+03 2.775588593653380e+02 2.918975276816622e+03
1.142570000000000e+03 2.765604462021532e+02 2.918975276816622e+03
1.142570000000000e+03 2.755620330389687e+02 2.918975276816622e+03
1.142570000000000e+03 2.745636198757838e+02 2.918975276816622e+03
1.142570000000000e+03 2.735652067125994e+02 2.918975276816622e+03
1.142570000000000e+03 2.725667935494146e+02 2.918975276816622e+03
1.142570000000000e+03 2.715683803862300e+02 2.918975276816622e+03
1.142570000000000e+03 2.705699672230452e+02 2.918975276816622e+03
1.142570000000000e+03 2.695715540598604e+02 2.918975276816622e+03
1.142570000000000e+03 2.685731408966760e+02 2.918975276816622e+03
1.142570000000000e+03 2.675747277334912e+02 2.918975276816622e+03
1.142570000000000e+03 2.665763145703067e+02 2.918975276816622e+03
1.142570000000000e+03 2.655779014071218e+02 2.918975276816622e+03
1.142570000000000e+03 2.645794882439374e+02 2.918975276816622e+03
1.142570000000000e+03 2.635810750807526e+02 2.918975276816622e+03
1.142570000000000e+03 2.625826619175680e+02 2.918975276816622e+03
1.142570000000000e+03 2.615842487543832e+02 2.918975276816622e+03
1.142570000000000e+03 2.605858355911984e+02 2.918975276816622e+03
1.142570000000000e+03 2.595874224280140e+02 2.918975276816622e+03
1.142570000000000e+03 2.585890092648291e+02 2.918975276816622e+03
1.142570000000000e+03 2.575905961016446e+02 2.918975276816622e+03
1.142570000000000e+03 2.565921829384598e+02 2.918975276816622e+03
1.142570000000000e+03 2.555937697752753e+02 2.918975276816622e+03
1.142570000000000e+03 2.545953566120905e+02 2.918975276816622e+03
1.142570000000000e+03 2.535969434489060e+02 2.918975276816622e+03
1.142570000000000e+03 2.525985302857212e+02 2.918975276816622e+03
1.142570000000000e+03 2.516001171225367e+02 2.918975276816622e+03
1.142570000000000e+03 2.506017039593519e+02 2.918975276816622e+03
1.142570000000000e+03 2.496032907961671e+02 2.918975276816622e+03
1.142570000000000e+03 2.486048776329826e+02 2.918975276816622e+03
1.142570000000000e+03 2.476064644697978e+02 2.918975276816622e+03
1.142570000000000e+03 2.466080513066133e+02 2.918975276816622e+03
1.142570000000000e+03 2.456096381434285e+02 2.918975276816622e+03
1.142570000000000e+03 2.446112249802440e+02 2.918975276816622e+03
1.142570000000000e+03 2.436128118170592e+02 2.918975276816622e+03
1.142570000000000e+03 2.426143986538747e+02 2.918975276816622e+03
1.142570000000000e+03 2.416159854906899e+02 2.918975276816622e+03
1.142570000000000e+03 2.406175723275054e+02 2.918975276816622e+03
1.142570000000000e+03 2.396191591643206e+02 2.918975276816622e+03
1.142570000000000e+03 2.386207460011358e+02 2.918975276816622e+03
1.142570000000000e+03 2.376223328379513e+02 2.918975276816622e+03
1.142570000000000e+03 2.366239196747665e+02 2.918975276816622e+03
1.142570000000000e+03 2.356255065115820e+02 2.918975276816622e+03
1.142570000000000e+03 2.346270933483971e+02 2.918975276816622e+03
1.142570000000000e+03 2.336286801852127e+02 2.918975276816622e+03
1.142570000000000e+03 2.326302670220279e+02 2.918975276816622e+03
1.142570000000000e+03 2.316318538588434e+02 2.918975276816622e+03
1.142570000000000e+03 2.306334406956585e+02 2.918975276816622e+03
1.142570000000000e+03 2.296350275324737e+02 2.918975276816622e+03
1.142570000000000e+03 2.286366143692892e+02 2.918975276816622e+03
1.142570000000000e+03 2.276382012061044e+02 2.918975276816622e+03
1.142570000000000e+03 2.266397880429199e+02 2.918975276816622e+03
1.142570000000000e+03 2.256413748797351e+02 2.918975276816622e+03
1.142570000000000e+03 2.246429617165506e+02 2.918975276816622e+03
1.142570000000000e+03 2.236445485533658e+02 2.918975276816622e+03
1.142570000000000e+03 2.226461353901813e+02 2.918975276816622e+03
1.142570000000000e+03 2.216477222269965e+02 2.918975276816622e+03
1.142570000000000e+03 2.206493090638120e+02 2.918975276816622e+03
1.142570000000000e+03 2.196508959006272e+02 2.918975276816622e+03
1.142570000000000e+03 2.186524827374424e+02 2.918975276816622e+03
1.142570000000000e+03 2.176540695742579e+02 2.918975276816622e+03
1.142570000000000e+03 2.166556564110731e+02 2.918975276816622e+03
1.142570000000000e+03 2.156572432478886e+02 2.918975276816622e+03
1.142570000000000e+03 2.146588300847038e+02 2.918975276816622e+03
1.142570000000000e+03 2.136604169215193e+02 2.918975276816622e+03
1.142570000000000e+03 2.126620037583345e+02 2.918975276816622e+03
1.142570000000000e+03 2.116635905951500e+02 2.918975276816622e+03
1.142570000000000e+03 2.106651774319652e+02 2.918975276816622e+03
1.142570000000000e+03 2.096667642687804e+02 2.918975276816622e+03
1.142570000000000e+03 2.086683511055959e+02 2.918975276816622e+03
1.142570000000000e+03 2.076699379424111e+02 2.918975276816622e+03
1.142570000000000e+03 2.066715247792266e+02 2.918975276816622e+03
1.142570000000000e+03 2.056731116160418e+02 2.918975276816622e+03
1.142570000000000e+03 2.046746984528573e+02 2.918975276816622e+03
1.142570000000000e+03 2.036762852896724e+02 2.918975276816622e+03
1.142570000000000e+03 2.026778721264880e+02 2.918975276816622e+03
1.142570000000000e+03 2.016794589633031e+02 2.918975276816622e+03
1.142570000000000e+03 2.006810458001187e+02 2.918975276816622e+03
1.142570000000000e+03 1.996826326369338e+02 2.918975276816622e+03
1.142570000000000e+03 1.986842194737490e+02 2.918975276816622e+03
1.142570000000000e+03 1.976858063105645e+02 2.918975276816622e+03
1.142570000000000e+03 1.966873931473798e+02 2.918975276816622e+03
1.142570000000000e+03 1.956889799841952e+02 2.918975276816622e+03
1.142570000000000e+03 1.946905668210105e+02 2.918975276816622e+03
1.142570000000000e+03 1.936921536578259e+02 2.918975276816622e+03
1.142570000000000e+03 1.926937404946412e+02 2.918975276816622e+03
1.142570000000000e+03 1.916953273314567e+02 2.918975276816622e+03
1.142570000000000e+03 1.906969141682719e+02 2.918975276816622e+03
1.142570000000000e+03 1.896985010050870e+02 2.918975276816622e+03
1.142570000000000e+03 1.887000878419026e+02 2.918975276816622e+03
1.142570000000000e+03 1.877016746787177e+02 2.918975276816622e+03
1.142570000000000e+03 1.867032615155333e+02 2.918975276816622e+03
1.142570000000000e+03 1.857048483523484e+02 2.918975276816622e+03
1.142570000000000e+03 1.847064351891639e+02 2.918975276816622e+03
1.142570000000000e+03 1.837080220259791e+02 2.918975276816622e+03
1.142570000000000e+03 1.827096088627946e+02 2.918975276816622e+03
1.142570000000000e+03 1.817111956996098e+02 2.918975276816622e+03
1.142570000000000e+03 1.807127825364253e+02 2.918975276816622e+03
1.142570000000000e+03 1.797143693732405e+02 2.918975276816622e+03
1.142570000000000e+03 1.787159562100557e+02 2.918975276816622e+03
1.142570000000000e+03 1.777175430468712e+02 2.918975276816622e+03
1.142570000000000e+03 1.767191298836864e+02 2.918975276816622e+03
1.142570000000000e+03 1.757207167205019e+02 2.918975276816622e+03
1.142570000000000e+03 1.747223035573171e+02 2.918975276816622e+03
1.142570000000000e+03 1.737238903941326e+02 2.918975276816622e+03
1.142570000000000e+03 1.727254772309478e+02 2.918975276816622e+03
1.142570000000000e+03 1.717270640677633e+02 2.918975276816622e+03
1.142570000000000e+03 1.707286509045785e+02 2.918975276816622e+03
1.142570000000000e+03 1.697302377413937e+02 2.918975276816622e+03
1.142570000000000e+03 1.687318245782092e+02 2.918975276816622e+03
1.142570000000000e+03 1.677334114150244e+02 2.918975276816622e+03
1.142570000000000e+03 1.667349982518399e+02 2.918975276816622e+03
1.142570000000000e+03 1.657365850886551e+02 2.918975276816622e+03
1.142570000000000e+03 1.647381719254706e+02 2.918975276816622e+03
1.142570000000000e+03 1.637397587622858e+02 2.918975276816622e+03
1.142570000000000e+03 1.627413455991013e+02 2.918975276816622e+03
1.142570000000000e+03 1.617429324359165e+02 2.918975276816622e+03
1.142570000000000e+03 1.607445192727320e+02 2.918975276816622e+03
1.142570000000000e+03 1.597461061095472e+02 2.918975276816622e+03
1.142570000000000e+03 1.587476929463623e+02 2.918975276816622e+03
1.142570000000000e+03 1.577492797831779e+02 2.918975276816622e+03
1.142570000000000e+03 1.567508666199930e+02 2.918975276816622e+03
1.142570000000000e+03 1.557524534568086e+02 2.918975276816622e+03
1.142570000000000e+03 1.547540402936237e+02 2.918975276816622e+03
1.142570000000000e+03 1.537556271304393e+02 2.918975276816622e+03
1.142570000000000e+03 1.527572139672544e+02 2.918975276816622e+03
1.142570000000000e+03 1.517588008040699e+02 2.918975276816622e+03
1.142570000000000e+03 1.507603876408851e+02 2.918975276816622e+03
1.142570000000000e+03 1.497619744777003e+02 2.918975276816622e+03
1.142570000000000e+03 1.487635613145158e+02 2.918975276816622e+03
1.142570000000000e+03 1.477651481513310e+02 2.918975276816622e+03
1.142570000000000e+03 1.467667349881465e+02 2.918975276816622e+03
1.142570000000000e+03 1.457683218249617e+02 2.918975276816622e+03
1.142570000000000e+03 1.447699086617772e+02 2.918975276816622e+03
1.142570000000000e+03 1.437714954985924e+02 2.918975276816622e+03
1.142570000000000e+03 1.427730823354079e+02 2.918975276816622e+03
1.142570000000000e+03 1.417746691722231e+02 2.918975276816622e+03
1.142570000000000e+03 1.407762560090386e+02 2.918975276816622e+03
1.142570000000000e+03 1.397778428458538e+02 2.918975276816622e+03
1.142570000000000e+03 1.387794296826690e+02 2.918975276816622e+03
1.142570000000000e+03 1.377810165194845e+02 2.918975276816622e+03
1.142570000000000e+03 1.367826033562997e+02 2.918975276816622e+03
1.142570000000000e+03 1.357841901931152e+02 2.918975276816622e+03
1.142570000000000e+03 1.347857770299304e+02 2.918975276816622e+03
1.142570000000000e+03 1.337873638667459e+02 2.918975276816622e+03
1.142570000000000e+03 1.327889507035611e+02 2.918975276816622e+03
1.142570000000000e+03 1.317905375403766e+02 2.918975276816622e+03
1.142570000000000e+03 1.307921243771918e+02 2.918975276816622e+03
1.142570000000000e+03 1.297937112140069e+02 2.918975276816622e+03
1.142570000000000e+03 1.287952980508225e+02 2.918975276816622e+03
1.142570000000000e+03 1.277968848876376e+02 2.918975276816622e+03
1.142570000000000e+03 1.267984717244532e+02 2.918975276816622e+03
1.142570000000000e+03 1.258000585612683e+02 2.918975276816622e+03
1.142570000000000e+03 1.248016453980839e+02 2.918975276816622e+03
1.142570000000000e+03 1.238032322348990e+02 2.918975276816622e+03
1.142570000000000e+03 1.228048190717146e+02 2.918975276816622e+03
1.142570000000000e+03 1.218064059085297e+02 2.918975276816622e+03
1.142570000000000e+03 1.208079927453453e+02 2.918975276816622e+03
1.142570000000000e+03 1.198095795821604e+02 2.918975276816622e+03
1.142570000000000e+03 1.188111664189756e+02 2.918975276816622e+03
1.142570000000000e+03 1.178127532557911e+02 2.918975276816622e+03
1.142570000000000e+03 1.168143400926063e+02 2.918975276816622e+03
1.142570000000000e+03 1.158159269294218e+02 2.918975276816622e+03
1.142570000000000e+03 1.148175137662370e+02 2.918975276816622e+03
1.142570000000000e+03 1.138191006030525e+02 2.918975276816622e+03
1.142570000000000e+03 1.128206874398677e+02 2.918975276816622e+03
1.142570000000000e+03 1.118222742766832e+02 2.918975276816622e+03
1.142570000000000e+03 1.108238611134984e+02 2.918975276816622e+03
1.142570000000000e+03 1.098254479503136e+02 2.918975276816622e+03
1.142570000000000e+03 1.088270347871291e+02 2.918975276816622e+03
1.142570000000000e+03 1.078286216239443e+02 2.918975276816622e+03
1.142570000000000e+03 1.068302084607598e+02 2.918975276816622e+03
1.142570000000000e+03 1.058317952975750e+02 2.918975276816622e+03
1.142570000000000e+03 1.048333821343905e+02 2.918975276816622e+03
1.142570000000000e+03 1.038349689712057e+02 2.918975276816622e+03
1.142570000000000e+03 1.028365558080212e+02 2.918975276816622e+03
1.142570000000000e+03 1.018381426448364e+02 2.918975276816622e+03
1.142570000000000e+03 1.008397294816519e+02 2.918975276816622e+03
1.142570000000000e+03 9.984131631846709e+01 2.918975276816622e+03
1.142570000000000e+03 9.884290315528227e+01 2.918975276816622e+03
1.142570000000000e+03 9.784448999209779e+01 2.918975276816622e+03
1.142570000000000e+03 9.684607682891297e+01 2.918975276816622e+03
1.142570000000000e+03 9.584766366572849e+01 2.918975276816622e+03
1.142570000000000e+03 9.484925050254368e+01 2.918975276816622e+03
1.142570000000000e+03 9.385083733935917e+01 2.918975276816622e+03
1.142570000000000e+03 9.285242417617438e+01 2.918975276816622e+03
1.142570000000000e+03 9.185401101298989e+01 2.918975276816622e+03
1.142570000000000e+03 9.085559784980508e+01 2.918975276816622e+03
1.142570000000000e+03 8.985718468662027e+01 2.918975276816622e+03
1.142570000000000e+03 8.885877152343578e+01 2.918975276816622e+03
1.142570000000000e+03 8.786035836025097e+01 2.918975276816622e+03
1.142570000000000e+03 8.686194519706646e+01 2.918975276816622e+03
1.142570000000000e+03 8.586353203388167e+01 2.918975276816622e+03
1.142570000000000e+03 8.486511887069716e+01 2.918975276816622e+03
1.142570000000000e+03 8.386670570751237e+01 2.918975276816622e+03
1.142570000000000e+03 8.286829254432786e+01 2.918975276816622e+03
1.142570000000000e+03 8.186987938114305e+01 2.918975276816622e+03
1.142570000000000e+03 8.087146621795856e+01 2.918975276816622e+03
1.142570000000000e+03 7.987305305477375e+01 2.918975276816622e+03
1.142570000000000e+03 7.887463989158894e+01 2.918975276816622e+03
1.142570000000000e+03 7.787622672840445e+01 2.918975276816622e+03
1.142570000000000e+03 7.687781356521963e+01 2.918975276816622e+03
1.142570000000000e+03 7.587940040203515e+01 2.918975276816622e+03
1.142570000000000e+03 7.488098723885032e+01 2.918975276816622e+03
1.142570000000000e+03 7.388257407566584e+01 2.918975276816622e+03
1.142570000000000e+03 7.288416091248104e+01 2.918975276816622e+03
1.142570000000000e+03 7.188574774929654e+01 2.918975276816622e+03
1.142570000000000e+03 7.088733458611173e+01 2.918975276816622e+03
1.142570000000000e+03 6.988892142292690e+01 2.918975276816622e+03
1.142570000000000e+03 6.889050825974242e+01 2.918975276816622e+03
1.142570000000000e+03 6.789209509655758e+01 2.918975276816622e+03
1.142570000000000e+03 6.689368193337312e+01 2.918975276816622e+03
1.142570000000000e+03 6.589526877018828e+01 2.918975276816622e+03
1.142570000000000e+03 6.489685560700381e+01 2.918975276816622e+03
1.142570000000000e+03 6.389844244381898e+01 2.918975276816622e+03
1.142570000000000e+03 6.290002928063451e+01 2.918975276816622e+03
1.142570000000000e+03 6.190161611744968e+01 2.918975276816622e+03
1.142570000000000e+03 6.090320295426522e+01 2.918975276816622e+03
1.142570000000000e+03 5.990478979108038e+01 2.918975276816622e+03
1.142570000000000e+03 5.890637662789556e+01 2.918975276816622e+03
1.142570000000000e+03 5.790796346471107e+01 2.918975276816622e+03
1.142570000000000e+03 5.690955030152626e+01 2.918975276816622e+03
1.142570000000000e+03 5.591113713834177e+01 2.918975276816622e+03
1.142570000000000e+03 5.491272397515696e+01 2.918975276816622e+03
1.142570000000000e+03 5.391431081197247e+01 2.918975276816622e+03
1.142570000000000e+03 5.291589764878765e+01 2.918975276816622e+03
1.142570000000000e+03 5.191748448560316e+01 2.918975276816622e+03
1.142570000000000e+03 5.091907132241835e+01 2.918975276816622e+03
1.142570000000000e+03 4.992065815923355e+01 2.918975276816622e+03
1.142570000000000e+03 4.892224499604905e+01 2.918975276816622e+03
1.142570000000000e+03 4.792383183286424e+01 2.918975276816622e+03
1.142570000000000e+03 4.692541866967975e+01 2.918975276816622e+03
1.142570000000000e+03 4.592700550649494e+01 2.918975276816622e+03
1.142570000000000e+03 4.492859234331045e+01 2.918975276816622e+03
1.142570000000000e+03 4.393017918012564e+01 2.918975276816622e+03
1.142570000000000e+03 4.293176601694115e+01 2.918975276816622e+03
1.142570000000000e+03 4.193335285375634e+01 2.918975276816622e+03
1.142570000000000e+03 4.093493969057185e+01 2.918975276816622e+03
1.142570000000000e+03 3.993652652738703e+01 2.918975276816622e+03
1.142570000000000e+03 3.893811336420222e+01 2.918975276816622e+03
1.142570000000000e+03 3.793970020101773e+01 2.918975276816622e+03
1.142570000000000e+03 3.694128703783292e+01 2.918975276816622e+03
1.142570000000000e+03 3.594287387464843e+01 2.918975276816622e+03
1.142570000000000e+03 3.494446071146362e+01 2.918975276816622e+03
1.142570000000000e+03 3.394604754827913e+01 2.918975276816622e+03
1.142570000000000e+03 3.294763438509432e+01 2.918975276816622e+03
1.142570000000000e+03 3.194922122190982e+01 2.918975276816622e+03
1.142570000000000e+03 3.095080805872501e+01 2.918975276816622e+03
1.142570000000000e+03 2.995239489554020e+01 2.918975276816622e+03
1.142570000000000e+03 2.895398173235571e+01 2.918975276816622e+03
1.142570000000000e+03 2.795556856917089e+01 2.918975276816622e+03
1.142570000000000e+03 2.695715540598641e+01 2.918975276816622e+03
1.142570000000000e+03 2.595874224280159e+01 2.918975276816622e+03
1.142570000000000e+03 2.496032907961710e+01 2.918975276816622e+03
1.142570000000000e+03 2.396191591643229e+01 2.918975276816622e+03
1.142570000000000e+03 2.296350275324779e+01 2.918975276816622e+03
1.142570000000000e+03 2.196508959006298e+01 2.918975276816622e+03
1.142570000000000e+03 2.096667642687849e+01 2.918975276816622e+03
1.142570000000000e+03 1.996826326369368e+01 2.918975276816622e+03
1.142570000000000e+03 1.896985010050886e+01 2.918975276816622e+03
1.142570000000000e+03 1.797143693732438e+01 2.918975276816622e+03
1.142570000000000e+03 1.697302377413956e+01 2.918975276816622e+03
1.142570000000000e+03 1.597461061095507e+01 2.918975276816622e+03
1.142570000000000e+03 1.497619744777026e+01 2.918975276816622e+03
1.142570000000000e+03 1.397778428458577e+01 2.918975276816622e+03
1.142570000000000e+03 1.297937112140096e+01 2.918975276816622e+03
1.142570000000000e+03 1.198095795821647e+01 2.918975276816622e+03
1.142570000000000e+03 1.098254479503165e+01 2.918975276816622e+03
1.142570000000000e+03 9.984131631846841e+00 2.918975276816622e+03
1.142570000000000e+03 8.985718468662350e+00 2.918975276816622e+03
1.142570000000000e+03 7.987305305477538e+00 2.918975276816622e+03
1.142570000000000e+03 6.988892142293047e+00 2.918975276816622e+03
1.142570000000000e+03 5.990478979108235e+00 2.918975276816622e+03
1.142570000000000e+03 4.992065815923743e+00 2.918975276816622e+03
1.142570000000000e+03 3.993652652738932e+00 2.918975276816622e+03
1.142570000000000e+03 2.995239489554441e+00 2.918975276816622e+03
1.142570000000000e+03 1.996826326369628e+00 2.918975276816622e+03
1.142570000000000e+03 9.984131631851392e-01 2.918975276816622e+03
-1.159730000000000e+03  0.000000000000000e+00 -2.918975276816622e+03
-1.159730000000000e+03 -9.984131631848139e-01 -2.918975276816622e+03
-1.159730000000000e+03 -1.996826326369303e+00 -2.918975276816622e+03
-1.159730000000000e+03 -2.995239489554117e+00 -2.918975276816622e+03
-1.159730000000000e+03 -3.993652652738606e+00 -2.918975276816622e+03
-1.159730000000000e+03 -4.992065815923421e+00 -2.918975276816622e+03
-1.159730000000000e+03 -5.990478979107908e+00 -2.918975276816622e+03
-1.159730000000000e+03 -6.988892142292723e+00 -2.918975276816622e+03
-1.159730000000000e+03 -7.987305305477212e+00 -2.918975276816622e+03
-1.159730000000000e+03 -8.985718468662027e+00 -2.918975276816622e+03
-1.159730000000000e+03 -9.984131631846514e+00 -2.918975276816622e+03
-1.159730000000000e+03 -1.098254479503133e+01 -2.918975276816622e+03
-1.159730000000000e+03 -1.198095795821614e+01 -2.918975276816622e+03
-1.159730000000000e+03 -1.297937112140063e+01 -2.918975276816622e+03
-1.159730000000000e+03 -1.397778428458545e+01 -2.918975276816622e+03
-1.159730000000000e+03 -1.497619744776993e+01 -2.918975276816622e+03
-1.159730000000000e+03 -1.597461061095474e+01 -2.918975276816622e+03
-1.159730000000000e+03 -1.697302377413924e+01 -2.918975276816622e+03
-1.159730000000000e+03 -1.797143693732405e+01 -2.918975276816622e+03
-1.159730000000000e+03 -1.896985010050854e+01 -2.918975276816622e+03
-1.159730000000000e+03 -1.996826326369335e+01 -2.918975276816622e+03
-1.159730000000000e+03 -2.096667642687817e+01 -2.918975276816622e+03
-1.159730000000000e+03 -2.196508959006266e+01 -2.918975276816622e+03
-1.159730000000000e+03 -2.296350275324747e+01 -2.918975276816622e+03
-1.159730000000000e+03 -2.396191591643196e+01 -2.918975276816622e+03
-1.159730000000000e+03 -2.496032907961677e+01 -2.918975276816622e+03
-1.159730000000000e+03 -2.595874224280126e+01 -2.918975276816622e+03
-1.159730000000000e+03 -2.695715540598608e+01 -2.918975276816622e+03
-1.159730000000000e+03 -2.795556856917056e+01 -2.918975276816622e+03
-1.159730000000000e+03 -2.895398173235539e+01 -2.918975276816622e+03
-1.159730000000000e+03 -2.995239489553986e+01 -2.918975276816622e+03
-1.159730000000000e+03 -3.095080805872470e+01 -2.918975276816622e+03
-1.159730000000000e+03 -3.194922122190951e+01 -2.918975276816622e+03
-1.159730000000000e+03 -3.294763438509401e+01 -2.918975276816622e+03
-1.159730000000000e+03 -3.394604754827881e+01 -2.918975276816622e+03
-1.159730000000000e+03 -3.494446071146330e+01 -2.918975276816622e+03
-1.159730000000000e+03 -3.594287387464811e+01 -2.918975276816622e+03
-1.159730000000000e+03 -3.694128703783261e+01 -2.918975276816622e+03
-1.159730000000000e+03 -3.793970020101742e+01 -2.918975276816622e+03
-1.159730000000000e+03 -3.893811336420191e+01 -2.918975276816622e+03
-1.159730000000000e+03 -3.993652652738672e+01 -2.918975276816622e+03
-1.159730000000000e+03 -4.093493969057153e+01 -2.918975276816622e+03
-1.159730000000000e+03 -4.193335285375603e+01 -2.918975276816622e+03
-1.159730000000000e+03 -4.293176601694083e+01 -2.918975276816622e+03
-1.159730000000000e+03 -4.393017918012533e+01 -2.918975276816622e+03
-1.159730000000000e+03 -4.492859234331014e+01 -2.918975276816622e+03
-1.159730000000000e+03 -4.592700550649462e+01 -2.918975276816622e+03
-1.159730000000000e+03 -4.692541866967943e+01 -2.918975276816622e+03
-1.159730000000000e+03 -4.792383183286393e+01 -2.918975276816622e+03
-1.159730000000000e+03 -4.892224499604874e+01 -2.918975276816622e+03
-1.159730000000000e+03 -4.992065815923323e+01 -2.918975276816622e+03
-1.159730000000000e+03 -5.091907132241803e+01 -2.918975276816622e+03
-1.159730000000000e+03 -5.191748448560285e+01 -2.918975276816622e+03
-1.159730000000000e+03 -5.291589764878734e+01 -2.918975276816622e+03
-1.159730000000000e+03 -5.391431081197216e+01 -2.918975276816622e+03
-1.159730000000000e+03 -5.491272397515664e+01 -2.918975276816622e+03
-1.159730000000000e+03 -5.591113713834146e+01 -2.918975276816622e+03
-1.159730000000000e+03 -5.690955030152595e+01 -2.918975276816622e+03
-1.159730000000000e+03 -5.790796346471076e+01 -2.918975276816622e+03
-1.159730000000000e+03 -5.890637662789525e+01 -2.918975276816622e+03
-1.159730000000000e+03 -5.990478979108006e+01 -2.918975276816622e+03
-1.159730000000000e+03 -6.090320295426487e+01 -2.918975276816622e+03
-1.159730000000000e+03 -6.190161611744936e+01 -2.918975276816622e+03
-1.159730000000000e+03 -6.290002928063417e+01 -2.918975276816622e+03
-1.159730000000000e+03 -6.389844244381867e+01 -2.918975276816622e+03
-1.159730000000000e+03 -6.489685560700347e+01 -2.918975276816622e+03
-1.159730000000000e+03 -6.589526877018797e+01 -2.918975276816622e+03
-1.159730000000000e+03 -6.689368193337278e+01 -2.918975276816622e+03
-1.159730000000000e+03 -6.789209509655727e+01 -2.918975276816622e+03
-1.159730000000000e+03 -6.889050825974208e+01 -2.918975276816622e+03
-1.159730000000000e+03 -6.988892142292659e+01 -2.918975276816622e+03
-1.159730000000000e+03 -7.088733458611138e+01 -2.918975276816622e+03
-1.159730000000000e+03 -7.188574774929620e+01 -2.918975276816622e+03
-1.159730000000000e+03 -7.288416091248068e+01 -2.918975276816622e+03
-1.159730000000000e+03 -7.388257407566550e+01 -2.918975276816622e+03
-1.159730000000000e+03 -7.488098723884998e+01 -2.918975276816622e+03
-1.159730000000000e+03 -7.587940040203480e+01 -2.918975276816622e+03
-1.159730000000000e+03 -7.687781356521928e+01 -2.918975276816622e+03
-1.159730000000000e+03 -7.787622672840411e+01 -2.918975276816622e+03
-1.159730000000000e+03 -7.887463989158859e+01 -2.918975276816622e+03
-1.159730000000000e+03 -7.987305305477341e+01 -2.918975276816622e+03
-1.159730000000000e+03 -8.087146621795824e+01 -2.918975276816622e+03
-1.159730000000000e+03 -8.186987938114271e+01 -2.918975276816622e+03
-1.159730000000000e+03 -8.286829254432755e+01 -2.918975276816622e+03
-1.159730000000000e+03 -8.386670570751201e+01 -2.918975276816622e+03
-1.159730000000000e+03 -8.486511887069685e+01 -2.918975276816622e+03
-1.159730000000000e+03 -8.586353203388131e+01 -2.918975276816622e+03
-1.159730000000000e+03 -8.686194519706615e+01 -2.918975276816622e+03
-1.159730000000000e+03 -8.786035836025063e+01 -2.918975276816622e+03
-1.159730000000000e+03 -8.885877152343545e+01 -2.918975276816622e+03
-1.159730000000000e+03 -8.985718468661993e+01 -2.918975276816622e+03
-1.159730000000000e+03 -9.085559784980477e+01 -2.918975276816622e+03
-1.159730000000000e+03 -9.185401101298956e+01 -2.918975276816622e+03
-1.159730000000000e+03 -9.285242417617407e+01 -2.918975276816622e+03
-1.159730000000000e+03 -9.385083733935886e+01 -2.918975276816622e+03
-1.159730000000000e+03 -9.484925050254337e+01 -2.918975276816622e+03
-1.159730000000000e+03 -9.584766366572816e+01 -2.918975276816622e+03
-1.159730000000000e+03 -9.684607682891267e+01 -2.918975276816622e+03
-1.159730000000000e+03 -9.784448999209748e+01 -2.918975276816622e+03
-1.159730000000000e+03 -9.884290315528197e+01 -2.918975276816622e+03
-1.159730000000000e+03 -9.984131631846678e+01 -2.918975276816622e+03
-1.159730000000000e+03 -1.008397294816516e+02 -2.918975276816622e+03
-1.159730000000000e+03 -1.018381426448361e+02 -2.918975276816622e+03
-1.159730000000000e+03 -1.028365558080209e+02 -2.918975276816622e+03
-1.159730000000000e+03 -1.038349689712054e+02 -2.918975276816622e+03
-1.159730000000000e+03 -1.048333821343902e+02 -2.918975276816622e+03
-1.159730000000000e+03 -1.058317952975747e+02 -2.918975276816622e+03
-1.159730000000000e+03 -1.068302084607595e+02 -2.918975276816622e+03
-1.159730000000000e+03 -1.078286216239440e+02 -2.918975276816622e+03
-1.159730000000000e+03 -1.088270347871288e+02 -2.918975276816622e+03
-1.159730000000000e+03 -1.098254479503133e+02 -2.918975276816622e+03
-1.159730000000000e+03 -1.108238611134981e+02 -2.918975276816622e+03
-1.159730000000000e+03 -1.118222742766829e+02 -2.918975276816622e+03
-1.159730000000000e+03 -1.128206874398674e+02 -2.918975276816622e+03
-1.159730000000000e+03 -1.138191006030522e+02 -2.918975276816622e+03
-1.159730000000000e+03 -1.148175137662367e+02 -2.918975276816622e+03
-1.159730000000000e+03 -1.158159269294215e+02 -2.918975276816622e+03
-1.159730000000000e+03 -1.168143400926060e+02 -2.918975276816622e+03
-1.159730000000000e+03 -1.178127532557908e+02 -2.918975276816622e+03
-1.159730000000000e+03 -1.188111664189753e+02 -2.918975276816622e+03
-1.159730000000000e+03 -1.198095795821601e+02 -2.918975276816622e+03
-1.159730000000000e+03 -1.208079927453449e+02 -2.918975276816622e+03
-1.159730000000000e+03 -1.218064059085294e+02 -2.918975276816622e+03
-1.159730000000000e+03 -1.228048190717142e+02 -2.918975276816622e+03
-1.159730000000000e+03 -1.238032322348987e+02 -2.918975276816622e+03
-1.159730000000000e+03 -1.248016453980835e+02 -2.918975276816622e+03
-1.159730000000000e+03 -1.258000585612680e+02 -2.918975276816622e+03
-1.159730000000000e+03 -1.267984717244529e+02 -2.918975276816622e+03
-1.159730000000000e+03 -1.277968848876373e+02 -2.918975276816622e+03
-1.159730000000000e+03 -1.287952980508221e+02 -2.918975276816622e+03
-1.159730000000000e+03 -1.297937112140066e+02 -2.918975276816622e+03
-1.159730000000000e+03 -1.307921243771914e+02 -2.918975276816622e+03
-1.159730000000000e+03 -1.317905375403762e+02 -2.918975276816622e+03
-1.159730000000000e+03 -1.327889507035608e+02 -2.918975276816622e+03
-1.159730000000000e+03 -1.337873638667456e+02 -2.918975276816622e+03
-1.159730000000000e+03 -1.347857770299301e+02 -2.918975276816622e+03
-1.159730000000000e+03 -1.357841901931149e+02 -2.918975276816622e+03
-1.159730000000000e+03 -1.367826033562994e+02 -2.918975276816622e+03
-1.159730000000000e+03 -1.377810165194842e+02 -2.918975276816622e+03
-1.159730000000000e+03 -1.387794296826687e+02 -2.918975276816622e+03
-1.159730000000000e+03 -1.397778428458535e+02 -2.918975276816622e+03
-1.159730000000000e+03 -1.407762560090383e+02 -2.918975276816622e+03
-1.159730000000000e+03 -1.417746691722228e+02 -2.918975276816622e+03
-1.159730000000000e+03 -1.427730823354076e+02 -2.918975276816622e+03
-1.159730000000000e+03 -1.437714954985921e+02 -2.918975276816622e+03
-1.159730000000000e+03 -1.447699086617769e+02 -2.918975276816622e+03
-1.159730000000000e+03 -1.457683218249614e+02 -2.918975276816622e+03
-1.159730000000000e+03 -1.467667349881462e+02 -2.918975276816622e+03
-1.159730000000000e+03 -1.477651481513307e+02 -2.918975276816622e+03
-1.159730000000000e+03 -1.487635613145155e+02 -2.918975276816622e+03
-1.159730000000000e+03 -1.497619744777000e+02 -2.918975276816622e+03
-1.159730000000000e+03 -1.507603876408848e+02 -2.918975276816622e+03
-1.159730000000000e+03 -1.517588008040696e+02 -2.918975276816622e+03
-1.159730000000000e+03 -1.527572139672541e+02 -2.918975276816622e+03
-1.159730000000000e+03 -1.537556271304389e+02 -2.918975276816622e+03
-1.159730000000000e+03 -1.547540402936234e+02 -2.918975276816622e+03
-1.159730000000000e+03 -1.557524534568082e+02 -2.918975276816622e+03
-1.159730000000000e+03 -1.567508666199927e+02 -2.918975276816622e+03
-1.159730000000000e+03 -1.577492797831775e+02 -2.918975276816622e+03
-1.159730000000000e+03 -1.587476929463620e+02 -2.918975276816622e+03
-1.159730000000000e+03 -1.597461061095468e+02 -2.918975276816622e+03
-1.159730000000000e+03 -1.607445192727317e+02 -2.918975276816622e+03
-1.159730000000000e+03 -1.617429324359161e+02 -2.918975276816622e+03
-1.159730000000000e+03 -1.627413455991010e+02 -2.918975276816622e+03
-1.159730000000000e+03 -1.637397587622854e+02 -2.918975276816622e+03
-1.159730000000000e+03 -1.647381719254702e+02 -2.918975276816622e+03
-1.159730000000000e+03 -1.657365850886547e+02 -2.918975276816622e+03
-1.159730000000000e+03 -1.667349982518395e+02 -2.918975276816622e+03
-1.159730000000000e+03 -1.677334114150240e+02 -2.918975276816622e+03
-1.159730000000000e+03 -1.687318245782089e+02 -2.918975276816622e+03
-1.159730000000000e+03 -1.697302377413933e+02 -2.918975276816622e+03
-1.159730000000000e+03 -1.707286509045782e+02 -2.918975276816622e+03
-1.159730000000000e+03 -1.717270640677630e+02 -2.918975276816622e+03
-1.159730000000000e+03 -1.727254772309475e+02 -2.918975276816622e+03
-1.159730000000000e+03 -1.737238903941323e+02 -2.918975276816622e+03
-1.159730000000000e+03 -1.747223035573168e+02 -2.918975276816622e+03
-1.159730000000000e+03 -1.757207167205016e+02 -2.918975276816622e+03
-1.159730000000000e+03 -1.767191298836861e+02 -2.918975276816622e+03
-1.159730000000000e+03 -1.777175430468709e+02 -2.918975276816622e+03
-1.159730000000000e+03 -1.787159562100554e+02 -2.918975276816622e+03
-1.159730000000000e+03 -1.797143693732402e+02 -2.918975276816622e+03
-1.159730000000000e+03 -1.807127825364250e+02 -2.918975276816622e+03
-1.159730000000000e+03 -1.817111956996095e+02 -2.918975276816622e+03
-1.159730000000000e+03 -1.827096088627943e+02 -2.918975276816622e+03
-1.159730000000000e+03 -1.837080220259788e+02 -2.918975276816622e+03
-1.159730000000000e+03 -1.847064351891636e+02 -2.918975276816622e+03
-1.159730000000000e+03 -1.857048483523481e+02 -2.918975276816622e+03
-1.159730000000000e+03 -1.867032615155329e+02 -2.918975276816622e+03
-1.159730000000000e+03 -1.877016746787174e+02 -2.918975276816622e+03
-1.159730000000000e+03 -1.887000878419022e+02 -2.918975276816622e+03
-1.159730000000000e+03 -1.896985010050867e+02 -2.918975276816622e+03
-1.159730000000000e+03 -1.906969141682715e+02 -2.918975276816622e+03
-1.159730000000000e+03 -1.916953273314563e+02 -2.918975276816622e+03
-1.159730000000000e+03 -1.926937404946408e+02 -2.918975276816622e+03
-1.159730000000000e+03 -1.936921536578257e+02 -2.918975276816622e+03
-1.159730000000000e+03 -1.946905668210101e+02 -2.918975276816622e+03
-1.159730000000000e+03 -1.956889799841950e+02 -2.918975276816622e+03
-1.159730000000000e+03 -1.966873931473794e+02 -2.918975276816622e+03
-1.159730000000000e+03 -1.976858063105643e+02 -2.918975276816622e+03
-1.159730000000000e+03 -1.986842194737487e+02 -2.918975276816622e+03
-1.159730000000000e+03 -1.996826326369336e+02 -2.918975276816622e+03
-1.159730000000000e+03 -2.006810458001183e+02 -2.918975276816622e+03
-1.159730000000000e+03 -2.016794589633029e+02 -2.918975276816622e+03
-1.159730000000000e+03 -2.026778721264876e+02 -2.918975276816622e+03
-1.159730000000000e+03 -2.036762852896721e+02 -2.918975276816622e+03
-1.159730000000000e+03 -2.046746984528569e+02 -2.918975276816622e+03
-1.159730000000000e+03 -2.056731116160414e+02 -2.918975276816622e+03
-1.159730000000000e+03 -2.066715247792262e+02 -2.918975276816622e+03
-1.159730000000000e+03 -2.076699379424107e+02 -2.918975276816622e+03
-1.159730000000000e+03 -2.086683511055955e+02 -2.918975276816622e+03
-1.159730000000000e+03 -2.096667642687800e+02 -2.918975276816622e+03
-1.159730000000000e+03 -2.106651774319648e+02 -2.918975276816622e+03
-1.159730000000000e+03 -2.116635905951497e+02 -2.918975276816622e+03
-1.159730000000000e+03 -2.126620037583342e+02 -2.918975276816622e+03
-1.159730000000000e+03 -2.136604169215190e+02 -2.918975276816622e+03
-1.159730000000000e+03 -2.146588300847035e+02 -2.918975276816622e+03
-1.159730000000000e+03 -2.156572432478883e+02 -2.918975276816622e+03
-1.159730000000000e+03 -2.166556564110728e+02 -2.918975276816622e+03
-1.159730000000000e+03 -2.176540695742576e+02 -2.918975276816622e+03
-1.159730000000000e+03 -2.186524827374421e+02 -2.918975276816622e+03
-1.159730000000000e+03 -2.196508959006269e+02 -2.918975276816622e+03
-1.159730000000000e+03 -2.206493090638117e+02 -2.918975276816622e+03
-1.159730000000000e+03 -2.216477222269962e+02 -2.918975276816622e+03
-1.159730000000000e+03 -2.226461353901810e+02 -2.918975276816622e+03
-1.159730000000000e+03 -2.236445485533655e+02 -2.918975276816622e+03
-1.159730000000000e+03 -2.246429617165503e+02 -2.918975276816622e+03
-1.159730000000000e+03 -2.256413748797348e+02 -2.918975276816622e+03
-1.159730000000000e+03 -2.266397880429196e+02 -2.918975276816622e+03
-1.159730000000000e+03 -2.276382012061041e+02 -2.918975276816622e+03
-1.159730000000000e+03 -2.286366143692889e+02 -2.918975276816622e+03
-1.159730000000000e+03 -2.296350275324734e+02 -2.918975276816622e+03
-1.159730000000000e+03 -2.306334406956582e+02 -2.918975276816622e+03
-1.159730000000000e+03 -2.316318538588430e+02 -2.918975276816622e+03
-1.159730000000000e+03 -2.326302670220275e+02 -2.918975276816622e+03
-1.159730000000000e+03 -2.336286801852123e+02 -2.918975276816622e+03
-1.159730000000000e+03 -2.346270933483968e+02 -2.918975276816622e+03
-1.159730000000000e+03 -2.356255065115816e+02 -2.918975276816622e+03
-1.159730000000000e+03 -2.366239196747661e+02 -2.918975276816622e+03
-1.159730000000000e+03 -2.376223328379509e+02 -2.918975276816622e+03
-1.159730000000000e+03 -2.386207460011354e+02 -2.918975276816622e+03
-1.159730000000000e+03 -2.396191591643202e+02 -2.918975276816622e+03
-1.159730000000000e+03 -2.406175723275051e+02 -2.918975276816622e+03
-1.159730000000000e+03 -2.416159854906895e+02 -2.918975276816622e+03
-1.159730000000000e+03 -2.426143986538744e+02 -2.918975276816622e+03
-1.159730000000000e+03 -2.436128118170589e+02 -2.918975276816622e+03
-1.159730000000000e+03 -2.446112249802437e+02 -2.918975276816622e+03
-1.159730000000000e+03 -2.456096381434282e+02 -2.918975276816622e+03
-1.159730000000000e+03 -2.466080513066130e+02 -2.918975276816622e+03
-1.159730000000000e+03 -2.476064644697975e+02 -2.918975276816622e+03
-1.159730000000000e+03 -2.486048776329823e+02 -2.918975276816622e+03
-1.159730000000000e+03 -2.496032907961668e+02 -2.918975276816622e+03
-1.159730000000000e+03 -2.506017039593516e+02 -2.918975276816622e+03
-1.159730000000000e+03 -2.516001171225364e+02 -2.918975276816622e+03
-1.159730000000000e+03 -2.525985302857209e+02 -2.918975276816622e+03
-1.159730000000000e+03 -2.535969434489057e+02 -2.918975276816622e+03
-1.159730000000000e+03 -2.545953566120902e+02 -2.918975276816622e+03
-1.159730000000000e+03 -2.555937697752750e+02 -2.918975276816622e+03
-1.159730000000000e+03 -2.565921829384595e+02 -2.918975276816622e+03
-1.159730000000000e+03 -2.575905961016443e+02 -2.918975276816622e+03
-1.159730000000000e+03 -2.585890092648288e+02 -2.918975276816622e+03
-1.159730000000000e+03 -2.595874224280136e+02 -2.918975276816622e+03
-1.159730000000000e+03 -2.605858355911981e+02 -2.918975276816622e+03
-1.159730000000000e+03 -2.615842487543829e+02 -2.918975276816622e+03
-1.159730000000000e+03 -2.625826619175677e+02 -2.918975276816622e+03
-1.159730000000000e+03 -2.635810750807522e+02 -2.918975276816622e+03
-1.159730000000000e+03 -2.645794882439370e+02 -2.918975276816622e+03
-1.159730000000000e+03 -2.655779014071215e+02 -2.918975276816622e+03
-1.159730000000000e+03 -2.665763145703064e+02 -2.918975276816622e+03
-1.159730000000000e+03 -2.675747277334908e+02 -2.918975276816622e+03
-1.159730000000000e+03 -2.685731408966756e+02 -2.918975276816622e+03
-1.159730000000000e+03 -2.695715540598601e+02 -2.918975276816622e+03
-1.159730000000000e+03 -2.705699672230450e+02 -2.918975276816622e+03
-1.159730000000000e+03 -2.715683803862298e+02 -2.918975276816622e+03
-1.159730000000000e+03 -2.725667935494142e+02 -2.918975276816622e+03
-1.159730000000000e+03 -2.735652067125990e+02 -2.918975276816622e+03
-1.159730000000000e+03 -2.745636198757836e+02 -2.918975276816622e+03
-1.159730000000000e+03 -2.755620330389683e+02 -2.918975276816622e+03
-1.159730000000000e+03 -2.765604462021528e+02 -2.918975276816622e+03
-1.159730000000000e+03 -2.775588593653376e+02 -2.918975276816622e+03
-1.159730000000000e+03 -2.785572725285221e+02 -2.918975276816622e+03
-1.159730000000000e+03 -2.795556856917070e+02 -2.918975276816622e+03
-1.159730000000000e+03 -2.805540988548914e+02 -2.918975276816622e+03
-1.159730000000000e+03 -2.815525120180762e+02 -2.918975276816622e+03
-1.159730000000000e+03 -2.825509251812611e+02 -2.918975276816622e+03
-1.159730000000000e+03 -2.835493383444456e+02 -2.918975276816622e+03
-1.159730000000000e+03 -2.845477515076304e+02 -2.918975276816622e+03
-1.159730000000000e+03 -2.855461646708148e+02 -2.918975276816622e+03
-1.159730000000000e+03 -2.865445778339997e+02 -2.918975276816622e+03
-1.159730000000000e+03 -2.875429909971842e+02 -2.918975276816622e+03
-1.159730000000000e+03 -2.885414041603691e+02 -2.918975276816622e+03
-1.159730000000000e+03 -2.895398173235534e+02 -2.918975276816622e+03
-1.159730000000000e+03 -2.905382304867383e+02 -2.918975276816622e+03
-1.159730000000000e+03 -2.915366436499231e+02 -2.918975276816622e+03
-1.159730000000000e+03 -2.925350568131077e+02 -2.918975276816622e+03
-1.159730000000000e+03 -2.935334699762925e+02 -2.918975276816622e+03
-1.159730000000000e+03 -2.945318831394769e+02 -2.918975276816622e+03
-1.159730000000000e+03 -2.955302963026617e+02 -2.918975276816622e+03
-1.159730000000000e+03 -2.965287094658462e+02 -2.918975276816622e+03
-1.159730000000000e+03 -2.975271226290312e+02 -2.918975276816622e+03
-1.159730000000000e+03 -2.985255357922155e+02 -2.918975276816622e+03
-1.159730000000000e+03 -2.995239489554003e+02 -2.918975276816622e+03
-1.159730000000000e+03 -3.005223621185849e+02 -2.918975276816622e+03
-1.159730000000000e+03 -3.015207752817698e+02 -2.918975276816622e+03
-1.159730000000000e+03 -3.025191884449544e+02 -2.918975276816622e+03
-1.159730000000000e+03 -3.035176016081389e+02 -2.918975276816622e+03
-1.159730000000000e+03 -3.045160147713238e+02 -2.918975276816622e+03
-1.159730000000000e+03 -3.055144279345084e+02 -2.918975276816622e+03
-1.159730000000000e+03 -3.065128410976930e+02 -2.918975276816622e+03
-1.159730000000000e+03 -3.075112542608775e+02 -2.918975276816622e+03
-1.159730000000000e+03 -3.085096674240624e+02 -2.918975276816622e+03
-1.159730000000000e+03 -3.095080805872470e+02 -2.918975276816622e+03
-1.159730000000000e+03 -3.105064937504316e+02 -2.918975276816622e+03
-1.159730000000000e+03 -3.115049069136164e+02 -2.918975276816622e+03
-1.159730000000000e+03 -3.125033200768010e+02 -2.918975276816622e+03
-1.159730000000000e+03 -3.135017332399859e+02 -2.918975276816622e+03
-1.159730000000000e+03 -3.145001464031702e+02 -2.918975276816622e+03
-1.159730000000000e+03 -3.154985595663550e+02 -2.918975276816622e+03
-1.159730000000000e+03 -3.164969727295396e+02 -2.918975276816622e+03
-1.159730000000000e+03 -3.174953858927245e+02 -2.918975276816622e+03
-1.159730000000000e+03 -3.184937990559088e+02 -2.918975276816622e+03
-1.159730000000000e+03 -3.194922122190936e+02 -2.918975276816622e+03
-1.159730000000000e+03 -3.204906253822782e+02 -2.918975276816622e+03
-1.159730000000000e+03 -3.214890385454631e+02 -2.918975276816622e+03
-1.159730000000000e+03 -3.224874517086477e+02 -2.918975276816622e+03
-1.159730000000000e+03 -3.234858648718322e+02 -2.918975276816622e+03
-1.159730000000000e+03 -3.244842780350171e+02 -2.918975276816622e+03
-1.159730000000000e+03 -3.254826911982017e+02 -2.918975276816622e+03
-1.159730000000000e+03 -3.264811043613863e+02 -2.918975276816622e+03
-1.159730000000000e+03 -3.274795175245708e+02 -2.918975276816622e+03
-1.159730000000000e+03 -3.284779306877557e+02 -2.918975276816622e+03
-1.159730000000000e+03 -3.294763438509403e+02 -2.918975276816622e+03
-1.159730000000000e+03 -3.304747570141249e+02 -2.918975276816622e+03
-1.159730000000000e+03 -3.314731701773097e+02 -2.918975276816622e+03
-1.159730000000000e+03 -3.324715833404943e+02 -2.918975276816622e+03
-1.159730000000000e+03 -3.334699965036792e+02 -2.918975276816622e+03
-1.159730000000000e+03 -3.344684096668635e+02 -2.918975276816622e+03
-1.159730000000000e+03 -3.354668228300483e+02 -2.918975276816622e+03
-1.159730000000000e+03 -3.364652359932329e+02 -2.918975276816622e+03
-1.159730000000000e+03 -3.374636491564178e+02 -2.918975276816622e+03
-1.159730000000000e+03 -3.384620623196021e+02 -2.918975276816622e+03
-1.159730000000000e+03 -3.394604754827869e+02 -2.918975276816622e+03
-1.159730000000000e+03 -3.404588886459715e+02 -2.918975276816622e+03
-1.159730000000000e+03 -3.414573018091564e+02 -2.918975276816622e+03
-1.159730000000000e+03 -3.424557149723413e+02 -2.918975276816622e+03
-1.159730000000000e+03 -3.434541281355255e+02 -2.918975276816622e+03
-1.159730000000000e+03 -3.444525412987104e+02 -2.918975276816622e+03
-1.159730000000000e+03 -3.454509544618950e+02 -2.918975276816622e+03
-1.159730000000000e+03 -3.464493676250799e+02 -2.918975276816622e+03
-1.159730000000000e+03 -3.474477807882641e+02 -2.918975276816622e+03
-1.159730000000000e+03 -3.484461939514490e+02 -2.918975276816622e+03
-1.159730000000000e+03 -3.494446071146336e+02 -2.918975276816622e+03
-1.159730000000000e+03 -3.504430202778185e+02 -2.918975276816622e+03
-1.159730000000000e+03 -3.514414334410030e+02 -2.918975276816622e+03
-1.159730000000000e+03 -3.524398466041876e+02 -2.918975276816622e+03
-1.159730000000000e+03 -3.534382597673725e+02 -2.918975276816622e+03
-1.159730000000000e+03 -3.544366729305571e+02 -2.918975276816622e+03
-1.159730000000000e+03 -3.554350860937416e+02 -2.918975276816622e+03
-1.159730000000000e+03 -3.564334992569262e+02 -2.918975276816622e+03
-1.159730000000000e+03 -3.574319124201111e+02 -2.918975276816622e+03
-1.159730000000000e+03 -3.584303255832957e+02 -2.918975276816622e+03
-1.159730000000000e+03 -3.594287387464802e+02 -2.918975276816622e+03
-1.159730000000000e+03 -3.604271519096648e+02 -2.918975276816622e+03
-1.159730000000000e+03 -3.614255650728497e+02 -2.918975276816622e+03
-1.159730000000000e+03 -3.624239782360346e+02 -2.918975276816622e+03
-1.159730000000000e+03 -3.634223913992188e+02 -2.918975276816622e+03
-1.159730000000000e+03 -3.644208045624037e+02 -2.918975276816622e+03
-1.159730000000000e+03 -3.654192177255883e+02 -2.918975276816622e+03
-1.159730000000000e+03 -3.664176308887732e+02 -2.918975276816622e+03
-1.159730000000000e+03 -3.674160440519575e+02 -2.918975276816622e+03
-1.159730000000000e+03 -3.684144572151423e+02 -2.918975276816622e+03
-1.159730000000000e+03 -3.694128703783269e+02 -2.918975276816622e+03
-1.159730000000000e+03 -3.704112835415118e+02 -2.918975276816622e+03
-1.159730000000000e+03 -3.714096967046967e+02 -2.918975276816622e+03
-1.159730000000000e+03 -3.724081098678809e+02 -2.918975276816622e+03
-1.159730000000000e+03 -3.734065230310658e+02 -2.918975276816622e+03
-1.159730000000000e+03 -3.744049361942504e+02 -2.918975276816622e+03
-1.159730000000000e+03 -3.754033493574353e+02 -2.918975276816622e+03
-1.159730000000000e+03 -3.764017625206195e+02 -2.918975276816622e+03
-1.159730000000000e+03 -3.774001756838044e+02 -2.918975276816622e+03
-1.159730000000000e+03 -3.783985888469890e+02 -2.918975276816622e+03
-1.159730000000000e+03 -3.793970020101739e+02 -2.918975276816622e+03
-1.159730000000000e+03 -3.803954151733581e+02 -2.918975276816622e+03
-1.159730000000000e+03 -3.813938283365430e+02 -2.918975276816622e+03
-1.159730000000000e+03 -3.823922414997278e+02 -2.918975276816622e+03
-1.159730000000000e+03 -3.833906546629125e+02 -2.918975276816622e+03
-1.159730000000000e+03 -3.843890678260971e+02 -2.918975276816622e+03
-1.159730000000000e+03 -3.853874809892816e+02 -2.918975276816622e+03
-1.159730000000000e+03 -3.863858941524674e+02 -2.918975276816622e+03
-1.159730000000000e+03  3.863858941524653e+02 -2.918975276816622e+03
-1.159730000000000e+03  3.853874809892819e+02 -2.918975276816622e+03
-1.159730000000000e+03  3.843890678260977e+02 -2.918975276816622e+03
-1.159730000000000e+03  3.833906546629128e+02 -2.918975276816622e+03
-1.159730000000000e+03  3.823922414997282e+02 -2.918975276816622e+03
-1.159730000000000e+03  3.813938283365433e+02 -2.918975276816622e+03
-1.159730000000000e+03  3.803954151733585e+02 -2.918975276816622e+03
-1.159730000000000e+03  3.793970020101742e+02 -2.918975276816622e+03
-1.159730000000000e+03  3.783985888469892e+02 -2.918975276816622e+03
-1.159730000000000e+03  3.774001756838047e+02 -2.918975276816622e+03
-1.159730000000000e+03  3.764017625206199e+02 -2.918975276816622e+03
-1.159730000000000e+03  3.754033493574355e+02 -2.918975276816622e+03
-1.159730000000000e+03  3.744049361942506e+02 -2.918975276816622e+03
-1.159730000000000e+03  3.734065230310661e+02 -2.918975276816622e+03
-1.159730000000000e+03  3.724081098678813e+02 -2.918975276816622e+03
-1.159730000000000e+03  3.714096967046969e+02 -2.918975276816622e+03
-1.159730000000000e+03  3.704112835415120e+02 -2.918975276816622e+03
-1.159730000000000e+03  3.694128703783272e+02 -2.918975276816622e+03
-1.159730000000000e+03  3.684144572151426e+02 -2.918975276816622e+03
-1.159730000000000e+03  3.674160440519581e+02 -2.918975276816622e+03
-1.159730000000000e+03  3.664176308887734e+02 -2.918975276816622e+03
-1.159730000000000e+03  3.654192177255886e+02 -2.918975276816622e+03
-1.159730000000000e+03  3.644208045624040e+02 -2.918975276816622e+03
-1.159730000000000e+03  3.634223913992195e+02 -2.918975276816622e+03
-1.159730000000000e+03  3.624239782360348e+02 -2.918975276816622e+03
-1.159730000000000e+03  3.614255650728500e+02 -2.918975276816622e+03
-1.159730000000000e+03  3.604271519096651e+02 -2.918975276816622e+03
-1.159730000000000e+03  3.594287387464808e+02 -2.918975276816622e+03
-1.159730000000000e+03  3.584303255832960e+02 -2.918975276816622e+03
-1.159730000000000e+03  3.574319124201114e+02 -2.918975276816622e+03
-1.159730000000000e+03  3.564334992569265e+02 -2.918975276816622e+03
-1.159730000000000e+03  3.554350860937422e+02 -2.918975276816622e+03
-1.159730000000000e+03  3.544366729305574e+02 -2.918975276816622e+03
-1.159730000000000e+03  3.534382597673728e+02 -2.918975276816622e+03
-1.159730000000000e+03  3.524398466041879e+02 -2.918975276816622e+03
-1.159730000000000e+03  3.514414334410036e+02 -2.918975276816622e+03
-1.159730000000000e+03  3.504430202778188e+02 -2.918975276816622e+03
-1.159730000000000e+03  3.494446071146339e+02 -2.918975276816622e+03
-1.159730000000000e+03  3.484461939514493e+02 -2.918975276816622e+03
-1.159730000000000e+03  3.474477807882644e+02 -2.918975276816622e+03
-1.159730000000000e+03  3.464493676250801e+02 -2.918975276816622e+03
-1.159730000000000e+03  3.454509544618953e+02 -2.918975276816622e+03
-1.159730000000000e+03  3.444525412987106e+02 -2.918975276816622e+03
-1.159730000000000e+03  3.434541281355258e+02 -2.918975276816622e+03
-1.159730000000000e+03  3.424557149723415e+02 -2.918975276816622e+03
-1.159730000000000e+03  3.414573018091567e+02 -2.918975276816622e+03
-1.159730000000000e+03  3.404588886459718e+02 -2.918975276816622e+03
-1.159730000000000e+03  3.394604754827872e+02 -2.918975276816622e+03
-1.159730000000000e+03  3.384620623196027e+02 -2.918975276816622e+03
-1.159730000000000e+03  3.374636491564181e+02 -2.918975276816622e+03
-1.159730000000000e+03  3.364652359932332e+02 -2.918975276816622e+03
-1.159730000000000e+03  3.354668228300486e+02 -2.918975276816622e+03
-1.159730000000000e+03  3.344684096668641e+02 -2.918975276816622e+03
-1.159730000000000e+03  3.334699965036795e+02 -2.918975276816622e+03
-1.159730000000000e+03  3.324715833404946e+02 -2.918975276816622e+03
-1.159730000000000e+03  3.314731701773101e+02 -2.918975276816622e+03
-1.159730000000000e+03  3.304747570141254e+02 -2.918975276816622e+03
-1.159730000000000e+03  3.294763438509406e+02 -2.918975276816622e+03
-1.159730000000000e+03  3.284779306877559e+02 -2.918975276816622e+03
-1.159730000000000e+03  3.274795175245711e+02 -2.918975276816622e+03
-1.159730000000000e+03  3.264811043613868e+02 -2.918975276816622e+03
-1.159730000000000e+03  3.254826911982019e+02 -2.918975276816622e+03
-1.159730000000000e+03  3.244842780350173e+02 -2.918975276816622e+03
-1.159730000000000e+03  3.234858648718325e+02 -2.918975276816622e+03
-1.159730000000000e+03  3.224874517086482e+02 -2.918975276816622e+03
-1.159730000000000e+03  3.214890385454633e+02 -2.918975276816622e+03
-1.159730000000000e+03  3.204906253822785e+02 -2.918975276816622e+03
-1.159730000000000e+03  3.194922122190939e+02 -2.918975276816622e+03
-1.159730000000000e+03  3.184937990559091e+02 -2.918975276816622e+03
-1.159730000000000e+03  3.174953858927247e+02 -2.918975276816622e+03
-1.159730000000000e+03  3.164969727295399e+02 -2.918975276816622e+03
-1.159730000000000e+03  3.154985595663553e+02 -2.918975276816622e+03
-1.159730000000000e+03  3.145001464031704e+02 -2.918975276816622e+03
-1.159730000000000e+03  3.135017332399861e+02 -2.918975276816622e+03
-1.159730000000000e+03  3.125033200768012e+02 -2.918975276816622e+03
-1.159730000000000e+03  3.115049069136167e+02 -2.918975276816622e+03
-1.159730000000000e+03  3.105064937504318e+02 -2.918975276816622e+03
-1.159730000000000e+03  3.095080805872472e+02 -2.918975276816622e+03
-1.159730000000000e+03  3.085096674240626e+02 -2.918975276816622e+03
-1.159730000000000e+03  3.075112542608778e+02 -2.918975276816622e+03
-1.159730000000000e+03  3.065128410976932e+02 -2.918975276816622e+03
-1.159730000000000e+03  3.055144279345086e+02 -2.918975276816622e+03
-1.159730000000000e+03  3.045160147713240e+02 -2.918975276816622e+03
-1.159730000000000e+03  3.035176016081392e+02 -2.918975276816622e+03
-1.159730000000000e+03  3.025191884449546e+02 -2.918975276816622e+03
-1.159730000000000e+03  3.015207752817700e+02 -2.918975276816622e+03
-1.159730000000000e+03  3.005223621185852e+02 -2.918975276816622e+03
-1.159730000000000e+03  2.995239489554006e+02 -2.918975276816622e+03
-1.159730000000000e+03  2.985255357922157e+02 -2.918975276816622e+03
-1.159730000000000e+03  2.975271226290314e+02 -2.918975276816622e+03
-1.159730000000000e+03  2.965287094658465e+02 -2.918975276816622e+03
-1.159730000000000e+03  2.955302963026620e+02 -2.918975276816622e+03
-1.159730000000000e+03  2.945318831394771e+02 -2.918975276816622e+03
-1.159730000000000e+03  2.935334699762928e+02 -2.918975276816622e+03
-1.159730000000000e+03  2.925350568131079e+02 -2.918975276816622e+03
-1.159730000000000e+03  2.915366436499234e+02 -2.918975276816622e+03
-1.159730000000000e+03  2.905382304867385e+02 -2.918975276816622e+03
-1.159730000000000e+03  2.895398173235539e+02 -2.918975276816622e+03
-1.159730000000000e+03  2.885414041603693e+02 -2.918975276816622e+03
-1.159730000000000e+03  2.875429909971845e+02 -2.918975276816622e+03
-1.159730000000000e+03  2.865445778339999e+02 -2.918975276816622e+03
-1.159730000000000e+03  2.855461646708152e+02 -2.918975276816622e+03
-1.159730000000000e+03  2.845477515076307e+02 -2.918975276816622e+03
-1.159730000000000e+03  2.835493383444459e+02 -2.918975276816622e+03
-1.159730000000000e+03  2.825509251812614e+02 -2.918975276816622e+03
-1.159730000000000e+03  2.815525120180766e+02 -2.918975276816622e+03
-1.159730000000000e+03  2.805540988548918e+02 -2.918975276816622e+03
-1.159730000000000e+03  2.795556856917073e+02 -2.918975276816622e+03
-1.159730000000000e+03  2.785572725285224e+02 -2.918975276816622e+03
-1.159730000000000e+03  2.775588593653380e+02 -2.918975276816622e+03
-1.159730000000000e+03  2.765604462021532e+02 -2.918975276816622e+03
-1.159730000000000e+03  2.755620330389687e+02 -2.918975276816622e+03
-1.159730000000000e+03  2.745636198757838e+02 -2.918975276816622e+03
-1.159730000000000e+03  2.735652067125994e+02 -2.918975276816622e+03
-1.159730000000000e+03  2.725667935494146e+02 -2.918975276816622e+03
-1.159730000000000e+03  2.715683803862300e+02 -2.918975276816622e+03
-1.159730000000000e+03  2.705699672230452e+02 -2.918975276816622e+03
-1.159730000000000e+03  2.695715540598604e+02 -2.918975276816622e+03
-1.159730000000000e+03  2.685731408966760e+02 -2.918975276816622e+03
-1.159730000000000e+03  2.675747277334912e+02 -2.918975276816622e+03
-1.159730000000000e+03  2.665763145703067e+02 -2.918975276816622e+03
-1.159730000000000e+03  2.655779014071218e+02 -2.918975276816622e+03
-1.159730000000000e+03  2.645794882439374e+02 -2.918975276816622e+03
-1.159730000000000e+03  2.635810750807526e+02 -2.918975276816622e+03
-1.159730000000000e+03  2.625826619175680e+02 -2.918975276816622e+03
-1.159730000000000e+03  2.615842487543832e+02 -2.918975276816622e+03
-1.159730000000000e+03  2.605858355911984e+02 -2.918975276816622e+03
-1.159730000000000e+03  2.595874224280140e+02 -2.918975276816622e+03
-1.159730000000000e+03  2.585890092648291e+02 -2.918975276816622e+03
-1.159730000000000e+03  2.575905961016446e+02 -2.918975276816622e+03
-1.159730000000000e+03  2.565921829384598e+02 -2.918975276816622e+03
-1.159730000000000e+03  2.555937697752753e+02 -2.918975276816622e+03
-1.159730000000000e+03  2.545953566120905e+02 -2.918975276816622e+03
-1.159730000000000e+03  2.535969434489060e+02 -2.918975276816622e+03
-1.159730000000000e+03  2.525985302857212e+02 -2.918975276816622e+03
-1.159730000000000e+03  2.516001171225367e+02 -2.918975276816622e+03
-1.159730000000000e+03  2.506017039593519e+02 -2.918975276816622e+03
-1.159730000000000e+03  2.496032907961671e+02 -2.918975276816622e+03
-1.159730000000000e+03  2.486048776329826e+02 -2.918975276816622e+03
-1.159730000000000e+03  2.476064644697978e+02 -2.918975276816622e+03
-1.159730000000000e+03  2.466080513066133e+02 -2.918975276816622e+03
-1.159730000000000e+03  2.456096381434285e+02 -2.918975276816622e+03
-1.159730000000000e+03  2.446112249802440e+02 -2.918975276816622e+03
-1.159730000000000e+03  2.436128118170592e+02 -2.918975276816622e+03
-1.159730000000000e+03  2.426143986538747e+02 -2.918975276816622e+03
-1.159730000000000e+03  2.416159854906899e+02 -2.918975276816622e+03
-1.159730000000000e+03  2.406175723275054e+02 -2.918975276816622e+03
-1.159730000000000e+03  2.396191591643206e+02 -2.918975276816622e+03
-1.159730000000000e+03  2.386207460011358e+02 -2.918975276816622e+03
-1.159730000000000e+03  2.376223328379513e+02 -2.918975276816622e+03
-1.159730000000000e+03  2.366239196747665e+02 -2.918975276816622e+03
-1.159730000000000e+03  2.356255065115820e+02 -2.918975276816622e+03
-1.159730000000000e+03  2.346270933483971e+02 -2.918975276816622e+03
-1.159730000000000e+03  2.336286801852127e+02 -2.918975276816622e+03
-1.159730000000000e+03  2.326302670220279e+02 -2.918975276816622e+03
-1.159730000000000e+03  2.316318538588434e+02 -2.918975276816622e+03
-1.159730000000000e+03  2.306334406956585e+02 -2.918975276816622e+03
-1.159730000000000e+03  2.296350275324737e+02 -2.918975276816622e+03
-1.159730000000000e+03  2.286366143692892e+02 -2.918975276816622e+03
-1.159730000000000e+03  2.276382012061044e+02 -2.918975276816622e+03
-1.159730000000000e+03  2.266397880429199e+02 -2.918975276816622e+03
-1.159730000000000e+03  2.256413748797351e+02 -2.918975276816622e+03
-1.159730000000000e+03  2.246429617165506e+02 -2.918975276816622e+03
-1.159730000000000e+03  2.236445485533658e+02 -2.918975276816622e+03
-1.159730000000000e+03  2.226461353901813e+02 -2.918975276816622e+03
-1.159730000000000e+03  2.216477222269965e+02 -2.918975276816622e+03
-1.159730000000000e+03  2.206493090638120e+02 -2.918975276816622e+03
-1.159730000000000e+03  2.196508959006272e+02 -2.918975276816622e+03
-1.159730000000000e+03  2.186524827374424e+02 -2.918975276816622e+03
-1.159730000000000e+03  2.176540695742579e+02 -2.918975276816622e+03
-1.159730000000000e+03  2.166556564110731e+02 -2.918975276816622e+03
-1.159730000000000e+03  2.156572432478886e+02 -2.918975276816622e+03
-1.159730000000000e+03  2.146588300847038e+02 -2.918975276816622e+03
-1.159730000000000e+03  2.136604169215193e+02 -2.918975276816622e+03
-1.159730000000000e+03  2.126620037583345e+02 -2.918975276816622e+03
-1.159730000000000e+03  2.116635905951500e+02 -2.918975276816622e+03
-1.159730000000000e+03  2.106651774319652e+02 -2.918975276816622e+03
-1.159730000000000e+03  2.096667642687804e+02 -2.918975276816622e+03
-1.159730000000000e+03  2.086683511055959e+02 -2.918975276816622e+03
-1.159730000000000e+03  2.076699379424111e+02 -2.918975276816622e+03
-1.159730000000000e+03  2.066715247792266e+02 -2.918975276816622e+03
-1.159730000000000e+03  2.056731116160418e+02 -2.918975276816622e+03
-1.159730000000000e+03  2.046746984528573e+02 -2.918975276816622e+03
-1.159730000000000e+03  2.036762852896724e+02 -2.918975276816622e+03
-1.159730000000000e+03  2.026778721264880e+02 -2.918975276816622e+03
-1.159730000000000e+03  2.016794589633031e+02 -2.918975276816622e+03
-1.159730000000000e+03  2.006810458001187e+02 -2.918975276816622e+03
-1.159730000000000e+03  1.996826326369338e+02 -2.918975276816622e+03
-1.159730000000000e+03  1.986842194737490e+02 -2.918975276816622e+03
-1.159730000000000e+03  1.976858063105645e+02 -2.918975276816622e+03
-1.159730000000000e+03  1.966873931473798e+02 -2.918975276816622e+03
-1.159730000000000e+03  1.956889799841952e+02 -2.918975276816622e+03
-1.159730000000000e+03  1.946905668210105e+02 -2.918975276816622e+03
-1.159730000000000e+03  1.936921536578259e+02 -2.918975276816622e+03
-1.159730000000000e+03  1.926937404946412e+02 -2.918975276816622e+03
-1.159730000000000e+03  1.916953273314567e+02 -2.918975276816622e+03
-1.159730000000000e+03  1.906969141682719e+02 -2.918975276816622e+03
-1.159730000000000e+03  1.896985010050870e+02 -2.918975276816622e+03
-1.159730000000000e+03  1.887000878419026e+02 -2.918975276816622e+03
-1.159730000000000e+03  1.877016746787177e+02 -2.918975276816622e+03
-1.159730000000000e+03  1.867032615155333e+02 -2.918975276816622e+03
-1.159730000000000e+03  1.857048483523484e+02 -2.918975276816622e+03
-1.159730000000000e+03  1.847064351891639e+02 -2.918975276816622e+03
-1.159730000000000e+03  1.837080220259791e+02 -2.918975276816622e+03
-1.159730000000000e+03  1.827096088627946e+02 -2.918975276816622e+03
-1.159730000000000e+03  1.817111956996098e+02 -2.918975276816622e+03
-1.159730000000000e+03  1.807127825364253e+02 -2.918975276816622e+03
-1.159730000000000e+03  1.797143693732405e+02 -2.918975276816622e+03
-1.159730000000000e+03  1.787159562100557e+02 -2.918975276816622e+03
-1.159730000000000e+03  1.777175430468712e+02 -2.918975276816622e+03
-1.159730000000000e+03  1.767191298836864e+02 -2.918975276816622e+03
-1.159730000000000e+03  1.757207167205019e+02 -2.918975276816622e+03
-1.159730000000000e+03  1.747223035573171e+02 -2.918975276816622e+03
-1.159730000000000e+03  1.737238903941326e+02 -2.918975276816622e+03
-1.159730000000000e+03  1.727254772309478e+02 -2.918975276816622e+03
-1.159730000000000e+03  1.717270640677633e+02 -2.918975276816622e+03
-1.159730000000000e+03  1.707286509045785e+02 -2.918975276816622e+03
-1.159730000000000e+03  1.697302377413937e+02 -2.918975276816622e+03
-1.159730000000000e+03  1.687318245782092e+02 -2.918975276816622e+03
-1.159730000000000e+03  1.677334114150244e+02 -2.918975276816622e+03
-1.159730000000000e+03  1.667349982518399e+02 -2.918975276816622e+03
-1.159730000000000e+03  1.657365850886551e+02 -2.918975276816622e+03
-1.159730000000000e+03  1.647381719254706e+02 -2.918975276816622e+03
-1.159730000000000e+03  1.637397587622858e+02 -2.918975276816622e+03
-1.159730000000000e+03  1.627413455991013e+02 -2.918975276816622e+03
-1.159730000000000e+03  1.617429324359165e+02 -2.918975276816622e+03
-1.159730000000000e+03  1.607445192727320e+02 -2.918975276816622e+03
-1.159730000000000e+03  1.597461061095472e+02 -2.918975276816622e+03
-1.159730000000000e+03  1.587476929463623e+02 -2.918975276816622e+03
-1.159730000000000e+03  1.577492797831779e+02 -2.918975276816622e+03
-1.159730000000000e+03  1.567508666199930e+02 -2.918975276816622e+03
-1.159730000000000e+03  1.557524534568086e+02 -2.918975276816622e+03
-1.159730000000000e+03  1.547540402936237e+02 -2.918975276816622e+03
-1.159730000000000e+03  1.537556271304393e+02 -2.918975276816622e+03
-1.159730000000000e+03  1.527572139672544e+02 -2.918975276816622e+03
-1.159730000000000e+03  1.517588008040699e+02 -2.918975276816622e+03
-1.159730000000000e+03  1.507603876408851e+02 -2.918975276816622e+03
-1.159730000000000e+03  1.497619744777003e+02 -2.918975276816622e+03
-1.159730000000000e+03  1.487635613145158e+02 -2.918975276816622e+03
-1.159730000000000e+03  1.477651481513310e+02 -2.918975276816622e+03
-1.159730000000000e+03  1.467667349881465e+02 -2.918975276816622e+03
-1.159730000000000e+03  1.457683218249617e+02 -2.918975276816622e+03
-1.159730000000000e+03  1.447699086617772e+02 -2.918975276816622e+03
-1.159730000000000e+03  1.437714954985924e+02 -2.918975276816622e+03
-1.159730000000000e+03  1.427730823354079e+02 -2.918975276816622e+03
-1.159730000000000e+03  1.417746691722231e+02 -2.918975276816622e+03
-1.159730000000000e+03  1.407762560090386e+02 -2.918975276816622e+03
-1.159730000000000e+03  1.397778428458538e+02 -2.918975276816622e+03
-1.159730000000000e+03  1.387794296826690e+02 -2.918975276816622e+03
-1.159730000000000e+03  1.377810165194845e+02 -2.918975276816622e+03
-1.159730000000000e+03  1.367826033562997e+02 -2.918975276816622e+03
-1.159730000000000e+03  1.357841901931152e+02 -2.918975276816622e+03
-1.159730000000000e+03  1.347857770299304e+02 -2.918975276816622e+03
-1.159730000000000e+03  1.337873638667459e+02 -2.918975276816622e+03
-1.159730000000000e+03  1.327889507035611e+02 -2.918975276816622e+03
-1.159730000000000e+03  1.317905375403766e+02 -2.918975276816622e+03
-1.159730000000000e+03  1.307921243771918e+02 -2.918975276816622e+03
-1.159730000000000e+03  1.297937112140069e+02 -2.918975276816622e+03
-1.159730000000000e+03  1.287952980508225e+02 -2.918975276816622e+03
-1.159730000000000e+03  1.277968848876376e+02 -2.918975276816622e+03
-1.159730000000000e+03  1.267984717244532e+02 -2.918975276816622e+03
-1.159730000000000e+03  1.258000585612683e+02 -2.918975276816622e+03
-1.159730000000000e+03  1.248016453980839e+02 -2.918975276816622e+03
-1.159730000000000e+03  1.238032322348990e+02 -2.918975276816622e+03
-1.159730000000000e+03  1.228048190717146e+02 -2.918975276816622e+03
-1.159730000000000e+03  1.218064059085297e+02 -2.918975276816622e+03
-1.159730000000000e+03  1.208079927453453e+02 -2.918975276816622e+03
-1.159730000000000e+03  1.198095795821604e+02 -2.918975276816622e+03
-1.159730000000000e+03  1.188111664189756e+02 -2.918975276816622e+03
-1.159730000000000e+03  1.178127532557911e+02 -2.918975276816622e+03
-1.159730000000000e+03  1.168143400926063e+02 -2.918975276816622e+03
-1.159730000000000e+03  1.158159269294218e+02 -2.918975276816622e+03
-1.159730000000000e+03  1.148175137662370e+02 -2.918975276816622e+03
-1.159730000000000e+03  1.138191006030525e+02 -2.918975276816622e+03
-1.159730000000000e+03  1.128206874398677e+02 -2.918975276816622e+03
-1.159730000000000e+03  1.118222742766832e+02 -2.918975276816622e+03
-1.159730000000000e+03  1.108238611134984e+02 -2.918975276816622e+03
-1.159730000000000e+03  1.098254479503136e+02 -2.918975276816622e+03
-1.159730000000000e+03  1.088270347871291e+02 -2.918975276816622e+03
-1.159730000000000e+03  1.078286216239443e+02 -2.918975276816622e+03
-1.159730000000000e+03  1.068302084607598e+02 -2.918975276816622e+03
-1.159730000000000e+03  1.058317952975750e+02 -2.918975276816622e+03
-1.159730000000000e+03  1.048333821343905e+02 -2.918975276816622e+03
-1.159730000000000e+03  1.038349689712057e+02 -2.918975276816622e+03
-1.159730000000000e+03  1.028365558080212e+02 -2.918975276816622e+03
-1.159730000000000e+03  1.018381426448364e+02 -2.918975276816622e+03
-1.159730000000000e+03  1.008397294816519e+02 -2.918975276816622e+03
-1.159730000000000e+03  9.984131631846709e+01 -2.918975276816622e+03
-1.159730000000000e+03  9.884290315528227e+01 -2.918975276816622e+03
-1.159730000000000e+03  9.784448999209779e+01 -2.918975276816622e+03
-1.159730000000000e+03  9.684607682891297e+01 -2.918975276816622e+03
-1.159730000000000e+03  9.584766366572849e+01 -2.918975276816622e+03
-1.159730000000000e+03  9.484925050254368e+01 -2.918975276816622e+03
-1.159730000000000e+03  9.385083733935917e+01 -2.918975276816622e+03
-1.159730000000000e+03  9.285242417617438e+01 -2.918975276816622e+03
-1.159730000000000e+03  9.185401101298989e+01 -2.918975276816622e+03
-1.159730000000000e+03  9.085559784980508e+01 -2.918975276816622e+03
-1.159730000000000e+03  8.985718468662027e+01 -2.918975276816622e+03
-1.159730000000000e+03  8.885877152343578e+01 -2.918975276816622e+03
-1.159730000000000e+03  8.786035836025097e+01 -2.918975276816622e+03
-1.159730000000000e+03  8.686194519706646e+01 -2.918975276816622e+03
-1.159730000000000e+03  8.586353203388167e+01 -2.918975276816622e+03
-1.159730000000000e+03  8.486511887069716e+01 -2.918975276816622e+03
-1.159730000000000e+03  8.386670570751237e+01 -2.918975276816622e+03
-1.159730000000000e+03  8.286829254432786e+01 -2.918975276816622e+03
-1.159730000000000e+03  8.186987938114305e+01 -2.918975276816622e+03
-1.159730000000000e+03  8.087146621795856e+01 -2.918975276816622e+03
-1.159730000000000e+03  7.987305305477375e+01 -2.918975276816622e+03
-1.159730000000000e+03  7.887463989158894e+01 -2.918975276816622e+03
-1.159730000000000e+03  7.787622672840445e+01 -2.918975276816622e+03
-1.159730000000000e+03  7.687781356521963e+01 -2.918975276816622e+03
-1.159730000000000e+03  7.587940040203515e+01 -2.918975276816622e+03
-1.159730000000000e+03  7.488098723885032e+01 -2.918975276816622e+03
-1.159730000000000e+03  7.388257407566584e+01 -2.918975276816622e+03
-1.159730000000000e+03  7.288416091248104e+01 -2.918975276816622e+03
-1.159730000000000e+03  7.188574774929654e+01 -2.918975276816622e+03
-1.159730000000000e+03  7.088733458611173e+01 -2.918975276816622e+03
-1.159730000000000e+03  6.988892142292690e+01 -2.918975276816622e+03
-1.159730000000000e+03  6.889050825974242e+01 -2.918975276816622e+03
-1.159730000000000e+03  6.789209509655758e+01 -2.918975276816622e+03
-1.159730000000000e+03  6.689368193337312e+01 -2.918975276816622e+03
-1.159730000000000e+03  6.589526877018828e+01 -2.918975276816622e+03
-1.159730000000000e+03  6.489685560700381e+01 -2.918975276816622e+03
-1.159730000000000e+03  6.389844244381898e+01 -2.918975276816622e+03
-1.159730000000000e+03  6.290002928063451e+01 -2.918975276816622e+03
-1.159730000000000e+03  6.190161611744968e+01 -2.918975276816622e+03
-1.159730000000000e+03  6.090320295426522e+01 -2.918975276816622e+03
-1.159730000000000e+03  5.990478979108038e+01 -2.918975276816622e+03
-1.159730000000000e+03  5.890637662789556e+01 -2.918975276816622e+03
-1.159730000000000e+03  5.790796346471107e+01 -2.918975276816622e+03
-1.159730000000000e+03  5.690955030152626e+01 -2.918975276816622e+03
-1.159730000000000e+03  5.591113713834177e+01 -2.918975276816622e+03
-1.159730000000000e+03  5.491272397515696e+01 -2.918975276816622e+03
-1.159730000000000e+03  5.391431081197247e+01 -2.918975276816622e+03
-1.159730000000000e+03  5.291589764878765e+01 -2.918975276816622e+03
-1.159730000000000e+03  5.191748448560316e+01 -2.918975276816622e+03
-1.159730000000000e+03  5.091907132241835e+01 -2.918975276816622e+03
-1.159730000000000e+03  4.992065815923355e+01 -2.918975276816622e+03
-1.159730000000000e+03  4.892224499604905e+01 -2.918975276816622e+03
-1.159730000000000e+03  4.792383183286424e+01 -2.918975276816622e+03
-1.159730000000000e+03  4.692541866967975e+01 -2.918975276816622e+03
-1.159730000000000e+03  4.592700550649494e+01 -2.918975276816622e+03
-1.159730000000000e+03  4.492859234331045e+01 -2.918975276816622e+03
-1.159730000000000e+03  4.393017918012564e+01 -2.918975276816622e+03
-1.159730000000000e+03  4.293176601694115e+01 -2.918975276816622e+03
-1.159730000000000e+03  4.193335285375634e+01 -2.918975276816622e+03
-1.159730000000000e+03  4.093493969057185e+01 -2.918975276816622e+03
-1.159730000000000e+03  3.993652652738703e+01 -2.918975276816622e+03
-1.159730000000000e+03  3.893811336420222e+01 -2.918975276816622e+03
-1.159730000000000e+03  3.793970020101773e+01 -2.918975276816622e+03
-1.159730000000000e+03  3.694128703783292e+01 -2.918975276816622e+03
-1.159730000000000e+03  3.594287387464843e+01 -2.918975276816622e+03
-1.159730000000000e+03  3.494446071146362e+01 -2.918975276816622e+03
-1.159730000000000e+03  3.394604754827913e+01 -2.918975276816622e+03
-1.159730000000000e+03  3.294763438509432e+01 -2.918975276816622e+03
-1.159730000000000e+03  3.194922122190982e+01 -2.918975276816622e+03
-1.159730000000000e+03  3.095080805872501e+01 -2.918975276816622e+03
-1.159730000000000e+03  2.995239489554020e+01 -2.918975276816622e+03
-1.159730000000000e+03  2.895398173235571e+01 -2.918975276816622e+03
-1.159730000000000e+03  2.795556856917089e+01 -2.918975276816622e+03
-1.159730000000000e+03  2.695715540598641e+01 -2.918975276816622e+03
-1.159730000000000e+03  2.595874224280159e+01 -2.918975276816622e+03
-1.159730000000000e+03  2.496032907961710e+01 -2.918975276816622e+03
-1.159730000000000e+03  2.396191591643229e+01 -2.918975276816622e+03
-1.159730000000000e+03  2.296350275324779e+01 -2.918975276816622e+03
-1.159730000000000e+03  2.196508959006298e+01 -2.918975276816622e+03
-1.159730000000000e+03  2.096667642687849e+01 -2.918975276816622e+03
-1.159730000000000e+03  1.996826326369368e+01 -2.918975276816622e+03
-1.159730000000000e+03  1.896985010050886e+01 -2.918975276816622e+03
-1.159730000000000e+03  1.797143693732438e+01 -2.918975276816622e+03
-1.159730000000000e+03  1.697302377413956e+01 -2.918975276816622e+03
-1.159730000000000e+03  1.597461061095507e+01 -2.918975276816622e+03
-1.159730000000000e+03  1.497619744777026e+01 -2.918975276816622e+03
-1.159730000000000e+03  1.397778428458577e+01 -2.918975276816622e+03
-1.159730000000000e+03  1.297937112140096e+01 -2.918975276816622e+03
-1.159730000000000e+03  1.198095795821647e+01 -2.918975276816622e+03
-1.159730000000000e+03  1.098254479503165e+01 -2.918975276816622e+03
-1.159730000000000e+03  9.984131631846841e+00 -2.918975276816622e+03
-1.159730000000000e+03  8.985718468662350e+00 -2.918975276816622e+03
-1.159730000000000e+03  7.987305305477538e+00 -2.918975276816622e+03
-1.159730000000000e+03  6.988892142293047e+00 -2.918975276816622e+03
-1.159730000000000e+03  5.990478979108235e+00 -2.918975276816622e+03
-1.159730000000000e+03  4.992065815923743e+00 -2.918975276816622e+03
-1.159730000000000e+03  3.993652652738932e+00 -2.918975276816622e+03
-1.159730000000000e+03  2.995239489554441e+00 -2.918975276816622e+03
-1.159730000000000e+03  1.996826326369628e+00 -2.918975276816622e+03
-1.159730000000000e+03  9.984131631851392e-01 -2.918975276816622e+03
1.156870000000000e+03 0.000000000000000e+00 2.918975276816622e+03
 1.156870000000000e+03 -9.984131631848139e-01  2.918975276816622e+03
 1.156870000000000e+03 -1.996826326369303e+00  2.918975276816622e+03
 1.156870000000000e+03 -2.995239489554117e+00  2.918975276816622e+03
 1.156870000000000e+03 -3.993652652738606e+00  2.918975276816622e+03
 1.156870000000000e+03 -4.992065815923421e+00  2.918975276816622e+03
 1.156870000000000e+03 -5.990478979107908e+00  2.918975276816622e+03
 1.156870000000000e+03 -6.988892142292723e+00  2.918975276816622e+03
 1.156870000000000e+03 -7.987305305477212e+00  2.918975276816622e+03
 1.156870000000000e+03 -8.985718468662027e+00  2.918975276816622e+03
 1.156870000000000e+03 -9.984131631846514e+00  2.918975276816622e+03
 1.156870000000000e+03 -1.098254479503133e+01  2.918975276816622e+03
 1.156870000000000e+03 -1.198095795821614e+01  2.918975276816622e+03
 1.156870000000000e+03 -1.297937112140063e+01  2.918975276816622e+03
 1.156870000000000e+03 -1.397778428458545e+01  2.918975276816622e+03
 1.156870000000000e+03 -1.497619744776993e+01  2.918975276816622e+03
 1.156870000000000e+03 -1.597461061095474e+01  2.918975276816622e+03
 1.156870000000000e+03 -1.697302377413924e+01  2.918975276816622e+03
 1.156870000000000e+03 -1.797143693732405e+01  2.918975276816622e+03
 1.156870000000000e+03 -1.896985010050854e+01  2.918975276816622e+03
 1.156870000000000e+03 -1.996826326369335e+01  2.918975276816622e+03
 1.156870000000000e+03 -2.096667642687817e+01  2.918975276816622e+03
 1.156870000000000e+03 -2.196508959006266e+01  2.918975276816622e+03
 1.156870000000000e+03 -2.296350275324747e+01  2.918975276816622e+03
 1.156870000000000e+03 -2.396191591643196e+01  2.918975276816622e+03
 1.156870000000000e+03 -2.496032907961677e+01  2.918975276816622e+03
 1.156870000000000e+03 -2.595874224280126e+01  2.918975276816622e+03
 1.156870000000000e+03 -2.695715540598608e+01  2.918975276816622e+03
 1.156870000000000e+03 -2.795556856917056e+01  2.918975276816622e+03
 1.156870000000000e+03 -2.895398173235539e+01  2.918975276816622e+03
 1.156870000000000e+03 -2.995239489553986e+01  2.918975276816622e+03
 1.156870000000000e+03 -3.095080805872470e+01  2.918975276816622e+03
 1.156870000000000e+03 -3.194922122190951e+01  2.918975276816622e+03
 1.156870000000000e+03 -3.294763438509401e+01  2.918975276816622e+03
 1.156870000000000e+03 -3.394604754827881e+01  2.918975276816622e+03
 1.156870000000000e+03 -3.494446071146330e+01  2.918975276816622e+03
 1.156870000000000e+03 -3.594287387464811e+01  2.918975276816622e+03
 1.156870000000000e+03 -3.694128703783261e+01  2.918975276816622e+03
 1.156870000000000e+03 -3.793970020101742e+01  2.918975276816622e+03
 1.156870000000000e+03 -3.893811336420191e+01  2.918975276816622e+03
 1.156870000000000e+03 -3.993652652738672e+01  2.918975276816622e+03
 1.156870000000000e+03 -4.093493969057153e+01  2.918975276816622e+03
 1.156870000000000e+03 -4.193335285375603e+01  2.918975276816622e+03
 1.156870000000000e+03 -4.293176601694083e+01  2.918975276816622e+03
 1.156870000000000e+03 -4.393017918012533e+01  2.918975276816622e+03
 1.156870000000000e+03 -4.492859234331014e+01  2.918975276816622e+03
 1.156870000000000e+03 -4.592700550649462e+01  2.918975276816622e+03
 1.156870000000000e+03 -4.692541866967943e+01  2.918975276816622e+03
 1.156870000000000e+03 -4.792383183286393e+01  2.918975276816622e+03
 1.156870000000000e+03 -4.892224499604874e+01  2.918975276816622e+03
 1.156870000000000e+03 -4.992065815923323e+01  2.918975276816622e+03
 1.156870000000000e+03 -5.091907132241803e+01  2.918975276816622e+03
 1.156870000000000e+03 -5.191748448560285e+01  2.918975276816622e+03
 1.156870000000000e+03 -5.291589764878734e+01  2.918975276816622e+03
 1.156870000000000e+03 -5.391431081197216e+01  2.918975276816622e+03
 1.156870000000000e+03 -5.491272397515664e+01  2.918975276816622e+03
 1.156870000000000e+03 -5.591113713834146e+01  2.918975276816622e+03
 1.156870000000000e+03 -5.690955030152595e+01  2.918975276816622e+03
 1.156870000000000e+03 -5.790796346471076e+01  2.918975276816622e+03
 1.156870000000000e+03 -5.890637662789525e+01  2.918975276816622e+03
 1.156870000000000e+03 -5.990478979108006e+01  2.918975276816622e+03
 1.156870000000000e+03 -6.090320295426487e+01  2.918975276816622e+03
 1.156870000000000e+03 -6.190161611744936e+01  2.918975276816622e+03
 1.156870000000000e+03 -6.290002928063417e+01  2.918975276816622e+03
 1.156870000000000e+03 -6.389844244381867e+01  2.918975276816622e+03
 1.156870000000000e+03 -6.489685560700347e+01  2.918975276816622e+03
 1.156870000000000e+03 -6.589526877018797e+01  2.918975276816622e+03
 1.156870000000000e+03 -6.689368193337278e+01  2.918975276816622e+03
 1.156870000000000e+03 -6.789209509655727e+01  2.918975276816622e+03
 1.156870000000000e+03 -6.889050825974208e+01  2.918975276816622e+03
 1.156870000000000e+03 -6.988892142292659e+01  2.918975276816622e+03
 1.156870000000000e+03 -7.088733458611138e+01  2.918975276816622e+03
 1.156870000000000e+03 -7.188574774929620e+01  2.918975276816622e+03
 1.156870000000000e+03 -7.288416091248068e+01  2.918975276816622e+03
 1.156870000000000e+03 -7.388257407566550e+01  2.918975276816622e+03
 1.156870000000000e+03 -7.488098723884998e+01  2.918975276816622e+03
 1.156870000000000e+03 -7.587940040203480e+01  2.918975276816622e+03
 1.156870000000000e+03 -7.687781356521928e+01  2.918975276816622e+03
 1.156870000000000e+03 -7.787622672840411e+01  2.918975276816622e+03
 1.156870000000000e+03 -7.887463989158859e+01  2.918975276816622e+03
 1.156870000000000e+03 -7.987305305477341e+01  2.918975276816622e+03
 1.156870000000000e+03 -8.087146621795824e+01  2.918975276816622e+03
 1.156870000000000e+03 -8.186987938114271e+01  2.918975276816622e+03
 1.156870000000000e+03 -8.286829254432755e+01  2.918975276816622e+03
 1.156870000000000e+03 -8.386670570751201e+01  2.918975276816622e+03
 1.156870000000000e+03 -8.486511887069685e+01  2.918975276816622e+03
 1.156870000000000e+03 -8.586353203388131e+01  2.918975276816622e+03
 1.156870000000000e+03 -8.686194519706615e+01  2.918975276816622e+03
 1.156870000000000e+03 -8.786035836025063e+01  2.918975276816622e+03
 1.156870000000000e+03 -8.885877152343545e+01  2.918975276816622e+03
 1.156870000000000e+03 -8.985718468661993e+01  2.918975276816622e+03
 1.156870000000000e+03 -9.085559784980477e+01  2.918975276816622e+03
 1.156870000000000e+03 -9.185401101298956e+01  2.918975276816622e+03
 1.156870000000000e+03 -9.285242417617407e+01  2.918975276816622e+03
 1.156870000000000e+03 -9.385083733935886e+01  2.918975276816622e+03
 1.156870000000000e+03 -9.484925050254337e+01  2.918975276816622e+03
 1.156870000000000e+03 -9.584766366572816e+01  2.918975276816622e+03
 1.156870000000000e+03 -9.684607682891267e+01  2.918975276816622e+03
 1.156870000000000e+03 -9.784448999209748e+01  2.918975276816622e+03
 1.156870000000000e+03 -9.884290315528197e+01  2.918975276816622e+03
 1.156870000000000e+03 -9.984131631846678e+01  2.918975276816622e+03
 1.156870000000000e+03 -1.008397294816516e+02  2.918975276816622e+03
 1.156870000000000e+03 -1.018381426448361e+02  2.918975276816622e+03
 1.156870000000000e+03 -1.028365558080209e+02  2.918975276816622e+03
 1.156870000000000e+03 -1.038349689712054e+02  2.918975276816622e+03
 1.156870000000000e+03 -1.048333821343902e+02  2.918975276816622e+03
 1.156870000000000e+03 -1.058317952975747e+02  2.918975276816622e+03
 1.156870000000000e+03 -1.068302084607595e+02  2.918975276816622e+03
 1.156870000000000e+03 -1.078286216239440e+02  2.918975276816622e+03
 1.156870000000000e+03 -1.088270347871288e+02  2.918975276816622e+03
 1.156870000000000e+03 -1.098254479503133e+02  2.918975276816622e+03
 1.156870000000000e+03 -1.108238611134981e+02  2.918975276816622e+03
 1.156870000000000e+03 -1.118222742766829e+02  2.918975276816622e+03
 1.156870000000000e+03 -1.128206874398674e+02  2.918975276816622e+03
 1.156870000000000e+03 -1.138191006030522e+02  2.918975276816622e+03
 1.156870000000000e+03 -1.148175137662367e+02  2.918975276816622e+03
 1.156870000000000e+03 -1.158159269294215e+02  2.918975276816622e+03
 1.156870000000000e+03 -1.168143400926060e+02  2.918975276816622e+03
 1.156870000000000e+03 -1.178127532557908e+02  2.918975276816622e+03
 1.156870000000000e+03 -1.188111664189753e+02  2.918975276816622e+03
 1.156870000000000e+03 -1.198095795821601e+02  2.918975276816622e+03
 1.156870000000000e+03 -1.208079927453449e+02  2.918975276816622e+03
 1.156870000000000e+03 -1.218064059085294e+02  2.918975276816622e+03
 1.156870000000000e+03 -1.228048190717142e+02  2.918975276816622e+03
 1.156870000000000e+03 -1.238032322348987e+02  2.918975276816622e+03
 1.156870000000000e+03 -1.248016453980835e+02  2.918975276816622e+03
 1.156870000000000e+03 -1.258000585612680e+02  2.918975276816622e+03
 1.156870000000000e+03 -1.267984717244529e+02  2.918975276816622e+03
 1.156870000000000e+03 -1.277968848876373e+02  2.918975276816622e+03
 1.156870000000000e+03 -1.287952980508221e+02  2.918975276816622e+03
 1.156870000000000e+03 -1.297937112140066e+02  2.918975276816622e+03
 1.156870000000000e+03 -1.307921243771914e+02  2.918975276816622e+03
 1.156870000000000e+03 -1.317905375403762e+02  2.918975276816622e+03
 1.156870000000000e+03 -1.327889507035608e+02  2.918975276816622e+03
 1.156870000000000e+03 -1.337873638667456e+02  2.918975276816622e+03
 1.156870000000000e+03 -1.347857770299301e+02  2.918975276816622e+03
 1.156870000000000e+03 -1.357841901931149e+02  2.918975276816622e+03
 1.156870000000000e+03 -1.367826033562994e+02  2.918975276816622e+03
 1.156870000000000e+03 -1.377810165194842e+02  2.918975276816622e+03
 1.156870000000000e+03 -1.387794296826687e+02  2.918975276816622e+03
 1.156870000000000e+03 -1.397778428458535e+02  2.918975276816622e+03
 1.156870000000000e+03 -1.407762560090383e+02  2.918975276816622e+03
 1.156870000000000e+03 -1.417746691722228e+02  2.918975276816622e+03
 1.156870000000000e+03 -1.427730823354076e+02  2.918975276816622e+03
 1.156870000000000e+03 -1.437714954985921e+02  2.918975276816622e+03
 1.156870000000000e+03 -1.447699086617769e+02  2.918975276816622e+03
 1.156870000000000e+03 -1.457683218249614e+02  2.918975276816622e+03
 1.156870000000000e+03 -1.467667349881462e+02  2.918975276816622e+03
 1.156870000000000e+03 -1.477651481513307e+02  2.918975276816622e+03
 1.156870000000000e+03 -1.487635613145155e+02  2.918975276816622e+03
 1.156870000000000e+03 -1.497619744777000e+02  2.918975276816622e+03
 1.156870000000000e+03 -1.507603876408848e+02  2.918975276816622e+03
 1.156870000000000e+03 -1.517588008040696e+02  2.918975276816622e+03
 1.156870000000000e+03 -1.527572139672541e+02  2.918975276816622e+03
 1.156870000000000e+03 -1.537556271304389e+02  2.918975276816622e+03
 1.156870000000000e+03 -1.547540402936234e+02  2.918975276816622e+03
 1.156870000000000e+03 -1.557524534568082e+02  2.918975276816622e+03
 1.156870000000000e+03 -1.567508666199927e+02  2.918975276816622e+03
 1.156870000000000e+03 -1.577492797831775e+02  2.918975276816622e+03
 1.156870000000000e+03 -1.587476929463620e+02  2.918975276816622e+03
 1.156870000000000e+03 -1.597461061095468e+02  2.918975276816622e+03
 1.156870000000000e+03 -1.607445192727317e+02  2.918975276816622e+03
 1.156870000000000e+03 -1.617429324359161e+02  2.918975276816622e+03
 1.156870000000000e+03 -1.627413455991010e+02  2.918975276816622e+03
 1.156870000000000e+03 -1.637397587622854e+02  2.918975276816622e+03
 1.156870000000000e+03 -1.647381719254702e+02  2.918975276816622e+03
 1.156870000000000e+03 -1.657365850886547e+02  2.918975276816622e+03
 1.156870000000000e+03 -1.667349982518395e+02  2.918975276816622e+03
 1.156870000000000e+03 -1.677334114150240e+02  2.918975276816622e+03
 1.156870000000000e+03 -1.687318245782089e+02  2.918975276816622e+03
 1.156870000000000e+03 -1.697302377413933e+02  2.918975276816622e+03
 1.156870000000000e+03 -1.707286509045782e+02  2.918975276816622e+03
 1.156870000000000e+03 -1.717270640677630e+02  2.918975276816622e+03
 1.156870000000000e+03 -1.727254772309475e+02  2.918975276816622e+03
 1.156870000000000e+03 -1.737238903941323e+02  2.918975276816622e+03
 1.156870000000000e+03 -1.747223035573168e+02  2.918975276816622e+03
 1.156870000000000e+03 -1.757207167205016e+02  2.918975276816622e+03
 1.156870000000000e+03 -1.767191298836861e+02  2.918975276816622e+03
 1.156870000000000e+03 -1.777175430468709e+02  2.918975276816622e+03
 1.156870000000000e+03 -1.787159562100554e+02  2.918975276816622e+03
 1.156870000000000e+03 -1.797143693732402e+02  2.918975276816622e+03
 1.156870000000000e+03 -1.807127825364250e+02  2.918975276816622e+03
 1.156870000000000e+03 -1.817111956996095e+02  2.918975276816622e+03
 1.156870000000000e+03 -1.827096088627943e+02  2.918975276816622e+03
 1.156870000000000e+03 -1.837080220259788e+02  2.918975276816622e+03
 1.156870000000000e+03 -1.847064351891636e+02  2.918975276816622e+03
 1.156870000000000e+03 -1.857048483523481e+02  2.918975276816622e+03
 1.156870000000000e+03 -1.867032615155329e+02  2.918975276816622e+03
 1.156870000000000e+03 -1.877016746787174e+02  2.918975276816622e+03
 1.156870000000000e+03 -1.887000878419022e+02  2.918975276816622e+03
 1.156870000000000e+03 -1.896985010050867e+02  2.918975276816622e+03
 1.156870000000000e+03 -1.906969141682715e+02  2.918975276816622e+03
 1.156870000000000e+03 -1.916953273314563e+02  2.918975276816622e+03
 1.156870000000000e+03 -1.926937404946408e+02  2.918975276816622e+03
 1.156870000000000e+03 -1.936921536578257e+02  2.918975276816622e+03
 1.156870000000000e+03 -1.946905668210101e+02  2.918975276816622e+03
 1.156870000000000e+03 -1.956889799841950e+02  2.918975276816622e+03
 1.156870000000000e+03 -1.966873931473794e+02  2.918975276816622e+03
 1.156870000000000e+03 -1.976858063105643e+02  2.918975276816622e+03
 1.156870000000000e+03 -1.986842194737487e+02  2.918975276816622e+03
 1.156870000000000e+03 -1.996826326369336e+02  2.918975276816622e+03
 1.156870000000000e+03 -2.006810458001183e+02  2.918975276816622e+03
 1.156870000000000e+03 -2.016794589633029e+02  2.918975276816622e+03
 1.156870000000000e+03 -2.026778721264876e+02  2.918975276816622e+03
 1.156870000000000e+03 -2.036762852896721e+02  2.918975276816622e+03
 1.156870000000000e+03 -2.046746984528569e+02  2.918975276816622e+03
 1.156870000000000e+03 -2.056731116160414e+02  2.918975276816622e+03
 1.156870000000000e+03 -2.066715247792262e+02  2.918975276816622e+03
 1.156870000000000e+03 -2.076699379424107e+02  2.918975276816622e+03
 1.156870000000000e+03 -2.086683511055955e+02  2.918975276816622e+03
 1.156870000000000e+03 -2.096667642687800e+02  2.918975276816622e+03
 1.156870000000000e+03 -2.106651774319648e+02  2.918975276816622e+03
 1.156870000000000e+03 -2.116635905951497e+02  2.918975276816622e+03
 1.156870000000000e+03 -2.126620037583342e+02  2.918975276816622e+03
 1.156870000000000e+03 -2.136604169215190e+02  2.918975276816622e+03
 1.156870000000000e+03 -2.146588300847035e+02  2.918975276816622e+03
 1.156870000000000e+03 -2.156572432478883e+02  2.918975276816622e+03
 1.156870000000000e+03 -2.166556564110728e+02  2.918975276816622e+03
 1.156870000000000e+03 -2.176540695742576e+02  2.918975276816622e+03
 1.156870000000000e+03 -2.186524827374421e+02  2.918975276816622e+03
 1.156870000000000e+03 -2.196508959006269e+02  2.918975276816622e+03
 1.156870000000000e+03 -2.206493090638117e+02  2.918975276816622e+03
 1.156870000000000e+03 -2.216477222269962e+02  2.918975276816622e+03
 1.156870000000000e+03 -2.226461353901810e+02  2.918975276816622e+03
 1.156870000000000e+03 -2.236445485533655e+02  2.918975276816622e+03
 1.156870000000000e+03 -2.246429617165503e+02  2.918975276816622e+03
 1.156870000000000e+03 -2.256413748797348e+02  2.918975276816622e+03
 1.156870000000000e+03 -2.266397880429196e+02  2.918975276816622e+03
 1.156870000000000e+03 -2.276382012061041e+02  2.918975276816622e+03
 1.156870000000000e+03 -2.286366143692889e+02  2.918975276816622e+03
 1.156870000000000e+03 -2.296350275324734e+02  2.918975276816622e+03
 1.156870000000000e+03 -2.306334406956582e+02  2.918975276816622e+03
 1.156870000000000e+03 -2.316318538588430e+02  2.918975276816622e+03
 1.156870000000000e+03 -2.326302670220275e+02  2.918975276816622e+03
 1.156870000000000e+03 -2.336286801852123e+02  2.918975276816622e+03
 1.156870000000000e+03 -2.346270933483968e+02  2.918975276816622e+03
 1.156870000000000e+03 -2.356255065115816e+02  2.918975276816622e+03
 1.156870000000000e+03 -2.366239196747661e+02  2.918975276816622e+03
 1.156870000000000e+03 -2.376223328379509e+02  2.918975276816622e+03
 1.156870000000000e+03 -2.386207460011354e+02  2.918975276816622e+03
 1.156870000000000e+03 -2.396191591643202e+02  2.918975276816622e+03
 1.156870000000000e+03 -2.406175723275051e+02  2.918975276816622e+03
 1.156870000000000e+03 -2.416159854906895e+02  2.918975276816622e+03
 1.156870000000000e+03 -2.426143986538744e+02  2.918975276816622e+03
 1.156870000000000e+03 -2.436128118170589e+02  2.918975276816622e+03
 1.156870000000000e+03 -2.446112249802437e+02  2.918975276816622e+03
 1.156870000000000e+03 -2.456096381434282e+02  2.918975276816622e+03
 1.156870000000000e+03 -2.466080513066130e+02  2.918975276816622e+03
 1.156870000000000e+03 -2.476064644697975e+02  2.918975276816622e+03
 1.156870000000000e+03 -2.486048776329823e+02  2.918975276816622e+03
 1.156870000000000e+03 -2.496032907961668e+02  2.918975276816622e+03
 1.156870000000000e+03 -2.506017039593516e+02  2.918975276816622e+03
 1.156870000000000e+03 -2.516001171225364e+02  2.918975276816622e+03
 1.156870000000000e+03 -2.525985302857209e+02  2.918975276816622e+03
 1.156870000000000e+03 -2.535969434489057e+02  2.918975276816622e+03
 1.156870000000000e+03 -2.545953566120902e+02  2.918975276816622e+03
 1.156870000000000e+03 -2.555937697752750e+02  2.918975276816622e+03
 1.156870000000000e+03 -2.565921829384595e+02  2.918975276816622e+03
 1.156870000000000e+03 -2.575905961016443e+02  2.918975276816622e+03
 1.156870000000000e+03 -2.585890092648288e+02  2.918975276816622e+03
 1.156870000000000e+03 -2.595874224280136e+02  2.918975276816622e+03
 1.156870000000000e+03 -2.605858355911981e+02  2.918975276816622e+03
 1.156870000000000e+03 -2.615842487543829e+02  2.918975276816622e+03
 1.156870000000000e+03 -2.625826619175677e+02  2.918975276816622e+03
 1.156870000000000e+03 -2.635810750807522e+02  2.918975276816622e+03
 1.156870000000000e+03 -2.645794882439370e+02  2.918975276816622e+03
 1.156870000000000e+03 -2.655779014071215e+02  2.918975276816622e+03
 1.156870000000000e+03 -2.665763145703064e+02  2.918975276816622e+03
 1.156870000000000e+03 -2.675747277334908e+02  2.918975276816622e+03
 1.156870000000000e+03 -2.685731408966756e+02  2.918975276816622e+03
 1.156870000000000e+03 -2.695715540598601e+02  2.918975276816622e+03
 1.156870000000000e+03 -2.705699672230450e+02  2.918975276816622e+03
 1.156870000000000e+03 -2.715683803862298e+02  2.918975276816622e+03
 1.156870000000000e+03 -2.725667935494142e+02  2.918975276816622e+03
 1.156870000000000e+03 -2.735652067125990e+02  2.918975276816622e+03
 1.156870000000000e+03 -2.745636198757836e+02  2.918975276816622e+03
 1.156870000000000e+03 -2.755620330389683e+02  2.918975276816622e+03
 1.156870000000000e+03 -2.765604462021528e+02  2.918975276816622e+03
 1.156870000000000e+03 -2.775588593653376e+02  2.918975276816622e+03
 1.156870000000000e+03 -2.785572725285221e+02  2.918975276816622e+03
 1.156870000000000e+03 -2.795556856917070e+02  2.918975276816622e+03
 1.156870000000000e+03 -2.805540988548914e+02  2.918975276816622e+03
 1.156870000000000e+03 -2.815525120180762e+02  2.918975276816622e+03
 1.156870000000000e+03 -2.825509251812611e+02  2.918975276816622e+03
 1.156870000000000e+03 -2.835493383444456e+02  2.918975276816622e+03
 1.156870000000000e+03 -2.845477515076304e+02  2.918975276816622e+03
 1.156870000000000e+03 -2.855461646708148e+02  2.918975276816622e+03
 1.156870000000000e+03 -2.865445778339997e+02  2.918975276816622e+03
 1.156870000000000e+03 -2.875429909971842e+02  2.918975276816622e+03
 1.156870000000000e+03 -2.885414041603691e+02  2.918975276816622e+03
 1.156870000000000e+03 -2.895398173235534e+02  2.918975276816622e+03
 1.156870000000000e+03 -2.905382304867383e+02  2.918975276816622e+03
 1.156870000000000e+03 -2.915366436499231e+02  2.918975276816622e+03
 1.156870000000000e+03 -2.925350568131077e+02  2.918975276816622e+03
 1.156870000000000e+03 -2.935334699762925e+02  2.918975276816622e+03
 1.156870000000000e+03 -2.945318831394769e+02  2.918975276816622e+03
 1.156870000000000e+03 -2.955302963026617e+02  2.918975276816622e+03
 1.156870000000000e+03 -2.965287094658462e+02  2.918975276816622e+03
 1.156870000000000e+03 -2.975271226290312e+02  2.918975276816622e+03
 1.156870000000000e+03 -2.985255357922155e+02  2.918975276816622e+03
 1.156870000000000e+03 -2.995239489554003e+02  2.918975276816622e+03
 1.156870000000000e+03 -3.005223621185849e+02  2.918975276816622e+03
 1.156870000000000e+03 -3.015207752817698e+02  2.918975276816622e+03
 1.156870000000000e+03 -3.025191884449544e+02  2.918975276816622e+03
 1.156870000000000e+03 -3.035176016081389e+02  2.918975276816622e+03
 1.156870000000000e+03 -3.045160147713238e+02  2.918975276816622e+03
 1.156870000000000e+03 -3.055144279345084e+02  2.918975276816622e+03
 1.156870000000000e+03 -3.065128410976930e+02  2.918975276816622e+03
 1.156870000000000e+03 -3.075112542608775e+02  2.918975276816622e+03
 1.156870000000000e+03 -3.085096674240624e+02  2.918975276816622e+03
 1.156870000000000e+03 -3.095080805872470e+02  2.918975276816622e+03
 1.156870000000000e+03 -3.105064937504316e+02  2.918975276816622e+03
 1.156870000000000e+03 -3.115049069136164e+02  2.918975276816622e+03
 1.156870000000000e+03 -3.125033200768010e+02  2.918975276816622e+03
 1.156870000000000e+03 -3.135017332399859e+02  2.918975276816622e+03
 1.156870000000000e+03 -3.145001464031702e+02  2.918975276816622e+03
 1.156870000000000e+03 -3.154985595663550e+02  2.918975276816622e+03
 1.156870000000000e+03 -3.164969727295396e+02  2.918975276816622e+03
 1.156870000000000e+03 -3.174953858927245e+02  2.918975276816622e+03
 1.156870000000000e+03 -3.184937990559088e+02  2.918975276816622e+03
 1.156870000000000e+03 -3.194922122190936e+02  2.918975276816622e+03
 1.156870000000000e+03 -3.204906253822782e+02  2.918975276816622e+03
 1.156870000000000e+03 -3.214890385454631e+02  2.918975276816622e+03
 1.156870000000000e+03 -3.224874517086477e+02  2.918975276816622e+03
 1.156870000000000e+03 -3.234858648718322e+02  2.918975276816622e+03
 1.156870000000000e+03 -3.244842780350171e+02  2.918975276816622e+03
 1.156870000000000e+03 -3.254826911982017e+02  2.918975276816622e+03
 1.156870000000000e+03 -3.264811043613863e+02  2.918975276816622e+03
 1.156870000000000e+03 -3.274795175245708e+02  2.918975276816622e+03
 1.156870000000000e+03 -3.284779306877557e+02  2.918975276816622e+03
 1.156870000000000e+03 -3.294763438509403e+02  2.918975276816622e+03
 1.156870000000000e+03 -3.304747570141249e+02  2.918975276816622e+03
 1.156870000000000e+03 -3.314731701773097e+02  2.918975276816622e+03
 1.156870000000000e+03 -3.324715833404943e+02  2.918975276816622e+03
 1.156870000000000e+03 -3.334699965036792e+02  2.918975276816622e+03
 1.156870000000000e+03 -3.344684096668635e+02  2.918975276816622e+03
 1.156870000000000e+03 -3.354668228300483e+02  2.918975276816622e+03
 1.156870000000000e+03 -3.364652359932329e+02  2.918975276816622e+03
 1.156870000000000e+03 -3.374636491564178e+02  2.918975276816622e+03
 1.156870000000000e+03 -3.384620623196021e+02  2.918975276816622e+03
 1.156870000000000e+03 -3.394604754827869e+02  2.918975276816622e+03
 1.156870000000000e+03 -3.404588886459715e+02  2.918975276816622e+03
 1.156870000000000e+03 -3.414573018091564e+02  2.918975276816622e+03
 1.156870000000000e+03 -3.424557149723413e+02  2.918975276816622e+03
 1.156870000000000e+03 -3.434541281355255e+02  2.918975276816622e+03
 1.156870000000000e+03 -3.444525412987104e+02  2.918975276816622e+03
 1.156870000000000e+03 -3.454509544618950e+02  2.918975276816622e+03
 1.156870000000000e+03 -3.464493676250799e+02  2.918975276816622e+03
 1.156870000000000e+03 -3.474477807882641e+02  2.918975276816622e+03
 1.156870000000000e+03 -3.484461939514490e+02  2.918975276816622e+03
 1.156870000000000e+03 -3.494446071146336e+02  2.918975276816622e+03
 1.156870000000000e+03 -3.504430202778185e+02  2.918975276816622e+03
 1.156870000000000e+03 -3.514414334410030e+02  2.918975276816622e+03
 1.156870000000000e+03 -3.524398466041876e+02  2.918975276816622e+03
 1.156870000000000e+03 -3.534382597673725e+02  2.918975276816622e+03
 1.156870000000000e+03 -3.544366729305571e+02  2.918975276816622e+03
 1.156870000000000e+03 -3.554350860937416e+02  2.918975276816622e+03
 1.156870000000000e+03 -3.564334992569262e+02  2.918975276816622e+03
 1.156870000000000e+03 -3.574319124201111e+02  2.918975276816622e+03
 1.156870000000000e+03 -3.584303255832957e+02  2.918975276816622e+03
 1.156870000000000e+03 -3.594287387464802e+02  2.918975276816622e+03
 1.156870000000000e+03 -3.604271519096648e+02  2.918975276816622e+03
 1.156870000000000e+03 -3.614255650728497e+02  2.918975276816622e+03
 1.156870000000000e+03 -3.624239782360346e+02  2.918975276816622e+03
 1.156870000000000e+03 -3.634223913992188e+02  2.918975276816622e+03
 1.156870000000000e+03 -3.644208045624037e+02  2.918975276816622e+03
 1.156870000000000e+03 -3.654192177255883e+02  2.918975276816622e+03
 1.156870000000000e+03 -3.664176308887732e+02  2.918975276816622e+03
 1.156870000000000e+03 -3.674160440519575e+02  2.918975276816622e+03
 1.156870000000000e+03 -3.684144572151423e+02  2.918975276816622e+03
 1.156870000000000e+03 -3.694128703783269e+02  2.918975276816622e+03
 1.156870000000000e+03 -3.704112835415118e+02  2.918975276816622e+03
 1.156870000000000e+03 -3.714096967046967e+02  2.918975276816622e+03
 1.156870000000000e+03 -3.724081098678809e+02  2.918975276816622e+03
 1.156870000000000e+03 -3.734065230310658e+02  2.918975276816622e+03
 1.156870000000000e+03 -3.744049361942504e+02  2.918975276816622e+03
 1.156870000000000e+03 -3.754033493574353e+02  2.918975276816622e+03
 1.156870000000000e+03 -3.764017625206195e+02  2.918975276816622e+03
 1.156870000000000e+03 -3.774001756838044e+02  2.918975276816622e+03
 1.156870000000000e+03 -3.783985888469890e+02  2.918975276816622e+03
 1.156870000000000e+03 -3.793970020101739e+02  2.918975276816622e+03
 1.156870000000000e+03 -3.803954151733581e+02  2.918975276816622e+03
 1.156870000000000e+03 -3.813938283365430e+02  2.918975276816622e+03
 1.156870000000000e+03 -3.823922414997278e+02  2.918975276816622e+03
 1.156870000000000e+03 -3.833906546629125e+02  2.918975276816622e+03
 1.156870000000000e+03 -3.843890678260971e+02  2.918975276816622e+03
 1.156870000000000e+03 -3.853874809892816e+02  2.918975276816622e+03
 1.156870000000000e+03 -3.863858941524674e+02  2.918975276816622e+03
1.156870000000000e+03 3.863858941524653e+02 2.918975276816622e+03
1.156870000000000e+03 3.853874809892819e+02 2.918975276816622e+03
1.156870000000000e+03 3.843890678260977e+02 2.918975276816622e+03
1.156870000000000e+03 3.833906546629128e+02 2.918975276816622e+03
1.156870000000000e+03 3.823922414997282e+02 2.918975276816622e+03
1.156870000000000e+03 3.813938283365433e+02 2.918975276816622e+03
1.156870000000000e+03 3.803954151733585e+02 2.918975276816622e+03
1.156870000000000e+03 3.793970020101742e+02 2.918975276816622e+03
1.156870000000000e+03 3.783985888469892e+02 2.918975276816622e+03
1.156870000000000e+03 3.774001756838047e+02 2.918975276816622e+03
1.156870000000000e+03 3.764017625206199e+02 2.918975276816622e+03
1.156870000000000e+03 3.754033493574355e+02 2.918975276816622e+03
1.156870000000000e+03 3.744049361942506e+02 2.918975276816622e+03
1.156870000000000e+03 3.734065230310661e+02 2.918975276816622e+03
1.156870000000000e+03 3.724081098678813e+02 2.918975276816622e+03
1.156870000000000e+03 3.714096967046969e+02 2.918975276816622e+03
1.156870000000000e+03 3.704112835415120e+02 2.918975276816622e+03
1.156870000000000e+03 3.694128703783272e+02 2.918975276816622e+03
1.156870000000000e+03 3.684144572151426e+02 2.918975276816622e+03
1.156870000000000e+03 3.674160440519581e+02 2.918975276816622e+03
1.156870000000000e+03 3.664176308887734e+02 2.918975276816622e+03
1.156870000000000e+03 3.654192177255886e+02 2.918975276816622e+03
1.156870000000000e+03 3.644208045624040e+02 2.918975276816622e+03
1.156870000000000e+03 3.634223913992195e+02 2.918975276816622e+03
1.156870000000000e+03 3.624239782360348e+02 2.918975276816622e+03
1.156870000000000e+03 3.614255650728500e+02 2.918975276816622e+03
1.156870000000000e+03 3.604271519096651e+02 2.918975276816622e+03
1.156870000000000e+03 3.594287387464808e+02 2.918975276816622e+03
1.156870000000000e+03 3.584303255832960e+02 2.918975276816622e+03
1.156870000000000e+03 3.574319124201114e+02 2.918975276816622e+03
1.156870000000000e+03 3.564334992569265e+02 2.918975276816622e+03
1.156870000000000e+03 3.554350860937422e+02 2.918975276816622e+03
1.156870000000000e+03 3.544366729305574e+02 2.918975276816622e+03
1.156870000000000e+03 3.534382597673728e+02 2.918975276816622e+03
1.156870000000000e+03 3.524398466041879e+02 2.918975276816622e+03
1.156870000000000e+03 3.514414334410036e+02 2.918975276816622e+03
1.156870000000000e+03 3.504430202778188e+02 2.918975276816622e+03
1.156870000000000e+03 3.494446071146339e+02 2.918975276816622e+03
1.156870000000000e+03 3.484461939514493e+02 2.918975276816622e+03
1.156870000000000e+03 3.474477807882644e+02 2.918975276816622e+03
1.156870000000000e+03 3.464493676250801e+02 2.918975276816622e+03
1.156870000000000e+03 3.454509544618953e+02 2.918975276816622e+03
1.156870000000000e+03 3.444525412987106e+02 2.918975276816622e+03
1.156870000000000e+03 3.434541281355258e+02 2.918975276816622e+03
1.156870000000000e+03 3.424557149723415e+02 2.918975276816622e+03
1.156870000000000e+03 3.414573018091567e+02 2.918975276816622e+03
1.156870000000000e+03 3.404588886459718e+02 2.918975276816622e+03
1.156870000000000e+03 3.394604754827872e+02 2.918975276816622e+03
1.156870000000000e+03 3.384620623196027e+02 2.918975276816622e+03
1.156870000000000e+03 3.374636491564181e+02 2.918975276816622e+03
1.156870000000000e+03 3.364652359932332e+02 2.918975276816622e+03
1.156870000000000e+03 3.354668228300486e+02 2.918975276816622e+03
1.156870000000000e+03 3.344684096668641e+02 2.918975276816622e+03
1.156870000000000e+03 3.334699965036795e+02 2.918975276816622e+03
1.156870000000000e+03 3.324715833404946e+02 2.918975276816622e+03
1.156870000000000e+03 3.314731701773101e+02 2.918975276816622e+03
1.156870000000000e+03 3.304747570141254e+02 2.918975276816622e+03
1.156870000000000e+03 3.294763438509406e+02 2.918975276816622e+03
1.156870000000000e+03 3.284779306877559e+02 2.918975276816622e+03
1.156870000000000e+03 3.274795175245711e+02 2.918975276816622e+03
1.156870000000000e+03 3.264811043613868e+02 2.918975276816622e+03
1.156870000000000e+03 3.254826911982019e+02 2.918975276816622e+03
1.156870000000000e+03 3.244842780350173e+02 2.918975276816622e+03
1.156870000000000e+03 3.234858648718325e+02 2.918975276816622e+03
1.156870000000000e+03 3.224874517086482e+02 2.918975276816622e+03
1.156870000000000e+03 3.214890385454633e+02 2.918975276816622e+03
1.156870000000000e+03 3.204906253822785e+02 2.918975276816622e+03
1.156870000000000e+03 3.194922122190939e+02 2.918975276816622e+03
1.156870000000000e+03 3.184937990559091e+02 2.918975276816622e+03
1.156870000000000e+03 3.174953858927247e+02 2.918975276816622e+03
1.156870000000000e+03 3.164969727295399e+02 2.918975276816622e+03
1.156870000000000e+03 3.154985595663553e+02 2.918975276816622e+03
1.156870000000000e+03 3.145001464031704e+02 2.918975276816622e+03
1.156870000000000e+03 3.135017332399861e+02 2.918975276816622e+03
1.156870000000000e+03 3.125033200768012e+02 2.918975276816622e+03
1.156870000000000e+03 3.115049069136167e+02 2.918975276816622e+03
1.156870000000000e+03 3.105064937504318e+02 2.918975276816622e+03
1.156870000000000e+03 3.095080805872472e+02 2.918975276816622e+03
1.156870000000000e+03 3.085096674240626e+02 2.918975276816622e+03
1.156870000000000e+03 3.075112542608778e+02 2.918975276816622e+03
1.156870000000000e+03 3.065128410976932e+02 2.918975276816622e+03
1.156870000000000e+03 3.055144279345086e+02 2.918975276816622e+03
1.156870000000000e+03 3.045160147713240e+02 2.918975276816622e+03
1.156870000000000e+03 3.035176016081392e+02 2.918975276816622e+03
1.156870000000000e+03 3.025191884449546e+02 2.918975276816622e+03
1.156870000000000e+03 3.015207752817700e+02 2.918975276816622e+03
1.156870000000000e+03 3.005223621185852e+02 2.918975276816622e+03
1.156870000000000e+03 2.995239489554006e+02 2.918975276816622e+03
1.156870000000000e+03 2.985255357922157e+02 2.918975276816622e+03
1.156870000000000e+03 2.975271226290314e+02 2.918975276816622e+03
1.156870000000000e+03 2.965287094658465e+02 2.918975276816622e+03
1.156870000000000e+03 2.955302963026620e+02 2.918975276816622e+03
1.156870000000000e+03 2.945318831394771e+02 2.918975276816622e+03
1.156870000000000e+03 2.935334699762928e+02 2.918975276816622e+03
1.156870000000000e+03 2.925350568131079e+02 2.918975276816622e+03
1.156870000000000e+03 2.915366436499234e+02 2.918975276816622e+03
1.156870000000000e+03 2.905382304867385e+02 2.918975276816622e+03
1.156870000000000e+03 2.895398173235539e+02 2.918975276816622e+03
1.156870000000000e+03 2.885414041603693e+02 2.918975276816622e+03
1.156870000000000e+03 2.875429909971845e+02 2.918975276816622e+03
1.156870000000000e+03 2.865445778339999e+02 2.918975276816622e+03
1.156870000000000e+03 2.855461646708152e+02 2.918975276816622e+03
1.156870000000000e+03 2.845477515076307e+02 2.918975276816622e+03
1.156870000000000e+03 2.835493383444459e+02 2.918975276816622e+03
1.156870000000000e+03 2.825509251812614e+02 2.918975276816622e+03
1.156870000000000e+03 2.815525120180766e+02 2.918975276816622e+03
1.156870000000000e+03 2.805540988548918e+02 2.918975276816622e+03
1.156870000000000e+03 2.795556856917073e+02 2.918975276816622e+03
1.156870000000000e+03 2.785572725285224e+02 2.918975276816622e+03
1.156870000000000e+03 2.775588593653380e+02 2.918975276816622e+03
1.156870000000000e+03 2.765604462021532e+02 2.918975276816622e+03
1.156870000000000e+03 2.755620330389687e+02 2.918975276816622e+03
1.156870000000000e+03 2.745636198757838e+02 2.918975276816622e+03
1.156870000000000e+03 2.735652067125994e+02 2.918975276816622e+03
1.156870000000000e+03 2.725667935494146e+02 2.918975276816622e+03
1.156870000000000e+03 2.715683803862300e+02 2.918975276816622e+03
1.156870000000000e+03 2.705699672230452e+02 2.918975276816622e+03
1.156870000000000e+03 2.695715540598604e+02 2.918975276816622e+03
1.156870000000000e+03 2.685731408966760e+02 2.918975276816622e+03
1.156870000000000e+03 2.675747277334912e+02 2.918975276816622e+03
1.156870000000000e+03 2.665763145703067e+02 2.918975276816622e+03
1.156870000000000e+03 2.655779014071218e+02 2.918975276816622e+03
1.156870000000000e+03 2.645794882439374e+02 2.918975276816622e+03
1.156870000000000e+03 2.635810750807526e+02 2.918975276816622e+03
1.156870000000000e+03 2.625826619175680e+02 2.918975276816622e+03
1.156870000000000e+03 2.615842487543832e+02 2.918975276816622e+03
1.156870000000000e+03 2.605858355911984e+02 2.918975276816622e+03
1.156870000000000e+03 2.595874224280140e+02 2.918975276816622e+03
1.156870000000000e+03 2.585890092648291e+02 2.918975276816622e+03
1.156870000000000e+03 2.575905961016446e+02 2.918975276816622e+03
1.156870000000000e+03 2.565921829384598e+02 2.918975276816622e+03
1.156870000000000e+03 2.555937697752753e+02 2.918975276816622e+03
1.156870000000000e+03 2.545953566120905e+02 2.918975276816622e+03
1.156870000000000e+03 2.535969434489060e+02 2.918975276816622e+03
1.156870000000000e+03 2.525985302857212e+02 2.918975276816622e+03
1.156870000000000e+03 2.516001171225367e+02 2.918975276816622e+03
1.156870000000000e+03 2.506017039593519e+02 2.918975276816622e+03
1.156870000000000e+03 2.496032907961671e+02 2.918975276816622e+03
1.156870000000000e+03 2.486048776329826e+02 2.918975276816622e+03
1.156870000000000e+03 2.476064644697978e+02 2.918975276816622e+03
1.156870000000000e+03 2.466080513066133e+02 2.918975276816622e+03
1.156870000000000e+03 2.456096381434285e+02 2.918975276816622e+03
1.156870000000000e+03 2.446112249802440e+02 2.918975276816622e+03
1.156870000000000e+03 2.436128118170592e+02 2.918975276816622e+03
1.156870000000000e+03 2.426143986538747e+02 2.918975276816622e+03
1.156870000000000e+03 2.416159854906899e+02 2.918975276816622e+03
1.156870000000000e+03 2.406175723275054e+02 2.918975276816622e+03
1.156870000000000e+03 2.396191591643206e+02 2.918975276816622e+03
1.156870000000000e+03 2.386207460011358e+02 2.918975276816622e+03
1.156870000000000e+03 2.376223328379513e+02 2.918975276816622e+03
1.156870000000000e+03 2.366239196747665e+02 2.918975276816622e+03
1.156870000000000e+03 2.356255065115820e+02 2.918975276816622e+03
1.156870000000000e+03 2.346270933483971e+02 2.918975276816622e+03
1.156870000000000e+03 2.336286801852127e+02 2.918975276816622e+03
1.156870000000000e+03 2.326302670220279e+02 2.918975276816622e+03
1.156870000000000e+03 2.316318538588434e+02 2.918975276816622e+03
1.156870000000000e+03 2.306334406956585e+02 2.918975276816622e+03
1.156870000000000e+03 2.296350275324737e+02 2.918975276816622e+03
1.156870000000000e+03 2.286366143692892e+02 2.918975276816622e+03
1.156870000000000e+03 2.276382012061044e+02 2.918975276816622e+03
1.156870000000000e+03 2.266397880429199e+02 2.918975276816622e+03
1.156870000000000e+03 2.256413748797351e+02 2.918975276816622e+03
1.156870000000000e+03 2.246429617165506e+02 2.918975276816622e+03
1.156870000000000e+03 2.236445485533658e+02 2.918975276816622e+03
1.156870000000000e+03 2.226461353901813e+02 2.918975276816622e+03
1.156870000000000e+03 2.216477222269965e+02 2.918975276816622e+03
1.156870000000000e+03 2.206493090638120e+02 2.918975276816622e+03
1.156870000000000e+03 2.196508959006272e+02 2.918975276816622e+03
1.156870000000000e+03 2.186524827374424e+02 2.918975276816622e+03
1.156870000000000e+03 2.176540695742579e+02 2.918975276816622e+03
1.156870000000000e+03 2.166556564110731e+02 2.918975276816622e+03
1.156870000000000e+03 2.156572432478886e+02 2.918975276816622e+03
1.156870000000000e+03 2.146588300847038e+02 2.918975276816622e+03
1.156870000000000e+03 2.136604169215193e+02 2.918975276816622e+03
1.156870000000000e+03 2.126620037583345e+02 2.918975276816622e+03
1.156870000000000e+03 2.116635905951500e+02 2.918975276816622e+03
1.156870000000000e+03 2.106651774319652e+02 2.918975276816622e+03
1.156870000000000e+03 2.096667642687804e+02 2.918975276816622e+03
1.156870000000000e+03 2.086683511055959e+02 2.918975276816622e+03
1.156870000000000e+03 2.076699379424111e+02 2.918975276816622e+03
1.156870000000000e+03 2.066715247792266e+02 2.918975276816622e+03
1.156870000000000e+03 2.056731116160418e+02 2.918975276816622e+03
1.156870000000000e+03 2.046746984528573e+02 2.918975276816622e+03
1.156870000000000e+03 2.036762852896724e+02 2.918975276816622e+03
1.156870000000000e+03 2.026778721264880e+02 2.918975276816622e+03
1.156870000000000e+03 2.016794589633031e+02 2.918975276816622e+03
1.156870000000000e+03 2.006810458001187e+02 2.918975276816622e+03
1.156870000000000e+03 1.996826326369338e+02 2.918975276816622e+03
1.156870000000000e+03 1.986842194737490e+02 2.918975276816622e+03
1.156870000000000e+03 1.976858063105645e+02 2.918975276816622e+03
1.156870000000000e+03 1.966873931473798e+02 2.918975276816622e+03
1.156870000000000e+03 1.956889799841952e+02 2.918975276816622e+03
1.156870000000000e+03 1.946905668210105e+02 2.918975276816622e+03
1.156870000000000e+03 1.936921536578259e+02 2.918975276816622e+03
1.156870000000000e+03 1.926937404946412e+02 2.918975276816622e+03
1.156870000000000e+03 1.916953273314567e+02 2.918975276816622e+03
1.156870000000000e+03 1.906969141682719e+02 2.918975276816622e+03
1.156870000000000e+03 1.896985010050870e+02 2.918975276816622e+03
1.156870000000000e+03 1.887000878419026e+02 2.918975276816622e+03
1.156870000000000e+03 1.877016746787177e+02 2.918975276816622e+03
1.156870000000000e+03 1.867032615155333e+02 2.918975276816622e+03
1.156870000000000e+03 1.857048483523484e+02 2.918975276816622e+03
1.156870000000000e+03 1.847064351891639e+02 2.918975276816622e+03
1.156870000000000e+03 1.837080220259791e+02 2.918975276816622e+03
1.156870000000000e+03 1.827096088627946e+02 2.918975276816622e+03
1.156870000000000e+03 1.817111956996098e+02 2.918975276816622e+03
1.156870000000000e+03 1.807127825364253e+02 2.918975276816622e+03
1.156870000000000e+03 1.797143693732405e+02 2.918975276816622e+03
1.156870000000000e+03 1.787159562100557e+02 2.918975276816622e+03
1.156870000000000e+03 1.777175430468712e+02 2.918975276816622e+03
1.156870000000000e+03 1.767191298836864e+02 2.918975276816622e+03
1.156870000000000e+03 1.757207167205019e+02 2.918975276816622e+03
1.156870000000000e+03 1.747223035573171e+02 2.918975276816622e+03
1.156870000000000e+03 1.737238903941326e+02 2.918975276816622e+03
1.156870000000000e+03 1.727254772309478e+02 2.918975276816622e+03
1.156870000000000e+03 1.717270640677633e+02 2.918975276816622e+03
1.156870000000000e+03 1.707286509045785e+02 2.918975276816622e+03
1.156870000000000e+03 1.697302377413937e+02 2.918975276816622e+03
1.156870000000000e+03 1.687318245782092e+02 2.918975276816622e+03
1.156870000000000e+03 1.677334114150244e+02 2.918975276816622e+03
1.156870000000000e+03 1.667349982518399e+02 2.918975276816622e+03
1.156870000000000e+03 1.657365850886551e+02 2.918975276816622e+03
1.156870000000000e+03 1.647381719254706e+02 2.918975276816622e+03
1.156870000000000e+03 1.637397587622858e+02 2.918975276816622e+03
1.156870000000000e+03 1.627413455991013e+02 2.918975276816622e+03
1.156870000000000e+03 1.617429324359165e+02 2.918975276816622e+03
1.156870000000000e+03 1.607445192727320e+02 2.918975276816622e+03
1.156870000000000e+03 1.597461061095472e+02 2.918975276816622e+03
1.156870000000000e+03 1.587476929463623e+02 2.918975276816622e+03
1.156870000000000e+03 1.577492797831779e+02 2.918975276816622e+03
1.156870000000000e+03 1.567508666199930e+02 2.918975276816622e+03
1.156870000000000e+03 1.557524534568086e+02 2.918975276816622e+03
1.156870000000000e+03 1.547540402936237e+02 2.918975276816622e+03
1.156870000000000e+03 1.537556271304393e+02 2.918975276816622e+03
1.156870000000000e+03 1.527572139672544e+02 2.918975276816622e+03
1.156870000000000e+03 1.517588008040699e+02 2.918975276816622e+03
1.156870000000000e+03 1.507603876408851e+02 2.918975276816622e+03
1.156870000000000e+03 1.497619744777003e+02 2.918975276816622e+03
1.156870000000000e+03 1.487635613145158e+02 2.918975276816622e+03
1.156870000000000e+03 1.477651481513310e+02 2.918975276816622e+03
1.156870000000000e+03 1.467667349881465e+02 2.918975276816622e+03
1.156870000000000e+03 1.457683218249617e+02 2.918975276816622e+03
1.156870000000000e+03 1.447699086617772e+02 2.918975276816622e+03
1.156870000000000e+03 1.437714954985924e+02 2.918975276816622e+03
1.156870000000000e+03 1.427730823354079e+02 2.918975276816622e+03
1.156870000000000e+03 1.417746691722231e+02 2.918975276816622e+03
1.156870000000000e+03 1.407762560090386e+02 2.918975276816622e+03
1.156870000000000e+03 1.397778428458538e+02 2.918975276816622e+03
1.156870000000000e+03 1.387794296826690e+02 2.918975276816622e+03
1.156870000000000e+03 1.377810165194845e+02 2.918975276816622e+03
1.156870000000000e+03 1.367826033562997e+02 2.918975276816622e+03
1.156870000000000e+03 1.357841901931152e+02 2.918975276816622e+03
1.156870000000000e+03 1.347857770299304e+02 2.918975276816622e+03
1.156870000000000e+03 1.337873638667459e+02 2.918975276816622e+03
1.156870000000000e+03 1.327889507035611e+02 2.918975276816622e+03
1.156870000000000e+03 1.317905375403766e+02 2.918975276816622e+03
1.156870000000000e+03 1.307921243771918e+02 2.918975276816622e+03
1.156870000000000e+03 1.297937112140069e+02 2.918975276816622e+03
1.156870000000000e+03 1.287952980508225e+02 2.918975276816622e+03
1.156870000000000e+03 1.277968848876376e+02 2.918975276816622e+03
1.156870000000000e+03 1.267984717244532e+02 2.918975276816622e+03
1.156870000000000e+03 1.258000585612683e+02 2.918975276816622e+03
1.156870000000000e+03 1.248016453980839e+02 2.918975276816622e+03
1.156870000000000e+03 1.238032322348990e+02 2.918975276816622e+03
1.156870000000000e+03 1.228048190717146e+02 2.918975276816622e+03
1.156870000000000e+03 1.218064059085297e+02 2.918975276816622e+03
1.156870000000000e+03 1.208079927453453e+02 2.918975276816622e+03
1.156870000000000e+03 1.198095795821604e+02 2.918975276816622e+03
1.156870000000000e+03 1.188111664189756e+02 2.918975276816622e+03
1.156870000000000e+03 1.178127532557911e+02 2.918975276816622e+03
1.156870000000000e+03 1.168143400926063e+02 2.918975276816622e+03
1.156870000000000e+03 1.158159269294218e+02 2.918975276816622e+03
1.156870000000000e+03 1.148175137662370e+02 2.918975276816622e+03
1.156870000000000e+03 1.138191006030525e+02 2.918975276816622e+03
1.156870000000000e+03 1.128206874398677e+02 2.918975276816622e+03
1.156870000000000e+03 1.118222742766832e+02 2.918975276816622e+03
1.156870000000000e+03 1.108238611134984e+02 2.918975276816622e+03
1.156870000000000e+03 1.098254479503136e+02 2.918975276816622e+03
1.156870000000000e+03 1.088270347871291e+02 2.918975276816622e+03
1.156870000000000e+03 1.078286216239443e+02 2.918975276816622e+03
1.156870000000000e+03 1.068302084607598e+02 2.918975276816622e+03
1.156870000000000e+03 1.058317952975750e+02 2.918975276816622e+03
1.156870000000000e+03 1.048333821343905e+02 2.918975276816622e+03
1.156870000000000e+03 1.038349689712057e+02 2.918975276816622e+03
1.156870000000000e+03 1.028365558080212e+02 2.918975276816622e+03
1.156870000000000e+03 1.018381426448364e+02 2.918975276816622e+03
1.156870000000000e+03 1.008397294816519e+02 2.918975276816622e+03
1.156870000000000e+03 9.984131631846709e+01 2.918975276816622e+03
1.156870000000000e+03 9.884290315528227e+01 2.918975276816622e+03
1.156870000000000e+03 9.784448999209779e+01 2.918975276816622e+03
1.156870000000000e+03 9.684607682891297e+01 2.918975276816622e+03
1.156870000000000e+03 9.584766366572849e+01 2.918975276816622e+03
1.156870000000000e+03 9.484925050254368e+01 2.918975276816622e+03
1.156870000000000e+03 9.385083733935917e+01 2.918975276816622e+03
1.156870000000000e+03 9.285242417617438e+01 2.918975276816622e+03
1.156870000000000e+03 9.185401101298989e+01 2.918975276816622e+03
1.156870000000000e+03 9.085559784980508e+01 2.918975276816622e+03
1.156870000000000e+03 8.985718468662027e+01 2.918975276816622e+03
1.156870000000000e+03 8.885877152343578e+01 2.918975276816622e+03
1.156870000000000e+03 8.786035836025097e+01 2.918975276816622e+03
1.156870000000000e+03 8.686194519706646e+01 2.918975276816622e+03
1.156870000000000e+03 8.586353203388167e+01 2.918975276816622e+03
1.156870000000000e+03 8.486511887069716e+01 2.918975276816622e+03
1.156870000000000e+03 8.386670570751237e+01 2.918975276816622e+03
1.156870000000000e+03 8.286829254432786e+01 2.918975276816622e+03
1.156870000000000e+03 8.186987938114305e+01 2.918975276816622e+03
1.156870000000000e+03 8.087146621795856e+01 2.918975276816622e+03
1.156870000000000e+03 7.987305305477375e+01 2.918975276816622e+03
1.156870000000000e+03 7.887463989158894e+01 2.918975276816622e+03
1.156870000000000e+03 7.787622672840445e+01 2.918975276816622e+03
1.156870000000000e+03 7.687781356521963e+01 2.918975276816622e+03
1.156870000000000e+03 7.587940040203515e+01 2.918975276816622e+03
1.156870000000000e+03 7.488098723885032e+01 2.918975276816622e+03
1.156870000000000e+03 7.388257407566584e+01 2.918975276816622e+03
1.156870000000000e+03 7.288416091248104e+01 2.918975276816622e+03
1.156870000000000e+03 7.188574774929654e+01 2.918975276816622e+03
1.156870000000000e+03 7.088733458611173e+01 2.918975276816622e+03
1.156870000000000e+03 6.988892142292690e+01 2.918975276816622e+03
1.156870000000000e+03 6.889050825974242e+01 2.918975276816622e+03
1.156870000000000e+03 6.789209509655758e+01 2.918975276816622e+03
1.156870000000000e+03 6.689368193337312e+01 2.918975276816622e+03
1.156870000000000e+03 6.589526877018828e+01 2.918975276816622e+03
1.156870000000000e+03 6.489685560700381e+01 2.918975276816622e+03
1.156870000000000e+03 6.389844244381898e+01 2.918975276816622e+03
1.156870000000000e+03 6.290002928063451e+01 2.918975276816622e+03
1.156870000000000e+03 6.190161611744968e+01 2.918975276816622e+03
1.156870000000000e+03 6.090320295426522e+01 2.918975276816622e+03
1.156870000000000e+03 5.990478979108038e+01 2.918975276816622e+03
1.156870000000000e+03 5.890637662789556e+01 2.918975276816622e+03
1.156870000000000e+03 5.790796346471107e+01 2.918975276816622e+03
1.156870000000000e+03 5.690955030152626e+01 2.918975276816622e+03
1.156870000000000e+03 5.591113713834177e+01 2.918975276816622e+03
1.156870000000000e+03 5.491272397515696e+01 2.918975276816622e+03
1.156870000000000e+03 5.391431081197247e+01 2.918975276816622e+03
1.156870000000000e+03 5.291589764878765e+01 2.918975276816622e+03
1.156870000000000e+03 5.191748448560316e+01 2.918975276816622e+03
1.156870000000000e+03 5.091907132241835e+01 2.918975276816622e+03
1.156870000000000e+03 4.992065815923355e+01 2.918975276816622e+03
1.156870000000000e+03 4.892224499604905e+01 2.918975276816622e+03
1.156870000000000e+03 4.792383183286424e+01 2.918975276816622e+03
1.156870000000000e+03 4.692541866967975e+01 2.918975276816622e+03
1.156870000000000e+03 4.592700550649494e+01 2.918975276816622e+03
1.156870000000000e+03 4.492859234331045e+01 2.918975276816622e+03
1.156870000000000e+03 4.393017918012564e+01 2.918975276816622e+03
1.156870000000000e+03 4.293176601694115e+01 2.918975276816622e+03
1.156870000000000e+03 4.193335285375634e+01 2.918975276816622e+03
1.156870000000000e+03 4.093493969057185e+01 2.918975276816622e+03
1.156870000000000e+03 3.993652652738703e+01 2.918975276816622e+03
1.156870000000000e+03 3.893811336420222e+01 2.918975276816622e+03
1.156870000000000e+03 3.793970020101773e+01 2.918975276816622e+03
1.156870000000000e+03 3.694128703783292e+01 2.918975276816622e+03
1.156870000000000e+03 3.594287387464843e+01 2.918975276816622e+03
1.156870000000000e+03 3.494446071146362e+01 2.918975276816622e+03
1.156870000000000e+03 3.394604754827913e+01 2.918975276816622e+03
1.156870000000000e+03 3.294763438509432e+01 2.918975276816622e+03
1.156870000000000e+03 3.194922122190982e+01 2.918975276816622e+03
1.156870000000000e+03 3.095080805872501e+01 2.918975276816622e+03
1.156870000000000e+03 2.995239489554020e+01 2.918975276816622e+03
1.156870000000000e+03 2.895398173235571e+01 2.918975276816622e+03
1.156870000000000e+03 2.795556856917089e+01 2.918975276816622e+03
1.156870000000000e+03 2.695715540598641e+01 2.918975276816622e+03
1.156870000000000e+03 2.595874224280159e+01 2.918975276816622e+03
1.156870000000000e+03 2.496032907961710e+01 2.918975276816622e+03
1.156870000000000e+03 2.396191591643229e+01 2.918975276816622e+03
1.156870000000000e+03 2.296350275324779e+01 2.918975276816622e+03
1.156870000000000e+03 2.196508959006298e+01 2.918975276816622e+03
1.156870000000000e+03 2.096667642687849e+01 2.918975276816622e+03
1.156870000000000e+03 1.996826326369368e+01 2.918975276816622e+03
1.156870000000000e+03 1.896985010050886e+01 2.918975276816622e+03
1.156870000000000e+03 1.797143693732438e+01 2.918975276816622e+03
1.156870000000000e+03 1.697302377413956e+01 2.918975276816622e+03
1.156870000000000e+03 1.597461061095507e+01 2.918975276816622e+03
1.156870000000000e+03 1.497619744777026e+01 2.918975276816622e+03
1.156870000000000e+03 1.397778428458577e+01 2.918975276816622e+03
1.156870000000000e+03 1.297937112140096e+01 2.918975276816622e+03
1.156870000000000e+03 1.198095795821647e+01 2.918975276816622e+03
1.156870000000000e+03 1.098254479503165e+01 2.918975276816622e+03
1.156870000000000e+03 9.984131631846841e+00 2.918975276816622e+03
1.156870000000000e+03 8.985718468662350e+00 2.918975276816622e+03
1.156870000000000e+03 7.987305305477538e+00 2.918975276816622e+03
1.156870000000000e+03 6.988892142293047e+00 2.918975276816622e+03
1.156870000000000e+03 5.990478979108235e+00 2.918975276816622e+03
1.156870000000000e+03 4.992065815923743e+00 2.918975276816622e+03
1.156870000000000e+03 3.993652652738932e+00 2.918975276816622e+03
1.156870000000000e+03 2.995239489554441e+00 2.918975276816622e+03
1.156870000000000e+03 1.996826326369628e+00 2.918975276816622e+03
1.156870000000000e+03 9.984131631851392e-01 2.918975276816622e+03
-1.145430000000000e+03 -4.992065815924069e-01 -2.918975276816622e+03
-1.145430000000000e+03  4.992065815925696e-01 -2.918975276816622e+03
-1.145430000000000e+03 -1.497619744777059e+00 -2.918975276816622e+03
-1.145430000000000e+03 -2.496032907961710e+00 -2.918975276816622e+03
-1.145430000000000e+03 -3.494446071146362e+00 -2.918975276816622e+03
-1.145430000000000e+03 -4.492859234331013e+00 -2.918975276816622e+03
-1.145430000000000e+03 -5.491272397515665e+00 -2.918975276816622e+03
-1.145430000000000e+03 -6.489685560700316e+00 -2.918975276816622e+03
-1.145430000000000e+03 -7.488098723884967e+00 -2.918975276816622e+03
-1.145430000000000e+03 -8.486511887069620e+00 -2.918975276816622e+03
-1.145430000000000e+03 -9.484925050254269e+00 -2.918975276816622e+03
-1.145430000000000e+03 -1.048333821343892e+01 -2.918975276816622e+03
-1.145430000000000e+03 -1.148175137662374e+01 -2.918975276816622e+03
-1.145430000000000e+03 -1.248016453980839e+01 -2.918975276816622e+03
-1.145430000000000e+03 -1.347857770299304e+01 -2.918975276816622e+03
-1.145430000000000e+03 -1.447699086617769e+01 -2.918975276816622e+03
-1.145430000000000e+03 -1.547540402936234e+01 -2.918975276816622e+03
-1.145430000000000e+03 -1.647381719254699e+01 -2.918975276816622e+03
-1.145430000000000e+03 -1.747223035573165e+01 -2.918975276816622e+03
-1.145430000000000e+03 -1.847064351891630e+01 -2.918975276816622e+03
-1.145430000000000e+03 -1.946905668210095e+01 -2.918975276816622e+03
-1.145430000000000e+03 -2.046746984528576e+01 -2.918975276816622e+03
-1.145430000000000e+03 -2.146588300847041e+01 -2.918975276816622e+03
-1.145430000000000e+03 -2.246429617165506e+01 -2.918975276816622e+03
-1.145430000000000e+03 -2.346270933483972e+01 -2.918975276816622e+03
-1.145430000000000e+03 -2.446112249802437e+01 -2.918975276816622e+03
-1.145430000000000e+03 -2.545953566120902e+01 -2.918975276816622e+03
-1.145430000000000e+03 -2.645794882439367e+01 -2.918975276816622e+03
-1.145430000000000e+03 -2.745636198757832e+01 -2.918975276816622e+03
-1.145430000000000e+03 -2.845477515076298e+01 -2.918975276816622e+03
-1.145430000000000e+03 -2.945318831394762e+01 -2.918975276816622e+03
-1.145430000000000e+03 -3.045160147713226e+01 -2.918975276816622e+03
-1.145430000000000e+03 -3.145001464031710e+01 -2.918975276816622e+03
-1.145430000000000e+03 -3.244842780350174e+01 -2.918975276816622e+03
-1.145430000000000e+03 -3.344684096668640e+01 -2.918975276816622e+03
-1.145430000000000e+03 -3.444525412987104e+01 -2.918975276816622e+03
-1.145430000000000e+03 -3.544366729305570e+01 -2.918975276816622e+03
-1.145430000000000e+03 -3.644208045624034e+01 -2.918975276816622e+03
-1.145430000000000e+03 -3.744049361942501e+01 -2.918975276816622e+03
-1.145430000000000e+03 -3.843890678260964e+01 -2.918975276816622e+03
-1.145430000000000e+03 -3.943731994579431e+01 -2.918975276816622e+03
-1.145430000000000e+03 -4.043573310897912e+01 -2.918975276816622e+03
-1.145430000000000e+03 -4.143414627216379e+01 -2.918975276816622e+03
-1.145430000000000e+03 -4.243255943534842e+01 -2.918975276816622e+03
-1.145430000000000e+03 -4.343097259853310e+01 -2.918975276816622e+03
-1.145430000000000e+03 -4.442938576171773e+01 -2.918975276816622e+03
-1.145430000000000e+03 -4.542779892490240e+01 -2.918975276816622e+03
-1.145430000000000e+03 -4.642621208808703e+01 -2.918975276816622e+03
-1.145430000000000e+03 -4.742462525127167e+01 -2.918975276816622e+03
-1.145430000000000e+03 -4.842303841445634e+01 -2.918975276816622e+03
-1.145430000000000e+03 -4.942145157764097e+01 -2.918975276816622e+03
-1.145430000000000e+03 -5.041986474082564e+01 -2.918975276816622e+03
-1.145430000000000e+03 -5.141827790401044e+01 -2.918975276816622e+03
-1.145430000000000e+03 -5.241669106719509e+01 -2.918975276816622e+03
-1.145430000000000e+03 -5.341510423037975e+01 -2.918975276816622e+03
-1.145430000000000e+03 -5.441351739356439e+01 -2.918975276816622e+03
-1.145430000000000e+03 -5.541193055674905e+01 -2.918975276816622e+03
-1.145430000000000e+03 -5.641034371993369e+01 -2.918975276816622e+03
-1.145430000000000e+03 -5.740875688311835e+01 -2.918975276816622e+03
-1.145430000000000e+03 -5.840717004630299e+01 -2.918975276816622e+03
-1.145430000000000e+03 -5.940558320948766e+01 -2.918975276816622e+03
-1.145430000000000e+03 -6.040399637267247e+01 -2.918975276816622e+03
-1.145430000000000e+03 -6.140240953585712e+01 -2.918975276816622e+03
-1.145430000000000e+03 -6.240082269904177e+01 -2.918975276816622e+03
-1.145430000000000e+03 -6.339923586222643e+01 -2.918975276816622e+03
-1.145430000000000e+03 -6.439764902541107e+01 -2.918975276816622e+03
-1.145430000000000e+03 -6.539606218859574e+01 -2.918975276816622e+03
-1.145430000000000e+03 -6.639447535178039e+01 -2.918975276816622e+03
-1.145430000000000e+03 -6.739288851496504e+01 -2.918975276816622e+03
-1.145430000000000e+03 -6.839130167814969e+01 -2.918975276816622e+03
-1.145430000000000e+03 -6.938971484133434e+01 -2.918975276816622e+03
-1.145430000000000e+03 -7.038812800451899e+01 -2.918975276816622e+03
-1.145430000000000e+03 -7.138654116770378e+01 -2.918975276816622e+03
-1.145430000000000e+03 -7.238495433088843e+01 -2.918975276816622e+03
-1.145430000000000e+03 -7.338336749407310e+01 -2.918975276816622e+03
-1.145430000000000e+03 -7.438178065725774e+01 -2.918975276816622e+03
-1.145430000000000e+03 -7.538019382044239e+01 -2.918975276816622e+03
-1.145430000000000e+03 -7.637860698362704e+01 -2.918975276816622e+03
-1.145430000000000e+03 -7.737702014681169e+01 -2.918975276816622e+03
-1.145430000000000e+03 -7.837543330999634e+01 -2.918975276816622e+03
-1.145430000000000e+03 -7.937384647318099e+01 -2.918975276816622e+03
-1.145430000000000e+03 -8.037225963636581e+01 -2.918975276816622e+03
-1.145430000000000e+03 -8.137067279955048e+01 -2.918975276816622e+03
-1.145430000000000e+03 -8.236908596273511e+01 -2.918975276816622e+03
-1.145430000000000e+03 -8.336749912591976e+01 -2.918975276816622e+03
-1.145430000000000e+03 -8.436591228910443e+01 -2.918975276816622e+03
-1.145430000000000e+03 -8.536432545228908e+01 -2.918975276816622e+03
-1.145430000000000e+03 -8.636273861547373e+01 -2.918975276816622e+03
-1.145430000000000e+03 -8.736115177865838e+01 -2.918975276816622e+03
-1.145430000000000e+03 -8.835956494184303e+01 -2.918975276816622e+03
-1.145430000000000e+03 -8.935797810502768e+01 -2.918975276816622e+03
-1.145430000000000e+03 -9.035639126821233e+01 -2.918975276816622e+03
-1.145430000000000e+03 -9.135480443139717e+01 -2.918975276816622e+03
-1.145430000000000e+03 -9.235321759458181e+01 -2.918975276816622e+03
-1.145430000000000e+03 -9.335163075776647e+01 -2.918975276816622e+03
-1.145430000000000e+03 -9.435004392095111e+01 -2.918975276816622e+03
-1.145430000000000e+03 -9.534845708413577e+01 -2.918975276816622e+03
-1.145430000000000e+03 -9.634687024732041e+01 -2.918975276816622e+03
-1.145430000000000e+03 -9.734528341050508e+01 -2.918975276816622e+03
-1.145430000000000e+03 -9.834369657368971e+01 -2.918975276816622e+03
-1.145430000000000e+03 -9.934210973687439e+01 -2.918975276816622e+03
-1.145430000000000e+03 -1.003405229000592e+02 -2.918975276816622e+03
-1.145430000000000e+03 -1.013389360632438e+02 -2.918975276816622e+03
-1.145430000000000e+03 -1.023373492264285e+02 -2.918975276816622e+03
-1.145430000000000e+03 -1.033357623896131e+02 -2.918975276816622e+03
-1.145430000000000e+03 -1.043341755527978e+02 -2.918975276816622e+03
-1.145430000000000e+03 -1.053325887159824e+02 -2.918975276816622e+03
-1.145430000000000e+03 -1.063310018791671e+02 -2.918975276816622e+03
-1.145430000000000e+03 -1.073294150423517e+02 -2.918975276816622e+03
-1.145430000000000e+03 -1.083278282055364e+02 -2.918975276816622e+03
-1.145430000000000e+03 -1.093262413687210e+02 -2.918975276816622e+03
-1.145430000000000e+03 -1.103246545319057e+02 -2.918975276816622e+03
-1.145430000000000e+03 -1.113230676950905e+02 -2.918975276816622e+03
-1.145430000000000e+03 -1.123214808582751e+02 -2.918975276816622e+03
-1.145430000000000e+03 -1.133198940214598e+02 -2.918975276816622e+03
-1.145430000000000e+03 -1.143183071846445e+02 -2.918975276816622e+03
-1.145430000000000e+03 -1.153167203478291e+02 -2.918975276816622e+03
-1.145430000000000e+03 -1.163151335110137e+02 -2.918975276816622e+03
-1.145430000000000e+03 -1.173135466741984e+02 -2.918975276816622e+03
-1.145430000000000e+03 -1.183119598373830e+02 -2.918975276816622e+03
-1.145430000000000e+03 -1.193103730005677e+02 -2.918975276816622e+03
-1.145430000000000e+03 -1.203087861637525e+02 -2.918975276816622e+03
-1.145430000000000e+03 -1.213071993269372e+02 -2.918975276816622e+03
-1.145430000000000e+03 -1.223056124901218e+02 -2.918975276816622e+03
-1.145430000000000e+03 -1.233040256533065e+02 -2.918975276816622e+03
-1.145430000000000e+03 -1.243024388164911e+02 -2.918975276816622e+03
-1.145430000000000e+03 -1.253008519796758e+02 -2.918975276816622e+03
-1.145430000000000e+03 -1.262992651428604e+02 -2.918975276816622e+03
-1.145430000000000e+03 -1.272976783060451e+02 -2.918975276816622e+03
-1.145430000000000e+03 -1.282960914692297e+02 -2.918975276816622e+03
-1.145430000000000e+03 -1.292945046324144e+02 -2.918975276816622e+03
-1.145430000000000e+03 -1.302929177955990e+02 -2.918975276816622e+03
-1.145430000000000e+03 -1.312913309587839e+02 -2.918975276816622e+03
-1.145430000000000e+03 -1.322897441219685e+02 -2.918975276816622e+03
-1.145430000000000e+03 -1.332881572851532e+02 -2.918975276816622e+03
-1.145430000000000e+03 -1.342865704483378e+02 -2.918975276816622e+03
-1.145430000000000e+03 -1.352849836115225e+02 -2.918975276816622e+03
-1.145430000000000e+03 -1.362833967747071e+02 -2.918975276816622e+03
-1.145430000000000e+03 -1.372818099378918e+02 -2.918975276816622e+03
-1.145430000000000e+03 -1.382802231010764e+02 -2.918975276816622e+03
-1.145430000000000e+03 -1.392786362642611e+02 -2.918975276816622e+03
-1.145430000000000e+03 -1.402770494274459e+02 -2.918975276816622e+03
-1.145430000000000e+03 -1.412754625906305e+02 -2.918975276816622e+03
-1.145430000000000e+03 -1.422738757538152e+02 -2.918975276816622e+03
-1.145430000000000e+03 -1.432722889169998e+02 -2.918975276816622e+03
-1.145430000000000e+03 -1.442707020801845e+02 -2.918975276816622e+03
-1.145430000000000e+03 -1.452691152433691e+02 -2.918975276816622e+03
-1.145430000000000e+03 -1.462675284065538e+02 -2.918975276816622e+03
-1.145430000000000e+03 -1.472659415697385e+02 -2.918975276816622e+03
-1.145430000000000e+03 -1.482643547329231e+02 -2.918975276816622e+03
-1.145430000000000e+03 -1.492627678961077e+02 -2.918975276816622e+03
-1.145430000000000e+03 -1.502611810592924e+02 -2.918975276816622e+03
-1.145430000000000e+03 -1.512595942224772e+02 -2.918975276816622e+03
-1.145430000000000e+03 -1.522580073856618e+02 -2.918975276816622e+03
-1.145430000000000e+03 -1.532564205488465e+02 -2.918975276816622e+03
-1.145430000000000e+03 -1.542548337120312e+02 -2.918975276816622e+03
-1.145430000000000e+03 -1.552532468752158e+02 -2.918975276816622e+03
-1.145430000000000e+03 -1.562516600384005e+02 -2.918975276816622e+03
-1.145430000000000e+03 -1.572500732015851e+02 -2.918975276816622e+03
-1.145430000000000e+03 -1.582484863647698e+02 -2.918975276816622e+03
-1.145430000000000e+03 -1.592468995279544e+02 -2.918975276816622e+03
-1.145430000000000e+03 -1.602453126911392e+02 -2.918975276816622e+03
-1.145430000000000e+03 -1.612437258543239e+02 -2.918975276816622e+03
-1.145430000000000e+03 -1.622421390175085e+02 -2.918975276816622e+03
-1.145430000000000e+03 -1.632405521806932e+02 -2.918975276816622e+03
-1.145430000000000e+03 -1.642389653438779e+02 -2.918975276816622e+03
-1.145430000000000e+03 -1.652373785070625e+02 -2.918975276816622e+03
-1.145430000000000e+03 -1.662357916702472e+02 -2.918975276816622e+03
-1.145430000000000e+03 -1.672342048334318e+02 -2.918975276816622e+03
-1.145430000000000e+03 -1.682326179966165e+02 -2.918975276816622e+03
-1.145430000000000e+03 -1.692310311598011e+02 -2.918975276816622e+03
-1.145430000000000e+03 -1.702294443229858e+02 -2.918975276816622e+03
-1.145430000000000e+03 -1.712278574861706e+02 -2.918975276816622e+03
-1.145430000000000e+03 -1.722262706493552e+02 -2.918975276816622e+03
-1.145430000000000e+03 -1.732246838125399e+02 -2.918975276816622e+03
-1.145430000000000e+03 -1.742230969757245e+02 -2.918975276816622e+03
-1.145430000000000e+03 -1.752215101389092e+02 -2.918975276816622e+03
-1.145430000000000e+03 -1.762199233020938e+02 -2.918975276816622e+03
-1.145430000000000e+03 -1.772183364652785e+02 -2.918975276816622e+03
-1.145430000000000e+03 -1.782167496284631e+02 -2.918975276816622e+03
-1.145430000000000e+03 -1.792151627916478e+02 -2.918975276816622e+03
-1.145430000000000e+03 -1.802135759548326e+02 -2.918975276816622e+03
-1.145430000000000e+03 -1.812119891180173e+02 -2.918975276816622e+03
-1.145430000000000e+03 -1.822104022812019e+02 -2.918975276816622e+03
-1.145430000000000e+03 -1.832088154443865e+02 -2.918975276816622e+03
-1.145430000000000e+03 -1.842072286075712e+02 -2.918975276816622e+03
-1.145430000000000e+03 -1.852056417707558e+02 -2.918975276816622e+03
-1.145430000000000e+03 -1.862040549339405e+02 -2.918975276816622e+03
-1.145430000000000e+03 -1.872024680971251e+02 -2.918975276816622e+03
-1.145430000000000e+03 -1.882008812603098e+02 -2.918975276816622e+03
-1.145430000000000e+03 -1.891992944234945e+02 -2.918975276816622e+03
-1.145430000000000e+03 -1.901977075866791e+02 -2.918975276816622e+03
-1.145430000000000e+03 -1.911961207498639e+02 -2.918975276816622e+03
-1.145430000000000e+03 -1.921945339130486e+02 -2.918975276816622e+03
-1.145430000000000e+03 -1.931929470762332e+02 -2.918975276816622e+03
-1.145430000000000e+03 -1.941913602394179e+02 -2.918975276816622e+03
-1.145430000000000e+03 -1.951897734026025e+02 -2.918975276816622e+03
-1.145430000000000e+03 -1.961881865657872e+02 -2.918975276816622e+03
-1.145430000000000e+03 -1.971865997289718e+02 -2.918975276816622e+03
-1.145430000000000e+03 -1.981850128921565e+02 -2.918975276816622e+03
-1.145430000000000e+03 -1.991834260553411e+02 -2.918975276816622e+03
-1.145430000000000e+03 -2.001818392185259e+02 -2.918975276816622e+03
-1.145430000000000e+03 -2.011802523817106e+02 -2.918975276816622e+03
-1.145430000000000e+03 -2.021786655448952e+02 -2.918975276816622e+03
-1.145430000000000e+03 -2.031770787080799e+02 -2.918975276816622e+03
-1.145430000000000e+03 -2.041754918712646e+02 -2.918975276816622e+03
-1.145430000000000e+03 -2.051739050344492e+02 -2.918975276816622e+03
-1.145430000000000e+03 -2.061723181976339e+02 -2.918975276816622e+03
-1.145430000000000e+03 -2.071707313608185e+02 -2.918975276816622e+03
-1.145430000000000e+03 -2.081691445240032e+02 -2.918975276816622e+03
-1.145430000000000e+03 -2.091675576871878e+02 -2.918975276816622e+03
-1.145430000000000e+03 -2.101659708503725e+02 -2.918975276816622e+03
-1.145430000000000e+03 -2.111643840135573e+02 -2.918975276816622e+03
-1.145430000000000e+03 -2.121627971767419e+02 -2.918975276816622e+03
-1.145430000000000e+03 -2.131612103399266e+02 -2.918975276816622e+03
-1.145430000000000e+03 -2.141596235031112e+02 -2.918975276816622e+03
-1.145430000000000e+03 -2.151580366662959e+02 -2.918975276816622e+03
-1.145430000000000e+03 -2.161564498294806e+02 -2.918975276816622e+03
-1.145430000000000e+03 -2.171548629926652e+02 -2.918975276816622e+03
-1.145430000000000e+03 -2.181532761558499e+02 -2.918975276816622e+03
-1.145430000000000e+03 -2.191516893190345e+02 -2.918975276816622e+03
-1.145430000000000e+03 -2.201501024822193e+02 -2.918975276816622e+03
-1.145430000000000e+03 -2.211485156454039e+02 -2.918975276816622e+03
-1.145430000000000e+03 -2.221469288085886e+02 -2.918975276816622e+03
-1.145430000000000e+03 -2.231453419717732e+02 -2.918975276816622e+03
-1.145430000000000e+03 -2.241437551349579e+02 -2.918975276816622e+03
-1.145430000000000e+03 -2.251421682981425e+02 -2.918975276816622e+03
-1.145430000000000e+03 -2.261405814613272e+02 -2.918975276816622e+03
-1.145430000000000e+03 -2.271389946245118e+02 -2.918975276816622e+03
-1.145430000000000e+03 -2.281374077876965e+02 -2.918975276816622e+03
-1.145430000000000e+03 -2.291358209508812e+02 -2.918975276816622e+03
-1.145430000000000e+03 -2.301342341140658e+02 -2.918975276816622e+03
-1.145430000000000e+03 -2.311326472772506e+02 -2.918975276816622e+03
-1.145430000000000e+03 -2.321310604404353e+02 -2.918975276816622e+03
-1.145430000000000e+03 -2.331294736036199e+02 -2.918975276816622e+03
-1.145430000000000e+03 -2.341278867668046e+02 -2.918975276816622e+03
-1.145430000000000e+03 -2.351262999299892e+02 -2.918975276816622e+03
-1.145430000000000e+03 -2.361247130931739e+02 -2.918975276816622e+03
-1.145430000000000e+03 -2.371231262563585e+02 -2.918975276816622e+03
-1.145430000000000e+03 -2.381215394195432e+02 -2.918975276816622e+03
-1.145430000000000e+03 -2.391199525827278e+02 -2.918975276816622e+03
-1.145430000000000e+03 -2.401183657459127e+02 -2.918975276816622e+03
-1.145430000000000e+03 -2.411167789090973e+02 -2.918975276816622e+03
-1.145430000000000e+03 -2.421151920722820e+02 -2.918975276816622e+03
-1.145430000000000e+03 -2.431136052354666e+02 -2.918975276816622e+03
-1.145430000000000e+03 -2.441120183986513e+02 -2.918975276816622e+03
-1.145430000000000e+03 -2.451104315618359e+02 -2.918975276816622e+03
-1.145430000000000e+03 -2.461088447250206e+02 -2.918975276816622e+03
-1.145430000000000e+03 -2.471072578882052e+02 -2.918975276816622e+03
-1.145430000000000e+03 -2.481056710513899e+02 -2.918975276816622e+03
-1.145430000000000e+03 -2.491040842145745e+02 -2.918975276816622e+03
-1.145430000000000e+03 -2.501024973777592e+02 -2.918975276816622e+03
-1.145430000000000e+03 -2.511009105409440e+02 -2.918975276816622e+03
-1.145430000000000e+03 -2.520993237041286e+02 -2.918975276816622e+03
-1.145430000000000e+03 -2.530977368673133e+02 -2.918975276816622e+03
-1.145430000000000e+03 -2.540961500304980e+02 -2.918975276816622e+03
-1.145430000000000e+03 -2.550945631936826e+02 -2.918975276816622e+03
-1.145430000000000e+03 -2.560929763568673e+02 -2.918975276816622e+03
-1.145430000000000e+03 -2.570913895200519e+02 -2.918975276816622e+03
-1.145430000000000e+03 -2.580898026832365e+02 -2.918975276816622e+03
-1.145430000000000e+03 -2.590882158464212e+02 -2.918975276816622e+03
-1.145430000000000e+03 -2.600866290096058e+02 -2.918975276816622e+03
-1.145430000000000e+03 -2.610850421727905e+02 -2.918975276816622e+03
-1.145430000000000e+03 -2.620834553359753e+02 -2.918975276816622e+03
-1.145430000000000e+03 -2.630818684991600e+02 -2.918975276816622e+03
-1.145430000000000e+03 -2.640802816623446e+02 -2.918975276816622e+03
-1.145430000000000e+03 -2.650786948255293e+02 -2.918975276816622e+03
-1.145430000000000e+03 -2.660771079887139e+02 -2.918975276816622e+03
-1.145430000000000e+03 -2.670755211518986e+02 -2.918975276816622e+03
-1.145430000000000e+03 -2.680739343150832e+02 -2.918975276816622e+03
-1.145430000000000e+03 -2.690723474782679e+02 -2.918975276816622e+03
-1.145430000000000e+03 -2.700707606414525e+02 -2.918975276816622e+03
-1.145430000000000e+03 -2.710691738046373e+02 -2.918975276816622e+03
-1.145430000000000e+03 -2.720675869678220e+02 -2.918975276816622e+03
-1.145430000000000e+03 -2.730660001310067e+02 -2.918975276816622e+03
-1.145430000000000e+03 -2.740644132941913e+02 -2.918975276816622e+03
-1.145430000000000e+03 -2.750628264573759e+02 -2.918975276816622e+03
-1.145430000000000e+03 -2.760612396205606e+02 -2.918975276816622e+03
-1.145430000000000e+03 -2.770596527837453e+02 -2.918975276816622e+03
-1.145430000000000e+03 -2.780580659469299e+02 -2.918975276816622e+03
-1.145430000000000e+03 -2.790564791101145e+02 -2.918975276816622e+03
-1.145430000000000e+03 -2.800548922732992e+02 -2.918975276816622e+03
-1.145430000000000e+03 -2.810533054364839e+02 -2.918975276816622e+03
-1.145430000000000e+03 -2.820517185996687e+02 -2.918975276816622e+03
-1.145430000000000e+03 -2.830501317628533e+02 -2.918975276816622e+03
-1.145430000000000e+03 -2.840485449260380e+02 -2.918975276816622e+03
-1.145430000000000e+03 -2.850469580892226e+02 -2.918975276816622e+03
-1.145430000000000e+03 -2.860453712524073e+02 -2.918975276816622e+03
-1.145430000000000e+03 -2.870437844155919e+02 -2.918975276816622e+03
-1.145430000000000e+03 -2.880421975787768e+02 -2.918975276816622e+03
-1.145430000000000e+03 -2.890406107419614e+02 -2.918975276816622e+03
-1.145430000000000e+03 -2.900390239051459e+02 -2.918975276816622e+03
-1.145430000000000e+03 -2.910374370683308e+02 -2.918975276816622e+03
-1.145430000000000e+03 -2.920358502315154e+02 -2.918975276816622e+03
-1.145430000000000e+03 -2.930342633947000e+02 -2.918975276816622e+03
-1.145430000000000e+03 -2.940326765578849e+02 -2.918975276816622e+03
-1.145430000000000e+03 -2.950310897210694e+02 -2.918975276816622e+03
-1.145430000000000e+03 -2.960295028842540e+02 -2.918975276816622e+03
-1.145430000000000e+03 -2.970279160474386e+02 -2.918975276816622e+03
-1.145430000000000e+03 -2.980263292106234e+02 -2.918975276816622e+03
-1.145430000000000e+03 -2.990247423738080e+02 -2.918975276816622e+03
-1.145430000000000e+03 -3.000231555369926e+02 -2.918975276816622e+03
-1.145430000000000e+03 -3.010215687001772e+02 -2.918975276816622e+03
-1.145430000000000e+03 -3.020199818633620e+02 -2.918975276816622e+03
-1.145430000000000e+03 -3.030183950265466e+02 -2.918975276816622e+03
-1.145430000000000e+03 -3.040168081897312e+02 -2.918975276816622e+03
-1.145430000000000e+03 -3.050152213529161e+02 -2.918975276816622e+03
-1.145430000000000e+03 -3.060136345161006e+02 -2.918975276816622e+03
-1.145430000000000e+03 -3.070120476792852e+02 -2.918975276816622e+03
-1.145430000000000e+03 -3.080104608424699e+02 -2.918975276816622e+03
-1.145430000000000e+03 -3.090088740056547e+02 -2.918975276816622e+03
-1.145430000000000e+03 -3.100072871688392e+02 -2.918975276816622e+03
-1.145430000000000e+03 -3.110057003320238e+02 -2.918975276816622e+03
-1.145430000000000e+03 -3.120041134952087e+02 -2.918975276816622e+03
-1.145430000000000e+03 -3.130025266583935e+02 -2.918975276816622e+03
-1.145430000000000e+03 -3.140009398215778e+02 -2.918975276816622e+03
-1.145430000000000e+03 -3.149993529847625e+02 -2.918975276816622e+03
-1.145430000000000e+03 -3.159977661479473e+02 -2.918975276816622e+03
-1.145430000000000e+03 -3.169961793111322e+02 -2.918975276816622e+03
-1.145430000000000e+03 -3.179945924743165e+02 -2.918975276816622e+03
-1.145430000000000e+03 -3.189930056375011e+02 -2.918975276816622e+03
-1.145430000000000e+03 -3.199914188006859e+02 -2.918975276816622e+03
-1.145430000000000e+03 -3.209898319638708e+02 -2.918975276816622e+03
-1.145430000000000e+03 -3.219882451270553e+02 -2.918975276816622e+03
-1.145430000000000e+03 -3.229866582902399e+02 -2.918975276816622e+03
-1.145430000000000e+03 -3.239850714534248e+02 -2.918975276816622e+03
-1.145430000000000e+03 -3.249834846166094e+02 -2.918975276816622e+03
-1.145430000000000e+03 -3.259818977797939e+02 -2.918975276816622e+03
-1.145430000000000e+03 -3.269803109429785e+02 -2.918975276816622e+03
-1.145430000000000e+03 -3.279787241061634e+02 -2.918975276816622e+03
-1.145430000000000e+03 -3.289771372693480e+02 -2.918975276816622e+03
-1.145430000000000e+03 -3.299755504325325e+02 -2.918975276816622e+03
-1.145430000000000e+03 -3.309739635957174e+02 -2.918975276816622e+03
-1.145430000000000e+03 -3.319723767589020e+02 -2.918975276816622e+03
-1.145430000000000e+03 -3.329707899220866e+02 -2.918975276816622e+03
-1.145430000000000e+03 -3.339692030852712e+02 -2.918975276816622e+03
-1.145430000000000e+03 -3.349676162484560e+02 -2.918975276816622e+03
-1.145430000000000e+03 -3.359660294116406e+02 -2.918975276816622e+03
-1.145430000000000e+03 -3.369644425748252e+02 -2.918975276816622e+03
-1.145430000000000e+03 -3.379628557380098e+02 -2.918975276816622e+03
-1.145430000000000e+03 -3.389612689011946e+02 -2.918975276816622e+03
-1.145430000000000e+03 -3.399596820643792e+02 -2.918975276816622e+03
-1.145430000000000e+03 -3.409580952275641e+02 -2.918975276816622e+03
-1.145430000000000e+03 -3.419565083907486e+02 -2.918975276816622e+03
-1.145430000000000e+03 -3.429549215539332e+02 -2.918975276816622e+03
-1.145430000000000e+03 -3.439533347171179e+02 -2.918975276816622e+03
-1.145430000000000e+03 -3.449517478803027e+02 -2.918975276816622e+03
-1.145430000000000e+03 -3.459501610434872e+02 -2.918975276816622e+03
-1.145430000000000e+03 -3.469485742066719e+02 -2.918975276816622e+03
-1.145430000000000e+03 -3.479469873698565e+02 -2.918975276816622e+03
-1.145430000000000e+03 -3.489454005330413e+02 -2.918975276816622e+03
-1.145430000000000e+03 -3.499438136962259e+02 -2.918975276816622e+03
-1.145430000000000e+03 -3.509422268594107e+02 -2.918975276816622e+03
-1.145430000000000e+03 -3.519406400225953e+02 -2.918975276816622e+03
-1.145430000000000e+03 -3.529390531857802e+02 -2.918975276816622e+03
-1.145430000000000e+03 -3.539374663489648e+02 -2.918975276816622e+03
-1.145430000000000e+03 -3.549358795121493e+02 -2.918975276816622e+03
-1.145430000000000e+03 -3.559342926753339e+02 -2.918975276816622e+03
-1.145430000000000e+03 -3.569327058385188e+02 -2.918975276816622e+03
-1.145430000000000e+03 -3.579311190017034e+02 -2.918975276816622e+03
-1.145430000000000e+03 -3.589295321648879e+02 -2.918975276816622e+03
-1.145430000000000e+03 -3.599279453280726e+02 -2.918975276816622e+03
-1.145430000000000e+03 -3.609263584912574e+02 -2.918975276816622e+03
-1.145430000000000e+03 -3.619247716544423e+02 -2.918975276816622e+03
-1.145430000000000e+03 -3.629231848176269e+02 -2.918975276816622e+03
-1.145430000000000e+03 -3.639215979808114e+02 -2.918975276816622e+03
-1.145430000000000e+03 -3.649200111439960e+02 -2.918975276816622e+03
-1.145430000000000e+03 -3.659184243071809e+02 -2.918975276816622e+03
-1.145430000000000e+03 -3.669168374703654e+02 -2.918975276816622e+03
-1.145430000000000e+03 -3.679152506335501e+02 -2.918975276816622e+03
-1.145430000000000e+03 -3.689136637967347e+02 -2.918975276816622e+03
-1.145430000000000e+03 -3.699120769599193e+02 -2.918975276816622e+03
-1.145430000000000e+03 -3.709104901231044e+02 -2.918975276816622e+03
-1.145430000000000e+03 -3.719089032862887e+02 -2.918975276816622e+03
-1.145430000000000e+03 -3.729073164494735e+02 -2.918975276816622e+03
-1.145430000000000e+03 -3.739057296126580e+02 -2.918975276816622e+03
-1.145430000000000e+03 -3.749041427758430e+02 -2.918975276816622e+03
-1.145430000000000e+03 -3.759025559390273e+02 -2.918975276816622e+03
-1.145430000000000e+03 -3.769009691022121e+02 -2.918975276816622e+03
-1.145430000000000e+03 -3.778993822653966e+02 -2.918975276816622e+03
-1.145430000000000e+03 -3.788977954285816e+02 -2.918975276816622e+03
-1.145430000000000e+03 -3.798962085917659e+02 -2.918975276816622e+03
-1.145430000000000e+03 -3.808946217549507e+02 -2.918975276816622e+03
-1.145430000000000e+03 -3.818930349181352e+02 -2.918975276816622e+03
-1.145430000000000e+03 -3.828914480813202e+02 -2.918975276816622e+03
-1.145430000000000e+03 -3.838898612445048e+02 -2.918975276816622e+03
-1.145430000000000e+03 -3.848882744076893e+02 -2.918975276816622e+03
-1.145430000000000e+03 -3.858866875708745e+02 -2.918975276816622e+03
-1.145430000000000e+03  3.858866875708736e+02 -2.918975276816622e+03
-1.145430000000000e+03  3.848882744076896e+02 -2.918975276816622e+03
-1.145430000000000e+03  3.838898612445053e+02 -2.918975276816622e+03
-1.145430000000000e+03  3.828914480813205e+02 -2.918975276816622e+03
-1.145430000000000e+03  3.818930349181359e+02 -2.918975276816622e+03
-1.145430000000000e+03  3.808946217549507e+02 -2.918975276816622e+03
-1.145430000000000e+03  3.798962085917664e+02 -2.918975276816622e+03
-1.145430000000000e+03  3.788977954285816e+02 -2.918975276816622e+03
-1.145430000000000e+03  3.778993822653970e+02 -2.918975276816622e+03
-1.145430000000000e+03  3.769009691022121e+02 -2.918975276816622e+03
-1.145430000000000e+03  3.759025559390279e+02 -2.918975276816622e+03
-1.145430000000000e+03  3.749041427758430e+02 -2.918975276816622e+03
-1.145430000000000e+03  3.739057296126584e+02 -2.918975276816622e+03
-1.145430000000000e+03  3.729073164494738e+02 -2.918975276816622e+03
-1.145430000000000e+03  3.719089032862893e+02 -2.918975276816622e+03
-1.145430000000000e+03  3.709104901231044e+02 -2.918975276816622e+03
-1.145430000000000e+03  3.699120769599194e+02 -2.918975276816622e+03
-1.145430000000000e+03  3.689136637967349e+02 -2.918975276816622e+03
-1.145430000000000e+03  3.679152506335503e+02 -2.918975276816622e+03
-1.145430000000000e+03  3.669168374703657e+02 -2.918975276816622e+03
-1.145430000000000e+03  3.659184243071809e+02 -2.918975276816622e+03
-1.145430000000000e+03  3.649200111439962e+02 -2.918975276816622e+03
-1.145430000000000e+03  3.639215979808117e+02 -2.918975276816622e+03
-1.145430000000000e+03  3.629231848176271e+02 -2.918975276816622e+03
-1.145430000000000e+03  3.619247716544423e+02 -2.918975276816622e+03
-1.145430000000000e+03  3.609263584912577e+02 -2.918975276816622e+03
-1.145430000000000e+03  3.599279453280728e+02 -2.918975276816622e+03
-1.145430000000000e+03  3.589295321648883e+02 -2.918975276816622e+03
-1.145430000000000e+03  3.579311190017037e+02 -2.918975276816622e+03
-1.145430000000000e+03  3.569327058385191e+02 -2.918975276816622e+03
-1.145430000000000e+03  3.559342926753342e+02 -2.918975276816622e+03
-1.145430000000000e+03  3.549358795121497e+02 -2.918975276816622e+03
-1.145430000000000e+03  3.539374663489651e+02 -2.918975276816622e+03
-1.145430000000000e+03  3.529390531857805e+02 -2.918975276816622e+03
-1.145430000000000e+03  3.519406400225956e+02 -2.918975276816622e+03
-1.145430000000000e+03  3.509422268594111e+02 -2.918975276816622e+03
-1.145430000000000e+03  3.499438136962265e+02 -2.918975276816622e+03
-1.145430000000000e+03  3.489454005330415e+02 -2.918975276816622e+03
-1.145430000000000e+03  3.479469873698570e+02 -2.918975276816622e+03
-1.145430000000000e+03  3.469485742066724e+02 -2.918975276816622e+03
-1.145430000000000e+03  3.459501610434879e+02 -2.918975276816622e+03
-1.145430000000000e+03  3.449517478803029e+02 -2.918975276816622e+03
-1.145430000000000e+03  3.439533347171184e+02 -2.918975276816622e+03
-1.145430000000000e+03  3.429549215539338e+02 -2.918975276816622e+03
-1.145430000000000e+03  3.419565083907493e+02 -2.918975276816622e+03
-1.145430000000000e+03  3.409580952275643e+02 -2.918975276816622e+03
-1.145430000000000e+03  3.399596820643795e+02 -2.918975276816622e+03
-1.145430000000000e+03  3.389612689011950e+02 -2.918975276816622e+03
-1.145430000000000e+03  3.379628557380104e+02 -2.918975276816622e+03
-1.145430000000000e+03  3.369644425748257e+02 -2.918975276816622e+03
-1.145430000000000e+03  3.359660294116409e+02 -2.918975276816622e+03
-1.145430000000000e+03  3.349676162484564e+02 -2.918975276816622e+03
-1.145430000000000e+03  3.339692030852718e+02 -2.918975276816622e+03
-1.145430000000000e+03  3.329707899220871e+02 -2.918975276816622e+03
-1.145430000000000e+03  3.319723767589023e+02 -2.918975276816622e+03
-1.145430000000000e+03  3.309739635957177e+02 -2.918975276816622e+03
-1.145430000000000e+03  3.299755504325329e+02 -2.918975276816622e+03
-1.145430000000000e+03  3.289771372693482e+02 -2.918975276816622e+03
-1.145430000000000e+03  3.279787241061634e+02 -2.918975276816622e+03
-1.145430000000000e+03  3.269803109429788e+02 -2.918975276816622e+03
-1.145430000000000e+03  3.259818977797943e+02 -2.918975276816622e+03
-1.145430000000000e+03  3.249834846166096e+02 -2.918975276816622e+03
-1.145430000000000e+03  3.239850714534248e+02 -2.918975276816622e+03
-1.145430000000000e+03  3.229866582902402e+02 -2.918975276816622e+03
-1.145430000000000e+03  3.219882451270557e+02 -2.918975276816622e+03
-1.145430000000000e+03  3.209898319638708e+02 -2.918975276816622e+03
-1.145430000000000e+03  3.199914188006862e+02 -2.918975276816622e+03
-1.145430000000000e+03  3.189930056375016e+02 -2.918975276816622e+03
-1.145430000000000e+03  3.179945924743167e+02 -2.918975276816622e+03
-1.145430000000000e+03  3.169961793111322e+02 -2.918975276816622e+03
-1.145430000000000e+03  3.159977661479476e+02 -2.918975276816622e+03
-1.145430000000000e+03  3.149993529847630e+02 -2.918975276816622e+03
-1.145430000000000e+03  3.140009398215781e+02 -2.918975276816622e+03
-1.145430000000000e+03  3.130025266583935e+02 -2.918975276816622e+03
-1.145430000000000e+03  3.120041134952090e+02 -2.918975276816622e+03
-1.145430000000000e+03  3.110057003320244e+02 -2.918975276816622e+03
-1.145430000000000e+03  3.100072871688395e+02 -2.918975276816622e+03
-1.145430000000000e+03  3.090088740056549e+02 -2.918975276816622e+03
-1.145430000000000e+03  3.080104608424704e+02 -2.918975276816622e+03
-1.145430000000000e+03  3.070120476792855e+02 -2.918975276816622e+03
-1.145430000000000e+03  3.060136345161010e+02 -2.918975276816622e+03
-1.145430000000000e+03  3.050152213529163e+02 -2.918975276816622e+03
-1.145430000000000e+03  3.040168081897318e+02 -2.918975276816622e+03
-1.145430000000000e+03  3.030183950265469e+02 -2.918975276816622e+03
-1.145430000000000e+03  3.020199818633624e+02 -2.918975276816622e+03
-1.145430000000000e+03  3.010215687001777e+02 -2.918975276816622e+03
-1.145430000000000e+03  3.000231555369929e+02 -2.918975276816622e+03
-1.145430000000000e+03  2.990247423738080e+02 -2.918975276816622e+03
-1.145430000000000e+03  2.980263292106234e+02 -2.918975276816622e+03
-1.145430000000000e+03  2.970279160474391e+02 -2.918975276816622e+03
-1.145430000000000e+03  2.960295028842543e+02 -2.918975276816622e+03
-1.145430000000000e+03  2.950310897210694e+02 -2.918975276816622e+03
-1.145430000000000e+03  2.940326765578849e+02 -2.918975276816622e+03
-1.145430000000000e+03  2.930342633947005e+02 -2.918975276816622e+03
-1.145430000000000e+03  2.920358502315157e+02 -2.918975276816622e+03
-1.145430000000000e+03  2.910374370683308e+02 -2.918975276816622e+03
-1.145430000000000e+03  2.900390239051463e+02 -2.918975276816622e+03
-1.145430000000000e+03  2.890406107419616e+02 -2.918975276816622e+03
-1.145430000000000e+03  2.880421975787768e+02 -2.918975276816622e+03
-1.145430000000000e+03  2.870437844155922e+02 -2.918975276816622e+03
-1.145430000000000e+03  2.860453712524076e+02 -2.918975276816622e+03
-1.145430000000000e+03  2.850469580892230e+02 -2.918975276816622e+03
-1.145430000000000e+03  2.840485449260383e+02 -2.918975276816622e+03
-1.145430000000000e+03  2.830501317628537e+02 -2.918975276816622e+03
-1.145430000000000e+03  2.820517185996690e+02 -2.918975276816622e+03
-1.145430000000000e+03  2.810533054364842e+02 -2.918975276816622e+03
-1.145430000000000e+03  2.800548922732995e+02 -2.918975276816622e+03
-1.145430000000000e+03  2.790564791101149e+02 -2.918975276816622e+03
-1.145430000000000e+03  2.780580659469302e+02 -2.918975276816622e+03
-1.145430000000000e+03  2.770596527837456e+02 -2.918975276816622e+03
-1.145430000000000e+03  2.760612396205609e+02 -2.918975276816622e+03
-1.145430000000000e+03  2.750628264573763e+02 -2.918975276816622e+03
-1.145430000000000e+03  2.740644132941916e+02 -2.918975276816622e+03
-1.145430000000000e+03  2.730660001310069e+02 -2.918975276816622e+03
-1.145430000000000e+03  2.720675869678223e+02 -2.918975276816622e+03
-1.145430000000000e+03  2.710691738046377e+02 -2.918975276816622e+03
-1.145430000000000e+03  2.700707606414529e+02 -2.918975276816622e+03
-1.145430000000000e+03  2.690723474782682e+02 -2.918975276816622e+03
-1.145430000000000e+03  2.680739343150835e+02 -2.918975276816622e+03
-1.145430000000000e+03  2.670755211518989e+02 -2.918975276816622e+03
-1.145430000000000e+03  2.660771079887143e+02 -2.918975276816622e+03
-1.145430000000000e+03  2.650786948255296e+02 -2.918975276816622e+03
-1.145430000000000e+03  2.640802816623449e+02 -2.918975276816622e+03
-1.145430000000000e+03  2.630818684991603e+02 -2.918975276816622e+03
-1.145430000000000e+03  2.620834553359757e+02 -2.918975276816622e+03
-1.145430000000000e+03  2.610850421727908e+02 -2.918975276816622e+03
-1.145430000000000e+03  2.600866290096062e+02 -2.918975276816622e+03
-1.145430000000000e+03  2.590882158464215e+02 -2.918975276816622e+03
-1.145430000000000e+03  2.580898026832369e+02 -2.918975276816622e+03
-1.145430000000000e+03  2.570913895200522e+02 -2.918975276816622e+03
-1.145430000000000e+03  2.560929763568676e+02 -2.918975276816622e+03
-1.145430000000000e+03  2.550945631936829e+02 -2.918975276816622e+03
-1.145430000000000e+03  2.540961500304983e+02 -2.918975276816622e+03
-1.145430000000000e+03  2.530977368673136e+02 -2.918975276816622e+03
-1.145430000000000e+03  2.520993237041289e+02 -2.918975276816622e+03
-1.145430000000000e+03  2.511009105409443e+02 -2.918975276816622e+03
-1.145430000000000e+03  2.501024973777595e+02 -2.918975276816622e+03
-1.145430000000000e+03  2.491040842145749e+02 -2.918975276816622e+03
-1.145430000000000e+03  2.481056710513902e+02 -2.918975276816622e+03
-1.145430000000000e+03  2.471072578882056e+02 -2.918975276816622e+03
-1.145430000000000e+03  2.461088447250209e+02 -2.918975276816622e+03
-1.145430000000000e+03  2.451104315618362e+02 -2.918975276816622e+03
-1.145430000000000e+03  2.441120183986516e+02 -2.918975276816622e+03
-1.145430000000000e+03  2.431136052354669e+02 -2.918975276816622e+03
-1.145430000000000e+03  2.421151920722823e+02 -2.918975276816622e+03
-1.145430000000000e+03  2.411167789090976e+02 -2.918975276816622e+03
-1.145430000000000e+03  2.401183657459130e+02 -2.918975276816622e+03
-1.145430000000000e+03  2.391199525827282e+02 -2.918975276816622e+03
-1.145430000000000e+03  2.381215394195435e+02 -2.918975276816622e+03
-1.145430000000000e+03  2.371231262563589e+02 -2.918975276816622e+03
-1.145430000000000e+03  2.361247130931742e+02 -2.918975276816622e+03
-1.145430000000000e+03  2.351262999299896e+02 -2.918975276816622e+03
-1.145430000000000e+03  2.341278867668049e+02 -2.918975276816622e+03
-1.145430000000000e+03  2.331294736036203e+02 -2.918975276816622e+03
-1.145430000000000e+03  2.321310604404356e+02 -2.918975276816622e+03
-1.145430000000000e+03  2.311326472772510e+02 -2.918975276816622e+03
-1.145430000000000e+03  2.301342341140661e+02 -2.918975276816622e+03
-1.145430000000000e+03  2.291358209508815e+02 -2.918975276816622e+03
-1.145430000000000e+03  2.281374077876968e+02 -2.918975276816622e+03
-1.145430000000000e+03  2.271389946245122e+02 -2.918975276816622e+03
-1.145430000000000e+03  2.261405814613275e+02 -2.918975276816622e+03
-1.145430000000000e+03  2.251421682981429e+02 -2.918975276816622e+03
-1.145430000000000e+03  2.241437551349582e+02 -2.918975276816622e+03
-1.145430000000000e+03  2.231453419717736e+02 -2.918975276816622e+03
-1.145430000000000e+03  2.221469288085889e+02 -2.918975276816622e+03
-1.145430000000000e+03  2.211485156454043e+02 -2.918975276816622e+03
-1.145430000000000e+03  2.201501024822196e+02 -2.918975276816622e+03
-1.145430000000000e+03  2.191516893190348e+02 -2.918975276816622e+03
-1.145430000000000e+03  2.181532761558501e+02 -2.918975276816622e+03
-1.145430000000000e+03  2.171548629926655e+02 -2.918975276816622e+03
-1.145430000000000e+03  2.161564498294808e+02 -2.918975276816622e+03
-1.145430000000000e+03  2.151580366662962e+02 -2.918975276816622e+03
-1.145430000000000e+03  2.141596235031115e+02 -2.918975276816622e+03
-1.145430000000000e+03  2.131612103399269e+02 -2.918975276816622e+03
-1.145430000000000e+03  2.121627971767423e+02 -2.918975276816622e+03
-1.145430000000000e+03  2.111643840135576e+02 -2.918975276816622e+03
-1.145430000000000e+03  2.101659708503728e+02 -2.918975276816622e+03
-1.145430000000000e+03  2.091675576871882e+02 -2.918975276816622e+03
-1.145430000000000e+03  2.081691445240035e+02 -2.918975276816622e+03
-1.145430000000000e+03  2.071707313608188e+02 -2.918975276816622e+03
-1.145430000000000e+03  2.061723181976342e+02 -2.918975276816622e+03
-1.145430000000000e+03  2.051739050344495e+02 -2.918975276816622e+03
-1.145430000000000e+03  2.041754918712649e+02 -2.918975276816622e+03
-1.145430000000000e+03  2.031770787080802e+02 -2.918975276816622e+03
-1.145430000000000e+03  2.021786655448956e+02 -2.918975276816622e+03
-1.145430000000000e+03  2.011802523817109e+02 -2.918975276816622e+03
-1.145430000000000e+03  2.001818392185263e+02 -2.918975276816622e+03
-1.145430000000000e+03  1.991834260553415e+02 -2.918975276816622e+03
-1.145430000000000e+03  1.981850128921568e+02 -2.918975276816622e+03
-1.145430000000000e+03  1.971865997289722e+02 -2.918975276816622e+03
-1.145430000000000e+03  1.961881865657875e+02 -2.918975276816622e+03
-1.145430000000000e+03  1.951897734026028e+02 -2.918975276816622e+03
-1.145430000000000e+03  1.941913602394182e+02 -2.918975276816622e+03
-1.145430000000000e+03  1.931929470762335e+02 -2.918975276816622e+03
-1.145430000000000e+03  1.921945339130489e+02 -2.918975276816622e+03
-1.145430000000000e+03  1.911961207498642e+02 -2.918975276816622e+03
-1.145430000000000e+03  1.901977075866794e+02 -2.918975276816622e+03
-1.145430000000000e+03  1.891992944234948e+02 -2.918975276816622e+03
-1.145430000000000e+03  1.882008812603101e+02 -2.918975276816622e+03
-1.145430000000000e+03  1.872024680971255e+02 -2.918975276816622e+03
-1.145430000000000e+03  1.862040549339408e+02 -2.918975276816622e+03
-1.145430000000000e+03  1.852056417707562e+02 -2.918975276816622e+03
-1.145430000000000e+03  1.842072286075715e+02 -2.918975276816622e+03
-1.145430000000000e+03  1.832088154443869e+02 -2.918975276816622e+03
-1.145430000000000e+03  1.822104022812022e+02 -2.918975276816622e+03
-1.145430000000000e+03  1.812119891180176e+02 -2.918975276816622e+03
-1.145430000000000e+03  1.802135759548329e+02 -2.918975276816622e+03
-1.145430000000000e+03  1.792151627916481e+02 -2.918975276816622e+03
-1.145430000000000e+03  1.782167496284635e+02 -2.918975276816622e+03
-1.145430000000000e+03  1.772183364652788e+02 -2.918975276816622e+03
-1.145430000000000e+03  1.762199233020942e+02 -2.918975276816622e+03
-1.145430000000000e+03  1.752215101389095e+02 -2.918975276816622e+03
-1.145430000000000e+03  1.742230969757249e+02 -2.918975276816622e+03
-1.145430000000000e+03  1.732246838125402e+02 -2.918975276816622e+03
-1.145430000000000e+03  1.722262706493556e+02 -2.918975276816622e+03
-1.145430000000000e+03  1.712278574861709e+02 -2.918975276816622e+03
-1.145430000000000e+03  1.702294443229861e+02 -2.918975276816622e+03
-1.145430000000000e+03  1.692310311598014e+02 -2.918975276816622e+03
-1.145430000000000e+03  1.682326179966168e+02 -2.918975276816622e+03
-1.145430000000000e+03  1.672342048334321e+02 -2.918975276816622e+03
-1.145430000000000e+03  1.662357916702475e+02 -2.918975276816622e+03
-1.145430000000000e+03  1.652373785070628e+02 -2.918975276816622e+03
-1.145430000000000e+03  1.642389653438782e+02 -2.918975276816622e+03
-1.145430000000000e+03  1.632405521806935e+02 -2.918975276816622e+03
-1.145430000000000e+03  1.622421390175089e+02 -2.918975276816622e+03
-1.145430000000000e+03  1.612437258543242e+02 -2.918975276816622e+03
-1.145430000000000e+03  1.602453126911396e+02 -2.918975276816622e+03
-1.145430000000000e+03  1.592468995279548e+02 -2.918975276816622e+03
-1.145430000000000e+03  1.582484863647701e+02 -2.918975276816622e+03
-1.145430000000000e+03  1.572500732015855e+02 -2.918975276816622e+03
-1.145430000000000e+03  1.562516600384008e+02 -2.918975276816622e+03
-1.145430000000000e+03  1.552532468752161e+02 -2.918975276816622e+03
-1.145430000000000e+03  1.542548337120315e+02 -2.918975276816622e+03
-1.145430000000000e+03  1.532564205488468e+02 -2.918975276816622e+03
-1.145430000000000e+03  1.522580073856622e+02 -2.918975276816622e+03
-1.145430000000000e+03  1.512595942224775e+02 -2.918975276816622e+03
-1.145430000000000e+03  1.502611810592927e+02 -2.918975276816622e+03
-1.145430000000000e+03  1.492627678961081e+02 -2.918975276816622e+03
-1.145430000000000e+03  1.482643547329234e+02 -2.918975276816622e+03
-1.145430000000000e+03  1.472659415697387e+02 -2.918975276816622e+03
-1.145430000000000e+03  1.462675284065541e+02 -2.918975276816622e+03
-1.145430000000000e+03  1.452691152433695e+02 -2.918975276816622e+03
-1.145430000000000e+03  1.442707020801848e+02 -2.918975276816622e+03
-1.145430000000000e+03  1.432722889170001e+02 -2.918975276816622e+03
-1.145430000000000e+03  1.422738757538155e+02 -2.918975276816622e+03
-1.145430000000000e+03  1.412754625906308e+02 -2.918975276816622e+03
-1.145430000000000e+03  1.402770494274462e+02 -2.918975276816622e+03
-1.145430000000000e+03  1.392786362642614e+02 -2.918975276816622e+03
-1.145430000000000e+03  1.382802231010767e+02 -2.918975276816622e+03
-1.145430000000000e+03  1.372818099378921e+02 -2.918975276816622e+03
-1.145430000000000e+03  1.362833967747074e+02 -2.918975276816622e+03
-1.145430000000000e+03  1.352849836115228e+02 -2.918975276816622e+03
-1.145430000000000e+03  1.342865704483381e+02 -2.918975276816622e+03
-1.145430000000000e+03  1.332881572851535e+02 -2.918975276816622e+03
-1.145430000000000e+03  1.322897441219688e+02 -2.918975276816622e+03
-1.145430000000000e+03  1.312913309587842e+02 -2.918975276816622e+03
-1.145430000000000e+03  1.302929177955994e+02 -2.918975276816622e+03
-1.145430000000000e+03  1.292945046324147e+02 -2.918975276816622e+03
-1.145430000000000e+03  1.282960914692301e+02 -2.918975276816622e+03
-1.145430000000000e+03  1.272976783060454e+02 -2.918975276816622e+03
-1.145430000000000e+03  1.262992651428608e+02 -2.918975276816622e+03
-1.145430000000000e+03  1.253008519796761e+02 -2.918975276816622e+03
-1.145430000000000e+03  1.243024388164915e+02 -2.918975276816622e+03
-1.145430000000000e+03  1.233040256533068e+02 -2.918975276816622e+03
-1.145430000000000e+03  1.223056124901222e+02 -2.918975276816622e+03
-1.145430000000000e+03  1.213071993269375e+02 -2.918975276816622e+03
-1.145430000000000e+03  1.203087861637529e+02 -2.918975276816622e+03
-1.145430000000000e+03  1.193103730005680e+02 -2.918975276816622e+03
-1.145430000000000e+03  1.183119598373834e+02 -2.918975276816622e+03
-1.145430000000000e+03  1.173135466741987e+02 -2.918975276816622e+03
-1.145430000000000e+03  1.163151335110141e+02 -2.918975276816622e+03
-1.145430000000000e+03  1.153167203478294e+02 -2.918975276816622e+03
-1.145430000000000e+03  1.143183071846448e+02 -2.918975276816622e+03
-1.145430000000000e+03  1.133198940214601e+02 -2.918975276816622e+03
-1.145430000000000e+03  1.123214808582755e+02 -2.918975276816622e+03
-1.145430000000000e+03  1.113230676950908e+02 -2.918975276816622e+03
-1.145430000000000e+03  1.103246545319060e+02 -2.918975276816622e+03
-1.145430000000000e+03  1.093262413687214e+02 -2.918975276816622e+03
-1.145430000000000e+03  1.083278282055367e+02 -2.918975276816622e+03
-1.145430000000000e+03  1.073294150423521e+02 -2.918975276816622e+03
-1.145430000000000e+03  1.063310018791674e+02 -2.918975276816622e+03
-1.145430000000000e+03  1.053325887159828e+02 -2.918975276816622e+03
-1.145430000000000e+03  1.043341755527981e+02 -2.918975276816622e+03
-1.145430000000000e+03  1.033357623896135e+02 -2.918975276816622e+03
-1.145430000000000e+03  1.023373492264288e+02 -2.918975276816622e+03
-1.145430000000000e+03  1.013389360632441e+02 -2.918975276816622e+03
-1.145430000000000e+03  1.003405229000595e+02 -2.918975276816622e+03
-1.145430000000000e+03  9.934210973687469e+01 -2.918975276816622e+03
-1.145430000000000e+03  9.834369657369007e+01 -2.918975276816622e+03
-1.145430000000000e+03  9.734528341050537e+01 -2.918975276816622e+03
-1.145430000000000e+03  9.634687024732077e+01 -2.918975276816622e+03
-1.145430000000000e+03  9.534845708413607e+01 -2.918975276816622e+03
-1.145430000000000e+03  9.435004392095145e+01 -2.918975276816622e+03
-1.145430000000000e+03  9.335163075776678e+01 -2.918975276816622e+03
-1.145430000000000e+03  9.235321759458215e+01 -2.918975276816622e+03
-1.145430000000000e+03  9.135480443139748e+01 -2.918975276816622e+03
-1.145430000000000e+03  9.035639126821266e+01 -2.918975276816622e+03
-1.145430000000000e+03  8.935797810502800e+01 -2.918975276816622e+03
-1.145430000000000e+03  8.835956494184336e+01 -2.918975276816622e+03
-1.145430000000000e+03  8.736115177865869e+01 -2.918975276816622e+03
-1.145430000000000e+03  8.636273861547406e+01 -2.918975276816622e+03
-1.145430000000000e+03  8.536432545228939e+01 -2.918975276816622e+03
-1.145430000000000e+03  8.436591228910476e+01 -2.918975276816622e+03
-1.145430000000000e+03  8.336749912592009e+01 -2.918975276816622e+03
-1.145430000000000e+03  8.236908596273545e+01 -2.918975276816622e+03
-1.145430000000000e+03  8.137067279955080e+01 -2.918975276816622e+03
-1.145430000000000e+03  8.037225963636615e+01 -2.918975276816622e+03
-1.145430000000000e+03  7.937384647318135e+01 -2.918975276816622e+03
-1.145430000000000e+03  7.837543330999671e+01 -2.918975276816622e+03
-1.145430000000000e+03  7.737702014681204e+01 -2.918975276816622e+03
-1.145430000000000e+03  7.637860698362741e+01 -2.918975276816622e+03
-1.145430000000000e+03  7.538019382044274e+01 -2.918975276816622e+03
-1.145430000000000e+03  7.438178065725810e+01 -2.918975276816622e+03
-1.145430000000000e+03  7.338336749407343e+01 -2.918975276816622e+03
-1.145430000000000e+03  7.238495433088880e+01 -2.918975276816622e+03
-1.145430000000000e+03  7.138654116770414e+01 -2.918975276816622e+03
-1.145430000000000e+03  7.038812800451930e+01 -2.918975276816622e+03
-1.145430000000000e+03  6.938971484133465e+01 -2.918975276816622e+03
-1.145430000000000e+03  6.839130167815000e+01 -2.918975276816622e+03
-1.145430000000000e+03  6.739288851496535e+01 -2.918975276816622e+03
-1.145430000000000e+03  6.639447535178070e+01 -2.918975276816622e+03
-1.145430000000000e+03  6.539606218859605e+01 -2.918975276816622e+03
-1.145430000000000e+03  6.439764902541138e+01 -2.918975276816622e+03
-1.145430000000000e+03  6.339923586222675e+01 -2.918975276816622e+03
-1.145430000000000e+03  6.240082269904209e+01 -2.918975276816622e+03
-1.145430000000000e+03  6.140240953585744e+01 -2.918975276816622e+03
-1.145430000000000e+03  6.040399637267278e+01 -2.918975276816622e+03
-1.145430000000000e+03  5.940558320948797e+01 -2.918975276816622e+03
-1.145430000000000e+03  5.840717004630331e+01 -2.918975276816622e+03
-1.145430000000000e+03  5.740875688311867e+01 -2.918975276816622e+03
-1.145430000000000e+03  5.641034371993400e+01 -2.918975276816622e+03
-1.145430000000000e+03  5.541193055674936e+01 -2.918975276816622e+03
-1.145430000000000e+03  5.441351739356470e+01 -2.918975276816622e+03
-1.145430000000000e+03  5.341510423038006e+01 -2.918975276816622e+03
-1.145430000000000e+03  5.241669106719540e+01 -2.918975276816622e+03
-1.145430000000000e+03  5.141827790401076e+01 -2.918975276816622e+03
-1.145430000000000e+03  5.041986474082596e+01 -2.918975276816622e+03
-1.145430000000000e+03  4.942145157764131e+01 -2.918975276816622e+03
-1.145430000000000e+03  4.842303841445665e+01 -2.918975276816622e+03
-1.145430000000000e+03  4.742462525127200e+01 -2.918975276816622e+03
-1.145430000000000e+03  4.642621208808735e+01 -2.918975276816622e+03
-1.145430000000000e+03  4.542779892490271e+01 -2.918975276816622e+03
-1.145430000000000e+03  4.442938576171804e+01 -2.918975276816622e+03
-1.145430000000000e+03  4.343097259853341e+01 -2.918975276816622e+03
-1.145430000000000e+03  4.243255943534874e+01 -2.918975276816622e+03
-1.145430000000000e+03  4.143414627216410e+01 -2.918975276816622e+03
-1.145430000000000e+03  4.043573310897943e+01 -2.918975276816622e+03
-1.145430000000000e+03  3.943731994579463e+01 -2.918975276816622e+03
-1.145430000000000e+03  3.843890678260995e+01 -2.918975276816622e+03
-1.145430000000000e+03  3.744049361942532e+01 -2.918975276816622e+03
-1.145430000000000e+03  3.644208045624065e+01 -2.918975276816622e+03
-1.145430000000000e+03  3.544366729305602e+01 -2.918975276816622e+03
-1.145430000000000e+03  3.444525412987135e+01 -2.918975276816622e+03
-1.145430000000000e+03  3.344684096668671e+01 -2.918975276816622e+03
-1.145430000000000e+03  3.244842780350205e+01 -2.918975276816622e+03
-1.145430000000000e+03  3.145001464031742e+01 -2.918975276816622e+03
-1.145430000000000e+03  3.045160147713261e+01 -2.918975276816622e+03
-1.145430000000000e+03  2.945318831394797e+01 -2.918975276816622e+03
-1.145430000000000e+03  2.845477515076330e+01 -2.918975276816622e+03
-1.145430000000000e+03  2.745636198757865e+01 -2.918975276816622e+03
-1.145430000000000e+03  2.645794882439399e+01 -2.918975276816622e+03
-1.145430000000000e+03  2.545953566120934e+01 -2.918975276816622e+03
-1.145430000000000e+03  2.446112249802469e+01 -2.918975276816622e+03
-1.145430000000000e+03  2.346270933484004e+01 -2.918975276816622e+03
-1.145430000000000e+03  2.246429617165539e+01 -2.918975276816622e+03
-1.145430000000000e+03  2.146588300847074e+01 -2.918975276816622e+03
-1.145430000000000e+03  2.046746984528609e+01 -2.918975276816622e+03
-1.145430000000000e+03  1.946905668210128e+01 -2.918975276816622e+03
-1.145430000000000e+03  1.847064351891662e+01 -2.918975276816622e+03
-1.145430000000000e+03  1.747223035573197e+01 -2.918975276816622e+03
-1.145430000000000e+03  1.647381719254732e+01 -2.918975276816622e+03
-1.145430000000000e+03  1.547540402936267e+01 -2.918975276816622e+03
-1.145430000000000e+03  1.447699086617802e+01 -2.918975276816622e+03
-1.145430000000000e+03  1.347857770299336e+01 -2.918975276816622e+03
-1.145430000000000e+03  1.248016453980871e+01 -2.918975276816622e+03
-1.145430000000000e+03  1.148175137662406e+01 -2.918975276816622e+03
-1.145430000000000e+03  1.048333821343925e+01 -2.918975276816622e+03
-1.145430000000000e+03  9.484925050254594e+00 -2.918975276816622e+03
-1.145430000000000e+03  8.486511887069945e+00 -2.918975276816622e+03
-1.145430000000000e+03  7.488098723885294e+00 -2.918975276816622e+03
-1.145430000000000e+03  6.489685560700642e+00 -2.918975276816622e+03
-1.145430000000000e+03  5.491272397515990e+00 -2.918975276816622e+03
-1.145430000000000e+03  4.492859234331339e+00 -2.918975276816622e+03
-1.145430000000000e+03  3.494446071146688e+00 -2.918975276816622e+03
-1.145430000000000e+03  2.496032907962034e+00 -2.918975276816622e+03
-1.145430000000000e+03  1.497619744777384e+00 -2.918975276816622e+03
 1.142570000000000e+03 -4.992065815924069e-01  2.918975276816622e+03
1.142570000000000e+03 4.992065815925696e-01 2.918975276816622e+03
 1.142570000000000e+03 -1.497619744777059e+00  2.918975276816622e+03
 1.142570000000000e+03 -2.496032907961710e+00  2.918975276816622e+03
 1.142570000000000e+03 -3.494446071146362e+00  2.918975276816622e+03
 1.142570000000000e+03 -4.492859234331013e+00  2.918975276816622e+03
 1.142570000000000e+03 -5.491272397515665e+00  2.918975276816622e+03
 1.142570000000000e+03 -6.489685560700316e+00  2.918975276816622e+03
 1.142570000000000e+03 -7.488098723884967e+00  2.918975276816622e+03
 1.142570000000000e+03 -8.486511887069620e+00  2.918975276816622e+03
 1.142570000000000e+03 -9.484925050254269e+00  2.918975276816622e+03
 1.142570000000000e+03 -1.048333821343892e+01  2.918975276816622e+03
 1.142570000000000e+03 -1.148175137662374e+01  2.918975276816622e+03
 1.142570000000000e+03 -1.248016453980839e+01  2.918975276816622e+03
 1.142570000000000e+03 -1.347857770299304e+01  2.918975276816622e+03
 1.142570000000000e+03 -1.447699086617769e+01  2.918975276816622e+03
 1.142570000000000e+03 -1.547540402936234e+01  2.918975276816622e+03
 1.142570000000000e+03 -1.647381719254699e+01  2.918975276816622e+03
 1.142570000000000e+03 -1.747223035573165e+01  2.918975276816622e+03
 1.142570000000000e+03 -1.847064351891630e+01  2.918975276816622e+03
 1.142570000000000e+03 -1.946905668210095e+01  2.918975276816622e+03
 1.142570000000000e+03 -2.046746984528576e+01  2.918975276816622e+03
 1.142570000000000e+03 -2.146588300847041e+01  2.918975276816622e+03
 1.142570000000000e+03 -2.246429617165506e+01  2.918975276816622e+03
 1.142570000000000e+03 -2.346270933483972e+01  2.918975276816622e+03
 1.142570000000000e+03 -2.446112249802437e+01  2.918975276816622e+03
 1.142570000000000e+03 -2.545953566120902e+01  2.918975276816622e+03
 1.142570000000000e+03 -2.645794882439367e+01  2.918975276816622e+03
 1.142570000000000e+03 -2.745636198757832e+01  2.918975276816622e+03
 1.142570000000000e+03 -2.845477515076298e+01  2.918975276816622e+03
 1.142570000000000e+03 -2.945318831394762e+01  2.918975276816622e+03
 1.142570000000000e+03 -3.045160147713226e+01  2.918975276816622e+03
 1.142570000000000e+03 -3.145001464031710e+01  2.918975276816622e+03
 1.142570000000000e+03 -3.244842780350174e+01  2.918975276816622e+03
 1.142570000000000e+03 -3.344684096668640e+01  2.918975276816622e+03
 1.142570000000000e+03 -3.444525412987104e+01  2.918975276816622e+03
 1.142570000000000e+03 -3.544366729305570e+01  2.918975276816622e+03
 1.142570000000000e+03 -3.644208045624034e+01  2.918975276816622e+03
 1.142570000000000e+03 -3.744049361942501e+01  2.918975276816622e+03
 1.142570000000000e+03 -3.843890678260964e+01  2.918975276816622e+03
 1.142570000000000e+03 -3.943731994579431e+01  2.918975276816622e+03
 1.142570000000000e+03 -4.043573310897912e+01  2.918975276816622e+03
 1.142570000000000e+03 -4.143414627216379e+01  2.918975276816622e+03
 1.142570000000000e+03 -4.243255943534842e+01  2.918975276816622e+03
 1.142570000000000e+03 -4.343097259853310e+01  2.918975276816622e+03
 1.142570000000000e+03 -4.442938576171773e+01  2.918975276816622e+03
 1.142570000000000e+03 -4.542779892490240e+01  2.918975276816622e+03
 1.142570000000000e+03 -4.642621208808703e+01  2.918975276816622e+03
 1.142570000000000e+03 -4.742462525127167e+01  2.918975276816622e+03
 1.142570000000000e+03 -4.842303841445634e+01  2.918975276816622e+03
 1.142570000000000e+03 -4.942145157764097e+01  2.918975276816622e+03
 1.142570000000000e+03 -5.041986474082564e+01  2.918975276816622e+03
 1.142570000000000e+03 -5.141827790401044e+01  2.918975276816622e+03
 1.142570000000000e+03 -5.241669106719509e+01  2.918975276816622e+03
 1.142570000000000e+03 -5.341510423037975e+01  2.918975276816622e+03
 1.142570000000000e+03 -5.441351739356439e+01  2.918975276816622e+03
 1.142570000000000e+03 -5.541193055674905e+01  2.918975276816622e+03
 1.142570000000000e+03 -5.641034371993369e+01  2.918975276816622e+03
 1.142570000000000e+03 -5.740875688311835e+01  2.918975276816622e+03
 1.142570000000000e+03 -5.840717004630299e+01  2.918975276816622e+03
 1.142570000000000e+03 -5.940558320948766e+01  2.918975276816622e+03
 1.142570000000000e+03 -6.040399637267247e+01  2.918975276816622e+03
 1.142570000000000e+03 -6.140240953585712e+01  2.918975276816622e+03
 1.142570000000000e+03 -6.240082269904177e+01  2.918975276816622e+03
 1.142570000000000e+03 -6.339923586222643e+01  2.918975276816622e+03
 1.142570000000000e+03 -6.439764902541107e+01  2.918975276816622e+03
 1.142570000000000e+03 -6.539606218859574e+01  2.918975276816622e+03
 1.142570000000000e+03 -6.639447535178039e+01  2.918975276816622e+03
 1.142570000000000e+03 -6.739288851496504e+01  2.918975276816622e+03
 1.142570000000000e+03 -6.839130167814969e+01  2.918975276816622e+03
 1.142570000000000e+03 -6.938971484133434e+01  2.918975276816622e+03
 1.142570000000000e+03 -7.038812800451899e+01  2.918975276816622e+03
 1.142570000000000e+03 -7.138654116770378e+01  2.918975276816622e+03
 1.142570000000000e+03 -7.238495433088843e+01  2.918975276816622e+03
 1.142570000000000e+03 -7.338336749407310e+01  2.918975276816622e+03
 1.142570000000000e+03 -7.438178065725774e+01  2.918975276816622e+03
 1.142570000000000e+03 -7.538019382044239e+01  2.918975276816622e+03
 1.142570000000000e+03 -7.637860698362704e+01  2.918975276816622e+03
 1.142570000000000e+03 -7.737702014681169e+01  2.918975276816622e+03
 1.142570000000000e+03 -7.837543330999634e+01  2.918975276816622e+03
 1.142570000000000e+03 -7.937384647318099e+01  2.918975276816622e+03
 1.142570000000000e+03 -8.037225963636581e+01  2.918975276816622e+03
 1.142570000000000e+03 -8.137067279955048e+01  2.918975276816622e+03
 1.142570000000000e+03 -8.236908596273511e+01  2.918975276816622e+03
 1.142570000000000e+03 -8.336749912591976e+01  2.918975276816622e+03
 1.142570000000000e+03 -8.436591228910443e+01  2.918975276816622e+03
 1.142570000000000e+03 -8.536432545228908e+01  2.918975276816622e+03
 1.142570000000000e+03 -8.636273861547373e+01  2.918975276816622e+03
 1.142570000000000e+03 -8.736115177865838e+01  2.918975276816622e+03
 1.142570000000000e+03 -8.835956494184303e+01  2.918975276816622e+03
 1.142570000000000e+03 -8.935797810502768e+01  2.918975276816622e+03
 1.142570000000000e+03 -9.035639126821233e+01  2.918975276816622e+03
 1.142570000000000e+03 -9.135480443139717e+01  2.918975276816622e+03
 1.142570000000000e+03 -9.235321759458181e+01  2.918975276816622e+03
 1.142570000000000e+03 -9.335163075776647e+01  2.918975276816622e+03
 1.142570000000000e+03 -9.435004392095111e+01  2.918975276816622e+03
 1.142570000000000e+03 -9.534845708413577e+01  2.918975276816622e+03
 1.142570000000000e+03 -9.634687024732041e+01  2.918975276816622e+03
 1.142570000000000e+03 -9.734528341050508e+01  2.918975276816622e+03
 1.142570000000000e+03 -9.834369657368971e+01  2.918975276816622e+03
 1.142570000000000e+03 -9.934210973687439e+01  2.918975276816622e+03
 1.142570000000000e+03 -1.003405229000592e+02  2.918975276816622e+03
 1.142570000000000e+03 -1.013389360632438e+02  2.918975276816622e+03
 1.142570000000000e+03 -1.023373492264285e+02  2.918975276816622e+03
 1.142570000000000e+03 -1.033357623896131e+02  2.918975276816622e+03
 1.142570000000000e+03 -1.043341755527978e+02  2.918975276816622e+03
 1.142570000000000e+03 -1.053325887159824e+02  2.918975276816622e+03
 1.142570000000000e+03 -1.063310018791671e+02  2.918975276816622e+03
 1.142570000000000e+03 -1.073294150423517e+02  2.918975276816622e+03
 1.142570000000000e+03 -1.083278282055364e+02  2.918975276816622e+03
 1.142570000000000e+03 -1.093262413687210e+02  2.918975276816622e+03
 1.142570000000000e+03 -1.103246545319057e+02  2.918975276816622e+03
 1.142570000000000e+03 -1.113230676950905e+02  2.918975276816622e+03
 1.142570000000000e+03 -1.123214808582751e+02  2.918975276816622e+03
 1.142570000000000e+03 -1.133198940214598e+02  2.918975276816622e+03
 1.142570000000000e+03 -1.143183071846445e+02  2.918975276816622e+03
 1.142570000000000e+03 -1.153167203478291e+02  2.918975276816622e+03
 1.142570000000000e+03 -1.163151335110137e+02  2.918975276816622e+03
 1.142570000000000e+03 -1.173135466741984e+02  2.918975276816622e+03
 1.142570000000000e+03 -1.183119598373830e+02  2.918975276816622e+03
 1.142570000000000e+03 -1.193103730005677e+02  2.918975276816622e+03
 1.142570000000000e+03 -1.203087861637525e+02  2.918975276816622e+03
 1.142570000000000e+03 -1.213071993269372e+02  2.918975276816622e+03
 1.142570000000000e+03 -1.223056124901218e+02  2.918975276816622e+03
 1.142570000000000e+03 -1.233040256533065e+02  2.918975276816622e+03
 1.142570000000000e+03 -1.243024388164911e+02  2.918975276816622e+03
 1.142570000000000e+03 -1.253008519796758e+02  2.918975276816622e+03
 1.142570000000000e+03 -1.262992651428604e+02  2.918975276816622e+03
 1.142570000000000e+03 -1.272976783060451e+02  2.918975276816622e+03
 1.142570000000000e+03 -1.282960914692297e+02  2.918975276816622e+03
 1.142570000000000e+03 -1.292945046324144e+02  2.918975276816622e+03
 1.142570000000000e+03 -1.302929177955990e+02  2.918975276816622e+03
 1.142570000000000e+03 -1.312913309587839e+02  2.918975276816622e+03
 1.142570000000000e+03 -1.322897441219685e+02  2.918975276816622e+03
 1.142570000000000e+03 -1.332881572851532e+02  2.918975276816622e+03
 1.142570000000000e+03 -1.342865704483378e+02  2.918975276816622e+03
 1.142570000000000e+03 -1.352849836115225e+02  2.918975276816622e+03
 1.142570000000000e+03 -1.362833967747071e+02  2.918975276816622e+03
 1.142570000000000e+03 -1.372818099378918e+02  2.918975276816622e+03
 1.142570000000000e+03 -1.382802231010764e+02  2.918975276816622e+03
 1.142570000000000e+03 -1.392786362642611e+02  2.918975276816622e+03
 1.142570000000000e+03 -1.402770494274459e+02  2.918975276816622e+03
 1.142570000000000e+03 -1.412754625906305e+02  2.918975276816622e+03
 1.142570000000000e+03 -1.422738757538152e+02  2.918975276816622e+03
 1.142570000000000e+03 -1.432722889169998e+02  2.918975276816622e+03
 1.142570000000000e+03 -1.442707020801845e+02  2.918975276816622e+03
 1.142570000000000e+03 -1.452691152433691e+02  2.918975276816622e+03
 1.142570000000000e+03 -1.462675284065538e+02  2.918975276816622e+03
 1.142570000000000e+03 -1.472659415697385e+02  2.918975276816622e+03
 1.142570000000000e+03 -1.482643547329231e+02  2.918975276816622e+03
 1.142570000000000e+03 -1.492627678961077e+02  2.918975276816622e+03
 1.142570000000000e+03 -1.502611810592924e+02  2.918975276816622e+03
 1.142570000000000e+03 -1.512595942224772e+02  2.918975276816622e+03
 1.142570000000000e+03 -1.522580073856618e+02  2.918975276816622e+03
 1.142570000000000e+03 -1.532564205488465e+02  2.918975276816622e+03
 1.142570000000000e+03 -1.542548337120312e+02  2.918975276816622e+03
 1.142570000000000e+03 -1.552532468752158e+02  2.918975276816622e+03
 1.142570000000000e+03 -1.562516600384005e+02  2.918975276816622e+03
 1.142570000000000e+03 -1.572500732015851e+02  2.918975276816622e+03
 1.142570000000000e+03 -1.582484863647698e+02  2.918975276816622e+03
 1.142570000000000e+03 -1.592468995279544e+02  2.918975276816622e+03
 1.142570000000000e+03 -1.602453126911392e+02  2.918975276816622e+03
 1.142570000000000e+03 -1.612437258543239e+02  2.918975276816622e+03
 1.142570000000000e+03 -1.622421390175085e+02  2.918975276816622e+03
 1.142570000000000e+03 -1.632405521806932e+02  2.918975276816622e+03
 1.142570000000000e+03 -1.642389653438779e+02  2.918975276816622e+03
 1.142570000000000e+03 -1.652373785070625e+02  2.918975276816622e+03
 1.142570000000000e+03 -1.662357916702472e+02  2.918975276816622e+03
 1.142570000000000e+03 -1.672342048334318e+02  2.918975276816622e+03
 1.142570000000000e+03 -1.682326179966165e+02  2.918975276816622e+03
 1.142570000000000e+03 -1.692310311598011e+02  2.918975276816622e+03
 1.142570000000000e+03 -1.702294443229858e+02  2.918975276816622e+03
 1.142570000000000e+03 -1.712278574861706e+02  2.918975276816622e+03
 1.142570000000000e+03 -1.722262706493552e+02  2.918975276816622e+03
 1.142570000000000e+03 -1.732246838125399e+02  2.918975276816622e+03
 1.142570000000000e+03 -1.742230969757245e+02  2.918975276816622e+03
 1.142570000000000e+03 -1.752215101389092e+02  2.918975276816622e+03
 1.142570000000000e+03 -1.762199233020938e+02  2.918975276816622e+03
 1.142570000000000e+03 -1.772183364652785e+02  2.918975276816622e+03
 1.142570000000000e+03 -1.782167496284631e+02  2.918975276816622e+03
 1.142570000000000e+03 -1.792151627916478e+02  2.918975276816622e+03
 1.142570000000000e+03 -1.802135759548326e+02  2.918975276816622e+03
 1.142570000000000e+03 -1.812119891180173e+02  2.918975276816622e+03
 1.142570000000000e+03 -1.822104022812019e+02  2.918975276816622e+03
 1.142570000000000e+03 -1.832088154443865e+02  2.918975276816622e+03
 1.142570000000000e+03 -1.842072286075712e+02  2.918975276816622e+03
 1.142570000000000e+03 -1.852056417707558e+02  2.918975276816622e+03
 1.142570000000000e+03 -1.862040549339405e+02  2.918975276816622e+03
 1.142570000000000e+03 -1.872024680971251e+02  2.918975276816622e+03
 1.142570000000000e+03 -1.882008812603098e+02  2.918975276816622e+03
 1.142570000000000e+03 -1.891992944234945e+02  2.918975276816622e+03
 1.142570000000000e+03 -1.901977075866791e+02  2.918975276816622e+03
 1.142570000000000e+03 -1.911961207498639e+02  2.918975276816622e+03
 1.142570000000000e+03 -1.921945339130486e+02  2.918975276816622e+03
 1.142570000000000e+03 -1.931929470762332e+02  2.918975276816622e+03
 1.142570000000000e+03 -1.941913602394179e+02  2.918975276816622e+03
 1.142570000000000e+03 -1.951897734026025e+02  2.918975276816622e+03
 1.142570000000000e+03 -1.961881865657872e+02  2.918975276816622e+03
 1.142570000000000e+03 -1.971865997289718e+02  2.918975276816622e+03
 1.142570000000000e+03 -1.981850128921565e+02  2.918975276816622e+03
 1.142570000000000e+03 -1.991834260553411e+02  2.918975276816622e+03
 1.142570000000000e+03 -2.001818392185259e+02  2.918975276816622e+03
 1.142570000000000e+03 -2.011802523817106e+02  2.918975276816622e+03
 1.142570000000000e+03 -2.021786655448952e+02  2.918975276816622e+03
 1.142570000000000e+03 -2.031770787080799e+02  2.918975276816622e+03
 1.142570000000000e+03 -2.041754918712646e+02  2.918975276816622e+03
 1.142570000000000e+03 -2.051739050344492e+02  2.918975276816622e+03
 1.142570000000000e+03 -2.061723181976339e+02  2.918975276816622e+03
 1.142570000000000e+03 -2.071707313608185e+02  2.918975276816622e+03
 1.142570000000000e+03 -2.081691445240032e+02  2.918975276816622e+03
 1.142570000000000e+03 -2.091675576871878e+02  2.918975276816622e+03
 1.142570000000000e+03 -2.101659708503725e+02  2.918975276816622e+03
 1.142570000000000e+03 -2.111643840135573e+02  2.918975276816622e+03
 1.142570000000000e+03 -2.121627971767419e+02  2.918975276816622e+03
 1.142570000000000e+03 -2.131612103399266e+02  2.918975276816622e+03
 1.142570000000000e+03 -2.141596235031112e+02  2.918975276816622e+03
 1.142570000000000e+03 -2.151580366662959e+02  2.918975276816622e+03
 1.142570000000000e+03 -2.161564498294806e+02  2.918975276816622e+03
 1.142570000000000e+03 -2.171548629926652e+02  2.918975276816622e+03
 1.142570000000000e+03 -2.181532761558499e+02  2.918975276816622e+03
 1.142570000000000e+03 -2.191516893190345e+02  2.918975276816622e+03
 1.142570000000000e+03 -2.201501024822193e+02  2.918975276816622e+03
 1.142570000000000e+03 -2.211485156454039e+02  2.918975276816622e+03
 1.142570000000000e+03 -2.221469288085886e+02  2.918975276816622e+03
 1.142570000000000e+03 -2.231453419717732e+02  2.918975276816622e+03
 1.142570000000000e+03 -2.241437551349579e+02  2.918975276816622e+03
 1.142570000000000e+03 -2.251421682981425e+02  2.918975276816622e+03
 1.142570000000000e+03 -2.261405814613272e+02  2.918975276816622e+03
 1.142570000000000e+03 -2.271389946245118e+02  2.918975276816622e+03
 1.142570000000000e+03 -2.281374077876965e+02  2.918975276816622e+03
 1.142570000000000e+03 -2.291358209508812e+02  2.918975276816622e+03
 1.142570000000000e+03 -2.301342341140658e+02  2.918975276816622e+03
 1.142570000000000e+03 -2.311326472772506e+02  2.918975276816622e+03
 1.142570000000000e+03 -2.321310604404353e+02  2.918975276816622e+03
 1.142570000000000e+03 -2.331294736036199e+02  2.918975276816622e+03
 1.142570000000000e+03 -2.341278867668046e+02  2.918975276816622e+03
 1.142570000000000e+03 -2.351262999299892e+02  2.918975276816622e+03
 1.142570000000000e+03 -2.361247130931739e+02  2.918975276816622e+03
 1.142570000000000e+03 -2.371231262563585e+02  2.918975276816622e+03
 1.142570000000000e+03 -2.381215394195432e+02  2.918975276816622e+03
 1.142570000000000e+03 -2.391199525827278e+02  2.918975276816622e+03
 1.142570000000000e+03 -2.401183657459127e+02  2.918975276816622e+03
 1.142570000000000e+03 -2.411167789090973e+02  2.918975276816622e+03
 1.142570000000000e+03 -2.421151920722820e+02  2.918975276816622e+03
 1.142570000000000e+03 -2.431136052354666e+02  2.918975276816622e+03
 1.142570000000000e+03 -2.441120183986513e+02  2.918975276816622e+03
 1.142570000000000e+03 -2.451104315618359e+02  2.918975276816622e+03
 1.142570000000000e+03 -2.461088447250206e+02  2.918975276816622e+03
 1.142570000000000e+03 -2.471072578882052e+02  2.918975276816622e+03
 1.142570000000000e+03 -2.481056710513899e+02  2.918975276816622e+03
 1.142570000000000e+03 -2.491040842145745e+02  2.918975276816622e+03
 1.142570000000000e+03 -2.501024973777592e+02  2.918975276816622e+03
 1.142570000000000e+03 -2.511009105409440e+02  2.918975276816622e+03
 1.142570000000000e+03 -2.520993237041286e+02  2.918975276816622e+03
 1.142570000000000e+03 -2.530977368673133e+02  2.918975276816622e+03
 1.142570000000000e+03 -2.540961500304980e+02  2.918975276816622e+03
 1.142570000000000e+03 -2.550945631936826e+02  2.918975276816622e+03
 1.142570000000000e+03 -2.560929763568673e+02  2.918975276816622e+03
 1.142570000000000e+03 -2.570913895200519e+02  2.918975276816622e+03
 1.142570000000000e+03 -2.580898026832365e+02  2.918975276816622e+03
 1.142570000000000e+03 -2.590882158464212e+02  2.918975276816622e+03
 1.142570000000000e+03 -2.600866290096058e+02  2.918975276816622e+03
 1.142570000000000e+03 -2.610850421727905e+02  2.918975276816622e+03
 1.142570000000000e+03 -2.620834553359753e+02  2.918975276816622e+03
 1.142570000000000e+03 -2.630818684991600e+02  2.918975276816622e+03
 1.142570000000000e+03 -2.640802816623446e+02  2.918975276816622e+03
 1.142570000000000e+03 -2.650786948255293e+02  2.918975276816622e+03
 1.142570000000000e+03 -2.660771079887139e+02  2.918975276816622e+03
 1.142570000000000e+03 -2.670755211518986e+02  2.918975276816622e+03
 1.142570000000000e+03 -2.680739343150832e+02  2.918975276816622e+03
 1.142570000000000e+03 -2.690723474782679e+02  2.918975276816622e+03
 1.142570000000000e+03 -2.700707606414525e+02  2.918975276816622e+03
 1.142570000000000e+03 -2.710691738046373e+02  2.918975276816622e+03
 1.142570000000000e+03 -2.720675869678220e+02  2.918975276816622e+03
 1.142570000000000e+03 -2.730660001310067e+02  2.918975276816622e+03
 1.142570000000000e+03 -2.740644132941913e+02  2.918975276816622e+03
 1.142570000000000e+03 -2.750628264573759e+02  2.918975276816622e+03
 1.142570000000000e+03 -2.760612396205606e+02  2.918975276816622e+03
 1.142570000000000e+03 -2.770596527837453e+02  2.918975276816622e+03
 1.142570000000000e+03 -2.780580659469299e+02  2.918975276816622e+03
 1.142570000000000e+03 -2.790564791101145e+02  2.918975276816622e+03
 1.142570000000000e+03 -2.800548922732992e+02  2.918975276816622e+03
 1.142570000000000e+03 -2.810533054364839e+02  2.918975276816622e+03
 1.142570000000000e+03 -2.820517185996687e+02  2.918975276816622e+03
 1.142570000000000e+03 -2.830501317628533e+02  2.918975276816622e+03
 1.142570000000000e+03 -2.840485449260380e+02  2.918975276816622e+03
 1.142570000000000e+03 -2.850469580892226e+02  2.918975276816622e+03
 1.142570000000000e+03 -2.860453712524073e+02  2.918975276816622e+03
 1.142570000000000e+03 -2.870437844155919e+02  2.918975276816622e+03
 1.142570000000000e+03 -2.880421975787768e+02  2.918975276816622e+03
 1.142570000000000e+03 -2.890406107419614e+02  2.918975276816622e+03
 1.142570000000000e+03 -2.900390239051459e+02  2.918975276816622e+03
 1.142570000000000e+03 -2.910374370683308e+02  2.918975276816622e+03
 1.142570000000000e+03 -2.920358502315154e+02  2.918975276816622e+03
 1.142570000000000e+03 -2.930342633947000e+02  2.918975276816622e+03
 1.142570000000000e+03 -2.940326765578849e+02  2.918975276816622e+03
 1.142570000000000e+03 -2.950310897210694e+02  2.918975276816622e+03
 1.142570000000000e+03 -2.960295028842540e+02  2.918975276816622e+03
 1.142570000000000e+03 -2.970279160474386e+02  2.918975276816622e+03
 1.142570000000000e+03 -2.980263292106234e+02  2.918975276816622e+03
 1.142570000000000e+03 -2.990247423738080e+02  2.918975276816622e+03
 1.142570000000000e+03 -3.000231555369926e+02  2.918975276816622e+03
 1.142570000000000e+03 -3.010215687001772e+02  2.918975276816622e+03
 1.142570000000000e+03 -3.020199818633620e+02  2.918975276816622e+03
 1.142570000000000e+03 -3.030183950265466e+02  2.918975276816622e+03
 1.142570000000000e+03 -3.040168081897312e+02  2.918975276816622e+03
 1.142570000000000e+03 -3.050152213529161e+02  2.918975276816622e+03
 1.142570000000000e+03 -3.060136345161006e+02  2.918975276816622e+03
 1.142570000000000e+03 -3.070120476792852e+02  2.918975276816622e+03
 1.142570000000000e+03 -3.080104608424699e+02  2.918975276816622e+03
 1.142570000000000e+03 -3.090088740056547e+02  2.918975276816622e+03
 1.142570000000000e+03 -3.100072871688392e+02  2.918975276816622e+03
 1.142570000000000e+03 -3.110057003320238e+02  2.918975276816622e+03
 1.142570000000000e+03 -3.120041134952087e+02  2.918975276816622e+03
 1.142570000000000e+03 -3.130025266583935e+02  2.918975276816622e+03
 1.142570000000000e+03 -3.140009398215778e+02  2.918975276816622e+03
 1.142570000000000e+03 -3.149993529847625e+02  2.918975276816622e+03
 1.142570000000000e+03 -3.159977661479473e+02  2.918975276816622e+03
 1.142570000000000e+03 -3.169961793111322e+02  2.918975276816622e+03
 1.142570000000000e+03 -3.179945924743165e+02  2.918975276816622e+03
 1.142570000000000e+03 -3.189930056375011e+02  2.918975276816622e+03
 1.142570000000000e+03 -3.199914188006859e+02  2.918975276816622e+03
 1.142570000000000e+03 -3.209898319638708e+02  2.918975276816622e+03
 1.142570000000000e+03 -3.219882451270553e+02  2.918975276816622e+03
 1.142570000000000e+03 -3.229866582902399e+02  2.918975276816622e+03
 1.142570000000000e+03 -3.239850714534248e+02  2.918975276816622e+03
 1.142570000000000e+03 -3.249834846166094e+02  2.918975276816622e+03
 1.142570000000000e+03 -3.259818977797939e+02  2.918975276816622e+03
 1.142570000000000e+03 -3.269803109429785e+02  2.918975276816622e+03
 1.142570000000000e+03 -3.279787241061634e+02  2.918975276816622e+03
 1.142570000000000e+03 -3.289771372693480e+02  2.918975276816622e+03
 1.142570000000000e+03 -3.299755504325325e+02  2.918975276816622e+03
 1.142570000000000e+03 -3.309739635957174e+02  2.918975276816622e+03
 1.142570000000000e+03 -3.319723767589020e+02  2.918975276816622e+03
 1.142570000000000e+03 -3.329707899220866e+02  2.918975276816622e+03
 1.142570000000000e+03 -3.339692030852712e+02  2.918975276816622e+03
 1.142570000000000e+03 -3.349676162484560e+02  2.918975276816622e+03
 1.142570000000000e+03 -3.359660294116406e+02  2.918975276816622e+03
 1.142570000000000e+03 -3.369644425748252e+02  2.918975276816622e+03
 1.142570000000000e+03 -3.379628557380098e+02  2.918975276816622e+03
 1.142570000000000e+03 -3.389612689011946e+02  2.918975276816622e+03
 1.142570000000000e+03 -3.399596820643792e+02  2.918975276816622e+03
 1.142570000000000e+03 -3.409580952275641e+02  2.918975276816622e+03
 1.142570000000000e+03 -3.419565083907486e+02  2.918975276816622e+03
 1.142570000000000e+03 -3.429549215539332e+02  2.918975276816622e+03
 1.142570000000000e+03 -3.439533347171179e+02  2.918975276816622e+03
 1.142570000000000e+03 -3.449517478803027e+02  2.918975276816622e+03
 1.142570000000000e+03 -3.459501610434872e+02  2.918975276816622e+03
 1.142570000000000e+03 -3.469485742066719e+02  2.918975276816622e+03
 1.142570000000000e+03 -3.479469873698565e+02  2.918975276816622e+03
 1.142570000000000e+03 -3.489454005330413e+02  2.918975276816622e+03
 1.142570000000000e+03 -3.499438136962259e+02  2.918975276816622e+03
 1.142570000000000e+03 -3.509422268594107e+02  2.918975276816622e+03
 1.142570000000000e+03 -3.519406400225953e+02  2.918975276816622e+03
 1.142570000000000e+03 -3.529390531857802e+02  2.918975276816622e+03
 1.142570000000000e+03 -3.539374663489648e+02  2.918975276816622e+03
 1.142570000000000e+03 -3.549358795121493e+02  2.918975276816622e+03
 1.142570000000000e+03 -3.559342926753339e+02  2.918975276816622e+03
 1.142570000000000e+03 -3.569327058385188e+02  2.918975276816622e+03
 1.142570000000000e+03 -3.579311190017034e+02  2.918975276816622e+03
 1.142570000000000e+03 -3.589295321648879e+02  2.918975276816622e+03
 1.142570000000000e+03 -3.599279453280726e+02  2.918975276816622e+03
 1.142570000000000e+03 -3.609263584912574e+02  2.918975276816622e+03
 1.142570000000000e+03 -3.619247716544423e+02  2.918975276816622e+03
 1.142570000000000e+03 -3.629231848176269e+02  2.918975276816622e+03
 1.142570000000000e+03 -3.639215979808114e+02  2.918975276816622e+03
 1.142570000000000e+03 -3.649200111439960e+02  2.918975276816622e+03
 1.142570000000000e+03 -3.659184243071809e+02  2.918975276816622e+03
 1.142570000000000e+03 -3.669168374703654e+02  2.918975276816622e+03
 1.142570000000000e+03 -3.679152506335501e+02  2.918975276816622e+03
 1.142570000000000e+03 -3.689136637967347e+02  2.918975276816622e+03
 1.142570000000000e+03 -3.699120769599193e+02  2.918975276816622e+03
 1.142570000000000e+03 -3.709104901231044e+02  2.918975276816622e+03
 1.142570000000000e+03 -3.719089032862887e+02  2.918975276816622e+03
 1.142570000000000e+03 -3.729073164494735e+02  2.918975276816622e+03
 1.142570000000000e+03 -3.739057296126580e+02  2.918975276816622e+03
 1.142570000000000e+03 -3.749041427758430e+02  2.918975276816622e+03
 1.142570000000000e+03 -3.759025559390273e+02  2.918975276816622e+03
 1.142570000000000e+03 -3.769009691022121e+02  2.918975276816622e+03
 1.142570000000000e+03 -3.778993822653966e+02  2.918975276816622e+03
 1.142570000000000e+03 -3.788977954285816e+02  2.918975276816622e+03
 1.142570000000000e+03 -3.798962085917659e+02  2.918975276816622e+03
 1.142570000000000e+03 -3.808946217549507e+02  2.918975276816622e+03
 1.142570000000000e+03 -3.818930349181352e+02  2.918975276816622e+03
 1.142570000000000e+03 -3.828914480813202e+02  2.918975276816622e+03
 1.142570000000000e+03 -3.838898612445048e+02  2.918975276816622e+03
 1.142570000000000e+03 -3.848882744076893e+02  2.918975276816622e+03
 1.142570000000000e+03 -3.858866875708745e+02  2.918975276816622e+03
1.142570000000000e+03 3.858866875708736e+02 2.918975276816622e+03
1.142570000000000e+03 3.848882744076896e+02 2.918975276816622e+03
1.142570000000000e+03 3.838898612445053e+02 2.918975276816622e+03
1.142570000000000e+03 3.828914480813205e+02 2.918975276816622e+03
1.142570000000000e+03 3.818930349181359e+02 2.918975276816622e+03
1.142570000000000e+03 3.808946217549507e+02 2.918975276816622e+03
1.142570000000000e+03 3.798962085917664e+02 2.918975276816622e+03
1.142570000000000e+03 3.788977954285816e+02 2.918975276816622e+03
1.142570000000000e+03 3.778993822653970e+02 2.918975276816622e+03
1.142570000000000e+03 3.769009691022121e+02 2.918975276816622e+03
1.142570000000000e+03 3.759025559390279e+02 2.918975276816622e+03
1.142570000000000e+03 3.749041427758430e+02 2.918975276816622e+03
1.142570000000000e+03 3.739057296126584e+02 2.918975276816622e+03
1.142570000000000e+03 3.729073164494738e+02 2.918975276816622e+03
1.142570000000000e+03 3.719089032862893e+02 2.918975276816622e+03
1.142570000000000e+03 3.709104901231044e+02 2.918975276816622e+03
1.142570000000000e+03 3.699120769599194e+02 2.918975276816622e+03
1.142570000000000e+03 3.689136637967349e+02 2.918975276816622e+03
1.142570000000000e+03 3.679152506335503e+02 2.918975276816622e+03
1.142570000000000e+03 3.669168374703657e+02 2.918975276816622e+03
1.142570000000000e+03 3.659184243071809e+02 2.918975276816622e+03
1.142570000000000e+03 3.649200111439962e+02 2.918975276816622e+03
1.142570000000000e+03 3.639215979808117e+02 2.918975276816622e+03
1.142570000000000e+03 3.629231848176271e+02 2.918975276816622e+03
1.142570000000000e+03 3.619247716544423e+02 2.918975276816622e+03
1.142570000000000e+03 3.609263584912577e+02 2.918975276816622e+03
1.142570000000000e+03 3.599279453280728e+02 2.918975276816622e+03
1.142570000000000e+03 3.589295321648883e+02 2.918975276816622e+03
1.142570000000000e+03 3.579311190017037e+02 2.918975276816622e+03
1.142570000000000e+03 3.569327058385191e+02 2.918975276816622e+03
1.142570000000000e+03 3.559342926753342e+02 2.918975276816622e+03
1.142570000000000e+03 3.549358795121497e+02 2.918975276816622e+03
1.142570000000000e+03 3.539374663489651e+02 2.918975276816622e+03
1.142570000000000e+03 3.529390531857805e+02 2.918975276816622e+03
1.142570000000000e+03 3.519406400225956e+02 2.918975276816622e+03
1.142570000000000e+03 3.509422268594111e+02 2.918975276816622e+03
1.142570000000000e+03 3.499438136962265e+02 2.918975276816622e+03
1.142570000000000e+03 3.489454005330415e+02 2.918975276816622e+03
1.142570000000000e+03 3.479469873698570e+02 2.918975276816622e+03
1.142570000000000e+03 3.469485742066724e+02 2.918975276816622e+03
1.142570000000000e+03 3.459501610434879e+02 2.918975276816622e+03
1.142570000000000e+03 3.449517478803029e+02 2.918975276816622e+03
1.142570000000000e+03 3.439533347171184e+02 2.918975276816622e+03
1.142570000000000e+03 3.429549215539338e+02 2.918975276816622e+03
1.142570000000000e+03 3.419565083907493e+02 2.918975276816622e+03
1.142570000000000e+03 3.409580952275643e+02 2.918975276816622e+03
1.142570000000000e+03 3.399596820643795e+02 2.918975276816622e+03
1.142570000000000e+03 3.389612689011950e+02 2.918975276816622e+03
1.142570000000000e+03 3.379628557380104e+02 2.918975276816622e+03
1.142570000000000e+03 3.369644425748257e+02 2.918975276816622e+03
1.142570000000000e+03 3.359660294116409e+02 2.918975276816622e+03
1.142570000000000e+03 3.349676162484564e+02 2.918975276816622e+03
1.142570000000000e+03 3.339692030852718e+02 2.918975276816622e+03
1.142570000000000e+03 3.329707899220871e+02 2.918975276816622e+03
1.142570000000000e+03 3.319723767589023e+02 2.918975276816622e+03
1.142570000000000e+03 3.309739635957177e+02 2.918975276816622e+03
1.142570000000000e+03 3.299755504325329e+02 2.918975276816622e+03
1.142570000000000e+03 3.289771372693482e+02 2.918975276816622e+03
1.142570000000000e+03 3.279787241061634e+02 2.918975276816622e+03
1.142570000000000e+03 3.269803109429788e+02 2.918975276816622e+03
1.142570000000000e+03 3.259818977797943e+02 2.918975276816622e+03
1.142570000000000e+03 3.249834846166096e+02 2.918975276816622e+03
1.142570000000000e+03 3.239850714534248e+02 2.918975276816622e+03
1.142570000000000e+03 3.229866582902402e+02 2.918975276816622e+03
1.142570000000000e+03 3.219882451270557e+02 2.918975276816622e+03
1.142570000000000e+03 3.209898319638708e+02 2.918975276816622e+03
1.142570000000000e+03 3.199914188006862e+02 2.918975276816622e+03
1.142570000000000e+03 3.189930056375016e+02 2.918975276816622e+03
1.142570000000000e+03 3.179945924743167e+02 2.918975276816622e+03
1.142570000000000e+03 3.169961793111322e+02 2.918975276816622e+03
1.142570000000000e+03 3.159977661479476e+02 2.918975276816622e+03
1.142570000000000e+03 3.149993529847630e+02 2.918975276816622e+03
1.142570000000000e+03 3.140009398215781e+02 2.918975276816622e+03
1.142570000000000e+03 3.130025266583935e+02 2.918975276816622e+03
1.142570000000000e+03 3.120041134952090e+02 2.918975276816622e+03
1.142570000000000e+03 3.110057003320244e+02 2.918975276816622e+03
1.142570000000000e+03 3.100072871688395e+02 2.918975276816622e+03
1.142570000000000e+03 3.090088740056549e+02 2.918975276816622e+03
1.142570000000000e+03 3.080104608424704e+02 2.918975276816622e+03
1.142570000000000e+03 3.070120476792855e+02 2.918975276816622e+03
1.142570000000000e+03 3.060136345161010e+02 2.918975276816622e+03
1.142570000000000e+03 3.050152213529163e+02 2.918975276816622e+03
1.142570000000000e+03 3.040168081897318e+02 2.918975276816622e+03
1.142570000000000e+03 3.030183950265469e+02 2.918975276816622e+03
1.142570000000000e+03 3.020199818633624e+02 2.918975276816622e+03
1.142570000000000e+03 3.010215687001777e+02 2.918975276816622e+03
1.142570000000000e+03 3.000231555369929e+02 2.918975276816622e+03
1.142570000000000e+03 2.990247423738080e+02 2.918975276816622e+03
1.142570000000000e+03 2.980263292106234e+02 2.918975276816622e+03
1.142570000000000e+03 2.970279160474391e+02 2.918975276816622e+03
1.142570000000000e+03 2.960295028842543e+02 2.918975276816622e+03
1.142570000000000e+03 2.950310897210694e+02 2.918975276816622e+03
1.142570000000000e+03 2.940326765578849e+02 2.918975276816622e+03
1.142570000000000e+03 2.930342633947005e+02 2.918975276816622e+03
1.142570000000000e+03 2.920358502315157e+02 2.918975276816622e+03
1.142570000000000e+03 2.910374370683308e+02 2.918975276816622e+03
1.142570000000000e+03 2.900390239051463e+02 2.918975276816622e+03
1.142570000000000e+03 2.890406107419616e+02 2.918975276816622e+03
1.142570000000000e+03 2.880421975787768e+02 2.918975276816622e+03
1.142570000000000e+03 2.870437844155922e+02 2.918975276816622e+03
1.142570000000000e+03 2.860453712524076e+02 2.918975276816622e+03
1.142570000000000e+03 2.850469580892230e+02 2.918975276816622e+03
1.142570000000000e+03 2.840485449260383e+02 2.918975276816622e+03
1.142570000000000e+03 2.830501317628537e+02 2.918975276816622e+03
1.142570000000000e+03 2.820517185996690e+02 2.918975276816622e+03
1.142570000000000e+03 2.810533054364842e+02 2.918975276816622e+03
1.142570000000000e+03 2.800548922732995e+02 2.918975276816622e+03
1.142570000000000e+03 2.790564791101149e+02 2.918975276816622e+03
1.142570000000000e+03 2.780580659469302e+02 2.918975276816622e+03
1.142570000000000e+03 2.770596527837456e+02 2.918975276816622e+03
1.142570000000000e+03 2.760612396205609e+02 2.918975276816622e+03
1.142570000000000e+03 2.750628264573763e+02 2.918975276816622e+03
1.142570000000000e+03 2.740644132941916e+02 2.918975276816622e+03
1.142570000000000e+03 2.730660001310069e+02 2.918975276816622e+03
1.142570000000000e+03 2.720675869678223e+02 2.918975276816622e+03
1.142570000000000e+03 2.710691738046377e+02 2.918975276816622e+03
1.142570000000000e+03 2.700707606414529e+02 2.918975276816622e+03
1.142570000000000e+03 2.690723474782682e+02 2.918975276816622e+03
1.142570000000000e+03 2.680739343150835e+02 2.918975276816622e+03
1.142570000000000e+03 2.670755211518989e+02 2.918975276816622e+03
1.142570000000000e+03 2.660771079887143e+02 2.918975276816622e+03
1.142570000000000e+03 2.650786948255296e+02 2.918975276816622e+03
1.142570000000000e+03 2.640802816623449e+02 2.918975276816622e+03
1.142570000000000e+03 2.630818684991603e+02 2.918975276816622e+03
1.142570000000000e+03 2.620834553359757e+02 2.918975276816622e+03
1.142570000000000e+03 2.610850421727908e+02 2.918975276816622e+03
1.142570000000000e+03 2.600866290096062e+02 2.918975276816622e+03
1.142570000000000e+03 2.590882158464215e+02 2.918975276816622e+03
1.142570000000000e+03 2.580898026832369e+02 2.918975276816622e+03
1.142570000000000e+03 2.570913895200522e+02 2.918975276816622e+03
1.142570000000000e+03 2.560929763568676e+02 2.918975276816622e+03
1.142570000000000e+03 2.550945631936829e+02 2.918975276816622e+03
1.142570000000000e+03 2.540961500304983e+02 2.918975276816622e+03
1.142570000000000e+03 2.530977368673136e+02 2.918975276816622e+03
1.142570000000000e+03 2.520993237041289e+02 2.918975276816622e+03
1.142570000000000e+03 2.511009105409443e+02 2.918975276816622e+03
1.142570000000000e+03 2.501024973777595e+02 2.918975276816622e+03
1.142570000000000e+03 2.491040842145749e+02 2.918975276816622e+03
1.142570000000000e+03 2.481056710513902e+02 2.918975276816622e+03
1.142570000000000e+03 2.471072578882056e+02 2.918975276816622e+03
1.142570000000000e+03 2.461088447250209e+02 2.918975276816622e+03
1.142570000000000e+03 2.451104315618362e+02 2.918975276816622e+03
1.142570000000000e+03 2.441120183986516e+02 2.918975276816622e+03
1.142570000000000e+03 2.431136052354669e+02 2.918975276816622e+03
1.142570000000000e+03 2.421151920722823e+02 2.918975276816622e+03
1.142570000000000e+03 2.411167789090976e+02 2.918975276816622e+03
1.142570000000000e+03 2.401183657459130e+02 2.918975276816622e+03
1.142570000000000e+03 2.391199525827282e+02 2.918975276816622e+03
1.142570000000000e+03 2.381215394195435e+02 2.918975276816622e+03
1.142570000000000e+03 2.371231262563589e+02 2.918975276816622e+03
1.142570000000000e+03 2.361247130931742e+02 2.918975276816622e+03
1.142570000000000e+03 2.351262999299896e+02 2.918975276816622e+03
1.142570000000000e+03 2.341278867668049e+02 2.918975276816622e+03
1.142570000000000e+03 2.331294736036203e+02 2.918975276816622e+03
1.142570000000000e+03 2.321310604404356e+02 2.918975276816622e+03
1.142570000000000e+03 2.311326472772510e+02 2.918975276816622e+03
1.142570000000000e+03 2.301342341140661e+02 2.918975276816622e+03
1.142570000000000e+03 2.291358209508815e+02 2.918975276816622e+03
1.142570000000000e+03 2.281374077876968e+02 2.918975276816622e+03
1.142570000000000e+03 2.271389946245122e+02 2.918975276816622e+03
1.142570000000000e+03 2.261405814613275e+02 2.918975276816622e+03
1.142570000000000e+03 2.251421682981429e+02 2.918975276816622e+03
1.142570000000000e+03 2.241437551349582e+02 2.918975276816622e+03
1.142570000000000e+03 2.231453419717736e+02 2.918975276816622e+03
1.142570000000000e+03 2.221469288085889e+02 2.918975276816622e+03
1.142570000000000e+03 2.211485156454043e+02 2.918975276816622e+03
1.142570000000000e+03 2.201501024822196e+02 2.918975276816622e+03
1.142570000000000e+03 2.191516893190348e+02 2.918975276816622e+03
1.142570000000000e+03 2.181532761558501e+02 2.918975276816622e+03
1.142570000000000e+03 2.171548629926655e+02 2.918975276816622e+03
1.142570000000000e+03 2.161564498294808e+02 2.918975276816622e+03
1.142570000000000e+03 2.151580366662962e+02 2.918975276816622e+03
1.142570000000000e+03 2.141596235031115e+02 2.918975276816622e+03
1.142570000000000e+03 2.131612103399269e+02 2.918975276816622e+03
1.142570000000000e+03 2.121627971767423e+02 2.918975276816622e+03
1.142570000000000e+03 2.111643840135576e+02 2.918975276816622e+03
1.142570000000000e+03 2.101659708503728e+02 2.918975276816622e+03
1.142570000000000e+03 2.091675576871882e+02 2.918975276816622e+03
1.142570000000000e+03 2.081691445240035e+02 2.918975276816622e+03
1.142570000000000e+03 2.071707313608188e+02 2.918975276816622e+03
1.142570000000000e+03 2.061723181976342e+02 2.918975276816622e+03
1.142570000000000e+03 2.051739050344495e+02 2.918975276816622e+03
1.142570000000000e+03 2.041754918712649e+02 2.918975276816622e+03
1.142570000000000e+03 2.031770787080802e+02 2.918975276816622e+03
1.142570000000000e+03 2.021786655448956e+02 2.918975276816622e+03
1.142570000000000e+03 2.011802523817109e+02 2.918975276816622e+03
1.142570000000000e+03 2.001818392185263e+02 2.918975276816622e+03
1.142570000000000e+03 1.991834260553415e+02 2.918975276816622e+03
1.142570000000000e+03 1.981850128921568e+02 2.918975276816622e+03
1.142570000000000e+03 1.971865997289722e+02 2.918975276816622e+03
1.142570000000000e+03 1.961881865657875e+02 2.918975276816622e+03
1.142570000000000e+03 1.951897734026028e+02 2.918975276816622e+03
1.142570000000000e+03 1.941913602394182e+02 2.918975276816622e+03
1.142570000000000e+03 1.931929470762335e+02 2.918975276816622e+03
1.142570000000000e+03 1.921945339130489e+02 2.918975276816622e+03
1.142570000000000e+03 1.911961207498642e+02 2.918975276816622e+03
1.142570000000000e+03 1.901977075866794e+02 2.918975276816622e+03
1.142570000000000e+03 1.891992944234948e+02 2.918975276816622e+03
1.142570000000000e+03 1.882008812603101e+02 2.918975276816622e+03
1.142570000000000e+03 1.872024680971255e+02 2.918975276816622e+03
1.142570000000000e+03 1.862040549339408e+02 2.918975276816622e+03
1.142570000000000e+03 1.852056417707562e+02 2.918975276816622e+03
1.142570000000000e+03 1.842072286075715e+02 2.918975276816622e+03
1.142570000000000e+03 1.832088154443869e+02 2.918975276816622e+03
1.142570000000000e+03 1.822104022812022e+02 2.918975276816622e+03
1.142570000000000e+03 1.812119891180176e+02 2.918975276816622e+03
1.142570000000000e+03 1.802135759548329e+02 2.918975276816622e+03
1.142570000000000e+03 1.792151627916481e+02 2.918975276816622e+03
1.142570000000000e+03 1.782167496284635e+02 2.918975276816622e+03
1.142570000000000e+03 1.772183364652788e+02 2.918975276816622e+03
1.142570000000000e+03 1.762199233020942e+02 2.918975276816622e+03
1.142570000000000e+03 1.752215101389095e+02 2.918975276816622e+03
1.142570000000000e+03 1.742230969757249e+02 2.918975276816622e+03
1.142570000000000e+03 1.732246838125402e+02 2.918975276816622e+03
1.142570000000000e+03 1.722262706493556e+02 2.918975276816622e+03
1.142570000000000e+03 1.712278574861709e+02 2.918975276816622e+03
1.142570000000000e+03 1.702294443229861e+02 2.918975276816622e+03
1.142570000000000e+03 1.692310311598014e+02 2.918975276816622e+03
1.142570000000000e+03 1.682326179966168e+02 2.918975276816622e+03
1.142570000000000e+03 1.672342048334321e+02 2.918975276816622e+03
1.142570000000000e+03 1.662357916702475e+02 2.918975276816622e+03
1.142570000000000e+03 1.652373785070628e+02 2.918975276816622e+03
1.142570000000000e+03 1.642389653438782e+02 2.918975276816622e+03
1.142570000000000e+03 1.632405521806935e+02 2.918975276816622e+03
1.142570000000000e+03 1.622421390175089e+02 2.918975276816622e+03
1.142570000000000e+03 1.612437258543242e+02 2.918975276816622e+03
1.142570000000000e+03 1.602453126911396e+02 2.918975276816622e+03
1.142570000000000e+03 1.592468995279548e+02 2.918975276816622e+03
1.142570000000000e+03 1.582484863647701e+02 2.918975276816622e+03
1.142570000000000e+03 1.572500732015855e+02 2.918975276816622e+03
1.142570000000000e+03 1.562516600384008e+02 2.918975276816622e+03
1.142570000000000e+03 1.552532468752161e+02 2.918975276816622e+03
1.142570000000000e+03 1.542548337120315e+02 2.918975276816622e+03
1.142570000000000e+03 1.532564205488468e+02 2.918975276816622e+03
1.142570000000000e+03 1.522580073856622e+02 2.918975276816622e+03
1.142570000000000e+03 1.512595942224775e+02 2.918975276816622e+03
1.142570000000000e+03 1.502611810592927e+02 2.918975276816622e+03
1.142570000000000e+03 1.492627678961081e+02 2.918975276816622e+03
1.142570000000000e+03 1.482643547329234e+02 2.918975276816622e+03
1.142570000000000e+03 1.472659415697387e+02 2.918975276816622e+03
1.142570000000000e+03 1.462675284065541e+02 2.918975276816622e+03
1.142570000000000e+03 1.452691152433695e+02 2.918975276816622e+03
1.142570000000000e+03 1.442707020801848e+02 2.918975276816622e+03
1.142570000000000e+03 1.432722889170001e+02 2.918975276816622e+03
1.142570000000000e+03 1.422738757538155e+02 2.918975276816622e+03
1.142570000000000e+03 1.412754625906308e+02 2.918975276816622e+03
1.142570000000000e+03 1.402770494274462e+02 2.918975276816622e+03
1.142570000000000e+03 1.392786362642614e+02 2.918975276816622e+03
1.142570000000000e+03 1.382802231010767e+02 2.918975276816622e+03
1.142570000000000e+03 1.372818099378921e+02 2.918975276816622e+03
1.142570000000000e+03 1.362833967747074e+02 2.918975276816622e+03
1.142570000000000e+03 1.352849836115228e+02 2.918975276816622e+03
1.142570000000000e+03 1.342865704483381e+02 2.918975276816622e+03
1.142570000000000e+03 1.332881572851535e+02 2.918975276816622e+03
1.142570000000000e+03 1.322897441219688e+02 2.918975276816622e+03
1.142570000000000e+03 1.312913309587842e+02 2.918975276816622e+03
1.142570000000000e+03 1.302929177955994e+02 2.918975276816622e+03
1.142570000000000e+03 1.292945046324147e+02 2.918975276816622e+03
1.142570000000000e+03 1.282960914692301e+02 2.918975276816622e+03
1.142570000000000e+03 1.272976783060454e+02 2.918975276816622e+03
1.142570000000000e+03 1.262992651428608e+02 2.918975276816622e+03
1.142570000000000e+03 1.253008519796761e+02 2.918975276816622e+03
1.142570000000000e+03 1.243024388164915e+02 2.918975276816622e+03
1.142570000000000e+03 1.233040256533068e+02 2.918975276816622e+03
1.142570000000000e+03 1.223056124901222e+02 2.918975276816622e+03
1.142570000000000e+03 1.213071993269375e+02 2.918975276816622e+03
1.142570000000000e+03 1.203087861637529e+02 2.918975276816622e+03
1.142570000000000e+03 1.193103730005680e+02 2.918975276816622e+03
1.142570000000000e+03 1.183119598373834e+02 2.918975276816622e+03
1.142570000000000e+03 1.173135466741987e+02 2.918975276816622e+03
1.142570000000000e+03 1.163151335110141e+02 2.918975276816622e+03
1.142570000000000e+03 1.153167203478294e+02 2.918975276816622e+03
1.142570000000000e+03 1.143183071846448e+02 2.918975276816622e+03
1.142570000000000e+03 1.133198940214601e+02 2.918975276816622e+03
1.142570000000000e+03 1.123214808582755e+02 2.918975276816622e+03
1.142570000000000e+03 1.113230676950908e+02 2.918975276816622e+03
1.142570000000000e+03 1.103246545319060e+02 2.918975276816622e+03
1.142570000000000e+03 1.093262413687214e+02 2.918975276816622e+03
1.142570000000000e+03 1.083278282055367e+02 2.918975276816622e+03
1.142570000000000e+03 1.073294150423521e+02 2.918975276816622e+03
1.142570000000000e+03 1.063310018791674e+02 2.918975276816622e+03
1.142570000000000e+03 1.053325887159828e+02 2.918975276816622e+03
1.142570000000000e+03 1.043341755527981e+02 2.918975276816622e+03
1.142570000000000e+03 1.033357623896135e+02 2.918975276816622e+03
1.142570000000000e+03 1.023373492264288e+02 2.918975276816622e+03
1.142570000000000e+03 1.013389360632441e+02 2.918975276816622e+03
1.142570000000000e+03 1.003405229000595e+02 2.918975276816622e+03
1.142570000000000e+03 9.934210973687469e+01 2.918975276816622e+03
1.142570000000000e+03 9.834369657369007e+01 2.918975276816622e+03
1.142570000000000e+03 9.734528341050537e+01 2.918975276816622e+03
1.142570000000000e+03 9.634687024732077e+01 2.918975276816622e+03
1.142570000000000e+03 9.534845708413607e+01 2.918975276816622e+03
1.142570000000000e+03 9.435004392095145e+01 2.918975276816622e+03
1.142570000000000e+03 9.335163075776678e+01 2.918975276816622e+03
1.142570000000000e+03 9.235321759458215e+01 2.918975276816622e+03
1.142570000000000e+03 9.135480443139748e+01 2.918975276816622e+03
1.142570000000000e+03 9.035639126821266e+01 2.918975276816622e+03
1.142570000000000e+03 8.935797810502800e+01 2.918975276816622e+03
1.142570000000000e+03 8.835956494184336e+01 2.918975276816622e+03
1.142570000000000e+03 8.736115177865869e+01 2.918975276816622e+03
1.142570000000000e+03 8.636273861547406e+01 2.918975276816622e+03
1.142570000000000e+03 8.536432545228939e+01 2.918975276816622e+03
1.142570000000000e+03 8.436591228910476e+01 2.918975276816622e+03
1.142570000000000e+03 8.336749912592009e+01 2.918975276816622e+03
1.142570000000000e+03 8.236908596273545e+01 2.918975276816622e+03
1.142570000000000e+03 8.137067279955080e+01 2.918975276816622e+03
1.142570000000000e+03 8.037225963636615e+01 2.918975276816622e+03
1.142570000000000e+03 7.937384647318135e+01 2.918975276816622e+03
1.142570000000000e+03 7.837543330999671e+01 2.918975276816622e+03
1.142570000000000e+03 7.737702014681204e+01 2.918975276816622e+03
1.142570000000000e+03 7.637860698362741e+01 2.918975276816622e+03
1.142570000000000e+03 7.538019382044274e+01 2.918975276816622e+03
1.142570000000000e+03 7.438178065725810e+01 2.918975276816622e+03
1.142570000000000e+03 7.338336749407343e+01 2.918975276816622e+03
1.142570000000000e+03 7.238495433088880e+01 2.918975276816622e+03
1.142570000000000e+03 7.138654116770414e+01 2.918975276816622e+03
1.142570000000000e+03 7.038812800451930e+01 2.918975276816622e+03
1.142570000000000e+03 6.938971484133465e+01 2.918975276816622e+03
1.142570000000000e+03 6.839130167815000e+01 2.918975276816622e+03
1.142570000000000e+03 6.739288851496535e+01 2.918975276816622e+03
1.142570000000000e+03 6.639447535178070e+01 2.918975276816622e+03
1.142570000000000e+03 6.539606218859605e+01 2.918975276816622e+03
1.142570000000000e+03 6.439764902541138e+01 2.918975276816622e+03
1.142570000000000e+03 6.339923586222675e+01 2.918975276816622e+03
1.142570000000000e+03 6.240082269904209e+01 2.918975276816622e+03
1.142570000000000e+03 6.140240953585744e+01 2.918975276816622e+03
1.142570000000000e+03 6.040399637267278e+01 2.918975276816622e+03
1.142570000000000e+03 5.940558320948797e+01 2.918975276816622e+03
1.142570000000000e+03 5.840717004630331e+01 2.918975276816622e+03
1.142570000000000e+03 5.740875688311867e+01 2.918975276816622e+03
1.142570000000000e+03 5.641034371993400e+01 2.918975276816622e+03
1.142570000000000e+03 5.541193055674936e+01 2.918975276816622e+03
1.142570000000000e+03 5.441351739356470e+01 2.918975276816622e+03
1.142570000000000e+03 5.341510423038006e+01 2.918975276816622e+03
1.142570000000000e+03 5.241669106719540e+01 2.918975276816622e+03
1.142570000000000e+03 5.141827790401076e+01 2.918975276816622e+03
1.142570000000000e+03 5.041986474082596e+01 2.918975276816622e+03
1.142570000000000e+03 4.942145157764131e+01 2.918975276816622e+03
1.142570000000000e+03 4.842303841445665e+01 2.918975276816622e+03
1.142570000000000e+03 4.742462525127200e+01 2.918975276816622e+03
1.142570000000000e+03 4.642621208808735e+01 2.918975276816622e+03
1.142570000000000e+03 4.542779892490271e+01 2.918975276816622e+03
1.142570000000000e+03 4.442938576171804e+01 2.918975276816622e+03
1.142570000000000e+03 4.343097259853341e+01 2.918975276816622e+03
1.142570000000000e+03 4.243255943534874e+01 2.918975276816622e+03
1.142570000000000e+03 4.143414627216410e+01 2.918975276816622e+03
1.142570000000000e+03 4.043573310897943e+01 2.918975276816622e+03
1.142570000000000e+03 3.943731994579463e+01 2.918975276816622e+03
1.142570000000000e+03 3.843890678260995e+01 2.918975276816622e+03
1.142570000000000e+03 3.744049361942532e+01 2.918975276816622e+03
1.142570000000000e+03 3.644208045624065e+01 2.918975276816622e+03
1.142570000000000e+03 3.544366729305602e+01 2.918975276816622e+03
1.142570000000000e+03 3.444525412987135e+01 2.918975276816622e+03
1.142570000000000e+03 3.344684096668671e+01 2.918975276816622e+03
1.142570000000000e+03 3.244842780350205e+01 2.918975276816622e+03
1.142570000000000e+03 3.145001464031742e+01 2.918975276816622e+03
1.142570000000000e+03 3.045160147713261e+01 2.918975276816622e+03
1.142570000000000e+03 2.945318831394797e+01 2.918975276816622e+03
1.142570000000000e+03 2.845477515076330e+01 2.918975276816622e+03
1.142570000000000e+03 2.745636198757865e+01 2.918975276816622e+03
1.142570000000000e+03 2.645794882439399e+01 2.918975276816622e+03
1.142570000000000e+03 2.545953566120934e+01 2.918975276816622e+03
1.142570000000000e+03 2.446112249802469e+01 2.918975276816622e+03
1.142570000000000e+03 2.346270933484004e+01 2.918975276816622e+03
1.142570000000000e+03 2.246429617165539e+01 2.918975276816622e+03
1.142570000000000e+03 2.146588300847074e+01 2.918975276816622e+03
1.142570000000000e+03 2.046746984528609e+01 2.918975276816622e+03
1.142570000000000e+03 1.946905668210128e+01 2.918975276816622e+03
1.142570000000000e+03 1.847064351891662e+01 2.918975276816622e+03
1.142570000000000e+03 1.747223035573197e+01 2.918975276816622e+03
1.142570000000000e+03 1.647381719254732e+01 2.918975276816622e+03
1.142570000000000e+03 1.547540402936267e+01 2.918975276816622e+03
1.142570000000000e+03 1.447699086617802e+01 2.918975276816622e+03
1.142570000000000e+03 1.347857770299336e+01 2.918975276816622e+03
1.142570000000000e+03 1.248016453980871e+01 2.918975276816622e+03
1.142570000000000e+03 1.148175137662406e+01 2.918975276816622e+03
1.142570000000000e+03 1.048333821343925e+01 2.918975276816622e+03
1.142570000000000e+03 9.484925050254594e+00 2.918975276816622e+03
1.142570000000000e+03 8.486511887069945e+00 2.918975276816622e+03
1.142570000000000e+03 7.488098723885294e+00 2.918975276816622e+03
1.142570000000000e+03 6.489685560700642e+00 2.918975276816622e+03
1.142570000000000e+03 5.491272397515990e+00 2.918975276816622e+03
1.142570000000000e+03 4.492859234331339e+00 2.918975276816622e+03
1.142570000000000e+03 3.494446071146688e+00 2.918975276816622e+03
1.142570000000000e+03 2.496032907962034e+00 2.918975276816622e+03
1.142570000000000e+03 1.497619744777384e+00 2.918975276816622e+03
-1.159730000000000e+03 -4.992065815924069e-01 -2.918975276816622e+03
-1.159730000000000e+03  4.992065815925696e-01 -2.918975276816622e+03
-1.159730000000000e+03 -1.497619744777059e+00 -2.918975276816622e+03
-1.159730000000000e+03 -2.496032907961710e+00 -2.918975276816622e+03
-1.159730000000000e+03 -3.494446071146362e+00 -2.918975276816622e+03
-1.159730000000000e+03 -4.492859234331013e+00 -2.918975276816622e+03
-1.159730000000000e+03 -5.491272397515665e+00 -2.918975276816622e+03
-1.159730000000000e+03 -6.489685560700316e+00 -2.918975276816622e+03
-1.159730000000000e+03 -7.488098723884967e+00 -2.918975276816622e+03
-1.159730000000000e+03 -8.486511887069620e+00 -2.918975276816622e+03
-1.159730000000000e+03 -9.484925050254269e+00 -2.918975276816622e+03
-1.159730000000000e+03 -1.048333821343892e+01 -2.918975276816622e+03
-1.159730000000000e+03 -1.148175137662374e+01 -2.918975276816622e+03
-1.159730000000000e+03 -1.248016453980839e+01 -2.918975276816622e+03
-1.159730000000000e+03 -1.347857770299304e+01 -2.918975276816622e+03
-1.159730000000000e+03 -1.447699086617769e+01 -2.918975276816622e+03
-1.159730000000000e+03 -1.547540402936234e+01 -2.918975276816622e+03
-1.159730000000000e+03 -1.647381719254699e+01 -2.918975276816622e+03
-1.159730000000000e+03 -1.747223035573165e+01 -2.918975276816622e+03
-1.159730000000000e+03 -1.847064351891630e+01 -2.918975276816622e+03
-1.159730000000000e+03 -1.946905668210095e+01 -2.918975276816622e+03
-1.159730000000000e+03 -2.046746984528576e+01 -2.918975276816622e+03
-1.159730000000000e+03 -2.146588300847041e+01 -2.918975276816622e+03
-1.159730000000000e+03 -2.246429617165506e+01 -2.918975276816622e+03
-1.159730000000000e+03 -2.346270933483972e+01 -2.918975276816622e+03
-1.159730000000000e+03 -2.446112249802437e+01 -2.918975276816622e+03
-1.159730000000000e+03 -2.545953566120902e+01 -2.918975276816622e+03
-1.159730000000000e+03 -2.645794882439367e+01 -2.918975276816622e+03
-1.159730000000000e+03 -2.745636198757832e+01 -2.918975276816622e+03
-1.159730000000000e+03 -2.845477515076298e+01 -2.918975276816622e+03
-1.159730000000000e+03 -2.945318831394762e+01 -2.918975276816622e+03
-1.159730000000000e+03 -3.045160147713226e+01 -2.918975276816622e+03
-1.159730000000000e+03 -3.145001464031710e+01 -2.918975276816622e+03
-1.159730000000000e+03 -3.244842780350174e+01 -2.918975276816622e+03
-1.159730000000000e+03 -3.344684096668640e+01 -2.918975276816622e+03
-1.159730000000000e+03 -3.444525412987104e+01 -2.918975276816622e+03
-1.159730000000000e+03 -3.544366729305570e+01 -2.918975276816622e+03
-1.159730000000000e+03 -3.644208045624034e+01 -2.918975276816622e+03
-1.159730000000000e+03 -3.744049361942501e+01 -2.918975276816622e+03
-1.159730000000000e+03 -3.843890678260964e+01 -2.918975276816622e+03
-1.159730000000000e+03 -3.943731994579431e+01 -2.918975276816622e+03
-1.159730000000000e+03 -4.043573310897912e+01 -2.918975276816622e+03
-1.159730000000000e+03 -4.143414627216379e+01 -2.918975276816622e+03
-1.159730000000000e+03 -4.243255943534842e+01 -2.918975276816622e+03
-1.159730000000000e+03 -4.343097259853310e+01 -2.918975276816622e+03
-1.159730000000000e+03 -4.442938576171773e+01 -2.918975276816622e+03
-1.159730000000000e+03 -4.542779892490240e+01 -2.918975276816622e+03
-1.159730000000000e+03 -4.642621208808703e+01 -2.918975276816622e+03
-1.159730000000000e+03 -4.742462525127167e+01 -2.918975276816622e+03
-1.159730000000000e+03 -4.842303841445634e+01 -2.918975276816622e+03
-1.159730000000000e+03 -4.942145157764097e+01 -2.918975276816622e+03
-1.159730000000000e+03 -5.041986474082564e+01 -2.918975276816622e+03
-1.159730000000000e+03 -5.141827790401044e+01 -2.918975276816622e+03
-1.159730000000000e+03 -5.241669106719509e+01 -2.918975276816622e+03
-1.159730000000000e+03 -5.341510423037975e+01 -2.918975276816622e+03
-1.159730000000000e+03 -5.441351739356439e+01 -2.918975276816622e+03
-1.159730000000000e+03 -5.541193055674905e+01 -2.918975276816622e+03
-1.159730000000000e+03 -5.641034371993369e+01 -2.918975276816622e+03
-1.159730000000000e+03 -5.740875688311835e+01 -2.918975276816622e+03
-1.159730000000000e+03 -5.840717004630299e+01 -2.918975276816622e+03
-1.159730000000000e+03 -5.940558320948766e+01 -2.918975276816622e+03
-1.159730000000000e+03 -6.040399637267247e+01 -2.918975276816622e+03
-1.159730000000000e+03 -6.140240953585712e+01 -2.918975276816622e+03
-1.159730000000000e+03 -6.240082269904177e+01 -2.918975276816622e+03
-1.159730000000000e+03 -6.339923586222643e+01 -2.918975276816622e+03
-1.159730000000000e+03 -6.439764902541107e+01 -2.918975276816622e+03
-1.159730000000000e+03 -6.539606218859574e+01 -2.918975276816622e+03
-1.159730000000000e+03 -6.639447535178039e+01 -2.918975276816622e+03
-1.159730000000000e+03 -6.739288851496504e+01 -2.918975276816622e+03
-1.159730000000000e+03 -6.839130167814969e+01 -2.918975276816622e+03
-1.159730000000000e+03 -6.938971484133434e+01 -2.918975276816622e+03
-1.159730000000000e+03 -7.038812800451899e+01 -2.918975276816622e+03
-1.159730000000000e+03 -7.138654116770378e+01 -2.918975276816622e+03
-1.159730000000000e+03 -7.238495433088843e+01 -2.918975276816622e+03
-1.159730000000000e+03 -7.338336749407310e+01 -2.918975276816622e+03
-1.159730000000000e+03 -7.438178065725774e+01 -2.918975276816622e+03
-1.159730000000000e+03 -7.538019382044239e+01 -2.918975276816622e+03
-1.159730000000000e+03 -7.637860698362704e+01 -2.918975276816622e+03
-1.159730000000000e+03 -7.737702014681169e+01 -2.918975276816622e+03
-1.159730000000000e+03 -7.837543330999634e+01 -2.918975276816622e+03
-1.159730000000000e+03 -7.937384647318099e+01 -2.918975276816622e+03
-1.159730000000000e+03 -8.037225963636581e+01 -2.918975276816622e+03
-1.159730000000000e+03 -8.137067279955048e+01 -2.918975276816622e+03
-1.159730000000000e+03 -8.236908596273511e+01 -2.918975276816622e+03
-1.159730000000000e+03 -8.336749912591976e+01 -2.918975276816622e+03
-1.159730000000000e+03 -8.436591228910443e+01 -2.918975276816622e+03
-1.159730000000000e+03 -8.536432545228908e+01 -2.918975276816622e+03
-1.159730000000000e+03 -8.636273861547373e+01 -2.918975276816622e+03
-1.159730000000000e+03 -8.736115177865838e+01 -2.918975276816622e+03
-1.159730000000000e+03 -8.835956494184303e+01 -2.918975276816622e+03
-1.159730000000000e+03 -8.935797810502768e+01 -2.918975276816622e+03
-1.159730000000000e+03 -9.035639126821233e+01 -2.918975276816622e+03
-1.159730000000000e+03 -9.135480443139717e+01 -2.918975276816622e+03
-1.159730000000000e+03 -9.235321759458181e+01 -2.918975276816622e+03
-1.159730000000000e+03 -9.335163075776647e+01 -2.918975276816622e+03
-1.159730000000000e+03 -9.435004392095111e+01 -2.918975276816622e+03
-1.159730000000000e+03 -9.534845708413577e+01 -2.918975276816622e+03
-1.159730000000000e+03 -9.634687024732041e+01 -2.918975276816622e+03
-1.159730000000000e+03 -9.734528341050508e+01 -2.918975276816622e+03
-1.159730000000000e+03 -9.834369657368971e+01 -2.918975276816622e+03
-1.159730000000000e+03 -9.934210973687439e+01 -2.918975276816622e+03
-1.159730000000000e+03 -1.003405229000592e+02 -2.918975276816622e+03
-1.159730000000000e+03 -1.013389360632438e+02 -2.918975276816622e+03
-1.159730000000000e+03 -1.023373492264285e+02 -2.918975276816622e+03
-1.159730000000000e+03 -1.033357623896131e+02 -2.918975276816622e+03
-1.159730000000000e+03 -1.043341755527978e+02 -2.918975276816622e+03
-1.159730000000000e+03 -1.053325887159824e+02 -2.918975276816622e+03
-1.159730000000000e+03 -1.063310018791671e+02 -2.918975276816622e+03
-1.159730000000000e+03 -1.073294150423517e+02 -2.918975276816622e+03
-1.159730000000000e+03 -1.083278282055364e+02 -2.918975276816622e+03
-1.159730000000000e+03 -1.093262413687210e+02 -2.918975276816622e+03
-1.159730000000000e+03 -1.103246545319057e+02 -2.918975276816622e+03
-1.159730000000000e+03 -1.113230676950905e+02 -2.918975276816622e+03
-1.159730000000000e+03 -1.123214808582751e+02 -2.918975276816622e+03
-1.159730000000000e+03 -1.133198940214598e+02 -2.918975276816622e+03
-1.159730000000000e+03 -1.143183071846445e+02 -2.918975276816622e+03
-1.159730000000000e+03 -1.153167203478291e+02 -2.918975276816622e+03
-1.159730000000000e+03 -1.163151335110137e+02 -2.918975276816622e+03
-1.159730000000000e+03 -1.173135466741984e+02 -2.918975276816622e+03
-1.159730000000000e+03 -1.183119598373830e+02 -2.918975276816622e+03
-1.159730000000000e+03 -1.193103730005677e+02 -2.918975276816622e+03
-1.159730000000000e+03 -1.203087861637525e+02 -2.918975276816622e+03
-1.159730000000000e+03 -1.213071993269372e+02 -2.918975276816622e+03
-1.159730000000000e+03 -1.223056124901218e+02 -2.918975276816622e+03
-1.159730000000000e+03 -1.233040256533065e+02 -2.918975276816622e+03
-1.159730000000000e+03 -1.243024388164911e+02 -2.918975276816622e+03
-1.159730000000000e+03 -1.253008519796758e+02 -2.918975276816622e+03
-1.159730000000000e+03 -1.262992651428604e+02 -2.918975276816622e+03
-1.159730000000000e+03 -1.272976783060451e+02 -2.918975276816622e+03
-1.159730000000000e+03 -1.282960914692297e+02 -2.918975276816622e+03
-1.159730000000000e+03 -1.292945046324144e+02 -2.918975276816622e+03
-1.159730000000000e+03 -1.302929177955990e+02 -2.918975276816622e+03
-1.159730000000000e+03 -1.312913309587839e+02 -2.918975276816622e+03
-1.159730000000000e+03 -1.322897441219685e+02 -2.918975276816622e+03
-1.159730000000000e+03 -1.332881572851532e+02 -2.918975276816622e+03
-1.159730000000000e+03 -1.342865704483378e+02 -2.918975276816622e+03
-1.159730000000000e+03 -1.352849836115225e+02 -2.918975276816622e+03
-1.159730000000000e+03 -1.362833967747071e+02 -2.918975276816622e+03
-1.159730000000000e+03 -1.372818099378918e+02 -2.918975276816622e+03
-1.159730000000000e+03 -1.382802231010764e+02 -2.918975276816622e+03
-1.159730000000000e+03 -1.392786362642611e+02 -2.918975276816622e+03
-1.159730000000000e+03 -1.402770494274459e+02 -2.918975276816622e+03
-1.159730000000000e+03 -1.412754625906305e+02 -2.918975276816622e+03
-1.159730000000000e+03 -1.422738757538152e+02 -2.918975276816622e+03
-1.159730000000000e+03 -1.432722889169998e+02 -2.918975276816622e+03
-1.159730000000000e+03 -1.442707020801845e+02 -2.918975276816622e+03
-1.159730000000000e+03 -1.452691152433691e+02 -2.918975276816622e+03
-1.159730000000000e+03 -1.462675284065538e+02 -2.918975276816622e+03
-1.159730000000000e+03 -1.472659415697385e+02 -2.918975276816622e+03
-1.159730000000000e+03 -1.482643547329231e+02 -2.918975276816622e+03
-1.159730000000000e+03 -1.492627678961077e+02 -2.918975276816622e+03
-1.159730000000000e+03 -1.502611810592924e+02 -2.918975276816622e+03
-1.159730000000000e+03 -1.512595942224772e+02 -2.918975276816622e+03
-1.159730000000000e+03 -1.522580073856618e+02 -2.918975276816622e+03
-1.159730000000000e+03 -1.532564205488465e+02 -2.918975276816622e+03
-1.159730000000000e+03 -1.542548337120312e+02 -2.918975276816622e+03
-1.159730000000000e+03 -1.552532468752158e+02 -2.918975276816622e+03
-1.159730000000000e+03 -1.562516600384005e+02 -2.918975276816622e+03
-1.159730000000000e+03 -1.572500732015851e+02 -2.918975276816622e+03
-1.159730000000000e+03 -1.582484863647698e+02 -2.918975276816622e+03
-1.159730000000000e+03 -1.592468995279544e+02 -2.918975276816622e+03
-1.159730000000000e+03 -1.602453126911392e+02 -2.918975276816622e+03
-1.159730000000000e+03 -1.612437258543239e+02 -2.918975276816622e+03
-1.159730000000000e+03 -1.622421390175085e+02 -2.918975276816622e+03
-1.159730000000000e+03 -1.632405521806932e+02 -2.918975276816622e+03
-1.159730000000000e+03 -1.642389653438779e+02 -2.918975276816622e+03
-1.159730000000000e+03 -1.652373785070625e+02 -2.918975276816622e+03
-1.159730000000000e+03 -1.662357916702472e+02 -2.918975276816622e+03
-1.159730000000000e+03 -1.672342048334318e+02 -2.918975276816622e+03
-1.159730000000000e+03 -1.682326179966165e+02 -2.918975276816622e+03
-1.159730000000000e+03 -1.692310311598011e+02 -2.918975276816622e+03
-1.159730000000000e+03 -1.702294443229858e+02 -2.918975276816622e+03
-1.159730000000000e+03 -1.712278574861706e+02 -2.918975276816622e+03
-1.159730000000000e+03 -1.722262706493552e+02 -2.918975276816622e+03
-1.159730000000000e+03 -1.732246838125399e+02 -2.918975276816622e+03
-1.159730000000000e+03 -1.742230969757245e+02 -2.918975276816622e+03
-1.159730000000000e+03 -1.752215101389092e+02 -2.918975276816622e+03
-1.159730000000000e+03 -1.762199233020938e+02 -2.918975276816622e+03
-1.159730000000000e+03 -1.772183364652785e+02 -2.918975276816622e+03
-1.159730000000000e+03 -1.782167496284631e+02 -2.918975276816622e+03
-1.159730000000000e+03 -1.792151627916478e+02 -2.918975276816622e+03
-1.159730000000000e+03 -1.802135759548326e+02 -2.918975276816622e+03
-1.159730000000000e+03 -1.812119891180173e+02 -2.918975276816622e+03
-1.159730000000000e+03 -1.822104022812019e+02 -2.918975276816622e+03
-1.159730000000000e+03 -1.832088154443865e+02 -2.918975276816622e+03
-1.159730000000000e+03 -1.842072286075712e+02 -2.918975276816622e+03
-1.159730000000000e+03 -1.852056417707558e+02 -2.918975276816622e+03
-1.159730000000000e+03 -1.862040549339405e+02 -2.918975276816622e+03
-1.159730000000000e+03 -1.872024680971251e+02 -2.918975276816622e+03
-1.159730000000000e+03 -1.882008812603098e+02 -2.918975276816622e+03
-1.159730000000000e+03 -1.891992944234945e+02 -2.918975276816622e+03
-1.159730000000000e+03 -1.901977075866791e+02 -2.918975276816622e+03
-1.159730000000000e+03 -1.911961207498639e+02 -2.918975276816622e+03
-1.159730000000000e+03 -1.921945339130486e+02 -2.918975276816622e+03
-1.159730000000000e+03 -1.931929470762332e+02 -2.918975276816622e+03
-1.159730000000000e+03 -1.941913602394179e+02 -2.918975276816622e+03
-1.159730000000000e+03 -1.951897734026025e+02 -2.918975276816622e+03
-1.159730000000000e+03 -1.961881865657872e+02 -2.918975276816622e+03
-1.159730000000000e+03 -1.971865997289718e+02 -2.918975276816622e+03
-1.159730000000000e+03 -1.981850128921565e+02 -2.918975276816622e+03
-1.159730000000000e+03 -1.991834260553411e+02 -2.918975276816622e+03
-1.159730000000000e+03 -2.001818392185259e+02 -2.918975276816622e+03
-1.159730000000000e+03 -2.011802523817106e+02 -2.918975276816622e+03
-1.159730000000000e+03 -2.021786655448952e+02 -2.918975276816622e+03
-1.159730000000000e+03 -2.031770787080799e+02 -2.918975276816622e+03
-1.159730000000000e+03 -2.041754918712646e+02 -2.918975276816622e+03
-1.159730000000000e+03 -2.051739050344492e+02 -2.918975276816622e+03
-1.159730000000000e+03 -2.061723181976339e+02 -2.918975276816622e+03
-1.159730000000000e+03 -2.071707313608185e+02 -2.918975276816622e+03
-1.159730000000000e+03 -2.081691445240032e+02 -2.918975276816622e+03
-1.159730000000000e+03 -2.091675576871878e+02 -2.918975276816622e+03
-1.159730000000000e+03 -2.101659708503725e+02 -2.918975276816622e+03
-1.159730000000000e+03 -2.111643840135573e+02 -2.918975276816622e+03
-1.159730000000000e+03 -2.121627971767419e+02 -2.918975276816622e+03
-1.159730000000000e+03 -2.131612103399266e+02 -2.918975276816622e+03
-1.159730000000000e+03 -2.141596235031112e+02 -2.918975276816622e+03
-1.159730000000000e+03 -2.151580366662959e+02 -2.918975276816622e+03
-1.159730000000000e+03 -2.161564498294806e+02 -2.918975276816622e+03
-1.159730000000000e+03 -2.171548629926652e+02 -2.918975276816622e+03
-1.159730000000000e+03 -2.181532761558499e+02 -2.918975276816622e+03
-1.159730000000000e+03 -2.191516893190345e+02 -2.918975276816622e+03
-1.159730000000000e+03 -2.201501024822193e+02 -2.918975276816622e+03
-1.159730000000000e+03 -2.211485156454039e+02 -2.918975276816622e+03
-1.159730000000000e+03 -2.221469288085886e+02 -2.918975276816622e+03
-1.159730000000000e+03 -2.231453419717732e+02 -2.918975276816622e+03
-1.159730000000000e+03 -2.241437551349579e+02 -2.918975276816622e+03
-1.159730000000000e+03 -2.251421682981425e+02 -2.918975276816622e+03
-1.159730000000000e+03 -2.261405814613272e+02 -2.918975276816622e+03
-1.159730000000000e+03 -2.271389946245118e+02 -2.918975276816622e+03
-1.159730000000000e+03 -2.281374077876965e+02 -2.918975276816622e+03
-1.159730000000000e+03 -2.291358209508812e+02 -2.918975276816622e+03
-1.159730000000000e+03 -2.301342341140658e+02 -2.918975276816622e+03
-1.159730000000000e+03 -2.311326472772506e+02 -2.918975276816622e+03
-1.159730000000000e+03 -2.321310604404353e+02 -2.918975276816622e+03
-1.159730000000000e+03 -2.331294736036199e+02 -2.918975276816622e+03
-1.159730000000000e+03 -2.341278867668046e+02 -2.918975276816622e+03
-1.159730000000000e+03 -2.351262999299892e+02 -2.918975276816622e+03
-1.159730000000000e+03 -2.361247130931739e+02 -2.918975276816622e+03
-1.159730000000000e+03 -2.371231262563585e+02 -2.918975276816622e+03
-1.159730000000000e+03 -2.381215394195432e+02 -2.918975276816622e+03
-1.159730000000000e+03 -2.391199525827278e+02 -2.918975276816622e+03
-1.159730000000000e+03 -2.401183657459127e+02 -2.918975276816622e+03
-1.159730000000000e+03 -2.411167789090973e+02 -2.918975276816622e+03
-1.159730000000000e+03 -2.421151920722820e+02 -2.918975276816622e+03
-1.159730000000000e+03 -2.431136052354666e+02 -2.918975276816622e+03
-1.159730000000000e+03 -2.441120183986513e+02 -2.918975276816622e+03
-1.159730000000000e+03 -2.451104315618359e+02 -2.918975276816622e+03
-1.159730000000000e+03 -2.461088447250206e+02 -2.918975276816622e+03
-1.159730000000000e+03 -2.471072578882052e+02 -2.918975276816622e+03
-1.159730000000000e+03 -2.481056710513899e+02 -2.918975276816622e+03
-1.159730000000000e+03 -2.491040842145745e+02 -2.918975276816622e+03
-1.159730000000000e+03 -2.501024973777592e+02 -2.918975276816622e+03
-1.159730000000000e+03 -2.511009105409440e+02 -2.918975276816622e+03
-1.159730000000000e+03 -2.520993237041286e+02 -2.918975276816622e+03
-1.159730000000000e+03 -2.530977368673133e+02 -2.918975276816622e+03
-1.159730000000000e+03 -2.540961500304980e+02 -2.918975276816622e+03
-1.159730000000000e+03 -2.550945631936826e+02 -2.918975276816622e+03
-1.159730000000000e+03 -2.560929763568673e+02 -2.918975276816622e+03
-1.159730000000000e+03 -2.570913895200519e+02 -2.918975276816622e+03
-1.159730000000000e+03 -2.580898026832365e+02 -2.918975276816622e+03
-1.159730000000000e+03 -2.590882158464212e+02 -2.918975276816622e+03
-1.159730000000000e+03 -2.600866290096058e+02 -2.918975276816622e+03
-1.159730000000000e+03 -2.610850421727905e+02 -2.918975276816622e+03
-1.159730000000000e+03 -2.620834553359753e+02 -2.918975276816622e+03
-1.159730000000000e+03 -2.630818684991600e+02 -2.918975276816622e+03
-1.159730000000000e+03 -2.640802816623446e+02 -2.918975276816622e+03
-1.159730000000000e+03 -2.650786948255293e+02 -2.918975276816622e+03
-1.159730000000000e+03 -2.660771079887139e+02 -2.918975276816622e+03
-1.159730000000000e+03 -2.670755211518986e+02 -2.918975276816622e+03
-1.159730000000000e+03 -2.680739343150832e+02 -2.918975276816622e+03
-1.159730000000000e+03 -2.690723474782679e+02 -2.918975276816622e+03
-1.159730000000000e+03 -2.700707606414525e+02 -2.918975276816622e+03
-1.159730000000000e+03 -2.710691738046373e+02 -2.918975276816622e+03
-1.159730000000000e+03 -2.720675869678220e+02 -2.918975276816622e+03
-1.159730000000000e+03 -2.730660001310067e+02 -2.918975276816622e+03
-1.159730000000000e+03 -2.740644132941913e+02 -2.918975276816622e+03
-1.159730000000000e+03 -2.750628264573759e+02 -2.918975276816622e+03
-1.159730000000000e+03 -2.760612396205606e+02 -2.918975276816622e+03
-1.159730000000000e+03 -2.770596527837453e+02 -2.918975276816622e+03
-1.159730000000000e+03 -2.780580659469299e+02 -2.918975276816622e+03
-1.159730000000000e+03 -2.790564791101145e+02 -2.918975276816622e+03
-1.159730000000000e+03 -2.800548922732992e+02 -2.918975276816622e+03
-1.159730000000000e+03 -2.810533054364839e+02 -2.918975276816622e+03
-1.159730000000000e+03 -2.820517185996687e+02 -2.918975276816622e+03
-1.159730000000000e+03 -2.830501317628533e+02 -2.918975276816622e+03
-1.159730000000000e+03 -2.840485449260380e+02 -2.918975276816622e+03
-1.159730000000000e+03 -2.850469580892226e+02 -2.918975276816622e+03
-1.159730000000000e+03 -2.860453712524073e+02 -2.918975276816622e+03
-1.159730000000000e+03 -2.870437844155919e+02 -2.918975276816622e+03
-1.159730000000000e+03 -2.880421975787768e+02 -2.918975276816622e+03
-1.159730000000000e+03 -2.890406107419614e+02 -2.918975276816622e+03
-1.159730000000000e+03 -2.900390239051459e+02 -2.918975276816622e+03
-1.159730000000000e+03 -2.910374370683308e+02 -2.918975276816622e+03
-1.159730000000000e+03 -2.920358502315154e+02 -2.918975276816622e+03
-1.159730000000000e+03 -2.930342633947000e+02 -2.918975276816622e+03
-1.159730000000000e+03 -2.940326765578849e+02 -2.918975276816622e+03
-1.159730000000000e+03 -2.950310897210694e+02 -2.918975276816622e+03
-1.159730000000000e+03 -2.960295028842540e+02 -2.918975276816622e+03
-1.159730000000000e+03 -2.970279160474386e+02 -2.918975276816622e+03
-1.159730000000000e+03 -2.980263292106234e+02 -2.918975276816622e+03
-1.159730000000000e+03 -2.990247423738080e+02 -2.918975276816622e+03
-1.159730000000000e+03 -3.000231555369926e+02 -2.918975276816622e+03
-1.159730000000000e+03 -3.010215687001772e+02 -2.918975276816622e+03
-1.159730000000000e+03 -3.020199818633620e+02 -2.918975276816622e+03
-1.159730000000000e+03 -3.030183950265466e+02 -2.918975276816622e+03
-1.159730000000000e+03 -3.040168081897312e+02 -2.918975276816622e+03
-1.159730000000000e+03 -3.050152213529161e+02 -2.918975276816622e+03
-1.159730000000000e+03 -3.060136345161006e+02 -2.918975276816622e+03
-1.159730000000000e+03 -3.070120476792852e+02 -2.918975276816622e+03
-1.159730000000000e+03 -3.080104608424699e+02 -2.918975276816622e+03
-1.159730000000000e+03 -3.090088740056547e+02 -2.918975276816622e+03
-1.159730000000000e+03 -3.100072871688392e+02 -2.918975276816622e+03
-1.159730000000000e+03 -3.110057003320238e+02 -2.918975276816622e+03
-1.159730000000000e+03 -3.120041134952087e+02 -2.918975276816622e+03
-1.159730000000000e+03 -3.130025266583935e+02 -2.918975276816622e+03
-1.159730000000000e+03 -3.140009398215778e+02 -2.918975276816622e+03
-1.159730000000000e+03 -3.149993529847625e+02 -2.918975276816622e+03
-1.159730000000000e+03 -3.159977661479473e+02 -2.918975276816622e+03
-1.159730000000000e+03 -3.169961793111322e+02 -2.918975276816622e+03
-1.159730000000000e+03 -3.179945924743165e+02 -2.918975276816622e+03
-1.159730000000000e+03 -3.189930056375011e+02 -2.918975276816622e+03
-1.159730000000000e+03 -3.199914188006859e+02 -2.918975276816622e+03
-1.159730000000000e+03 -3.209898319638708e+02 -2.918975276816622e+03
-1.159730000000000e+03 -3.219882451270553e+02 -2.918975276816622e+03
-1.159730000000000e+03 -3.229866582902399e+02 -2.918975276816622e+03
-1.159730000000000e+03 -3.239850714534248e+02 -2.918975276816622e+03
-1.159730000000000e+03 -3.249834846166094e+02 -2.918975276816622e+03
-1.159730000000000e+03 -3.259818977797939e+02 -2.918975276816622e+03
-1.159730000000000e+03 -3.269803109429785e+02 -2.918975276816622e+03
-1.159730000000000e+03 -3.279787241061634e+02 -2.918975276816622e+03
-1.159730000000000e+03 -3.289771372693480e+02 -2.918975276816622e+03
-1.159730000000000e+03 -3.299755504325325e+02 -2.918975276816622e+03
-1.159730000000000e+03 -3.309739635957174e+02 -2.918975276816622e+03
-1.159730000000000e+03 -3.319723767589020e+02 -2.918975276816622e+03
-1.159730000000000e+03 -3.329707899220866e+02 -2.918975276816622e+03
-1.159730000000000e+03 -3.339692030852712e+02 -2.918975276816622e+03
-1.159730000000000e+03 -3.349676162484560e+02 -2.918975276816622e+03
-1.159730000000000e+03 -3.359660294116406e+02 -2.918975276816622e+03
-1.159730000000000e+03 -3.369644425748252e+02 -2.918975276816622e+03
-1.159730000000000e+03 -3.379628557380098e+02 -2.918975276816622e+03
-1.159730000000000e+03 -3.389612689011946e+02 -2.918975276816622e+03
-1.159730000000000e+03 -3.399596820643792e+02 -2.918975276816622e+03
-1.159730000000000e+03 -3.409580952275641e+02 -2.918975276816622e+03
-1.159730000000000e+03 -3.419565083907486e+02 -2.918975276816622e+03
-1.159730000000000e+03 -3.429549215539332e+02 -2.918975276816622e+03
-1.159730000000000e+03 -3.439533347171179e+02 -2.918975276816622e+03
-1.159730000000000e+03 -3.449517478803027e+02 -2.918975276816622e+03
-1.159730000000000e+03 -3.459501610434872e+02 -2.918975276816622e+03
-1.159730000000000e+03 -3.469485742066719e+02 -2.918975276816622e+03
-1.159730000000000e+03 -3.479469873698565e+02 -2.918975276816622e+03
-1.159730000000000e+03 -3.489454005330413e+02 -2.918975276816622e+03
-1.159730000000000e+03 -3.499438136962259e+02 -2.918975276816622e+03
-1.159730000000000e+03 -3.509422268594107e+02 -2.918975276816622e+03
-1.159730000000000e+03 -3.519406400225953e+02 -2.918975276816622e+03
-1.159730000000000e+03 -3.529390531857802e+02 -2.918975276816622e+03
-1.159730000000000e+03 -3.539374663489648e+02 -2.918975276816622e+03
-1.159730000000000e+03 -3.549358795121493e+02 -2.918975276816622e+03
-1.159730000000000e+03 -3.559342926753339e+02 -2.918975276816622e+03
-1.159730000000000e+03 -3.569327058385188e+02 -2.918975276816622e+03
-1.159730000000000e+03 -3.579311190017034e+02 -2.918975276816622e+03
-1.159730000000000e+03 -3.589295321648879e+02 -2.918975276816622e+03
-1.159730000000000e+03 -3.599279453280726e+02 -2.918975276816622e+03
-1.159730000000000e+03 -3.609263584912574e+02 -2.918975276816622e+03
-1.159730000000000e+03 -3.619247716544423e+02 -2.918975276816622e+03
-1.159730000000000e+03 -3.629231848176269e+02 -2.918975276816622e+03
-1.159730000000000e+03 -3.639215979808114e+02 -2.918975276816622e+03
-1.159730000000000e+03 -3.649200111439960e+02 -2.918975276816622e+03
-1.159730000000000e+03 -3.659184243071809e+02 -2.918975276816622e+03
-1.159730000000000e+03 -3.669168374703654e+02 -2.918975276816622e+03
-1.159730000000000e+03 -3.679152506335501e+02 -2.918975276816622e+03
-1.159730000000000e+03 -3.689136637967347e+02 -2.918975276816622e+03
-1.159730000000000e+03 -3.699120769599193e+02 -2.918975276816622e+03
-1.159730000000000e+03 -3.709104901231044e+02 -2.918975276816622e+03
-1.159730000000000e+03 -3.719089032862887e+02 -2.918975276816622e+03
-1.159730000000000e+03 -3.729073164494735e+02 -2.918975276816622e+03
-1.159730000000000e+03 -3.739057296126580e+02 -2.918975276816622e+03
-1.159730000000000e+03 -3.749041427758430e+02 -2.918975276816622e+03
-1.159730000000000e+03 -3.759025559390273e+02 -2.918975276816622e+03
-1.159730000000000e+03 -3.769009691022121e+02 -2.918975276816622e+03
-1.159730000000000e+03 -3.778993822653966e+02 -2.918975276816622e+03
-1.159730000000000e+03 -3.788977954285816e+02 -2.918975276816622e+03
-1.159730000000000e+03 -3.798962085917659e+02 -2.918975276816622e+03
-1.159730000000000e+03 -3.808946217549507e+02 -2.918975276816622e+03
-1.159730000000000e+03 -3.818930349181352e+02 -2.918975276816622e+03
-1.159730000000000e+03 -3.828914480813202e+02 -2.918975276816622e+03
-1.159730000000000e+03 -3.838898612445048e+02 -2.918975276816622e+03
-1.159730000000000e+03 -3.848882744076893e+02 -2.918975276816622e+03
-1.159730000000000e+03 -3.858866875708745e+02 -2.918975276816622e+03
-1.159730000000000e+03  3.858866875708736e+02 -2.918975276816622e+03
-1.159730000000000e+03  3.848882744076896e+02 -2.918975276816622e+03
-1.159730000000000e+03  3.838898612445053e+02 -2.918975276816622e+03
-1.159730000000000e+03  3.828914480813205e+02 -2.918975276816622e+03
-1.159730000000000e+03  3.818930349181359e+02 -2.918975276816622e+03
-1.159730000000000e+03  3.808946217549507e+02 -2.918975276816622e+03
-1.159730000000000e+03  3.798962085917664e+02 -2.918975276816622e+03
-1.159730000000000e+03  3.788977954285816e+02 -2.918975276816622e+03
-1.159730000000000e+03  3.778993822653970e+02 -2.918975276816622e+03
-1.159730000000000e+03  3.769009691022121e+02 -2.918975276816622e+03
-1.159730000000000e+03  3.759025559390279e+02 -2.918975276816622e+03
-1.159730000000000e+03  3.749041427758430e+02 -2.918975276816622e+03
-1.159730000000000e+03  3.739057296126584e+02 -2.918975276816622e+03
-1.159730000000000e+03  3.729073164494738e+02 -2.918975276816622e+03
-1.159730000000000e+03  3.719089032862893e+02 -2.918975276816622e+03
-1.159730000000000e+03  3.709104901231044e+02 -2.918975276816622e+03
-1.159730000000000e+03  3.699120769599194e+02 -2.918975276816622e+03
-1.159730000000000e+03  3.689136637967349e+02 -2.918975276816622e+03
-1.159730000000000e+03  3.679152506335503e+02 -2.918975276816622e+03
-1.159730000000000e+03  3.669168374703657e+02 -2.918975276816622e+03
-1.159730000000000e+03  3.659184243071809e+02 -2.918975276816622e+03
-1.159730000000000e+03  3.649200111439962e+02 -2.918975276816622e+03
-1.159730000000000e+03  3.639215979808117e+02 -2.918975276816622e+03
-1.159730000000000e+03  3.629231848176271e+02 -2.918975276816622e+03
-1.159730000000000e+03  3.619247716544423e+02 -2.918975276816622e+03
-1.159730000000000e+03  3.609263584912577e+02 -2.918975276816622e+03
-1.159730000000000e+03  3.599279453280728e+02 -2.918975276816622e+03
-1.159730000000000e+03  3.589295321648883e+02 -2.918975276816622e+03
-1.159730000000000e+03  3.579311190017037e+02 -2.918975276816622e+03
-1.159730000000000e+03  3.569327058385191e+02 -2.918975276816622e+03
-1.159730000000000e+03  3.559342926753342e+02 -2.918975276816622e+03
-1.159730000000000e+03  3.549358795121497e+02 -2.918975276816622e+03
-1.159730000000000e+03  3.539374663489651e+02 -2.918975276816622e+03
-1.159730000000000e+03  3.529390531857805e+02 -2.918975276816622e+03
-1.159730000000000e+03  3.519406400225956e+02 -2.918975276816622e+03
-1.159730000000000e+03  3.509422268594111e+02 -2.918975276816622e+03
-1.159730000000000e+03  3.499438136962265e+02 -2.918975276816622e+03
-1.159730000000000e+03  3.489454005330415e+02 -2.918975276816622e+03
-1.159730000000000e+03  3.479469873698570e+02 -2.918975276816622e+03
-1.159730000000000e+03  3.469485742066724e+02 -2.918975276816622e+03
-1.159730000000000e+03  3.459501610434879e+02 -2.918975276816622e+03
-1.159730000000000e+03  3.449517478803029e+02 -2.918975276816622e+03
-1.159730000000000e+03  3.439533347171184e+02 -2.918975276816622e+03
-1.159730000000000e+03  3.429549215539338e+02 -2.918975276816622e+03
-1.159730000000000e+03  3.419565083907493e+02 -2.918975276816622e+03
-1.159730000000000e+03  3.409580952275643e+02 -2.918975276816622e+03
-1.159730000000000e+03  3.399596820643795e+02 -2.918975276816622e+03
-1.159730000000000e+03  3.389612689011950e+02 -2.918975276816622e+03
-1.159730000000000e+03  3.379628557380104e+02 -2.918975276816622e+03
-1.159730000000000e+03  3.369644425748257e+02 -2.918975276816622e+03
-1.159730000000000e+03  3.359660294116409e+02 -2.918975276816622e+03
-1.159730000000000e+03  3.349676162484564e+02 -2.918975276816622e+03
-1.159730000000000e+03  3.339692030852718e+02 -2.918975276816622e+03
-1.159730000000000e+03  3.329707899220871e+02 -2.918975276816622e+03
-1.159730000000000e+03  3.319723767589023e+02 -2.918975276816622e+03
-1.159730000000000e+03  3.309739635957177e+02 -2.918975276816622e+03
-1.159730000000000e+03  3.299755504325329e+02 -2.918975276816622e+03
-1.159730000000000e+03  3.289771372693482e+02 -2.918975276816622e+03
-1.159730000000000e+03  3.279787241061634e+02 -2.918975276816622e+03
-1.159730000000000e+03  3.269803109429788e+02 -2.918975276816622e+03
-1.159730000000000e+03  3.259818977797943e+02 -2.918975276816622e+03
-1.159730000000000e+03  3.249834846166096e+02 -2.918975276816622e+03
-1.159730000000000e+03  3.239850714534248e+02 -2.918975276816622e+03
-1.159730000000000e+03  3.229866582902402e+02 -2.918975276816622e+03
-1.159730000000000e+03  3.219882451270557e+02 -2.918975276816622e+03
-1.159730000000000e+03  3.209898319638708e+02 -2.918975276816622e+03
-1.159730000000000e+03  3.199914188006862e+02 -2.918975276816622e+03
-1.159730000000000e+03  3.189930056375016e+02 -2.918975276816622e+03
-1.159730000000000e+03  3.179945924743167e+02 -2.918975276816622e+03
-1.159730000000000e+03  3.169961793111322e+02 -2.918975276816622e+03
-1.159730000000000e+03  3.159977661479476e+02 -2.918975276816622e+03
-1.159730000000000e+03  3.149993529847630e+02 -2.918975276816622e+03
-1.159730000000000e+03  3.140009398215781e+02 -2.918975276816622e+03
-1.159730000000000e+03  3.130025266583935e+02 -2.918975276816622e+03
-1.159730000000000e+03  3.120041134952090e+02 -2.918975276816622e+03
-1.159730000000000e+03  3.110057003320244e+02 -2.918975276816622e+03
-1.159730000000000e+03  3.100072871688395e+02 -2.918975276816622e+03
-1.159730000000000e+03  3.090088740056549e+02 -2.918975276816622e+03
-1.159730000000000e+03  3.080104608424704e+02 -2.918975276816622e+03
-1.159730000000000e+03  3.070120476792855e+02 -2.918975276816622e+03
-1.159730000000000e+03  3.060136345161010e+02 -2.918975276816622e+03
-1.159730000000000e+03  3.050152213529163e+02 -2.918975276816622e+03
-1.159730000000000e+03  3.040168081897318e+02 -2.918975276816622e+03
-1.159730000000000e+03  3.030183950265469e+02 -2.918975276816622e+03
-1.159730000000000e+03  3.020199818633624e+02 -2.918975276816622e+03
-1.159730000000000e+03  3.010215687001777e+02 -2.918975276816622e+03
-1.159730000000000e+03  3.000231555369929e+02 -2.918975276816622e+03
-1.159730000000000e+03  2.990247423738080e+02 -2.918975276816622e+03
-1.159730000000000e+03  2.980263292106234e+02 -2.918975276816622e+03
-1.159730000000000e+03  2.970279160474391e+02 -2.918975276816622e+03
-1.159730000000000e+03  2.960295028842543e+02 -2.918975276816622e+03
-1.159730000000000e+03  2.950310897210694e+02 -2.918975276816622e+03
-1.159730000000000e+03  2.940326765578849e+02 -2.918975276816622e+03
-1.159730000000000e+03  2.930342633947005e+02 -2.918975276816622e+03
-1.159730000000000e+03  2.920358502315157e+02 -2.918975276816622e+03
-1.159730000000000e+03  2.910374370683308e+02 -2.918975276816622e+03
-1.159730000000000e+03  2.900390239051463e+02 -2.918975276816622e+03
-1.159730000000000e+03  2.890406107419616e+02 -2.918975276816622e+03
-1.159730000000000e+03  2.880421975787768e+02 -2.918975276816622e+03
-1.159730000000000e+03  2.870437844155922e+02 -2.918975276816622e+03
-1.159730000000000e+03  2.860453712524076e+02 -2.918975276816622e+03
-1.159730000000000e+03  2.850469580892230e+02 -2.918975276816622e+03
-1.159730000000000e+03  2.840485449260383e+02 -2.918975276816622e+03
-1.159730000000000e+03  2.830501317628537e+02 -2.918975276816622e+03
-1.159730000000000e+03  2.820517185996690e+02 -2.918975276816622e+03
-1.159730000000000e+03  2.810533054364842e+02 -2.918975276816622e+03
-1.159730000000000e+03  2.800548922732995e+02 -2.918975276816622e+03
-1.159730000000000e+03  2.790564791101149e+02 -2.918975276816622e+03
-1.159730000000000e+03  2.780580659469302e+02 -2.918975276816622e+03
-1.159730000000000e+03  2.770596527837456e+02 -2.918975276816622e+03
-1.159730000000000e+03  2.760612396205609e+02 -2.918975276816622e+03
-1.159730000000000e+03  2.750628264573763e+02 -2.918975276816622e+03
-1.159730000000000e+03  2.740644132941916e+02 -2.918975276816622e+03
-1.159730000000000e+03  2.730660001310069e+02 -2.918975276816622e+03
-1.159730000000000e+03  2.720675869678223e+02 -2.918975276816622e+03
-1.159730000000000e+03  2.710691738046377e+02 -2.918975276816622e+03
-1.159730000000000e+03  2.700707606414529e+02 -2.918975276816622e+03
-1.159730000000000e+03  2.690723474782682e+02 -2.918975276816622e+03
-1.159730000000000e+03  2.680739343150835e+02 -2.918975276816622e+03
-1.159730000000000e+03  2.670755211518989e+02 -2.918975276816622e+03
-1.159730000000000e+03  2.660771079887143e+02 -2.918975276816622e+03
-1.159730000000000e+03  2.650786948255296e+02 -2.918975276816622e+03
-1.159730000000000e+03  2.640802816623449e+02 -2.918975276816622e+03
-1.159730000000000e+03  2.630818684991603e+02 -2.918975276816622e+03
-1.159730000000000e+03  2.620834553359757e+02 -2.918975276816622e+03
-1.159730000000000e+03  2.610850421727908e+02 -2.918975276816622e+03
-1.159730000000000e+03  2.600866290096062e+02 -2.918975276816622e+03
-1.159730000000000e+03  2.590882158464215e+02 -2.918975276816622e+03
-1.159730000000000e+03  2.580898026832369e+02 -2.918975276816622e+03
-1.159730000000000e+03  2.570913895200522e+02 -2.918975276816622e+03
-1.159730000000000e+03  2.560929763568676e+02 -2.918975276816622e+03
-1.159730000000000e+03  2.550945631936829e+02 -2.918975276816622e+03
-1.159730000000000e+03  2.540961500304983e+02 -2.918975276816622e+03
-1.159730000000000e+03  2.530977368673136e+02 -2.918975276816622e+03
-1.159730000000000e+03  2.520993237041289e+02 -2.918975276816622e+03
-1.159730000000000e+03  2.511009105409443e+02 -2.918975276816622e+03
-1.159730000000000e+03  2.501024973777595e+02 -2.918975276816622e+03
-1.159730000000000e+03  2.491040842145749e+02 -2.918975276816622e+03
-1.159730000000000e+03  2.481056710513902e+02 -2.918975276816622e+03
-1.159730000000000e+03  2.471072578882056e+02 -2.918975276816622e+03
-1.159730000000000e+03  2.461088447250209e+02 -2.918975276816622e+03
-1.159730000000000e+03  2.451104315618362e+02 -2.918975276816622e+03
-1.159730000000000e+03  2.441120183986516e+02 -2.918975276816622e+03
-1.159730000000000e+03  2.431136052354669e+02 -2.918975276816622e+03
-1.159730000000000e+03  2.421151920722823e+02 -2.918975276816622e+03
-1.159730000000000e+03  2.411167789090976e+02 -2.918975276816622e+03
-1.159730000000000e+03  2.401183657459130e+02 -2.918975276816622e+03
-1.159730000000000e+03  2.391199525827282e+02 -2.918975276816622e+03
-1.159730000000000e+03  2.381215394195435e+02 -2.918975276816622e+03
-1.159730000000000e+03  2.371231262563589e+02 -2.918975276816622e+03
-1.159730000000000e+03  2.361247130931742e+02 -2.918975276816622e+03
-1.159730000000000e+03  2.351262999299896e+02 -2.918975276816622e+03
-1.159730000000000e+03  2.341278867668049e+02 -2.918975276816622e+03
-1.159730000000000e+03  2.331294736036203e+02 -2.918975276816622e+03
-1.159730000000000e+03  2.321310604404356e+02 -2.918975276816622e+03
-1.159730000000000e+03  2.311326472772510e+02 -2.918975276816622e+03
-1.159730000000000e+03  2.301342341140661e+02 -2.918975276816622e+03
-1.159730000000000e+03  2.291358209508815e+02 -2.918975276816622e+03
-1.159730000000000e+03  2.281374077876968e+02 -2.918975276816622e+03
-1.159730000000000e+03  2.271389946245122e+02 -2.918975276816622e+03
-1.159730000000000e+03  2.261405814613275e+02 -2.918975276816622e+03
-1.159730000000000e+03  2.251421682981429e+02 -2.918975276816622e+03
-1.159730000000000e+03  2.241437551349582e+02 -2.918975276816622e+03
-1.159730000000000e+03  2.231453419717736e+02 -2.918975276816622e+03
-1.159730000000000e+03  2.221469288085889e+02 -2.918975276816622e+03
-1.159730000000000e+03  2.211485156454043e+02 -2.918975276816622e+03
-1.159730000000000e+03  2.201501024822196e+02 -2.918975276816622e+03
-1.159730000000000e+03  2.191516893190348e+02 -2.918975276816622e+03
-1.159730000000000e+03  2.181532761558501e+02 -2.918975276816622e+03
-1.159730000000000e+03  2.171548629926655e+02 -2.918975276816622e+03
-1.159730000000000e+03  2.161564498294808e+02 -2.918975276816622e+03
-1.159730000000000e+03  2.151580366662962e+02 -2.918975276816622e+03
-1.159730000000000e+03  2.141596235031115e+02 -2.918975276816622e+03
-1.159730000000000e+03  2.131612103399269e+02 -2.918975276816622e+03
-1.159730000000000e+03  2.121627971767423e+02 -2.918975276816622e+03
-1.159730000000000e+03  2.111643840135576e+02 -2.918975276816622e+03
-1.159730000000000e+03  2.101659708503728e+02 -2.918975276816622e+03
-1.159730000000000e+03  2.091675576871882e+02 -2.918975276816622e+03
-1.159730000000000e+03  2.081691445240035e+02 -2.918975276816622e+03
-1.159730000000000e+03  2.071707313608188e+02 -2.918975276816622e+03
-1.159730000000000e+03  2.061723181976342e+02 -2.918975276816622e+03
-1.159730000000000e+03  2.051739050344495e+02 -2.918975276816622e+03
-1.159730000000000e+03  2.041754918712649e+02 -2.918975276816622e+03
-1.159730000000000e+03  2.031770787080802e+02 -2.918975276816622e+03
-1.159730000000000e+03  2.021786655448956e+02 -2.918975276816622e+03
-1.159730000000000e+03  2.011802523817109e+02 -2.918975276816622e+03
-1.159730000000000e+03  2.001818392185263e+02 -2.918975276816622e+03
-1.159730000000000e+03  1.991834260553415e+02 -2.918975276816622e+03
-1.159730000000000e+03  1.981850128921568e+02 -2.918975276816622e+03
-1.159730000000000e+03  1.971865997289722e+02 -2.918975276816622e+03
-1.159730000000000e+03  1.961881865657875e+02 -2.918975276816622e+03
-1.159730000000000e+03  1.951897734026028e+02 -2.918975276816622e+03
-1.159730000000000e+03  1.941913602394182e+02 -2.918975276816622e+03
-1.159730000000000e+03  1.931929470762335e+02 -2.918975276816622e+03
-1.159730000000000e+03  1.921945339130489e+02 -2.918975276816622e+03
-1.159730000000000e+03  1.911961207498642e+02 -2.918975276816622e+03
-1.159730000000000e+03  1.901977075866794e+02 -2.918975276816622e+03
-1.159730000000000e+03  1.891992944234948e+02 -2.918975276816622e+03
-1.159730000000000e+03  1.882008812603101e+02 -2.918975276816622e+03
-1.159730000000000e+03  1.872024680971255e+02 -2.918975276816622e+03
-1.159730000000000e+03  1.862040549339408e+02 -2.918975276816622e+03
-1.159730000000000e+03  1.852056417707562e+02 -2.918975276816622e+03
-1.159730000000000e+03  1.842072286075715e+02 -2.918975276816622e+03
-1.159730000000000e+03  1.832088154443869e+02 -2.918975276816622e+03
-1.159730000000000e+03  1.822104022812022e+02 -2.918975276816622e+03
-1.159730000000000e+03  1.812119891180176e+02 -2.918975276816622e+03
-1.159730000000000e+03  1.802135759548329e+02 -2.918975276816622e+03
-1.159730000000000e+03  1.792151627916481e+02 -2.918975276816622e+03
-1.159730000000000e+03  1.782167496284635e+02 -2.918975276816622e+03
-1.159730000000000e+03  1.772183364652788e+02 -2.918975276816622e+03
-1.159730000000000e+03  1.762199233020942e+02 -2.918975276816622e+03
-1.159730000000000e+03  1.752215101389095e+02 -2.918975276816622e+03
-1.159730000000000e+03  1.742230969757249e+02 -2.918975276816622e+03
-1.159730000000000e+03  1.732246838125402e+02 -2.918975276816622e+03
-1.159730000000000e+03  1.722262706493556e+02 -2.918975276816622e+03
-1.159730000000000e+03  1.712278574861709e+02 -2.918975276816622e+03
-1.159730000000000e+03  1.702294443229861e+02 -2.918975276816622e+03
-1.159730000000000e+03  1.692310311598014e+02 -2.918975276816622e+03
-1.159730000000000e+03  1.682326179966168e+02 -2.918975276816622e+03
-1.159730000000000e+03  1.672342048334321e+02 -2.918975276816622e+03
-1.159730000000000e+03  1.662357916702475e+02 -2.918975276816622e+03
-1.159730000000000e+03  1.652373785070628e+02 -2.918975276816622e+03
-1.159730000000000e+03  1.642389653438782e+02 -2.918975276816622e+03
-1.159730000000000e+03  1.632405521806935e+02 -2.918975276816622e+03
-1.159730000000000e+03  1.622421390175089e+02 -2.918975276816622e+03
-1.159730000000000e+03  1.612437258543242e+02 -2.918975276816622e+03
-1.159730000000000e+03  1.602453126911396e+02 -2.918975276816622e+03
-1.159730000000000e+03  1.592468995279548e+02 -2.918975276816622e+03
-1.159730000000000e+03  1.582484863647701e+02 -2.918975276816622e+03
-1.159730000000000e+03  1.572500732015855e+02 -2.918975276816622e+03
-1.159730000000000e+03  1.562516600384008e+02 -2.918975276816622e+03
-1.159730000000000e+03  1.552532468752161e+02 -2.918975276816622e+03
-1.159730000000000e+03  1.542548337120315e+02 -2.918975276816622e+03
-1.159730000000000e+03  1.532564205488468e+02 -2.918975276816622e+03
-1.159730000000000e+03  1.522580073856622e+02 -2.918975276816622e+03
-1.159730000000000e+03  1.512595942224775e+02 -2.918975276816622e+03
-1.159730000000000e+03  1.502611810592927e+02 -2.918975276816622e+03
-1.159730000000000e+03  1.492627678961081e+02 -2.918975276816622e+03
-1.159730000000000e+03  1.482643547329234e+02 -2.918975276816622e+03
-1.159730000000000e+03  1.472659415697387e+02 -2.918975276816622e+03
-1.159730000000000e+03  1.462675284065541e+02 -2.918975276816622e+03
-1.159730000000000e+03  1.452691152433695e+02 -2.918975276816622e+03
-1.159730000000000e+03  1.442707020801848e+02 -2.918975276816622e+03
-1.159730000000000e+03  1.432722889170001e+02 -2.918975276816622e+03
-1.159730000000000e+03  1.422738757538155e+02 -2.918975276816622e+03
-1.159730000000000e+03  1.412754625906308e+02 -2.918975276816622e+03
-1.159730000000000e+03  1.402770494274462e+02 -2.918975276816622e+03
-1.159730000000000e+03  1.392786362642614e+02 -2.918975276816622e+03
-1.159730000000000e+03  1.382802231010767e+02 -2.918975276816622e+03
-1.159730000000000e+03  1.372818099378921e+02 -2.918975276816622e+03
-1.159730000000000e+03  1.362833967747074e+02 -2.918975276816622e+03
-1.159730000000000e+03  1.352849836115228e+02 -2.918975276816622e+03
-1.159730000000000e+03  1.342865704483381e+02 -2.918975276816622e+03
-1.159730000000000e+03  1.332881572851535e+02 -2.918975276816622e+03
-1.159730000000000e+03  1.322897441219688e+02 -2.918975276816622e+03
-1.159730000000000e+03  1.312913309587842e+02 -2.918975276816622e+03
-1.159730000000000e+03  1.302929177955994e+02 -2.918975276816622e+03
-1.159730000000000e+03  1.292945046324147e+02 -2.918975276816622e+03
-1.159730000000000e+03  1.282960914692301e+02 -2.918975276816622e+03
-1.159730000000000e+03  1.272976783060454e+02 -2.918975276816622e+03
-1.159730000000000e+03  1.262992651428608e+02 -2.918975276816622e+03
-1.159730000000000e+03  1.253008519796761e+02 -2.918975276816622e+03
-1.159730000000000e+03  1.243024388164915e+02 -2.918975276816622e+03
-1.159730000000000e+03  1.233040256533068e+02 -2.918975276816622e+03
-1.159730000000000e+03  1.223056124901222e+02 -2.918975276816622e+03
-1.159730000000000e+03  1.213071993269375e+02 -2.918975276816622e+03
-1.159730000000000e+03  1.203087861637529e+02 -2.918975276816622e+03
-1.159730000000000e+03  1.193103730005680e+02 -2.918975276816622e+03
-1.159730000000000e+03  1.183119598373834e+02 -2.918975276816622e+03
-1.159730000000000e+03  1.173135466741987e+02 -2.918975276816622e+03
-1.159730000000000e+03  1.163151335110141e+02 -2.918975276816622e+03
-1.159730000000000e+03  1.153167203478294e+02 -2.918975276816622e+03
-1.159730000000000e+03  1.143183071846448e+02 -2.918975276816622e+03
-1.159730000000000e+03  1.133198940214601e+02 -2.918975276816622e+03
-1.159730000000000e+03  1.123214808582755e+02 -2.918975276816622e+03
-1.159730000000000e+03  1.113230676950908e+02 -2.918975276816622e+03
-1.159730000000000e+03  1.103246545319060e+02 -2.918975276816622e+03
-1.159730000000000e+03  1.093262413687214e+02 -2.918975276816622e+03
-1.159730000000000e+03  1.083278282055367e+02 -2.918975276816622e+03
-1.159730000000000e+03  1.073294150423521e+02 -2.918975276816622e+03
-1.159730000000000e+03  1.063310018791674e+02 -2.918975276816622e+03
-1.159730000000000e+03  1.053325887159828e+02 -2.918975276816622e+03
-1.159730000000000e+03  1.043341755527981e+02 -2.918975276816622e+03
-1.159730000000000e+03  1.033357623896135e+02 -2.918975276816622e+03
-1.159730000000000e+03  1.023373492264288e+02 -2.918975276816622e+03
-1.159730000000000e+03  1.013389360632441e+02 -2.918975276816622e+03
-1.159730000000000e+03  1.003405229000595e+02 -2.918975276816622e+03
-1.159730000000000e+03  9.934210973687469e+01 -2.918975276816622e+03
-1.159730000000000e+03  9.834369657369007e+01 -2.918975276816622e+03
-1.159730000000000e+03  9.734528341050537e+01 -2.918975276816622e+03
-1.159730000000000e+03  9.634687024732077e+01 -2.918975276816622e+03
-1.159730000000000e+03  9.534845708413607e+01 -2.918975276816622e+03
-1.159730000000000e+03  9.435004392095145e+01 -2.918975276816622e+03
-1.159730000000000e+03  9.335163075776678e+01 -2.918975276816622e+03
-1.159730000000000e+03  9.235321759458215e+01 -2.918975276816622e+03
-1.159730000000000e+03  9.135480443139748e+01 -2.918975276816622e+03
-1.159730000000000e+03  9.035639126821266e+01 -2.918975276816622e+03
-1.159730000000000e+03  8.935797810502800e+01 -2.918975276816622e+03
-1.159730000000000e+03  8.835956494184336e+01 -2.918975276816622e+03
-1.159730000000000e+03  8.736115177865869e+01 -2.918975276816622e+03
-1.159730000000000e+03  8.636273861547406e+01 -2.918975276816622e+03
-1.159730000000000e+03  8.536432545228939e+01 -2.918975276816622e+03
-1.159730000000000e+03  8.436591228910476e+01 -2.918975276816622e+03
-1.159730000000000e+03  8.336749912592009e+01 -2.918975276816622e+03
-1.159730000000000e+03  8.236908596273545e+01 -2.918975276816622e+03
-1.159730000000000e+03  8.137067279955080e+01 -2.918975276816622e+03
-1.159730000000000e+03  8.037225963636615e+01 -2.918975276816622e+03
-1.159730000000000e+03  7.937384647318135e+01 -2.918975276816622e+03
-1.159730000000000e+03  7.837543330999671e+01 -2.918975276816622e+03
-1.159730000000000e+03  7.737702014681204e+01 -2.918975276816622e+03
-1.159730000000000e+03  7.637860698362741e+01 -2.918975276816622e+03
-1.159730000000000e+03  7.538019382044274e+01 -2.918975276816622e+03
-1.159730000000000e+03  7.438178065725810e+01 -2.918975276816622e+03
-1.159730000000000e+03  7.338336749407343e+01 -2.918975276816622e+03
-1.159730000000000e+03  7.238495433088880e+01 -2.918975276816622e+03
-1.159730000000000e+03  7.138654116770414e+01 -2.918975276816622e+03
-1.159730000000000e+03  7.038812800451930e+01 -2.918975276816622e+03
-1.159730000000000e+03  6.938971484133465e+01 -2.918975276816622e+03
-1.159730000000000e+03  6.839130167815000e+01 -2.918975276816622e+03
-1.159730000000000e+03  6.739288851496535e+01 -2.918975276816622e+03
-1.159730000000000e+03  6.639447535178070e+01 -2.918975276816622e+03
-1.159730000000000e+03  6.539606218859605e+01 -2.918975276816622e+03
-1.159730000000000e+03  6.439764902541138e+01 -2.918975276816622e+03
-1.159730000000000e+03  6.339923586222675e+01 -2.918975276816622e+03
-1.159730000000000e+03  6.240082269904209e+01 -2.918975276816622e+03
-1.159730000000000e+03  6.140240953585744e+01 -2.918975276816622e+03
-1.159730000000000e+03  6.040399637267278e+01 -2.918975276816622e+03
-1.159730000000000e+03  5.940558320948797e+01 -2.918975276816622e+03
-1.159730000000000e+03  5.840717004630331e+01 -2.918975276816622e+03
-1.159730000000000e+03  5.740875688311867e+01 -2.918975276816622e+03
-1.159730000000000e+03  5.641034371993400e+01 -2.918975276816622e+03
-1.159730000000000e+03  5.541193055674936e+01 -2.918975276816622e+03
-1.159730000000000e+03  5.441351739356470e+01 -2.918975276816622e+03
-1.159730000000000e+03  5.341510423038006e+01 -2.918975276816622e+03
-1.159730000000000e+03  5.241669106719540e+01 -2.918975276816622e+03
-1.159730000000000e+03  5.141827790401076e+01 -2.918975276816622e+03
-1.159730000000000e+03  5.041986474082596e+01 -2.918975276816622e+03
-1.159730000000000e+03  4.942145157764131e+01 -2.918975276816622e+03
-1.159730000000000e+03  4.842303841445665e+01 -2.918975276816622e+03
-1.159730000000000e+03  4.742462525127200e+01 -2.918975276816622e+03
-1.159730000000000e+03  4.642621208808735e+01 -2.918975276816622e+03
-1.159730000000000e+03  4.542779892490271e+01 -2.918975276816622e+03
-1.159730000000000e+03  4.442938576171804e+01 -2.918975276816622e+03
-1.159730000000000e+03  4.343097259853341e+01 -2.918975276816622e+03
-1.159730000000000e+03  4.243255943534874e+01 -2.918975276816622e+03
-1.159730000000000e+03  4.143414627216410e+01 -2.918975276816622e+03
-1.159730000000000e+03  4.043573310897943e+01 -2.918975276816622e+03
-1.159730000000000e+03  3.943731994579463e+01 -2.918975276816622e+03
-1.159730000000000e+03  3.843890678260995e+01 -2.918975276816622e+03
-1.159730000000000e+03  3.744049361942532e+01 -2.918975276816622e+03
-1.159730000000000e+03  3.644208045624065e+01 -2.918975276816622e+03
-1.159730000000000e+03  3.544366729305602e+01 -2.918975276816622e+03
-1.159730000000000e+03  3.444525412987135e+01 -2.918975276816622e+03
-1.159730000000000e+03  3.344684096668671e+01 -2.918975276816622e+03
-1.159730000000000e+03  3.244842780350205e+01 -2.918975276816622e+03
-1.159730000000000e+03  3.145001464031742e+01 -2.918975276816622e+03
-1.159730000000000e+03  3.045160147713261e+01 -2.918975276816622e+03
-1.159730000000000e+03  2.945318831394797e+01 -2.918975276816622e+03
-1.159730000000000e+03  2.845477515076330e+01 -2.918975276816622e+03
-1.159730000000000e+03  2.745636198757865e+01 -2.918975276816622e+03
-1.159730000000000e+03  2.645794882439399e+01 -2.918975276816622e+03
-1.159730000000000e+03  2.545953566120934e+01 -2.918975276816622e+03
-1.159730000000000e+03  2.446112249802469e+01 -2.918975276816622e+03
-1.159730000000000e+03  2.346270933484004e+01 -2.918975276816622e+03
-1.159730000000000e+03  2.246429617165539e+01 -2.918975276816622e+03
-1.159730000000000e+03  2.146588300847074e+01 -2.918975276816622e+03
-1.159730000000000e+03  2.046746984528609e+01 -2.918975276816622e+03
-1.159730000000000e+03  1.946905668210128e+01 -2.918975276816622e+03
-1.159730000000000e+03  1.847064351891662e+01 -2.918975276816622e+03
-1.159730000000000e+03  1.747223035573197e+01 -2.918975276816622e+03
-1.159730000000000e+03  1.647381719254732e+01 -2.918975276816622e+03
-1.159730000000000e+03  1.547540402936267e+01 -2.918975276816622e+03
-1.159730000000000e+03  1.447699086617802e+01 -2.918975276816622e+03
-1.159730000000000e+03  1.347857770299336e+01 -2.918975276816622e+03
-1.159730000000000e+03  1.248016453980871e+01 -2.918975276816622e+03
-1.159730000000000e+03  1.148175137662406e+01 -2.918975276816622e+03
-1.159730000000000e+03  1.048333821343925e+01 -2.918975276816622e+03
-1.159730000000000e+03  9.484925050254594e+00 -2.918975276816622e+03
-1.159730000000000e+03  8.486511887069945e+00 -2.918975276816622e+03
-1.159730000000000e+03  7.488098723885294e+00 -2.918975276816622e+03
-1.159730000000000e+03  6.489685560700642e+00 -2.918975276816622e+03
-1.159730000000000e+03  5.491272397515990e+00 -2.918975276816622e+03
-1.159730000000000e+03  4.492859234331339e+00 -2.918975276816622e+03
-1.159730000000000e+03  3.494446071146688e+00 -2.918975276816622e+03
-1.159730000000000e+03  2.496032907962034e+00 -2.918975276816622e+03
-1.159730000000000e+03  1.497619744777384e+00 -2.918975276816622e+03
 1.156870000000000e+03 -4.992065815924069e-01  2.918975276816622e+03
1.156870000000000e+03 4.992065815925696e-01 2.918975276816622e+03
 1.156870000000000e+03 -1.497619744777059e+00  2.918975276816622e+03
 1.156870000000000e+03 -2.496032907961710e+00  2.918975276816622e+03
 1.156870000000000e+03 -3.494446071146362e+00  2.918975276816622e+03
 1.156870000000000e+03 -4.492859234331013e+00  2.918975276816622e+03
 1.156870000000000e+03 -5.491272397515665e+00  2.918975276816622e+03
 1.156870000000000e+03 -6.489685560700316e+00  2.918975276816622e+03
 1.156870000000000e+03 -7.488098723884967e+00  2.918975276816622e+03
 1.156870000000000e+03 -8.486511887069620e+00  2.918975276816622e+03
 1.156870000000000e+03 -9.484925050254269e+00  2.918975276816622e+03
 1.156870000000000e+03 -1.048333821343892e+01  2.918975276816622e+03
 1.156870000000000e+03 -1.148175137662374e+01  2.918975276816622e+03
 1.156870000000000e+03 -1.248016453980839e+01  2.918975276816622e+03
 1.156870000000000e+03 -1.347857770299304e+01  2.918975276816622e+03
 1.156870000000000e+03 -1.447699086617769e+01  2.918975276816622e+03
 1.156870000000000e+03 -1.547540402936234e+01  2.918975276816622e+03
 1.156870000000000e+03 -1.647381719254699e+01  2.918975276816622e+03
 1.156870000000000e+03 -1.747223035573165e+01  2.918975276816622e+03
 1.156870000000000e+03 -1.847064351891630e+01  2.918975276816622e+03
 1.156870000000000e+03 -1.946905668210095e+01  2.918975276816622e+03
 1.156870000000000e+03 -2.046746984528576e+01  2.918975276816622e+03
 1.156870000000000e+03 -2.146588300847041e+01  2.918975276816622e+03
 1.156870000000000e+03 -2.246429617165506e+01  2.918975276816622e+03
 1.156870000000000e+03 -2.346270933483972e+01  2.918975276816622e+03
 1.156870000000000e+03 -2.446112249802437e+01  2.918975276816622e+03
 1.156870000000000e+03 -2.545953566120902e+01  2.918975276816622e+03
 1.156870000000000e+03 -2.645794882439367e+01  2.918975276816622e+03
 1.156870000000000e+03 -2.745636198757832e+01  2.918975276816622e+03
 1.156870000000000e+03 -2.845477515076298e+01  2.918975276816622e+03
 1.156870000000000e+03 -2.945318831394762e+01  2.918975276816622e+03
 1.156870000000000e+03 -3.045160147713226e+01  2.918975276816622e+03
 1.156870000000000e+03 -3.145001464031710e+01  2.918975276816622e+03
 1.156870000000000e+03 -3.244842780350174e+01  2.918975276816622e+03
 1.156870000000000e+03 -3.344684096668640e+01  2.918975276816622e+03
 1.156870000000000e+03 -3.444525412987104e+01  2.918975276816622e+03
 1.156870000000000e+03 -3.544366729305570e+01  2.918975276816622e+03
 1.156870000000000e+03 -3.644208045624034e+01  2.918975276816622e+03
 1.156870000000000e+03 -3.744049361942501e+01  2.918975276816622e+03
 1.156870000000000e+03 -3.843890678260964e+01  2.918975276816622e+03
 1.156870000000000e+03 -3.943731994579431e+01  2.918975276816622e+03
 1.156870000000000e+03 -4.043573310897912e+01  2.918975276816622e+03
 1.156870000000000e+03 -4.143414627216379e+01  2.918975276816622e+03
 1.156870000000000e+03 -4.243255943534842e+01  2.918975276816622e+03
 1.156870000000000e+03 -4.343097259853310e+01  2.918975276816622e+03
 1.156870000000000e+03 -4.442938576171773e+01  2.918975276816622e+03
 1.156870000000000e+03 -4.542779892490240e+01  2.918975276816622e+03
 1.156870000000000e+03 -4.642621208808703e+01  2.918975276816622e+03
 1.156870000000000e+03 -4.742462525127167e+01  2.918975276816622e+03
 1.156870000000000e+03 -4.842303841445634e+01  2.918975276816622e+03
 1.156870000000000e+03 -4.942145157764097e+01  2.918975276816622e+03
 1.156870000000000e+03 -5.041986474082564e+01  2.918975276816622e+03
 1.156870000000000e+03 -5.141827790401044e+01  2.918975276816622e+03
 1.156870000000000e+03 -5.241669106719509e+01  2.918975276816622e+03
 1.156870000000000e+03 -5.341510423037975e+01  2.918975276816622e+03
 1.156870000000000e+03 -5.441351739356439e+01  2.918975276816622e+03
 1.156870000000000e+03 -5.541193055674905e+01  2.918975276816622e+03
 1.156870000000000e+03 -5.641034371993369e+01  2.918975276816622e+03
 1.156870000000000e+03 -5.740875688311835e+01  2.918975276816622e+03
 1.156870000000000e+03 -5.840717004630299e+01  2.918975276816622e+03
 1.156870000000000e+03 -5.940558320948766e+01  2.918975276816622e+03
 1.156870000000000e+03 -6.040399637267247e+01  2.918975276816622e+03
 1.156870000000000e+03 -6.140240953585712e+01  2.918975276816622e+03
 1.156870000000000e+03 -6.240082269904177e+01  2.918975276816622e+03
 1.156870000000000e+03 -6.339923586222643e+01  2.918975276816622e+03
 1.156870000000000e+03 -6.439764902541107e+01  2.918975276816622e+03
 1.156870000000000e+03 -6.539606218859574e+01  2.918975276816622e+03
 1.156870000000000e+03 -6.639447535178039e+01  2.918975276816622e+03
 1.156870000000000e+03 -6.739288851496504e+01  2.918975276816622e+03
 1.156870000000000e+03 -6.839130167814969e+01  2.918975276816622e+03
 1.156870000000000e+03 -6.938971484133434e+01  2.918975276816622e+03
 1.156870000000000e+03 -7.038812800451899e+01  2.918975276816622e+03
 1.156870000000000e+03 -7.138654116770378e+01  2.918975276816622e+03
 1.156870000000000e+03 -7.238495433088843e+01  2.918975276816622e+03
 1.156870000000000e+03 -7.338336749407310e+01  2.918975276816622e+03
 1.156870000000000e+03 -7.438178065725774e+01  2.918975276816622e+03
 1.156870000000000e+03 -7.538019382044239e+01  2.918975276816622e+03
 1.156870000000000e+03 -7.637860698362704e+01  2.918975276816622e+03
 1.156870000000000e+03 -7.737702014681169e+01  2.918975276816622e+03
 1.156870000000000e+03 -7.837543330999634e+01  2.918975276816622e+03
 1.156870000000000e+03 -7.937384647318099e+01  2.918975276816622e+03
 1.156870000000000e+03 -8.037225963636581e+01  2.918975276816622e+03
 1.156870000000000e+03 -8.137067279955048e+01  2.918975276816622e+03
 1.156870000000000e+03 -8.236908596273511e+01  2.918975276816622e+03
 1.156870000000000e+03 -8.336749912591976e+01  2.918975276816622e+03
 1.156870000000000e+03 -8.436591228910443e+01  2.918975276816622e+03
 1.156870000000000e+03 -8.536432545228908e+01  2.918975276816622e+03
 1.156870000000000e+03 -8.636273861547373e+01  2.918975276816622e+03
 1.156870000000000e+03 -8.736115177865838e+01  2.918975276816622e+03
 1.156870000000000e+03 -8.835956494184303e+01  2.918975276816622e+03
 1.156870000000000e+03 -8.935797810502768e+01  2.918975276816622e+03
 1.156870000000000e+03 -9.035639126821233e+01  2.918975276816622e+03
 1.156870000000000e+03 -9.135480443139717e+01  2.918975276816622e+03
 1.156870000000000e+03 -9.235321759458181e+01  2.918975276816622e+03
 1.156870000000000e+03 -9.335163075776647e+01  2.918975276816622e+03
 1.156870000000000e+03 -9.435004392095111e+01  2.918975276816622e+03
 1.156870000000000e+03 -9.534845708413577e+01  2.918975276816622e+03
 1.156870000000000e+03 -9.634687024732041e+01  2.918975276816622e+03
 1.156870000000000e+03 -9.734528341050508e+01  2.918975276816622e+03
 1.156870000000000e+03 -9.834369657368971e+01  2.918975276816622e+03
 1.156870000000000e+03 -9.934210973687439e+01  2.918975276816622e+03
 1.156870000000000e+03 -1.003405229000592e+02  2.918975276816622e+03
 1.156870000000000e+03 -1.013389360632438e+02  2.918975276816622e+03
 1.156870000000000e+03 -1.023373492264285e+02  2.918975276816622e+03
 1.156870000000000e+03 -1.033357623896131e+02  2.918975276816622e+03
 1.156870000000000e+03 -1.043341755527978e+02  2.918975276816622e+03
 1.156870000000000e+03 -1.053325887159824e+02  2.918975276816622e+03
 1.156870000000000e+03 -1.063310018791671e+02  2.918975276816622e+03
 1.156870000000000e+03 -1.073294150423517e+02  2.918975276816622e+03
 1.156870000000000e+03 -1.083278282055364e+02  2.918975276816622e+03
 1.156870000000000e+03 -1.093262413687210e+02  2.918975276816622e+03
 1.156870000000000e+03 -1.103246545319057e+02  2.918975276816622e+03
 1.156870000000000e+03 -1.113230676950905e+02  2.918975276816622e+03
 1.156870000000000e+03 -1.123214808582751e+02  2.918975276816622e+03
 1.156870000000000e+03 -1.133198940214598e+02  2.918975276816622e+03
 1.156870000000000e+03 -1.143183071846445e+02  2.918975276816622e+03
 1.156870000000000e+03 -1.153167203478291e+02  2.918975276816622e+03
 1.156870000000000e+03 -1.163151335110137e+02  2.918975276816622e+03
 1.156870000000000e+03 -1.173135466741984e+02  2.918975276816622e+03
 1.156870000000000e+03 -1.183119598373830e+02  2.918975276816622e+03
 1.156870000000000e+03 -1.193103730005677e+02  2.918975276816622e+03
 1.156870000000000e+03 -1.203087861637525e+02  2.918975276816622e+03
 1.156870000000000e+03 -1.213071993269372e+02  2.918975276816622e+03
 1.156870000000000e+03 -1.223056124901218e+02  2.918975276816622e+03
 1.156870000000000e+03 -1.233040256533065e+02  2.918975276816622e+03
 1.156870000000000e+03 -1.243024388164911e+02  2.918975276816622e+03
 1.156870000000000e+03 -1.253008519796758e+02  2.918975276816622e+03
 1.156870000000000e+03 -1.262992651428604e+02  2.918975276816622e+03
 1.156870000000000e+03 -1.272976783060451e+02  2.918975276816622e+03
 1.156870000000000e+03 -1.282960914692297e+02  2.918975276816622e+03
 1.156870000000000e+03 -1.292945046324144e+02  2.918975276816622e+03
 1.156870000000000e+03 -1.302929177955990e+02  2.918975276816622e+03
 1.156870000000000e+03 -1.312913309587839e+02  2.918975276816622e+03
 1.156870000000000e+03 -1.322897441219685e+02  2.918975276816622e+03
 1.156870000000000e+03 -1.332881572851532e+02  2.918975276816622e+03
 1.156870000000000e+03 -1.342865704483378e+02  2.918975276816622e+03
 1.156870000000000e+03 -1.352849836115225e+02  2.918975276816622e+03
 1.156870000000000e+03 -1.362833967747071e+02  2.918975276816622e+03
 1.156870000000000e+03 -1.372818099378918e+02  2.918975276816622e+03
 1.156870000000000e+03 -1.382802231010764e+02  2.918975276816622e+03
 1.156870000000000e+03 -1.392786362642611e+02  2.918975276816622e+03
 1.156870000000000e+03 -1.402770494274459e+02  2.918975276816622e+03
 1.156870000000000e+03 -1.412754625906305e+02  2.918975276816622e+03
 1.156870000000000e+03 -1.422738757538152e+02  2.918975276816622e+03
 1.156870000000000e+03 -1.432722889169998e+02  2.918975276816622e+03
 1.156870000000000e+03 -1.442707020801845e+02  2.918975276816622e+03
 1.156870000000000e+03 -1.452691152433691e+02  2.918975276816622e+03
 1.156870000000000e+03 -1.462675284065538e+02  2.918975276816622e+03
 1.156870000000000e+03 -1.472659415697385e+02  2.918975276816622e+03
 1.156870000000000e+03 -1.482643547329231e+02  2.918975276816622e+03
 1.156870000000000e+03 -1.492627678961077e+02  2.918975276816622e+03
 1.156870000000000e+03 -1.502611810592924e+02  2.918975276816622e+03
 1.156870000000000e+03 -1.512595942224772e+02  2.918975276816622e+03
 1.156870000000000e+03 -1.522580073856618e+02  2.918975276816622e+03
 1.156870000000000e+03 -1.532564205488465e+02  2.918975276816622e+03
 1.156870000000000e+03 -1.542548337120312e+02  2.918975276816622e+03
 1.156870000000000e+03 -1.552532468752158e+02  2.918975276816622e+03
 1.156870000000000e+03 -1.562516600384005e+02  2.918975276816622e+03
 1.156870000000000e+03 -1.572500732015851e+02  2.918975276816622e+03
 1.156870000000000e+03 -1.582484863647698e+02  2.918975276816622e+03
 1.156870000000000e+03 -1.592468995279544e+02  2.918975276816622e+03
 1.156870000000000e+03 -1.602453126911392e+02  2.918975276816622e+03
 1.156870000000000e+03 -1.612437258543239e+02  2.918975276816622e+03
 1.156870000000000e+03 -1.622421390175085e+02  2.918975276816622e+03
 1.156870000000000e+03 -1.632405521806932e+02  2.918975276816622e+03
 1.156870000000000e+03 -1.642389653438779e+02  2.918975276816622e+03
 1.156870000000000e+03 -1.652373785070625e+02  2.918975276816622e+03
 1.156870000000000e+03 -1.662357916702472e+02  2.918975276816622e+03
 1.156870000000000e+03 -1.672342048334318e+02  2.918975276816622e+03
 1.156870000000000e+03 -1.682326179966165e+02  2.918975276816622e+03
 1.156870000000000e+03 -1.692310311598011e+02  2.918975276816622e+03
 1.156870000000000e+03 -1.702294443229858e+02  2.918975276816622e+03
 1.156870000000000e+03 -1.712278574861706e+02  2.918975276816622e+03
 1.156870000000000e+03 -1.722262706493552e+02  2.918975276816622e+03
 1.156870000000000e+03 -1.732246838125399e+02  2.918975276816622e+03
 1.156870000000000e+03 -1.742230969757245e+02  2.918975276816622e+03
 1.156870000000000e+03 -1.752215101389092e+02  2.918975276816622e+03
 1.156870000000000e+03 -1.762199233020938e+02  2.918975276816622e+03
 1.156870000000000e+03 -1.772183364652785e+02  2.918975276816622e+03
 1.156870000000000e+03 -1.782167496284631e+02  2.918975276816622e+03
 1.156870000000000e+03 -1.792151627916478e+02  2.918975276816622e+03
 1.156870000000000e+03 -1.802135759548326e+02  2.918975276816622e+03
 1.156870000000000e+03 -1.812119891180173e+02  2.918975276816622e+03
 1.156870000000000e+03 -1.822104022812019e+02  2.918975276816622e+03
 1.156870000000000e+03 -1.832088154443865e+02  2.918975276816622e+03
 1.156870000000000e+03 -1.842072286075712e+02  2.918975276816622e+03
 1.156870000000000e+03 -1.852056417707558e+02  2.918975276816622e+03
 1.156870000000000e+03 -1.862040549339405e+02  2.918975276816622e+03
 1.156870000000000e+03 -1.872024680971251e+02  2.918975276816622e+03
 1.156870000000000e+03 -1.882008812603098e+02  2.918975276816622e+03
 1.156870000000000e+03 -1.891992944234945e+02  2.918975276816622e+03
 1.156870000000000e+03 -1.901977075866791e+02  2.918975276816622e+03
 1.156870000000000e+03 -1.911961207498639e+02  2.918975276816622e+03
 1.156870000000000e+03 -1.921945339130486e+02  2.918975276816622e+03
 1.156870000000000e+03 -1.931929470762332e+02  2.918975276816622e+03
 1.156870000000000e+03 -1.941913602394179e+02  2.918975276816622e+03
 1.156870000000000e+03 -1.951897734026025e+02  2.918975276816622e+03
 1.156870000000000e+03 -1.961881865657872e+02  2.918975276816622e+03
 1.156870000000000e+03 -1.971865997289718e+02  2.918975276816622e+03
 1.156870000000000e+03 -1.981850128921565e+02  2.918975276816622e+03
 1.156870000000000e+03 -1.991834260553411e+02  2.918975276816622e+03
 1.156870000000000e+03 -2.001818392185259e+02  2.918975276816622e+03
 1.156870000000000e+03 -2.011802523817106e+02  2.918975276816622e+03
 1.156870000000000e+03 -2.021786655448952e+02  2.918975276816622e+03
 1.156870000000000e+03 -2.031770787080799e+02  2.918975276816622e+03
 1.156870000000000e+03 -2.041754918712646e+02  2.918975276816622e+03
 1.156870000000000e+03 -2.051739050344492e+02  2.918975276816622e+03
 1.156870000000000e+03 -2.061723181976339e+02  2.918975276816622e+03
 1.156870000000000e+03 -2.071707313608185e+02  2.918975276816622e+03
 1.156870000000000e+03 -2.081691445240032e+02  2.918975276816622e+03
 1.156870000000000e+03 -2.091675576871878e+02  2.918975276816622e+03
 1.156870000000000e+03 -2.101659708503725e+02  2.918975276816622e+03
 1.156870000000000e+03 -2.111643840135573e+02  2.918975276816622e+03
 1.156870000000000e+03 -2.121627971767419e+02  2.918975276816622e+03
 1.156870000000000e+03 -2.131612103399266e+02  2.918975276816622e+03
 1.156870000000000e+03 -2.141596235031112e+02  2.918975276816622e+03
 1.156870000000000e+03 -2.151580366662959e+02  2.918975276816622e+03
 1.156870000000000e+03 -2.161564498294806e+02  2.918975276816622e+03
 1.156870000000000e+03 -2.171548629926652e+02  2.918975276816622e+03
 1.156870000000000e+03 -2.181532761558499e+02  2.918975276816622e+03
 1.156870000000000e+03 -2.191516893190345e+02  2.918975276816622e+03
 1.156870000000000e+03 -2.201501024822193e+02  2.918975276816622e+03
 1.156870000000000e+03 -2.211485156454039e+02  2.918975276816622e+03
 1.156870000000000e+03 -2.221469288085886e+02  2.918975276816622e+03
 1.156870000000000e+03 -2.231453419717732e+02  2.918975276816622e+03
 1.156870000000000e+03 -2.241437551349579e+02  2.918975276816622e+03
 1.156870000000000e+03 -2.251421682981425e+02  2.918975276816622e+03
 1.156870000000000e+03 -2.261405814613272e+02  2.918975276816622e+03
 1.156870000000000e+03 -2.271389946245118e+02  2.918975276816622e+03
 1.156870000000000e+03 -2.281374077876965e+02  2.918975276816622e+03
 1.156870000000000e+03 -2.291358209508812e+02  2.918975276816622e+03
 1.156870000000000e+03 -2.301342341140658e+02  2.918975276816622e+03
 1.156870000000000e+03 -2.311326472772506e+02  2.918975276816622e+03
 1.156870000000000e+03 -2.321310604404353e+02  2.918975276816622e+03
 1.156870000000000e+03 -2.331294736036199e+02  2.918975276816622e+03
 1.156870000000000e+03 -2.341278867668046e+02  2.918975276816622e+03
 1.156870000000000e+03 -2.351262999299892e+02  2.918975276816622e+03
 1.156870000000000e+03 -2.361247130931739e+02  2.918975276816622e+03
 1.156870000000000e+03 -2.371231262563585e+02  2.918975276816622e+03
 1.156870000000000e+03 -2.381215394195432e+02  2.918975276816622e+03
 1.156870000000000e+03 -2.391199525827278e+02  2.918975276816622e+03
 1.156870000000000e+03 -2.401183657459127e+02  2.918975276816622e+03
 1.156870000000000e+03 -2.411167789090973e+02  2.918975276816622e+03
 1.156870000000000e+03 -2.421151920722820e+02  2.918975276816622e+03
 1.156870000000000e+03 -2.431136052354666e+02  2.918975276816622e+03
 1.156870000000000e+03 -2.441120183986513e+02  2.918975276816622e+03
 1.156870000000000e+03 -2.451104315618359e+02  2.918975276816622e+03
 1.156870000000000e+03 -2.461088447250206e+02  2.918975276816622e+03
 1.156870000000000e+03 -2.471072578882052e+02  2.918975276816622e+03
 1.156870000000000e+03 -2.481056710513899e+02  2.918975276816622e+03
 1.156870000000000e+03 -2.491040842145745e+02  2.918975276816622e+03
 1.156870000000000e+03 -2.501024973777592e+02  2.918975276816622e+03
 1.156870000000000e+03 -2.511009105409440e+02  2.918975276816622e+03
 1.156870000000000e+03 -2.520993237041286e+02  2.918975276816622e+03
 1.156870000000000e+03 -2.530977368673133e+02  2.918975276816622e+03
 1.156870000000000e+03 -2.540961500304980e+02  2.918975276816622e+03
 1.156870000000000e+03 -2.550945631936826e+02  2.918975276816622e+03
 1.156870000000000e+03 -2.560929763568673e+02  2.918975276816622e+03
 1.156870000000000e+03 -2.570913895200519e+02  2.918975276816622e+03
 1.156870000000000e+03 -2.580898026832365e+02  2.918975276816622e+03
 1.156870000000000e+03 -2.590882158464212e+02  2.918975276816622e+03
 1.156870000000000e+03 -2.600866290096058e+02  2.918975276816622e+03
 1.156870000000000e+03 -2.610850421727905e+02  2.918975276816622e+03
 1.156870000000000e+03 -2.620834553359753e+02  2.918975276816622e+03
 1.156870000000000e+03 -2.630818684991600e+02  2.918975276816622e+03
 1.156870000000000e+03 -2.640802816623446e+02  2.918975276816622e+03
 1.156870000000000e+03 -2.650786948255293e+02  2.918975276816622e+03
 1.156870000000000e+03 -2.660771079887139e+02  2.918975276816622e+03
 1.156870000000000e+03 -2.670755211518986e+02  2.918975276816622e+03
 1.156870000000000e+03 -2.680739343150832e+02  2.918975276816622e+03
 1.156870000000000e+03 -2.690723474782679e+02  2.918975276816622e+03
 1.156870000000000e+03 -2.700707606414525e+02  2.918975276816622e+03
 1.156870000000000e+03 -2.710691738046373e+02  2.918975276816622e+03
 1.156870000000000e+03 -2.720675869678220e+02  2.918975276816622e+03
 1.156870000000000e+03 -2.730660001310067e+02  2.918975276816622e+03
 1.156870000000000e+03 -2.740644132941913e+02  2.918975276816622e+03
 1.156870000000000e+03 -2.750628264573759e+02  2.918975276816622e+03
 1.156870000000000e+03 -2.760612396205606e+02  2.918975276816622e+03
 1.156870000000000e+03 -2.770596527837453e+02  2.918975276816622e+03
 1.156870000000000e+03 -2.780580659469299e+02  2.918975276816622e+03
 1.156870000000000e+03 -2.790564791101145e+02  2.918975276816622e+03
 1.156870000000000e+03 -2.800548922732992e+02  2.918975276816622e+03
 1.156870000000000e+03 -2.810533054364839e+02  2.918975276816622e+03
 1.156870000000000e+03 -2.820517185996687e+02  2.918975276816622e+03
 1.156870000000000e+03 -2.830501317628533e+02  2.918975276816622e+03
 1.156870000000000e+03 -2.840485449260380e+02  2.918975276816622e+03
 1.156870000000000e+03 -2.850469580892226e+02  2.918975276816622e+03
 1.156870000000000e+03 -2.860453712524073e+02  2.918975276816622e+03
 1.156870000000000e+03 -2.870437844155919e+02  2.918975276816622e+03
 1.156870000000000e+03 -2.880421975787768e+02  2.918975276816622e+03
 1.156870000000000e+03 -2.890406107419614e+02  2.918975276816622e+03
 1.156870000000000e+03 -2.900390239051459e+02  2.918975276816622e+03
 1.156870000000000e+03 -2.910374370683308e+02  2.918975276816622e+03
 1.156870000000000e+03 -2.920358502315154e+02  2.918975276816622e+03
 1.156870000000000e+03 -2.930342633947000e+02  2.918975276816622e+03
 1.156870000000000e+03 -2.940326765578849e+02  2.918975276816622e+03
 1.156870000000000e+03 -2.950310897210694e+02  2.918975276816622e+03
 1.156870000000000e+03 -2.960295028842540e+02  2.918975276816622e+03
 1.156870000000000e+03 -2.970279160474386e+02  2.918975276816622e+03
 1.156870000000000e+03 -2.980263292106234e+02  2.918975276816622e+03
 1.156870000000000e+03 -2.990247423738080e+02  2.918975276816622e+03
 1.156870000000000e+03 -3.000231555369926e+02  2.918975276816622e+03
 1.156870000000000e+03 -3.010215687001772e+02  2.918975276816622e+03
 1.156870000000000e+03 -3.020199818633620e+02  2.918975276816622e+03
 1.156870000000000e+03 -3.030183950265466e+02  2.918975276816622e+03
 1.156870000000000e+03 -3.040168081897312e+02  2.918975276816622e+03
 1.156870000000000e+03 -3.050152213529161e+02  2.918975276816622e+03
 1.156870000000000e+03 -3.060136345161006e+02  2.918975276816622e+03
 1.156870000000000e+03 -3.070120476792852e+02  2.918975276816622e+03
 1.156870000000000e+03 -3.080104608424699e+02  2.918975276816622e+03
 1.156870000000000e+03 -3.090088740056547e+02  2.918975276816622e+03
 1.156870000000000e+03 -3.100072871688392e+02  2.918975276816622e+03
 1.156870000000000e+03 -3.110057003320238e+02  2.918975276816622e+03
 1.156870000000000e+03 -3.120041134952087e+02  2.918975276816622e+03
 1.156870000000000e+03 -3.130025266583935e+02  2.918975276816622e+03
 1.156870000000000e+03 -3.140009398215778e+02  2.918975276816622e+03
 1.156870000000000e+03 -3.149993529847625e+02  2.918975276816622e+03
 1.156870000000000e+03 -3.159977661479473e+02  2.918975276816622e+03
 1.156870000000000e+03 -3.169961793111322e+02  2.918975276816622e+03
 1.156870000000000e+03 -3.179945924743165e+02  2.918975276816622e+03
 1.156870000000000e+03 -3.189930056375011e+02  2.918975276816622e+03
 1.156870000000000e+03 -3.199914188006859e+02  2.918975276816622e+03
 1.156870000000000e+03 -3.209898319638708e+02  2.918975276816622e+03
 1.156870000000000e+03 -3.219882451270553e+02  2.918975276816622e+03
 1.156870000000000e+03 -3.229866582902399e+02  2.918975276816622e+03
 1.156870000000000e+03 -3.239850714534248e+02  2.918975276816622e+03
 1.156870000000000e+03 -3.249834846166094e+02  2.918975276816622e+03
 1.156870000000000e+03 -3.259818977797939e+02  2.918975276816622e+03
 1.156870000000000e+03 -3.269803109429785e+02  2.918975276816622e+03
 1.156870000000000e+03 -3.279787241061634e+02  2.918975276816622e+03
 1.156870000000000e+03 -3.289771372693480e+02  2.918975276816622e+03
 1.156870000000000e+03 -3.299755504325325e+02  2.918975276816622e+03
 1.156870000000000e+03 -3.309739635957174e+02  2.918975276816622e+03
 1.156870000000000e+03 -3.319723767589020e+02  2.918975276816622e+03
 1.156870000000000e+03 -3.329707899220866e+02  2.918975276816622e+03
 1.156870000000000e+03 -3.339692030852712e+02  2.918975276816622e+03
 1.156870000000000e+03 -3.349676162484560e+02  2.918975276816622e+03
 1.156870000000000e+03 -3.359660294116406e+02  2.918975276816622e+03
 1.156870000000000e+03 -3.369644425748252e+02  2.918975276816622e+03
 1.156870000000000e+03 -3.379628557380098e+02  2.918975276816622e+03
 1.156870000000000e+03 -3.389612689011946e+02  2.918975276816622e+03
 1.156870000000000e+03 -3.399596820643792e+02  2.918975276816622e+03
 1.156870000000000e+03 -3.409580952275641e+02  2.918975276816622e+03
 1.156870000000000e+03 -3.419565083907486e+02  2.918975276816622e+03
 1.156870000000000e+03 -3.429549215539332e+02  2.918975276816622e+03
 1.156870000000000e+03 -3.439533347171179e+02  2.918975276816622e+03
 1.156870000000000e+03 -3.449517478803027e+02  2.918975276816622e+03
 1.156870000000000e+03 -3.459501610434872e+02  2.918975276816622e+03
 1.156870000000000e+03 -3.469485742066719e+02  2.918975276816622e+03
 1.156870000000000e+03 -3.479469873698565e+02  2.918975276816622e+03
 1.156870000000000e+03 -3.489454005330413e+02  2.918975276816622e+03
 1.156870000000000e+03 -3.499438136962259e+02  2.918975276816622e+03
 1.156870000000000e+03 -3.509422268594107e+02  2.918975276816622e+03
 1.156870000000000e+03 -3.519406400225953e+02  2.918975276816622e+03
 1.156870000000000e+03 -3.529390531857802e+02  2.918975276816622e+03
 1.156870000000000e+03 -3.539374663489648e+02  2.918975276816622e+03
 1.156870000000000e+03 -3.549358795121493e+02  2.918975276816622e+03
 1.156870000000000e+03 -3.559342926753339e+02  2.918975276816622e+03
 1.156870000000000e+03 -3.569327058385188e+02  2.918975276816622e+03
 1.156870000000000e+03 -3.579311190017034e+02  2.918975276816622e+03
 1.156870000000000e+03 -3.589295321648879e+02  2.918975276816622e+03
 1.156870000000000e+03 -3.599279453280726e+02  2.918975276816622e+03
 1.156870000000000e+03 -3.609263584912574e+02  2.918975276816622e+03
 1.156870000000000e+03 -3.619247716544423e+02  2.918975276816622e+03
 1.156870000000000e+03 -3.629231848176269e+02  2.918975276816622e+03
 1.156870000000000e+03 -3.639215979808114e+02  2.918975276816622e+03
 1.156870000000000e+03 -3.649200111439960e+02  2.918975276816622e+03
 1.156870000000000e+03 -3.659184243071809e+02  2.918975276816622e+03
 1.156870000000000e+03 -3.669168374703654e+02  2.918975276816622e+03
 1.156870000000000e+03 -3.679152506335501e+02  2.918975276816622e+03
 1.156870000000000e+03 -3.689136637967347e+02  2.918975276816622e+03
 1.156870000000000e+03 -3.699120769599193e+02  2.918975276816622e+03
 1.156870000000000e+03 -3.709104901231044e+02  2.918975276816622e+03
 1.156870000000000e+03 -3.719089032862887e+02  2.918975276816622e+03
 1.156870000000000e+03 -3.729073164494735e+02  2.918975276816622e+03
 1.156870000000000e+03 -3.739057296126580e+02  2.918975276816622e+03
 1.156870000000000e+03 -3.749041427758430e+02  2.918975276816622e+03
 1.156870000000000e+03 -3.759025559390273e+02  2.918975276816622e+03
 1.156870000000000e+03 -3.769009691022121e+02  2.918975276816622e+03
 1.156870000000000e+03 -3.778993822653966e+02  2.918975276816622e+03
 1.156870000000000e+03 -3.788977954285816e+02  2.918975276816622e+03
 1.156870000000000e+03 -3.798962085917659e+02  2.918975276816622e+03
 1.156870000000000e+03 -3.808946217549507e+02  2.918975276816622e+03
 1.156870000000000e+03 -3.818930349181352e+02  2.918975276816622e+03
 1.156870000000000e+03 -3.828914480813202e+02  2.918975276816622e+03
 1.156870000000000e+03 -3.838898612445048e+02  2.918975276816622e+03
 1.156870000000000e+03 -3.848882744076893e+02  2.918975276816622e+03
 1.156870000000000e+03 -3.858866875708745e+02  2.918975276816622e+03
1.156870000000000e+03 3.858866875708736e+02 2.918975276816622e+03
1.156870000000000e+03 3.848882744076896e+02 2.918975276816622e+03
1.156870000000000e+03 3.838898612445053e+02 2.918975276816622e+03
1.156870000000000e+03 3.828914480813205e+02 2.918975276816622e+03
1.156870000000000e+03 3.818930349181359e+02 2.918975276816622e+03
1.156870000000000e+03 3.808946217549507e+02 2.918975276816622e+03
1.156870000000000e+03 3.798962085917664e+02 2.918975276816622e+03
1.156870000000000e+03 3.788977954285816e+02 2.918975276816622e+03
1.156870000000000e+03 3.778993822653970e+02 2.918975276816622e+03
1.156870000000000e+03 3.769009691022121e+02 2.918975276816622e+03
1.156870000000000e+03 3.759025559390279e+02 2.918975276816622e+03
1.156870000000000e+03 3.749041427758430e+02 2.918975276816622e+03
1.156870000000000e+03 3.739057296126584e+02 2.918975276816622e+03
1.156870000000000e+03 3.729073164494738e+02 2.918975276816622e+03
1.156870000000000e+03 3.719089032862893e+02 2.918975276816622e+03
1.156870000000000e+03 3.709104901231044e+02 2.918975276816622e+03
1.156870000000000e+03 3.699120769599194e+02 2.918975276816622e+03
1.156870000000000e+03 3.689136637967349e+02 2.918975276816622e+03
1.156870000000000e+03 3.679152506335503e+02 2.918975276816622e+03
1.156870000000000e+03 3.669168374703657e+02 2.918975276816622e+03
1.156870000000000e+03 3.659184243071809e+02 2.918975276816622e+03
1.156870000000000e+03 3.649200111439962e+02 2.918975276816622e+03
1.156870000000000e+03 3.639215979808117e+02 2.918975276816622e+03
1.156870000000000e+03 3.629231848176271e+02 2.918975276816622e+03
1.156870000000000e+03 3.619247716544423e+02 2.918975276816622e+03
1.156870000000000e+03 3.609263584912577e+02 2.918975276816622e+03
1.156870000000000e+03 3.599279453280728e+02 2.918975276816622e+03
1.156870000000000e+03 3.589295321648883e+02 2.918975276816622e+03
1.156870000000000e+03 3.579311190017037e+02 2.918975276816622e+03
1.156870000000000e+03 3.569327058385191e+02 2.918975276816622e+03
1.156870000000000e+03 3.559342926753342e+02 2.918975276816622e+03
1.156870000000000e+03 3.549358795121497e+02 2.918975276816622e+03
1.156870000000000e+03 3.539374663489651e+02 2.918975276816622e+03
1.156870000000000e+03 3.529390531857805e+02 2.918975276816622e+03
1.156870000000000e+03 3.519406400225956e+02 2.918975276816622e+03
1.156870000000000e+03 3.509422268594111e+02 2.918975276816622e+03
1.156870000000000e+03 3.499438136962265e+02 2.918975276816622e+03
1.156870000000000e+03 3.489454005330415e+02 2.918975276816622e+03
1.156870000000000e+03 3.479469873698570e+02 2.918975276816622e+03
1.156870000000000e+03 3.469485742066724e+02 2.918975276816622e+03
1.156870000000000e+03 3.459501610434879e+02 2.918975276816622e+03
1.156870000000000e+03 3.449517478803029e+02 2.918975276816622e+03
1.156870000000000e+03 3.439533347171184e+02 2.918975276816622e+03
1.156870000000000e+03 3.429549215539338e+02 2.918975276816622e+03
1.156870000000000e+03 3.419565083907493e+02 2.918975276816622e+03
1.156870000000000e+03 3.409580952275643e+02 2.918975276816622e+03
1.156870000000000e+03 3.399596820643795e+02 2.918975276816622e+03
1.156870000000000e+03 3.389612689011950e+02 2.918975276816622e+03
1.156870000000000e+03 3.379628557380104e+02 2.918975276816622e+03
1.156870000000000e+03 3.369644425748257e+02 2.918975276816622e+03
1.156870000000000e+03 3.359660294116409e+02 2.918975276816622e+03
1.156870000000000e+03 3.349676162484564e+02 2.918975276816622e+03
1.156870000000000e+03 3.339692030852718e+02 2.918975276816622e+03
1.156870000000000e+03 3.329707899220871e+02 2.918975276816622e+03
1.156870000000000e+03 3.319723767589023e+02 2.918975276816622e+03
1.156870000000000e+03 3.309739635957177e+02 2.918975276816622e+03
1.156870000000000e+03 3.299755504325329e+02 2.918975276816622e+03
1.156870000000000e+03 3.289771372693482e+02 2.918975276816622e+03
1.156870000000000e+03 3.279787241061634e+02 2.918975276816622e+03
1.156870000000000e+03 3.269803109429788e+02 2.918975276816622e+03
1.156870000000000e+03 3.259818977797943e+02 2.918975276816622e+03
1.156870000000000e+03 3.249834846166096e+02 2.918975276816622e+03
1.156870000000000e+03 3.239850714534248e+02 2.918975276816622e+03
1.156870000000000e+03 3.229866582902402e+02 2.918975276816622e+03
1.156870000000000e+03 3.219882451270557e+02 2.918975276816622e+03
1.156870000000000e+03 3.209898319638708e+02 2.918975276816622e+03
1.156870000000000e+03 3.199914188006862e+02 2.918975276816622e+03
1.156870000000000e+03 3.189930056375016e+02 2.918975276816622e+03
1.156870000000000e+03 3.179945924743167e+02 2.918975276816622e+03
1.156870000000000e+03 3.169961793111322e+02 2.918975276816622e+03
1.156870000000000e+03 3.159977661479476e+02 2.918975276816622e+03
1.156870000000000e+03 3.149993529847630e+02 2.918975276816622e+03
1.156870000000000e+03 3.140009398215781e+02 2.918975276816622e+03
1.156870000000000e+03 3.130025266583935e+02 2.918975276816622e+03
1.156870000000000e+03 3.120041134952090e+02 2.918975276816622e+03
1.156870000000000e+03 3.110057003320244e+02 2.918975276816622e+03
1.156870000000000e+03 3.100072871688395e+02 2.918975276816622e+03
1.156870000000000e+03 3.090088740056549e+02 2.918975276816622e+03
1.156870000000000e+03 3.080104608424704e+02 2.918975276816622e+03
1.156870000000000e+03 3.070120476792855e+02 2.918975276816622e+03
1.156870000000000e+03 3.060136345161010e+02 2.918975276816622e+03
1.156870000000000e+03 3.050152213529163e+02 2.918975276816622e+03
1.156870000000000e+03 3.040168081897318e+02 2.918975276816622e+03
1.156870000000000e+03 3.030183950265469e+02 2.918975276816622e+03
1.156870000000000e+03 3.020199818633624e+02 2.918975276816622e+03
1.156870000000000e+03 3.010215687001777e+02 2.918975276816622e+03
1.156870000000000e+03 3.000231555369929e+02 2.918975276816622e+03
1.156870000000000e+03 2.990247423738080e+02 2.918975276816622e+03
1.156870000000000e+03 2.980263292106234e+02 2.918975276816622e+03
1.156870000000000e+03 2.970279160474391e+02 2.918975276816622e+03
1.156870000000000e+03 2.960295028842543e+02 2.918975276816622e+03
1.156870000000000e+03 2.950310897210694e+02 2.918975276816622e+03
1.156870000000000e+03 2.940326765578849e+02 2.918975276816622e+03
1.156870000000000e+03 2.930342633947005e+02 2.918975276816622e+03
1.156870000000000e+03 2.920358502315157e+02 2.918975276816622e+03
1.156870000000000e+03 2.910374370683308e+02 2.918975276816622e+03
1.156870000000000e+03 2.900390239051463e+02 2.918975276816622e+03
1.156870000000000e+03 2.890406107419616e+02 2.918975276816622e+03
1.156870000000000e+03 2.880421975787768e+02 2.918975276816622e+03
1.156870000000000e+03 2.870437844155922e+02 2.918975276816622e+03
1.156870000000000e+03 2.860453712524076e+02 2.918975276816622e+03
1.156870000000000e+03 2.850469580892230e+02 2.918975276816622e+03
1.156870000000000e+03 2.840485449260383e+02 2.918975276816622e+03
1.156870000000000e+03 2.830501317628537e+02 2.918975276816622e+03
1.156870000000000e+03 2.820517185996690e+02 2.918975276816622e+03
1.156870000000000e+03 2.810533054364842e+02 2.918975276816622e+03
1.156870000000000e+03 2.800548922732995e+02 2.918975276816622e+03
1.156870000000000e+03 2.790564791101149e+02 2.918975276816622e+03
1.156870000000000e+03 2.780580659469302e+02 2.918975276816622e+03
1.156870000000000e+03 2.770596527837456e+02 2.918975276816622e+03
1.156870000000000e+03 2.760612396205609e+02 2.918975276816622e+03
1.156870000000000e+03 2.750628264573763e+02 2.918975276816622e+03
1.156870000000000e+03 2.740644132941916e+02 2.918975276816622e+03
1.156870000000000e+03 2.730660001310069e+02 2.918975276816622e+03
1.156870000000000e+03 2.720675869678223e+02 2.918975276816622e+03
1.156870000000000e+03 2.710691738046377e+02 2.918975276816622e+03
1.156870000000000e+03 2.700707606414529e+02 2.918975276816622e+03
1.156870000000000e+03 2.690723474782682e+02 2.918975276816622e+03
1.156870000000000e+03 2.680739343150835e+02 2.918975276816622e+03
1.156870000000000e+03 2.670755211518989e+02 2.918975276816622e+03
1.156870000000000e+03 2.660771079887143e+02 2.918975276816622e+03
1.156870000000000e+03 2.650786948255296e+02 2.918975276816622e+03
1.156870000000000e+03 2.640802816623449e+02 2.918975276816622e+03
1.156870000000000e+03 2.630818684991603e+02 2.918975276816622e+03
1.156870000000000e+03 2.620834553359757e+02 2.918975276816622e+03
1.156870000000000e+03 2.610850421727908e+02 2.918975276816622e+03
1.156870000000000e+03 2.600866290096062e+02 2.918975276816622e+03
1.156870000000000e+03 2.590882158464215e+02 2.918975276816622e+03
1.156870000000000e+03 2.580898026832369e+02 2.918975276816622e+03
1.156870000000000e+03 2.570913895200522e+02 2.918975276816622e+03
1.156870000000000e+03 2.560929763568676e+02 2.918975276816622e+03
1.156870000000000e+03 2.550945631936829e+02 2.918975276816622e+03
1.156870000000000e+03 2.540961500304983e+02 2.918975276816622e+03
1.156870000000000e+03 2.530977368673136e+02 2.918975276816622e+03
1.156870000000000e+03 2.520993237041289e+02 2.918975276816622e+03
1.156870000000000e+03 2.511009105409443e+02 2.918975276816622e+03
1.156870000000000e+03 2.501024973777595e+02 2.918975276816622e+03
1.156870000000000e+03 2.491040842145749e+02 2.918975276816622e+03
1.156870000000000e+03 2.481056710513902e+02 2.918975276816622e+03
1.156870000000000e+03 2.471072578882056e+02 2.918975276816622e+03
1.156870000000000e+03 2.461088447250209e+02 2.918975276816622e+03
1.156870000000000e+03 2.451104315618362e+02 2.918975276816622e+03
1.156870000000000e+03 2.441120183986516e+02 2.918975276816622e+03
1.156870000000000e+03 2.431136052354669e+02 2.918975276816622e+03
1.156870000000000e+03 2.421151920722823e+02 2.918975276816622e+03
1.156870000000000e+03 2.411167789090976e+02 2.918975276816622e+03
1.156870000000000e+03 2.401183657459130e+02 2.918975276816622e+03
1.156870000000000e+03 2.391199525827282e+02 2.918975276816622e+03
1.156870000000000e+03 2.381215394195435e+02 2.918975276816622e+03
1.156870000000000e+03 2.371231262563589e+02 2.918975276816622e+03
1.156870000000000e+03 2.361247130931742e+02 2.918975276816622e+03
1.156870000000000e+03 2.351262999299896e+02 2.918975276816622e+03
1.156870000000000e+03 2.341278867668049e+02 2.918975276816622e+03
1.156870000000000e+03 2.331294736036203e+02 2.918975276816622e+03
1.156870000000000e+03 2.321310604404356e+02 2.918975276816622e+03
1.156870000000000e+03 2.311326472772510e+02 2.918975276816622e+03
1.156870000000000e+03 2.301342341140661e+02 2.918975276816622e+03
1.156870000000000e+03 2.291358209508815e+02 2.918975276816622e+03
1.156870000000000e+03 2.281374077876968e+02 2.918975276816622e+03
1.156870000000000e+03 2.271389946245122e+02 2.918975276816622e+03
1.156870000000000e+03 2.261405814613275e+02 2.918975276816622e+03
1.156870000000000e+03 2.251421682981429e+02 2.918975276816622e+03
1.156870000000000e+03 2.241437551349582e+02 2.918975276816622e+03
1.156870000000000e+03 2.231453419717736e+02 2.918975276816622e+03
1.156870000000000e+03 2.221469288085889e+02 2.918975276816622e+03
1.156870000000000e+03 2.211485156454043e+02 2.918975276816622e+03
1.156870000000000e+03 2.201501024822196e+02 2.918975276816622e+03
1.156870000000000e+03 2.191516893190348e+02 2.918975276816622e+03
1.156870000000000e+03 2.181532761558501e+02 2.918975276816622e+03
1.156870000000000e+03 2.171548629926655e+02 2.918975276816622e+03
1.156870000000000e+03 2.161564498294808e+02 2.918975276816622e+03
1.156870000000000e+03 2.151580366662962e+02 2.918975276816622e+03
1.156870000000000e+03 2.141596235031115e+02 2.918975276816622e+03
1.156870000000000e+03 2.131612103399269e+02 2.918975276816622e+03
1.156870000000000e+03 2.121627971767423e+02 2.918975276816622e+03
1.156870000000000e+03 2.111643840135576e+02 2.918975276816622e+03
1.156870000000000e+03 2.101659708503728e+02 2.918975276816622e+03
1.156870000000000e+03 2.091675576871882e+02 2.918975276816622e+03
1.156870000000000e+03 2.081691445240035e+02 2.918975276816622e+03
1.156870000000000e+03 2.071707313608188e+02 2.918975276816622e+03
1.156870000000000e+03 2.061723181976342e+02 2.918975276816622e+03
1.156870000000000e+03 2.051739050344495e+02 2.918975276816622e+03
1.156870000000000e+03 2.041754918712649e+02 2.918975276816622e+03
1.156870000000000e+03 2.031770787080802e+02 2.918975276816622e+03
1.156870000000000e+03 2.021786655448956e+02 2.918975276816622e+03
1.156870000000000e+03 2.011802523817109e+02 2.918975276816622e+03
1.156870000000000e+03 2.001818392185263e+02 2.918975276816622e+03
1.156870000000000e+03 1.991834260553415e+02 2.918975276816622e+03
1.156870000000000e+03 1.981850128921568e+02 2.918975276816622e+03
1.156870000000000e+03 1.971865997289722e+02 2.918975276816622e+03
1.156870000000000e+03 1.961881865657875e+02 2.918975276816622e+03
1.156870000000000e+03 1.951897734026028e+02 2.918975276816622e+03
1.156870000000000e+03 1.941913602394182e+02 2.918975276816622e+03
1.156870000000000e+03 1.931929470762335e+02 2.918975276816622e+03
1.156870000000000e+03 1.921945339130489e+02 2.918975276816622e+03
1.156870000000000e+03 1.911961207498642e+02 2.918975276816622e+03
1.156870000000000e+03 1.901977075866794e+02 2.918975276816622e+03
1.156870000000000e+03 1.891992944234948e+02 2.918975276816622e+03
1.156870000000000e+03 1.882008812603101e+02 2.918975276816622e+03
1.156870000000000e+03 1.872024680971255e+02 2.918975276816622e+03
1.156870000000000e+03 1.862040549339408e+02 2.918975276816622e+03
1.156870000000000e+03 1.852056417707562e+02 2.918975276816622e+03
1.156870000000000e+03 1.842072286075715e+02 2.918975276816622e+03
1.156870000000000e+03 1.832088154443869e+02 2.918975276816622e+03
1.156870000000000e+03 1.822104022812022e+02 2.918975276816622e+03
1.156870000000000e+03 1.812119891180176e+02 2.918975276816622e+03
1.156870000000000e+03 1.802135759548329e+02 2.918975276816622e+03
1.156870000000000e+03 1.792151627916481e+02 2.918975276816622e+03
1.156870000000000e+03 1.782167496284635e+02 2.918975276816622e+03
1.156870000000000e+03 1.772183364652788e+02 2.918975276816622e+03
1.156870000000000e+03 1.762199233020942e+02 2.918975276816622e+03
1.156870000000000e+03 1.752215101389095e+02 2.918975276816622e+03
1.156870000000000e+03 1.742230969757249e+02 2.918975276816622e+03
1.156870000000000e+03 1.732246838125402e+02 2.918975276816622e+03
1.156870000000000e+03 1.722262706493556e+02 2.918975276816622e+03
1.156870000000000e+03 1.712278574861709e+02 2.918975276816622e+03
1.156870000000000e+03 1.702294443229861e+02 2.918975276816622e+03
1.156870000000000e+03 1.692310311598014e+02 2.918975276816622e+03
1.156870000000000e+03 1.682326179966168e+02 2.918975276816622e+03
1.156870000000000e+03 1.672342048334321e+02 2.918975276816622e+03
1.156870000000000e+03 1.662357916702475e+02 2.918975276816622e+03
1.156870000000000e+03 1.652373785070628e+02 2.918975276816622e+03
1.156870000000000e+03 1.642389653438782e+02 2.918975276816622e+03
1.156870000000000e+03 1.632405521806935e+02 2.918975276816622e+03
1.156870000000000e+03 1.622421390175089e+02 2.918975276816622e+03
1.156870000000000e+03 1.612437258543242e+02 2.918975276816622e+03
1.156870000000000e+03 1.602453126911396e+02 2.918975276816622e+03
1.156870000000000e+03 1.592468995279548e+02 2.918975276816622e+03
1.156870000000000e+03 1.582484863647701e+02 2.918975276816622e+03
1.156870000000000e+03 1.572500732015855e+02 2.918975276816622e+03
1.156870000000000e+03 1.562516600384008e+02 2.918975276816622e+03
1.156870000000000e+03 1.552532468752161e+02 2.918975276816622e+03
1.156870000000000e+03 1.542548337120315e+02 2.918975276816622e+03
1.156870000000000e+03 1.532564205488468e+02 2.918975276816622e+03
1.156870000000000e+03 1.522580073856622e+02 2.918975276816622e+03
1.156870000000000e+03 1.512595942224775e+02 2.918975276816622e+03
1.156870000000000e+03 1.502611810592927e+02 2.918975276816622e+03
1.156870000000000e+03 1.492627678961081e+02 2.918975276816622e+03
1.156870000000000e+03 1.482643547329234e+02 2.918975276816622e+03
1.156870000000000e+03 1.472659415697387e+02 2.918975276816622e+03
1.156870000000000e+03 1.462675284065541e+02 2.918975276816622e+03
1.156870000000000e+03 1.452691152433695e+02 2.918975276816622e+03
1.156870000000000e+03 1.442707020801848e+02 2.918975276816622e+03
1.156870000000000e+03 1.432722889170001e+02 2.918975276816622e+03
1.156870000000000e+03 1.422738757538155e+02 2.918975276816622e+03
1.156870000000000e+03 1.412754625906308e+02 2.918975276816622e+03
1.156870000000000e+03 1.402770494274462e+02 2.918975276816622e+03
1.156870000000000e+03 1.392786362642614e+02 2.918975276816622e+03
1.156870000000000e+03 1.382802231010767e+02 2.918975276816622e+03
1.156870000000000e+03 1.372818099378921e+02 2.918975276816622e+03
1.156870000000000e+03 1.362833967747074e+02 2.918975276816622e+03
1.156870000000000e+03 1.352849836115228e+02 2.918975276816622e+03
1.156870000000000e+03 1.342865704483381e+02 2.918975276816622e+03
1.156870000000000e+03 1.332881572851535e+02 2.918975276816622e+03
1.156870000000000e+03 1.322897441219688e+02 2.918975276816622e+03
1.156870000000000e+03 1.312913309587842e+02 2.918975276816622e+03
1.156870000000000e+03 1.302929177955994e+02 2.918975276816622e+03
1.156870000000000e+03 1.292945046324147e+02 2.918975276816622e+03
1.156870000000000e+03 1.282960914692301e+02 2.918975276816622e+03
1.156870000000000e+03 1.272976783060454e+02 2.918975276816622e+03
1.156870000000000e+03 1.262992651428608e+02 2.918975276816622e+03
1.156870000000000e+03 1.253008519796761e+02 2.918975276816622e+03
1.156870000000000e+03 1.243024388164915e+02 2.918975276816622e+03
1.156870000000000e+03 1.233040256533068e+02 2.918975276816622e+03
1.156870000000000e+03 1.223056124901222e+02 2.918975276816622e+03
1.156870000000000e+03 1.213071993269375e+02 2.918975276816622e+03
1.156870000000000e+03 1.203087861637529e+02 2.918975276816622e+03
1.156870000000000e+03 1.193103730005680e+02 2.918975276816622e+03
1.156870000000000e+03 1.183119598373834e+02 2.918975276816622e+03
1.156870000000000e+03 1.173135466741987e+02 2.918975276816622e+03
1.156870000000000e+03 1.163151335110141e+02 2.918975276816622e+03
1.156870000000000e+03 1.153167203478294e+02 2.918975276816622e+03
1.156870000000000e+03 1.143183071846448e+02 2.918975276816622e+03
1.156870000000000e+03 1.133198940214601e+02 2.918975276816622e+03
1.156870000000000e+03 1.123214808582755e+02 2.918975276816622e+03
1.156870000000000e+03 1.113230676950908e+02 2.918975276816622e+03
1.156870000000000e+03 1.103246545319060e+02 2.918975276816622e+03
1.156870000000000e+03 1.093262413687214e+02 2.918975276816622e+03
1.156870000000000e+03 1.083278282055367e+02 2.918975276816622e+03
1.156870000000000e+03 1.073294150423521e+02 2.918975276816622e+03
1.156870000000000e+03 1.063310018791674e+02 2.918975276816622e+03
1.156870000000000e+03 1.053325887159828e+02 2.918975276816622e+03
1.156870000000000e+03 1.043341755527981e+02 2.918975276816622e+03
1.156870000000000e+03 1.033357623896135e+02 2.918975276816622e+03
1.156870000000000e+03 1.023373492264288e+02 2.918975276816622e+03
1.156870000000000e+03 1.013389360632441e+02 2.918975276816622e+03
1.156870000000000e+03 1.003405229000595e+02 2.918975276816622e+03
1.156870000000000e+03 9.934210973687469e+01 2.918975276816622e+03
1.156870000000000e+03 9.834369657369007e+01 2.918975276816622e+03
1.156870000000000e+03 9.734528341050537e+01 2.918975276816622e+03
1.156870000000000e+03 9.634687024732077e+01 2.918975276816622e+03
1.156870000000000e+03 9.534845708413607e+01 2.918975276816622e+03
1.156870000000000e+03 9.435004392095145e+01 2.918975276816622e+03
1.156870000000000e+03 9.335163075776678e+01 2.918975276816622e+03
1.156870000000000e+03 9.235321759458215e+01 2.918975276816622e+03
1.156870000000000e+03 9.135480443139748e+01 2.918975276816622e+03
1.156870000000000e+03 9.035639126821266e+01 2.918975276816622e+03
1.156870000000000e+03 8.935797810502800e+01 2.918975276816622e+03
1.156870000000000e+03 8.835956494184336e+01 2.918975276816622e+03
1.156870000000000e+03 8.736115177865869e+01 2.918975276816622e+03
1.156870000000000e+03 8.636273861547406e+01 2.918975276816622e+03
1.156870000000000e+03 8.536432545228939e+01 2.918975276816622e+03
1.156870000000000e+03 8.436591228910476e+01 2.918975276816622e+03
1.156870000000000e+03 8.336749912592009e+01 2.918975276816622e+03
1.156870000000000e+03 8.236908596273545e+01 2.918975276816622e+03
1.156870000000000e+03 8.137067279955080e+01 2.918975276816622e+03
1.156870000000000e+03 8.037225963636615e+01 2.918975276816622e+03
1.156870000000000e+03 7.937384647318135e+01 2.918975276816622e+03
1.156870000000000e+03 7.837543330999671e+01 2.918975276816622e+03
1.156870000000000e+03 7.737702014681204e+01 2.918975276816622e+03
1.156870000000000e+03 7.637860698362741e+01 2.918975276816622e+03
1.156870000000000e+03 7.538019382044274e+01 2.918975276816622e+03
1.156870000000000e+03 7.438178065725810e+01 2.918975276816622e+03
1.156870000000000e+03 7.338336749407343e+01 2.918975276816622e+03
1.156870000000000e+03 7.238495433088880e+01 2.918975276816622e+03
1.156870000000000e+03 7.138654116770414e+01 2.918975276816622e+03
1.156870000000000e+03 7.038812800451930e+01 2.918975276816622e+03
1.156870000000000e+03 6.938971484133465e+01 2.918975276816622e+03
1.156870000000000e+03 6.839130167815000e+01 2.918975276816622e+03
1.156870000000000e+03 6.739288851496535e+01 2.918975276816622e+03
1.156870000000000e+03 6.639447535178070e+01 2.918975276816622e+03
1.156870000000000e+03 6.539606218859605e+01 2.918975276816622e+03
1.156870000000000e+03 6.439764902541138e+01 2.918975276816622e+03
1.156870000000000e+03 6.339923586222675e+01 2.918975276816622e+03
1.156870000000000e+03 6.240082269904209e+01 2.918975276816622e+03
1.156870000000000e+03 6.140240953585744e+01 2.918975276816622e+03
1.156870000000000e+03 6.040399637267278e+01 2.918975276816622e+03
1.156870000000000e+03 5.940558320948797e+01 2.918975276816622e+03
1.156870000000000e+03 5.840717004630331e+01 2.918975276816622e+03
1.156870000000000e+03 5.740875688311867e+01 2.918975276816622e+03
1.156870000000000e+03 5.641034371993400e+01 2.918975276816622e+03
1.156870000000000e+03 5.541193055674936e+01 2.918975276816622e+03
1.156870000000000e+03 5.441351739356470e+01 2.918975276816622e+03
1.156870000000000e+03 5.341510423038006e+01 2.918975276816622e+03
1.156870000000000e+03 5.241669106719540e+01 2.918975276816622e+03
1.156870000000000e+03 5.141827790401076e+01 2.918975276816622e+03
1.156870000000000e+03 5.041986474082596e+01 2.918975276816622e+03
1.156870000000000e+03 4.942145157764131e+01 2.918975276816622e+03
1.156870000000000e+03 4.842303841445665e+01 2.918975276816622e+03
1.156870000000000e+03 4.742462525127200e+01 2.918975276816622e+03
1.156870000000000e+03 4.642621208808735e+01 2.918975276816622e+03
1.156870000000000e+03 4.542779892490271e+01 2.918975276816622e+03
1.156870000000000e+03 4.442938576171804e+01 2.918975276816622e+03
1.156870000000000e+03 4.343097259853341e+01 2.918975276816622e+03
1.156870000000000e+03 4.243255943534874e+01 2.918975276816622e+03
1.156870000000000e+03 4.143414627216410e+01 2.918975276816622e+03
1.156870000000000e+03 4.043573310897943e+01 2.918975276816622e+03
1.156870000000000e+03 3.943731994579463e+01 2.918975276816622e+03
1.156870000000000e+03 3.843890678260995e+01 2.918975276816622e+03
1.156870000000000e+03 3.744049361942532e+01 2.918975276816622e+03
1.156870000000000e+03 3.644208045624065e+01 2.918975276816622e+03
1.156870000000000e+03 3.544366729305602e+01 2.918975276816622e+03
1.156870000000000e+03 3.444525412987135e+01 2.918975276816622e+03
1.156870000000000e+03 3.344684096668671e+01 2.918975276816622e+03
1.156870000000000e+03 3.244842780350205e+01 2.918975276816622e+03
1.156870000000000e+03 3.145001464031742e+01 2.918975276816622e+03
1.156870000000000e+03 3.045160147713261e+01 2.918975276816622e+03
1.156870000000000e+03 2.945318831394797e+01 2.918975276816622e+03
1.156870000000000e+03 2.845477515076330e+01 2.918975276816622e+03
1.156870000000000e+03 2.745636198757865e+01 2.918975276816622e+03
1.156870000000000e+03 2.645794882439399e+01 2.918975276816622e+03
1.156870000000000e+03 2.545953566120934e+01 2.918975276816622e+03
1.156870000000000e+03 2.446112249802469e+01 2.918975276816622e+03
1.156870000000000e+03 2.346270933484004e+01 2.918975276816622e+03
1.156870000000000e+03 2.246429617165539e+01 2.918975276816622e+03
1.156870000000000e+03 2.146588300847074e+01 2.918975276816622e+03
1.156870000000000e+03 2.046746984528609e+01 2.918975276816622e+03
1.156870000000000e+03 1.946905668210128e+01 2.918975276816622e+03
1.156870000000000e+03 1.847064351891662e+01 2.918975276816622e+03
1.156870000000000e+03 1.747223035573197e+01 2.918975276816622e+03
1.156870000000000e+03 1.647381719254732e+01 2.918975276816622e+03
1.156870000000000e+03 1.547540402936267e+01 2.918975276816622e+03
1.156870000000000e+03 1.447699086617802e+01 2.918975276816622e+03
1.156870000000000e+03 1.347857770299336e+01 2.918975276816622e+03
1.156870000000000e+03 1.248016453980871e+01 2.918975276816622e+03
1.156870000000000e+03 1.148175137662406e+01 2.918975276816622e+03
1.156870000000000e+03 1.048333821343925e+01 2.918975276816622e+03
1.156870000000000e+03 9.484925050254594e+00 2.918975276816622e+03
1.156870000000000e+03 8.486511887069945e+00 2.918975276816622e+03
1.156870000000000e+03 7.488098723885294e+00 2.918975276816622e+03
1.156870000000000e+03 6.489685560700642e+00 2.918975276816622e+03
1.156870000000000e+03 5.491272397515990e+00 2.918975276816622e+03
1.156870000000000e+03 4.492859234331339e+00 2.918975276816622e+03
1.156870000000000e+03 3.494446071146688e+00 2.918975276816622e+03
1.156870000000000e+03 2.496032907962034e+00 2.918975276816622e+03
1.156870000000000e+03 1.497619744777384e+00 2.918975276816622e+03

CELLS 3096 12384
3 6 3106 7
3 6 3107 780
3 7 3108 8
3 8 3109 9
3 9 3110 10
3 10 3111 11
3 11 3112 12
3 12 3113 13
3 13 3114 14
3 14 3115 15
3 15 3116 16
3 16 3117 17
3 17 3118 18
3 18 3119 19
3 19 3120 20
3 20 3121 21
3 21 3122 22
3 22 3123 23
3 23 3124 24
3 24 3125 25
3 25 3126 26
3 26 3127 27
3 27 3128 28
3 28 3129 29
3 29 3130 30
3 30 3131 31
3 31 3132 32
3 32 3133 33
3 33 3134 34
3 34 3135 35
3 35 3136 36
3 36 3137 37
3 37 3138 38
3 38 3139 39
3 39 3140 40
3 40 3141 41
3 41 3142 42
3 42 3143 43
3 43 3144 44
3 44 3145 45
3 45 3146 46
3 46 3147 47
3 47 3148 48
3 48 3149 49
3 49 3150 50
3 50 3151 51
3 51 3152 52
3 52 3153 53
3 53 3154 54
3 54 3155 55
3 55 3156 56
3 56 3157 57
3 57 3158 58
3 58 3159 59
3 59 3160 60
3 60 3161 61
3 61 3162 62
3 62 3163 63
3 63 3164 64
3 64 3165 65
3 65 3166 66
3 66 3167 67
3 67 3168 68
3 68 3169 69
3 69 3170 70
3 70 3171 71
3 71 3172 72
3 72 3173 73
3 73 3174 74
3 74 3175 75
3 75 3176 76
3 76 3177 77
3 77 3178 78
3 78 3179 79
3 79 3180 80
3 80 3181 81
3 81 3182 82
3 82 3183 83
3 83 3184 84
3 84 3185 85
3 85 3186 86
3 86 3187 87
3 87 3188 88
3 88 3189 89
3 89 3190 90
3 90 3191 91
3 91 3192 92
3 92 3193 93
3 93 3194 94
3 94 3195 95
3 95 3196 96
3 96 3197 97
3 97 3198 98
3 98 3199 99
3 99 3200 100
3 100 3201 101
3 101 3202 102
3 102 3203 103
3 103 3204 104
3 104 3205 105
3 105 3206 106
3 106 3207 107
3 107 3208 108
3 108 3209 109
3 109 3210 110
3 110 3211 111
3 111 3212 112
3 112 3213 113
3 113 3214 114
3 114 3215 115
3 115 3216 116
3 116 3217 117
3 117 3218 118
3 118 3219 119
3 119 3220 120
3 120 3221 121
3 121 3222 122
3 122 3223 123
3 123 3224 124
3 124 3225 125
3 125 3226 126
3 126 3227 127
3 127 3228 128
3 128 3229 129
3 129 3230 130
3 130 3231 131
3 131 3232 132
3 132 3233 133
3 133 3234 134
3 134 3235 135
3 135 3236 136
3 136 3237 137
3 137 3238 138
3 138 3239 139
3 139 3240 140
3 140 3241 141
3 141 3242 142
3 142 3243 143
3 143 3244 144
3 144 3245 145
3 145 3246 146
3 146 3247 147
3 147 3248 148
3 148 3249 149
3 149 3250 150
3 150 3251 151
3 151 3252 152
3 152 3253 153
3 153 3254 154
3 154 3255 155
3 155 3256 156
3 156 3257 157
3 157 3258 158
3 158 3259 159
3 159 3260 160
3 160 3261 161
3 161 3262 162
3 162 3263 163
3 163 3264 164
3 164 3265 165
3 165 3266 166
3 166 3267 167
3 167 3268 168
3 168 3269 169
3 169 3270 170
3 170 3271 171
3 171 3272 172
3 172 3273 173
3 173 3274 174
3 174 3275 175
3 175 3276 176
3 176 3277 177
3 177 3278 178
3 178 3279 179
3 179 3280 180
3 180 3281 181
3 181 3282 182
3 182 3283 183
3 183 3284 184
3 184 3285 185
3 185 3286 186
3 186 3287 187
3 187 3288 188
3 188 3289 189
3 189 3290 190
3 190 3291 191
3 191 3292 192
3 192 3293 193
3 193 3294 194
3 194 3295 195
3 195 3296 196
3 196 3297 197
3 197 3298 198
3 198 3299 199
3 199 3300 200
3 200 3301 201
3 201 3302 202
3 202 3303 203
3 203 3304 204
3 204 3305 205
3 205 3306 206
3 206 3307 207
3 207 3308 208
3 208 3309 209
3 209 3310 210
3 210 3311 211
3 211 3312 212
3 212 3313 213
3 213 3314 214
3 214 3315 215
3 215 3316 216
3 216 3317 217
3 217 3318 218
3 218 3319 219
3 219 3320 220
3 220 3321 221
3 221 3322 222
3 222 3323 223
3 223 3324 224
3 224 3325 225
3 225 3326 226
3 226 3327 227
3 227 3328 228
3 228 3329 229
3 229 3330 230
3 230 3331 231
3 231 3332 232
3 232 3333 233
3 233 3334 234
3 234 3335 235
3 235 3336 236
3 236 3337 237
3 237 3338 238
3 238 3339 239
3 239 3340 240
3 240 3341 241
3 241 3342 242
3 242 3343 243
3 243 3344 244
3 244 3345 245
3 245 3346 246
3 246 3347 247
3 247 3348 248
3 248 3349 249
3 249 3350 250
3 250 3351 251
3 251 3352 252
3 252 3353 253
3 253 3354 254
3 254 3355 255
3 255 3356 256
3 256 3357 257
3 257 3358 258
3 258 3359 259
3 259 3360 260
3 260 3361 261
3 261 3362 262
3 262 3363 263
3 263 3364 264
3 264 3365 265
3 265 3366 266
3 266 3367 267
3 267 3368 268
3 268 3369 269
3 269 3370 270
3 270 3371 271
3 271 3372 272
3 272 3373 273
3 273 3374 274
3 274 3375 275
3 275 3376 276
3 276 3377 277
3 277 3378 278
3 278 3379 279
3 279 3380 280
3 280 3381 281
3 281 3382 282
3 282 3383 283
3 283 3384 284
3 284 3385 285
3 285 3386 286
3 286 3387 287
3 287 3388 288
3 288 3389 289
3 289 3390 290
3 290 3391 291
3 291 3392 292
3 292 3393 293
3 293 3394 294
3 294 3395 295
3 295 3396 296
3 296 3397 297
3 297 3398 298
3 298 3399 299
3 299 3400 300
3 300 3401 301
3 301 3402 302
3 302 3403 303
3 303 3404 304
3 304 3405 305
3 305 3406 306
3 306 3407 307
3 307 3408 308
3 308 3409 309
3 309 3410 310
3 310 3411 311
3 311 3412 312
3 312 3413 313
3 313 3414 314
3 314 3415 315
3 315 3416 316
3 316 3417 317
3 317 3418 318
3 318 3419 319
3 319 3420 320
3 320 3421 321
3 321 3422 322
3 322 3423 323
3 323 3424 324
3 324 3425 325
3 325 3426 326
3 326 3427 327
3 327 3428 328
3 328 3429 329
3 329 3430 330
3 330 3431 331
3 331 3432 332
3 332 3433 333
3 333 3434 334
3 334 3435 335
3 335 3436 336
3 336 3437 337
3 337 3438 338
3 338 3439 339
3 339 3440 340
3 340 3441 341
3 341 3442 342
3 342 3443 343
3 343 3444 344
3 344 3445 345
3 345 3446 346
3 346 3447 347
3 347 3448 348
3 348 3449 349
3 349 3450 350
3 350 3451 351
3 351 3452 352
3 352 3453 353
3 353 3454 354
3 354 3455 355
3 355 3456 356
3 356 3457 357
3 357 3458 358
3 358 3459 359
3 359 3460 360
3 360 3461 361
3 361 3462 362
3 362 3463 363
3 363 3464 364
3 364 3465 365
3 365 3466 366
3 366 3467 367
3 367 3468 368
3 368 3469 369
3 369 3470 370
3 370 3471 371
3 371 3472 372
3 372 3473 373
3 373 3474 374
3 374 3475 375
3 375 3476 376
3 376 3477 377
3 377 3478 378
3 378 3479 379
3 379 3480 380
3 380 3481 381
3 381 3482 382
3 382 3483 383
3 383 3484 384
3 384 3485 385
3 385 3486 386
3 386 3487 387
3 387 3488 388
3 388 3489 389
3 389 3490 390
3 390 3491 391
3 391 3492 392
3 392 3493 393
3 394 3494 395
3 395 3495 396
3 396 3496 397
3 397 3497 398
3 398 3498 399
3 399 3499 400
3 400 3500 401
3 401 3501 402
3 402 3502 403
3 403 3503 404
3 404 3504 405
3 405 3505 406
3 406 3506 407
3 407 3507 408
3 408 3508 409
3 409 3509 410
3 410 3510 411
3 411 3511 412
3 412 3512 413
3 413 3513 414
3 414 3514 415
3 415 3515 416
3 416 3516 417
3 417 3517 418
3 418 3518 419
3 419 3519 420
3 420 3520 421
3 421 3521 422
3 422 3522 423
3 423 3523 424
3 424 3524 425
3 425 3525 426
3 426 3526 427
3 427 3527 428
3 428 3528 429
3 429 3529 430
3 430 3530 431
3 431 3531 432
3 432 3532 433
3 433 3533 434
3 434 3534 435
3 435 3535 436
3 436 3536 437
3 437 3537 438
3 438 3538 439
3 439 3539 440
3 440 3540 441
3 441 3541 442
3 442 3542 443
3 443 3543 444
3 444 3544 445
3 445 3545 446
3 446 3546 447
3 447 3547 448
3 448 3548 449
3 449 3549 450
3 450 3550 451
3 451 3551 452
3 452 3552 453
3 453 3553 454
3 454 3554 455
3 455 3555 456
3 456 3556 457
3 457 3557 458
3 458 3558 459
3 459 3559 460
3 460 3560 461
3 461 3561 462
3 462 3562 463
3 463 3563 464
3 464 3564 465
3 465 3565 466
3 466 3566 467
3 467 3567 468
3 468 3568 469
3 469 3569 470
3 470 3570 471
3 471 3571 472
3 472 3572 473
3 473 3573 474
3 474 3574 475
3 475 3575 476
3 476 3576 477
3 477 3577 478
3 478 3578 479
3 479 3579 480
3 480 3580 481
3 481 3581 482
3 482 3582 483
3 483 3583 484
3 484 3584 485
3 485 3585 486
3 486 3586 487
3 487 3587 488
3 488 3588 489
3 489 3589 490
3 490 3590 491
3 491 3591 492
3 492 3592 493
3 493 3593 494
3 494 3594 495
3 495 3595 496
3 496 3596 497
3 497 3597 498
3 498 3598 499
3 499 3599 500
3 500 3600 501
3 501 3601 502
3 502 3602 503
3 503 3603 504
3 504 3604 505
3 505 3605 506
3 506 3606 507
3 507 3607 508
3 508 3608 509
3 509 3609 510
3 510 3610 511
3 511 3611 512
3 512 3612 513
3 513 3613 514
3 514 3614 515
3 515 3615 516
3 516 3616 517
3 517 3617 518
3 518 3618 519
3 519 3619 520
3 520 3620 521
3 521 3621 522
3 522 3622 523
3 523 3623 524
3 524 3624 525
3 525 3625 526
3 526 3626 527
3 527 3627 528
3 528 3628 529
3 529 3629 530
3 530 3630 531
3 531 3631 532
3 532 3632 533
3 533 3633 534
3 534 3634 535
3 535 3635 536
3 536 3636 537
3 537 3637 538
3 538 3638 539
3 539 3639 540
3 540 3640 541
3 541 3641 542
3 542 3642 543
3 543 3643 544
3 544 3644 545
3 545 3645 546
3 546 3646 547
3 547 3647 548
3 548 3648 549
3 549 3649 550
3 550 3650 551
3 551 3651 552
3 552 3652 553
3 553 3653 554
3 554 3654 555
3 555 3655 556
3 556 3656 557
3 557 3657 558
3 558 3658 559
3 559 3659 560
3 560 3660 561
3 561 3661 562
3 562 3662 563
3 563 3663 564
3 564 3664 565
3 565 3665 566
3 566 3666 567
3 567 3667 568
3 568 3668 569
3 569 3669 570
3 570 3670 571
3 571 3671 572
3 572 3672 573
3 573 3673 574
3 574 3674 575
3 575 3675 576
3 576 3676 577
3 577 3677 578
3 578 3678 579
3 579 3679 580
3 580 3680 581
3 581 3681 582
3 582 3682 583
3 583 3683 584
3 584 3684 585
3 585 3685 586
3 586 3686 587
3 587 3687 588
3 588 3688 589
3 589 3689 590
3 590 3690 591
3 591 3691 592
3 592 3692 593
3 593 3693 594
3 594 3694 595
3 595 3695 596
3 596 3696 597
3 597 3697 598
3 598 3698 599
3 599 3699 600
3 600 3700 601
3 601 3701 602
3 602 3702 603
3 603 3703 604
3 604 3704 605
3 605 3705 606
3 606 3706 607
3 607 3707 608
3 608 3708 609
3 609 3709 610
3 610 3710 611
3 611 3711 612
3 612 3712 613
3 613 3713 614
3 614 3714 615
3 615 3715 616
3 616 3716 617
3 617 3717 618
3 618 3718 619
3 619 3719 620
3 620 3720 621
3 621 3721 622
3 622 3722 623
3 623 3723 624
3 624 3724 625
3 625 3725 626
3 626 3726 627
3 627 3727 628
3 628 3728 629
3 629 3729 630
3 630 3730 631
3 631 3731 632
3 632 3732 633
3 633 3733 634
3 634 3734 635
3 635 3735 636
3 636 3736 637
3 637 3737 638
3 638 3738 639
3 639 3739 640
3 640 3740 641
3 641 3741 642
3 642 3742 643
3 643 3743 644
3 644 3744 645
3 645 3745 646
3 646 3746 647
3 647 3747 648
3 648 3748 649
3 649 3749 650
3 650 3750 651
3 651 3751 652
3 652 3752 653
3 653 3753 654
3 654 3754 655
3 655 3755 656
3 656 3756 657
3 657 3757 658
3 658 3758 659
3 659 3759 660
3 660 3760 661
3 661 3761 662
3 662 3762 663
3 663 3763 664
3 664 3764 665
3 665 3765 666
3 666 3766 667
3 667 3767 668
3 668 3768 669
3 669 3769 670
3 670 3770 671
3 671 3771 672
3 672 3772 673
3 673 3773 674
3 674 3774 675
3 675 3775 676
3 676 3776 677
3 677 3777 678
3 678 3778 679
3 679 3779 680
3 680 3780 681
3 681 3781 682
3 682 3782 683
3 683 3783 684
3 684 3784 685
3 685 3785 686
3 686 3786 687
3 687 3787 688
3 688 3788 689
3 689 3789 690
3 690 3790 691
3 691 3791 692
3 692 3792 693
3 693 3793 694
3 694 3794 695
3 695 3795 696
3 696 3796 697
3 697 3797 698
3 698 3798 699
3 699 3799 700
3 700 3800 701
3 701 3801 702
3 702 3802 703
3 703 3803 704
3 704 3804 705
3 705 3805 706
3 706 3806 707
3 707 3807 708
3 708 3808 709
3 709 3809 710
3 710 3810 711
3 711 3811 712
3 712 3812 713
3 713 3813 714
3 714 3814 715
3 715 3815 716
3 716 3816 717
3 717 3817 718
3 718 3818 719
3 719 3819 720
3 720 3820 721
3 721 3821 722
3 722 3822 723
3 723 3823 724
3 724 3824 725
3 725 3825 726
3 726 3826 727
3 727 3827 728
3 728 3828 729
3 729 3829 730
3 730 3830 731
3 731 3831 732
3 732 3832 733
3 733 3833 734
3 734 3834 735
3 735 3835 736
3 736 3836 737
3 737 3837 738
3 738 3838 739
3 739 3839 740
3 740 3840 741
3 741 3841 742
3 742 3842 743
3 743 3843 744
3 744 3844 745
3 745 3845 746
3 746 3846 747
3 747 3847 748
3 748 3848 749
3 749 3849 750
3 750 3850 751
3 751 3851 752
3 752 3852 753
3 753 3853 754
3 754 3854 755
3 755 3855 756
3 756 3856 757
3 757 3857 758
3 758 3858 759
3 759 3859 760
3 760 3860 761
3 761 3861 762
3 762 3862 763
3 763 3863 764
3 764 3864 765
3 765 3865 766
3 766 3866 767
3 767 3867 768
3 768 3868 769
3 769 3869 770
3 770 3870 771
3 771 3871 772
3 772 3872 773
3 773 3873 774
3 774 3874 775
3 775 3875 776
3 776 3876 777
3 777 3877 778
3 778 3878 779
3 779 3879 780
3 781 3880 782
3 781 3881 1555
3 782 3882 783
3 783 3883 784
3 784 3884 785
3 785 3885 786
3 786 3886 787
3 787 3887 788
3 788 3888 789
3 789 3889 790
3 790 3890 791
3 791 3891 792
3 792 3892 793
3 793 3893 794
3 794 3894 795
3 795 3895 796
3 796 3896 797
3 797 3897 798
3 798 3898 799
3 799 3899 800
3 800 3900 801
3 801 3901 802
3 802 3902 803
3 803 3903 804
3 804 3904 805
3 805 3905 806
3 806 3906 807
3 807 3907 808
3 808 3908 809
3 809 3909 810
3 810 3910 811
3 811 3911 812
3 812 3912 813
3 813 3913 814
3 814 3914 815
3 815 3915 816
3 816 3916 817
3 817 3917 818
3 818 3918 819
3 819 3919 820
3 820 3920 821
3 821 3921 822
3 822 3922 823
3 823 3923 824
3 824 3924 825
3 825 3925 826
3 826 3926 827
3 827 3927 828
3 828 3928 829
3 829 3929 830
3 830 3930 831
3 831 3931 832
3 832 3932 833
3 833 3933 834
3 834 3934 835
3 835 3935 836
3 836 3936 837
3 837 3937 838
3 838 3938 839
3 839 3939 840
3 840 3940 841
3 841 3941 842
3 842 3942 843
3 843 3943 844
3 844 3944 845
3 845 3945 846
3 846 3946 847
3 847 3947 848
3 848 3948 849
3 849 3949 850
3 850 3950 851
3 851 3951 852
3 852 3952 853
3 853 3953 854
3 854 3954 855
3 855 3955 856
3 856 3956 857
3 857 3957 858
3 858 3958 859
3 859 3959 860
3 860 3960 861
3 861 3961 862
3 862 3962 863
3 863 3963 864
3 864 3964 865
3 865 3965 866
3 866 3966 867
3 867 3967 868
3 868 3968 869
3 869 3969 870
3 870 3970 871
3 871 3971 872
3 872 3972 873
3 873 3973 874
3 874 3974 875
3 875 3975 876
3 876 3976 877
3 877 3977 878
3 878 3978 879
3 879 3979 880
3 880 3980 881
3 881 3981 882
3 882 3982 883
3 883 3983 884
3 884 3984 885
3 885 3985 886
3 886 3986 887
3 887 3987 888
3 888 3988 889
3 889 3989 890
3 890 3990 891
3 891 3991 892
3 892 3992 893
3 893 3993 894
3 894 3994 895
3 895 3995 896
3 896 3996 897
3 897 3997 898
3 898 3998 899
3 899 3999 900
3 900 4000 901
3 901 4001 902
3 902 4002 903
3 903 4003 904
3 904 4004 905
3 905 4005 906
3 906 4006 907
3 907 4007 908
3 908 4008 909
3 909 4009 910
3 910 4010 911
3 911 4011 912
3 912 4012 913
3 913 4013 914
3 914 4014 915
3 915 4015 916
3 916 4016 917
3 917 4017 918
3 918 4018 919
3 919 4019 920
3 920 4020 921
3 921 4021 922
3 922 4022 923
3 923 4023 924
3 924 4024 925
3 925 4025 926
3 926 4026 927
3 927 4027 928
3 928 4028 929
3 929 4029 930
3 930 4030 931
3 931 4031 932
3 932 4032 933
3 933 4033 934
3 934 4034 935
3 935 4035 936
3 936 4036 937
3 937 4037 938
3 938 4038 939
3 939 4039 940
3 940 4040 941
3 941 4041 942
3 942 4042 943
3 943 4043 944
3 944 4044 945
3 945 4045 946
3 946 4046 947
3 947 4047 948
3 948 4048 949
3 949 4049 950
3 950 4050 951
3 951 4051 952
3 952 4052 953
3 953 4053 954
3 954 4054 955
3 955 4055 956
3 956 4056 957
3 957 4057 958
3 958 4058 959
3 959 4059 960
3 960 4060 961
3 961 4061 962
3 962 4062 963
3 963 4063 964
3 964 4064 965
3 965 4065 966
3 966 4066 967
3 967 4067 968
3 968 4068 969
3 969 4069 970
3 970 4070 971
3 971 4071 972
3 972 4072 973
3 973 4073 974
3 974 4074 975
3 975 4075 976
3 976 4076 977
3 977 4077 978
3 978 4078 979
3 979 4079 980
3 980 4080 981
3 981 4081 982
3 982 4082 983
3 983 4083 984
3 984 4084 985
3 985 4085 986
3 986 4086 987
3 987 4087 988
3 988 4088 989
3 989 4089 990
3 990 4090 991
3 991 4091 992
3 992 4092 993
3 993 4093 994
3 994 4094 995
3 995 4095 996
3 996 4096 997
3 997 4097 998
3 998 4098 999
3 999 4099 1000
3 1000 4100 1001
3 1001 4101 1002
3 1002 4102 1003
3 1003 4103 1004
3 1004 4104 1005
3 1005 4105 1006
3 1006 4106 1007
3 1007 4107 1008
3 1008 4108 1009
3 1009 4109 1010
3 1010 4110 1011
3 1011 4111 1012
3 1012 4112 1013
3 1013 4113 1014
3 1014 4114 1015
3 1015 4115 1016
3 1016 4116 1017
3 1017 4117 1018
3 1018 4118 1019
3 1019 4119 1020
3 1020 4120 1021
3 1021 4121 1022
3 1022 4122 1023
3 1023 4123 1024
3 1024 4124 1025
3 1025 4125 1026
3 1026 4126 1027
3 1027 4127 1028
3 1028 4128 1029
3 1029 4129 1030
3 1030 4130 1031
3 1031 4131 1032
3 1032 4132 1033
3 1033 4133 1034
3 1034 4134 1035
3 1035 4135 1036
3 1036 4136 1037
3 1037 4137 1038
3 1038 4138 1039
3 1039 4139 1040
3 1040 4140 1041
3 1041 4141 1042
3 1042 4142 1043
3 1043 4143 1044
3 1044 4144 1045
3 1045 4145 1046
3 1046 4146 1047
3 1047 4147 1048
3 1048 4148 1049
3 1049 4149 1050
3 1050 4150 1051
3 1051 4151 1052
3 1052 4152 1053
3 1053 4153 1054
3 1054 4154 1055
3 1055 4155 1056
3 1056 4156 1057
3 1057 4157 1058
3 1058 4158 1059
3 1059 4159 1060
3 1060 4160 1061
3 1061 4161 1062
3 1062 4162 1063
3 1063 4163 1064
3 1064 4164 1065
3 1065 4165 1066
3 1066 4166 1067
3 1067 4167 1068
3 1068 4168 1069
3 1069 4169 1070
3 1070 4170 1071
3 1071 4171 1072
3 1072 4172 1073
3 1073 4173 1074
3 1074 4174 1075
3 1075 4175 1076
3 1076 4176 1077
3 1077 4177 1078
3 1078 4178 1079
3 1079 4179 1080
3 1080 4180 1081
3 1081 4181 1082
3 1082 4182 1083
3 1083 4183 1084
3 1084 4184 1085
3 1085 4185 1086
3 1086 4186 1087
3 1087 4187 1088
3 1088 4188 1089
3 1089 4189 1090
3 1090 4190 1091
3 1091 4191 1092
3 1092 4192 1093
3 1093 4193 1094
3 1094 4194 1095
3 1095 4195 1096
3 1096 4196 1097
3 1097 4197 1098
3 1098 4198 1099
3 1099 4199 1100
3 1100 4200 1101
3 1101 4201 1102
3 1102 4202 1103
3 1103 4203 1104
3 1104 4204 1105
3 1105 4205 1106
3 1106 4206 1107
3 1107 4207 1108
3 1108 4208 1109
3 1109 4209 1110
3 1110 4210 1111
3 1111 4211 1112
3 1112 4212 1113
3 1113 4213 1114
3 1114 4214 1115
3 1115 4215 1116
3 1116 4216 1117
3 1117 4217 1118
3 1118 4218 1119
3 1119 4219 1120
3 1120 4220 1121
3 1121 4221 1122
3 1122 4222 1123
3 1123 4223 1124
3 1124 4224 1125
3 1125 4225 1126
3 1126 4226 1127
3 1127 4227 1128
3 1128 4228 1129
3 1129 4229 1130
3 1130 4230 1131
3 1131 4231 1132
3 1132 4232 1133
3 1133 4233 1134
3 1134 4234 1135
3 1135 4235 1136
3 1136 4236 1137
3 1137 4237 1138
3 1138 4238 1139
3 1139 4239 1140
3 1140 4240 1141
3 1141 4241 1142
3 1142 4242 1143
3 1143 4243 1144
3 1144 4244 1145
3 1145 4245 1146
3 1146 4246 1147
3 1147 4247 1148
3 1148 4248 1149
3 1149 4249 1150
3 1150 4250 1151
3 1151 4251 1152
3 1152 4252 1153
3 1153 4253 1154
3 1154 4254 1155
3 1155 4255 1156
3 1156 4256 1157
3 1157 4257 1158
3 1158 4258 1159
3 1159 4259 1160
3 1160 4260 1161
3 1161 4261 1162
3 1162 4262 1163
3 1163 4263 1164
3 1164 4264 1165
3 1165 4265 1166
3 1166 4266 1167
3 1167 4267 1168
3 1169 4268 1170
3 1170 4269 1171
3 1171 4270 1172
3 1172 4271 1173
3 1173 4272 1174
3 1174 4273 1175
3 1175 4274 1176
3 1176 4275 1177
3 1177 4276 1178
3 1178 4277 1179
3 1179 4278 1180
3 1180 4279 1181
3 1181 4280 1182
3 1182 4281 1183
3 1183 4282 1184
3 1184 4283 1185
3 1185 4284 1186
3 1186 4285 1187
3 1187 4286 1188
3 1188 4287 1189
3 1189 4288 1190
3 1190 4289 1191
3 1191 4290 1192
3 1192 4291 1193
3 1193 4292 1194
3 1194 4293 1195
3 1195 4294 1196
3 1196 4295 1197
3 1197 4296 1198
3 1198 4297 1199
3 1199 4298 1200
3 1200 4299 1201
3 1201 4300 1202
3 1202 4301 1203
3 1203 4302 1204
3 1204 4303 1205
3 1205 4304 1206
3 1206 4305 1207
3 1207 4306 1208
3 1208 4307 1209
3 1209 4308 1210
3 1210 4309 1211
3 1211 4310 1212
3 1212 4311 1213
3 1213 4312 1214
3 1214 4313 1215
3 1215 4314 1216
3 1216 4315 1217
3 1217 4316 1218
3 1218 4317 1219
3 1219 4318 1220
3 1220 4319 1221
3 1221 4320 1222
3 1222 4321 1223
3 1223 4322 1224
3 1224 4323 1225
3 1225 4324 1226
3 1226 4325 1227
3 1227 4326 1228
3 1228 4327 1229
3 1229 4328 1230
3 1230 4329 1231
3 1231 4330 1232
3 1232 4331 1233
3 1233 4332 1234
3 1234 4333 1235
3 1235 4334 1236
3 1236 4335 1237
3 1237 4336 1238
3 1238 4337 1239
3 1239 4338 1240
3 1240 4339 1241
3 1241 4340 1242
3 1242 4341 1243
3 1243 4342 1244
3 1244 4343 1245
3 1245 4344 1246
3 1246 4345 1247
3 1247 4346 1248
3 1248 4347 1249
3 1249 4348 1250
3 1250 4349 1251
3 1251 4350 1252
3 1252 4351 1253
3 1253 4352 1254
3 1254 4353 1255
3 1255 4354 1256
3 1256 4355 1257
3 1257 4356 1258
3 1258 4357 1259
3 1259 4358 1260
3 1260 4359 1261
3 1261 4360 1262
3 1262 4361 1263
3 1263 4362 1264
3 1264 4363 1265
3 1265 4364 1266
3 1266 4365 1267
3 1267 4366 1268
3 1268 4367 1269
3 1269 4368 1270
3 1270 4369 1271
3 1271 4370 1272
3 1272 4371 1273
3 1273 4372 1274
3 1274 4373 1275
3 1275 4374 1276
3 1276 4375 1277
3 1277 4376 1278
3 1278 4377 1279
3 1279 4378 1280
3 1280 4379 1281
3 1281 4380 1282
3 1282 4381 1283
3 1283 4382 1284
3 1284 4383 1285
3 1285 4384 1286
3 1286 4385 1287
3 1287 4386 1288
3 1288 4387 1289
3 1289 4388 1290
3 1290 4389 1291
3 1291 4390 1292
3 1292 4391 1293
3 1293 4392 1294
3 1294 4393 1295
3 1295 4394 1296
3 1296 4395 1297
3 1297 4396 1298
3 1298 4397 1299
3 1299 4398 1300
3 1300 4399 1301
3 1301 4400 1302
3 1302 4401 1303
3 1303 4402 1304
3 1304 4403 1305
3 1305 4404 1306
3 1306 4405 1307
3 1307 4406 1308
3 1308 4407 1309
3 1309 4408 1310
3 1310 4409 1311
3 1311 4410 1312
3 1312 4411 1313
3 1313 4412 1314
3 1314 4413 1315
3 1315 4414 1316
3 1316 4415 1317
3 1317 4416 1318
3 1318 4417 1319
3 1319 4418 1320
3 1320 4419 1321
3 1321 4420 1322
3 1322 4421 1323
3 1323 4422 1324
3 1324 4423 1325
3 1325 4424 1326
3 1326 4425 1327
3 1327 4426 1328
3 1328 4427 1329
3 1329 4428 1330
3 1330 4429 1331
3 1331 4430 1332
3 1332 4431 1333
3 1333 4432 1334
3 1334 4433 1335
3 1335 4434 1336
3 1336 4435 1337
3 1337 4436 1338
3 1338 4437 1339
3 1339 4438 1340
3 1340 4439 1341
3 1341 4440 1342
3 1342 4441 1343
3 1343 4442 1344
3 1344 4443 1345
3 1345 4444 1346
3 1346 4445 1347
3 1347 4446 1348
3 1348 4447 1349
3 1349 4448 1350
3 1350 4449 1351
3 1351 4450 1352
3 1352 4451 1353
3 1353 4452 1354
3 1354 4453 1355
3 1355 4454 1356
3 1356 4455 1357
3 1357 4456 1358
3 1358 4457 1359
3 1359 4458 1360
3 1360 4459 1361
3 1361 4460 1362
3 1362 4461 1363
3 1363 4462 1364
3 1364 4463 1365
3 1365 4464 1366
3 1366 4465 1367
3 1367 4466 1368
3 1368 4467 1369
3 1369 4468 1370
3 1370 4469 1371
3 1371 4470 1372
3 1372 4471 1373
3 1373 4472 1374
3 1374 4473 1375
3 1375 4474 1376
3 1376 4475 1377
3 1377 4476 1378
3 1378 4477 1379
3 1379 4478 1380
3 1380 4479 1381
3 1381 4480 1382
3 1382 4481 1383
3 1383 4482 1384
3 1384 4483 1385
3 1385 4484 1386
3 1386 4485 1387
3 1387 4486 1388
3 1388 4487 1389
3 1389 4488 1390
3 1390 4489 1391
3 1391 4490 1392
3 1392 4491 1393
3 1393 4492 1394
3 1394 4493 1395
3 1395 4494 1396
3 1396 4495 1397
3 1397 4496 1398
3 1398 4497 1399
3 1399 4498 1400
3 1400 4499 1401
3 1401 4500 1402
3 1402 4501 1403
3 1403 4502 1404
3 1404 4503 1405
3 1405 4504 1406
3 1406 4505 1407
3 1407 4506 1408
3 1408 4507 1409
3 1409 4508 1410
3 1410 4509 1411
3 1411 4510 1412
3 1412 4511 1413
3 1413 4512 1414
3 1414 4513 1415
3 1415 4514 1416
3 1416 4515 1417
3 1417 4516 1418
3 1418 4517 1419
3 1419 4518 1420
3 1420 4519 1421
3 1421 4520 1422
3 1422 4521 1423
3 1423 4522 1424
3 1424 4523 1425
3 1425 4524 1426
3 1426 4525 1427
3 1427 4526 1428
3 1428 4527 1429
3 1429 4528 1430
3 1430 4529 1431
3 1431 4530 1432
3 1432 4531 1433
3 1433 4532 1434
3 1434 4533 1435
3 1435 4534 1436
3 1436 4535 1437
3 1437 4536 1438
3 1438 4537 1439
3 1439 4538 1440
3 1440 4539 1441
3 1441 4540 1442
3 1442 4541 1443
3 1443 4542 1444
3 1444 4543 1445
3 1445 4544 1446
3 1446 4545 1447
3 1447 4546 1448
3 1448 4547 1449
3 1449 4548 1450
3 1450 4549 1451
3 1451 4550 1452
3 1452 4551 1453
3 1453 4552 1454
3 1454 4553 1455
3 1455 4554 1456
3 1456 4555 1457
3 1457 4556 1458
3 1458 4557 1459
3 1459 4558 1460
3 1460 4559 1461
3 1461 4560 1462
3 1462 4561 1463
3 1463 4562 1464
3 1464 4563 1465
3 1465 4564 1466
3 1466 4565 1467
3 1467 4566 1468
3 1468 4567 1469
3 1469 4568 1470
3 1470 4569 1471
3 1471 4570 1472
3 1472 4571 1473
3 1473 4572 1474
3 1474 4573 1475
3 1475 4574 1476
3 1476 4575 1477
3 1477 4576 1478
3 1478 4577 1479
3 1479 4578 1480
3 1480 4579 1481
3 1481 4580 1482
3 1482 4581 1483
3 1483 4582 1484
3 1484 4583 1485
3 1485 4584 1486
3 1486 4585 1487
3 1487 4586 1488
3 1488 4587 1489
3 1489 4588 1490
3 1490 4589 1491
3 1491 4590 1492
3 1492 4591 1493
3 1493 4592 1494
3 1494 4593 1495
3 1495 4594 1496
3 1496 4595 1497
3 1497 4596 1498
3 1498 4597 1499
3 1499 4598 1500
3 1500 4599 1501
3 1501 4600 1502
3 1502 4601 1503
3 1503 4602 1504
3 1504 4603 1505
3 1505 4604 1506
3 1506 4605 1507
3 1507 4606 1508
3 1508 4607 1509
3 1509 4608 1510
3 1510 4609 1511
3 1511 4610 1512
3 1512 4611 1513
3 1513 4612 1514
3 1514 4613 1515
3 1515 4614 1516
3 1516 4615 1517
3 1517 4616 1518
3 1518 4617 1519
3 1519 4618 1520
3 1520 4619 1521
3 1521 4620 1522
3 1522 4621 1523
3 1523 4622 1524
3 1524 4623 1525
3 1525 4624 1526
3 1526 4625 1527
3 1527 4626 1528
3 1528 4627 1529
3 1529 4628 1530
3 1530 4629 1531
3 1531 4630 1532
3 1532 4631 1533
3 1533 4632 1534
3 1534 4633 1535
3 1535 4634 1536
3 1536 4635 1537
3 1537 4636 1538
3 1538 4637 1539
3 1539 4638 1540
3 1540 4639 1541
3 1541 4640 1542
3 1542 4641 1543
3 1543 4642 1544
3 1544 4643 1545
3 1545 4644 1546
3 1546 4645 1547
3 1547 4646 1548
3 1548 4647 1549
3 1549 4648 1550
3 1550 4649 1551
3 1551 4650 1552
3 1552 4651 1553
3 1553 4652 1554
3 1554 4653 1555
3 1556 4654 1557
3 1556 4655 2330
3 1557 4656 1558
3 1558 4657 1559
3 1559 4658 1560
3 1560 4659 1561
3 1561 4660 1562
3 1562 4661 1563
3 1563 4662 1564
3 1564 4663 1565
3 1565 4664 1566
3 1566 4665 1567
3 1567 4666 1568
3 1568 4667 1569
3 1569 4668 1570
3 1570 4669 1571
3 1571 4670 1572
3 1572 4671 1573
3 1573 4672 1574
3 1574 4673 1575
3 1575 4674 1576
3 1576 4675 1577
3 1577 4676 1578
3 1578 4677 1579
3 1579 4678 1580
3 1580 4679 1581
3 1581 4680 1582
3 1582 4681 1583
3 1583 4682 1584
3 1584 4683 1585
3 1585 4684 1586
3 1586 4685 1587
3 1587 4686 1588
3 1588 4687 1589
3 1589 4688 1590
3 1590 4689 1591
3 1591 4690 1592
3 1592 4691 1593
3 1593 4692 1594
3 1594 4693 1595
3 1595 4694 1596
3 1596 4695 1597
3 1597 4696 1598
3 1598 4697 1599
3 1599 4698 1600
3 1600 4699 1601
3 1601 4700 1602
3 1602 4701 1603
3 1603 4702 1604
3 1604 4703 1605
3 1605 4704 1606
3 1606 4705 1607
3 1607 4706 1608
3 1608 4707 1609
3 1609 4708 1610
3 1610 4709 1611
3 1611 4710 1612
3 1612 4711 1613
3 1613 4712 1614
3 1614 4713 1615
3 1615 4714 1616
3 1616 4715 1617
3 1617 4716 1618
3 1618 4717 1619
3 1619 4718 1620
3 1620 4719 1621
3 1621 4720 1622
3 1622 4721 1623
3 1623 4722 1624
3 1624 4723 1625
3 1625 4724 1626
3 1626 4725 1627
3 1627 4726 1628
3 1628 4727 1629
3 1629 4728 1630
3 1630 4729 1631
3 1631 4730 1632
3 1632 4731 1633
3 1633 4732 1634
3 1634 4733 1635
3 1635 4734 1636
3 1636 4735 1637
3 1637 4736 1638
3 1638 4737 1639
3 1639 4738 1640
3 1640 4739 1641
3 1641 4740 1642
3 1642 4741 1643
3 1643 4742 1644
3 1644 4743 1645
3 1645 4744 1646
3 1646 4745 1647
3 1647 4746 1648
3 1648 4747 1649
3 1649 4748 1650
3 1650 4749 1651
3 1651 4750 1652
3 1652 4751 1653
3 1653 4752 1654
3 1654 4753 1655
3 1655 4754 1656
3 1656 4755 1657
3 1657 4756 1658
3 1658 4757 1659
3 1659 4758 1660
3 1660 4759 1661
3 1661 4760 1662
3 1662 4761 1663
3 1663 4762 1664
3 1664 4763 1665
3 1665 4764 1666
3 1666 4765 1667
3 1667 4766 1668
3 1668 4767 1669
3 1669 4768 1670
3 1670 4769 1671
3 1671 4770 1672
3 1672 4771 1673
3 1673 4772 1674
3 1674 4773 1675
3 1675 4774 1676
3 1676 4775 1677
3 1677 4776 1678
3 1678 4777 1679
3 1679 4778 1680
3 1680 4779 1681
3 1681 4780 1682
3 1682 4781 1683
3 1683 4782 1684
3 1684 4783 1685
3 1685 4784 1686
3 1686 4785 1687
3 1687 4786 1688
3 1688 4787 1689
3 1689 4788 1690
3 1690 4789 1691
3 1691 4790 1692
3 1692 4791 1693
3 1693 4792 1694
3 1694 4793 1695
3 1695 4794 1696
3 1696 4795 1697
3 1697 4796 1698
3 1698 4797 1699
3 1699 4798 1700
3 1700 4799 1701
3 1701 4800 1702
3 1702 4801 1703
3 1703 4802 1704
3 1704 4803 1705
3 1705 4804 1706
3 1706 4805 1707
3 1707 4806 1708
3 1708 4807 1709
3 1709 4808 1710
3 1710 4809 1711
3 1711 4810 1712
3 1712 4811 1713
3 1713 4812 1714
3 1714 4813 1715
3 1715 4814 1716
3 1716 4815 1717
3 1717 4816 1718
3 1718 4817 1719
3 1719 4818 1720
3 1720 4819 1721
3 1721 4820 1722
3 1722 4821 1723
3 1723 4822 1724
3 1724 4823 1725
3 1725 4824 1726
3 1726 4825 1727
3 1727 4826 1728
3 1728 4827 1729
3 1729 4828 1730
3 1730 4829 1731
3 1731 4830 1732
3 1732 4831 1733
3 1733 4832 1734
3 1734 4833 1735
3 1735 4834 1736
3 1736 4835 1737
3 1737 4836 1738
3 1738 4837 1739
3 1739 4838 1740
3 1740 4839 1741
3 1741 4840 1742
3 1742 4841 1743
3 1743 4842 1744
3 1744 4843 1745
3 1745 4844 1746
3 1746 4845 1747
3 1747 4846 1748
3 1748 4847 1749
3 1749 4848 1750
3 1750 4849 1751
3 1751 4850 1752
3 1752 4851 1753
3 1753 4852 1754
3 1754 4853 1755
3 1755 4854 1756
3 1756 4855 1757
3 1757 4856 1758
3 1758 4857 1759
3 1759 4858 1760
3 1760 4859 1761
3 1761 4860 1762
3 1762 4861 1763
3 1763 4862 1764
3 1764 4863 1765
3 1765 4864 1766
3 1766 4865 1767
3 1767 4866 1768
3 1768 4867 1769
3 1769 4868 1770
3 1770 4869 1771
3 1771 4870 1772
3 1772 4871 1773
3 1773 4872 1774
3 1774 4873 1775
3 1775 4874 1776
3 1776 4875 1777
3 1777 4876 1778
3 1778 4877 1779
3 1779 4878 1780
3 1780 4879 1781
3 1781 4880 1782
3 1782 4881 1783
3 1783 4882 1784
3 1784 4883 1785
3 1785 4884 1786
3 1786 4885 1787
3 1787 4886 1788
3 1788 4887 1789
3 1789 4888 1790
3 1790 4889 1791
3 1791 4890 1792
3 1792 4891 1793
3 1793 4892 1794
3 1794 4893 1795
3 1795 4894 1796
3 1796 4895 1797
3 1797 4896 1798
3 1798 4897 1799
3 1799 4898 1800
3 1800 4899 1801
3 1801 4900 1802
3 1802 4901 1803
3 1803 4902 1804
3 1804 4903 1805
3 1805 4904 1806
3 1806 4905 1807
3 1807 4906 1808
3 1808 4907 1809
3 1809 4908 1810
3 1810 4909 1811
3 1811 4910 1812
3 1812 4911 1813
3 1813 4912 1814
3 1814 4913 1815
3 1815 4914 1816
3 1816 4915 1817
3 1817 4916 1818
3 1818 4917 1819
3 1819 4918 1820
3 1820 4919 1821
3 1821 4920 1822
3 1822 4921 1823
3 1823 4922 1824
3 1824 4923 1825
3 1825 4924 1826
3 1826 4925 1827
3 1827 4926 1828
3 1828 4927 1829
3 1829 4928 1830
3 1830 4929 1831
3 1831 4930 1832
3 1832 4931 1833
3 1833 4932 1834
3 1834 4933 1835
3 1835 4934 1836
3 1836 4935 1837
3 1837 4936 1838
3 1838 4937 1839
3 1839 4938 1840
3 1840 4939 1841
3 1841 4940 1842
3 1842 4941 1843
3 1843 4942 1844
3 1844 4943 1845
3 1845 4944 1846
3 1846 4945 1847
3 1847 4946 1848
3 1848 4947 1849
3 1849 4948 1850
3 1850 4949 1851
3 1851 4950 1852
3 1852 4951 1853
3 1853 4952 1854
3 1854 4953 1855
3 1855 4954 1856
3 1856 4955 1857
3 1857 4956 1858
3 1858 4957 1859
3 1859 4958 1860
3 1860 4959 1861
3 1861 4960 1862
3 1862 4961 1863
3 1863 4962 1864
3 1864 4963 1865
3 1865 4964 1866
3 1866 4965 1867
3 1867 4966 1868
3 1868 4967 1869
3 1869 4968 1870
3 1870 4969 1871
3 1871 4970 1872
3 1872 4971 1873
3 1873 4972 1874
3 1874 4973 1875
3 1875 4974 1876
3 1876 4975 1877
3 1877 4976 1878
3 1878 4977 1879
3 1879 4978 1880
3 1880 4979 1881
3 1881 4980 1882
3 1882 4981 1883
3 1883 4982 1884
3 1884 4983 1885
3 1885 4984 1886
3 1886 4985 1887
3 1887 4986 1888
3 1888 4987 1889
3 1889 4988 1890
3 1890 4989 1891
3 1891 4990 1892
3 1892 4991 1893
3 1893 4992 1894
3 1894 4993 1895
3 1895 4994 1896
3 1896 4995 1897
3 1897 4996 1898
3 1898 4997 1899
3 1899 4998 1900
3 1900 4999 1901
3 1901 5000 1902
3 1902 5001 1903
3 1903 5002 1904
3 1904 5003 1905
3 1905 5004 1906
3 1906 5005 1907
3 1907 5006 1908
3 1908 5007 1909
3 1909 5008 1910
3 1910 5009 1911
3 1911 5010 1912
3 1912 5011 1913
3 1913 5012 1914
3 1914 5013 1915
3 1915 5014 1916
3 1916 5015 1917
3 1917 5016 1918
3 1918 5017 1919
3 1919 5018 1920
3 1920 5019 1921
3 1921 5020 1922
3 1922 5021 1923
3 1923 5022 1924
3 1924 5023 1925
3 1925 5024 1926
3 1926 5025 1927
3 1927 5026 1928
3 1928 5027 1929
3 1929 5028 1930
3 1930 5029 1931
3 1931 5030 1932
3 1932 5031 1933
3 1933 5032 1934
3 1934 5033 1935
3 1935 5034 1936
3 1936 5035 1937
3 1937 5036 1938
3 1938 5037 1939
3 1939 5038 1940
3 1940 5039 1941
3 1941 5040 1942
3 1942 5041 1943
3 1944 5042 1945
3 1945 5043 1946
3 1946 5044 1947
3 1947 5045 1948
3 1948 5046 1949
3 1949 5047 1950
3 1950 5048 1951
3 1951 5049 1952
3 1952 5050 1953
3 1953 5051 1954
3 1954 5052 1955
3 1955 5053 1956
3 1956 5054 1957
3 1957 5055 1958
3 1958 5056 1959
3 1959 5057 1960
3 1960 5058 1961
3 1961 5059 1962
3 1962 5060 1963
3 1963 5061 1964
3 1964 5062 1965
3 1965 5063 1966
3 1966 5064 1967
3 1967 5065 1968
3 1968 5066 1969
3 1969 5067 1970
3 1970 5068 1971
3 1971 5069 1972
3 1972 5070 1973
3 1973 5071 1974
3 1974 5072 1975
3 1975 5073 1976
3 1976 5074 1977
3 1977 5075 1978
3 1978 5076 1979
3 1979 5077 1980
3 1980 5078 1981
3 1981 5079 1982
3 1982 5080 1983
3 1983 5081 1984
3 1984 5082 1985
3 1985 5083 1986
3 1986 5084 1987
3 1987 5085 1988
3 1988 5086 1989
3 1989 5087 1990
3 1990 5088 1991
3 1991 5089 1992
3 1992 5090 1993
3 1993 5091 1994
3 1994 5092 1995
3 1995 5093 1996
3 1996 5094 1997
3 1997 5095 1998
3 1998 5096 1999
3 1999 5097 2000
3 2000 5098 2001
3 2001 5099 2002
3 2002 5100 2003
3 2003 5101 2004
3 2004 5102 2005
3 2005 5103 2006
3 2006 5104 2007
3 2007 5105 2008
3 2008 5106 2009
3 2009 5107 2010
3 2010 5108 2011
3 2011 5109 2012
3 2012 5110 2013
3 2013 5111 2014
3 2014 5112 2015
3 2015 5113 2016
3 2016 5114 2017
3 2017 5115 2018
3 2018 5116 2019
3 2019 5117 2020
3 2020 5118 2021
3 2021 5119 2022
3 2022 5120 2023
3 2023 5121 2024
3 2024 5122 2025
3 2025 5123 2026
3 2026 5124 2027
3 2027 5125 2028
3 2028 5126 2029
3 2029 5127 2030
3 2030 5128 2031
3 2031 5129 2032
3 2032 5130 2033
3 2033 5131 2034
3 2034 5132 2035
3 2035 5133 2036
3 2036 5134 2037
3 2037 5135 2038
3 2038 5136 2039
3 2039 5137 2040
3 2040 5138 2041
3 2041 5139 2042
3 2042 5140 2043
3 2043 5141 2044
3 2044 5142 2045
3 2045 5143 2046
3 2046 5144 2047
3 2047 5145 2048
3 2048 5146 2049
3 2049 5147 2050
3 2050 5148 2051
3 2051 5149 2052
3 2052 5150 2053
3 2053 5151 2054
3 2054 5152 2055
3 2055 5153 2056
3 2056 5154 2057
3 2057 5155 2058
3 2058 5156 2059
3 2059 5157 2060
3 2060 5158 2061
3 2061 5159 2062
3 2062 5160 2063
3 2063 5161 2064
3 2064 5162 2065
3 2065 5163 2066
3 2066 5164 2067
3 2067 5165 2068
3 2068 5166 2069
3 2069 5167 2070
3 2070 5168 2071
3 2071 5169 2072
3 2072 5170 2073
3 2073 5171 2074
3 2074 5172 2075
3 2075 5173 2076
3 2076 5174 2077
3 2077 5175 2078
3 2078 5176 2079
3 2079 5177 2080
3 2080 5178 2081
3 2081 5179 2082
3 2082 5180 2083
3 2083 5181 2084
3 2084 5182 2085
3 2085 5183 2086
3 2086 5184 2087
3 2087 5185 2088
3 2088 5186 2089
3 2089 5187 2090
3 2090 5188 2091
3 2091 5189 2092
3 2092 5190 2093
3 2093 5191 2094
3 2094 5192 2095
3 2095 5193 2096
3 2096 5194 2097
3 2097 5195 2098
3 2098 5196 2099
3 2099 5197 2100
3 2100 5198 2101
3 2101 5199 2102
3 2102 5200 2103
3 2103 5201 2104
3 2104 5202 2105
3 2105 5203 2106
3 2106 5204 2107
3 2107 5205 2108
3 2108 5206 2109
3 2109 5207 2110
3 2110 5208 2111
3 2111 5209 2112
3 2112 5210 2113
3 2113 5211 2114
3 2114 5212 2115
3 2115 5213 2116
3 2116 5214 2117
3 2117 5215 2118
3 2118 5216 2119
3 2119 5217 2120
3 2120 5218 2121
3 2121 5219 2122
3 2122 5220 2123
3 2123 5221 2124
3 2124 5222 2125
3 2125 5223 2126
3 2126 5224 2127
3 2127 5225 2128
3 2128 5226 2129
3 2129 5227 2130
3 2130 5228 2131
3 2131 5229 2132
3 2132 5230 2133
3 2133 5231 2134
3 2134 5232 2135
3 2135 5233 2136
3 2136 5234 2137
3 2137 5235 2138
3 2138 5236 2139
3 2139 5237 2140
3 2140 5238 2141
3 2141 5239 2142
3 2142 5240 2143
3 2143 5241 2144
3 2144 5242 2145
3 2145 5243 2146
3 2146 5244 2147
3 2147 5245 2148
3 2148 5246 2149
3 2149 5247 2150
3 2150 5248 2151
3 2151 5249 2152
3 2152 5250 2153
3 2153 5251 2154
3 2154 5252 2155
3 2155 5253 2156
3 2156 5254 2157
3 2157 5255 2158
3 2158 5256 2159
3 2159 5257 2160
3 2160 5258 2161
3 2161 5259 2162
3 2162 5260 2163
3 2163 5261 2164
3 2164 5262 2165
3 2165 5263 2166
3 2166 5264 2167
3 2167 5265 2168
3 2168 5266 2169
3 2169 5267 2170
3 2170 5268 2171
3 2171 5269 2172
3 2172 5270 2173
3 2173 5271 2174
3 2174 5272 2175
3 2175 5273 2176
3 2176 5274 2177
3 2177 5275 2178
3 2178 5276 2179
3 2179 5277 2180
3 2180 5278 2181
3 2181 5279 2182
3 2182 5280 2183
3 2183 5281 2184
3 2184 5282 2185
3 2185 5283 2186
3 2186 5284 2187
3 2187 5285 2188
3 2188 5286 2189
3 2189 5287 2190
3 2190 5288 2191
3 2191 5289 2192
3 2192 5290 2193
3 2193 5291 2194
3 2194 5292 2195
3 2195 5293 2196
3 2196 5294 2197
3 2197 5295 2198
3 2198 5296 2199
3 2199 5297 2200
3 2200 5298 2201
3 2201 5299 2202
3 2202 5300 2203
3 2203 5301 2204
3 2204 5302 2205
3 2205 5303 2206
3 2206 5304 2207
3 2207 5305 2208
3 2208 5306 2209
3 2209 5307 2210
3 2210 5308 2211
3 2211 5309 2212
3 2212 5310 2213
3 2213 5311 2214
3 2214 5312 2215
3 2215 5313 2216
3 2216 5314 2217
3 2217 5315 2218
3 2218 5316 2219
3 2219 5317 2220
3 2220 5318 2221
3 2221 5319 2222
3 2222 5320 2223
3 2223 5321 2224
3 2224 5322 2225
3 2225 5323 2226
3 2226 5324 2227
3 2227 5325 2228
3 2228 5326 2229
3 2229 5327 2230
3 2230 5328 2231
3 2231 5329 2232
3 2232 5330 2233
3 2233 5331 2234
3 2234 5332 2235
3 2235 5333 2236
3 2236 5334 2237
3 2237 5335 2238
3 2238 5336 2239
3 2239 5337 2240
3 2240 5338 2241
3 2241 5339 2242
3 2242 5340 2243
3 2243 5341 2244
3 2244 5342 2245
3 2245 5343 2246
3 2246 5344 2247
3 2247 5345 2248
3 2248 5346 2249
3 2249 5347 2250
3 2250 5348 2251
3 2251 5349 2252
3 2252 5350 2253
3 2253 5351 2254
3 2254 5352 2255
3 2255 5353 2256
3 2256 5354 2257
3 2257 5355 2258
3 2258 5356 2259
3 2259 5357 2260
3 2260 5358 2261
3 2261 5359 2262
3 2262 5360 2263
3 2263 5361 2264
3 2264 5362 2265
3 2265 5363 2266
3 2266 5364 2267
3 2267 5365 2268
3 2268 5366 2269
3 2269 5367 2270
3 2270 5368 2271
3 2271 5369 2272
3 2272 5370 2273
3 2273 5371 2274
3 2274 5372 2275
3 2275 5373 2276
3 2276 5374 2277
3 2277 5375 2278
3 2278 5376 2279
3 2279 5377 2280
3 2280 5378 2281
3 2281 5379 2282
3 2282 5380 2283
3 2283 5381 2284
3 2284 5382 2285
3 2285 5383 2286
3 2286 5384 2287
3 2287 5385 2288
3 2288 5386 2289
3 2289 5387 2290
3 2290 5388 2291
3 2291 5389 2292
3 2292 5390 2293
3 2293 5391 2294
3 2294 5392 2295
3 2295 5393 2296
3 2296 5394 2297
3 2297 5395 2298
3 2298 5396 2299
3 2299 5397 2300
3 2300 5398 2301
3 2301 5399 2302
3 2302 5400 2303
3 2303 5401 2304
3 2304 5402 2305
3 2305 5403 2306
3 2306 5404 2307
3 2307 5405 2308
3 2308 5406 2309
3 2309 5407 2310
3 2310 5408 2311
3 2311 5409 2312
3 2312 5410 2313
3 2313 5411 2314
3 2314 5412 2315
3 2315 5413 2316
3 2316 5414 2317
3 2317 5415 2318
3 2318 5416 2319
3 2319 5417 2320
3 2320 5418 2321
3 2321 5419 2322
3 2322 5420 2323
3 2323 5421 2324
3 2324 5422 2325
3 2325 5423 2326
3 2326 5424 2327
3 2327 5425 2328
3 2328 5426 2329
3 2329 5427 2330
3 2331 5428 2332
3 2331 5429 3105
3 2332 5430 2333
3 2333 5431 2334
3 2334 5432 2335
3 2335 5433 2336
3 2336 5434 2337
3 2337 5435 2338
3 2338 5436 2339
3 2339 5437 2340
3 2340 5438 2341
3 2341 5439 2342
3 2342 5440 2343
3 2343 5441 2344
3 2344 5442 2345
3 2345 5443 2346
3 2346 5444 2347
3 2347 5445 2348
3 2348 5446 2349
3 2349 5447 2350
3 2350 5448 2351
3 2351 5449 2352
3 2352 5450 2353
3 2353 5451 2354
3 2354 5452 2355
3 2355 5453 2356
3 2356 5454 2357
3 2357 5455 2358
3 2358 5456 2359
3 2359 5457 2360
3 2360 5458 2361
3 2361 5459 2362
3 2362 5460 2363
3 2363 5461 2364
3 2364 5462 2365
3 2365 5463 2366
3 2366 5464 2367
3 2367 5465 2368
3 2368 5466 2369
3 2369 5467 2370
3 2370 5468 2371
3 2371 5469 2372
3 2372 5470 2373
3 2373 5471 2374
3 2374 5472 2375
3 2375 5473 2376
3 2376 5474 2377
3 2377 5475 2378
3 2378 5476 2379
3 2379 5477 2380
3 2380 5478 2381
3 2381 5479 2382
3 2382 5480 2383
3 2383 5481 2384
3 2384 5482 2385
3 2385 5483 2386
3 2386 5484 2387
3 2387 5485 2388
3 2388 5486 2389
3 2389 5487 2390
3 2390 5488 2391
3 2391 5489 2392
3 2392 5490 2393
3 2393 5491 2394
3 2394 5492 2395
3 2395 5493 2396
3 2396 5494 2397
3 2397 5495 2398
3 2398 5496 2399
3 2399 5497 2400
3 2400 5498 2401
3 2401 5499 2402
3 2402 5500 2403
3 2403 5501 2404
3 2404 5502 2405
3 2405 5503 2406
3 2406 5504 2407
3 2407 5505 2408
3 2408 5506 2409
3 2409 5507 2410
3 2410 5508 2411
3 2411 5509 2412
3 2412 5510 2413
3 2413 5511 2414
3 2414 5512 2415
3 2415 5513 2416
3 2416 5514 2417
3 2417 5515 2418
3 2418 5516 2419
3 2419 5517 2420
3 2420 5518 2421
3 2421 5519 2422
3 2422 5520 2423
3 2423 5521 2424
3 2424 5522 2425
3 2425 5523 2426
3 2426 5524 2427
3 2427 5525 2428
3 2428 5526 2429
3 2429 5527 2430
3 2430 5528 2431
3 2431 5529 2432
3 2432 5530 2433
3 2433 5531 2434
3 2434 5532 2435
3 2435 5533 2436
3 2436 5534 2437
3 2437 5535 2438
3 2438 5536 2439
3 2439 5537 2440
3 2440 5538 2441
3 2441 5539 2442
3 2442 5540 2443
3 2443 5541 2444
3 2444 5542 2445
3 2445 5543 2446
3 2446 5544 2447
3 2447 5545 2448
3 2448 5546 2449
3 2449 5547 2450
3 2450 5548 2451
3 2451 5549 2452
3 2452 5550 2453
3 2453 5551 2454
3 2454 5552 2455
3 2455 5553 2456
3 2456 5554 2457
3 2457 5555 2458
3 2458 5556 2459
3 2459 5557 2460
3 2460 5558 2461
3 2461 5559 2462
3 2462 5560 2463
3 2463 5561 2464
3 2464 5562 2465
3 2465 5563 2466
3 2466 5564 2467
3 2467 5565 2468
3 2468 5566 2469
3 2469 5567 2470
3 2470 5568 2471
3 2471 5569 2472
3 2472 5570 2473
3 2473 5571 2474
3 2474 5572 2475
3 2475 5573 2476
3 2476 5574 2477
3 2477 5575 2478
3 2478 5576 2479
3 2479 5577 2480
3 2480 5578 2481
3 2481 5579 2482
3 2482 5580 2483
3 2483 5581 2484
3 2484 5582 2485
3 2485 5583 2486
3 2486 5584 2487
3 2487 5585 2488
3 2488 5586 2489
3 2489 5587 2490
3 2490 5588 2491
3 2491 5589 2492
3 2492 5590 2493
3 2493 5591 2494
3 2494 5592 2495
3 2495 5593 2496
3 2496 5594 2497
3 2497 5595 2498
3 2498 5596 2499
3 2499 5597 2500
3 2500 5598 2501
3 2501 5599 2502
3 2502 5600 2503
3 2503 5601 2504
3 2504 5602 2505
3 2505 5603 2506
3 2506 5604 2507
3 2507 5605 2508
3 2508 5606 2509
3 2509 5607 2510
3 2510 5608 2511
3 2511 5609 2512
3 2512 5610 2513
3 2513 5611 2514
3 2514 5612 2515
3 2515 5613 2516
3 2516 5614 2517
3 2517 5615 2518
3 2518 5616 2519
3 2519 5617 2520
3 2520 5618 2521
3 2521 5619 2522
3 2522 5620 2523
3 2523 5621 2524
3 2524 5622 2525
3 2525 5623 2526
3 2526 5624 2527
3 2527 5625 2528
3 2528 5626 2529
3 2529 5627 2530
3 2530 5628 2531
3 2531 5629 2532
3 2532 5630 2533
3 2533 5631 2534
3 2534 5632 2535
3 2535 5633 2536
3 2536 5634 2537
3 2537 5635 2538
3 2538 5636 2539
3 2539 5637 2540
3 2540 5638 2541
3 2541 5639 2542
3 2542 5640 2543
3 2543 5641 2544
3 2544 5642 2545
3 2545 5643 2546
3 2546 5644 2547
3 2547 5645 2548
3 2548 5646 2549
3 2549 5647 2550
3 2550 5648 2551
3 2551 5649 2552
3 2552 5650 2553
3 2553 5651 2554
3 2554 5652 2555
3 2555 5653 2556
3 2556 5654 2557
3 2557 5655 2558
3 2558 5656 2559
3 2559 5657 2560
3 2560 5658 2561
3 2561 5659 2562
3 2562 5660 2563
3 2563 5661 2564
3 2564 5662 2565
3 2565 5663 2566
3 2566 5664 2567
3 2567 5665 2568
3 2568 5666 2569
3 2569 5667 2570
3 2570 5668 2571
3 2571 5669 2572
3 2572 5670 2573
3 2573 5671 2574
3 2574 5672 2575
3 2575 5673 2576
3 2576 5674 2577
3 2577 5675 2578
3 2578 5676 2579
3 2579 5677 2580
3 2580 5678 2581
3 2581 5679 2582
3 2582 5680 2583
3 2583 5681 2584
3 2584 5682 2585
3 2585 5683 2586
3 2586 5684 2587
3 2587 5685 2588
3 2588 5686 2589
3 2589 5687 2590
3 2590 5688 2591
3 2591 5689 2592
3 2592 5690 2593
3 2593 5691 2594
3 2594 5692 2595
3 2595 5693 2596
3 2596 5694 2597
3 2597 5695 2598
3 2598 5696 2599
3 2599 5697 2600
3 2600 5698 2601
3 2601 5699 2602
3 2602 5700 2603
3 2603 5701 2604
3 2604 5702 2605
3 2605 5703 2606
3 2606 5704 2607
3 2607 5705 2608
3 2608 5706 2609
3 2609 5707 2610
3 2610 5708 2611
3 2611 5709 2612
3 2612 5710 2613
3 2613 5711 2614
3 2614 5712 2615
3 2615 5713 2616
3 2616 5714 2617
3 2617 5715 2618
3 2618 5716 2619
3 2619 5717 2620
3 2620 5718 2621
3 2621 5719 2622
3 2622 5720 2623
3 2623 5721 2624
3 2624 5722 2625
3 2625 5723 2626
3 2626 5724 2627
3 2627 5725 2628
3 2628 5726 2629
3 2629 5727 2630
3 2630 5728 2631
3 2631 5729 2632
3 2632 5730 2633
3 2633 5731 2634
3 2634 5732 2635
3 2635 5733 2636
3 2636 5734 2637
3 2637 5735 2638
3 2638 5736 2639
3 2639 5737 2640
3 2640 5738 2641
3 2641 5739 2642
3 2642 5740 2643
3 2643 5741 2644
3 2644 5742 2645
3 2645 5743 2646
3 2646 5744 2647
3 2647 5745 2648
3 2648 5746 2649
3 2649 5747 2650
3 2650 5748 2651
3 2651 5749 2652
3 2652 5750 2653
3 2653 5751 2654
3 2654 5752 2655
3 2655 5753 2656
3 2656 5754 2657
3 2657 5755 2658
3 2658 5756 2659
3 2659 5757 2660
3 2660 5758 2661
3 2661 5759 2662
3 2662 5760 2663
3 2663 5761 2664
3 2664 5762 2665
3 2665 5763 2666
3 2666 5764 2667
3 2667 5765 2668
3 2668 5766 2669
3 2669 5767 2670
3 2670 5768 2671
3 2671 5769 2672
3 2672 5770 2673
3 2673 5771 2674
3 2674 5772 2675
3 2675 5773 2676
3 2676 5774 2677
3 2677 5775 2678
3 2678 5776 2679
3 2679 5777 2680
3 2680 5778 2681
3 2681 5779 2682
3 2682 5780 2683
3 2683 5781 2684
3 2684 5782 2685
3 2685 5783 2686
3 2686 5784 2687
3 2687 5785 2688
3 2688 5786 2689
3 2689 5787 2690
3 2690 5788 2691
3 2691 5789 2692
3 2692 5790 2693
3 2693 5791 2694
3 2694 5792 2695
3 2695 5793 2696
3 2696 5794 2697
3 2697 5795 2698
3 2698 5796 2699
3 2699 5797 2700
3 2700 5798 2701
3 2701 5799 2702
3 2702 5800 2703
3 2703 5801 2704
3 2704 5802 2705
3 2705 5803 2706
3 2706 5804 2707
3 2707 5805 2708
3 2708 5806 2709
3 2709 5807 2710
3 2710 5808 2711
3 2711 5809 2712
3 2712 5810 2713
3 2713 5811 2714
3 2714 5812 2715
3 2715 5813 2716
3 2716 5814 2717
3 2717 5815 2718
3 2719 5816 2720
3 2720 5817 2721
3 2721 5818 2722
3 2722 5819 2723
3 2723 5820 2724
3 2724 5821 2725
3 2725 5822 2726
3 2726 5823 2727
3 2727 5824 2728
3 2728 5825 2729
3 2729 5826 2730
3 2730 5827 2731
3 2731 5828 2732
3 2732 5829 2733
3 2733 5830 2734
3 2734 5831 2735
3 2735 5832 2736
3 2736 5833 2737
3 2737 5834 2738
3 2738 5835 2739
3 2739 5836 2740
3 2740 5837 2741
3 2741 5838 2742
3 2742 5839 2743
3 2743 5840 2744
3 2744 5841 2745
3 2745 5842 2746
3 2746 5843 2747
3 2747 5844 2748
3 2748 5845 2749
3 2749 5846 2750
3 2750 5847 2751
3 2751 5848 2752
3 2752 5849 2753
3 2753 5850 2754
3 2754 5851 2755
3 2755 5852 2756
3 2756 5853 2757
3 2757 5854 2758
3 2758 5855 2759
3 2759 5856 2760
3 2760 5857 2761
3 2761 5858 2762
3 2762 5859 2763
3 2763 5860 2764
3 2764 5861 2765
3 2765 5862 2766
3 2766 5863 2767
3 2767 5864 2768
3 2768 5865 2769
3 2769 5866 2770
3 2770 5867 2771
3 2771 5868 2772
3 2772 5869 2773
3 2773 5870 2774
3 2774 5871 2775
3 2775 5872 2776
3 2776 5873 2777
3 2777 5874 2778
3 2778 5875 2779
3 2779 5876 2780
3 2780 5877 2781
3 2781 5878 2782
3 2782 5879 2783
3 2783 5880 2784
3 2784 5881 2785
3 2785 5882 2786
3 2786 5883 2787
3 2787 5884 2788
3 2788 5885 2789
3 2789 5886 2790
3 2790 5887 2791
3 2791 5888 2792
3 2792 5889 2793
3 2793 5890 2794
3 2794 5891 2795
3 2795 5892 2796
3 2796 5893 2797
3 2797 5894 2798
3 2798 5895 2799
3 2799 5896 2800
3 2800 5897 2801
3 2801 5898 2802
3 2802 5899 2803
3 2803 5900 2804
3 2804 5901 2805
3 2805 5902 2806
3 2806 5903 2807
3 2807 5904 2808
3 2808 5905 2809
3 2809 5906 2810
3 2810 5907 2811
3 2811 5908 2812
3 2812 5909 2813
3 2813 5910 2814
3 2814 5911 2815
3 2815 5912 2816
3 2816 5913 2817
3 2817 5914 2818
3 2818 5915 2819
3 2819 5916 2820
3 2820 5917 2821
3 2821 5918 2822
3 2822 5919 2823
3 2823 5920 2824
3 2824 5921 2825
3 2825 5922 2826
3 2826 5923 2827
3 2827 5924 2828
3 2828 5925 2829
3 2829 5926 2830
3 2830 5927 2831
3 2831 5928 2832
3 2832 5929 2833
3 2833 5930 2834
3 2834 5931 2835
3 2835 5932 2836
3 2836 5933 2837
3 2837 5934 2838
3 2838 5935 2839
3 2839 5936 2840
3 2840 5937 2841
3 2841 5938 2842
3 2842 5939 2843
3 2843 5940 2844
3 2844 5941 2845
3 2845 5942 2846
3 2846 5943 2847
3 2847 5944 2848
3 2848 5945 2849
3 2849 5946 2850
3 2850 5947 2851
3 2851 5948 2852
3 2852 5949 2853
3 2853 5950 2854
3 2854 5951 2855
3 2855 5952 2856
3 2856 5953 2857
3 2857 5954 2858
3 2858 5955 2859
3 2859 5956 2860
3 2860 5957 2861
3 2861 5958 2862
3 2862 5959 2863
3 2863 5960 2864
3 2864 5961 2865
3 2865 5962 2866
3 2866 5963 2867
3 2867 5964 2868
3 2868 5965 2869
3 2869 5966 2870
3 2870 5967 2871
3 2871 5968 2872
3 2872 5969 2873
3 2873 5970 2874
3 2874 5971 2875
3 2875 5972 2876
3 2876 5973 2877
3 2877 5974 2878
3 2878 5975 2879
3 2879 5976 2880
3 2880 5977 2881
3 2881 5978 2882
3 2882 5979 2883
3 2883 5980 2884
3 2884 5981 2885
3 2885 5982 2886
3 2886 5983 2887
3 2887 5984 2888
3 2888 5985 2889
3 2889 5986 2890
3 2890 5987 2891
3 2891 5988 2892
3 2892 5989 2893
3 2893 5990 2894
3 2894 5991 2895
3 2895 5992 2896
3 2896 5993 2897
3 2897 5994 2898
3 2898 5995 2899
3 2899 5996 2900
3 2900 5997 2901
3 2901 5998 2902
3 2902 5999 2903
3 2903 6000 2904
3 2904 6001 2905
3 2905 6002 2906
3 2906 6003 2907
3 2907 6004 2908
3 2908 6005 2909
3 2909 6006 2910
3 2910 6007 2911
3 2911 6008 2912
3 2912 6009 2913
3 2913 6010 2914
3 2914 6011 2915
3 2915 6012 2916
3 2916 6013 2917
3 2917 6014 2918
3 2918 6015 2919
3 2919 6016 2920
3 2920 6017 2921
3 2921 6018 2922
3 2922 6019 2923
3 2923 6020 2924
3 2924 6021 2925
3 2925 6022 2926
3 2926 6023 2927
3 2927 6024 2928
3 2928 6025 2929
3 2929 6026 2930
3 2930 6027 2931
3 2931 6028 2932
3 2932 6029 2933
3 2933 6030 2934
3 2934 6031 2935
3 2935 6032 2936
3 2936 6033 2937
3 2937 6034 2938
3 2938 6035 2939
3 2939 6036 2940
3 2940 6037 2941
3 2941 6038 2942
3 2942 6039 2943
3 2943 6040 2944
3 2944 6041 2945
3 2945 6042 2946
3 2946 6043 2947
3 2947 6044 2948
3 2948 6045 2949
3 2949 6046 2950
3 2950 6047 2951
3 2951 6048 2952
3 2952 6049 2953
3 2953 6050 2954
3 2954 6051 2955
3 2955 6052 2956
3 2956 6053 2957
3 2957 6054 2958
3 2958 6055 2959
3 2959 6056 2960
3 2960 6057 2961
3 2961 6058 2962
3 2962 6059 2963
3 2963 6060 2964
3 2964 6061 2965
3 2965 6062 2966
3 2966 6063 2967
3 2967 6064 2968
3 2968 6065 2969
3 2969 6066 2970
3 2970 6067 2971
3 2971 6068 2972
3 2972 6069 2973
3 2973 6070 2974
3 2974 6071 2975
3 2975 6072 2976
3 2976 6073 2977
3 2977 6074 2978
3 2978 6075 2979
3 2979 6076 2980
3 2980 6077 2981
3 2981 6078 2982
3 2982 6079 2983
3 2983 6080 2984
3 2984 6081 2985
3 2985 6082 2986
3 2986 6083 2987
3 2987 6084 2988
3 2988 6085 2989
3 2989 6086 2990
3 2990 6087 2991
3 2991 6088 2992
3 2992 6089 2993
3 2993 6090 2994
3 2994 6091 2995
3 2995 6092 2996
3 2996 6093 2997
3 2997 6094 2998
3 2998 6095 2999
3 2999 6096 3000
3 3000 6097 3001
3 3001 6098 3002
3 3002 6099 3003
3 3003 6100 3004
3 3004 6101 3005
3 3005 6102 3006
3 3006 6103 3007
3 3007 6104 3008
3 3008 6105 3009
3 3009 6106 3010
3 3010 6107 3011
3 3011 6108 3012
3 3012 6109 3013
3 3013 6110 3014
3 3014 6111 3015
3 3015 6112 3016
3 3016 6113 3017
3 3017 6114 3018
3 3018 6115 3019
3 3019 6116 3020
3 3020 6117 3021
3 3021 6118 3022
3 3022 6119 3023
3 3023 6120 3024
3 3024 6121 3025
3 3025 6122 3026
3 3026 6123 3027
3 3027 6124 3028
3 3028 6125 3029
3 3029 6126 3030
3 3030 6127 3031
3 3031 6128 3032
3 3032 6129 3033
3 3033 6130 3034
3 3034 6131 3035
3 3035 6132 3036
3 3036 6133 3037
3 3037 6134 3038
3 3038 6135 3039
3 3039 6136 3040
3 3040 6137 3041
3 3041 6138 3042
3 3042 6139 3043
3 3043 6140 3044
3 3044 6141 3045
3 3045 6142 3046
3 3046 6143 3047
3 3047 6144 3048
3 3048 6145 3049
3 3049 6146 3050
3 3050 6147 3051
3 3051 6148 3052
3 3052 6149 3053
3 3053 6150 3054
3 3054 6151 3055
3 3055 6152 3056
3 3056 6153 3057
3 3057 6154 3058
3 3058 6155 3059
3 3059 6156 3060
3 3060 6157 3061
3 3061 6158 3062
3 3062 6159 3063
3 3063 6160 3064
3 3064 6161 3065
3 3065 6162 3066
3 3066 6163 3067
3 3067 6164 3068
3 3068 6165 3069
3 3069 6166 3070
3 3070 6167 3071
3 3071 6168 3072
3 3072 6169 3073
3 3073 6170 3074
3 3074 6171 3075
3 3075 6172 3076
3 3076 6173 3077
3 3077 6174 3078
3 3078 6175 3079
3 3079 6176 3080
3 3080 6177 3081
3 3081 6178 3082
3 3082 6179 3083
3 3083 6180 3084
3 3084 6181 3085
3 3085 6182 3086
3 3086 6183 3087
3 3087 6184 3088
3 3088 6185 3089
3 3089 6186 3090
3 3090 6187 3091
3 3091 6188 3092
3 3092 6189 3093
3 3093 6190 3094
3 3094 6191 3095
3 3095 6192 3096
3 3096 6193 3097
3 3097 6194 3098
3 3098 6195 3099
3 3099 6196 3100
3 3100 6197 3101
3 3101 6198 3102
3 3102 6199 3103
3 3103 6200 3104
3 3104 6201 3105

CELL_TYPES 3096
4
4
4
4
4
4
4
4
4
4
4
4
4
4
4
4
4
4
4
4
4
4
4
4
4
4
4
4
4
4
4
4
4
4
4
4
4
4
4
4
4
4
4
4
4
4
4
4
4
4
4
4
4
4
4
4
4
4
4
4
4
4
4
4
4
4
4
4
4
4
4
4
4
4
4
4
4
4
4
4
4
4
4
4
4
4
4
4
4
4
4
4
4
4
4
4
4
4
4
4
4
4
4
4
4
4
4
4
4
4
4
4
4
4
4
4
4
4
4
4
4
4
4
4
4
4
4
4
4
4
4
4
4
4
4
4
4
4
4
4
4
4
4
4
4
4
4
4
4
4
4
4
4
4
4
4
4
4
4
4
4
4
4
4
4
4
4
4
4
4
4
4
4
4
4
4
4
4
4
4
4
4
4
4
4
4
4
4
4
4
4
4
4
4
4
4
4
4
4
4
4
4
4
4
4
4
4
4
4
4
4
4
4
4
4
4
4
4
4
4
4
4
4
4
4
4
4
4
4
4
4
4
4
4
4
4
4
4
4
4
4
4
4
4
4
4
4
4
4
4
4
4
4
4
4
4
4
4
4
4
4
4
4
4
4
4
4
4
4
4
4
4
4
4
4
4
4
4
4
4
4
4
4
4
4
4
4
4
4
4
4
4
4
4
4
4
4
4
4
4
4
4
4
4
4
4
4
4
4
4
4
4
4
4
4
4
4
4
4
4
4
4
4
4
4
4
4
4
4
4
4
4
4
4
4
4
4
4
4
4
4
4
4
4
4
4
4
4
4
4
4
4
4
4
4
4
4
4
4
4
4
4
4
4
4
4
4
4
4
4
4
4
4
4
4
4
4
4
4
4
4
4
4
4
4
4
4
4
4
4
4
4
4
4
4
4
4
4
4
4
4
4
4
4
4
4
4
4
4
4
4
4
4
4
4
4
4
4
4
4
4
4
4
4
4
4
4
4
4
4
4
4
4
4
4
4
4
4
4
4
4
4
4
4
4
4
4
4
4
4
4
4
4
4
4
4
4
4
4
4
4
4
4
4
4
4
4
4
4
4
4
4
4
4
4
4
4
4
4
4
4
4
4
4
4
4
4
4
4
4
4
4
4
4
4
4
4
4
4
4
4
4
4
4
4
4
4
4
4
4
4
4
4
4
4
4
4
4
4
4
4
4
4
4
4
4
4
4
4
4
4
4
4
4
4
4
4
4
4
4
4
4
4
4
4
4
4
4
4
4
4
4
4
4
4
4
4
4
4
4
4
4
4
4
4
4
4
4
4
4
4
4
4
4
4
4
4
4
4
4
4
4
4
4
4
4
4
4
4
4
4
4
4
4
4
4
4
4
4
4
4
4
4
4
4
4
4
4
4
4
4
4
4
4
4
4
4
4
4
4
4
4
4
4
4
4
4
4
4
4
4
4
4
4
4
4
4
4
4
4
4
4
4
4
4
4
4
4
4
4
4
4
4
4
4
4
4
4
4
4
4
4
4
4
4
4
4
4
4
4
4
4
4
4
4
4
4
4
4
4
4
4
4
4
4
4
4
4
4
4
4
4
4
4
4
4
4
4
4
4
4
4
4
4
4
4
4
4
4
4
4
4
4
4
4
4
4
4
4
4
4
4
4
4
4
4
4
4
4
4
4
4
4
4
4
4
4
4
4
4
4
4
4
4
4
4
4
4
4
4
4
4
4
4
4
4
4
4
4
4
4
4
4
4
4
4
4
4
4
4
4
4
4
4
4
4
4
4
4
4
4
4
4
4
4
4
4
4
4
4
4
4
4
4
4
4
4
4
4
4
4
4
4
4
4
4
4
4
4
4
4
4
4
4
4
4
4
4
4
4
4
4
4
4
4
4
4
4
4
4
4
4
4
4
4
4
4
4
4
4
4
4
4
4
4
4
4
4
4
4
4
4
4
4
4
4
4
4
4
4
4
4
4
4
4
4
4
4
4
4
4
4
4
4
4
4
4
4
4
4
4
4
4
4
4
4
4
4
4
4
4
4
4
4
4
4
4
4
4
4
4
4
4
4
4
4
4
4
4
4
4
4
4
4
4
4
4
4
4
4
4
4
4
4
4
4
4
4
4
4
4
4
4
4
4
4
4
4
4
4
4
4
4
4
4
4
4
4
4
4
4
4
4
4
4
4
4
4
4
4
4
4
4
4
4
4
4
4
4
4
4
4
4
4
4
4
4
4
4
4
4
4
4
4
4
4
4
4
4
4
4
4
4
4
4
4
4
4
4
4
4
4
4
4
4
4
4
4
4
4
4
4
4
4
4
4
4
4
4
4
4
4
4
4
4
4
4
4
4
4
4
4
4
4
4
4
4
4
4
4
4
4
4
4
4
4
4
4
4
4
4
4
4
4
4
4
4
4
4
4
4
4
4
4
4
4
4
4
4
4
4
4
4
4
4
4
4
4
4
4
4
4
4
4
4
4
4
4
4
4
4
4
4
4
4
4
4
4
4
4
4
4
4
4
4
4
4
4
4
4
4
4
4
4
4
4
4
4
4
4
4
4
4
4
4
4
4
4
4
4
4
4
4
4
4
4
4
4
4
4
4
4
4
4
4
4
4
4
4
4
4
4
4
4
4
4
4
4
4
4
4
4
4
4
4
4
4
4
4
4
4
4
4
4
4
4
4
4
4
4
4
4
4
4
4
4
4
4
4
4
4
4
4
4
4
4
4
4
4
4
4
4
4
4
4
4
4
4
4
4
4
4
4
4
4
4
4
4
4
4
4
4
4
4
4
4
4
4
4
4
4
4
4
4
4
4
4
4
4
4
4
4
4
4
4
4
4
4
4
4
4
4
4
4
4
4
4
4
4
4
4
4
4
4
4
4
4
4
4
4
4
4
4
4
4
4
4
4
4
4
4
4
4
4
4
4
4
4
4
4
4
4
4
4
4
4
4
4
4
4
4
4
4
4
4
4
4
4
4
4
4
4
4
4
4
4
4
4
4
4
4
4
4
4
4
4
4
4
4
4
4
4
4
4
4
4
4
4
4
4
4
4
4
4
4
4
4
4
4
4
4
4
4
4
4
4
4
4
4
4
4
4
4
4
4
4
4
4
4
4
4
4
4
4
4
4
4
4
4
4
4
4
4
4
4
4
4
4
4
4
4
4
4
4
4
4
4
4
4
4
4
4
4
4
4
4
4
4
4
4
4
4
4
4
4
4
4
4
4
4
4
4
4
4
4
4
4
4
4
4
4
4
4
4
4
4
4
4
4
4
4
4
4
4
4
4
4
4
4
4
4
4
4
4
4
4
4
4
4
4
4
4
4
4
4
4
4
4
4
4
4
4
4
4
4
4
4
4
4
4
4
4
4
4
4
4
4
4
4
4
4
4
4
4
4
4
4
4
4
4
4
4
4
4
4
4
4
4
4
4
4
4
4
4
4
4
4
4
4
4
4
4
4
4
4
4
4
4
4
4
4
4
4
4
4
4
4
4
4
4
4
4
4
4
4
4
4
4
4
4
4
4
4
4
4
4
4
4
4
4
4
4
4
4
4
4
4
4
4
4
4
4
4
4
4
4
4
4
4
4
4
4
4
4
4
4
4
4
4
4
4
4
4
4
4
4
4
4
4
4
4
4
4
4
4
4
4
4
4
4
4
4
4
4
4
4
4
4
4
4
4
4
4
4
4
4
4
4
4
4
4
4
4
4
4
4
4
4
4
4
4
4
4
4
4
4
4
4
4
4
4
4
4
4
4
4
4
4
4
4
4
4
4
4
4
4
4
4
4
4
4
4
4
4
4
4
4
4
4
4
4
4
4
4
4
4
4
4
4
4
4
4
4
4
4
4
4
4
4
4
4
4
4
4
4
4
4
4
4
4
4
4
4
4
4
4
4
4
4
4
4
4
4
4
4
4
4
4
4
4
4
4
4
4
4
4
4
4
4
4
4
4
4
4
4
4
4
4
4
4
4
4
4
4
4
4
4
4
4
4
4
4
4
4
4
4
4
4
4
4
4
4
4
4
4
4
4
4
4
4
4
4
4
4
4
4
4
4
4
4
4
4
4
4
4
4
4
4
4
4
4
4
4
4
4
4
4
4
4
4
4
4
4
4
4
4
4
4
4
4
4
4
4
4
4
4
4
4
4
4
4
4
4
4
4
4
4
4
4
4
4
4
4
4
4
4
4
4
4
4
4
4
4
4
4
4
4
4
4
4
4
4
4
4
4
4
4
4
4
4
4
4
4
4
4
4
4
4
4
4
4
4
4
4
4
4
4
4
4
4
4
4
4
4
4
4
4
4
4
4
4
4
4
4
4
4
4
4
4
4
4
4
4
4
4
4
4
4
4
4
4
4
4
4
4
4
4
4
4
4
4
4
4
4
4
4
4
4
4
4
4
4
4
4
4
4
4
4
4
4
4
4
4
4
4
4
4
4
4
4
4
4
4
4
4
4
4
4
4
4
4
4
4
4
4
4
4
4
4
4
4
4
4
4
4
4
4
4
4
4
4
4
4
4
4
4
4
4
4
4
4
4
4
4
4
4
4
4
4
4
4
4
4
4
4
4
4
4
4
4
4
4
4
4
4
4
4
4
4
4
4
4
4
4
4
4
4
4
4
4
4
4
4
4
4
4
4
4
4
4
4
4
4
4
4
4
4
4
4
4
4
4
4
4
4
4
4
4
4
4
4
4
4
4
4
4
4
4
4
4
4
4
4
4
4
4
4
4
4
4
4
4
4
4
4
4
4
4
4
4
4
4
4
4
4
4
4
4
4
4
4
4
4
4
4
4
4
4
4
4
4
4
4
4
4
4
4
4
4
4
4
4
4
4
4
4
4
4
4
4
4
4
4
4
4
4
4
4
4
4
4
4
4
4
4
4
4
4
4
4
4
4
4
4
4
4
4
4
4
4
4
4
4
4
4
4
4
4
4
4
4
4
4
4
4
4
4
4
4
4
4
4
4
4
4
4
4
4
4
4
4
4
4
4
4
4
4
4
4
4
4
4
4
4
4
4
4
4
4
4
4
4
4
4
4
4
4
4
4
4
4
4
4
4
4
4
4
4
4
4
4
4
4
4
4
4
4
4
4
4
4
4
4
4
4
4
4
4
4
4
4
4
4
4
4
4
4
4
4
4
4
4
4
4
4
4
4
4
4
4
4
4
4
4
4
4
4
4
4
4
4
4
4
4
4
4
4
4
4
4
4
4
4
4
4
4
4
4
4
4
4
4
4
4
4
4
4
4
4
4
4
4
4
4
4
4
4
4
4
4
4
4
4
4
4
4
4
4
4
4
4
4
4
4
4
4
4
4
4
4
4
4
4
4
4
4
4
4
4
4
4
4
4
4
4
4
4
4
4
4
4
4
4
4
4
4
4
4
4
4
4
4
4
4
4
4
4
4
4
4
4
4
4
4
4
4
4
4
4
4
4
4
4
4
4
4
4
4
4
4
4
4
4
4
4
4
4
4
4
4
4
4
4
4
4
4
4
4
4
4
4
4
4
4
4
4
4
4
4
4
4
4
4
4
4
4
4
4
4
4
4
4
4
4
4
4
4
4
4
4
4
4
4
4
4
4
4
4
4
4
4
4
4
4
4
4
4
4
4
4
4
4
4
4
4
4
4
4
4
4
4
4
4
4
4
4
4
4
4
4
4
4
4
4
4
4
4
4
4
4
4
4
4
4
4
4
4
4
4
4
4
4
4
4
4
4
4
4
4
4
4
4
4
4
4
4
4
4
4
4
4
4
4
4
4
4
4
4
4
4
4
4
4
4
4
4
4
4
4
4
4
4
4
4
4
4
4
4
4
4
4
4
4
4
4
4
4
4
4
4
4
4
4
4
4
4
4
4
4
4
4
4
4
4
4
4
4
4
4
4
4
4
4
4
4
4
4
4
4
4
4
4
4
4
4
4
4
4
4
4
4
4
4
4
4
4
4
4
4
4
4
4
4
4
4
4
4
4
4
4
4
4
4
4
4
4
4
4
4
4
4
4
4
4
4
4
4
4
4
4
4
4
4
4
4
4
4
4
4
4
4
4
4
4
4
4
4
4
4
4
4
4
4
4
4
4
4
4
4
4
4
4
4
4
4
4
4
4
4
4
4
4
4
4
4
4
4
4
4
4
4
4
4
4
4
4
4
4
4
4
4
4
4
4
4
4
4
4
4
4
4
4
4
4
4
4
4
4
4
4
4
4
4
4
4
4
4
4
4
4
4
4
4
4
4
4
4
4
4
4
4
4
4
4
4
4
4
4
4
4
4
4
4
4
4
4
4
4
4
4
4
4
4
4
4
4
4
4
4
4
4
4
4
4
4
4
4
4
4
4
4
4
4
4
4
4
4
4
4
4
4
4
4
4
4
4
4
4
4
4
4
4
4
4
4
4
4
4
4
4
4
4
4
4
4
4
4
4
4
4
4
4
4
4
4
4
4
4
4
4
4
4
4
4
4
4
4
4
4
4
4
4
4
4
4
4
4
4
4
4
4
4
4
4
4
4
4
4
4
4
4
4
4
4
4
4
4
4
4
4
4
4
4
4
4
4
4
4
4
4
4
4
4
4
4
4
4
4
4
4
4
4
4
4
4
4
4
4
4
4
4
4
4
4
4
4
4
4
4
4
4
4
4
4
4
4
4
4
4
4
4
4
4
4
4
4
4
4
4
4
4
4
4
4
4
4
4
4
4
4
4
4
4
4
4
4
4
4
4
4
4
4
4
4
4
4
4
4
4
4
4
4
4
4
4
4
4
4
4
4
4
4
4
4
4
4
4
4
4
4
4
4
4
4
4
4
4
4
4
4
4
4
4
4
4
4
4
4
4
4
4
4
4
4
4
4
4
4
4
4
4
4
4
4
4
4
4
4
4
4
4
4
4
4
4
4
4
4
4
4
4
4
4
4
4
4
4
4
4
4
4
4
4
4
4
4
4
4
4
4
4
4
4
4
4
4
4
4
4
4
4
4
4
4
4
4
4
4
4
4
4
4
4
4
4
4

POINT_DATA 6202
VECTORS PK_force double
0.000000000000000e+00 0.000000000000000e+00 0.000000000000000e+00
0.000000000000000e+00 0.000000000000000e+00 0.000000000000000e+00
0.000000000000000e+00 0.000000000000000e+00 0.000000000000000e+00
0.000000000000000e+00 0.000000000000000e+00 0.000000000000000e+00
0.000000000000000e+00 0.000000000000000e+00 0.000000000000000e+00
0.000000000000000e+00 0.000000000000000e+00 0.000000000000000e+00
0.000000000000000e+00 0.000000000000000e+00 0.000000000000000e+00
0.000000000000000e+00 0.000000000000000e+00 0.000000000000000e+00
0.000000000000000e+00 0.000000000000000e+00 0.000000000000000e+00
0.000000000000000e+00 0.000000000000000e+00 0.000000000000000e+00
0.000000000000000e+00 0.000000000000000e+00 0.000000000000000e+00
0.000000000000000e+00 0.000000000000000e+00 0.000000000000000e+00
0.000000000000000e+00 0.000000000000000e+00 0.000000000000000e+00
0.000000000000000e+00 0.000000000000000e+00 0.000000000000000e+00
0.000000000000000e+00 0.000000000000000e+00 0.000000000000000e+00
0.000000000000000e+00 0.000000000000000e+00 0.000000000000000e+00
0.000000000000000e+00 0.000000000000000e+00 0.000000000000000e+00
0.000000000000000e+00 0.000000000000000e+00 0.000000000000000e+00
0.000000000000000e+00 0.000000000000000e+00 0.000000000000000e+00
0.000000000000000e+00 0.000000000000000e+00 0.000000000000000e+00
0.000000000000000e+00 0.000000000000000e+00 0.000000000000000e+00
0.000000000000000e+00 0.000000000000000e+00 0.000000000000000e+00
0.000000000000000e+00 0.000000000000000e+00 0.000000000000000e+00
0.000000000000000e+00 0.000000000000000e+00 0.000000000000000e+00
0.000000000000000e+00 0.000000000000000e+00 0.000000000000000e+00
0.000000000000000e+00 0.000000000000000e+00 0.000000000000000e+00
0.000000000000000e+00 0.000000000000000e+00 0.000000000000000e+00
0.000000000000000e+00 0.000000000000000e+00 0.000000000000000e+00
0.000000000000000e+00 0.000000000000000e+00 0.000000000000000e+00
0.000000000000000e+00 0.000000000000000e+00 0.000000000000000e+00
0.000000000000000e+00 0.000000000000000e+00 0.000000000000000e+00
0.000000000000000e+00 0.000000000000000e+00 0.000000000000000e+00
0.000000000000000e+00 0.000000000000000e+00 0.000000000000000e+00
0.000000000000000e+00 0.000000000000000e+00 0.000000000000000e+00
0.000000000000000e+00 0.000000000000000e+00 0.000000000000000e+00
0.000000000000000e+00 0.000000000000000e+00 0.000000000000000e+00
0.000000000000000e+00 0.000000000000000e+00 0.000000000000000e+00
0.000000000000000e+00 0.000000000000000e+00 0.000000000000000e+00
0.000000000000000e+00 0.000000000000000e+00 0.000000000000000e+00
0.000000000000000e+00 0.000000000000000e+00 0.000000000000000e+00
0.000000000000000e+00 0.000000000000000e+00 0.000000000000000e+00
0.000000000000000e+00 0.000000000000000e+00 0.000000000000000e+00
0.000000000000000e+00 0.000000000000000e+00 0.000000000000000e+00
0.000000000000000e+00 0.000000000000000e+00 0.000000000000000e+00
0.000000000000000e+00 0.000000000000000e+00 0.000000000000000e+00
0.000000000000000e+00 0.000000000000000e+00 0.000000000000000e+00
0.000000000000000e+00 0.000000000000000e+00 0.000000000000000e+00
0.000000000000000e+00 0.000000000000000e+00 0.000000000000000e+00
0.000000000000000e+00 0.000000000000000e+00 0.000000000000000e+00
0.000000000000000e+00 0.000000000000000e+00 0.000000000000000e+00
0.000000000000000e+00 0.000000000000000e+00 0.000000000000000e+00
0.000000000000000e+00 0.000000000000000e+00 0.000000000000000e+00
0.000000000000000e+00 0.000000000000000e+00 0.000000000000000e+00
0.000000000000000e+00 0.000000000000000e+00 0.000000000000000e+00
0.000000000000000e+00 0.000000000000000e+00 0.000000000000000e+00
0.000000000000000e+00 0.000000000000000e+00 0.000000000000000e+00
0.000000000000000e+00 0.000000000000000e+00 0.000000000000000e+00
0.000000000000000e+00 0.000000000000000e+00 0.000000000000000e+00
0.000000000000000e+00 0.000000000000000e+00 0.000000000000000e+00
0.000000000000000e+00 0.000000000000000e+00 0.000000000000000e+00
0.000000000000000e+00 0.000000000000000e+00 0.000000000000000e+00
0.000000000000000e+00 0.000000000000000e+00 0.000000000000000e+00
0.000000000000000e+00 0.000000000000000e+00 0.000000000000000e+00
0.000000000000000e+00 0.000000000000000e+00 0.000000000000000e+00
0.000000000000000e+00 0.000000000000000e+00 0.000000000000000e+00
0.000000000000000e+00 0.000000000000000e+00 0.000000000000000e+00
0.000000000000000e+00 0.000000000000000e+00 0.000000000000000e+00
0.000000000000000e+00 0.000000000000000e+00 0.000000000000000e+00
0.000000000000000e+00 0.000000000000000e+00 0.000000000000000e+00
0.000000000000000e+00 0.000000000000000e+00 0.000000000000000e+00
0.000000000000000e+00 0.000000000000000e+00 0.000000000000000e+00
0.000000000000000e+00 0.000000000000000e+00 0.000000000000000e+00
0.000000000000000e+00 0.000000000000000e+00 0.000000000000000e+00
0.000000000000000e+00 0.000000000000000e+00 0.000000000000000e+00
0.000000000000000e+00 0.000000000000000e+00 0.000000000000000e+00
0.000000000000000e+00 0.000000000000000e+00 0.000000000000000e+00
0.000000000000000e+00 0.000000000000000e+00 0.000000000000000e+00
0.000000000000000e+00 0.000000000000000e+00 0.000000000000000e+00
0.000000000000000e+00 0.000000000000000e+00 0.000000000000000e+00
0.000000000000000e+00 0.000000000000000e+00 0.000000000000000e+00
0.000000000000000e+00 0.000000000000000e+00 0.000000000000000e+00
0.000000000000000e+00 0.000000000000000e+00 0.000000000000000e+00
0.000000000000000e+00 0.000000000000000e+00 0.000000000000000e+00
0.000000000000000e+00 0.000000000000000e+00 0.000000000000000e+00
0.000000000000000e+00 0.000000000000000e+00 0.000000000000000e+00
0.000000000000000e+00 0.000000000000000e+00 0.000000000000000e+00
0.000000000000000e+00 0.000000000000000e+00 0.000000000000000e+00
0.000000000000000e+00 0.000000000000000e+00 0.000000000000000e+00
0.000000000000000e+00 0.000000000000000e+00 0.000000000000000e+00
0.000000000000000e+00 0.000000000000000e+00 0.000000000000000e+00
0.000000000000000e+00 0.000000000000000e+00 0.000000000000000e+00
0.000000000000000e+00 0.000000000000000e+00 0.000000000000000e+00
0.000000000000000e+00 0.000000000000000e+00 0.000000000000000e+00
0.000000000000000e+00 0.000000000000000e+00 0.000000000000000e+00
0.000000000000000e+00 0.000000000000000e+00 0.000000000000000e+00
0.000000000000000e+00 0.000000000000000e+00 0.000000000000000e+00
0.000000000000000e+00 0.000000000000000e+00 0.000000000000000e+00
0.000000000000000e+00 0.000000000000000e+00 0.000000000000000e+00
0.000000000000000e+00 0.000000000000000e+00 0.000000000000000e+00
0.000000000000000e+00 0.000000000000000e+00 0.000000000000000e+00
0.000000000000000e+00 0.000000000000000e+00 0.000000000000000e+00
0.000000000000000e+00 0.000000000000000e+00 0.000000000000000e+00
0.000000000000000e+00 0.000000000000000e+00 0.000000000000000e+00
0.000000000000000e+00 0.000000000000000e+00 0.000000000000000e+00
0.000000000000000e+00 0.000000000000000e+00 0.000000000000000e+00
0.000000000000000e+00 0.000000000000000e+00 0.000000000000000e+00
0.000000000000000e+00 0.000000000000000e+00 0.000000000000000e+00
0.000000000000000e+00 0.000000000000000e+00 0.000000000000000e+00
0.000000000000000e+00 0.000000000000000e+00 0.000000000000000e+00
0.000000000000000e+00 0.000000000000000e+00 0.000000000000000e+00
0.000000000000000e+00 0.000000000000000e+00 0.000000000000000e+00
0.000000000000000e+00 0.000000000000000e+00 0.000000000000000e+00
0.000000000000000e+00 0.000000000000000e+00 0.000000000000000e+00
0.000000000000000e+00 0.000000000000000e+00 0.000000000000000e+00
0.000000000000000e+00 0.000000000000000e+00 0.000000000000000e+00
0.000000000000000e+00 0.000000000000000e+00 0.000000000000000e+00
0.000000000000000e+00 0.000000000000000e+00 0.000000000000000e+00
0.000000000000000e+00 0.000000000000000e+00 0.000000000000000e+00
0.000000000000000e+00 0.000000000000000e+00 0.000000000000000e+00
0.000000000000000e+00 0.000000000000000e+00 0.000000000000000e+00
0.000000000000000e+00 0.000000000000000e+00 0.000000000000000e+00
0.000000000000000e+00 0.000000000000000e+00 0.000000000000000e+00
0.000000000000000e+00 0.000000000000000e+00 0.000000000000000e+00
0.000000000000000e+00 0.000000000000000e+00 0.000000000000000e+00
0.000000000000000e+00 0.000000000000000e+00 0.000000000000000e+00
0.000000000000000e+00 0.000000000000000e+00 0.000000000000000e+00
0.000000000000000e+00 0.000000000000000e+00 0.000000000000000e+00
0.000000000000000e+00 0.000000000000000e+00 0.000000000000000e+00
0.000000000000000e+00 0.000000000000000e+00 0.000000000000000e+00
0.000000000000000e+00 0.000000000000000e+00 0.000000000000000e+00
0.000000000000000e+00 0.000000000000000e+00 0.000000000000000e+00
0.000000000000000e+00 0.000000000000000e+00 0.000000000000000e+00
0.000000000000000e+00 0.000000000000000e+00 0.000000000000000e+00
0.000000000000000e+00 0.000000000000000e+00 0.000000000000000e+00
0.000000000000000e+00 0.000000000000000e+00 0.000000000000000e+00
0.000000000000000e+00 0.000000000000000e+00 0.000000000000000e+00
0.000000000000000e+00 0.000000000000000e+00 0.000000000000000e+00
0.000000000000000e+00 0.000000000000000e+00 0.000000000000000e+00
0.000000000000000e+00 0.000000000000000e+00 0.000000000000000e+00
0.000000000000000e+00 0.000000000000000e+00 0.000000000000000e+00
0.000000000000000e+00 0.000000000000000e+00 0.000000000000000e+00
0.000000000000000e+00 0.000000000000000e+00 0.000000000000000e+00
0.000000000000000e+00 0.000000000000000e+00 0.000000000000000e+00
0.000000000000000e+00 0.000000000000000e+00 0.000000000000000e+00
0.000000000000000e+00 0.000000000000000e+00 0.000000000000000e+00
0.000000000000000e+00 0.000000000000000e+00 0.000000000000000e+00
0.000000000000000e+00 0.000000000000000e+00 0.000000000000000e+00
0.000000000000000e+00 0.000000000000000e+00 0.000000000000000e+00
0.000000000000000e+00 0.000000000000000e+00 0.000000000000000e+00
0.000000000000000e+00 0.000000000000000e+00 0.000000000000000e+00
0.000000000000000e+00 0.000000000000000e+00 0.000000000000000e+00
0.000000000000000e+00 0.000000000000000e+00 0.000000000000000e+00
0.000000000000000e+00 0.000000000000000e+00 0.000000000000000e+00
0.000000000000000e+00 0.000000000000000e+00 0.000000000000000e+00
0.000000000000000e+00 0.000000000000000e+00 0.000000000000000e+00
0.000000000000000e+00 0.000000000000000e+00 0.000000000000000e+00
0.000000000000000e+00 0.000000000000000e+00 0.000000000000000e+00
0.000000000000000e+00 0.000000000000000e+00 0.000000000000000e+00
0.000000000000000e+00 0.000000000000000e+00 0.000000000000000e+00
0.000000000000000e+00 0.000000000000000e+00 0.000000000000000e+00
0.000000000000000e+00 0.000000000000000e+00 0.000000000000000e+00
0.000000000000000e+00 0.000000000000000e+00 0.000000000000000e+00
0.000000000000000e+00 0.000000000000000e+00 0.000000000000000e+00
0.000000000000000e+00 0.000000000000000e+00 0.000000000000000e+00
0.000000000000000e+00 0.000000000000000e+00 0.000000000000000e+00
0.000000000000000e+00 0.000000000000000e+00 0.000000000000000e+00
0.000000000000000e+00 0.000000000000000e+00 0.000000000000000e+00
0.000000000000000e+00 0.000000000000000e+00 0.000000000000000e+00
0.000000000000000e+00 0.000000000000000e+00 0.000000000000000e+00
0.000000000000000e+00 0.000000000000000e+00 0.000000000000000e+00
0.000000000000000e+00 0.000000000000000e+00 0.000000000000000e+00
0.000000000000000e+00 0.000000000000000e+00 0.000000000000000e+00
0.000000000000000e+00 0.000000000000000e+00 0.000000000000000e+00
0.000000000000000e+00 0.000000000000000e+00 0.000000000000000e+00
0.000000000000000e+00 0.000000000000000e+00 0.000000000000000e+00
0.000000000000000e+00 0.000000000000000e+00 0.000000000000000e+00
0.000000000000000e+00 0.000000000000000e+00 0.000000000000000e+00
0.000000000000000e+00 0.000000000000000e+00 0.000000000000000e+00
0.000000000000000e+00 0.000000000000000e+00 0.000000000000000e+00
0.000000000000000e+00 0.000000000000000e+00 0.000000000000000e+00
0.000000000000000e+00 0.000000000000000e+00 0.000000000000000e+00
0.000000000000000e+00 0.000000000000000e+00 0.000000000000000e+00
0.000000000000000e+00 0.000000000000000e+00 0.000000000000000e+00
0.000000000000000e+00 0.000000000000000e+00 0.000000000000000e+00
0.000000000000000e+00 0.000000000000000e+00 0.000000000000000e+00
0.000000000000000e+00 0.000000000000000e+00 0.000000000000000e+00
0.000000000000000e+00 0.000000000000000e+00 0.000000000000000e+00
0.000000000000000e+00 0.000000000000000e+00 0.000000000000000e+00
0.000000000000000e+00 0.000000000000000e+00 0.000000000000000e+00
0.000000000000000e+00 0.000000000000000e+00 0.000000000000000e+00
0.000000000000000e+00 0.000000000000000e+00 0.000000000000000e+00
0.000000000000000e+00 0.000000000000000e+00 0.000000000000000e+00
0.000000000000000e+00 0.000000000000000e+00 0.000000000000000e+00
0.000000000000000e+00 0.000000000000000e+00 0.000000000000000e+00
0.000000000000000e+00 0.000000000000000e+00 0.000000000000000e+00
0.000000000000000e+00 0.000000000000000e+00 0.000000000000000e+00
0.000000000000000e+00 0.000000000000000e+00 0.000000000000000e+00
0.000000000000000e+00 0.000000000000000e+00 0.000000000000000e+00
0.000000000000000e+00 0.000000000000000e+00 0.000000000000000e+00
0.000000000000000e+00 0.000000000000000e+00 0.000000000000000e+00
0.000000000000000e+00 0.000000000000000e+00 0.000000000000000e+00
0.000000000000000e+00 0.000000000000000e+00 0.000000000000000e+00
0.000000000000000e+00 0.000000000000000e+00 0.000000000000000e+00
0.000000000000000e+00 0.000000000000000e+00 0.000000000000000e+00
0.000000000000000e+00 0.000000000000000e+00 0.000000000000000e+00
0.000000000000000e+00 0.000000000000000e+00 0.000000000000000e+00
0.000000000000000e+00 0.000000000000000e+00 0.000000000000000e+00
0.000000000000000e+00 0.000000000000000e+00 0.000000000000000e+00
0.000000000000000e+00 0.000000000000000e+00 0.000000000000000e+00
0.000000000000000e+00 0.000000000000000e+00 0.000000000000000e+00
0.000000000000000e+00 0.000000000000000e+00 0.000000000000000e+00
0.000000000000000e+00 0.000000000000000e+00 0.000000000000000e+00
0.000000000000000e+00 0.000000000000000e+00 0.000000000000000e+00
0.000000000000000e+00 0.000000000000000e+00 0.000000000000000e+00
0.000000000000000e+00 0.000000000000000e+00 0.000000000000000e+00
0.000000000000000e+00 0.000000000000000e+00 0.000000000000000e+00
0.000000000000000e+00 0.000000000000000e+00 0.000000000000000e+00
0.000000000000000e+00 0.000000000000000e+00 0.000000000000000e+00
0.000000000000000e+00 0.000000000000000e+00 0.000000000000000e+00
0.000000000000000e+00 0.000000000000000e+00 0.000000000000000e+00
0.000000000000000e+00 0.000000000000000e+00 0.000000000000000e+00
0.000000000000000e+00 0.000000000000000e+00 0.000000000000000e+00
0.000000000000000e+00 0.000000000000000e+00 0.000000000000000e+00
0.000000000000000e+00 0.000000000000000e+00 0.000000000000000e+00
0.000000000000000e+00 0.000000000000000e+00 0.000000000000000e+00
0.000000000000000e+00 0.000000000000000e+00 0.000000000000000e+00
0.000000000000000e+00 0.000000000000000e+00 0.000000000000000e+00
0.000000000000000e+00 0.000000000000000e+00 0.000000000000000e+00
0.000000000000000e+00 0.000000000000000e+00 0.000000000000000e+00
0.000000000000000e+00 0.000000000000000e+00 0.000000000000000e+00
0.000000000000000e+00 0.000000000000000e+00 0.000000000000000e+00
0.000000000000000e+00 0.000000000000000e+00 0.000000000000000e+00
0.000000000000000e+00 0.000000000000000e+00 0.000000000000000e+00
0.000000000000000e+00 0.000000000000000e+00 0.000000000000000e+00
0.000000000000000e+00 0.000000000000000e+00 0.000000000000000e+00
0.000000000000000e+00 0.000000000000000e+00 0.000000000000000e+00
0.000000000000000e+00 0.000000000000000e+00 0.000000000000000e+00
0.000000000000000e+00 0.000000000000000e+00 0.000000000000000e+00
0.000000000000000e+00 0.000000000000000e+00 0.000000000000000e+00
0.000000000000000e+00 0.000000000000000e+00 0.000000000000000e+00
0.000000000000000e+00 0.000000000000000e+00 0.000000000000000e+00
0.000000000000000e+00 0.000000000000000e+00 0.000000000000000e+00
0.000000000000000e+00 0.000000000000000e+00 0.000000000000000e+00
0.000000000000000e+00 0.000000000000000e+00 0.000000000000000e+00
0.000000000000000e+00 0.000000000000000e+00 0.000000000000000e+00
0.000000000000000e+00 0.000000000000000e+00 0.000000000000000e+00
0.000000000000000e+00 0.000000000000000e+00 0.000000000000000e+00
0.000000000000000e+00 0.000000000000000e+00 0.000000000000000e+00
0.000000000000000e+00 0.000000000000000e+00 0.000000000000000e+00
0.000000000000000e+00 0.000000000000000e+00 0.000000000000000e+00
0.000000000000000e+00 0.000000000000000e+00 0.000000000000000e+00
0.000000000000000e+00 0.000000000000000e+00 0.000000000000000e+00
0.000000000000000e+00 0.000000000000000e+00 0.000000000000000e+00
0.000000000000000e+00 0.000000000000000e+00 0.000000000000000e+00
0.000000000000000e+00 0.000000000000000e+00 0.000000000000000e+00
0.000000000000000e+00 0.000000000000000e+00 0.000000000000000e+00
0.000000000000000e+00 0.000000000000000e+00 0.000000000000000e+00
0.000000000000000e+00 0.000000000000000e+00 0.000000000000000e+00
0.000000000000000e+00 0.000000000000000e+00 0.000000000000000e+00
0.000000000000000e+00 0.000000000000000e+00 0.000000000000000e+00
0.000000000000000e+00 0.000000000000000e+00 0.000000000000000e+00
0.000000000000000e+00 0.000000000000000e+00 0.000000000000000e+00
0.000000000000000e+00 0.000000000000000e+00 0.000000000000000e+00
0.000000000000000e+00 0.000000000000000e+00 0.000000000000000e+00
0.000000000000000e+00 0.000000000000000e+00 0.000000000000000e+00
0.000000000000000e+00 0.000000000000000e+00 0.000000000000000e+00
0.000000000000000e+00 0.000000000000000e+00 0.000000000000000e+00
0.000000000000000e+00 0.000000000000000e+00 0.000000000000000e+00
0.000000000000000e+00 0.000000000000000e+00 0.000000000000000e+00
0.000000000000000e+00 0.000000000000000e+00 0.000000000000000e+00
0.000000000000000e+00 0.000000000000000e+00 0.000000000000000e+00
0.000000000000000e+00 0.000000000000000e+00 0.000000000000000e+00
0.000000000000000e+00 0.000000000000000e+00 0.000000000000000e+00
0.000000000000000e+00 0.000000000000000e+00 0.000000000000000e+00
0.000000000000000e+00 0.000000000000000e+00 0.000000000000000e+00
0.000000000000000e+00 0.000000000000000e+00 0.000000000000000e+00
0.000000000000000e+00 0.000000000000000e+00 0.000000000000000e+00
0.000000000000000e+00 0.000000000000000e+00 0.000000000000000e+00
0.000000000000000e+00 0.000000000000000e+00 0.000000000000000e+00
0.000000000000000e+00 0.000000000000000e+00 0.000000000000000e+00
0.000000000000000e+00 0.000000000000000e+00 0.000000000000000e+00
0.000000000000000e+00 0.000000000000000e+00 0.000000000000000e+00
0.000000000000000e+00 0.000000000000000e+00 0.000000000000000e+00
0.000000000000000e+00 0.000000000000000e+00 0.000000000000000e+00
0.000000000000000e+00 0.000000000000000e+00 0.000000000000000e+00
0.000000000000000e+00 0.000000000000000e+00 0.000000000000000e+00
0.000000000000000e+00 0.000000000000000e+00 0.000000000000000e+00
0.000000000000000e+00 0.000000000000000e+00 0.000000000000000e+00
0.000000000000000e+00 0.000000000000000e+00 0.000000000000000e+00
0.000000000000000e+00 0.000000000000000e+00 0.000000000000000e+00
0.000000000000000e+00 0.000000000000000e+00 0.000000000000000e+00
0.000000000000000e+00 0.000000000000000e+00 0.000000000000000e+00
0.000000000000000e+00 0.000000000000000e+00 0.000000000000000e+00
0.000000000000000e+00 0.000000000000000e+00 0.000000000000000e+00
0.000000000000000e+00 0.000000000000000e+00 0.000000000000000e+00
0.000000000000000e+00 0.000000000000000e+00 0.000000000000000e+00
0.000000000000000e+00 0.000000000000000e+00 0.000000000000000e+00
0.000000000000000e+00 0.000000000000000e+00 0.000000000000000e+00
0.000000000000000e+00 0.000000000000000e+00 0.000000000000000e+00
0.000000000000000e+00 0.000000000000000e+00 0.000000000000000e+00
0.000000000000000e+00 0.000000000000000e+00 0.000000000000000e+00
0.000000000000000e+00 0.000000000000000e+00 0.000000000000000e+00
0.000000000000000e+00 0.000000000000000e+00 0.000000000000000e+00
0.000000000000000e+00 0.000000000000000e+00 0.000000000000000e+00
0.000000000000000e+00 0.000000000000000e+00 0.000000000000000e+00
0.000000000000000e+00 0.000000000000000e+00 0.000000000000000e+00
0.000000000000000e+00 0.000000000000000e+00 0.000000000000000e+00
0.000000000000000e+00 0.000000000000000e+00 0.000000000000000e+00
0.000000000000000e+00 0.000000000000000e+00 0.000000000000000e+00
0.000000000000000e+00 0.000000000000000e+00 0.000000000000000e+00
0.000000000000000e+00 0.000000000000000e+00 0.000000000000000e+00
0.000000000000000e+00 0.000000000000000e+00 0.000000000000000e+00
0.000000000000000e+00 0.000000000000000e+00 0.000000000000000e+00
0.000000000000000e+00 0.000000000000000e+00 0.000000000000000e+00
0.000000000000000e+00 0.000000000000000e+00 0.000000000000000e+00
0.000000000000000e+00 0.000000000000000e+00 0.000000000000000e+00
0.000000000000000e+00 0.000000000000000e+00 0.000000000000000e+00
0.000000000000000e+00 0.000000000000000e+00 0.000000000000000e+00
0.000000000000000e+00 0.000000000000000e+00 0.000000000000000e+00
0.000000000000000e+00 0.000000000000000e+00 0.000000000000000e+00
0.000000000000000e+00 0.000000000000000e+00 0.000000000000000e+00
0.000000000000000e+00 0.000000000000000e+00 0.000000000000000e+00
0.000000000000000e+00 0.000000000000000e+00 0.000000000000000e+00
0.000000000000000e+00 0.000000000000000e+00 0.000000000000000e+00
0.000000000000000e+00 0.000000000000000e+00 0.000000000000000e+00
0.000000000000000e+00 0.000000000000000e+00 0.000000000000000e+00
0.000000000000000e+00 0.000000000000000e+00 0.000000000000000e+00
0.000000000000000e+00 0.000000000000000e+00 0.000000000000000e+00
0.000000000000000e+00 0.000000000000000e+00 0.000000000000000e+00
0.000000000000000e+00 0.000000000000000e+00 0.000000000000000e+00
0.000000000000000e+00 0.000000000000000e+00 0.000000000000000e+00
0.000000000000000e+00 0.000000000000000e+00 0.000000000000000e+00
0.000000000000000e+00 0.000000000000000e+00 0.000000000000000e+00
0.000000000000000e+00 0.000000000000000e+00 0.000000000000000e+00
0.000000000000000e+00 0.000000000000000e+00 0.000000000000000e+00
0.000000000000000e+00 0.000000000000000e+00 0.000000000000000e+00
0.000000000000000e+00 0.000000000000000e+00 0.000000000000000e+00
0.000000000000000e+00 0.000000000000000e+00 0.000000000000000e+00
0.000000000000000e+00 0.000000000000000e+00 0.000000000000000e+00
0.000000000000000e+00 0.000000000000000e+00 0.000000000000000e+00
0.000000000000000e+00 0.000000000000000e+00 0.000000000000000e+00
0.000000000000000e+00 0.000000000000000e+00 0.000000000000000e+00
0.000000000000000e+00 0.000000000000000e+00 0.000000000000000e+00
0.000000000000000e+00 0.000000000000000e+00 0.000000000000000e+00
0.000000000000000e+00 0.000000000000000e+00 0.000000000000000e+00
0.000000000000000e+00 0.000000000000000e+00 0.000000000000000e+00
0.000000000000000e+00 0.000000000000000e+00 0.000000000000000e+00
0.000000000000000e+00 0.000000000000000e+00 0.000000000000000e+00
0.000000000000000e+00 0.000000000000000e+00 0.000000000000000e+00
0.000000000000000e+00 0.000000000000000e+00 0.000000000000000e+00
0.000000000000000e+00 0.000000000000000e+00 0.000000000000000e+00
0.000000000000000e+00 0.000000000000000e+00 0.000000000000000e+00
0.000000000000000e+00 0.000000000000000e+00 0.000000000000000e+00
0.000000000000000e+00 0.000000000000000e+00 0.000000000000000e+00
0.000000000000000e+00 0.000000000000000e+00 0.000000000000000e+00
0.000000000000000e+00 0.000000000000000e+00 0.000000000000000e+00
0.000000000000000e+00 0.000000000000000e+00 0.000000000000000e+00
0.000000000000000e+00 0.000000000000000e+00 0.000000000000000e+00
0.000000000000000e+00 0.000000000000000e+00 0.000000000000000e+00
0.000000000000000e+00 0.000000000000000e+00 0.000000000000000e+00
0.000000000000000e+00 0.000000000000000e+00 0.000000000000000e+00
0.000000000000000e+00 0.000000000000000e+00 0.000000000000000e+00
0.000000000000000e+00 0.000000000000000e+00 0.000000000000000e+00
0.000000000000000e+00 0.000000000000000e+00 0.000000000000000e+00
0.000000000000000e+00 0.000000000000000e+00 0.000000000000000e+00
0.000000000000000e+00 0.000000000000000e+00 0.000000000000000e+00
0.000000000000000e+00 0.000000000000000e+00 0.000000000000000e+00
0.000000000000000e+00 0.000000000000000e+00 0.000000000000000e+00
0.000000000000000e+00 0.000000000000000e+00 0.000000000000000e+00
0.000000000000000e+00 0.000000000000000e+00 0.000000000000000e+00
0.000000000000000e+00 0.000000000000000e+00 0.000000000000000e+00
0.000000000000000e+00 0.000000000000000e+00 0.000000000000000e+00
0.000000000000000e+00 0.000000000000000e+00 0.000000000000000e+00
0.000000000000000e+00 0.000000000000000e+00 0.000000000000000e+00
0.000000000000000e+00 0.000000000000000e+00 0.000000000000000e+00
0.000000000000000e+00 0.000000000000000e+00 0.000000000000000e+00
0.000000000000000e+00 0.000000000000000e+00 0.000000000000000e+00
0.000000000000000e+00 0.000000000000000e+00 0.000000000000000e+00
0.000000000000000e+00 0.000000000000000e+00 0.000000000000000e+00
0.000000000000000e+00 0.000000000000000e+00 0.000000000000000e+00
0.000000000000000e+00 0.000000000000000e+00 0.000000000000000e+00
0.000000000000000e+00 0.000000000000000e+00 0.000000000000000e+00
0.000000000000000e+00 0.000000000000000e+00 0.000000000000000e+00
0.000000000000000e+00 0.000000000000000e+00 0.000000000000000e+00
0.000000000000000e+00 0.000000000000000e+00 0.000000000000000e+00
0.000000000000000e+00 0.000000000000000e+00 0.000000000000000e+00
0.000000000000000e+00 0.000000000000000e+00 0.000000000000000e+00
0.000000000000000e+00 0.000000000000000e+00 0.000000000000000e+00
0.000000000000000e+00 0.000000000000000e+00 0.000000000000000e+00
0.000000000000000e+00 0.000000000000000e+00 0.000000000000000e+00
0.000000000000000e+00 0.000000000000000e+00 0.000000000000000e+00
0.000000000000000e+00 0.000000000000000e+00 0.000000000000000e+00
0.000000000000000e+00 0.000000000000000e+00 0.000000000000000e+00
0.000000000000000e+00 0.000000000000000e+00 0.000000000000000e+00
0.000000000000000e+00 0.000000000000000e+00 0.000000000000000e+00
0.000000000000000e+00 0.000000000000000e+00 0.000000000000000e+00
0.000000000000000e+00 0.000000000000000e+00 0.000000000000000e+00
0.000000000000000e+00 0.000000000000000e+00 0.000000000000000e+00
0.000000000000000e+00 0.000000000000000e+00 0.000000000000000e+00
0.000000000000000e+00 0.000000000000000e+00 0.000000000000000e+00
0.000000000000000e+00 0.000000000000000e+00 0.000000000000000e+00
0.000000000000000e+00 0.000000000000000e+00 0.000000000000000e+00
0.000000000000000e+00 0.000000000000000e+00 0.000000000000000e+00
0.000000000000000e+00 0.000000000000000e+00 0.000000000000000e+00
0.000000000000000e+00 0.000000000000000e+00 0.000000000000000e+00
0.000000000000000e+00 0.000000000000000e+00 0.000000000000000e+00
0.000000000000000e+00 0.000000000000000e+00 0.000000000000000e+00
0.000000000000000e+00 0.000000000000000e+00 0.000000000000000e+00
0.000000000000000e+00 0.000000000000000e+00 0.000000000000000e+00
0.000000000000000e+00 0.000000000000000e+00 0.000000000000000e+00
0.000000000000000e+00 0.000000000000000e+00 0.000000000000000e+00
0.000000000000000e+00 0.000000000000000e+00 0.000000000000000e+00
0.000000000000000e+00 0.000000000000000e+00 0.000000000000000e+00
0.000000000000000e+00 0.000000000000000e+00 0.000000000000000e+00
0.000000000000000e+00 0.000000000000000e+00 0.000000000000000e+00
0.000000000000000e+00 0.000000000000000e+00 0.000000000000000e+00
0.000000000000000e+00 0.000000000000000e+00 0.000000000000000e+00
0.000000000000000e+00 0.000000000000000e+00 0.000000000000000e+00
0.000000000000000e+00 0.000000000000000e+00 0.000000000000000e+00
0.000000000000000e+00 0.000000000000000e+00 0.000000000000000e+00
0.000000000000000e+00 0.000000000000000e+00 0.000000000000000e+00
0.000000000000000e+00 0.000000000000000e+00 0.000000000000000e+00
0.000000000000000e+00 0.000000000000000e+00 0.000000000000000e+00
0.000000000000000e+00 0.000000000000000e+00 0.000000000000000e+00
0.000000000000000e+00 0.000000000000000e+00 0.000000000000000e+00
0.000000000000000e+00 0.000000000000000e+00 0.000000000000000e+00
0.000000000000000e+00 0.000000000000000e+00 0.000000000000000e+00
0.000000000000000e+00 0.000000000000000e+00 0.000000000000000e+00
0.000000000000000e+00 0.000000000000000e+00 0.000000000000000e+00
0.000000000000000e+00 0.000000000000000e+00 0.000000000000000e+00
0.000000000000000e+00 0.000000000000000e+00 0.000000000000000e+00
0.000000000000000e+00 0.000000000000000e+00 0.000000000000000e+00
0.000000000000000e+00 0.000000000000000e+00 0.000000000000000e+00
0.000000000000000e+00 0.000000000000000e+00 0.000000000000000e+00
0.000000000000000e+00 0.000000000000000e+00 0.000000000000000e+00
0.000000000000000e+00 0.000000000000000e+00 0.000000000000000e+00
0.000000000000000e+00 0.000000000000000e+00 0.000000000000000e+00
0.000000000000000e+00 0.000000000000000e+00 0.000000000000000e+00
0.000000000000000e+00 0.000000000000000e+00 0.000000000000000e+00
0.000000000000000e+00 0.000000000000000e+00 0.000000000000000e+00
0.000000000000000e+00 0.000000000000000e+00 0.000000000000000e+00
0.000000000000000e+00 0.000000000000000e+00 0.000000000000000e+00
0.000000000000000e+00 0.000000000000000e+00 0.000000000000000e+00
0.000000000000000e+00 0.000000000000000e+00 0.000000000000000e+00
0.000000000000000e+00 0.000000000000000e+00 0.000000000000000e+00
0.000000000000000e+00 0.000000000000000e+00 0.000000000000000e+00
0.000000000000000e+00 0.000000000000000e+00 0.000000000000000e+00
0.000000000000000e+00 0.000000000000000e+00 0.000000000000000e+00
0.000000000000000e+00 0.000000000000000e+00 0.000000000000000e+00
0.000000000000000e+00 0.000000000000000e+00 0.000000000000000e+00
0.000000000000000e+00 0.000000000000000e+00 0.000000000000000e+00
0.000000000000000e+00 0.000000000000000e+00 0.000000000000000e+00
0.000000000000000e+00 0.000000000000000e+00 0.000000000000000e+00
0.000000000000000e+00 0.000000000000000e+00 0.000000000000000e+00
0.000000000000000e+00 0.000000000000000e+00 0.000000000000000e+00
0.000000000000000e+00 0.000000000000000e+00 0.000000000000000e+00
0.000000000000000e+00 0.000000000000000e+00 0.000000000000000e+00
0.000000000000000e+00 0.000000000000000e+00 0.000000000000000e+00
0.000000000000000e+00 0.000000000000000e+00 0.000000000000000e+00
0.000000000000000e+00 0.000000000000000e+00 0.000000000000000e+00
0.000000000000000e+00 0.000000000000000e+00 0.000000000000000e+00
0.000000000000000e+00 0.000000000000000e+00 0.000000000000000e+00
0.000000000000000e+00 0.000000000000000e+00 0.000000000000000e+00
0.000000000000000e+00 0.000000000000000e+00 0.000000000000000e+00
0.000000000000000e+00 0.000000000000000e+00 0.000000000000000e+00
0.000000000000000e+00 0.000000000000000e+00 0.000000000000000e+00
0.000000000000000e+00 0.000000000000000e+00 0.000000000000000e+00
0.000000000000000e+00 0.000000000000000e+00 0.000000000000000e+00
0.000000000000000e+00 0.000000000000000e+00 0.000000000000000e+00
0.000000000000000e+00 0.000000000000000e+00 0.000000000000000e+00
0.000000000000000e+00 0.000000000000000e+00 0.000000000000000e+00
0.000000000000000e+00 0.000000000000000e+00 0.000000000000000e+00
0.000000000000000e+00 0.000000000000000e+00 0.000000000000000e+00
0.000000000000000e+00 0.000000000000000e+00 0.000000000000000e+00
0.000000000000000e+00 0.000000000000000e+00 0.000000000000000e+00
0.000000000000000e+00 0.000000000000000e+00 0.000000000000000e+00
0.000000000000000e+00 0.000000000000000e+00 0.000000000000000e+00
0.000000000000000e+00 0.000000000000000e+00 0.000000000000000e+00
0.000000000000000e+00 0.000000000000000e+00 0.000000000000000e+00
0.000000000000000e+00 0.000000000000000e+00 0.000000000000000e+00
0.000000000000000e+00 0.000000000000000e+00 0.000000000000000e+00
0.000000000000000e+00 0.000000000000000e+00 0.000000000000000e+00
0.000000000000000e+00 0.000000000000000e+00 0.000000000000000e+00
0.000000000000000e+00 0.000000000000000e+00 0.000000000000000e+00
0.000000000000000e+00 0.000000000000000e+00 0.000000000000000e+00
0.000000000000000e+00 0.000000000000000e+00 0.000000000000000e+00
0.000000000000000e+00 0.000000000000000e+00 0.000000000000000e+00
0.000000000000000e+00 0.000000000000000e+00 0.000000000000000e+00
0.000000000000000e+00 0.000000000000000e+00 0.000000000000000e+00
0.000000000000000e+00 0.000000000000000e+00 0.000000000000000e+00
0.000000000000000e+00 0.000000000000000e+00 0.000000000000000e+00
0.000000000000000e+00 0.000000000000000e+00 0.000000000000000e+00
0.000000000000000e+00 0.000000000000000e+00 0.000000000000000e+00
0.000000000000000e+00 0.000000000000000e+00 0.000000000000000e+00
0.000000000000000e+00 0.000000000000000e+00 0.000000000000000e+00
0.000000000000000e+00 0.000000000000000e+00 0.000000000000000e+00
0.000000000000000e+00 0.000000000000000e+00 0.000000000000000e+00
0.000000000000000e+00 0.000000000000000e+00 0.000000000000000e+00
0.000000000000000e+00 0.000000000000000e+00 0.000000000000000e+00
0.000000000000000e+00 0.000000000000000e+00 0.000000000000000e+00
0.000000000000000e+00 0.000000000000000e+00 0.000000000000000e+00
0.000000000000000e+00 0.000000000000000e+00 0.000000000000000e+00
0.000000000000000e+00 0.000000000000000e+00 0.000000000000000e+00
0.000000000000000e+00 0.000000000000000e+00 0.000000000000000e+00
0.000000000000000e+00 0.000000000000000e+00 0.000000000000000e+00
0.000000000000000e+00 0.000000000000000e+00 0.000000000000000e+00
0.000000000000000e+00 0.000000000000000e+00 0.000000000000000e+00
0.000000000000000e+00 0.000000000000000e+00 0.000000000000000e+00
0.000000000000000e+00 0.000000000000000e+00 0.000000000000000e+00
0.000000000000000e+00 0.000000000000000e+00 0.000000000000000e+00
0.000000000000000e+00 0.000000000000000e+00 0.000000000000000e+00
0.000000000000000e+00 0.000000000000000e+00 0.000000000000000e+00
0.000000000000000e+00 0.000000000000000e+00 0.000000000000000e+00
0.000000000000000e+00 0.000000000000000e+00 0.000000000000000e+00
0.000000000000000e+00 0.000000000000000e+00 0.000000000000000e+00
0.000000000000000e+00 0.000000000000000e+00 0.000000000000000e+00
0.000000000000000e+00 0.000000000000000e+00 0.000000000000000e+00
0.000000000000000e+00 0.000000000000000e+00 0.000000000000000e+00
0.000000000000000e+00 0.000000000000000e+00 0.000000000000000e+00
0.000000000000000e+00 0.000000000000000e+00 0.000000000000000e+00
0.000000000000000e+00 0.000000000000000e+00 0.000000000000000e+00
0.000000000000000e+00 0.000000000000000e+00 0.000000000000000e+00
0.000000000000000e+00 0.000000000000000e+00 0.000000000000000e+00
0.000000000000000e+00 0.000000000000000e+00 0.000000000000000e+00
0.000000000000000e+00 0.000000000000000e+00 0.000000000000000e+00
0.000000000000000e+00 0.000000000000000e+00 0.000000000000000e+00
0.000000000000000e+00 0.000000000000000e+00 0.000000000000000e+00
0.000000000000000e+00 0.000000000000000e+00 0.000000000000000e+00
0.000000000000000e+00 0.000000000000000e+00 0.000000000000000e+00
0.000000000000000e+00 0.000000000000000e+00 0.000000000000000e+00
0.000000000000000e+00 0.000000000000000e+00 0.000000000000000e+00
0.000000000000000e+00 0.000000000000000e+00 0.000000000000000e+00
0.000000000000000e+00 0.000000000000000e+00 0.000000000000000e+00
0.000000000000000e+00 0.000000000000000e+00 0.000000000000000e+00
0.000000000000000e+00 0.000000000000000e+00 0.000000000000000e+00
0.000000000000000e+00 0.000000000000000e+00 0.000000000000000e+00
0.000000000000000e+00 0.000000000000000e+00 0.000000000000000e+00
0.000000000000000e+00 0.000000000000000e+00 0.000000000000000e+00
0.000000000000000e+00 0.000000000000000e+00 0.000000000000000e+00
0.000000000000000e+00 0.000000000000000e+00 0.000000000000000e+00
0.000000000000000e+00 0.000000000000000e+00 0.000000000000000e+00
0.000000000000000e+00 0.000000000000000e+00 0.000000000000000e+00
0.000000000000000e+00 0.000000000000000e+00 0.000000000000000e+00
0.000000000000000e+00 0.000000000000000e+00 0.000000000000000e+00
0.000000000000000e+00 0.000000000000000e+00 0.000000000000000e+00
0.000000000000000e+00 0.000000000000000e+00 0.000000000000000e+00
0.000000000000000e+00 0.000000000000000e+00 0.000000000000000e+00
0.000000000000000e+00 0.000000000000000e+00 0.000000000000000e+00
0.000000000000000e+00 0.000000000000000e+00 0.000000000000000e+00
0.000000000000000e+00 0.000000000000000e+00 0.000000000000000e+00
0.000000000000000e+00 0.000000000000000e+00 0.000000000000000e+00
0.000000000000000e+00 0.000000000000000e+00 0.000000000000000e+00
0.000000000000000e+00 0.000000000000000e+00 0.000000000000000e+00
0.000000000000000e+00 0.000000000000000e+00 0.000000000000000e+00
0.000000000000000e+00 0.000000000000000e+00 0.000000000000000e+00
0.000000000000000e+00 0.000000000000000e+00 0.000000000000000e+00
0.000000000000000e+00 0.000000000000000e+00 0.000000000000000e+00
0.000000000000000e+00 0.000000000000000e+00 0.000000000000000e+00
0.000000000000000e+00 0.000000000000000e+00 0.000000000000000e+00
0.000000000000000e+00 0.000000000000000e+00 0.000000000000000e+00
0.000000000000000e+00 0.000000000000000e+00 0.000000000000000e+00
0.000000000000000e+00 0.000000000000000e+00 0.000000000000000e+00
0.000000000000000e+00 0.000000000000000e+00 0.000000000000000e+00
0.000000000000000e+00 0.000000000000000e+00 0.000000000000000e+00
0.000000000000000e+00 0.000000000000000e+00 0.000000000000000e+00
0.000000000000000e+00 0.000000000000000e+00 0.000000000000000e+00
0.000000000000000e+00 0.000000000000000e+00 0.000000000000000e+00
0.000000000000000e+00 0.000000000000000e+00 0.000000000000000e+00
0.000000000000000e+00 0.000000000000000e+00 0.000000000000000e+00
0.000000000000000e+00 0.000000000000000e+00 0.000000000000000e+00
0.000000000000000e+00 0.000000000000000e+00 0.000000000000000e+00
0.000000000000000e+00 0.000000000000000e+00 0.000000000000000e+00
0.000000000000000e+00 0.000000000000000e+00 0.000000000000000e+00
0.000000000000000e+00 0.000000000000000e+00 0.000000000000000e+00
0.000000000000000e+00 0.000000000000000e+00 0.000000000000000e+00
0.000000000000000e+00 0.000000000000000e+00 0.000000000000000e+00
0.000000000000000e+00 0.000000000000000e+00 0.000000000000000e+00
0.000000000000000e+00 0.000000000000000e+00 0.000000000000000e+00
0.000000000000000e+00 0.000000000000000e+00 0.000000000000000e+00
0.000000000000000e+00 0.000000000000000e+00 0.000000000000000e+00
0.000000000000000e+00 0.000000000000000e+00 0.000000000000000e+00
0.000000000000000e+00 0.000000000000000e+00 0.000000000000000e+00
0.000000000000000e+00 0.000000000000000e+00 0.000000000000000e+00
0.000000000000000e+00 0.000000000000000e+00 0.000000000000000e+00
0.000000000000000e+00 0.000000000000000e+00 0.000000000000000e+00
0.000000000000000e+00 0.000000000000000e+00 0.000000000000000e+00
0.000000000000000e+00 0.000000000000000e+00 0.000000000000000e+00
0.000000000000000e+00 0.000000000000000e+00 0.000000000000000e+00
0.000000000000000e+00 0.000000000000000e+00 0.000000000000000e+00
0.000000000000000e+00 0.000000000000000e+00 0.000000000000000e+00
0.000000000000000e+00 0.000000000000000e+00 0.000000000000000e+00
0.000000000000000e+00 0.000000000000000e+00 0.000000000000000e+00
0.000000000000000e+00 0.000000000000000e+00 0.000000000000000e+00
0.000000000000000e+00 0.000000000000000e+00 0.000000000000000e+00
0.000000000000000e+00 0.000000000000000e+00 0.000000000000000e+00
0.000000000000000e+00 0.000000000000000e+00 0.000000000000000e+00
0.000000000000000e+00 0.000000000000000e+00 0.000000000000000e+00
0.000000000000000e+00 0.000000000000000e+00 0.000000000000000e+00
0.000000000000000e+00 0.000000000000000e+00 0.000000000000000e+00
0.000000000000000e+00 0.000000000000000e+00 0.000000000000000e+00
0.000000000000000e+00 0.000000000000000e+00 0.000000000000000e+00
0.000000000000000e+00 0.000000000000000e+00 0.000000000000000e+00
0.000000000000000e+00 0.000000000000000e+00 0.000000000000000e+00
0.000000000000000e+00 0.000000000000000e+00 0.000000000000000e+00
0.000000000000000e+00 0.000000000000000e+00 0.000000000000000e+00
0.000000000000000e+00 0.000000000000000e+00 0.000000000000000e+00
0.000000000000000e+00 0.000000000000000e+00 0.000000000000000e+00
0.000000000000000e+00 0.000000000000000e+00 0.000000000000000e+00
0.000000000000000e+00 0.000000000000000e+00 0.000000000000000e+00
0.000000000000000e+00 0.000000000000000e+00 0.000000000000000e+00
0.000000000000000e+00 0.000000000000000e+00 0.000000000000000e+00
0.000000000000000e+00 0.000000000000000e+00 0.000000000000000e+00
0.000000000000000e+00 0.000000000000000e+00 0.000000000000000e+00
0.000000000000000e+00 0.000000000000000e+00 0.000000000000000e+00
0.000000000000000e+00 0.000000000000000e+00 0.000000000000000e+00
0.000000000000000e+00 0.000000000000000e+00 0.000000000000000e+00
0.000000000000000e+00 0.000000000000000e+00 0.000000000000000e+00
0.000000000000000e+00 0.000000000000000e+00 0.000000000000000e+00
0.000000000000000e+00 0.000000000000000e+00 0.000000000000000e+00
0.000000000000000e+00 0.000000000000000e+00 0.000000000000000e+00
0.000000000000000e+00 0.000000000000000e+00 0.000000000000000e+00
0.000000000000000e+00 0.000000000000000e+00 0.000000000000000e+00
0.000000000000000e+00 0.000000000000000e+00 0.000000000000000e+00
0.000000000000000e+00 0.000000000000000e+00 0.000000000000000e+00
0.000000000000000e+00 0.000000000000000e+00 0.000000000000000e+00
0.000000000000000e+00 0.000000000000000e+00 0.000000000000000e+00
0.000000000000000e+00 0.000000000000000e+00 0.000000000000000e+00
0.000000000000000e+00 0.000000000000000e+00 0.000000000000000e+00
0.000000000000000e+00 0.000000000000000e+00 0.000000000000000e+00
0.000000000000000e+00 0.000000000000000e+00 0.000000000000000e+00
0.000000000000000e+00 0.000000000000000e+00 0.000000000000000e+00
0.000000000000000e+00 0.000000000000000e+00 0.000000000000000e+00
0.000000000000000e+00 0.000000000000000e+00 0.000000000000000e+00
0.000000000000000e+00 0.000000000000000e+00 0.000000000000000e+00
0.000000000000000e+00 0.000000000000000e+00 0.000000000000000e+00
0.000000000000000e+00 0.000000000000000e+00 0.000000000000000e+00
0.000000000000000e+00 0.000000000000000e+00 0.000000000000000e+00
0.000000000000000e+00 0.000000000000000e+00 0.000000000000000e+00
0.000000000000000e+00 0.000000000000000e+00 0.000000000000000e+00
0.000000000000000e+00 0.000000000000000e+00 0.000000000000000e+00
0.000000000000000e+00 0.000000000000000e+00 0.000000000000000e+00
0.000000000000000e+00 0.000000000000000e+00 0.000000000000000e+00
0.000000000000000e+00 0.000000000000000e+00 0.000000000000000e+00
0.000000000000000e+00 0.000000000000000e+00 0.000000000000000e+00
0.000000000000000e+00 0.000000000000000e+00 0.000000000000000e+00
0.000000000000000e+00 0.000000000000000e+00 0.000000000000000e+00
0.000000000000000e+00 0.000000000000000e+00 0.000000000000000e+00
0.000000000000000e+00 0.000000000000000e+00 0.000000000000000e+00
0.000000000000000e+00 0.000000000000000e+00 0.000000000000000e+00
0.000000000000000e+00 0.000000000000000e+00 0.000000000000000e+00
0.000000000000000e+00 0.000000000000000e+00 0.000000000000000e+00
0.000000000000000e+00 0.000000000000000e+00 0.000000000000000e+00
0.000000000000000e+00 0.000000000000000e+00 0.000000000000000e+00
0.000000000000000e+00 0.000000000000000e+00 0.000000000000000e+00
0.000000000000000e+00 0.000000000000000e+00 0.000000000000000e+00
0.000000000000000e+00 0.000000000000000e+00 0.000000000000000e+00
0.000000000000000e+00 0.000000000000000e+00 0.000000000000000e+00
0.000000000000000e+00 0.000000000000000e+00 0.000000000000000e+00
0.000000000000000e+00 0.000000000000000e+00 0.000000000000000e+00
0.000000000000000e+00 0.000000000000000e+00 0.000000000000000e+00
0.000000000000000e+00 0.000000000000000e+00 0.000000000000000e+00
0.000000000000000e+00 0.000000000000000e+00 0.000000000000000e+00
0.000000000000000e+00 0.000000000000000e+00 0.000000000000000e+00
0.000000000000000e+00 0.000000000000000e+00 0.000000000000000e+00
0.000000000000000e+00 0.000000000000000e+00 0.000000000000000e+00
0.000000000000000e+00 0.000000000000000e+00 0.000000000000000e+00
0.000000000000000e+00 0.000000000000000e+00 0.000000000000000e+00
0.000000000000000e+00 0.000000000000000e+00 0.000000000000000e+00
0.000000000000000e+00 0.000000000000000e+00 0.000000000000000e+00
0.000000000000000e+00 0.000000000000000e+00 0.000000000000000e+00
0.000000000000000e+00 0.000000000000000e+00 0.000000000000000e+00
0.000000000000000e+00 0.000000000000000e+00 0.000000000000000e+00
0.000000000000000e+00 0.000000000000000e+00 0.000000000000000e+00
0.000000000000000e+00 0.000000000000000e+00 0.000000000000000e+00
0.000000000000000e+00 0.000000000000000e+00 0.000000000000000e+00
0.000000000000000e+00 0.000000000000000e+00 0.000000000000000e+00
0.000000000000000e+00 0.000000000000000e+00 0.000000000000000e+00
0.000000000000000e+00 0.000000000000000e+00 0.000000000000000e+00
0.000000000000000e+00 0.000000000000000e+00 0.000000000000000e+00
0.000000000000000e+00 0.000000000000000e+00 0.000000000000000e+00
0.000000000000000e+00 0.000000000000000e+00 0.000000000000000e+00
0.000000000000000e+00 0.000000000000000e+00 0.000000000000000e+00
0.000000000000000e+00 0.000000000000000e+00 0.000000000000000e+00
0.000000000000000e+00 0.000000000000000e+00 0.000000000000000e+00
0.000000000000000e+00 0.000000000000000e+00 0.000000000000000e+00
0.000000000000000e+00 0.000000000000000e+00 0.000000000000000e+00
0.000000000000000e+00 0.000000000000000e+00 0.000000000000000e+00
0.000000000000000e+00 0.000000000000000e+00 0.000000000000000e+00
0.000000000000000e+00 0.000000000000000e+00 0.000000000000000e+00
0.000000000000000e+00 0.000000000000000e+00 0.000000000000000e+00
0.000000000000000e+00 0.000000000000000e+00 0.000000000000000e+00
0.000000000000000e+00 0.000000000000000e+00 0.000000000000000e+00
0.000000000000000e+00 0.000000000000000e+00 0.000000000000000e+00
0.000000000000000e+00 0.000000000000000e+00 0.000000000000000e+00
0.000000000000000e+00 0.000000000000000e+00 0.000000000000000e+00
0.000000000000000e+00 0.000000000000000e+00 0.000000000000000e+00
0.000000000000000e+00 0.000000000000000e+00 0.000000000000000e+00
0.000000000000000e+00 0.000000000000000e+00 0.000000000000000e+00
0.000000000000000e+00 0.000000000000000e+00 0.000000000000000e+00
0.000000000000000e+00 0.000000000000000e+00 0.000000000000000e+00
0.000000000000000e+00 0.000000000000000e+00 0.000000000000000e+00
0.000000000000000e+00 0.000000000000000e+00 0.000000000000000e+00
0.000000000000000e+00 0.000000000000000e+00 0.000000000000000e+00
0.000000000000000e+00 0.000000000000000e+00 0.000000000000000e+00
0.000000000000000e+00 0.000000000000000e+00 0.000000000000000e+00
0.000000000000000e+00 0.000000000000000e+00 0.000000000000000e+00
0.000000000000000e+00 0.000000000000000e+00 0.000000000000000e+00
0.000000000000000e+00 0.000000000000000e+00 0.000000000000000e+00
0.000000000000000e+00 0.000000000000000e+00 0.000000000000000e+00
0.000000000000000e+00 0.000000000000000e+00 0.000000000000000e+00
0.000000000000000e+00 0.000000000000000e+00 0.000000000000000e+00
0.000000000000000e+00 0.000000000000000e+00 0.000000000000000e+00
0.000000000000000e+00 0.000000000000000e+00 0.000000000000000e+00
0.000000000000000e+00 0.000000000000000e+00 0.000000000000000e+00
0.000000000000000e+00 0.000000000000000e+00 0.000000000000000e+00
0.000000000000000e+00 0.000000000000000e+00 0.000000000000000e+00
0.000000000000000e+00 0.000000000000000e+00 0.000000000000000e+00
0.000000000000000e+00 0.000000000000000e+00 0.000000000000000e+00
0.000000000000000e+00 0.000000000000000e+00 0.000000000000000e+00
0.000000000000000e+00 0.000000000000000e+00 0.000000000000000e+00
0.000000000000000e+00 0.000000000000000e+00 0.000000000000000e+00
0.000000000000000e+00 0.000000000000000e+00 0.000000000000000e+00
0.000000000000000e+00 0.000000000000000e+00 0.000000000000000e+00
0.000000000000000e+00 0.000000000000000e+00 0.000000000000000e+00
0.000000000000000e+00 0.000000000000000e+00 0.000000000000000e+00
0.000000000000000e+00 0.000000000000000e+00 0.000000000000000e+00
0.000000000000000e+00 0.000000000000000e+00 0.000000000000000e+00
0.000000000000000e+00 0.000000000000000e+00 0.000000000000000e+00
0.000000000000000e+00 0.000000000000000e+00 0.000000000000000e+00
0.000000000000000e+00 0.000000000000000e+00 0.000000000000000e+00
0.000000000000000e+00 0.000000000000000e+00 0.000000000000000e+00
0.000000000000000e+00 0.000000000000000e+00 0.000000000000000e+00
0.000000000000000e+00 0.000000000000000e+00 0.000000000000000e+00
0.000000000000000e+00 0.000000000000000e+00 0.000000000000000e+00
0.000000000000000e+00 0.000000000000000e+00 0.000000000000000e+00
0.000000000000000e+00 0.000000000000000e+00 0.000000000000000e+00
0.000000000000000e+00 0.000000000000000e+00 0.000000000000000e+00
0.000000000000000e+00 0.000000000000000e+00 0.000000000000000e+00
0.000000000000000e+00 0.000000000000000e+00 0.000000000000000e+00
0.000000000000000e+00 0.000000000000000e+00 0.000000000000000e+00
0.000000000000000e+00 0.000000000000000e+00 0.000000000000000e+00
0.000000000000000e+00 0.000000000000000e+00 0.000000000000000e+00
0.000000000000000e+00 0.000000000000000e+00 0.000000000000000e+00
0.000000000000000e+00 0.000000000000000e+00 0.000000000000000e+00
0.000000000000000e+00 0.000000000000000e+00 0.000000000000000e+00
0.000000000000000e+00 0.000000000000000e+00 0.000000000000000e+00
0.000000000000000e+00 0.000000000000000e+00 0.000000000000000e+00
0.000000000000000e+00 0.000000000000000e+00 0.000000000000000e+00
0.000000000000000e+00 0.000000000000000e+00 0.000000000000000e+00
0.000000000000000e+00 0.000000000000000e+00 0.000000000000000e+00
0.000000000000000e+00 0.000000000000000e+00 0.000000000000000e+00
0.000000000000000e+00 0.000000000000000e+00 0.000000000000000e+00
0.000000000000000e+00 0.000000000000000e+00 0.000000000000000e+00
0.000000000000000e+00 0.000000000000000e+00 0.000000000000000e+00
0.000000000000000e+00 0.000000000000000e+00 0.000000000000000e+00
0.000000000000000e+00 0.000000000000000e+00 0.000000000000000e+00
0.000000000000000e+00 0.000000000000000e+00 0.000000000000000e+00
0.000000000000000e+00 0.000000000000000e+00 0.000000000000000e+00
0.000000000000000e+00 0.000000000000000e+00 0.000000000000000e+00
0.000000000000000e+00 0.000000000000000e+00 0.000000000000000e+00
0.000000000000000e+00 0.000000000000000e+00 0.000000000000000e+00
0.000000000000000e+00 0.000000000000000e+00 0.000000000000000e+00
0.000000000000000e+00 0.000000000000000e+00 0.000000000000000e+00
0.000000000000000e+00 0.000000000000000e+00 0.000000000000000e+00
0.000000000000000e+00 0.000000000000000e+00 0.000000000000000e+00
0.000000000000000e+00 0.000000000000000e+00 0.000000000000000e+00
0.000000000000000e+00 0.000000000000000e+00 0.000000000000000e+00
0.000000000000000e+00 0.000000000000000e+00 0.000000000000000e+00
0.000000000000000e+00 0.000000000000000e+00 0.000000000000000e+00
0.000000000000000e+00 0.000000000000000e+00 0.000000000000000e+00
0.000000000000000e+00 0.000000000000000e+00 0.000000000000000e+00
0.000000000000000e+00 0.000000000000000e+00 0.000000000000000e+00
0.000000000000000e+00 0.000000000000000e+00 0.000000000000000e+00
0.000000000000000e+00 0.000000000000000e+00 0.000000000000000e+00
0.000000000000000e+00 0.000000000000000e+00 0.000000000000000e+00
0.000000000000000e+00 0.000000000000000e+00 0.000000000000000e+00
0.000000000000000e+00 0.000000000000000e+00 0.000000000000000e+00
0.000000000000000e+00 0.000000000000000e+00 0.000000000000000e+00
0.000000000000000e+00 0.000000000000000e+00 0.000000000000000e+00
0.000000000000000e+00 0.000000000000000e+00 0.000000000000000e+00
0.000000000000000e+00 0.000000000000000e+00 0.000000000000000e+00
0.000000000000000e+00 0.000000000000000e+00 0.000000000000000e+00
0.000000000000000e+00 0.000000000000000e+00 0.000000000000000e+00
0.000000000000000e+00 0.000000000000000e+00 0.000000000000000e+00
0.000000000000000e+00 0.000000000000000e+00 0.000000000000000e+00
0.000000000000000e+00 0.000000000000000e+00 0.000000000000000e+00
0.000000000000000e+00 0.000000000000000e+00 0.000000000000000e+00
0.000000000000000e+00 0.000000000000000e+00 0.000000000000000e+00
0.000000000000000e+00 0.000000000000000e+00 0.000000000000000e+00
0.000000000000000e+00 0.000000000000000e+00 0.000000000000000e+00
0.000000000000000e+00 0.000000000000000e+00 0.000000000000000e+00
0.000000000000000e+00 0.000000000000000e+00 0.000000000000000e+00
0.000000000000000e+00 0.000000000000000e+00 0.000000000000000e+00
0.000000000000000e+00 0.000000000000000e+00 0.000000000000000e+00
0.000000000000000e+00 0.000000000000000e+00 0.000000000000000e+00
0.000000000000000e+00 0.000000000000000e+00 0.000000000000000e+00
0.000000000000000e+00 0.000000000000000e+00 0.000000000000000e+00
0.000000000000000e+00 0.000000000000000e+00 0.000000000000000e+00
0.000000000000000e+00 0.000000000000000e+00 0.000000000000000e+00
0.000000000000000e+00 0.000000000000000e+00 0.000000000000000e+00
0.000000000000000e+00 0.000000000000000e+00 0.000000000000000e+00
0.000000000000000e+00 0.000000000000000e+00 0.000000000000000e+00
0.000000000000000e+00 0.000000000000000e+00 0.000000000000000e+00
0.000000000000000e+00 0.000000000000000e+00 0.000000000000000e+00
0.000000000000000e+00 0.000000000000000e+00 0.000000000000000e+00
0.000000000000000e+00 0.000000000000000e+00 0.000000000000000e+00
0.000000000000000e+00 0.000000000000000e+00 0.000000000000000e+00
0.000000000000000e+00 0.000000000000000e+00 0.000000000000000e+00
0.000000000000000e+00 0.000000000000000e+00 0.000000000000000e+00
0.000000000000000e+00 0.000000000000000e+00 0.000000000000000e+00
0.000000000000000e+00 0.000000000000000e+00 0.000000000000000e+00
0.000000000000000e+00 0.000000000000000e+00 0.000000000000000e+00
0.000000000000000e+00 0.000000000000000e+00 0.000000000000000e+00
0.000000000000000e+00 0.000000000000000e+00 0.000000000000000e+00
0.000000000000000e+00 0.000000000000000e+00 0.000000000000000e+00
0.000000000000000e+00 0.000000000000000e+00 0.000000000000000e+00
0.000000000000000e+00 0.000000000000000e+00 0.000000000000000e+00
0.000000000000000e+00 0.000000000000000e+00 0.000000000000000e+00
0.000000000000000e+00 0.000000000000000e+00 0.000000000000000e+00
0.000000000000000e+00 0.000000000000000e+00 0.000000000000000e+00
0.000000000000000e+00 0.000000000000000e+00 0.000000000000000e+00
0.000000000000000e+00 0.000000000000000e+00 0.000000000000000e+00
0.000000000000000e+00 0.000000000000000e+00 0.000000000000000e+00
0.000000000000000e+00 0.000000000000000e+00 0.000000000000000e+00
0.000000000000000e+00 0.000000000000000e+00 0.000000000000000e+00
0.000000000000000e+00 0.000000000000000e+00 0.000000000000000e+00
0.000000000000000e+00 0.000000000000000e+00 0.000000000000000e+00
0.000000000000000e+00 0.000000000000000e+00 0.000000000000000e+00
0.000000000000000e+00 0.000000000000000e+00 0.000000000000000e+00
0.000000000000000e+00 0.000000000000000e+00 0.000000000000000e+00
0.000000000000000e+00 0.000000000000000e+00 0.000000000000000e+00
0.000000000000000e+00 0.000000000000000e+00 0.000000000000000e+00
0.000000000000000e+00 0.000000000000000e+00 0.000000000000000e+00
0.000000000000000e+00 0.000000000000000e+00 0.000000000000000e+00
0.000000000000000e+00 0.000000000000000e+00 0.000000000000000e+00
0.000000000000000e+00 0.000000000000000e+00 0.000000000000000e+00
0.000000000000000e+00 0.000000000000000e+00 0.000000000000000e+00
0.000000000000000e+00 0.000000000000000e+00 0.000000000000000e+00
0.000000000000000e+00 0.000000000000000e+00 0.000000000000000e+00
0.000000000000000e+00 0.000000000000000e+00 0.000000000000000e+00
0.000000000000000e+00 0.000000000000000e+00 0.000000000000000e+00
0.000000000000000e+00 0.000000000000000e+00 0.000000000000000e+00
0.000000000000000e+00 0.000000000000000e+00 0.000000000000000e+00
0.000000000000000e+00 0.000000000000000e+00 0.000000000000000e+00
0.000000000000000e+00 0.000000000000000e+00 0.000000000000000e+00
0.000000000000000e+00 0.000000000000000e+00 0.000000000000000e+00
0.000000000000000e+00 0.000000000000000e+00 0.000000000000000e+00
0.000000000000000e+00 0.000000000000000e+00 0.000000000000000e+00
0.000000000000000e+00 0.000000000000000e+00 0.000000000000000e+00
0.000000000000000e+00 0.000000000000000e+00 0.000000000000000e+00
0.000000000000000e+00 0.000000000000000e+00 0.000000000000000e+00
0.000000000000000e+00 0.000000000000000e+00 0.000000000000000e+00
0.000000000000000e+00 0.000000000000000e+00 0.000000000000000e+00
0.000000000000000e+00 0.000000000000000e+00 0.000000000000000e+00
0.000000000000000e+00 0.000000000000000e+00 0.000000000000000e+00
0.000000000000000e+00 0.000000000000000e+00 0.000000000000000e+00
0.000000000000000e+00 0.000000000000000e+00 0.000000000000000e+00
0.000000000000000e+00 0.000000000000000e+00 0.000000000000000e+00
0.000000000000000e+00 0.000000000000000e+00 0.000000000000000e+00
0.000000000000000e+00 0.000000000000000e+00 0.000000000000000e+00
0.000000000000000e+00 0.000000000000000e+00 0.000000000000000e+00
0.000000000000000e+00 0.000000000000000e+00 0.000000000000000e+00
0.000000000000000e+00 0.000000000000000e+00 0.000000000000000e+00
0.000000000000000e+00 0.000000000000000e+00 0.000000000000000e+00
0.000000000000000e+00 0.000000000000000e+00 0.000000000000000e+00
0.000000000000000e+00 0.000000000000000e+00 0.000000000000000e+00
0.000000000000000e+00 0.000000000000000e+00 0.000000000000000e+00
0.000000000000000e+00 0.000000000000000e+00 0.000000000000000e+00
0.000000000000000e+00 0.000000000000000e+00 0.000000000000000e+00
0.000000000000000e+00 0.000000000000000e+00 0.000000000000000e+00
0.000000000000000e+00 0.000000000000000e+00 0.000000000000000e+00
0.000000000000000e+00 0.000000000000000e+00 0.000000000000000e+00
0.000000000000000e+00 0.000000000000000e+00 0.000000000000000e+00
0.000000000000000e+00 0.000000000000000e+00 0.000000000000000e+00
0.000000000000000e+00 0.000000000000000e+00 0.000000000000000e+00
0.000000000000000e+00 0.000000000000000e+00 0.000000000000000e+00
0.000000000000000e+00 0.000000000000000e+00 0.000000000000000e+00
0.000000000000000e+00 0.000000000000000e+00 0.000000000000000e+00
0.000000000000000e+00 0.000000000000000e+00 0.000000000000000e+00
0.000000000000000e+00 0.000000000000000e+00 0.000000000000000e+00
0.000000000000000e+00 0.000000000000000e+00 0.000000000000000e+00
0.000000000000000e+00 0.000000000000000e+00 0.000000000000000e+00
0.000000000000000e+00 0.000000000000000e+00 0.000000000000000e+00
0.000000000000000e+00 0.000000000000000e+00 0.000000000000000e+00
0.000000000000000e+00 0.000000000000000e+00 0.000000000000000e+00
0.000000000000000e+00 0.000000000000000e+00 0.000000000000000e+00
0.000000000000000e+00 0.000000000000000e+00 0.000000000000000e+00
0.000000000000000e+00 0.000000000000000e+00 0.000000000000000e+00
0.000000000000000e+00 0.000000000000000e+00 0.000000000000000e+00
0.000000000000000e+00 0.000000000000000e+00 0.000000000000000e+00
0.000000000000000e+00 0.000000000000000e+00 0.000000000000000e+00
0.000000000000000e+00 0.000000000000000e+00 0.000000000000000e+00
0.000000000000000e+00 0.000000000000000e+00 0.000000000000000e+00
0.000000000000000e+00 0.000000000000000e+00 0.000000000000000e+00
0.000000000000000e+00 0.000000000000000e+00 0.000000000000000e+00
0.000000000000000e+00 0.000000000000000e+00 0.000000000000000e+00
0.000000000000000e+00 0.000000000000000e+00 0.000000000000000e+00
0.000000000000000e+00 0.000000000000000e+00 0.000000000000000e+00
0.000000000000000e+00 0.000000000000000e+00 0.000000000000000e+00
0.000000000000000e+00 0.000000000000000e+00 0.000000000000000e+00
0.000000000000000e+00 0.000000000000000e+00 0.000000000000000e+00
0.000000000000000e+00 0.000000000000000e+00 0.000000000000000e+00
0.000000000000000e+00 0.000000000000000e+00 0.000000000000000e+00
0.000000000000000e+00 0.000000000000000e+00 0.000000000000000e+00
0.000000000000000e+00 0.000000000000000e+00 0.000000000000000e+00
0.000000000000000e+00 0.000000000000000e+00 0.000000000000000e+00
0.000000000000000e+00 0.000000000000000e+00 0.000000000000000e+00
0.000000000000000e+00 0.000000000000000e+00 0.000000000000000e+00
0.000000000000000e+00 0.000000000000000e+00 0.000000000000000e+00
0.000000000000000e+00 0.000000000000000e+00 0.000000000000000e+00
0.000000000000000e+00 0.000000000000000e+00 0.000000000000000e+00
0.000000000000000e+00 0.000000000000000e+00 0.000000000000000e+00
0.000000000000000e+00 0.000000000000000e+00 0.000000000000000e+00
0.000000000000000e+00 0.000000000000000e+00 0.000000000000000e+00
0.000000000000000e+00 0.000000000000000e+00 0.000000000000000e+00
0.000000000000000e+00 0.000000000000000e+00 0.000000000000000e+00
0.000000000000000e+00 0.000000000000000e+00 0.000000000000000e+00
0.000000000000000e+00 0.000000000000000e+00 0.000000000000000e+00
0.000000000000000e+00 0.000000000000000e+00 0.000000000000000e+00
0.000000000000000e+00 0.000000000000000e+00 0.000000000000000e+00
0.000000000000000e+00 0.000000000000000e+00 0.000000000000000e+00
0.000000000000000e+00 0.000000000000000e+00 0.000000000000000e+00
0.000000000000000e+00 0.000000000000000e+00 0.000000000000000e+00
0.000000000000000e+00 0.000000000000000e+00 0.000000000000000e+00
0.000000000000000e+00 0.000000000000000e+00 0.000000000000000e+00
0.000000000000000e+00 0.000000000000000e+00 0.000000000000000e+00
0.000000000000000e+00 0.000000000000000e+00 0.000000000000000e+00
0.000000000000000e+00 0.000000000000000e+00 0.000000000000000e+00
0.000000000000000e+00 0.000000000000000e+00 0.000000000000000e+00
0.000000000000000e+00 0.000000000000000e+00 0.000000000000000e+00
0.000000000000000e+00 0.000000000000000e+00 0.000000000000000e+00
0.000000000000000e+00 0.000000000000000e+00 0.000000000000000e+00
0.000000000000000e+00 0.000000000000000e+00 0.000000000000000e+00
0.000000000000000e+00 0.000000000000000e+00 0.000000000000000e+00
0.000000000000000e+00 0.000000000000000e+00 0.000000000000000e+00
0.000000000000000e+00 0.000000000000000e+00 0.000000000000000e+00
0.000000000000000e+00 0.000000000000000e+00 0.000000000000000e+00
0.000000000000000e+00 0.000000000000000e+00 0.000000000000000e+00
0.000000000000000e+00 0.000000000000000e+00 0.000000000000000e+00
0.000000000000000e+00 0.000000000000000e+00 0.000000000000000e+00
0.000000000000000e+00 0.000000000000000e+00 0.000000000000000e+00
0.000000000000000e+00 0.000000000000000e+00 0.000000000000000e+00
0.000000000000000e+00 0.000000000000000e+00 0.000000000000000e+00
0.000000000000000e+00 0.000000000000000e+00 0.000000000000000e+00
0.000000000000000e+00 0.000000000000000e+00 0.000000000000000e+00
0.000000000000000e+00 0.000000000000000e+00 0.000000000000000e+00
0.000000000000000e+00 0.000000000000000e+00 0.000000000000000e+00
0.000000000000000e+00 0.000000000000000e+00 0.000000000000000e+00
0.000000000000000e+00 0.000000000000000e+00 0.000000000000000e+00
0.000000000000000e+00 0.000000000000000e+00 0.000000000000000e+00
0.000000000000000e+00 0.000000000000000e+00 0.000000000000000e+00
0.000000000000000e+00 0.000000000000000e+00 0.000000000000000e+00
0.000000000000000e+00 0.000000000000000e+00 0.000000000000000e+00
0.000000000000000e+00 0.000000000000000e+00 0.000000000000000e+00
0.000000000000000e+00 0.000000000000000e+00 0.000000000000000e+00
0.000000000000000e+00 0.000000000000000e+00 0.000000000000000e+00
0.000000000000000e+00 0.000000000000000e+00 0.000000000000000e+00
0.000000000000000e+00 0.000000000000000e+00 0.000000000000000e+00
0.000000000000000e+00 0.000000000000000e+00 0.000000000000000e+00
0.000000000000000e+00 0.000000000000000e+00 0.000000000000000e+00
0.000000000000000e+00 0.000000000000000e+00 0.000000000000000e+00
0.000000000000000e+00 0.000000000000000e+00 0.000000000000000e+00
0.000000000000000e+00 0.000000000000000e+00 0.000000000000000e+00
0.000000000000000e+00 0.000000000000000e+00 0.000000000000000e+00
0.000000000000000e+00 0.000000000000000e+00 0.000000000000000e+00
0.000000000000000e+00 0.000000000000000e+00 0.000000000000000e+00
0.000000000000000e+00 0.000000000000000e+00 0.000000000000000e+00
0.000000000000000e+00 0.000000000000000e+00 0.000000000000000e+00
0.000000000000000e+00 0.000000000000000e+00 0.000000000000000e+00
0.000000000000000e+00 0.000000000000000e+00 0.000000000000000e+00
0.000000000000000e+00 0.000000000000000e+00 0.000000000000000e+00
0.000000000000000e+00 0.000000000000000e+00 0.000000000000000e+00
0.000000000000000e+00 0.000000000000000e+00 0.000000000000000e+00
0.000000000000000e+00 0.000000000000000e+00 0.000000000000000e+00
0.000000000000000e+00 0.000000000000000e+00 0.000000000000000e+00
0.000000000000000e+00 0.000000000000000e+00 0.000000000000000e+00
0.000000000000000e+00 0.000000000000000e+00 0.000000000000000e+00
0.000000000000000e+00 0.000000000000000e+00 0.000000000000000e+00
0.000000000000000e+00 0.000000000000000e+00 0.000000000000000e+00
0.000000000000000e+00 0.000000000000000e+00 0.000000000000000e+00
0.000000000000000e+00 0.000000000000000e+00 0.000000000000000e+00
0.000000000000000e+00 0.000000000000000e+00 0.000000000000000e+00
0.000000000000000e+00 0.000000000000000e+00 0.000000000000000e+00
0.000000000000000e+00 0.000000000000000e+00 0.000000000000000e+00
0.000000000000000e+00 0.000000000000000e+00 0.000000000000000e+00
0.000000000000000e+00 0.000000000000000e+00 0.000000000000000e+00
0.000000000000000e+00 0.000000000000000e+00 0.000000000000000e+00
0.000000000000000e+00 0.000000000000000e+00 0.000000000000000e+00
0.000000000000000e+00 0.000000000000000e+00 0.000000000000000e+00
0.000000000000000e+00 0.000000000000000e+00 0.000000000000000e+00
0.000000000000000e+00 0.000000000000000e+00 0.000000000000000e+00
0.000000000000000e+00 0.000000000000000e+00 0.000000000000000e+00
0.000000000000000e+00 0.000000000000000e+00 0.000000000000000e+00
0.000000000000000e+00 0.000000000000000e+00 0.000000000000000e+00
0.000000000000000e+00 0.000000000000000e+00 0.000000000000000e+00
0.000000000000000e+00 0.000000000000000e+00 0.000000000000000e+00
0.000000000000000e+00 0.000000000000000e+00 0.000000000000000e+00
0.000000000000000e+00 0.000000000000000e+00 0.000000000000000e+00
0.000000000000000e+00 0.000000000000000e+00 0.000000000000000e+00
0.000000000000000e+00 0.000000000000000e+00 0.000000000000000e+00
0.000000000000000e+00 0.000000000000000e+00 0.000000000000000e+00
0.000000000000000e+00 0.000000000000000e+00 0.000000000000000e+00
0.000000000000000e+00 0.000000000000000e+00 0.000000000000000e+00
0.000000000000000e+00 0.000000000000000e+00 0.000000000000000e+00
0.000000000000000e+00 0.000000000000000e+00 0.000000000000000e+00
0.000000000000000e+00 0.000000000000000e+00 0.000000000000000e+00
0.000000000000000e+00 0.000000000000000e+00 0.000000000000000e+00
0.000000000000000e+00 0.000000000000000e+00 0.000000000000000e+00
0.000000000000000e+00 0.000000000000000e+00 0.000000000000000e+00
0.000000000000000e+00 0.000000000000000e+00 0.000000000000000e+00
0.000000000000000e+00 0.000000000000000e+00 0.000000000000000e+00
0.000000000000000e+00 0.000000000000000e+00 0.000000000000000e+00
0.000000000000000e+00 0.000000000000000e+00 0.000000000000000e+00
0.000000000000000e+00 0.000000000000000e+00 0.000000000000000e+00
0.000000000000000e+00 0.000000000000000e+00 0.000000000000000e+00
0.000000000000000e+00 0.000000000000000e+00 0.000000000000000e+00
0.000000000000000e+00 0.000000000000000e+00 0.000000000000000e+00
0.000000000000000e+00 0.000000000000000e+00 0.000000000000000e+00
0.000000000000000e+00 0.000000000000000e+00 0.000000000000000e+00
0.000000000000000e+00 0.000000000000000e+00 0.000000000000000e+00
0.000000000000000e+00 0.000000000000000e+00 0.000000000000000e+00
0.000000000000000e+00 0.000000000000000e+00 0.000000000000000e+00
0.000000000000000e+00 0.000000000000000e+00 0.000000000000000e+00
0.000000000000000e+00 0.000000000000000e+00 0.000000000000000e+00
0.000000000000000e+00 0.000000000000000e+00 0.000000000000000e+00
0.000000000000000e+00 0.000000000000000e+00 0.000000000000000e+00
0.000000000000000e+00 0.000000000000000e+00 0.000000000000000e+00
0.000000000000000e+00 0.000000000000000e+00 0.000000000000000e+00
0.000000000000000e+00 0.000000000000000e+00 0.000000000000000e+00
0.000000000000000e+00 0.000000000000000e+00 0.000000000000000e+00
0.000000000000000e+00 0.000000000000000e+00 0.000000000000000e+00
0.000000000000000e+00 0.000000000000000e+00 0.000000000000000e+00
0.000000000000000e+00 0.000000000000000e+00 0.000000000000000e+00
0.000000000000000e+00 0.000000000000000e+00 0.000000000000000e+00
0.000000000000000e+00 0.000000000000000e+00 0.000000000000000e+00
0.000000000000000e+00 0.000000000000000e+00 0.000000000000000e+00
0.000000000000000e+00 0.000000000000000e+00 0.000000000000000e+00
0.000000000000000e+00 0.000000000000000e+00 0.000000000000000e+00
0.000000000000000e+00 0.000000000000000e+00 0.000000000000000e+00
0.000000000000000e+00 0.000000000000000e+00 0.000000000000000e+00
0.000000000000000e+00 0.000000000000000e+00 0.000000000000000e+00
0.000000000000000e+00 0.000000000000000e+00 0.000000000000000e+00
0.000000000000000e+00 0.000000000000000e+00 0.000000000000000e+00
0.000000000000000e+00 0.000000000000000e+00 0.000000000000000e+00
0.000000000000000e+00 0.000000000000000e+00 0.000000000000000e+00
0.000000000000000e+00 0.000000000000000e+00 0.000000000000000e+00
0.000000000000000e+00 0.000000000000000e+00 0.000000000000000e+00
0.000000000000000e+00 0.000000000000000e+00 0.000000000000000e+00
0.000000000000000e+00 0.000000000000000e+00 0.000000000000000e+00
0.000000000000000e+00 0.000000000000000e+00 0.000000000000000e+00
0.000000000000000e+00 0.000000000000000e+00 0.000000000000000e+00
0.000000000000000e+00 0.000000000000000e+00 0.000000000000000e+00
0.000000000000000e+00 0.000000000000000e+00 0.000000000000000e+00
0.000000000000000e+00 0.000000000000000e+00 0.000000000000000e+00
0.000000000000000e+00 0.000000000000000e+00 0.000000000000000e+00
0.000000000000000e+00 0.000000000000000e+00 0.000000000000000e+00
0.000000000000000e+00 0.000000000000000e+00 0.000000000000000e+00
0.000000000000000e+00 0.000000000000000e+00 0.000000000000000e+00
0.000000000000000e+00 0.000000000000000e+00 0.000000000000000e+00
0.000000000000000e+00 0.000000000000000e+00 0.000000000000000e+00
0.000000000000000e+00 0.000000000000000e+00 0.000000000000000e+00
0.000000000000000e+00 0.000000000000000e+00 0.000000000000000e+00
0.000000000000000e+00 0.000000000000000e+00 0.000000000000000e+00
0.000000000000000e+00 0.000000000000000e+00 0.000000000000000e+00
0.000000000000000e+00 0.000000000000000e+00 0.000000000000000e+00
0.000000000000000e+00 0.000000000000000e+00 0.000000000000000e+00
0.000000000000000e+00 0.000000000000000e+00 0.000000000000000e+00
0.000000000000000e+00 0.000000000000000e+00 0.000000000000000e+00
0.000000000000000e+00 0.000000000000000e+00 0.000000000000000e+00
0.000000000000000e+00 0.000000000000000e+00 0.000000000000000e+00
0.000000000000000e+00 0.000000000000000e+00 0.000000000000000e+00
0.000000000000000e+00 0.000000000000000e+00 0.000000000000000e+00
0.000000000000000e+00 0.000000000000000e+00 0.000000000000000e+00
0.000000000000000e+00 0.000000000000000e+00 0.000000000000000e+00
0.000000000000000e+00 0.000000000000000e+00 0.000000000000000e+00
0.000000000000000e+00 0.000000000000000e+00 0.000000000000000e+00
0.000000000000000e+00 0.000000000000000e+00 0.000000000000000e+00
0.000000000000000e+00 0.000000000000000e+00 0.000000000000000e+00
0.000000000000000e+00 0.000000000000000e+00 0.000000000000000e+00
0.000000000000000e+00 0.000000000000000e+00 0.000000000000000e+00
0.000000000000000e+00 0.000000000000000e+00 0.000000000000000e+00
0.000000000000000e+00 0.000000000000000e+00 0.000000000000000e+00
0.000000000000000e+00 0.000000000000000e+00 0.000000000000000e+00
0.000000000000000e+00 0.000000000000000e+00 0.000000000000000e+00
0.000000000000000e+00 0.000000000000000e+00 0.000000000000000e+00
0.000000000000000e+00 0.000000000000000e+00 0.000000000000000e+00
0.000000000000000e+00 0.000000000000000e+00 0.000000000000000e+00
0.000000000000000e+00 0.000000000000000e+00 0.000000000000000e+00
0.000000000000000e+00 0.000000000000000e+00 0.000000000000000e+00
0.000000000000000e+00 0.000000000000000e+00 0.000000000000000e+00
0.000000000000000e+00 0.000000000000000e+00 0.000000000000000e+00
0.000000000000000e+00 0.000000000000000e+00 0.000000000000000e+00
0.000000000000000e+00 0.000000000000000e+00 0.000000000000000e+00
0.000000000000000e+00 0.000000000000000e+00 0.000000000000000e+00
0.000000000000000e+00 0.000000000000000e+00 0.000000000000000e+00
0.000000000000000e+00 0.000000000000000e+00 0.000000000000000e+00
0.000000000000000e+00 0.000000000000000e+00 0.000000000000000e+00
0.000000000000000e+00 0.000000000000000e+00 0.000000000000000e+00
0.000000000000000e+00 0.000000000000000e+00 0.000000000000000e+00
0.000000000000000e+00 0.000000000000000e+00 0.000000000000000e+00
0.000000000000000e+00 0.000000000000000e+00 0.000000000000000e+00
0.000000000000000e+00 0.000000000000000e+00 0.000000000000000e+00
0.000000000000000e+00 0.000000000000000e+00 0.000000000000000e+00
0.000000000000000e+00 0.000000000000000e+00 0.000000000000000e+00
0.000000000000000e+00 0.000000000000000e+00 0.000000000000000e+00
0.000000000000000e+00 0.000000000000000e+00 0.000000000000000e+00
0.000000000000000e+00 0.000000000000000e+00 0.000000000000000e+00
0.000000000000000e+00 0.000000000000000e+00 0.000000000000000e+00
0.000000000000000e+00 0.000000000000000e+00 0.000000000000000e+00
0.000000000000000e+00 0.000000000000000e+00 0.000000000000000e+00
0.000000000000000e+00 0.000000000000000e+00 0.000000000000000e+00
0.000000000000000e+00 0.000000000000000e+00 0.000000000000000e+00
0.000000000000000e+00 0.000000000000000e+00 0.000000000000000e+00
0.000000000000000e+00 0.000000000000000e+00 0.000000000000000e+00
0.000000000000000e+00 0.000000000000000e+00 0.000000000000000e+00
0.000000000000000e+00 0.000000000000000e+00 0.000000000000000e+00
0.000000000000000e+00 0.000000000000000e+00 0.000000000000000e+00
0.000000000000000e+00 0.000000000000000e+00 0.000000000000000e+00
0.000000000000000e+00 0.000000000000000e+00 0.000000000000000e+00
0.000000000000000e+00 0.000000000000000e+00 0.000000000000000e+00
0.000000000000000e+00 0.000000000000000e+00 0.000000000000000e+00
0.000000000000000e+00 0.000000000000000e+00 0.000000000000000e+00
0.000000000000000e+00 0.000000000000000e+00 0.000000000000000e+00
0.000000000000000e+00 0.000000000000000e+00 0.000000000000000e+00
0.000000000000000e+00 0.000000000000000e+00 0.000000000000000e+00
0.000000000000000e+00 0.000000000000000e+00 0.000000000000000e+00
0.000000000000000e+00 0.000000000000000e+00 0.000000000000000e+00
0.000000000000000e+00 0.000000000000000e+00 0.000000000000000e+00
0.000000000000000e+00 0.000000000000000e+00 0.000000000000000e+00
0.000000000000000e+00 0.000000000000000e+00 0.000000000000000e+00
0.000000000000000e+00 0.000000000000000e+00 0.000000000000000e+00
0.000000000000000e+00 0.000000000000000e+00 0.000000000000000e+00
0.000000000000000e+00 0.000000000000000e+00 0.000000000000000e+00
0.000000000000000e+00 0.000000000000000e+00 0.000000000000000e+00
0.000000000000000e+00 0.000000000000000e+00 0.000000000000000e+00
0.000000000000000e+00 0.000000000000000e+00 0.000000000000000e+00
0.000000000000000e+00 0.000000000000000e+00 0.000000000000000e+00
0.000000000000000e+00 0.000000000000000e+00 0.000000000000000e+00
0.000000000000000e+00 0.000000000000000e+00 0.000000000000000e+00
0.000000000000000e+00 0.000000000000000e+00 0.000000000000000e+00
0.000000000000000e+00 0.000000000000000e+00 0.000000000000000e+00
0.000000000000000e+00 0.000000000000000e+00 0.000000000000000e+00
0.000000000000000e+00 0.000000000000000e+00 0.000000000000000e+00
0.000000000000000e+00 0.000000000000000e+00 0.000000000000000e+00
0.000000000000000e+00 0.000000000000000e+00 0.000000000000000e+00
0.000000000000000e+00 0.000000000000000e+00 0.000000000000000e+00
0.000000000000000e+00 0.000000000000000e+00 0.000000000000000e+00
0.000000000000000e+00 0.000000000000000e+00 0.000000000000000e+00
0.000000000000000e+00 0.000000000000000e+00 0.000000000000000e+00
0.000000000000000e+00 0.000000000000000e+00 0.000000000000000e+00
0.000000000000000e+00 0.000000000000000e+00 0.000000000000000e+00
0.000000000000000e+00 0.000000000000000e+00 0.000000000000000e+00
0.000000000000000e+00 0.000000000000000e+00 0.000000000000000e+00
0.000000000000000e+00 0.000000000000000e+00 0.000000000000000e+00
0.000000000000000e+00 0.000000000000000e+00 0.000000000000000e+00
0.000000000000000e+00 0.000000000000000e+00 0.000000000000000e+00
0.000000000000000e+00 0.000000000000000e+00 0.000000000000000e+00
0.000000000000000e+00 0.000000000000000e+00 0.000000000000000e+00
0.000000000000000e+00 0.000000000000000e+00 0.000000000000000e+00
0.000000000000000e+00 0.000000000000000e+00 0.000000000000000e+00
0.000000000000000e+00 0.000000000000000e+00 0.000000000000000e+00
0.000000000000000e+00 0.000000000000000e+00 0.000000000000000e+00
0.000000000000000e+00 0.000000000000000e+00 0.000000000000000e+00
0.000000000000000e+00 0.000000000000000e+00 0.000000000000000e+00
0.000000000000000e+00 0.000000000000000e+00 0.000000000000000e+00
0.000000000000000e+00 0.000000000000000e+00 0.000000000000000e+00
0.000000000000000e+00 0.000000000000000e+00 0.000000000000000e+00
0.000000000000000e+00 0.000000000000000e+00 0.000000000000000e+00
0.000000000000000e+00 0.000000000000000e+00 0.000000000000000e+00
0.000000000000000e+00 0.000000000000000e+00 0.000000000000000e+00
0.000000000000000e+00 0.000000000000000e+00 0.000000000000000e+00
0.000000000000000e+00 0.000000000000000e+00 0.000000000000000e+00
0.000000000000000e+00 0.000000000000000e+00 0.000000000000000e+00
0.000000000000000e+00 0.000000000000000e+00 0.000000000000000e+00
0.000000000000000e+00 0.000000000000000e+00 0.000000000000000e+00
0.000000000000000e+00 0.000000000000000e+00 0.000000000000000e+00
0.000000000000000e+00 0.000000000000000e+00 0.000000000000000e+00
0.000000000000000e+00 0.000000000000000e+00 0.000000000000000e+00
0.000000000000000e+00 0.000000000000000e+00 0.000000000000000e+00
0.000000000000000e+00 0.000000000000000e+00 0.000000000000000e+00
0.000000000000000e+00 0.000000000000000e+00 0.000000000000000e+00
0.000000000000000e+00 0.000000000000000e+00 0.000000000000000e+00
0.000000000000000e+00 0.000000000000000e+00 0.000000000000000e+00
0.000000000000000e+00 0.000000000000000e+00 0.000000000000000e+00
0.000000000000000e+00 0.000000000000000e+00 0.000000000000000e+00
0.000000000000000e+00 0.000000000000000e+00 0.000000000000000e+00
0.000000000000000e+00 0.000000000000000e+00 0.000000000000000e+00
0.000000000000000e+00 0.000000000000000e+00 0.000000000000000e+00
0.000000000000000e+00 0.000000000000000e+00 0.000000000000000e+00
0.000000000000000e+00 0.000000000000000e+00 0.000000000000000e+00
0.000000000000000e+00 0.000000000000000e+00 0.000000000000000e+00
0.000000000000000e+00 0.000000000000000e+00 0.000000000000000e+00
0.000000000000000e+00 0.000000000000000e+00 0.000000000000000e+00
0.000000000000000e+00 0.000000000000000e+00 0.000000000000000e+00
0.000000000000000e+00 0.000000000000000e+00 0.000000000000000e+00
0.000000000000000e+00 0.000000000000000e+00 0.000000000000000e+00
0.000000000000000e+00 0.000000000000000e+00 0.000000000000000e+00
0.000000000000000e+00 0.000000000000000e+00 0.000000000000000e+00
0.000000000000000e+00 0.000000000000000e+00 0.000000000000000e+00
0.000000000000000e+00 0.000000000000000e+00 0.000000000000000e+00
0.000000000000000e+00 0.000000000000000e+00 0.000000000000000e+00
0.000000000000000e+00 0.000000000000000e+00 0.000000000000000e+00
0.000000000000000e+00 0.000000000000000e+00 0.000000000000000e+00
0.000000000000000e+00 0.000000000000000e+00 0.000000000000000e+00
0.000000000000000e+00 0.000000000000000e+00 0.000000000000000e+00
0.000000000000000e+00 0.000000000000000e+00 0.000000000000000e+00
0.000000000000000e+00 0.000000000000000e+00 0.000000000000000e+00
0.000000000000000e+00 0.000000000000000e+00 0.000000000000000e+00
0.000000000000000e+00 0.000000000000000e+00 0.000000000000000e+00
0.000000000000000e+00 0.000000000000000e+00 0.000000000000000e+00
0.000000000000000e+00 0.000000000000000e+00 0.000000000000000e+00
0.000000000000000e+00 0.000000000000000e+00 0.000000000000000e+00
0.000000000000000e+00 0.000000000000000e+00 0.000000000000000e+00
0.000000000000000e+00 0.000000000000000e+00 0.000000000000000e+00
0.000000000000000e+00 0.000000000000000e+00 0.000000000000000e+00
0.000000000000000e+00 0.000000000000000e+00 0.000000000000000e+00
0.000000000000000e+00 0.000000000000000e+00 0.000000000000000e+00
0.000000000000000e+00 0.000000000000000e+00 0.000000000000000e+00
0.000000000000000e+00 0.000000000000000e+00 0.000000000000000e+00
0.000000000000000e+00 0.000000000000000e+00 0.000000000000000e+00
0.000000000000000e+00 0.000000000000000e+00 0.000000000000000e+00
0.000000000000000e+00 0.000000000000000e+00 0.000000000000000e+00
0.000000000000000e+00 0.000000000000000e+00 0.000000000000000e+00
0.000000000000000e+00 0.000000000000000e+00 0.000000000000000e+00
0.000000000000000e+00 0.000000000000000e+00 0.000000000000000e+00
0.000000000000000e+00 0.000000000000000e+00 0.000000000000000e+00
0.000000000000000e+00 0.000000000000000e+00 0.000000000000000e+00
0.000000000000000e+00 0.000000000000000e+00 0.000000000000000e+00
0.000000000000000e+00 0.000000000000000e+00 0.000000000000000e+00
0.000000000000000e+00 0.000000000000000e+00 0.000000000000000e+00
0.000000000000000e+00 0.000000000000000e+00 0.000000000000000e+00
0.000000000000000e+00 0.000000000000000e+00 0.000000000000000e+00
0.000000000000000e+00 0.000000000000000e+00 0.000000000000000e+00
0.000000000000000e+00 0.000000000000000e+00 0.000000000000000e+00
0.000000000000000e+00 0.000000000000000e+00 0.000000000000000e+00
0.000000000000000e+00 0.000000000000000e+00 0.000000000000000e+00
0.000000000000000e+00 0.000000000000000e+00 0.000000000000000e+00
0.000000000000000e+00 0.000000000000000e+00 0.000000000000000e+00
0.000000000000000e+00 0.000000000000000e+00 0.000000000000000e+00
0.000000000000000e+00 0.000000000000000e+00 0.000000000000000e+00
0.000000000000000e+00 0.000000000000000e+00 0.000000000000000e+00
0.000000000000000e+00 0.000000000000000e+00 0.000000000000000e+00
0.000000000000000e+00 0.000000000000000e+00 0.000000000000000e+00
0.000000000000000e+00 0.000000000000000e+00 0.000000000000000e+00
0.000000000000000e+00 0.000000000000000e+00 0.000000000000000e+00
0.000000000000000e+00 0.000000000000000e+00 0.000000000000000e+00
0.000000000000000e+00 0.000000000000000e+00 0.000000000000000e+00
0.000000000000000e+00 0.000000000000000e+00 0.000000000000000e+00
0.000000000000000e+00 0.000000000000000e+00 0.000000000000000e+00
0.000000000000000e+00 0.000000000000000e+00 0.000000000000000e+00
0.000000000000000e+00 0.000000000000000e+00 0.000000000000000e+00
0.000000000000000e+00 0.000000000000000e+00 0.000000000000000e+00
0.000000000000000e+00 0.000000000000000e+00 0.000000000000000e+00
0.000000000000000e+00 0.000000000000000e+00 0.000000000000000e+00
0.000000000000000e+00 0.000000000000000e+00 0.000000000000000e+00
0.000000000000000e+00 0.000000000000000e+00 0.000000000000000e+00
0.000000000000000e+00 0.000000000000000e+00 0.000000000000000e+00
0.000000000000000e+00 0.000000000000000e+00 0.000000000000000e+00
0.000000000000000e+00 0.000000000000000e+00 0.000000000000000e+00
0.000000000000000e+00 0.000000000000000e+00 0.000000000000000e+00
0.000000000000000e+00 0.000000000000000e+00 0.000000000000000e+00
0.000000000000000e+00 0.000000000000000e+00 0.000000000000000e+00
0.000000000000000e+00 0.000000000000000e+00 0.000000000000000e+00
0.000000000000000e+00 0.000000000000000e+00 0.000000000000000e+00
0.000000000000000e+00 0.000000000000000e+00 0.000000000000000e+00
0.000000000000000e+00 0.000000000000000e+00 0.000000000000000e+00
0.000000000000000e+00 0.000000000000000e+00 0.000000000000000e+00
0.000000000000000e+00 0.000000000000000e+00 0.000000000000000e+00
0.000000000000000e+00 0.000000000000000e+00 0.000000000000000e+00
0.000000000000000e+00 0.000000000000000e+00 0.000000000000000e+00
0.000000000000000e+00 0.000000000000000e+00 0.000000000000000e+00
0.000000000000000e+00 0.000000000000000e+00 0.000000000000000e+00
0.000000000000000e+00 0.000000000000000e+00 0.000000000000000e+00
0.000000000000000e+00 0.000000000000000e+00 0.000000000000000e+00
0.000000000000000e+00 0.000000000000000e+00 0.000000000000000e+00
0.000000000000000e+00 0.000000000000000e+00 0.000000000000000e+00
0.000000000000000e+00 0.000000000000000e+00 0.000000000000000e+00
0.000000000000000e+00 0.000000000000000e+00 0.000000000000000e+00
0.000000000000000e+00 0.000000000000000e+00 0.000000000000000e+00
0.000000000000000e+00 0.000000000000000e+00 0.000000000000000e+00
0.000000000000000e+00 0.000000000000000e+00 0.000000000000000e+00
0.000000000000000e+00 0.000000000000000e+00 0.000000000000000e+00
0.000000000000000e+00 0.000000000000000e+00 0.000000000000000e+00
0.000000000000000e+00 0.000000000000000e+00 0.000000000000000e+00
0.000000000000000e+00 0.000000000000000e+00 0.000000000000000e+00
0.000000000000000e+00 0.000000000000000e+00 0.000000000000000e+00
0.000000000000000e+00 0.000000000000000e+00 0.000000000000000e+00
0.000000000000000e+00 0.000000000000000e+00 0.000000000000000e+00
0.000000000000000e+00 0.000000000000000e+00 0.000000000000000e+00
0.000000000000000e+00 0.000000000000000e+00 0.000000000000000e+00
0.000000000000000e+00 0.000000000000000e+00 0.000000000000000e+00
0.000000000000000e+00 0.000000000000000e+00 0.000000000000000e+00
0.000000000000000e+00 0.000000000000000e+00 0.000000000000000e+00
0.000000000000000e+00 0.000000000000000e+00 0.000000000000000e+00
0.000000000000000e+00 0.000000000000000e+00 0.000000000000000e+00
0.000000000000000e+00 0.000000000000000e+00 0.000000000000000e+00
0.000000000000000e+00 0.000000000000000e+00 0.000000000000000e+00
0.000000000000000e+00 0.000000000000000e+00 0.000000000000000e+00
0.000000000000000e+00 0.000000000000000e+00 0.000000000000000e+00
0.000000000000000e+00 0.000000000000000e+00 0.000000000000000e+00
0.000000000000000e+00 0.000000000000000e+00 0.000000000000000e+00
0.000000000000000e+00 0.000000000000000e+00 0.000000000000000e+00
0.000000000000000e+00 0.000000000000000e+00 0.000000000000000e+00
0.000000000000000e+00 0.000000000000000e+00 0.000000000000000e+00
0.000000000000000e+00 0.000000000000000e+00 0.000000000000000e+00
0.000000000000000e+00 0.000000000000000e+00 0.000000000000000e+00
0.000000000000000e+00 0.000000000000000e+00 0.000000000000000e+00
0.000000000000000e+00 0.000000000000000e+00 0.000000000000000e+00
0.000000000000000e+00 0.000000000000000e+00 0.000000000000000e+00
0.000000000000000e+00 0.000000000000000e+00 0.000000000000000e+00
0.000000000000000e+00 0.000000000000000e+00 0.000000000000000e+00
0.000000000000000e+00 0.000000000000000e+00 0.000000000000000e+00
0.000000000000000e+00 0.000000000000000e+00 0.000000000000000e+00
0.000000000000000e+00 0.000000000000000e+00 0.000000000000000e+00
0.000000000000000e+00 0.000000000000000e+00 0.000000000000000e+00
0.000000000000000e+00 0.000000000000000e+00 0.000000000000000e+00
0.000000000000000e+00 0.000000000000000e+00 0.000000000000000e+00
0.000000000000000e+00 0.000000000000000e+00 0.000000000000000e+00
0.000000000000000e+00 0.000000000000000e+00 0.000000000000000e+00
0.000000000000000e+00 0.000000000000000e+00 0.000000000000000e+00
0.000000000000000e+00 0.000000000000000e+00 0.000000000000000e+00
0.000000000000000e+00 0.000000000000000e+00 0.000000000000000e+00
0.000000000000000e+00 0.000000000000000e+00 0.000000000000000e+00
0.000000000000000e+00 0.000000000000000e+00 0.000000000000000e+00
0.000000000000000e+00 0.000000000000000e+00 0.000000000000000e+00
0.000000000000000e+00 0.000000000000000e+00 0.000000000000000e+00
0.000000000000000e+00 0.000000000000000e+00 0.000000000000000e+00
0.000000000000000e+00 0.000000000000000e+00 0.000000000000000e+00
0.000000000000000e+00 0.000000000000000e+00 0.000000000000000e+00
0.000000000000000e+00 0.000000000000000e+00 0.000000000000000e+00
0.000000000000000e+00 0.000000000000000e+00 0.000000000000000e+00
0.000000000000000e+00 0.000000000000000e+00 0.000000000000000e+00
0.000000000000000e+00 0.000000000000000e+00 0.000000000000000e+00
0.000000000000000e+00 0.000000000000000e+00 0.000000000000000e+00
0.000000000000000e+00 0.000000000000000e+00 0.000000000000000e+00
0.000000000000000e+00 0.000000000000000e+00 0.000000000000000e+00
0.000000000000000e+00 0.000000000000000e+00 0.000000000000000e+00
0.000000000000000e+00 0.000000000000000e+00 0.000000000000000e+00
0.000000000000000e+00 0.000000000000000e+00 0.000000000000000e+00
0.000000000000000e+00 0.000000000000000e+00 0.000000000000000e+00
0.000000000000000e+00 0.000000000000000e+00 0.000000000000000e+00
0.000000000000000e+00 0.000000000000000e+00 0.000000000000000e+00
0.000000000000000e+00 0.000000000000000e+00 0.000000000000000e+00
0.000000000000000e+00 0.000000000000000e+00 0.000000000000000e+00
0.000000000000000e+00 0.000000000000000e+00 0.000000000000000e+00
0.000000000000000e+00 0.000000000000000e+00 0.000000000000000e+00
0.000000000000000e+00 0.000000000000000e+00 0.000000000000000e+00
0.000000000000000e+00 0.000000000000000e+00 0.000000000000000e+00
0.000000000000000e+00 0.000000000000000e+00 0.000000000000000e+00
0.000000000000000e+00 0.000000000000000e+00 0.000000000000000e+00
0.000000000000000e+00 0.000000000000000e+00 0.000000000000000e+00
0.000000000000000e+00 0.000000000000000e+00 0.000000000000000e+00
0.000000000000000e+00 0.000000000000000e+00 0.000000000000000e+00
0.000000000000000e+00 0.000000000000000e+00 0.000000000000000e+00
0.000000000000000e+00 0.000000000000000e+00 0.000000000000000e+00
0.000000000000000e+00 0.000000000000000e+00 0.000000000000000e+00
0.000000000000000e+00 0.000000000000000e+00 0.000000000000000e+00
0.000000000000000e+00 0.000000000000000e+00 0.000000000000000e+00
0.000000000000000e+00 0.000000000000000e+00 0.000000000000000e+00
0.000000000000000e+00 0.000000000000000e+00 0.000000000000000e+00
0.000000000000000e+00 0.000000000000000e+00 0.000000000000000e+00
0.000000000000000e+00 0.000000000000000e+00 0.000000000000000e+00
0.000000000000000e+00 0.000000000000000e+00 0.000000000000000e+00
0.000000000000000e+00 0.000000000000000e+00 0.000000000000000e+00
0.000000000000000e+00 0.000000000000000e+00 0.000000000000000e+00
0.000000000000000e+00 0.000000000000000e+00 0.000000000000000e+00
0.000000000000000e+00 0.000000000000000e+00 0.000000000000000e+00
0.000000000000000e+00 0.000000000000000e+00 0.000000000000000e+00
0.000000000000000e+00 0.000000000000000e+00 0.000000000000000e+00
0.000000000000000e+00 0.000000000000000e+00 0.000000000000000e+00
0.000000000000000e+00 0.000000000000000e+00 0.000000000000000e+00
0.000000000000000e+00 0.000000000000000e+00 0.000000000000000e+00
0.000000000000000e+00 0.000000000000000e+00 0.000000000000000e+00
0.000000000000000e+00 0.000000000000000e+00 0.000000000000000e+00
0.000000000000000e+00 0.000000000000000e+00 0.000000000000000e+00
0.000000000000000e+00 0.000000000000000e+00 0.000000000000000e+00
0.000000000000000e+00 0.000000000000000e+00 0.000000000000000e+00
0.000000000000000e+00 0.000000000000000e+00 0.000000000000000e+00
0.000000000000000e+00 0.000000000000000e+00 0.000000000000000e+00
0.000000000000000e+00 0.000000000000000e+00 0.000000000000000e+00
0.000000000000000e+00 0.000000000000000e+00 0.000000000000000e+00
0.000000000000000e+00 0.000000000000000e+00 0.000000000000000e+00
0.000000000000000e+00 0.000000000000000e+00 0.000000000000000e+00
0.000000000000000e+00 0.000000000000000e+00 0.000000000000000e+00
0.000000000000000e+00 0.000000000000000e+00 0.000000000000000e+00
0.000000000000000e+00 0.000000000000000e+00 0.000000000000000e+00
0.000000000000000e+00 0.000000000000000e+00 0.000000000000000e+00
0.000000000000000e+00 0.000000000000000e+00 0.000000000000000e+00
0.000000000000000e+00 0.000000000000000e+00 0.000000000000000e+00
0.000000000000000e+00 0.000000000000000e+00 0.000000000000000e+00
0.000000000000000e+00 0.000000000000000e+00 0.000000000000000e+00
0.000000000000000e+00 0.000000000000000e+00 0.000000000000000e+00
0.000000000000000e+00 0.000000000000000e+00 0.000000000000000e+00
0.000000000000000e+00 0.000000000000000e+00 0.000000000000000e+00
0.000000000000000e+00 0.000000000000000e+00 0.000000000000000e+00
0.000000000000000e+00 0.000000000000000e+00 0.000000000000000e+00
0.000000000000000e+00 0.000000000000000e+00 0.000000000000000e+00
0.000000000000000e+00 0.000000000000000e+00 0.000000000000000e+00
0.000000000000000e+00 0.000000000000000e+00 0.000000000000000e+00
0.000000000000000e+00 0.000000000000000e+00 0.000000000000000e+00
0.000000000000000e+00 0.000000000000000e+00 0.000000000000000e+00
0.000000000000000e+00 0.000000000000000e+00 0.000000000000000e+00
0.000000000000000e+00 0.000000000000000e+00 0.000000000000000e+00
0.000000000000000e+00 0.000000000000000e+00 0.000000000000000e+00
0.000000000000000e+00 0.000000000000000e+00 0.000000000000000e+00
0.000000000000000e+00 0.000000000000000e+00 0.000000000000000e+00
0.000000000000000e+00 0.000000000000000e+00 0.000000000000000e+00
0.000000000000000e+00 0.000000000000000e+00 0.000000000000000e+00
0.000000000000000e+00 0.000000000000000e+00 0.000000000000000e+00
0.000000000000000e+00 0.000000000000000e+00 0.000000000000000e+00
0.000000000000000e+00 0.000000000000000e+00 0.000000000000000e+00
0.000000000000000e+00 0.000000000000000e+00 0.000000000000000e+00
0.000000000000000e+00 0.000000000000000e+00 0.000000000000000e+00
0.000000000000000e+00 0.000000000000000e+00 0.000000000000000e+00
0.000000000000000e+00 0.000000000000000e+00 0.000000000000000e+00
0.000000000000000e+00 0.000000000000000e+00 0.000000000000000e+00
0.000000000000000e+00 0.000000000000000e+00 0.000000000000000e+00
0.000000000000000e+00 0.000000000000000e+00 0.000000000000000e+00
0.000000000000000e+00 0.000000000000000e+00 0.000000000000000e+00
0.000000000000000e+00 0.000000000000000e+00 0.000000000000000e+00
0.000000000000000e+00 0.000000000000000e+00 0.000000000000000e+00
0.000000000000000e+00 0.000000000000000e+00 0.000000000000000e+00
0.000000000000000e+00 0.000000000000000e+00 0.000000000000000e+00
0.000000000000000e+00 0.000000000000000e+00 0.000000000000000e+00
0.000000000000000e+00 0.000000000000000e+00 0.000000000000000e+00
0.000000000000000e+00 0.000000000000000e+00 0.000000000000000e+00
0.000000000000000e+00 0.000000000000000e+00 0.000000000000000e+00
0.000000000000000e+00 0.000000000000000e+00 0.000000000000000e+00
0.000000000000000e+00 0.000000000000000e+00 0.000000000000000e+00
0.000000000000000e+00 0.000000000000000e+00 0.000000000000000e+00
0.000000000000000e+00 0.000000000000000e+00 0.000000000000000e+00
0.000000000000000e+00 0.000000000000000e+00 0.000000000000000e+00
0.000000000000000e+00 0.000000000000000e+00 0.000000000000000e+00
0.000000000000000e+00 0.000000000000000e+00 0.000000000000000e+00
0.000000000000000e+00 0.000000000000000e+00 0.000000000000000e+00
0.000000000000000e+00 0.000000000000000e+00 0.000000000000000e+00
0.000000000000000e+00 0.000000000000000e+00 0.000000000000000e+00
0.000000000000000e+00 0.000000000000000e+00 0.000000000000000e+00
0.000000000000000e+00 0.000000000000000e+00 0.000000000000000e+00
0.000000000000000e+00 0.000000000000000e+00 0.000000000000000e+00
0.000000000000000e+00 0.000000000000000e+00 0.000000000000000e+00
0.000000000000000e+00 0.000000000000000e+00 0.000000000000000e+00
0.000000000000000e+00 0.000000000000000e+00 0.000000000000000e+00
0.000000000000000e+00 0.000000000000000e+00 0.000000000000000e+00
0.000000000000000e+00 0.000000000000000e+00 0.000000000000000e+00
0.000000000000000e+00 0.000000000000000e+00 0.000000000000000e+00
0.000000000000000e+00 0.000000000000000e+00 0.000000000000000e+00
0.000000000000000e+00 0.000000000000000e+00 0.000000000000000e+00
0.000000000000000e+00 0.000000000000000e+00 0.000000000000000e+00
0.000000000000000e+00 0.000000000000000e+00 0.000000000000000e+00
0.000000000000000e+00 0.000000000000000e+00 0.000000000000000e+00
0.000000000000000e+00 0.000000000000000e+00 0.000000000000000e+00
0.000000000000000e+00 0.000000000000000e+00 0.000000000000000e+00
0.000000000000000e+00 0.000000000000000e+00 0.000000000000000e+00
0.000000000000000e+00 0.000000000000000e+00 0.000000000000000e+00
0.000000000000000e+00 0.000000000000000e+00 0.000000000000000e+00
0.000000000000000e+00 0.000000000000000e+00 0.000000000000000e+00
0.000000000000000e+00 0.000000000000000e+00 0.000000000000000e+00
0.000000000000000e+00 0.000000000000000e+00 0.000000000000000e+00
0.000000000000000e+00 0.000000000000000e+00 0.000000000000000e+00
0.000000000000000e+00 0.000000000000000e+00 0.000000000000000e+00
0.000000000000000e+00 0.000000000000000e+00 0.000000000000000e+00
0.000000000000000e+00 0.000000000000000e+00 0.000000000000000e+00
0.000000000000000e+00 0.000000000000000e+00 0.000000000000000e+00
0.000000000000000e+00 0.000000000000000e+00 0.000000000000000e+00
0.000000000000000e+00 0.000000000000000e+00 0.000000000000000e+00
0.000000000000000e+00 0.000000000000000e+00 0.000000000000000e+00
0.000000000000000e+00 0.000000000000000e+00 0.000000000000000e+00
0.000000000000000e+00 0.000000000000000e+00 0.000000000000000e+00
0.000000000000000e+00 0.000000000000000e+00 0.000000000000000e+00
0.000000000000000e+00 0.000000000000000e+00 0.000000000000000e+00
0.000000000000000e+00 0.000000000000000e+00 0.000000000000000e+00
0.000000000000000e+00 0.000000000000000e+00 0.000000000000000e+00
0.000000000000000e+00 0.000000000000000e+00 0.000000000000000e+00
0.000000000000000e+00 0.000000000000000e+00 0.000000000000000e+00
0.000000000000000e+00 0.000000000000000e+00 0.000000000000000e+00
0.000000000000000e+00 0.000000000000000e+00 0.000000000000000e+00
0.000000000000000e+00 0.000000000000000e+00 0.000000000000000e+00
0.000000000000000e+00 0.000000000000000e+00 0.000000000000000e+00
0.000000000000000e+00 0.000000000000000e+00 0.000000000000000e+00
0.000000000000000e+00 0.000000000000000e+00 0.000000000000000e+00
0.000000000000000e+00 0.000000000000000e+00 0.000000000000000e+00
0.000000000000000e+00 0.000000000000000e+00 0.000000000000000e+00
0.000000000000000e+00 0.000000000000000e+00 0.000000000000000e+00
0.000000000000000e+00 0.000000000000000e+00 0.000000000000000e+00
0.000000000000000e+00 0.000000000000000e+00 0.000000000000000e+00
0.000000000000000e+00 0.000000000000000e+00 0.000000000000000e+00
0.000000000000000e+00 0.000000000000000e+00 0.000000000000000e+00
0.000000000000000e+00 0.000000000000000e+00 0.000000000000000e+00
0.000000000000000e+00 0.000000000000000e+00 0.000000000000000e+00
0.000000000000000e+00 0.000000000000000e+00 0.000000000000000e+00
0.000000000000000e+00 0.000000000000000e+00 0.000000000000000e+00
0.000000000000000e+00 0.000000000000000e+00 0.000000000000000e+00
0.000000000000000e+00 0.000000000000000e+00 0.000000000000000e+00
0.000000000000000e+00 0.000000000000000e+00 0.000000000000000e+00
0.000000000000000e+00 0.000000000000000e+00 0.000000000000000e+00
0.000000000000000e+00 0.000000000000000e+00 0.000000000000000e+00
0.000000000000000e+00 0.000000000000000e+00 0.000000000000000e+00
0.000000000000000e+00 0.000000000000000e+00 0.000000000000000e+00
0.000000000000000e+00 0.000000000000000e+00 0.000000000000000e+00
0.000000000000000e+00 0.000000000000000e+00 0.000000000000000e+00
0.000000000000000e+00 0.000000000000000e+00 0.000000000000000e+00
0.000000000000000e+00 0.000000000000000e+00 0.000000000000000e+00
0.000000000000000e+00 0.000000000000000e+00 0.000000000000000e+00
0.000000000000000e+00 0.000000000000000e+00 0.000000000000000e+00
0.000000000000000e+00 0.000000000000000e+00 0.000000000000000e+00
0.000000000000000e+00 0.000000000000000e+00 0.000000000000000e+00
0.000000000000000e+00 0.000000000000000e+00 0.000000000000000e+00
0.000000000000000e+00 0.000000000000000e+00 0.000000000000000e+00
0.000000000000000e+00 0.000000000000000e+00 0.000000000000000e+00
0.000000000000000e+00 0.000000000000000e+00 0.000000000000000e+00
0.000000000000000e+00 0.000000000000000e+00 0.000000000000000e+00
0.000000000000000e+00 0.000000000000000e+00 0.000000000000000e+00
0.000000000000000e+00 0.000000000000000e+00 0.000000000000000e+00
0.000000000000000e+00 0.000000000000000e+00 0.000000000000000e+00
0.000000000000000e+00 0.000000000000000e+00 0.000000000000000e+00
0.000000000000000e+00 0.000000000000000e+00 0.000000000000000e+00
0.000000000000000e+00 0.000000000000000e+00 0.000000000000000e+00
0.000000000000000e+00 0.000000000000000e+00 0.000000000000000e+00
0.000000000000000e+00 0.000000000000000e+00 0.000000000000000e+00
0.000000000000000e+00 0.000000000000000e+00 0.000000000000000e+00
0.000000000000000e+00 0.000000000000000e+00 0.000000000000000e+00
0.000000000000000e+00 0.000000000000000e+00 0.000000000000000e+00
0.000000000000000e+00 0.000000000000000e+00 0.000000000000000e+00
0.000000000000000e+00 0.000000000000000e+00 0.000000000000000e+00
0.000000000000000e+00 0.000000000000000e+00 0.000000000000000e+00
0.000000000000000e+00 0.000000000000000e+00 0.000000000000000e+00
0.000000000000000e+00 0.000000000000000e+00 0.000000000000000e+00
0.000000000000000e+00 0.000000000000000e+00 0.000000000000000e+00
0.000000000000000e+00 0.000000000000000e+00 0.000000000000000e+00
0.000000000000000e+00 0.000000000000000e+00 0.000000000000000e+00
0.000000000000000e+00 0.000000000000000e+00 0.000000000000000e+00
0.000000000000000e+00 0.000000000000000e+00 0.000000000000000e+00
0.000000000000000e+00 0.000000000000000e+00 0.000000000000000e+00
0.000000000000000e+00 0.000000000000000e+00 0.000000000000000e+00
0.000000000000000e+00 0.000000000000000e+00 0.000000000000000e+00
0.000000000000000e+00 0.000000000000000e+00 0.000000000000000e+00
0.000000000000000e+00 0.000000000000000e+00 0.000000000000000e+00
0.000000000000000e+00 0.000000000000000e+00 0.000000000000000e+00
0.000000000000000e+00 0.000000000000000e+00 0.000000000000000e+00
0.000000000000000e+00 0.000000000000000e+00 0.000000000000000e+00
0.000000000000000e+00 0.000000000000000e+00 0.000000000000000e+00
0.000000000000000e+00 0.000000000000000e+00 0.000000000000000e+00
0.000000000000000e+00 0.000000000000000e+00 0.000000000000000e+00
0.000000000000000e+00 0.000000000000000e+00 0.000000000000000e+00
0.000000000000000e+00 0.000000000000000e+00 0.000000000000000e+00
0.000000000000000e+00 0.000000000000000e+00 0.000000000000000e+00
0.000000000000000e+00 0.000000000000000e+00 0.000000000000000e+00
0.000000000000000e+00 0.000000000000000e+00 0.000000000000000e+00
0.000000000000000e+00 0.000000000000000e+00 0.000000000000000e+00
0.000000000000000e+00 0.000000000000000e+00 0.000000000000000e+00
0.000000000000000e+00 0.000000000000000e+00 0.000000000000000e+00
0.000000000000000e+00 0.000000000000000e+00 0.000000000000000e+00
0.000000000000000e+00 0.000000000000000e+00 0.000000000000000e+00
0.000000000000000e+00 0.000000000000000e+00 0.000000000000000e+00
0.000000000000000e+00 0.000000000000000e+00 0.000000000000000e+00
0.000000000000000e+00 0.000000000000000e+00 0.000000000000000e+00
0.000000000000000e+00 0.000000000000000e+00 0.000000000000000e+00
0.000000000000000e+00 0.000000000000000e+00 0.000000000000000e+00
0.000000000000000e+00 0.000000000000000e+00 0.000000000000000e+00
0.000000000000000e+00 0.000000000000000e+00 0.000000000000000e+00
0.000000000000000e+00 0.000000000000000e+00 0.000000000000000e+00
0.000000000000000e+00 0.000000000000000e+00 0.000000000000000e+00
0.000000000000000e+00 0.000000000000000e+00 0.000000000000000e+00
0.000000000000000e+00 0.000000000000000e+00 0.000000000000000e+00
0.000000000000000e+00 0.000000000000000e+00 0.000000000000000e+00
0.000000000000000e+00 0.000000000000000e+00 0.000000000000000e+00
0.000000000000000e+00 0.000000000000000e+00 0.000000000000000e+00
0.000000000000000e+00 0.000000000000000e+00 0.000000000000000e+00
0.000000000000000e+00 0.000000000000000e+00 0.000000000000000e+00
0.000000000000000e+00 0.000000000000000e+00 0.000000000000000e+00
0.000000000000000e+00 0.000000000000000e+00 0.000000000000000e+00
0.000000000000000e+00 0.000000000000000e+00 0.000000000000000e+00
0.000000000000000e+00 0.000000000000000e+00 0.000000000000000e+00
0.000000000000000e+00 0.000000000000000e+00 0.000000000000000e+00
0.000000000000000e+00 0.000000000000000e+00 0.000000000000000e+00
0.000000000000000e+00 0.000000000000000e+00 0.000000000000000e+00
0.000000000000000e+00 0.000000000000000e+00 0.000000000000000e+00
0.000000000000000e+00 0.000000000000000e+00 0.000000000000000e+00
0.000000000000000e+00 0.000000000000000e+00 0.000000000000000e+00
0.000000000000000e+00 0.000000000000000e+00 0.000000000000000e+00
0.000000000000000e+00 0.000000000000000e+00 0.000000000000000e+00
0.000000000000000e+00 0.000000000000000e+00 0.000000000000000e+00
0.000000000000000e+00 0.000000000000000e+00 0.000000000000000e+00
0.000000000000000e+00 0.000000000000000e+00 0.000000000000000e+00
0.000000000000000e+00 0.000000000000000e+00 0.000000000000000e+00
0.000000000000000e+00 0.000000000000000e+00 0.000000000000000e+00
0.000000000000000e+00 0.000000000000000e+00 0.000000000000000e+00
0.000000000000000e+00 0.000000000000000e+00 0.000000000000000e+00
0.000000000000000e+00 0.000000000000000e+00 0.000000000000000e+00
0.000000000000000e+00 0.000000000000000e+00 0.000000000000000e+00
0.000000000000000e+00 0.000000000000000e+00 0.000000000000000e+00
0.000000000000000e+00 0.000000000000000e+00 0.000000000000000e+00
0.000000000000000e+00 0.000000000000000e+00 0.000000000000000e+00
0.000000000000000e+00 0.000000000000000e+00 0.000000000000000e+00
0.000000000000000e+00 0.000000000000000e+00 0.000000000000000e+00
0.000000000000000e+00 0.000000000000000e+00 0.000000000000000e+00
0.000000000000000e+00 0.000000000000000e+00 0.000000000000000e+00
0.000000000000000e+00 0.000000000000000e+00 0.000000000000000e+00
0.000000000000000e+00 0.000000000000000e+00 0.000000000000000e+00
0.000000000000000e+00 0.000000000000000e+00 0.000000000000000e+00
0.000000000000000e+00 0.000000000000000e+00 0.000000000000000e+00
0.000000000000000e+00 0.000000000000000e+00 0.000000000000000e+00
0.000000000000000e+00 0.000000000000000e+00 0.000000000000000e+00
0.000000000000000e+00 0.000000000000000e+00 0.000000000000000e+00
0.000000000000000e+00 0.000000000000000e+00 0.000000000000000e+00
0.000000000000000e+00 0.000000000000000e+00 0.000000000000000e+00
0.000000000000000e+00 0.000000000000000e+00 0.000000000000000e+00
0.000000000000000e+00 0.000000000000000e+00 0.000000000000000e+00
0.000000000000000e+00 0.000000000000000e+00 0.000000000000000e+00
0.000000000000000e+00 0.000000000000000e+00 0.000000000000000e+00
0.000000000000000e+00 0.000000000000000e+00 0.000000000000000e+00
0.000000000000000e+00 0.000000000000000e+00 0.000000000000000e+00
0.000000000000000e+00 0.000000000000000e+00 0.000000000000000e+00
0.000000000000000e+00 0.000000000000000e+00 0.000000000000000e+00
0.000000000000000e+00 0.000000000000000e+00 0.000000000000000e+00
0.000000000000000e+00 0.000000000000000e+00 0.000000000000000e+00
0.000000000000000e+00 0.000000000000000e+00 0.000000000000000e+00
0.000000000000000e+00 0.000000000000000e+00 0.000000000000000e+00
0.000000000000000e+00 0.000000000000000e+00 0.000000000000000e+00
0.000000000000000e+00 0.000000000000000e+00 0.000000000000000e+00
0.000000000000000e+00 0.000000000000000e+00 0.000000000000000e+00
0.000000000000000e+00 0.000000000000000e+00 0.000000000000000e+00
0.000000000000000e+00 0.000000000000000e+00 0.000000000000000e+00
0.000000000000000e+00 0.000000000000000e+00 0.000000000000000e+00
0.000000000000000e+00 0.000000000000000e+00 0.000000000000000e+00
0.000000000000000e+00 0.000000000000000e+00 0.000000000000000e+00
0.000000000000000e+00 0.000000000000000e+00 0.000000000000000e+00
0.000000000000000e+00 0.000000000000000e+00 0.000000000000000e+00
0.000000000000000e+00 0.000000000000000e+00 0.000000000000000e+00
0.000000000000000e+00 0.000000000000000e+00 0.000000000000000e+00
0.000000000000000e+00 0.000000000000000e+00 0.000000000000000e+00
0.000000000000000e+00 0.000000000000000e+00 0.000000000000000e+00
0.000000000000000e+00 0.000000000000000e+00 0.000000000000000e+00
0.000000000000000e+00 0.000000000000000e+00 0.000000000000000e+00
0.000000000000000e+00 0.000000000000000e+00 0.000000000000000e+00
0.000000000000000e+00 0.000000000000000e+00 0.000000000000000e+00
0.000000000000000e+00 0.000000000000000e+00 0.000000000000000e+00
0.000000000000000e+00 0.000000000000000e+00 0.000000000000000e+00
0.000000000000000e+00 0.000000000000000e+00 0.000000000000000e+00
0.000000000000000e+00 0.000000000000000e+00 0.000000000000000e+00
0.000000000000000e+00 0.000000000000000e+00 0.000000000000000e+00
0.000000000000000e+00 0.000000000000000e+00 0.000000000000000e+00
0.000000000000000e+00 0.000000000000000e+00 0.000000000000000e+00
0.000000000000000e+00 0.000000000000000e+00 0.000000000000000e+00
0.000000000000000e+00 0.000000000000000e+00 0.000000000000000e+00
0.000000000000000e+00 0.000000000000000e+00 0.000000000000000e+00
0.000000000000000e+00 0.000000000000000e+00 0.000000000000000e+00
0.000000000000000e+00 0.000000000000000e+00 0.000000000000000e+00
0.000000000000000e+00 0.000000000000000e+00 0.000000000000000e+00
0.000000000000000e+00 0.000000000000000e+00 0.000000000000000e+00
0.000000000000000e+00 0.000000000000000e+00 0.000000000000000e+00
0.000000000000000e+00 0.000000000000000e+00 0.000000000000000e+00
0.000000000000000e+00 0.000000000000000e+00 0.000000000000000e+00
0.000000000000000e+00 0.000000000000000e+00 0.000000000000000e+00
0.000000000000000e+00 0.000000000000000e+00 0.000000000000000e+00
0.000000000000000e+00 0.000000000000000e+00 0.000000000000000e+00
0.000000000000000e+00 0.000000000000000e+00 0.000000000000000e+00
0.000000000000000e+00 0.000000000000000e+00 0.000000000000000e+00
0.000000000000000e+00 0.000000000000000e+00 0.000000000000000e+00
0.000000000000000e+00 0.000000000000000e+00 0.000000000000000e+00
0.000000000000000e+00 0.000000000000000e+00 0.000000000000000e+00
0.000000000000000e+00 0.000000000000000e+00 0.000000000000000e+00
0.000000000000000e+00 0.000000000000000e+00 0.000000000000000e+00
0.000000000000000e+00 0.000000000000000e+00 0.000000000000000e+00
0.000000000000000e+00 0.000000000000000e+00 0.000000000000000e+00
0.000000000000000e+00 0.000000000000000e+00 0.000000000000000e+00
0.000000000000000e+00 0.000000000000000e+00 0.000000000000000e+00
0.000000000000000e+00 0.000000000000000e+00 0.000000000000000e+00
0.000000000000000e+00 0.000000000000000e+00 0.000000000000000e+00
0.000000000000000e+00 0.000000000000000e+00 0.000000000000000e+00
0.000000000000000e+00 0.000000000000000e+00 0.000000000000000e+00
0.000000000000000e+00 0.000000000000000e+00 0.000000000000000e+00
0.000000000000000e+00 0.000000000000000e+00 0.000000000000000e+00
0.000000000000000e+00 0.000000000000000e+00 0.000000000000000e+00
0.000000000000000e+00 0.000000000000000e+00 0.000000000000000e+00
0.000000000000000e+00 0.000000000000000e+00 0.000000000000000e+00
0.000000000000000e+00 0.000000000000000e+00 0.000000000000000e+00
0.000000000000000e+00 0.000000000000000e+00 0.000000000000000e+00
0.000000000000000e+00 0.000000000000000e+00 0.000000000000000e+00
0.000000000000000e+00 0.000000000000000e+00 0.000000000000000e+00
0.000000000000000e+00 0.000000000000000e+00 0.000000000000000e+00
0.000000000000000e+00 0.000000000000000e+00 0.000000000000000e+00
0.000000000000000e+00 0.000000000000000e+00 0.000000000000000e+00
0.000000000000000e+00 0.000000000000000e+00 0.000000000000000e+00
0.000000000000000e+00 0.000000000000000e+00 0.000000000000000e+00
0.000000000000000e+00 0.000000000000000e+00 0.000000000000000e+00
0.000000000000000e+00 0.000000000000000e+00 0.000000000000000e+00
0.000000000000000e+00 0.000000000000000e+00 0.000000000000000e+00
0.000000000000000e+00 0.000000000000000e+00 0.000000000000000e+00
0.000000000000000e+00 0.000000000000000e+00 0.000000000000000e+00
0.000000000000000e+00 0.000000000000000e+00 0.000000000000000e+00
0.000000000000000e+00 0.000000000000000e+00 0.000000000000000e+00
0.000000000000000e+00 0.000000000000000e+00 0.000000000000000e+00
0.000000000000000e+00 0.000000000000000e+00 0.000000000000000e+00
0.000000000000000e+00 0.000000000000000e+00 0.000000000000000e+00
0.000000000000000e+00 0.000000000000000e+00 0.000000000000000e+00
0.000000000000000e+00 0.000000000000000e+00 0.000000000000000e+00
0.000000000000000e+00 0.000000000000000e+00 0.000000000000000e+00
0.000000000000000e+00 0.000000000000000e+00 0.000000000000000e+00
0.000000000000000e+00 0.000000000000000e+00 0.000000000000000e+00
0.000000000000000e+00 0.000000000000000e+00 0.000000000000000e+00
0.000000000000000e+00 0.000000000000000e+00 0.000000000000000e+00
0.000000000000000e+00 0.000000000000000e+00 0.000000000000000e+00
0.000000000000000e+00 0.000000000000000e+00 0.000000000000000e+00
0.000000000000000e+00 0.000000000000000e+00 0.000000000000000e+00
0.000000000000000e+00 0.000000000000000e+00 0.000000000000000e+00
0.000000000000000e+00 0.000000000000000e+00 0.000000000000000e+00
0.000000000000000e+00 0.000000000000000e+00 0.000000000000000e+00
0.000000000000000e+00 0.000000000000000e+00 0.000000000000000e+00
0.000000000000000e+00 0.000000000000000e+00 0.000000000000000e+00
0.000000000000000e+00 0.000000000000000e+00 0.000000000000000e+00
0.000000000000000e+00 0.000000000000000e+00 0.000000000000000e+00
0.000000000000000e+00 0.000000000000000e+00 0.000000000000000e+00
0.000000000000000e+00 0.000000000000000e+00 0.000000000000000e+00
0.000000000000000e+00 0.000000000000000e+00 0.000000000000000e+00
0.000000000000000e+00 0.000000000000000e+00 0.000000000000000e+00
0.000000000000000e+00 0.000000000000000e+00 0.000000000000000e+00
0.000000000000000e+00 0.000000000000000e+00 0.000000000000000e+00
0.000000000000000e+00 0.000000000000000e+00 0.000000000000000e+00
0.000000000000000e+00 0.000000000000000e+00 0.000000000000000e+00
0.000000000000000e+00 0.000000000000000e+00 0.000000000000000e+00
0.000000000000000e+00 0.000000000000000e+00 0.000000000000000e+00
0.000000000000000e+00 0.000000000000000e+00 0.000000000000000e+00
0.000000000000000e+00 0.000000000000000e+00 0.000000000000000e+00
0.000000000000000e+00 0.000000000000000e+00 0.000000000000000e+00
0.000000000000000e+00 0.000000000000000e+00 0.000000000000000e+00
0.000000000000000e+00 0.000000000000000e+00 0.000000000000000e+00
0.000000000000000e+00 0.000000000000000e+00 0.000000000000000e+00
0.000000000000000e+00 0.000000000000000e+00 0.000000000000000e+00
0.000000000000000e+00 0.000000000000000e+00 0.000000000000000e+00
0.000000000000000e+00 0.000000000000000e+00 0.000000000000000e+00
0.000000000000000e+00 0.000000000000000e+00 0.000000000000000e+00
0.000000000000000e+00 0.000000000000000e+00 0.000000000000000e+00
0.000000000000000e+00 0.000000000000000e+00 0.000000000000000e+00
0.000000000000000e+00 0.000000000000000e+00 0.000000000000000e+00
0.000000000000000e+00 0.000000000000000e+00 0.000000000000000e+00
0.000000000000000e+00 0.000000000000000e+00 0.000000000000000e+00
0.000000000000000e+00 0.000000000000000e+00 0.000000000000000e+00
0.000000000000000e+00 0.000000000000000e+00 0.000000000000000e+00
0.000000000000000e+00 0.000000000000000e+00 0.000000000000000e+00
0.000000000000000e+00 0.000000000000000e+00 0.000000000000000e+00
0.000000000000000e+00 0.000000000000000e+00 0.000000000000000e+00
0.000000000000000e+00 0.000000000000000e+00 0.000000000000000e+00
0.000000000000000e+00 0.000000000000000e+00 0.000000000000000e+00
0.000000000000000e+00 0.000000000000000e+00 0.000000000000000e+00
0.000000000000000e+00 0.000000000000000e+00 0.000000000000000e+00
0.000000000000000e+00 0.000000000000000e+00 0.000000000000000e+00
0.000000000000000e+00 0.000000000000000e+00 0.000000000000000e+00
0.000000000000000e+00 0.000000000000000e+00 0.000000000000000e+00
0.000000000000000e+00 0.000000000000000e+00 0.000000000000000e+00
0.000000000000000e+00 0.000000000000000e+00 0.000000000000000e+00
0.000000000000000e+00 0.000000000000000e+00 0.000000000000000e+00
0.000000000000000e+00 0.000000000000000e+00 0.000000000000000e+00
0.000000000000000e+00 0.000000000000000e+00 0.000000000000000e+00
0.000000000000000e+00 0.000000000000000e+00 0.000000000000000e+00
0.000000000000000e+00 0.000000000000000e+00 0.000000000000000e+00
0.000000000000000e+00 0.000000000000000e+00 0.000000000000000e+00
0.000000000000000e+00 0.000000000000000e+00 0.000000000000000e+00
0.000000000000000e+00 0.000000000000000e+00 0.000000000000000e+00
0.000000000000000e+00 0.000000000000000e+00 0.000000000000000e+00
0.000000000000000e+00 0.000000000000000e+00 0.000000000000000e+00
0.000000000000000e+00 0.000000000000000e+00 0.000000000000000e+00
0.000000000000000e+00 0.000000000000000e+00 0.000000000000000e+00
0.000000000000000e+00 0.000000000000000e+00 0.000000000000000e+00
0.000000000000000e+00 0.000000000000000e+00 0.000000000000000e+00
0.000000000000000e+00 0.000000000000000e+00 0.000000000000000e+00
0.000000000000000e+00 0.000000000000000e+00 0.000000000000000e+00
0.000000000000000e+00 0.000000000000000e+00 0.000000000000000e+00
0.000000000000000e+00 0.000000000000000e+00 0.000000000000000e+00
0.000000000000000e+00 0.000000000000000e+00 0.000000000000000e+00
0.000000000000000e+00 0.000000000000000e+00 0.000000000000000e+00
0.000000000000000e+00 0.000000000000000e+00 0.000000000000000e+00
0.000000000000000e+00 0.000000000000000e+00 0.000000000000000e+00
0.000000000000000e+00 0.000000000000000e+00 0.000000000000000e+00
0.000000000000000e+00 0.000000000000000e+00 0.000000000000000e+00
0.000000000000000e+00 0.000000000000000e+00 0.000000000000000e+00
0.000000000000000e+00 0.000000000000000e+00 0.000000000000000e+00
0.000000000000000e+00 0.000000000000000e+00 0.000000000000000e+00
0.000000000000000e+00 0.000000000000000e+00 0.000000000000000e+00
0.000000000000000e+00 0.000000000000000e+00 0.000000000000000e+00
0.000000000000000e+00 0.000000000000000e+00 0.000000000000000e+00
0.000000000000000e+00 0.000000000000000e+00 0.000000000000000e+00
0.000000000000000e+00 0.000000000000000e+00 0.000000000000000e+00
0.000000000000000e+00 0.000000000000000e+00 0.000000000000000e+00
0.000000000000000e+00 0.000000000000000e+00 0.000000000000000e+00
0.000000000000000e+00 0.000000000000000e+00 0.000000000000000e+00
0.000000000000000e+00 0.000000000000000e+00 0.000000000000000e+00
0.000000000000000e+00 0.000000000000000e+00 0.000000000000000e+00
0.000000000000000e+00 0.000000000000000e+00 0.000000000000000e+00
0.000000000000000e+00 0.000000000000000e+00 0.000000000000000e+00
0.000000000000000e+00 0.000000000000000e+00 0.000000000000000e+00
0.000000000000000e+00 0.000000000000000e+00 0.000000000000000e+00
0.000000000000000e+00 0.000000000000000e+00 0.000000000000000e+00
0.000000000000000e+00 0.000000000000000e+00 0.000000000000000e+00
0.000000000000000e+00 0.000000000000000e+00 0.000000000000000e+00
0.000000000000000e+00 0.000000000000000e+00 0.000000000000000e+00
0.000000000000000e+00 0.000000000000000e+00 0.000000000000000e+00
0.000000000000000e+00 0.000000000000000e+00 0.000000000000000e+00
0.000000000000000e+00 0.000000000000000e+00 0.000000000000000e+00
0.000000000000000e+00 0.000000000000000e+00 0.000000000000000e+00
0.000000000000000e+00 0.000000000000000e+00 0.000000000000000e+00
0.000000000000000e+00 0.000000000000000e+00 0.000000000000000e+00
0.000000000000000e+00 0.000000000000000e+00 0.000000000000000e+00
0.000000000000000e+00 0.000000000000000e+00 0.000000000000000e+00
0.000000000000000e+00 0.000000000000000e+00 0.000000000000000e+00
0.000000000000000e+00 0.000000000000000e+00 0.000000000000000e+00
0.000000000000000e+00 0.000000000000000e+00 0.000000000000000e+00
0.000000000000000e+00 0.000000000000000e+00 0.000000000000000e+00
0.000000000000000e+00 0.000000000000000e+00 0.000000000000000e+00
0.000000000000000e+00 0.000000000000000e+00 0.000000000000000e+00
0.000000000000000e+00 0.000000000000000e+00 0.000000000000000e+00
0.000000000000000e+00 0.000000000000000e+00 0.000000000000000e+00
0.000000000000000e+00 0.000000000000000e+00 0.000000000000000e+00
0.000000000000000e+00 0.000000000000000e+00 0.000000000000000e+00
0.000000000000000e+00 0.000000000000000e+00 0.000000000000000e+00
0.000000000000000e+00 0.000000000000000e+00 0.000000000000000e+00
0.000000000000000e+00 0.000000000000000e+00 0.000000000000000e+00
0.000000000000000e+00 0.000000000000000e+00 0.000000000000000e+00
0.000000000000000e+00 0.000000000000000e+00 0.000000000000000e+00
0.000000000000000e+00 0.000000000000000e+00 0.000000000000000e+00
0.000000000000000e+00 0.000000000000000e+00 0.000000000000000e+00
0.000000000000000e+00 0.000000000000000e+00 0.000000000000000e+00
0.000000000000000e+00 0.000000000000000e+00 0.000000000000000e+00
0.000000000000000e+00 0.000000000000000e+00 0.000000000000000e+00
0.000000000000000e+00 0.000000000000000e+00 0.000000000000000e+00
0.000000000000000e+00 0.000000000000000e+00 0.000000000000000e+00
0.000000000000000e+00 0.000000000000000e+00 0.000000000000000e+00
0.000000000000000e+00 0.000000000000000e+00 0.000000000000000e+00
0.000000000000000e+00 0.000000000000000e+00 0.000000000000000e+00
0.000000000000000e+00 0.000000000000000e+00 0.000000000000000e+00
0.000000000000000e+00 0.000000000000000e+00 0.000000000000000e+00
0.000000000000000e+00 0.000000000000000e+00 0.000000000000000e+00
0.000000000000000e+00 0.000000000000000e+00 0.000000000000000e+00
0.000000000000000e+00 0.000000000000000e+00 0.000000000000000e+00
0.000000000000000e+00 0.000000000000000e+00 0.000000000000000e+00
0.000000000000000e+00 0.000000000000000e+00 0.000000000000000e+00
0.000000000000000e+00 0.000000000000000e+00 0.000000000000000e+00
0.000000000000000e+00 0.000000000000000e+00 0.000000000000000e+00
0.000000000000000e+00 0.000000000000000e+00 0.000000000000000e+00
0.000000000000000e+00 0.000000000000000e+00 0.000000000000000e+00
0.000000000000000e+00 0.000000000000000e+00 0.000000000000000e+00
0.000000000000000e+00 0.000000000000000e+00 0.000000000000000e+00
0.000000000000000e+00 0.000000000000000e+00 0.000000000000000e+00
0.000000000000000e+00 0.000000000000000e+00 0.000000000000000e+00
0.000000000000000e+00 0.000000000000000e+00 0.000000000000000e+00
0.000000000000000e+00 0.000000000000000e+00 0.000000000000000e+00
0.000000000000000e+00 0.000000000000000e+00 0.000000000000000e+00
0.000000000000000e+00 0.000000000000000e+00 0.000000000000000e+00
0.000000000000000e+00 0.000000000000000e+00 0.000000000000000e+00
0.000000000000000e+00 0.000000000000000e+00 0.000000000000000e+00
0.000000000000000e+00 0.000000000000000e+00 0.000000000000000e+00
0.000000000000000e+00 0.000000000000000e+00 0.000000000000000e+00
0.000000000000000e+00 0.000000000000000e+00 0.000000000000000e+00
0.000000000000000e+00 0.000000000000000e+00 0.000000000000000e+00
0.000000000000000e+00 0.000000000000000e+00 0.000000000000000e+00
0.000000000000000e+00 0.000000000000000e+00 0.000000000000000e+00
0.000000000000000e+00 0.000000000000000e+00 0.000000000000000e+00
0.000000000000000e+00 0.000000000000000e+00 0.000000000000000e+00
0.000000000000000e+00 0.000000000000000e+00 0.000000000000000e+00
0.000000000000000e+00 0.000000000000000e+00 0.000000000000000e+00
0.000000000000000e+00 0.000000000000000e+00 0.000000000000000e+00
0.000000000000000e+00 0.000000000000000e+00 0.000000000000000e+00
0.000000000000000e+00 0.000000000000000e+00 0.000000000000000e+00
0.000000000000000e+00 0.000000000000000e+00 0.000000000000000e+00
0.000000000000000e+00 0.000000000000000e+00 0.000000000000000e+00
0.000000000000000e+00 0.000000000000000e+00 0.000000000000000e+00
0.000000000000000e+00 0.000000000000000e+00 0.000000000000000e+00
0.000000000000000e+00 0.000000000000000e+00 0.000000000000000e+00
0.000000000000000e+00 0.000000000000000e+00 0.000000000000000e+00
0.000000000000000e+00 0.000000000000000e+00 0.000000000000000e+00
0.000000000000000e+00 0.000000000000000e+00 0.000000000000000e+00
0.000000000000000e+00 0.000000000000000e+00 0.000000000000000e+00
0.000000000000000e+00 0.000000000000000e+00 0.000000000000000e+00
0.000000000000000e+00 0.000000000000000e+00 0.000000000000000e+00
0.000000000000000e+00 0.000000000000000e+00 0.000000000000000e+00
0.000000000000000e+00 0.000000000000000e+00 0.000000000000000e+00
0.000000000000000e+00 0.000000000000000e+00 0.000000000000000e+00
0.000000000000000e+00 0.000000000000000e+00 0.000000000000000e+00
0.000000000000000e+00 0.000000000000000e+00 0.000000000000000e+00
0.000000000000000e+00 0.000000000000000e+00 0.000000000000000e+00
0.000000000000000e+00 0.000000000000000e+00 0.000000000000000e+00
0.000000000000000e+00 0.000000000000000e+00 0.000000000000000e+00
0.000000000000000e+00 0.000000000000000e+00 0.000000000000000e+00
0.000000000000000e+00 0.000000000000000e+00 0.000000000000000e+00
0.000000000000000e+00 0.000000000000000e+00 0.000000000000000e+00
0.000000000000000e+00 0.000000000000000e+00 0.000000000000000e+00
0.000000000000000e+00 0.000000000000000e+00 0.000000000000000e+00
0.000000000000000e+00 0.000000000000000e+00 0.000000000000000e+00
0.000000000000000e+00 0.000000000000000e+00 0.000000000000000e+00
0.000000000000000e+00 0.000000000000000e+00 0.000000000000000e+00
0.000000000000000e+00 0.000000000000000e+00 0.000000000000000e+00
0.000000000000000e+00 0.000000000000000e+00 0.000000000000000e+00
0.000000000000000e+00 0.000000000000000e+00 0.000000000000000e+00
0.000000000000000e+00 0.000000000000000e+00 0.000000000000000e+00
0.000000000000000e+00 0.000000000000000e+00 0.000000000000000e+00
0.000000000000000e+00 0.000000000000000e+00 0.000000000000000e+00
0.000000000000000e+00 0.000000000000000e+00 0.000000000000000e+00
0.000000000000000e+00 0.000000000000000e+00 0.000000000000000e+00
0.000000000000000e+00 0.000000000000000e+00 0.000000000000000e+00
0.000000000000000e+00 0.000000000000000e+00 0.000000000000000e+00
0.000000000000000e+00 0.000000000000000e+00 0.000000000000000e+00
0.000000000000000e+00 0.000000000000000e+00 0.000000000000000e+00
0.000000000000000e+00 0.000000000000000e+00 0.000000000000000e+00
0.000000000000000e+00 0.000000000000000e+00 0.000000000000000e+00
0.000000000000000e+00 0.000000000000000e+00 0.000000000000000e+00
0.000000000000000e+00 0.000000000000000e+00 0.000000000000000e+00
0.000000000000000e+00 0.000000000000000e+00 0.000000000000000e+00
0.000000000000000e+00 0.000000000000000e+00 0.000000000000000e+00
0.000000000000000e+00 0.000000000000000e+00 0.000000000000000e+00
0.000000000000000e+00 0.000000000000000e+00 0.000000000000000e+00
0.000000000000000e+00 0.000000000000000e+00 0.000000000000000e+00
0.000000000000000e+00 0.000000000000000e+00 0.000000000000000e+00
0.000000000000000e+00 0.000000000000000e+00 0.000000000000000e+00
0.000000000000000e+00 0.000000000000000e+00 0.000000000000000e+00
0.000000000000000e+00 0.000000000000000e+00 0.000000000000000e+00
0.000000000000000e+00 0.000000000000000e+00 0.000000000000000e+00
0.000000000000000e+00 0.000000000000000e+00 0.000000000000000e+00
0.000000000000000e+00 0.000000000000000e+00 0.000000000000000e+00
0.000000000000000e+00 0.000000000000000e+00 0.000000000000000e+00
0.000000000000000e+00 0.000000000000000e+00 0.000000000000000e+00
0.000000000000000e+00 0.000000000000000e+00 0.000000000000000e+00
0.000000000000000e+00 0.000000000000000e+00 0.000000000000000e+00
0.000000000000000e+00 0.000000000000000e+00 0.000000000000000e+00
0.000000000000000e+00 0.000000000000000e+00 0.000000000000000e+00
0.000000000000000e+00 0.000000000000000e+00 0.000000000000000e+00
0.000000000000000e+00 0.000000000000000e+00 0.000000000000000e+00
0.000000000000000e+00 0.000000000000000e+00 0.000000000000000e+00
0.000000000000000e+00 0.000000000000000e+00 0.000000000000000e+00
0.000000000000000e+00 0.000000000000000e+00 0.000000000000000e+00
0.000000000000000e+00 0.000000000000000e+00 0.000000000000000e+00
0.000000000000000e+00 0.000000000000000e+00 0.000000000000000e+00
0.000000000000000e+00 0.000000000000000e+00 0.000000000000000e+00
0.000000000000000e+00 0.000000000000000e+00 0.000000000000000e+00
0.000000000000000e+00 0.000000000000000e+00 0.000000000000000e+00
0.000000000000000e+00 0.000000000000000e+00 0.000000000000000e+00
0.000000000000000e+00 0.000000000000000e+00 0.000000000000000e+00
0.000000000000000e+00 0.000000000000000e+00 0.000000000000000e+00
0.000000000000000e+00 0.000000000000000e+00 0.000000000000000e+00
0.000000000000000e+00 0.000000000000000e+00 0.000000000000000e+00
0.000000000000000e+00 0.000000000000000e+00 0.000000000000000e+00
0.000000000000000e+00 0.000000000000000e+00 0.000000000000000e+00
0.000000000000000e+00 0.000000000000000e+00 0.000000000000000e+00
0.000000000000000e+00 0.000000000000000e+00 0.000000000000000e+00
0.000000000000000e+00 0.000000000000000e+00 0.000000000000000e+00
0.000000000000000e+00 0.000000000000000e+00 0.000000000000000e+00
0.000000000000000e+00 0.000000000000000e+00 0.000000000000000e+00
0.000000000000000e+00 0.000000000000000e+00 0.000000000000000e+00
0.000000000000000e+00 0.000000000000000e+00 0.000000000000000e+00
0.000000000000000e+00 0.000000000000000e+00 0.000000000000000e+00
0.000000000000000e+00 0.000000000000000e+00 0.000000000000000e+00
0.000000000000000e+00 0.000000000000000e+00 0.000000000000000e+00
0.000000000000000e+00 0.000000000000000e+00 0.000000000000000e+00
0.000000000000000e+00 0.000000000000000e+00 0.000000000000000e+00
0.000000000000000e+00 0.000000000000000e+00 0.000000000000000e+00
0.000000000000000e+00 0.000000000000000e+00 0.000000000000000e+00
0.000000000000000e+00 0.000000000000000e+00 0.000000000000000e+00
0.000000000000000e+00 0.000000000000000e+00 0.000000000000000e+00
0.000000000000000e+00 0.000000000000000e+00 0.000000000000000e+00
0.000000000000000e+00 0.000000000000000e+00 0.000000000000000e+00
0.000000000000000e+00 0.000000000000000e+00 0.000000000000000e+00
0.000000000000000e+00 0.000000000000000e+00 0.000000000000000e+00
0.000000000000000e+00 0.000000000000000e+00 0.000000000000000e+00
0.000000000000000e+00 0.000000000000000e+00 0.000000000000000e+00
0.000000000000000e+00 0.000000000000000e+00 0.000000000000000e+00
0.000000000000000e+00 0.000000000000000e+00 0.000000000000000e+00
0.000000000000000e+00 0.000000000000000e+00 0.000000000000000e+00
0.000000000000000e+00 0.000000000000000e+00 0.000000000000000e+00
0.000000000000000e+00 0.000000000000000e+00 0.000000000000000e+00
0.000000000000000e+00 0.000000000000000e+00 0.000000000000000e+00
0.000000000000000e+00 0.000000000000000e+00 0.000000000000000e+00
0.000000000000000e+00 0.000000000000000e+00 0.000000000000000e+00
0.000000000000000e+00 0.000000000000000e+00 0.000000000000000e+00
0.000000000000000e+00 0.000000000000000e+00 0.000000000000000e+00
0.000000000000000e+00 0.000000000000000e+00 0.000000000000000e+00
0.000000000000000e+00 0.000000000000000e+00 0.000000000000000e+00
0.000000000000000e+00 0.000000000000000e+00 0.000000000000000e+00
0.000000000000000e+00 0.000000000000000e+00 0.000000000000000e+00
0.000000000000000e+00 0.000000000000000e+00 0.000000000000000e+00
0.000000000000000e+00 0.000000000000000e+00 0.000000000000000e+00
0.000000000000000e+00 0.000000000000000e+00 0.000000000000000e+00
0.000000000000000e+00 0.000000000000000e+00 0.000000000000000e+00
0.000000000000000e+00 0.000000000000000e+00 0.000000000000000e+00
0.000000000000000e+00 0.000000000000000e+00 0.000000000000000e+00
0.000000000000000e+00 0.000000000000000e+00 0.000000000000000e+00
0.000000000000000e+00 0.000000000000000e+00 0.000000000000000e+00
0.000000000000000e+00 0.000000000000000e+00 0.000000000000000e+00
0.000000000000000e+00 0.000000000000000e+00 0.000000000000000e+00
0.000000000000000e+00 0.000000000000000e+00 0.000000000000000e+00
0.000000000000000e+00 0.000000000000000e+00 0.000000000000000e+00
0.000000000000000e+00 0.000000000000000e+00 0.000000000000000e+00
0.000000000000000e+00 0.000000000000000e+00 0.000000000000000e+00
0.000000000000000e+00 0.000000000000000e+00 0.000000000000000e+00
0.000000000000000e+00 0.000000000000000e+00 0.000000000000000e+00
0.000000000000000e+00 0.000000000000000e+00 0.000000000000000e+00
0.000000000000000e+00 0.000000000000000e+00 0.000000000000000e+00
0.000000000000000e+00 0.000000000000000e+00 0.000000000000000e+00
0.000000000000000e+00 0.000000000000000e+00 0.000000000000000e+00
0.000000000000000e+00 0.000000000000000e+00 0.000000000000000e+00
0.000000000000000e+00 0.000000000000000e+00 0.000000000000000e+00
0.000000000000000e+00 0.000000000000000e+00 0.000000000000000e+00
0.000000000000000e+00 0.000000000000000e+00 0.000000000000000e+00
0.000000000000000e+00 0.000000000000000e+00 0.000000000000000e+00
0.000000000000000e+00 0.000000000000000e+00 0.000000000000000e+00
0.000000000000000e+00 0.000000000000000e+00 0.000000000000000e+00
0.000000000000000e+00 0.000000000000000e+00 0.000000000000000e+00
0.000000000000000e+00 0.000000000000000e+00 0.000000000000000e+00
0.000000000000000e+00 0.000000000000000e+00 0.000000000000000e+00
0.000000000000000e+00 0.000000000000000e+00 0.000000000000000e+00
0.000000000000000e+00 0.000000000000000e+00 0.000000000000000e+00
0.000000000000000e+00 0.000000000000000e+00 0.000000000000000e+00
0.000000000000000e+00 0.000000000000000e+00 0.000000000000000e+00
0.000000000000000e+00 0.000000000000000e+00 0.000000000000000e+00
0.000000000000000e+00 0.000000000000000e+00 0.000000000000000e+00
0.000000000000000e+00 0.000000000000000e+00 0.000000000000000e+00
0.000000000000000e+00 0.000000000000000e+00 0.000000000000000e+00
0.000000000000000e+00 0.000000000000000e+00 0.000000000000000e+00
0.000000000000000e+00 0.000000000000000e+00 0.000000000000000e+00
0.000000000000000e+00 0.000000000000000e+00 0.000000000000000e+00
0.000000000000000e+00 0.000000000000000e+00 0.000000000000000e+00
0.000000000000000e+00 0.000000000000000e+00 0.000000000000000e+00
0.000000000000000e+00 0.000000000000000e+00 0.000000000000000e+00
0.000000000000000e+00 0.000000000000000e+00 0.000000000000000e+00
0.000000000000000e+00 0.000000000000000e+00 0.000000000000000e+00
0.000000000000000e+00 0.000000000000000e+00 0.000000000000000e+00
0.000000000000000e+00 0.000000000000000e+00 0.000000000000000e+00
0.000000000000000e+00 0.000000000000000e+00 0.000000000000000e+00
0.000000000000000e+00 0.000000000000000e+00 0.000000000000000e+00
0.000000000000000e+00 0.000000000000000e+00 0.000000000000000e+00
0.000000000000000e+00 0.000000000000000e+00 0.000000000000000e+00
0.000000000000000e+00 0.000000000000000e+00 0.000000000000000e+00
0.000000000000000e+00 0.000000000000000e+00 0.000000000000000e+00
0.000000000000000e+00 0.000000000000000e+00 0.000000000000000e+00
0.000000000000000e+00 0.000000000000000e+00 0.000000000000000e+00
0.000000000000000e+00 0.000000000000000e+00 0.000000000000000e+00
0.000000000000000e+00 0.000000000000000e+00 0.000000000000000e+00
0.000000000000000e+00 0.000000000000000e+00 0.000000000000000e+00
0.000000000000000e+00 0.000000000000000e+00 0.000000000000000e+00
0.000000000000000e+00 0.000000000000000e+00 0.000000000000000e+00
0.000000000000000e+00 0.000000000000000e+00 0.000000000000000e+00
0.000000000000000e+00 0.000000000000000e+00 0.000000000000000e+00
0.000000000000000e+00 0.000000000000000e+00 0.000000000000000e+00
0.000000000000000e+00 0.000000000000000e+00 0.000000000000000e+00
0.000000000000000e+00 0.000000000000000e+00 0.000000000000000e+00
0.000000000000000e+00 0.000000000000000e+00 0.000000000000000e+00
0.000000000000000e+00 0.000000000000000e+00 0.000000000000000e+00
0.000000000000000e+00 0.000000000000000e+00 0.000000000000000e+00
0.000000000000000e+00 0.000000000000000e+00 0.000000000000000e+00
0.000000000000000e+00 0.000000000000000e+00 0.000000000000000e+00
0.000000000000000e+00 0.000000000000000e+00 0.000000000000000e+00
0.000000000000000e+00 0.000000000000000e+00 0.000000000000000e+00
0.000000000000000e+00 0.000000000000000e+00 0.000000000000000e+00
0.000000000000000e+00 0.000000000000000e+00 0.000000000000000e+00
0.000000000000000e+00 0.000000000000000e+00 0.000000000000000e+00
0.000000000000000e+00 0.000000000000000e+00 0.000000000000000e+00
0.000000000000000e+00 0.000000000000000e+00 0.000000000000000e+00
0.000000000000000e+00 0.000000000000000e+00 0.000000000000000e+00
0.000000000000000e+00 0.000000000000000e+00 0.000000000000000e+00
0.000000000000000e+00 0.000000000000000e+00 0.000000000000000e+00
0.000000000000000e+00 0.000000000000000e+00 0.000000000000000e+00
0.000000000000000e+00 0.000000000000000e+00 0.000000000000000e+00
0.000000000000000e+00 0.000000000000000e+00 0.000000000000000e+00
0.000000000000000e+00 0.000000000000000e+00 0.000000000000000e+00
0.000000000000000e+00 0.000000000000000e+00 0.000000000000000e+00
0.000000000000000e+00 0.000000000000000e+00 0.000000000000000e+00
0.000000000000000e+00 0.000000000000000e+00 0.000000000000000e+00
0.000000000000000e+00 0.000000000000000e+00 0.000000000000000e+00
0.000000000000000e+00 0.000000000000000e+00 0.000000000000000e+00
0.000000000000000e+00 0.000000000000000e+00 0.000000000000000e+00
0.000000000000000e+00 0.000000000000000e+00 0.000000000000000e+00
0.000000000000000e+00 0.000000000000000e+00 0.000000000000000e+00
0.000000000000000e+00 0.000000000000000e+00 0.000000000000000e+00
0.000000000000000e+00 0.000000000000000e+00 0.000000000000000e+00
0.000000000000000e+00 0.000000000000000e+00 0.000000000000000e+00
0.000000000000000e+00 0.000000000000000e+00 0.000000000000000e+00
0.000000000000000e+00 0.000000000000000e+00 0.000000000000000e+00
0.000000000000000e+00 0.000000000000000e+00 0.000000000000000e+00
0.000000000000000e+00 0.000000000000000e+00 0.000000000000000e+00
0.000000000000000e+00 0.000000000000000e+00 0.000000000000000e+00
0.000000000000000e+00 0.000000000000000e+00 0.000000000000000e+00
0.000000000000000e+00 0.000000000000000e+00 0.000000000000000e+00
0.000000000000000e+00 0.000000000000000e+00 0.000000000000000e+00
0.000000000000000e+00 0.000000000000000e+00 0.000000000000000e+00
0.000000000000000e+00 0.000000000000000e+00 0.000000000000000e+00
0.000000000000000e+00 0.000000000000000e+00 0.000000000000000e+00
0.000000000000000e+00 0.000000000000000e+00 0.000000000000000e+00
0.000000000000000e+00 0.000000000000000e+00 0.000000000000000e+00
0.000000000000000e+00 0.000000000000000e+00 0.000000000000000e+00
0.000000000000000e+00 0.000000000000000e+00 0.000000000000000e+00
0.000000000000000e+00 0.000000000000000e+00 0.000000000000000e+00
0.000000000000000e+00 0.000000000000000e+00 0.000000000000000e+00
0.000000000000000e+00 0.000000000000000e+00 0.000000000000000e+00
0.000000000000000e+00 0.000000000000000e+00 0.000000000000000e+00
0.000000000000000e+00 0.000000000000000e+00 0.000000000000000e+00
0.000000000000000e+00 0.000000000000000e+00 0.000000000000000e+00
0.000000000000000e+00 0.000000000000000e+00 0.000000000000000e+00
0.000000000000000e+00 0.000000000000000e+00 0.000000000000000e+00
0.000000000000000e+00 0.000000000000000e+00 0.000000000000000e+00
0.000000000000000e+00 0.000000000000000e+00 0.000000000000000e+00
0.000000000000000e+00 0.000000000000000e+00 0.000000000000000e+00
0.000000000000000e+00 0.000000000000000e+00 0.000000000000000e+00
0.000000000000000e+00 0.000000000000000e+00 0.000000000000000e+00
0.000000000000000e+00 0.000000000000000e+00 0.000000000000000e+00
0.000000000000000e+00 0.000000000000000e+00 0.000000000000000e+00
0.000000000000000e+00 0.000000000000000e+00 0.000000000000000e+00
0.000000000000000e+00 0.000000000000000e+00 0.000000000000000e+00
0.000000000000000e+00 0.000000000000000e+00 0.000000000000000e+00
0.000000000000000e+00 0.000000000000000e+00 0.000000000000000e+00
0.000000000000000e+00 0.000000000000000e+00 0.000000000000000e+00
0.000000000000000e+00 0.000000000000000e+00 0.000000000000000e+00
0.000000000000000e+00 0.000000000000000e+00 0.000000000000000e+00
0.000000000000000e+00 0.000000000000000e+00 0.000000000000000e+00
0.000000000000000e+00 0.000000000000000e+00 0.000000000000000e+00
0.000000000000000e+00 0.000000000000000e+00 0.000000000000000e+00
0.000000000000000e+00 0.000000000000000e+00 0.000000000000000e+00
0.000000000000000e+00 0.000000000000000e+00 0.000000000000000e+00
0.000000000000000e+00 0.000000000000000e+00 0.000000000000000e+00
0.000000000000000e+00 0.000000000000000e+00 0.000000000000000e+00
0.000000000000000e+00 0.000000000000000e+00 0.000000000000000e+00
0.000000000000000e+00 0.000000000000000e+00 0.000000000000000e+00
0.000000000000000e+00 0.000000000000000e+00 0.000000000000000e+00
0.000000000000000e+00 0.000000000000000e+00 0.000000000000000e+00
0.000000000000000e+00 0.000000000000000e+00 0.000000000000000e+00
0.000000000000000e+00 0.000000000000000e+00 0.000000000000000e+00
0.000000000000000e+00 0.000000000000000e+00 0.000000000000000e+00
0.000000000000000e+00 0.000000000000000e+00 0.000000000000000e+00
0.000000000000000e+00 0.000000000000000e+00 0.000000000000000e+00
0.000000000000000e+00 0.000000000000000e+00 0.000000000000000e+00
0.000000000000000e+00 0.000000000000000e+00 0.000000000000000e+00
0.000000000000000e+00 0.000000000000000e+00 0.000000000000000e+00
0.000000000000000e+00 0.000000000000000e+00 0.000000000000000e+00
0.000000000000000e+00 0.000000000000000e+00 0.000000000000000e+00
0.000000000000000e+00 0.000000000000000e+00 0.000000000000000e+00
0.000000000000000e+00 0.000000000000000e+00 0.000000000000000e+00
0.000000000000000e+00 0.000000000000000e+00 0.000000000000000e+00
0.000000000000000e+00 0.000000000000000e+00 0.000000000000000e+00
0.000000000000000e+00 0.000000000000000e+00 0.000000000000000e+00
0.000000000000000e+00 0.000000000000000e+00 0.000000000000000e+00
0.000000000000000e+00 0.000000000000000e+00 0.000000000000000e+00
0.000000000000000e+00 0.000000000000000e+00 0.000000000000000e+00
0.000000000000000e+00 0.000000000000000e+00 0.000000000000000e+00
0.000000000000000e+00 0.000000000000000e+00 0.000000000000000e+00
0.000000000000000e+00 0.000000000000000e+00 0.000000000000000e+00
0.000000000000000e+00 0.000000000000000e+00 0.000000000000000e+00
0.000000000000000e+00 0.000000000000000e+00 0.000000000000000e+00
0.000000000000000e+00 0.000000000000000e+00 0.000000000000000e+00
0.000000000000000e+00 0.000000000000000e+00 0.000000000000000e+00
0.000000000000000e+00 0.000000000000000e+00 0.000000000000000e+00
0.000000000000000e+00 0.000000000000000e+00 0.000000000000000e+00
0.000000000000000e+00 0.000000000000000e+00 0.000000000000000e+00
0.000000000000000e+00 0.000000000000000e+00 0.000000000000000e+00
0.000000000000000e+00 0.000000000000000e+00 0.000000000000000e+00
0.000000000000000e+00 0.000000000000000e+00 0.000000000000000e+00
0.000000000000000e+00 0.000000000000000e+00 0.000000000000000e+00
0.000000000000000e+00 0.000000000000000e+00 0.000000000000000e+00
0.000000000000000e+00 0.000000000000000e+00 0.000000000000000e+00
0.000000000000000e+00 0.000000000000000e+00 0.000000000000000e+00
0.000000000000000e+00 0.000000000000000e+00 0.000000000000000e+00
0.000000000000000e+00 0.000000000000000e+00 0.000000000000000e+00
0.000000000000000e+00 0.000000000000000e+00 0.000000000000000e+00
0.000000000000000e+00 0.000000000000000e+00 0.000000000000000e+00
0.000000000000000e+00 0.000000000000000e+00 0.000000000000000e+00
0.000000000000000e+00 0.000000000000000e+00 0.000000000000000e+00
0.000000000000000e+00 0.000000000000000e+00 0.000000000000000e+00
0.000000000000000e+00 0.000000000000000e+00 0.000000000000000e+00
0.000000000000000e+00 0.000000000000000e+00 0.000000000000000e+00
0.000000000000000e+00 0.000000000000000e+00 0.000000000000000e+00
0.000000000000000e+00 0.000000000000000e+00 0.000000000000000e+00
0.000000000000000e+00 0.000000000000000e+00 0.000000000000000e+00
0.000000000000000e+00 0.000000000000000e+00 0.000000000000000e+00
0.000000000000000e+00 0.000000000000000e+00 0.000000000000000e+00
0.000000000000000e+00 0.000000000000000e+00 0.000000000000000e+00
0.000000000000000e+00 0.000000000000000e+00 0.000000000000000e+00
0.000000000000000e+00 0.000000000000000e+00 0.000000000000000e+00
0.000000000000000e+00 0.000000000000000e+00 0.000000000000000e+00
0.000000000000000e+00 0.000000000000000e+00 0.000000000000000e+00
0.000000000000000e+00 0.000000000000000e+00 0.000000000000000e+00
0.000000000000000e+00 0.000000000000000e+00 0.000000000000000e+00
0.000000000000000e+00 0.000000000000000e+00 0.000000000000000e+00
0.000000000000000e+00 0.000000000000000e+00 0.000000000000000e+00
0.000000000000000e+00 0.000000000000000e+00 0.000000000000000e+00
0.000000000000000e+00 0.000000000000000e+00 0.000000000000000e+00
0.000000000000000e+00 0.000000000000000e+00 0.000000000000000e+00
0.000000000000000e+00 0.000000000000000e+00 0.000000000000000e+00
0.000000000000000e+00 0.000000000000000e+00 0.000000000000000e+00
0.000000000000000e+00 0.000000000000000e+00 0.000000000000000e+00
0.000000000000000e+00 0.000000000000000e+00 0.000000000000000e+00
0.000000000000000e+00 0.000000000000000e+00 0.000000000000000e+00
0.000000000000000e+00 0.000000000000000e+00 0.000000000000000e+00
0.000000000000000e+00 0.000000000000000e+00 0.000000000000000e+00
0.000000000000000e+00 0.000000000000000e+00 0.000000000000000e+00
0.000000000000000e+00 0.000000000000000e+00 0.000000000000000e+00
0.000000000000000e+00 0.000000000000000e+00 0.000000000000000e+00
0.000000000000000e+00 0.000000000000000e+00 0.000000000000000e+00
0.000000000000000e+00 0.000000000000000e+00 0.000000000000000e+00
0.000000000000000e+00 0.000000000000000e+00 0.000000000000000e+00
0.000000000000000e+00 0.000000000000000e+00 0.000000000000000e+00
0.000000000000000e+00 0.000000000000000e+00 0.000000000000000e+00
0.000000000000000e+00 0.000000000000000e+00 0.000000000000000e+00
0.000000000000000e+00 0.000000000000000e+00 0.000000000000000e+00
0.000000000000000e+00 0.000000000000000e+00 0.000000000000000e+00
0.000000000000000e+00 0.000000000000000e+00 0.000000000000000e+00
0.000000000000000e+00 0.000000000000000e+00 0.000000000000000e+00
0.000000000000000e+00 0.000000000000000e+00 0.000000000000000e+00
0.000000000000000e+00 0.000000000000000e+00 0.000000000000000e+00
0.000000000000000e+00 0.000000000000000e+00 0.000000000000000e+00
0.000000000000000e+00 0.000000000000000e+00 0.000000000000000e+00
0.000000000000000e+00 0.000000000000000e+00 0.000000000000000e+00
0.000000000000000e+00 0.000000000000000e+00 0.000000000000000e+00
0.000000000000000e+00 0.000000000000000e+00 0.000000000000000e+00
0.000000000000000e+00 0.000000000000000e+00 0.000000000000000e+00
0.000000000000000e+00 0.000000000000000e+00 0.000000000000000e+00
0.000000000000000e+00 0.000000000000000e+00 0.000000000000000e+00
0.000000000000000e+00 0.000000000000000e+00 0.000000000000000e+00
0.000000000000000e+00 0.000000000000000e+00 0.000000000000000e+00
0.000000000000000e+00 0.000000000000000e+00 0.000000000000000e+00
0.000000000000000e+00 0.000000000000000e+00 0.000000000000000e+00
0.000000000000000e+00 0.000000000000000e+00 0.000000000000000e+00
0.000000000000000e+00 0.000000000000000e+00 0.000000000000000e+00
0.000000000000000e+00 0.000000000000000e+00 0.000000000000000e+00
0.000000000000000e+00 0.000000000000000e+00 0.000000000000000e+00
0.000000000000000e+00 0.000000000000000e+00 0.000000000000000e+00
0.000000000000000e+00 0.000000000000000e+00 0.000000000000000e+00
0.000000000000000e+00 0.000000000000000e+00 0.000000000000000e+00
0.000000000000000e+00 0.000000000000000e+00 0.000000000000000e+00
0.000000000000000e+00 0.000000000000000e+00 0.000000000000000e+00
0.000000000000000e+00 0.000000000000000e+00 0.000000000000000e+00
0.000000000000000e+00 0.000000000000000e+00 0.000000000000000e+00
0.000000000000000e+00 0.000000000000000e+00 0.000000000000000e+00
0.000000000000000e+00 0.000000000000000e+00 0.000000000000000e+00
0.000000000000000e+00 0.000000000000000e+00 0.000000000000000e+00
0.000000000000000e+00 0.000000000000000e+00 0.000000000000000e+00
0.000000000000000e+00 0.000000000000000e+00 0.000000000000000e+00
0.000000000000000e+00 0.000000000000000e+00 0.000000000000000e+00
0.000000000000000e+00 0.000000000000000e+00 0.000000000000000e+00
0.000000000000000e+00 0.000000000000000e+00 0.000000000000000e+00
0.000000000000000e+00 0.000000000000000e+00 0.000000000000000e+00
0.000000000000000e+00 0.000000000000000e+00 0.000000000000000e+00
0.000000000000000e+00 0.000000000000000e+00 0.000000000000000e+00
0.000000000000000e+00 0.000000000000000e+00 0.000000000000000e+00
0.000000000000000e+00 0.000000000000000e+00 0.000000000000000e+00
0.000000000000000e+00 0.000000000000000e+00 0.000000000000000e+00
0.000000000000000e+00 0.000000000000000e+00 0.000000000000000e+00
0.000000000000000e+00 0.000000000000000e+00 0.000000000000000e+00
0.000000000000000e+00 0.000000000000000e+00 0.000000000000000e+00
0.000000000000000e+00 0.000000000000000e+00 0.000000000000000e+00
0.000000000000000e+00 0.000000000000000e+00 0.000000000000000e+00
0.000000000000000e+00 0.000000000000000e+00 0.000000000000000e+00
0.000000000000000e+00 0.000000000000000e+00 0.000000000000000e+00
0.000000000000000e+00 0.000000000000000e+00 0.000000000000000e+00
0.000000000000000e+00 0.000000000000000e+00 0.000000000000000e+00
0.000000000000000e+00 0.000000000000000e+00 0.000000000000000e+00
0.000000000000000e+00 0.000000000000000e+00 0.000000000000000e+00
0.000000000000000e+00 0.000000000000000e+00 0.000000000000000e+00
0.000000000000000e+00 0.000000000000000e+00 0.000000000000000e+00
0.000000000000000e+00 0.000000000000000e+00 0.000000000000000e+00
0.000000000000000e+00 0.000000000000000e+00 0.000000000000000e+00
0.000000000000000e+00 0.000000000000000e+00 0.000000000000000e+00
0.000000000000000e+00 0.000000000000000e+00 0.000000000000000e+00
0.000000000000000e+00 0.000000000000000e+00 0.000000000000000e+00
0.000000000000000e+00 0.000000000000000e+00 0.000000000000000e+00
0.000000000000000e+00 0.000000000000000e+00 0.000000000000000e+00
0.000000000000000e+00 0.000000000000000e+00 0.000000000000000e+00
0.000000000000000e+00 0.000000000000000e+00 0.000000000000000e+00
0.000000000000000e+00 0.000000000000000e+00 0.000000000000000e+00
0.000000000000000e+00 0.000000000000000e+00 0.000000000000000e+00
0.000000000000000e+00 0.000000000000000e+00 0.000000000000000e+00
0.000000000000000e+00 0.000000000000000e+00 0.000000000000000e+00
0.000000000000000e+00 0.000000000000000e+00 0.000000000000000e+00
0.000000000000000e+00 0.000000000000000e+00 0.000000000000000e+00
0.000000000000000e+00 0.000000000000000e+00 0.000000000000000e+00
0.000000000000000e+00 0.000000000000000e+00 0.000000000000000e+00
0.000000000000000e+00 0.000000000000000e+00 0.000000000000000e+00
0.000000000000000e+00 0.000000000000000e+00 0.000000000000000e+00
0.000000000000000e+00 0.000000000000000e+00 0.000000000000000e+00
0.000000000000000e+00 0.000000000000000e+00 0.000000000000000e+00
0.000000000000000e+00 0.000000000000000e+00 0.000000000000000e+00
0.000000000000000e+00 0.000000000000000e+00 0.000000000000000e+00
0.000000000000000e+00 0.000000000000000e+00 0.000000000000000e+00
0.000000000000000e+00 0.000000000000000e+00 0.000000000000000e+00
0.000000000000000e+00 0.000000000000000e+00 0.000000000000000e+00
0.000000000000000e+00 0.000000000000000e+00 0.000000000000000e+00
0.000000000000000e+00 0.000000000000000e+00 0.000000000000000e+00
0.000000000000000e+00 0.000000000000000e+00 0.000000000000000e+00
0.000000000000000e+00 0.000000000000000e+00 0.000000000000000e+00
0.000000000000000e+00 0.000000000000000e+00 0.000000000000000e+00
0.000000000000000e+00 0.000000000000000e+00 0.000000000000000e+00
0.000000000000000e+00 0.000000000000000e+00 0.000000000000000e+00
0.000000000000000e+00 0.000000000000000e+00 0.000000000000000e+00
0.000000000000000e+00 0.000000000000000e+00 0.000000000000000e+00
0.000000000000000e+00 0.000000000000000e+00 0.000000000000000e+00
0.000000000000000e+00 0.000000000000000e+00 0.000000000000000e+00
0.000000000000000e+00 0.000000000000000e+00 0.000000000000000e+00
0.000000000000000e+00 0.000000000000000e+00 0.000000000000000e+00
0.000000000000000e+00 0.000000000000000e+00 0.000000000000000e+00
0.000000000000000e+00 0.000000000000000e+00 0.000000000000000e+00
0.000000000000000e+00 0.000000000000000e+00 0.000000000000000e+00
0.000000000000000e+00 0.000000000000000e+00 0.000000000000000e+00
0.000000000000000e+00 0.000000000000000e+00 0.000000000000000e+00
0.000000000000000e+00 0.000000000000000e+00 0.000000000000000e+00
0.000000000000000e+00 0.000000000000000e+00 0.000000000000000e+00
0.000000000000000e+00 0.000000000000000e+00 0.000000000000000e+00
0.000000000000000e+00 0.000000000000000e+00 0.000000000000000e+00
0.000000000000000e+00 0.000000000000000e+00 0.000000000000000e+00
0.000000000000000e+00 0.000000000000000e+00 0.000000000000000e+00
0.000000000000000e+00 0.000000000000000e+00 0.000000000000000e+00
0.000000000000000e+00 0.000000000000000e+00 0.000000000000000e+00
0.000000000000000e+00 0.000000000000000e+00 0.000000000000000e+00
0.000000000000000e+00 0.000000000000000e+00 0.000000000000000e+00
0.000000000000000e+00 0.000000000000000e+00 0.000000000000000e+00
0.000000000000000e+00 0.000000000000000e+00 0.000000000000000e+00
0.000000000000000e+00 0.000000000000000e+00 0.000000000000000e+00
0.000000000000000e+00 0.000000000000000e+00 0.000000000000000e+00
0.000000000000000e+00 0.000000000000000e+00 0.000000000000000e+00
0.000000000000000e+00 0.000000000000000e+00 0.000000000000000e+00
0.000000000000000e+00 0.000000000000000e+00 0.000000000000000e+00
0.000000000000000e+00 0.000000000000000e+00 0.000000000000000e+00
0.000000000000000e+00 0.000000000000000e+00 0.000000000000000e+00
0.000000000000000e+00 0.000000000000000e+00 0.000000000000000e+00
0.000000000000000e+00 0.000000000000000e+00 0.000000000000000e+00
0.000000000000000e+00 0.000000000000000e+00 0.000000000000000e+00
0.000000000000000e+00 0.000000000000000e+00 0.000000000000000e+00
0.000000000000000e+00 0.000000000000000e+00 0.000000000000000e+00
0.000000000000000e+00 0.000000000000000e+00 0.000000000000000e+00
0.000000000000000e+00 0.000000000000000e+00 0.000000000000000e+00
0.000000000000000e+00 0.000000000000000e+00 0.000000000000000e+00
0.000000000000000e+00 0.000000000000000e+00 0.000000000000000e+00
0.000000000000000e+00 0.000000000000000e+00 0.000000000000000e+00
0.000000000000000e+00 0.000000000000000e+00 0.000000000000000e+00
0.000000000000000e+00 0.000000000000000e+00 0.000000000000000e+00
0.000000000000000e+00 0.000000000000000e+00 0.000000000000000e+00
0.000000000000000e+00 0.000000000000000e+00 0.000000000000000e+00
0.000000000000000e+00 0.000000000000000e+00 0.000000000000000e+00
0.000000000000000e+00 0.000000000000000e+00 0.000000000000000e+00
0.000000000000000e+00 0.000000000000000e+00 0.000000000000000e+00
0.000000000000000e+00 0.000000000000000e+00 0.000000000000000e+00
0.000000000000000e+00 0.000000000000000e+00 0.000000000000000e+00
0.000000000000000e+00 0.000000000000000e+00 0.000000000000000e+00
0.000000000000000e+00 0.000000000000000e+00 0.000000000000000e+00
0.000000000000000e+00 0.000000000000000e+00 0.000000000000000e+00
0.000000000000000e+00 0.000000000000000e+00 0.000000000000000e+00
0.000000000000000e+00 0.000000000000000e+00 0.000000000000000e+00
0.000000000000000e+00 0.000000000000000e+00 0.000000000000000e+00
0.000000000000000e+00 0.000000000000000e+00 0.000000000000000e+00
0.000000000000000e+00 0.000000000000000e+00 0.000000000000000e+00
0.000000000000000e+00 0.000000000000000e+00 0.000000000000000e+00
0.000000000000000e+00 0.000000000000000e+00 0.000000000000000e+00
0.000000000000000e+00 0.000000000000000e+00 0.000000000000000e+00
0.000000000000000e+00 0.000000000000000e+00 0.000000000000000e+00
0.000000000000000e+00 0.000000000000000e+00 0.000000000000000e+00
0.000000000000000e+00 0.000000000000000e+00 0.000000000000000e+00
0.000000000000000e+00 0.000000000000000e+00 0.000000000000000e+00
0.000000000000000e+00 0.000000000000000e+00 0.000000000000000e+00
0.000000000000000e+00 0.000000000000000e+00 0.000000000000000e+00
0.000000000000000e+00 0.000000000000000e+00 0.000000000000000e+00
0.000000000000000e+00 0.000000000000000e+00 0.000000000000000e+00
0.000000000000000e+00 0.000000000000000e+00 0.000000000000000e+00
0.000000000000000e+00 0.000000000000000e+00 0.000000000000000e+00
0.000000000000000e+00 0.000000000000000e+00 0.000000000000000e+00
0.000000000000000e+00 0.000000000000000e+00 0.000000000000000e+00
0.000000000000000e+00 0.000000000000000e+00 0.000000000000000e+00
0.000000000000000e+00 0.000000000000000e+00 0.000000000000000e+00
0.000000000000000e+00 0.000000000000000e+00 0.000000000000000e+00
0.000000000000000e+00 0.000000000000000e+00 0.000000000000000e+00
0.000000000000000e+00 0.000000000000000e+00 0.000000000000000e+00
0.000000000000000e+00 0.000000000000000e+00 0.000000000000000e+00
0.000000000000000e+00 0.000000000000000e+00 0.000000000000000e+00
0.000000000000000e+00 0.000000000000000e+00 0.000000000000000e+00
0.000000000000000e+00 0.000000000000000e+00 0.000000000000000e+00
0.000000000000000e+00 0.000000000000000e+00 0.000000000000000e+00
0.000000000000000e+00 0.000000000000000e+00 0.000000000000000e+00
0.000000000000000e+00 0.000000000000000e+00 0.000000000000000e+00
0.000000000000000e+00 0.000000000000000e+00 0.000000000000000e+00
0.000000000000000e+00 0.000000000000000e+00 0.000000000000000e+00
0.000000000000000e+00 0.000000000000000e+00 0.000000000000000e+00
0.000000000000000e+00 0.000000000000000e+00 0.000000000000000e+00
0.000000000000000e+00 0.000000000000000e+00 0.000000000000000e+00
0.000000000000000e+00 0.000000000000000e+00 0.000000000000000e+00
0.000000000000000e+00 0.000000000000000e+00 0.000000000000000e+00
0.000000000000000e+00 0.000000000000000e+00 0.000000000000000e+00
0.000000000000000e+00 0.000000000000000e+00 0.000000000000000e+00
0.000000000000000e+00 0.000000000000000e+00 0.000000000000000e+00
0.000000000000000e+00 0.000000000000000e+00 0.000000000000000e+00
0.000000000000000e+00 0.000000000000000e+00 0.000000000000000e+00
0.000000000000000e+00 0.000000000000000e+00 0.000000000000000e+00
0.000000000000000e+00 0.000000000000000e+00 0.000000000000000e+00
0.000000000000000e+00 0.000000000000000e+00 0.000000000000000e+00
0.000000000000000e+00 0.000000000000000e+00 0.000000000000000e+00
0.000000000000000e+00 0.000000000000000e+00 0.000000000000000e+00
0.000000000000000e+00 0.000000000000000e+00 0.000000000000000e+00
0.000000000000000e+00 0.000000000000000e+00 0.000000000000000e+00
0.000000000000000e+00 0.000000000000000e+00 0.000000000000000e+00
0.000000000000000e+00 0.000000000000000e+00 0.000000000000000e+00
0.000000000000000e+00 0.000000000000000e+00 0.000000000000000e+00
0.000000000000000e+00 0.000000000000000e+00 0.000000000000000e+00
0.000000000000000e+00 0.000000000000000e+00 0.000000000000000e+00
0.000000000000000e+00 0.000000000000000e+00 0.000000000000000e+00
0.000000000000000e+00 0.000000000000000e+00 0.000000000000000e+00
0.000000000000000e+00 0.000000000000000e+00 0.000000000000000e+00
0.000000000000000e+00 0.000000000000000e+00 0.000000000000000e+00
0.000000000000000e+00 0.000000000000000e+00 0.000000000000000e+00
0.000000000000000e+00 0.000000000000000e+00 0.000000000000000e+00
0.000000000000000e+00 0.000000000000000e+00 0.000000000000000e+00
0.000000000000000e+00 0.000000000000000e+00 0.000000000000000e+00
0.000000000000000e+00 0.000000000000000e+00 0.000000000000000e+00
0.000000000000000e+00 0.000000000000000e+00 0.000000000000000e+00
0.000000000000000e+00 0.000000000000000e+00 0.000000000000000e+00
0.000000000000000e+00 0.000000000000000e+00 0.000000000000000e+00
0.000000000000000e+00 0.000000000000000e+00 0.000000000000000e+00
0.000000000000000e+00 0.000000000000000e+00 0.000000000000000e+00
0.000000000000000e+00 0.000000000000000e+00 0.000000000000000e+00
0.000000000000000e+00 0.000000000000000e+00 0.000000000000000e+00
0.000000000000000e+00 0.000000000000000e+00 0.000000000000000e+00
0.000000000000000e+00 0.000000000000000e+00 0.000000000000000e+00
0.000000000000000e+00 0.000000000000000e+00 0.000000000000000e+00
0.000000000000000e+00 0.000000000000000e+00 0.000000000000000e+00
0.000000000000000e+00 0.000000000000000e+00 0.000000000000000e+00
0.000000000000000e+00 0.000000000000000e+00 0.000000000000000e+00
0.000000000000000e+00 0.000000000000000e+00 0.000000000000000e+00
0.000000000000000e+00 0.000000000000000e+00 0.000000000000000e+00
0.000000000000000e+00 0.000000000000000e+00 0.000000000000000e+00
0.000000000000000e+00 0.000000000000000e+00 0.000000000000000e+00
0.000000000000000e+00 0.000000000000000e+00 0.000000000000000e+00
0.000000000000000e+00 0.000000000000000e+00 0.000000000000000e+00
0.000000000000000e+00 0.000000000000000e+00 0.000000000000000e+00
0.000000000000000e+00 0.000000000000000e+00 0.000000000000000e+00
0.000000000000000e+00 0.000000000000000e+00 0.000000000000000e+00
0.000000000000000e+00 0.000000000000000e+00 0.000000000000000e+00
0.000000000000000e+00 0.000000000000000e+00 0.000000000000000e+00
0.000000000000000e+00 0.000000000000000e+00 0.000000000000000e+00
0.000000000000000e+00 0.000000000000000e+00 0.000000000000000e+00
0.000000000000000e+00 0.000000000000000e+00 0.000000000000000e+00
0.000000000000000e+00 0.000000000000000e+00 0.000000000000000e+00
0.000000000000000e+00 0.000000000000000e+00 0.000000000000000e+00
0.000000000000000e+00 0.000000000000000e+00 0.000000000000000e+00
0.000000000000000e+00 0.000000000000000e+00 0.000000000000000e+00
0.000000000000000e+00 0.000000000000000e+00 0.000000000000000e+00
0.000000000000000e+00 0.000000000000000e+00 0.000000000000000e+00
0.000000000000000e+00 0.000000000000000e+00 0.000000000000000e+00
0.000000000000000e+00 0.000000000000000e+00 0.000000000000000e+00
0.000000000000000e+00 0.000000000000000e+00 0.000000000000000e+00
0.000000000000000e+00 0.000000000000000e+00 0.000000000000000e+00
0.000000000000000e+00 0.000000000000000e+00 0.000000000000000e+00
0.000000000000000e+00 0.000000000000000e+00 0.000000000000000e+00
0.000000000000000e+00 0.000000000000000e+00 0.000000000000000e+00
0.000000000000000e+00 0.000000000000000e+00 0.000000000000000e+00
0.000000000000000e+00 0.000000000000000e+00 0.000000000000000e+00
0.000000000000000e+00 0.000000000000000e+00 0.000000000000000e+00
0.000000000000000e+00 0.000000000000000e+00 0.000000000000000e+00
0.000000000000000e+00 0.000000000000000e+00 0.000000000000000e+00
0.000000000000000e+00 0.000000000000000e+00 0.000000000000000e+00
0.000000000000000e+00 0.000000000000000e+00 0.000000000000000e+00
0.000000000000000e+00 0.000000000000000e+00 0.000000000000000e+00
0.000000000000000e+00 0.000000000000000e+00 0.000000000000000e+00
0.000000000000000e+00 0.000000000000000e+00 0.000000000000000e+00
0.000000000000000e+00 0.000000000000000e+00 0.000000000000000e+00
0.000000000000000e+00 0.000000000000000e+00 0.000000000000000e+00
0.000000000000000e+00 0.000000000000000e+00 0.000000000000000e+00
0.000000000000000e+00 0.000000000000000e+00 0.000000000000000e+00
0.000000000000000e+00 0.000000000000000e+00 0.000000000000000e+00
0.000000000000000e+00 0.000000000000000e+00 0.000000000000000e+00
0.000000000000000e+00 0.000000000000000e+00 0.000000000000000e+00
0.000000000000000e+00 0.000000000000000e+00 0.000000000000000e+00
0.000000000000000e+00 0.000000000000000e+00 0.000000000000000e+00
0.000000000000000e+00 0.000000000000000e+00 0.000000000000000e+00
0.000000000000000e+00 0.000000000000000e+00 0.000000000000000e+00
0.000000000000000e+00 0.000000000000000e+00 0.000000000000000e+00
0.000000000000000e+00 0.000000000000000e+00 0.000000000000000e+00
0.000000000000000e+00 0.000000000000000e+00 0.000000000000000e+00
0.000000000000000e+00 0.000000000000000e+00 0.000000000000000e+00
0.000000000000000e+00 0.000000000000000e+00 0.000000000000000e+00
0.000000000000000e+00 0.000000000000000e+00 0.000000000000000e+00
0.000000000000000e+00 0.000000000000000e+00 0.000000000000000e+00
0.000000000000000e+00 0.000000000000000e+00 0.000000000000000e+00
0.000000000000000e+00 0.000000000000000e+00 0.000000000000000e+00
0.000000000000000e+00 0.000000000000000e+00 0.000000000000000e+00
0.000000000000000e+00 0.000000000000000e+00 0.000000000000000e+00
0.000000000000000e+00 0.000000000000000e+00 0.000000000000000e+00
0.000000000000000e+00 0.000000000000000e+00 0.000000000000000e+00
0.000000000000000e+00 0.000000000000000e+00 0.000000000000000e+00
0.000000000000000e+00 0.000000000000000e+00 0.000000000000000e+00
0.000000000000000e+00 0.000000000000000e+00 0.000000000000000e+00
0.000000000000000e+00 0.000000000000000e+00 0.000000000000000e+00
0.000000000000000e+00 0.000000000000000e+00 0.000000000000000e+00
0.000000000000000e+00 0.000000000000000e+00 0.000000000000000e+00
0.000000000000000e+00 0.000000000000000e+00 0.000000000000000e+00
0.000000000000000e+00 0.000000000000000e+00 0.000000000000000e+00
0.000000000000000e+00 0.000000000000000e+00 0.000000000000000e+00
0.000000000000000e+00 0.000000000000000e+00 0.000000000000000e+00
0.000000000000000e+00 0.000000000000000e+00 0.000000000000000e+00
0.000000000000000e+00 0.000000000000000e+00 0.000000000000000e+00
0.000000000000000e+00 0.000000000000000e+00 0.000000000000000e+00
0.000000000000000e+00 0.000000000000000e+00 0.000000000000000e+00
0.000000000000000e+00 0.000000000000000e+00 0.000000000000000e+00
0.000000000000000e+00 0.000000000000000e+00 0.000000000000000e+00
0.000000000000000e+00 0.000000000000000e+00 0.000000000000000e+00
0.000000000000000e+00 0.000000000000000e+00 0.000000000000000e+00
0.000000000000000e+00 0.000000000000000e+00 0.000000000000000e+00
0.000000000000000e+00 0.000000000000000e+00 0.000000000000000e+00
0.000000000000000e+00 0.000000000000000e+00 0.000000000000000e+00
0.000000000000000e+00 0.000000000000000e+00 0.000000000000000e+00
0.000000000000000e+00 0.000000000000000e+00 0.000000000000000e+00
0.000000000000000e+00 0.000000000000000e+00 0.000000000000000e+00
0.000000000000000e+00 0.000000000000000e+00 0.000000000000000e+00
0.000000000000000e+00 0.000000000000000e+00 0.000000000000000e+00
0.000000000000000e+00 0.000000000000000e+00 0.000000000000000e+00
0.000000000000000e+00 0.000000000000000e+00 0.000000000000000e+00
0.000000000000000e+00 0.000000000000000e+00 0.000000000000000e+00
0.000000000000000e+00 0.000000000000000e+00 0.000000000000000e+00
0.000000000000000e+00 0.000000000000000e+00 0.000000000000000e+00
0.000000000000000e+00 0.000000000000000e+00 0.000000000000000e+00
0.000000000000000e+00 0.000000000000000e+00 0.000000000000000e+00
0.000000000000000e+00 0.000000000000000e+00 0.000000000000000e+00
0.000000000000000e+00 0.000000000000000e+00 0.000000000000000e+00
0.000000000000000e+00 0.000000000000000e+00 0.000000000000000e+00
0.000000000000000e+00 0.000000000000000e+00 0.000000000000000e+00
0.000000000000000e+00 0.000000000000000e+00 0.000000000000000e+00
0.000000000000000e+00 0.000000000000000e+00 0.000000000000000e+00
0.000000000000000e+00 0.000000000000000e+00 0.000000000000000e+00
0.000000000000000e+00 0.000000000000000e+00 0.000000000000000e+00
0.000000000000000e+00 0.000000000000000e+00 0.000000000000000e+00
0.000000000000000e+00 0.000000000000000e+00 0.000000000000000e+00
0.000000000000000e+00 0.000000000000000e+00 0.000000000000000e+00
0.000000000000000e+00 0.000000000000000e+00 0.000000000000000e+00
0.000000000000000e+00 0.000000000000000e+00 0.000000000000000e+00
0.000000000000000e+00 0.000000000000000e+00 0.000000000000000e+00
0.000000000000000e+00 0.000000000000000e+00 0.000000000000000e+00
0.000000000000000e+00 0.000000000000000e+00 0.000000000000000e+00
0.000000000000000e+00 0.000000000000000e+00 0.000000000000000e+00
0.000000000000000e+00 0.000000000000000e+00 0.000000000000000e+00
0.000000000000000e+00 0.000000000000000e+00 0.000000000000000e+00
0.000000000000000e+00 0.000000000000000e+00 0.000000000000000e+00
0.000000000000000e+00 0.000000000000000e+00 0.000000000000000e+00
0.000000000000000e+00 0.000000000000000e+00 0.000000000000000e+00
0.000000000000000e+00 0.000000000000000e+00 0.000000000000000e+00
0.000000000000000e+00 0.000000000000000e+00 0.000000000000000e+00
0.000000000000000e+00 0.000000000000000e+00 0.000000000000000e+00
0.000000000000000e+00 0.000000000000000e+00 0.000000000000000e+00
0.000000000000000e+00 0.000000000000000e+00 0.000000000000000e+00
0.000000000000000e+00 0.000000000000000e+00 0.000000000000000e+00
0.000000000000000e+00 0.000000000000000e+00 0.000000000000000e+00
0.000000000000000e+00 0.000000000000000e+00 0.000000000000000e+00
0.000000000000000e+00 0.000000000000000e+00 0.000000000000000e+00
0.000000000000000e+00 0.000000000000000e+00 0.000000000000000e+00
0.000000000000000e+00 0.000000000000000e+00 0.000000000000000e+00
0.000000000000000e+00 0.000000000000000e+00 0.000000000000000e+00
0.000000000000000e+00 0.000000000000000e+00 0.000000000000000e+00
0.000000000000000e+00 0.000000000000000e+00 0.000000000000000e+00
0.000000000000000e+00 0.000000000000000e+00 0.000000000000000e+00
0.000000000000000e+00 0.000000000000000e+00 0.000000000000000e+00
0.000000000000000e+00 0.000000000000000e+00 0.000000000000000e+00
0.000000000000000e+00 0.000000000000000e+00 0.000000000000000e+00
0.000000000000000e+00 0.000000000000000e+00 0.000000000000000e+00
0.000000000000000e+00 0.000000000000000e+00 0.000000000000000e+00
0.000000000000000e+00 0.000000000000000e+00 0.000000000000000e+00
0.000000000000000e+00 0.000000000000000e+00 0.000000000000000e+00
0.000000000000000e+00 0.000000000000000e+00 0.000000000000000e+00
0.000000000000000e+00 0.000000000000000e+00 0.000000000000000e+00
0.000000000000000e+00 0.000000000000000e+00 0.000000000000000e+00
0.000000000000000e+00 0.000000000000000e+00 0.000000000000000e+00
0.000000000000000e+00 0.000000000000000e+00 0.000000000000000e+00
0.000000000000000e+00 0.000000000000000e+00 0.000000000000000e+00
0.000000000000000e+00 0.000000000000000e+00 0.000000000000000e+00
0.000000000000000e+00 0.000000000000000e+00 0.000000000000000e+00
0.000000000000000e+00 0.000000000000000e+00 0.000000000000000e+00
0.000000000000000e+00 0.000000000000000e+00 0.000000000000000e+00
0.000000000000000e+00 0.000000000000000e+00 0.000000000000000e+00
0.000000000000000e+00 0.000000000000000e+00 0.000000000000000e+00
0.000000000000000e+00 0.000000000000000e+00 0.000000000000000e+00
0.000000000000000e+00 0.000000000000000e+00 0.000000000000000e+00
0.000000000000000e+00 0.000000000000000e+00 0.000000000000000e+00
0.000000000000000e+00 0.000000000000000e+00 0.000000000000000e+00
0.000000000000000e+00 0.000000000000000e+00 0.000000000000000e+00
0.000000000000000e+00 0.000000000000000e+00 0.000000000000000e+00
0.000000000000000e+00 0.000000000000000e+00 0.000000000000000e+00
0.000000000000000e+00 0.000000000000000e+00 0.000000000000000e+00
0.000000000000000e+00 0.000000000000000e+00 0.000000000000000e+00
0.000000000000000e+00 0.000000000000000e+00 0.000000000000000e+00
0.000000000000000e+00 0.000000000000000e+00 0.000000000000000e+00
0.000000000000000e+00 0.000000000000000e+00 0.000000000000000e+00
0.000000000000000e+00 0.000000000000000e+00 0.000000000000000e+00
0.000000000000000e+00 0.000000000000000e+00 0.000000000000000e+00
0.000000000000000e+00 0.000000000000000e+00 0.000000000000000e+00
0.000000000000000e+00 0.000000000000000e+00 0.000000000000000e+00
0.000000000000000e+00 0.000000000000000e+00 0.000000000000000e+00
0.000000000000000e+00 0.000000000000000e+00 0.000000000000000e+00
0.000000000000000e+00 0.000000000000000e+00 0.000000000000000e+00
0.000000000000000e+00 0.000000000000000e+00 0.000000000000000e+00
0.000000000000000e+00 0.000000000000000e+00 0.000000000000000e+00
0.000000000000000e+00 0.000000000000000e+00 0.000000000000000e+00
0.000000000000000e+00 0.000000000000000e+00 0.000000000000000e+00
0.000000000000000e+00 0.000000000000000e+00 0.000000000000000e+00
0.000000000000000e+00 0.000000000000000e+00 0.000000000000000e+00
0.000000000000000e+00 0.000000000000000e+00 0.000000000000000e+00
0.000000000000000e+00 0.000000000000000e+00 0.000000000000000e+00
0.000000000000000e+00 0.000000000000000e+00 0.000000000000000e+00
0.000000000000000e+00 0.000000000000000e+00 0.000000000000000e+00
0.000000000000000e+00 0.000000000000000e+00 0.000000000000000e+00
0.000000000000000e+00 0.000000000000000e+00 0.000000000000000e+00
0.000000000000000e+00 0.000000000000000e+00 0.000000000000000e+00
0.000000000000000e+00 0.000000000000000e+00 0.000000000000000e+00
0.000000000000000e+00 0.000000000000000e+00 0.000000000000000e+00
0.000000000000000e+00 0.000000000000000e+00 0.000000000000000e+00
0.000000000000000e+00 0.000000000000000e+00 0.000000000000000e+00
0.000000000000000e+00 0.000000000000000e+00 0.000000000000000e+00
0.000000000000000e+00 0.000000000000000e+00 0.000000000000000e+00
0.000000000000000e+00 0.000000000000000e+00 0.000000000000000e+00
0.000000000000000e+00 0.000000000000000e+00 0.000000000000000e+00
0.000000000000000e+00 0.000000000000000e+00 0.000000000000000e+00
0.000000000000000e+00 0.000000000000000e+00 0.000000000000000e+00
0.000000000000000e+00 0.000000000000000e+00 0.000000000000000e+00
0.000000000000000e+00 0.000000000000000e+00 0.000000000000000e+00
0.000000000000000e+00 0.000000000000000e+00 0.000000000000000e+00
0.000000000000000e+00 0.000000000000000e+00 0.000000000000000e+00
0.000000000000000e+00 0.000000000000000e+00 0.000000000000000e+00
0.000000000000000e+00 0.000000000000000e+00 0.000000000000000e+00
0.000000000000000e+00 0.000000000000000e+00 0.000000000000000e+00
0.000000000000000e+00 0.000000000000000e+00 0.000000000000000e+00
0.000000000000000e+00 0.000000000000000e+00 0.000000000000000e+00
0.000000000000000e+00 0.000000000000000e+00 0.000000000000000e+00
0.000000000000000e+00 0.000000000000000e+00 0.000000000000000e+00
0.000000000000000e+00 0.000000000000000e+00 0.000000000000000e+00
0.000000000000000e+00 0.000000000000000e+00 0.000000000000000e+00
0.000000000000000e+00 0.000000000000000e+00 0.000000000000000e+00
0.000000000000000e+00 0.000000000000000e+00 0.000000000000000e+00
0.000000000000000e+00 0.000000000000000e+00 0.000000000000000e+00
0.000000000000000e+00 0.000000000000000e+00 0.000000000000000e+00
0.000000000000000e+00 0.000000000000000e+00 0.000000000000000e+00
0.000000000000000e+00 0.000000000000000e+00 0.000000000000000e+00
0.000000000000000e+00 0.000000000000000e+00 0.000000000000000e+00
0.000000000000000e+00 0.000000000000000e+00 0.000000000000000e+00
0.000000000000000e+00 0.000000000000000e+00 0.000000000000000e+00
0.000000000000000e+00 0.000000000000000e+00 0.000000000000000e+00
0.000000000000000e+00 0.000000000000000e+00 0.000000000000000e+00
0.000000000000000e+00 0.000000000000000e+00 0.000000000000000e+00
0.000000000000000e+00 0.000000000000000e+00 0.000000000000000e+00
0.000000000000000e+00 0.000000000000000e+00 0.000000000000000e+00
0.000000000000000e+00 0.000000000000000e+00 0.000000000000000e+00
0.000000000000000e+00 0.000000000000000e+00 0.000000000000000e+00
0.000000000000000e+00 0.000000000000000e+00 0.000000000000000e+00
0.000000000000000e+00 0.000000000000000e+00 0.000000000000000e+00
0.000000000000000e+00 0.000000000000000e+00 0.000000000000000e+00
0.000000000000000e+00 0.000000000000000e+00 0.000000000000000e+00
0.000000000000000e+00 0.000000000000000e+00 0.000000000000000e+00
0.000000000000000e+00 0.000000000000000e+00 0.000000000000000e+00
0.000000000000000e+00 0.000000000000000e+00 0.000000000000000e+00
0.000000000000000e+00 0.000000000000000e+00 0.000000000000000e+00
0.000000000000000e+00 0.000000000000000e+00 0.000000000000000e+00
0.000000000000000e+00 0.000000000000000e+00 0.000000000000000e+00
0.000000000000000e+00 0.000000000000000e+00 0.000000000000000e+00
0.000000000000000e+00 0.000000000000000e+00 0.000000000000000e+00
0.000000000000000e+00 0.000000000000000e+00 0.000000000000000e+00
0.000000000000000e+00 0.000000000000000e+00 0.000000000000000e+00
0.000000000000000e+00 0.000000000000000e+00 0.000000000000000e+00
0.000000000000000e+00 0.000000000000000e+00 0.000000000000000e+00
0.000000000000000e+00 0.000000000000000e+00 0.000000000000000e+00
0.000000000000000e+00 0.000000000000000e+00 0.000000000000000e+00
0.000000000000000e+00 0.000000000000000e+00 0.000000000000000e+00
0.000000000000000e+00 0.000000000000000e+00 0.000000000000000e+00
0.000000000000000e+00 0.000000000000000e+00 0.000000000000000e+00
0.000000000000000e+00 0.000000000000000e+00 0.000000000000000e+00
0.000000000000000e+00 0.000000000000000e+00 0.000000000000000e+00
0.000000000000000e+00 0.000000000000000e+00 0.000000000000000e+00
0.000000000000000e+00 0.000000000000000e+00 0.000000000000000e+00
0.000000000000000e+00 0.000000000000000e+00 0.000000000000000e+00
0.000000000000000e+00 0.000000000000000e+00 0.000000000000000e+00
0.000000000000000e+00 0.000000000000000e+00 0.000000000000000e+00
0.000000000000000e+00 0.000000000000000e+00 0.000000000000000e+00
0.000000000000000e+00 0.000000000000000e+00 0.000000000000000e+00
0.000000000000000e+00 0.000000000000000e+00 0.000000000000000e+00
0.000000000000000e+00 0.000000000000000e+00 0.000000000000000e+00
0.000000000000000e+00 0.000000000000000e+00 0.000000000000000e+00
0.000000000000000e+00 0.000000000000000e+00 0.000000000000000e+00
0.000000000000000e+00 0.000000000000000e+00 0.000000000000000e+00
0.000000000000000e+00 0.000000000000000e+00 0.000000000000000e+00
0.000000000000000e+00 0.000000000000000e+00 0.000000000000000e+00
0.000000000000000e+00 0.000000000000000e+00 0.000000000000000e+00
0.000000000000000e+00 0.000000000000000e+00 0.000000000000000e+00
0.000000000000000e+00 0.000000000000000e+00 0.000000000000000e+00
0.000000000000000e+00 0.000000000000000e+00 0.000000000000000e+00
0.000000000000000e+00 0.000000000000000e+00 0.000000000000000e+00
0.000000000000000e+00 0.000000000000000e+00 0.000000000000000e+00
0.000000000000000e+00 0.000000000000000e+00 0.000000000000000e+00
0.000000000000000e+00 0.000000000000000e+00 0.000000000000000e+00
0.000000000000000e+00 0.000000000000000e+00 0.000000000000000e+00
0.000000000000000e+00 0.000000000000000e+00 0.000000000000000e+00
0.000000000000000e+00 0.000000000000000e+00 0.000000000000000e+00
0.000000000000000e+00 0.000000000000000e+00 0.000000000000000e+00
0.000000000000000e+00 0.000000000000000e+00 0.000000000000000e+00
0.000000000000000e+00 0.000000000000000e+00 0.000000000000000e+00
0.000000000000000e+00 0.000000000000000e+00 0.000000000000000e+00
0.000000000000000e+00 0.000000000000000e+00 0.000000000000000e+00
0.000000000000000e+00 0.000000000000000e+00 0.000000000000000e+00
0.000000000000000e+00 0.000000000000000e+00 0.000000000000000e+00
0.000000000000000e+00 0.000000000000000e+00 0.000000000000000e+00
0.000000000000000e+00 0.000000000000000e+00 0.000000000000000e+00
0.000000000000000e+00 0.000000000000000e+00 0.000000000000000e+00
0.000000000000000e+00 0.000000000000000e+00 0.000000000000000e+00
0.000000000000000e+00 0.000000000000000e+00 0.000000000000000e+00
0.000000000000000e+00 0.000000000000000e+00 0.000000000000000e+00
0.000000000000000e+00 0.000000000000000e+00 0.000000000000000e+00
0.000000000000000e+00 0.000000000000000e+00 0.000000000000000e+00
0.000000000000000e+00 0.000000000000000e+00 0.000000000000000e+00
0.000000000000000e+00 0.000000000000000e+00 0.000000000000000e+00
0.000000000000000e+00 0.000000000000000e+00 0.000000000000000e+00
0.000000000000000e+00 0.000000000000000e+00 0.000000000000000e+00
0.000000000000000e+00 0.000000000000000e+00 0.000000000000000e+00
0.000000000000000e+00 0.000000000000000e+00 0.000000000000000e+00
0.000000000000000e+00 0.000000000000000e+00 0.000000000000000e+00
0.000000000000000e+00 0.000000000000000e+00 0.000000000000000e+00
0.000000000000000e+00 0.000000000000000e+00 0.000000000000000e+00
0.000000000000000e+00 0.000000000000000e+00 0.000000000000000e+00
0.000000000000000e+00 0.000000000000000e+00 0.000000000000000e+00
0.000000000000000e+00 0.000000000000000e+00 0.000000000000000e+00
0.000000000000000e+00 0.000000000000000e+00 0.000000000000000e+00
0.000000000000000e+00 0.000000000000000e+00 0.000000000000000e+00
0.000000000000000e+00 0.000000000000000e+00 0.000000000000000e+00
0.000000000000000e+00 0.000000000000000e+00 0.000000000000000e+00
0.000000000000000e+00 0.000000000000000e+00 0.000000000000000e+00
0.000000000000000e+00 0.000000000000000e+00 0.000000000000000e+00
0.000000000000000e+00 0.000000000000000e+00 0.000000000000000e+00
0.000000000000000e+00 0.000000000000000e+00 0.000000000000000e+00
0.000000000000000e+00 0.000000000000000e+00 0.000000000000000e+00
0.000000000000000e+00 0.000000000000000e+00 0.000000000000000e+00
0.000000000000000e+00 0.000000000000000e+00 0.000000000000000e+00
0.000000000000000e+00 0.000000000000000e+00 0.000000000000000e+00
0.000000000000000e+00 0.000000000000000e+00 0.000000000000000e+00
0.000000000000000e+00 0.000000000000000e+00 0.000000000000000e+00
0.000000000000000e+00 0.000000000000000e+00 0.000000000000000e+00
0.000000000000000e+00 0.000000000000000e+00 0.000000000000000e+00
0.000000000000000e+00 0.000000000000000e+00 0.000000000000000e+00
0.000000000000000e+00 0.000000000000000e+00 0.000000000000000e+00
0.000000000000000e+00 0.000000000000000e+00 0.000000000000000e+00
0.000000000000000e+00 0.000000000000000e+00 0.000000000000000e+00
0.000000000000000e+00 0.000000000000000e+00 0.000000000000000e+00
0.000000000000000e+00 0.000000000000000e+00 0.000000000000000e+00
0.000000000000000e+00 0.000000000000000e+00 0.000000000000000e+00
0.000000000000000e+00 0.000000000000000e+00 0.000000000000000e+00
0.000000000000000e+00 0.000000000000000e+00 0.000000000000000e+00
0.000000000000000e+00 0.000000000000000e+00 0.000000000000000e+00
0.000000000000000e+00 0.000000000000000e+00 0.000000000000000e+00
0.000000000000000e+00 0.000000000000000e+00 0.000000000000000e+00
0.000000000000000e+00 0.000000000000000e+00 0.000000000000000e+00
0.000000000000000e+00 0.000000000000000e+00 0.000000000000000e+00
0.000000000000000e+00 0.000000000000000e+00 0.000000000000000e+00
0.000000000000000e+00 0.000000000000000e+00 0.000000000000000e+00
0.000000000000000e+00 0.000000000000000e+00 0.000000000000000e+00
0.000000000000000e+00 0.000000000000000e+00 0.000000000000000e+00
0.000000000000000e+00 0.000000000000000e+00 0.000000000000000e+00
0.000000000000000e+00 0.000000000000000e+00 0.000000000000000e+00
0.000000000000000e+00 0.000000000000000e+00 0.000000000000000e+00
0.000000000000000e+00 0.000000000000000e+00 0.000000000000000e+00
0.000000000000000e+00 0.000000000000000e+00 0.000000000000000e+00
0.000000000000000e+00 0.000000000000000e+00 0.000000000000000e+00
0.000000000000000e+00 0.000000000000000e+00 0.000000000000000e+00
0.000000000000000e+00 0.000000000000000e+00 0.000000000000000e+00
0.000000000000000e+00 0.000000000000000e+00 0.000000000000000e+00
0.000000000000000e+00 0.000000000000000e+00 0.000000000000000e+00
0.000000000000000e+00 0.000000000000000e+00 0.000000000000000e+00
0.000000000000000e+00 0.000000000000000e+00 0.000000000000000e+00
0.000000000000000e+00 0.000000000000000e+00 0.000000000000000e+00
0.000000000000000e+00 0.000000000000000e+00 0.000000000000000e+00
0.000000000000000e+00 0.000000000000000e+00 0.000000000000000e+00
0.000000000000000e+00 0.000000000000000e+00 0.000000000000000e+00
0.000000000000000e+00 0.000000000000000e+00 0.000000000000000e+00
0.000000000000000e+00 0.000000000000000e+00 0.000000000000000e+00
0.000000000000000e+00 0.000000000000000e+00 0.000000000000000e+00
0.000000000000000e+00 0.000000000000000e+00 0.000000000000000e+00
0.000000000000000e+00 0.000000000000000e+00 0.000000000000000e+00
0.000000000000000e+00 0.000000000000000e+00 0.000000000000000e+00
0.000000000000000e+00 0.000000000000000e+00 0.000000000000000e+00
0.000000000000000e+00 0.000000000000000e+00 0.000000000000000e+00
0.000000000000000e+00 0.000000000000000e+00 0.000000000000000e+00
0.000000000000000e+00 0.000000000000000e+00 0.000000000000000e+00
0.000000000000000e+00 0.000000000000000e+00 0.000000000000000e+00
0.000000000000000e+00 0.000000000000000e+00 0.000000000000000e+00
0.000000000000000e+00 0.000000000000000e+00 0.000000000000000e+00
0.000000000000000e+00 0.000000000000000e+00 0.000000000000000e+00
0.000000000000000e+00 0.000000000000000e+00 0.000000000000000e+00
0.000000000000000e+00 0.000000000000000e+00 0.000000000000000e+00
0.000000000000000e+00 0.000000000000000e+00 0.000000000000000e+00
0.000000000000000e+00 0.000000000000000e+00 0.000000000000000e+00
0.000000000000000e+00 0.000000000000000e+00 0.000000000000000e+00
0.000000000000000e+00 0.000000000000000e+00 0.000000000000000e+00
0.000000000000000e+00 0.000000000000000e+00 0.000000000000000e+00
0.000000000000000e+00 0.000000000000000e+00 0.000000000000000e+00
0.000000000000000e+00 0.000000000000000e+00 0.000000000000000e+00
0.000000000000000e+00 0.000000000000000e+00 0.000000000000000e+00
0.000000000000000e+00 0.000000000000000e+00 0.000000000000000e+00
0.000000000000000e+00 0.000000000000000e+00 0.000000000000000e+00
0.000000000000000e+00 0.000000000000000e+00 0.000000000000000e+00
0.000000000000000e+00 0.000000000000000e+00 0.000000000000000e+00
0.000000000000000e+00 0.000000000000000e+00 0.000000000000000e+00
0.000000000000000e+00 0.000000000000000e+00 0.000000000000000e+00
0.000000000000000e+00 0.000000000000000e+00 0.000000000000000e+00
0.000000000000000e+00 0.000000000000000e+00 0.000000000000000e+00
0.000000000000000e+00 0.000000000000000e+00 0.000000000000000e+00
0.000000000000000e+00 0.000000000000000e+00 0.000000000000000e+00
0.000000000000000e+00 0.000000000000000e+00 0.000000000000000e+00
0.000000000000000e+00 0.000000000000000e+00 0.000000000000000e+00
0.000000000000000e+00 0.000000000000000e+00 0.000000000000000e+00
0.000000000000000e+00 0.000000000000000e+00 0.000000000000000e+00
0.000000000000000e+00 0.000000000000000e+00 0.000000000000000e+00
0.000000000000000e+00 0.000000000000000e+00 0.000000000000000e+00
0.000000000000000e+00 0.000000000000000e+00 0.000000000000000e+00
0.000000000000000e+00 0.000000000000000e+00 0.000000000000000e+00
0.000000000000000e+00 0.000000000000000e+00 0.000000000000000e+00
0.000000000000000e+00 0.000000000000000e+00 0.000000000000000e+00
0.000000000000000e+00 0.000000000000000e+00 0.000000000000000e+00
0.000000000000000e+00 0.000000000000000e+00 0.000000000000000e+00
0.000000000000000e+00 0.000000000000000e+00 0.000000000000000e+00
0.000000000000000e+00 0.000000000000000e+00 0.000000000000000e+00
0.000000000000000e+00 0.000000000000000e+00 0.000000000000000e+00
0.000000000000000e+00 0.000000000000000e+00 0.000000000000000e+00
0.000000000000000e+00 0.000000000000000e+00 0.000000000000000e+00
0.000000000000000e+00 0.000000000000000e+00 0.000000000000000e+00
0.000000000000000e+00 0.000000000000000e+00 0.000000000000000e+00
0.000000000000000e+00 0.000000000000000e+00 0.000000000000000e+00
0.000000000000000e+00 0.000000000000000e+00 0.000000000000000e+00
0.000000000000000e+00 0.000000000000000e+00 0.000000000000000e+00
0.000000000000000e+00 0.000000000000000e+00 0.000000000000000e+00
0.000000000000000e+00 0.000000000000000e+00 0.000000000000000e+00
0.000000000000000e+00 0.000000000000000e+00 0.000000000000000e+00
0.000000000000000e+00 0.000000000000000e+00 0.000000000000000e+00
0.000000000000000e+00 0.000000000000000e+00 0.000000000000000e+00
0.000000000000000e+00 0.000000000000000e+00 0.000000000000000e+00
0.000000000000000e+00 0.000000000000000e+00 0.000000000000000e+00
0.000000000000000e+00 0.000000000000000e+00 0.000000000000000e+00
0.000000000000000e+00 0.000000000000000e+00 0.000000000000000e+00
0.000000000000000e+00 0.000000000000000e+00 0.000000000000000e+00
0.000000000000000e+00 0.000000000000000e+00 0.000000000000000e+00
0.000000000000000e+00 0.000000000000000e+00 0.000000000000000e+00
0.000000000000000e+00 0.000000000000000e+00 0.000000000000000e+00
0.000000000000000e+00 0.000000000000000e+00 0.000000000000000e+00
0.000000000000000e+00 0.000000000000000e+00 0.000000000000000e+00
0.000000000000000e+00 0.000000000000000e+00 0.000000000000000e+00
0.000000000000000e+00 0.000000000000000e+00 0.000000000000000e+00
0.000000000000000e+00 0.000000000000000e+00 0.000000000000000e+00
0.000000000000000e+00 0.000000000000000e+00 0.000000000000000e+00
0.000000000000000e+00 0.000000000000000e+00 0.000000000000000e+00
0.000000000000000e+00 0.000000000000000e+00 0.000000000000000e+00
0.000000000000000e+00 0.000000000000000e+00 0.000000000000000e+00
0.000000000000000e+00 0.000000000000000e+00 0.000000000000000e+00
0.000000000000000e+00 0.000000000000000e+00 0.000000000000000e+00
0.000000000000000e+00 0.000000000000000e+00 0.000000000000000e+00
0.000000000000000e+00 0.000000000000000e+00 0.000000000000000e+00
0.000000000000000e+00 0.000000000000000e+00 0.000000000000000e+00
0.000000000000000e+00 0.000000000000000e+00 0.000000000000000e+00
0.000000000000000e+00 0.000000000000000e+00 0.000000000000000e+00
0.000000000000000e+00 0.000000000000000e+00 0.000000000000000e+00
0.000000000000000e+00 0.000000000000000e+00 0.000000000000000e+00
0.000000000000000e+00 0.000000000000000e+00 0.000000000000000e+00
0.000000000000000e+00 0.000000000000000e+00 0.000000000000000e+00
0.000000000000000e+00 0.000000000000000e+00 0.000000000000000e+00
0.000000000000000e+00 0.000000000000000e+00 0.000000000000000e+00
0.000000000000000e+00 0.000000000000000e+00 0.000000000000000e+00
0.000000000000000e+00 0.000000000000000e+00 0.000000000000000e+00
0.000000000000000e+00 0.000000000000000e+00 0.000000000000000e+00
0.000000000000000e+00 0.000000000000000e+00 0.000000000000000e+00
0.000000000000000e+00 0.000000000000000e+00 0.000000000000000e+00
0.000000000000000e+00 0.000000000000000e+00 0.000000000000000e+00
0.000000000000000e+00 0.000000000000000e+00 0.000000000000000e+00
0.000000000000000e+00 0.000000000000000e+00 0.000000000000000e+00
0.000000000000000e+00 0.000000000000000e+00 0.000000000000000e+00
0.000000000000000e+00 0.000000000000000e+00 0.000000000000000e+00
0.000000000000000e+00 0.000000000000000e+00 0.000000000000000e+00
0.000000000000000e+00 0.000000000000000e+00 0.000000000000000e+00
0.000000000000000e+00 0.000000000000000e+00 0.000000000000000e+00
0.000000000000000e+00 0.000000000000000e+00 0.000000000000000e+00
0.000000000000000e+00 0.000000000000000e+00 0.000000000000000e+00
0.000000000000000e+00 0.000000000000000e+00 0.000000000000000e+00
0.000000000000000e+00 0.000000000000000e+00 0.000000000000000e+00
0.000000000000000e+00 0.000000000000000e+00 0.000000000000000e+00
0.000000000000000e+00 0.000000000000000e+00 0.000000000000000e+00
0.000000000000000e+00 0.000000000000000e+00 0.000000000000000e+00
0.000000000000000e+00 0.000000000000000e+00 0.000000000000000e+00
0.000000000000000e+00 0.000000000000000e+00 0.000000000000000e+00
0.000000000000000e+00 0.000000000000000e+00 0.000000000000000e+00
0.000000000000000e+00 0.000000000000000e+00 0.000000000000000e+00
0.000000000000000e+00 0.000000000000000e+00 0.000000000000000e+00
0.000000000000000e+00 0.000000000000000e+00 0.000000000000000e+00
0.000000000000000e+00 0.000000000000000e+00 0.000000000000000e+00
0.000000000000000e+00 0.000000000000000e+00 0.000000000000000e+00
0.000000000000000e+00 0.000000000000000e+00 0.000000000000000e+00
0.000000000000000e+00 0.000000000000000e+00 0.000000000000000e+00
0.000000000000000e+00 0.000000000000000e+00 0.000000000000000e+00
0.000000000000000e+00 0.000000000000000e+00 0.000000000000000e+00
0.000000000000000e+00 0.000000000000000e+00 0.000000000000000e+00
0.000000000000000e+00 0.000000000000000e+00 0.000000000000000e+00
0.000000000000000e+00 0.000000000000000e+00 0.000000000000000e+00
0.000000000000000e+00 0.000000000000000e+00 0.000000000000000e+00
0.000000000000000e+00 0.000000000000000e+00 0.000000000000000e+00
0.000000000000000e+00 0.000000000000000e+00 0.000000000000000e+00
0.000000000000000e+00 0.000000000000000e+00 0.000000000000000e+00
0.000000000000000e+00 0.000000000000000e+00 0.000000000000000e+00
0.000000000000000e+00 0.000000000000000e+00 0.000000000000000e+00
0.000000000000000e+00 0.000000000000000e+00 0.000000000000000e+00
0.000000000000000e+00 0.000000000000000e+00 0.000000000000000e+00
0.000000000000000e+00 0.000000000000000e+00 0.000000000000000e+00
0.000000000000000e+00 0.000000000000000e+00 0.000000000000000e+00
0.000000000000000e+00 0.000000000000000e+00 0.000000000000000e+00
0.000000000000000e+00 0.000000000000000e+00 0.000000000000000e+00
0.000000000000000e+00 0.000000000000000e+00 0.000000000000000e+00
0.000000000000000e+00 0.000000000000000e+00 0.000000000000000e+00
0.000000000000000e+00 0.000000000000000e+00 0.000000000000000e+00
0.000000000000000e+00 0.000000000000000e+00 0.000000000000000e+00
0.000000000000000e+00 0.000000000000000e+00 0.000000000000000e+00
0.000000000000000e+00 0.000000000000000e+00 0.000000000000000e+00
0.000000000000000e+00 0.000000000000000e+00 0.000000000000000e+00
0.000000000000000e+00 0.000000000000000e+00 0.000000000000000e+00
0.000000000000000e+00 0.000000000000000e+00 0.000000000000000e+00
0.000000000000000e+00 0.000000000000000e+00 0.000000000000000e+00
0.000000000000000e+00 0.000000000000000e+00 0.000000000000000e+00
0.000000000000000e+00 0.000000000000000e+00 0.000000000000000e+00
0.000000000000000e+00 0.000000000000000e+00 0.000000000000000e+00
0.000000000000000e+00 0.000000000000000e+00 0.000000000000000e+00
0.000000000000000e+00 0.000000000000000e+00 0.000000000000000e+00
0.000000000000000e+00 0.000000000000000e+00 0.000000000000000e+00
0.000000000000000e+00 0.000000000000000e+00 0.000000000000000e+00
0.000000000000000e+00 0.000000000000000e+00 0.000000000000000e+00
0.000000000000000e+00 0.000000000000000e+00 0.000000000000000e+00
0.000000000000000e+00 0.000000000000000e+00 0.000000000000000e+00
0.000000000000000e+00 0.000000000000000e+00 0.000000000000000e+00
0.000000000000000e+00 0.000000000000000e+00 0.000000000000000e+00
0.000000000000000e+00 0.000000000000000e+00 0.000000000000000e+00
0.000000000000000e+00 0.000000000000000e+00 0.000000000000000e+00
0.000000000000000e+00 0.000000000000000e+00 0.000000000000000e+00
0.000000000000000e+00 0.000000000000000e+00 0.000000000000000e+00
0.000000000000000e+00 0.000000000000000e+00 0.000000000000000e+00
0.000000000000000e+00 0.000000000000000e+00 0.000000000000000e+00
0.000000000000000e+00 0.000000000000000e+00 0.000000000000000e+00
0.000000000000000e+00 0.000000000000000e+00 0.000000000000000e+00
0.000000000000000e+00 0.000000000000000e+00 0.000000000000000e+00
0.000000000000000e+00 0.000000000000000e+00 0.000000000000000e+00
0.000000000000000e+00 0.000000000000000e+00 0.000000000000000e+00
0.000000000000000e+00 0.000000000000000e+00 0.000000000000000e+00
0.000000000000000e+00 0.000000000000000e+00 0.000000000000000e+00
0.000000000000000e+00 0.000000000000000e+00 0.000000000000000e+00
0.000000000000000e+00 0.000000000000000e+00 0.000000000000000e+00
0.000000000000000e+00 0.000000000000000e+00 0.000000000000000e+00
0.000000000000000e+00 0.000000000000000e+00 0.000000000000000e+00
0.000000000000000e+00 0.000000000000000e+00 0.000000000000000e+00
0.000000000000000e+00 0.000000000000000e+00 0.000000000000000e+00
0.000000000000000e+00 0.000000000000000e+00 0.000000000000000e+00
0.000000000000000e+00 0.000000000000000e+00 0.000000000000000e+00
0.000000000000000e+00 0.000000000000000e+00 0.000000000000000e+00
0.000000000000000e+00 0.000000000000000e+00 0.000000000000000e+00
0.000000000000000e+00 0.000000000000000e+00 0.000000000000000e+00
0.000000000000000e+00 0.000000000000000e+00 0.000000000000000e+00
0.000000000000000e+00 0.000000000000000e+00 0.000000000000000e+00
0.000000000000000e+00 0.000000000000000e+00 0.000000000000000e+00
0.000000000000000e+00 0.000000000000000e+00 0.000000000000000e+00
0.000000000000000e+00 0.000000000000000e+00 0.000000000000000e+00
0.000000000000000e+00 0.000000000000000e+00 0.000000000000000e+00
0.000000000000000e+00 0.000000000000000e+00 0.000000000000000e+00
0.000000000000000e+00 0.000000000000000e+00 0.000000000000000e+00
0.000000000000000e+00 0.000000000000000e+00 0.000000000000000e+00
0.000000000000000e+00 0.000000000000000e+00 0.000000000000000e+00
0.000000000000000e+00 0.000000000000000e+00 0.000000000000000e+00
0.000000000000000e+00 0.000000000000000e+00 0.000000000000000e+00
0.000000000000000e+00 0.000000000000000e+00 0.000000000000000e+00
0.000000000000000e+00 0.000000000000000e+00 0.000000000000000e+00
0.000000000000000e+00 0.000000000000000e+00 0.000000000000000e+00
0.000000000000000e+00 0.000000000000000e+00 0.000000000000000e+00
0.000000000000000e+00 0.000000000000000e+00 0.000000000000000e+00
0.000000000000000e+00 0.000000000000000e+00 0.000000000000000e+00
0.000000000000000e+00 0.000000000000000e+00 0.000000000000000e+00
0.000000000000000e+00 0.000000000000000e+00 0.000000000000000e+00
0.000000000000000e+00 0.000000000000000e+00 0.000000000000000e+00
0.000000000000000e+00 0.000000000000000e+00 0.000000000000000e+00
0.000000000000000e+00 0.000000000000000e+00 0.000000000000000e+00
0.000000000000000e+00 0.000000000000000e+00 0.000000000000000e+00
0.000000000000000e+00 0.000000000000000e+00 0.000000000000000e+00
0.000000000000000e+00 0.000000000000000e+00 0.000000000000000e+00
0.000000000000000e+00 0.000000000000000e+00 0.000000000000000e+00
0.000000000000000e+00 0.000000000000000e+00 0.000000000000000e+00
0.000000000000000e+00 0.000000000000000e+00 0.000000000000000e+00
0.000000000000000e+00 0.000000000000000e+00 0.000000000000000e+00
0.000000000000000e+00 0.000000000000000e+00 0.000000000000000e+00
0.000000000000000e+00 0.000000000000000e+00 0.000000000000000e+00
0.000000000000000e+00 0.000000000000000e+00 0.000000000000000e+00
0.000000000000000e+00 0.000000000000000e+00 0.000000000000000e+00
0.000000000000000e+00 0.000000000000000e+00 0.000000000000000e+00
0.000000000000000e+00 0.000000000000000e+00 0.000000000000000e+00
0.000000000000000e+00 0.000000000000000e+00 0.000000000000000e+00
0.000000000000000e+00 0.000000000000000e+00 0.000000000000000e+00
0.000000000000000e+00 0.000000000000000e+00 0.000000000000000e+00
0.000000000000000e+00 0.000000000000000e+00 0.000000000000000e+00
0.000000000000000e+00 0.000000000000000e+00 0.000000000000000e+00
0.000000000000000e+00 0.000000000000000e+00 0.000000000000000e+00
0.000000000000000e+00 0.000000000000000e+00 0.000000000000000e+00
0.000000000000000e+00 0.000000000000000e+00 0.000000000000000e+00
0.000000000000000e+00 0.000000000000000e+00 0.000000000000000e+00
0.000000000000000e+00 0.000000000000000e+00 0.000000000000000e+00
0.000000000000000e+00 0.000000000000000e+00 0.000000000000000e+00
0.000000000000000e+00 0.000000000000000e+00 0.000000000000000e+00
0.000000000000000e+00 0.000000000000000e+00 0.000000000000000e+00
0.000000000000000e+00 0.000000000000000e+00 0.000000000000000e+00
0.000000000000000e+00 0.000000000000000e+00 0.000000000000000e+00
0.000000000000000e+00 0.000000000000000e+00 0.000000000000000e+00
0.000000000000000e+00 0.000000000000000e+00 0.000000000000000e+00
0.000000000000000e+00 0.000000000000000e+00 0.000000000000000e+00
0.000000000000000e+00 0.000000000000000e+00 0.000000000000000e+00
0.000000000000000e+00 0.000000000000000e+00 0.000000000000000e+00
0.000000000000000e+00 0.000000000000000e+00 0.000000000000000e+00
0.000000000000000e+00 0.000000000000000e+00 0.000000000000000e+00
0.000000000000000e+00 0.000000000000000e+00 0.000000000000000e+00
0.000000000000000e+00 0.000000000000000e+00 0.000000000000000e+00
0.000000000000000e+00 0.000000000000000e+00 0.000000000000000e+00
0.000000000000000e+00 0.000000000000000e+00 0.000000000000000e+00
0.000000000000000e+00 0.000000000000000e+00 0.000000000000000e+00
0.000000000000000e+00 0.000000000000000e+00 0.000000000000000e+00
0.000000000000000e+00 0.000000000000000e+00 0.000000000000000e+00
0.000000000000000e+00 0.000000000000000e+00 0.000000000000000e+00
0.000000000000000e+00 0.000000000000000e+00 0.000000000000000e+00
0.000000000000000e+00 0.000000000000000e+00 0.000000000000000e+00
0.000000000000000e+00 0.000000000000000e+00 0.000000000000000e+00
0.000000000000000e+00 0.000000000000000e+00 0.000000000000000e+00
0.000000000000000e+00 0.000000000000000e+00 0.000000000000000e+00
0.000000000000000e+00 0.000000000000000e+00 0.000000000000000e+00
0.000000000000000e+00 0.000000000000000e+00 0.000000000000000e+00
0.000000000000000e+00 0.000000000000000e+00 0.000000000000000e+00
0.000000000000000e+00 0.000000000000000e+00 0.000000000000000e+00
0.000000000000000e+00 0.000000000000000e+00 0.000000000000000e+00
0.000000000000000e+00 0.000000000000000e+00 0.000000000000000e+00
0.000000000000000e+00 0.000000000000000e+00 0.000000000000000e+00
0.000000000000000e+00 0.000000000000000e+00 0.000000000000000e+00
0.000000000000000e+00 0.000000000000000e+00 0.000000000000000e+00
0.000000000000000e+00 0.000000000000000e+00 0.000000000000000e+00
0.000000000000000e+00 0.000000000000000e+00 0.000000000000000e+00
0.000000000000000e+00 0.000000000000000e+00 0.000000000000000e+00
0.000000000000000e+00 0.000000000000000e+00 0.000000000000000e+00
0.000000000000000e+00 0.000000000000000e+00 0.000000000000000e+00
0.000000000000000e+00 0.000000000000000e+00 0.000000000000000e+00
0.000000000000000e+00 0.000000000000000e+00 0.000000000000000e+00
0.000000000000000e+00 0.000000000000000e+00 0.000000000000000e+00
0.000000000000000e+00 0.000000000000000e+00 0.000000000000000e+00
0.000000000000000e+00 0.000000000000000e+00 0.000000000000000e+00
0.000000000000000e+00 0.000000000000000e+00 0.000000000000000e+00
0.000000000000000e+00 0.000000000000000e+00 0.000000000000000e+00
0.000000000000000e+00 0.000000000000000e+00 0.000000000000000e+00
0.000000000000000e+00 0.000000000000000e+00 0.000000000000000e+00
0.000000000000000e+00 0.000000000000000e+00 0.000000000000000e+00
0.000000000000000e+00 0.000000000000000e+00 0.000000000000000e+00
0.000000000000000e+00 0.000000000000000e+00 0.000000000000000e+00
0.000000000000000e+00 0.000000000000000e+00 0.000000000000000e+00
0.000000000000000e+00 0.000000000000000e+00 0.000000000000000e+00
0.000000000000000e+00 0.000000000000000e+00 0.000000000000000e+00
0.000000000000000e+00 0.000000000000000e+00 0.000000000000000e+00
0.000000000000000e+00 0.000000000000000e+00 0.000000000000000e+00
0.000000000000000e+00 0.000000000000000e+00 0.000000000000000e+00
0.000000000000000e+00 0.000000000000000e+00 0.000000000000000e+00
0.000000000000000e+00 0.000000000000000e+00 0.000000000000000e+00
0.000000000000000e+00 0.000000000000000e+00 0.000000000000000e+00
0.000000000000000e+00 0.000000000000000e+00 0.000000000000000e+00
0.000000000000000e+00 0.000000000000000e+00 0.000000000000000e+00
0.000000000000000e+00 0.000000000000000e+00 0.000000000000000e+00
0.000000000000000e+00 0.000000000000000e+00 0.000000000000000e+00
0.000000000000000e+00 0.000000000000000e+00 0.000000000000000e+00
0.000000000000000e+00 0.000000000000000e+00 0.000000000000000e+00
0.000000000000000e+00 0.000000000000000e+00 0.000000000000000e+00
0.000000000000000e+00 0.000000000000000e+00 0.000000000000000e+00
0.000000000000000e+00 0.000000000000000e+00 0.000000000000000e+00
0.000000000000000e+00 0.000000000000000e+00 0.000000000000000e+00
0.000000000000000e+00 0.000000000000000e+00 0.000000000000000e+00
0.000000000000000e+00 0.000000000000000e+00 0.000000000000000e+00
0.000000000000000e+00 0.000000000000000e+00 0.000000000000000e+00
0.000000000000000e+00 0.000000000000000e+00 0.000000000000000e+00
0.000000000000000e+00 0.000000000000000e+00 0.000000000000000e+00
0.000000000000000e+00 0.000000000000000e+00 0.000000000000000e+00
0.000000000000000e+00 0.000000000000000e+00 0.000000000000000e+00
0.000000000000000e+00 0.000000000000000e+00 0.000000000000000e+00
0.000000000000000e+00 0.000000000000000e+00 0.000000000000000e+00
0.000000000000000e+00 0.000000000000000e+00 0.000000000000000e+00
0.000000000000000e+00 0.000000000000000e+00 0.000000000000000e+00
0.000000000000000e+00 0.000000000000000e+00 0.000000000000000e+00
0.000000000000000e+00 0.000000000000000e+00 0.000000000000000e+00
0.000000000000000e+00 0.000000000000000e+00 0.000000000000000e+00
0.000000000000000e+00 0.000000000000000e+00 0.000000000000000e+00
0.000000000000000e+00 0.000000000000000e+00 0.000000000000000e+00
0.000000000000000e+00 0.000000000000000e+00 0.000000000000000e+00
0.000000000000000e+00 0.000000000000000e+00 0.000000000000000e+00
0.000000000000000e+00 0.000000000000000e+00 0.000000000000000e+00
0.000000000000000e+00 0.000000000000000e+00 0.000000000000000e+00
0.000000000000000e+00 0.000000000000000e+00 0.000000000000000e+00
0.000000000000000e+00 0.000000000000000e+00 0.000000000000000e+00
0.000000000000000e+00 0.000000000000000e+00 0.000000000000000e+00
0.000000000000000e+00 0.000000000000000e+00 0.000000000000000e+00
0.000000000000000e+00 0.000000000000000e+00 0.000000000000000e+00
0.000000000000000e+00 0.000000000000000e+00 0.000000000000000e+00
0.000000000000000e+00 0.000000000000000e+00 0.000000000000000e+00
0.000000000000000e+00 0.000000000000000e+00 0.000000000000000e+00
0.000000000000000e+00 0.000000000000000e+00 0.000000000000000e+00
0.000000000000000e+00 0.000000000000000e+00 0.000000000000000e+00
0.000000000000000e+00 0.000000000000000e+00 0.000000000000000e+00
0.000000000000000e+00 0.000000000000000e+00 0.000000000000000e+00
0.000000000000000e+00 0.000000000000000e+00 0.000000000000000e+00
0.000000000000000e+00 0.000000000000000e+00 0.000000000000000e+00
0.000000000000000e+00 0.000000000000000e+00 0.000000000000000e+00
0.000000000000000e+00 0.000000000000000e+00 0.000000000000000e+00
0.000000000000000e+00 0.000000000000000e+00 0.000000000000000e+00
0.000000000000000e+00 0.000000000000000e+00 0.000000000000000e+00
0.000000000000000e+00 0.000000000000000e+00 0.000000000000000e+00
0.000000000000000e+00 0.000000000000000e+00 0.000000000000000e+00
0.000000000000000e+00 0.000000000000000e+00 0.000000000000000e+00
0.000000000000000e+00 0.000000000000000e+00 0.000000000000000e+00
4.585246131017254e-03 0.000000000000000e+00 2.105461534220074e-19
 4.585265979173385e-03 -0.000000000000000e+00  2.105458585402516e-19
4.585224358408913e-03 0.000000000000000e+00 2.105465086043484e-19
4.585204687161117e-03 0.000000000000000e+00 2.105468314862275e-19
4.585186824434296e-03 0.000000000000000e+00 2.105471301705852e-19
4.585169743725697e-03 0.000000000000000e+00 2.105474285264208e-19
4.585152922099781e-03 0.000000000000000e+00 2.105477371098241e-19
4.585136146823438e-03 0.000000000000000e+00 2.105480582491496e-19
4.585119357842597e-03 0.000000000000000e+00 2.105483902083952e-19
4.585102527379952e-03 0.000000000000000e+00 2.105487305823002e-19
4.585085661563609e-03 0.000000000000000e+00 2.105490763873224e-19
4.585068754481462e-03 0.000000000000000e+00 2.105494253970376e-19
4.585051814400280e-03 0.000000000000000e+00 2.105497755829810e-19
4.585034848368439e-03 0.000000000000000e+00 2.105501253715403e-19
4.585017850360656e-03 0.000000000000000e+00 2.105504739830636e-19
4.585000830789127e-03 0.000000000000000e+00 2.105508205808663e-19
4.584983782404471e-03 0.000000000000000e+00 2.105511649905950e-19
4.584966714626584e-03 0.000000000000000e+00 2.105515068663876e-19
4.584949619447463e-03 0.000000000000000e+00 2.105518464115509e-19
4.584932505723994e-03 0.000000000000000e+00 2.105521834973807e-19
4.584915365040807e-03 0.000000000000000e+00 2.105525185015373e-19
4.584898203823650e-03 0.000000000000000e+00 2.105528514610007e-19
4.584881021998051e-03 0.000000000000000e+00 2.105531825628837e-19
4.584863813014709e-03 0.000000000000000e+00 2.105535121873672e-19
4.584846585243554e-03 0.000000000000000e+00 2.105538403166954e-19
4.584829329921511e-03 0.000000000000000e+00 2.105541673266015e-19
4.584812055366673e-03 0.000000000000000e+00 2.105544932150306e-19
4.584794752777357e-03 0.000000000000000e+00 2.105548183416420e-19
4.584777430442085e-03 0.000000000000000e+00 2.105551426241801e-19
4.584760079540219e-03 0.000000000000000e+00 2.105554664397681e-19
4.584742708346021e-03 0.000000000000000e+00 2.105557896626096e-19
4.584725308026614e-03 0.000000000000000e+00 2.105561126192840e-19
4.584707884710481e-03 0.000000000000000e+00 2.105564352449609e-19
4.584690438109195e-03 0.000000000000000e+00 2.105567576321791e-19
4.584672961519818e-03 0.000000000000000e+00 2.105570799943168e-19
4.584655463199669e-03 0.000000000000000e+00 2.105574022122082e-19
4.584637934304962e-03 0.000000000000000e+00 2.105577245114863e-19
4.584620383091067e-03 0.000000000000000e+00 2.105580467902076e-19
4.584602800710117e-03 0.000000000000000e+00 2.105583692558830e-19
4.584585195416076e-03 0.000000000000000e+00 2.105586917689456e-19
4.584567558358210e-03 0.000000000000000e+00 2.105590145752627e-19
4.584549895650021e-03 0.000000000000000e+00 2.105593375341093e-19
4.584532206991157e-03 0.000000000000000e+00 2.105596606814703e-19
4.584514485666984e-03 0.000000000000000e+00 2.105599842084129e-19
4.584496739925868e-03 0.000000000000000e+00 2.105603079323838e-19
4.584478960913527e-03 0.000000000000000e+00 2.105606320882479e-19
4.584461156878036e-03 0.000000000000000e+00 2.105609564620388e-19
4.584443318963735e-03 0.000000000000000e+00 2.105612813167724e-19
4.584425455415733e-03 0.000000000000000e+00 2.105616064399775e-19
4.584407557378404e-03 0.000000000000000e+00 2.105619320577741e-19
4.584389633095343e-03 0.000000000000000e+00 2.105622579753825e-19
4.584371673709435e-03 0.000000000000000e+00 2.105625844203865e-19
4.584353685326374e-03 0.000000000000000e+00 2.105629112485330e-19
4.584335667637360e-03 0.000000000000000e+00 2.105632384837028e-19
4.584317613922428e-03 0.000000000000000e+00 2.105635662739263e-19
4.584299532421822e-03 0.000000000000000e+00 2.105638944339973e-19
4.584281414276076e-03 0.000000000000000e+00 2.105642231667508e-19
4.584263267726838e-03 0.000000000000000e+00 2.105645522941757e-19
4.584245083911979e-03 0.000000000000000e+00 2.105648820194708e-19
4.584226871072278e-03 0.000000000000000e+00 2.105652121618520e-19
4.584208620344887e-03 0.000000000000000e+00 2.105655429001824e-19
4.584190337832835e-03 0.000000000000000e+00 2.105658741360177e-19
4.584172023224173e-03 0.000000000000000e+00 2.105662058436189e-19
4.584153669792897e-03 0.000000000000000e+00 2.105665381982464e-19
4.584135285777876e-03 0.000000000000000e+00 2.105668709974185e-19
4.584116862315653e-03 0.000000000000000e+00 2.105672044646160e-19
4.584098407643807e-03 0.000000000000000e+00 2.105675383740171e-19
4.584079912898165e-03 0.000000000000000e+00 2.105678729611129e-19
4.584061386315908e-03 0.000000000000000e+00 2.105682080254851e-19
4.584042819032140e-03 0.000000000000000e+00 2.105685437782336e-19
4.584024219285257e-03 0.000000000000000e+00 2.105688800298130e-19
4.584005578207334e-03 0.000000000000000e+00 2.105692169729199e-19
4.583986901898857e-03 0.000000000000000e+00 2.105695544660316e-19
4.583968190044665e-03 0.000000000000000e+00 2.105698925209829e-19
4.583949435915178e-03 0.000000000000000e+00 2.105702312822568e-19
4.583930647747854e-03 0.000000000000000e+00 2.105705705793604e-19
4.583911816675314e-03 0.000000000000000e+00 2.105709105891668e-19
4.583892950933691e-03 0.000000000000000e+00 2.105712511411884e-19
4.583874041655346e-03 0.000000000000000e+00 2.105715924345363e-19
4.583855097076043e-03 0.000000000000000e+00 2.105719342957079e-19
4.583836108328068e-03 0.000000000000000e+00 2.105722768824205e-19
4.583817081508877e-03 0.000000000000000e+00 2.105726200946516e-19
4.583798016302413e-03 0.000000000000000e+00 2.105729639073609e-19
4.583778905977414e-03 0.000000000000000e+00 2.105733084881528e-19
4.583759758769725e-03 0.000000000000000e+00 2.105736536516862e-19
4.583740565810934e-03 0.000000000000000e+00 2.105739996011077e-19
4.583721335335352e-03 0.000000000000000e+00 2.105743461340336e-19
4.583702058475035e-03 0.000000000000000e+00 2.105746934607872e-19
4.583682743463345e-03 0.000000000000000e+00 2.105750414073012e-19
4.583663381433526e-03 0.000000000000000e+00 2.105753901407773e-19
4.583643980617866e-03 0.000000000000000e+00 2.105757394743439e-19
4.583624532148785e-03 0.000000000000000e+00 2.105760896295387e-19
4.583605042121333e-03 0.000000000000000e+00 2.105764404679886e-19
4.583585510219668e-03 0.000000000000000e+00 2.105767919793018e-19
4.583565929711521e-03 0.000000000000000e+00 2.105771443195242e-19
4.583546308831071e-03 0.000000000000000e+00 2.105774973028981e-19
4.583526638710284e-03 0.000000000000000e+00 2.105778511327531e-19
4.583506927581319e-03 0.000000000000000e+00 2.105782056195709e-19
4.583487166575913e-03 0.000000000000000e+00 2.105785609438513e-19
4.583467363929098e-03 0.000000000000000e+00 2.105789169446457e-19
4.583447510769228e-03 0.000000000000000e+00 2.105792738095097e-19
4.583427613194371e-03 0.000000000000000e+00 2.105796313793551e-19
4.583407670886201e-03 0.000000000000000e+00 2.105799897017573e-19
4.583387677113596e-03 0.000000000000000e+00 2.105803488831576e-19
4.583367640110490e-03 0.000000000000000e+00 2.105807087834598e-19
4.583347551007429e-03 0.000000000000000e+00 2.105810695652764e-19
4.583327418038147e-03 0.000000000000000e+00 2.105814310436782e-19
4.583307232334737e-03 0.000000000000000e+00 2.105817934192799e-19
4.583287002130196e-03 0.000000000000000e+00 2.105821565288440e-19
4.583266718556201e-03 0.000000000000000e+00 2.105825205498934e-19
4.583246389846285e-03 0.000000000000000e+00 2.105828852841093e-19
4.583226007132237e-03 0.000000000000000e+00 2.105832509472981e-19
4.583205576509815e-03 0.000000000000000e+00 2.105836173984936e-19
4.583185097661997e-03 0.000000000000000e+00 2.105839846328794e-19
4.583164563858946e-03 0.000000000000000e+00 2.105843528219490e-19
4.583143983333323e-03 0.000000000000000e+00 2.105847217468562e-19
4.583123347219002e-03 0.000000000000000e+00 2.105850916339204e-19
4.583102663748192e-03 0.000000000000000e+00 2.105854622883393e-19
4.583081924054764e-03 0.000000000000000e+00 2.105858339019655e-19
4.583061136372068e-03 0.000000000000000e+00 2.105862062835086e-19
4.583040291833300e-03 0.000000000000000e+00 2.105865796520597e-19
4.583019396534943e-03 0.000000000000000e+00 2.105869538460782e-19
4.582998450160511e-03 0.000000000000000e+00 2.105873288844520e-19
4.582977445981208e-03 0.000000000000000e+00 2.105877048952370e-19
4.582956392232022e-03 0.000000000000000e+00 2.105880817309493e-19
4.582935280044787e-03 0.000000000000000e+00 2.105884595605275e-19
4.582914117656356e-03 0.000000000000000e+00 2.105888382082984e-19
4.582892896199279e-03 0.000000000000000e+00 2.105892178661268e-19
4.582871623909269e-03 0.000000000000000e+00 2.105895983481810e-19
4.582850291920591e-03 0.000000000000000e+00 2.105899798471901e-19
4.582828908468711e-03 0.000000000000000e+00 2.105903621761457e-19
4.582807464687774e-03 0.000000000000000e+00 2.105907455606263e-19
4.582785966676006e-03 0.000000000000000e+00 2.105911298191749e-19
4.582764414118996e-03 0.000000000000000e+00 2.105915149843948e-19
4.582742800290200e-03 0.000000000000000e+00 2.105919012052644e-19
4.582721133424995e-03 0.000000000000000e+00 2.105922882816302e-19
4.582699404658479e-03 0.000000000000000e+00 2.105926764138789e-19
4.582677622229238e-03 0.000000000000000e+00 2.105930654218310e-19
4.582655777271842e-03 0.000000000000000e+00 2.105934555121996e-19
4.582633878023616e-03 0.000000000000000e+00 2.105938464832461e-19
4.582611915620520e-03 0.000000000000000e+00 2.105942385189972e-19
4.582589896163896e-03 0.000000000000000e+00 2.105946315178256e-19
4.582567819340091e-03 0.000000000000000e+00 2.105950254515733e-19
4.582545678423659e-03 0.000000000000000e+00 2.105954204929469e-19
4.582523481653729e-03 0.000000000000000e+00 2.105958164353419e-19
4.582501220166958e-03 0.000000000000000e+00 2.105962134872383e-19
4.582478902203201e-03 0.000000000000000e+00 2.105966114590200e-19
4.582456518899279e-03 0.000000000000000e+00 2.105970105727971e-19
4.582434078495551e-03 0.000000000000000e+00 2.105974105896105e-19
4.582411572129322e-03 0.000000000000000e+00 2.105978117471498e-19
4.582389008042693e-03 0.000000000000000e+00 2.105982138598482e-19
4.582366377371930e-03 0.000000000000000e+00 2.105986170928053e-19
4.582343686222522e-03 0.000000000000000e+00 2.105990213333108e-19
4.582320934283379e-03 0.000000000000000e+00 2.105994265948000e-19
4.582298114831346e-03 0.000000000000000e+00 2.105998329954906e-19
4.582275236109449e-03 0.000000000000000e+00 2.106002403685451e-19
4.582252289256466e-03 0.000000000000000e+00 2.106006489136947e-19
4.582229282515519e-03 0.000000000000000e+00 2.106010584287182e-19
4.582206207027281e-03 0.000000000000000e+00 2.106014691262830e-19
4.582183071034443e-03 0.000000000000000e+00 2.106018808202073e-19
4.582159865677519e-03 0.000000000000000e+00 2.106022936980112e-19
4.582136597064490e-03 0.000000000000000e+00 2.106027076207325e-19
4.582113264886271e-03 0.000000000000000e+00 2.106031225955685e-19
4.582089862423498e-03 0.000000000000000e+00 2.106035387814062e-19
4.582066397920861e-03 0.000000000000000e+00 2.106039559851943e-19
4.582042862521167e-03 0.000000000000000e+00 2.106043744002458e-19
4.582019264470408e-03 0.000000000000000e+00 2.106047938409171e-19
4.581995594910435e-03 0.000000000000000e+00 2.106052145024005e-19
4.581971862088558e-03 0.000000000000000e+00 2.106056362048388e-19
4.581948057147939e-03 0.000000000000000e+00 2.106060591401989e-19
4.581924188337102e-03 0.000000000000000e+00 2.106064831161905e-19
4.581900246798908e-03 0.000000000000000e+00 2.106069083486435e-19
4.581876238644352e-03 0.000000000000000e+00 2.106073346843025e-19
4.581852163569265e-03 0.000000000000000e+00 2.106077621419456e-19
4.581828014857651e-03 0.000000000000000e+00 2.106081908393651e-19
4.581803800758492e-03 0.000000000000000e+00 2.106086206152784e-19
4.581779512417602e-03 0.000000000000000e+00 2.106090516651935e-19
4.581755158084441e-03 0.000000000000000e+00 2.106094838078439e-19
4.581730728907719e-03 0.000000000000000e+00 2.106099172196834e-19
4.581706233135605e-03 0.000000000000000e+00 2.106103517343252e-19
4.581681661917759e-03 0.000000000000000e+00 2.106107875227018e-19
4.581657021366170e-03 0.000000000000000e+00 2.106112244845792e-19
4.581632311181518e-03 0.000000000000000e+00 2.106116625867960e-19
4.581607524650112e-03 0.000000000000000e+00 2.106121020089057e-19
4.581582670025615e-03 0.000000000000000e+00 2.106125425364530e-19
4.581557738456537e-03 0.000000000000000e+00 2.106129844000534e-19
4.581532738196828e-03 0.000000000000000e+00 2.106134273675379e-19
4.581507660395749e-03 0.000000000000000e+00 2.106138716816461e-19
4.581482513309423e-03 0.000000000000000e+00 2.106143171195086e-19
4.581457288087498e-03 0.000000000000000e+00 2.106147639034331e-19
4.581431992985018e-03 0.000000000000000e+00 2.106152118439509e-19
4.581406619155448e-03 0.000000000000000e+00 2.106156611155963e-19
4.581381172715014e-03 0.000000000000000e+00 2.106161116082994e-19
4.581355653368853e-03 0.000000000000000e+00 2.106165633065403e-19
4.581330054408461e-03 0.000000000000000e+00 2.106170163693810e-19
4.581304384090374e-03 0.000000000000000e+00 2.106174705898241e-19
4.581278633569113e-03 0.000000000000000e+00 2.106179261978046e-19
4.581252811103159e-03 0.000000000000000e+00 2.106183830017220e-19
4.581226907845909e-03 0.000000000000000e+00 2.106188411734682e-19
4.581200932057796e-03 0.000000000000000e+00 2.106193005263696e-19
4.581174874893595e-03 0.000000000000000e+00 2.106197612951692e-19
4.581148742475323e-03 0.000000000000000e+00 2.106202233002435e-19
4.581122534512019e-03 0.000000000000000e+00 2.106206865589949e-19
4.581096244298128e-03 0.000000000000000e+00 2.106211512300131e-19
4.581069880094354e-03 0.000000000000000e+00 2.106216171175792e-19
4.581043433059638e-03 0.000000000000000e+00 2.106220844250638e-19
4.581016911454905e-03 0.000000000000000e+00 2.106225529625498e-19
4.580990306439583e-03 0.000000000000000e+00 2.106230229397313e-19
4.580963626276946e-03 0.000000000000000e+00 2.106234941222703e-19
4.580936862125006e-03 0.000000000000000e+00 2.106239667526773e-19
4.580910022249281e-03 0.000000000000000e+00 2.106244406313047e-19
4.580883097810594e-03 0.000000000000000e+00 2.106249159695161e-19
4.580856094933519e-03 0.000000000000000e+00 2.106253926007246e-19
4.580829013333254e-03 0.000000000000000e+00 2.106258705341645e-19
4.580801846309361e-03 0.000000000000000e+00 2.106263499378403e-19
4.580774602126832e-03 0.000000000000000e+00 2.106268306048156e-19
4.580747271949954e-03 0.000000000000000e+00 2.106273127427753e-19
4.580719864044696e-03 0.000000000000000e+00 2.106277961682703e-19
4.580692369575292e-03 0.000000000000000e+00 2.106282810798578e-19
4.580664796809340e-03 0.000000000000000e+00 2.106287672607759e-19
4.580637136911094e-03 0.000000000000000e+00 2.106292549417961e-19
4.580609396012446e-03 0.000000000000000e+00 2.106297439685025e-19
4.580581573829318e-03 0.000000000000000e+00 2.106302343473098e-19
4.580553663667852e-03 0.000000000000000e+00 2.106307262337195e-19
4.580525673795407e-03 0.000000000000000e+00 2.106312194326293e-19
4.580497595381046e-03 0.000000000000000e+00 2.106317141274166e-19
4.580469436694883e-03 0.000000000000000e+00 2.106322101668602e-19
4.580441188905320e-03 0.000000000000000e+00 2.106327077126883e-19
4.580412860283814e-03 0.000000000000000e+00 2.106332066077784e-19
4.580384441999268e-03 0.000000000000000e+00 2.106337070263575e-19
4.580355942324749e-03 0.000000000000000e+00 2.106342087760013e-19
4.580327352429358e-03 0.000000000000000e+00 2.106347120802762e-19
4.580298678449423e-03 0.000000000000000e+00 2.106352167751151e-19
4.580269920107561e-03 0.000000000000000e+00 2.106357228783433e-19
4.580241070711648e-03 0.000000000000000e+00 2.106362305293730e-19
4.580212138538450e-03 0.000000000000000e+00 2.106367395404423e-19
4.580183114759236e-03 0.000000000000000e+00 2.106372501210658e-19
4.580154007648559e-03 0.000000000000000e+00 2.106377620925746e-19
4.580124808381902e-03 0.000000000000000e+00 2.106382756076002e-19
4.580095525233824e-03 0.000000000000000e+00 2.106387905147646e-19
4.580066149380158e-03 0.000000000000000e+00 2.106393070179425e-19
4.580036686959030e-03 0.000000000000000e+00 2.106398249452861e-19
4.580007137697152e-03 0.000000000000000e+00 2.106403443204175e-19
4.579977494909364e-03 0.000000000000000e+00 2.106408653033925e-19
4.579947766872471e-03 0.000000000000000e+00 2.106413876835740e-19
4.579917944763355e-03 0.000000000000000e+00 2.106419116663926e-19
4.579888036862334e-03 0.000000000000000e+00 2.106424370592773e-19
4.579858034346524e-03 0.000000000000000e+00 2.106429640628283e-19
4.579827945495703e-03 0.000000000000000e+00 2.106434925098273e-19
4.579797761488838e-03 0.000000000000000e+00 2.106440225534542e-19
4.579767490606164e-03 0.000000000000000e+00 2.106445540520444e-19
4.579737124028318e-03 0.000000000000000e+00 2.106450871681854e-19
4.579706667898306e-03 0.000000000000000e+00 2.106456217776938e-19
4.579676121947962e-03 0.000000000000000e+00 2.106461578631522e-19
4.579645479494970e-03 0.000000000000000e+00 2.106466956201780e-19
4.579614748823556e-03 0.000000000000000e+00 2.106472348200666e-19
4.579583921114278e-03 0.000000000000000e+00 2.106477756731687e-19
4.579553004651892e-03 0.000000000000000e+00 2.106483179976270e-19
4.579521990617660e-03 0.000000000000000e+00 2.106488619654808e-19
4.579490887297514e-03 0.000000000000000e+00 2.106494074084696e-19
4.579459685873563e-03 0.000000000000000e+00 2.106499545445730e-19
4.579428394632604e-03 0.000000000000000e+00 2.106505031472626e-19
4.579397004757217e-03 0.000000000000000e+00 2.106510534167483e-19
4.579365522396972e-03 0.000000000000000e+00 2.106516052241158e-19
4.579333947287919e-03 0.000000000000000e+00 2.106521585808534e-19
4.579302272752061e-03 0.000000000000000e+00 2.106527136362268e-19
4.579270507077450e-03 0.000000000000000e+00 2.106532702001177e-19
4.579238641449955e-03 0.000000000000000e+00 2.106538284683808e-19
4.579206684157754e-03 0.000000000000000e+00 2.106543882325409e-19
4.579174626388288e-03 0.000000000000000e+00 2.106549497002000e-19
4.579142476429733e-03 0.000000000000000e+00 2.106555127008443e-19
4.579110225469408e-03 0.000000000000000e+00 2.106560774010276e-19
4.579077879660734e-03 0.000000000000000e+00 2.106566436961934e-19
4.579045438741967e-03 0.000000000000000e+00 2.106572115627417e-19
4.579012896039342e-03 0.000000000000000e+00 2.106577811545712e-19
4.578980259844028e-03 0.000000000000000e+00 2.106583522909120e-19
4.578947521345000e-03 0.000000000000000e+00 2.106589251883643e-19
4.578914688834757e-03 0.000000000000000e+00 2.106594996073724e-19
4.578881753502201e-03 0.000000000000000e+00 2.106600757863165e-19
4.578848723640427e-03 0.000000000000000e+00 2.106606535246532e-19
4.578815590439839e-03 0.000000000000000e+00 2.106612330116201e-19
4.578782362193037e-03 0.000000000000000e+00 2.106618140576007e-19
4.578749030092163e-03 0.000000000000000e+00 2.106623968870904e-19
4.578715600291673e-03 0.000000000000000e+00 2.106629813291383e-19
4.578682072536434e-03 0.000000000000000e+00 2.106635673935498e-19
4.578648440154898e-03 0.000000000000000e+00 2.106641552442707e-19
4.578614711442685e-03 0.000000000000000e+00 2.106647446744589e-19
4.578580877591784e-03 0.000000000000000e+00 2.106653358937432e-19
4.578546946897564e-03 0.000000000000000e+00 2.106659287079754e-19
4.578512910553844e-03 0.000000000000000e+00 2.106665233174046e-19
4.578478776856668e-03 0.000000000000000e+00 2.106671195178868e-19
4.578444536998879e-03 0.000000000000000e+00 2.106677175146459e-19
4.578410197140761e-03 0.000000000000000e+00 2.106683171906182e-19
4.578375757026444e-03 0.000000000000000e+00 2.106689185379932e-19
4.578341209988315e-03 0.000000000000000e+00 2.106695216707214e-19
4.578306564325305e-03 0.000000000000000e+00 2.106701264536130e-19
4.578271811231265e-03 0.000000000000000e+00 2.106707330499313e-19
4.578236959003969e-03 0.000000000000000e+00 2.106713412688424e-19
4.578201998839451e-03 0.000000000000000e+00 2.106719513141772e-19
4.578166939035936e-03 0.000000000000000e+00 2.106725630042882e-19
4.578131770789671e-03 0.000000000000000e+00 2.106731765402866e-19
4.578096502399502e-03 0.000000000000000e+00 2.106737917276260e-19
4.578061125060826e-03 0.000000000000000e+00 2.106744087590164e-19
4.578025647073835e-03 0.000000000000000e+00 2.106750274302218e-19
4.577990061774013e-03 0.000000000000000e+00 2.106756479335570e-19
4.577954368908227e-03 0.000000000000000e+00 2.106762702344515e-19
4.577918574638774e-03 0.000000000000000e+00 2.106768941997794e-19
4.577882672301328e-03 0.000000000000000e+00 2.106775199863099e-19
4.577846663783320e-03 0.000000000000000e+00 2.106781475528093e-19
4.577810546694876e-03 0.000000000000000e+00 2.106787769255342e-19
4.577774327198662e-03 0.000000000000000e+00 2.106794079873286e-19
4.577737998630348e-03 0.000000000000000e+00 2.106800409146142e-19
4.577701560741364e-03 0.000000000000000e+00 2.106806756189981e-19
4.577665019692955e-03 0.000000000000000e+00 2.106813120790632e-19
4.577628366684357e-03 0.000000000000000e+00 2.106819504144699e-19
4.577591610016487e-03 0.000000000000000e+00 2.106825904245209e-19
4.577554740888162e-03 0.000000000000000e+00 2.106832323470265e-19
4.577517767601405e-03 0.000000000000000e+00 2.106838759920897e-19
4.577480681354427e-03 0.000000000000000e+00 2.106845215708534e-19
4.577443490449613e-03 0.000000000000000e+00 2.106851688357239e-19
4.577406186085772e-03 0.000000000000000e+00 2.106858180446863e-19
4.577368776564061e-03 0.000000000000000e+00 2.106864689571155e-19
4.577331253084928e-03 0.000000000000000e+00 2.106871218221279e-19
4.577293623949243e-03 0.000000000000000e+00 2.106877763927570e-19
4.577255882495175e-03 0.000000000000000e+00 2.106884328330102e-19
4.577218028472545e-03 0.000000000000000e+00 2.106890912374600e-19
4.577180068045806e-03 0.000000000000000e+00 2.106897513267610e-19
4.577141994553539e-03 0.000000000000000e+00 2.106904133382259e-19
4.577103809882520e-03 0.000000000000000e+00 2.106910771891340e-19
4.577065511647156e-03 0.000000000000000e+00 2.106917429519250e-19
4.577027106010292e-03 0.000000000000000e+00 2.106924104859142e-19
4.576988586310806e-03 0.000000000000000e+00 2.106930798839220e-19
4.576949952298953e-03 0.000000000000000e+00 2.106937512777919e-19
4.576911210138528e-03 0.000000000000000e+00 2.106944243757219e-19
4.576872351029907e-03 0.000000000000000e+00 2.106950994682260e-19
4.576833383273823e-03 0.000000000000000e+00 2.106957763509471e-19
4.576794298070523e-03 0.000000000000000e+00 2.106964552474961e-19
4.576755103721939e-03 0.000000000000000e+00 2.106971358856457e-19
4.576715791426049e-03 0.000000000000000e+00 2.106978185062116e-19
4.576676369485975e-03 0.000000000000000e+00 2.106985029772605e-19
4.576636829099628e-03 0.000000000000000e+00 2.106991893931047e-19
4.576597178569084e-03 0.000000000000000e+00 2.106998776343385e-19
4.576557409093250e-03 0.000000000000000e+00 2.107005678716474e-19
4.576517526835095e-03 0.000000000000000e+00 2.107012599841207e-19
4.576477531544085e-03 0.000000000000000e+00 2.107019539749485e-19
4.576437416557603e-03 0.000000000000000e+00 2.107026499664939e-19
4.576397190175920e-03 0.000000000000000e+00 2.107033478026243e-19
4.576356843596188e-03 0.000000000000000e+00 2.107040476236445e-19
4.576316385120584e-03 0.000000000000000e+00 2.107047492800267e-19
4.576275805945587e-03 0.000000000000000e+00 2.107054529707036e-19
4.576235114370918e-03 0.000000000000000e+00 2.107061585329190e-19
4.576194301595176e-03 0.000000000000000e+00 2.107068661259593e-19
4.576153375916681e-03 0.000000000000000e+00 2.107075755578536e-19
4.576112330670238e-03 0.000000000000000e+00 2.107082869973836e-19
4.576071165604326e-03 0.000000000000000e+00 2.107090004159767e-19
4.576029886880004e-03 0.000000000000000e+00 2.107097157067060e-19
4.575988487830081e-03 0.000000000000000e+00 2.107104329933527e-19
4.575946970341106e-03 0.000000000000000e+00 2.107111523013003e-19
4.575905332020296e-03 0.000000000000000e+00 2.107118735720534e-19
4.575863579029139e-03 0.000000000000000e+00 2.107125967396277e-19
4.575821704698099e-03 0.000000000000000e+00 2.107133219423751e-19
4.575779710913041e-03 0.000000000000000e+00 2.107140490965306e-19
4.575737595280877e-03 0.000000000000000e+00 2.107147782758678e-19
4.575695361821942e-03 0.000000000000000e+00 2.107155094442251e-19
4.575653010280806e-03 0.000000000000000e+00 2.107162425164187e-19
4.575610533989548e-03 0.000000000000000e+00 2.107169777032619e-19
4.575567941241860e-03 0.000000000000000e+00 2.107177147911617e-19
4.575525223231697e-03 0.000000000000000e+00 2.107184539609070e-19
4.575482388252740e-03 0.000000000000000e+00 2.107191950796801e-19
4.575439427495823e-03 0.000000000000000e+00 2.107199382636851e-19
4.575396349254448e-03 0.000000000000000e+00 2.107206834206422e-19
4.575353144720836e-03 0.000000000000000e+00 2.107214306675956e-19
4.575309820047986e-03 0.000000000000000e+00 2.107221798487936e-19
4.575266374977669e-03 0.000000000000000e+00 2.107229310701665e-19
4.575222802837125e-03 0.000000000000000e+00 2.107236844180381e-19
4.575179111916229e-03 0.000000000000000e+00 2.107244396624613e-19
4.575135293404615e-03 0.000000000000000e+00 2.107251970406359e-19
4.575091355590984e-03 0.000000000000000e+00 2.107259564191911e-19
4.575047289663659e-03 0.000000000000000e+00 2.107267178912728e-19
4.575003103910995e-03 0.000000000000000e+00 2.107274813556457e-19
4.574958789518044e-03 0.000000000000000e+00 2.107282469491343e-19
4.574914354774219e-03 0.000000000000000e+00 2.107290145136960e-19
4.574869790863650e-03 0.000000000000000e+00 2.107297842708999e-19
4.574825103934478e-03 0.000000000000000e+00 2.107305560048490e-19
4.574670435367818e-03 0.000000000000000e+00 2.107339365067669e-19
4.574735355684212e-03 0.000000000000000e+00 2.107321056521025e-19
4.574690291692400e-03 0.000000000000000e+00 2.107328836389156e-19
4.574645099342478e-03 0.000000000000000e+00 2.107336637619123e-19
4.592873614319448e-03 0.000000000000000e+00 2.104036461254299e-19
4.592845761866147e-03 0.000000000000000e+00 2.104041762594331e-19
4.592817977137424e-03 0.000000000000000e+00 2.104047050847954e-19
4.592790266274895e-03 0.000000000000000e+00 2.104052324284945e-19
4.592762620453915e-03 0.000000000000000e+00 2.104057585033792e-19
4.592735045815907e-03 0.000000000000000e+00 2.104062831752219e-19
4.592707542092465e-03 0.000000000000000e+00 2.104068064369237e-19
4.592680102600393e-03 0.000000000000000e+00 2.104073284428164e-19
4.592652735624354e-03 0.000000000000000e+00 2.104078490202795e-19
4.592625432345661e-03 0.000000000000000e+00 2.104083683645804e-19
4.592598201051138e-03 0.000000000000000e+00 2.104088862677197e-19
4.592571032924791e-03 0.000000000000000e+00 2.104094029423006e-19
4.592543936255037e-03 0.000000000000000e+00 2.104099181952279e-19
4.592516902229007e-03 0.000000000000000e+00 2.104104322365020e-19
4.592489939138251e-03 0.000000000000000e+00 2.104109448637487e-19
4.592463038169986e-03 0.000000000000000e+00 2.104114562848970e-19
4.592436205481260e-03 0.000000000000000e+00 2.104119663465315e-19
4.592409440812621e-03 0.000000000000000e+00 2.104124750745422e-19
4.592382739633752e-03 0.000000000000000e+00 2.104129825481423e-19
4.592356103826486e-03 0.000000000000000e+00 2.104134887515970e-19
4.592329530999889e-03 0.000000000000000e+00 2.104139937293822e-19
4.592303027313780e-03 0.000000000000000e+00 2.104144973317628e-19
4.592276586102420e-03 0.000000000000000e+00 2.104149996887862e-19
4.592250209252675e-03 0.000000000000000e+00 2.104155007987803e-19
4.592223894377223e-03 0.000000000000000e+00 2.104160006983077e-19
4.592197645503207e-03 0.000000000000000e+00 2.104164992990497e-19
4.592171462381439e-03 0.000000000000000e+00 2.104169965954313e-19
4.592145338353000e-03 0.000000000000000e+00 2.104174927564620e-19
4.592119281722100e-03 0.000000000000000e+00 2.104179875680595e-19
4.592093283692845e-03 0.000000000000000e+00 2.104184812435346e-19
4.592067352573535e-03 0.000000000000000e+00 2.104189735825152e-19
4.592041479568647e-03 0.000000000000000e+00 2.104194648032040e-19
4.592015672988606e-03 0.000000000000000e+00 2.104199546997966e-19
4.591989924040423e-03 0.000000000000000e+00 2.104204434894561e-19
4.591964241034955e-03 0.000000000000000e+00 2.104209309643357e-19
4.591938615183118e-03 0.000000000000000e+00 2.104214173312061e-19
4.591913052659155e-03 0.000000000000000e+00 2.104219024603607e-19
4.591887553225427e-03 0.000000000000000e+00 2.104223863177142e-19
4.591862110232670e-03 0.000000000000000e+00 2.104228691098658e-19
4.591836731997319e-03 0.000000000000000e+00 2.104233506041910e-19
4.591811409732007e-03 0.000000000000000e+00 2.104238310164239e-19
4.591786151755096e-03 0.000000000000000e+00 2.104243101446269e-19
4.591760949282476e-03 0.000000000000000e+00 2.104247882193174e-19
4.591735810633491e-03 0.000000000000000e+00 2.104252650027606e-19
4.591710727025311e-03 0.000000000000000e+00 2.104257407333063e-19
4.591685704641374e-03 0.000000000000000e+00 2.104262152511043e-19
4.591660743252396e-03 0.000000000000000e+00 2.104266885699979e-19
4.591635838353468e-03 0.000000000000000e+00 2.104271607928907e-19
4.591610991855456e-03 0.000000000000000e+00 2.104276318690835e-19
4.591586201393462e-03 0.000000000000000e+00 2.104281018530874e-19
4.591561473153861e-03 0.000000000000000e+00 2.104285705997414e-19
4.591536800499029e-03 0.000000000000000e+00 2.104290382640855e-19
4.591512185341527e-03 0.000000000000000e+00 2.104295048143024e-19
4.591487625319371e-03 0.000000000000000e+00 2.104299702720223e-19
4.591463126623299e-03 0.000000000000000e+00 2.104304345204642e-19
4.591438682618112e-03 0.000000000000000e+00 2.104308977013735e-19
4.591414293082088e-03 0.000000000000000e+00 2.104313598243689e-19
4.591389964207458e-03 0.000000000000000e+00 2.104318207528021e-19
4.591365687223169e-03 0.000000000000000e+00 2.104322806687607e-19
4.591341470461065e-03 0.000000000000000e+00 2.104327393849669e-19
4.591317305151723e-03 0.000000000000000e+00 2.104331971355557e-19
4.591293199627996e-03 0.000000000000000e+00 2.104336536734692e-19
4.591269145121754e-03 0.000000000000000e+00 2.104341092270774e-19
4.591245149968022e-03 0.000000000000000e+00 2.104345636270294e-19
4.591221205398871e-03 0.000000000000000e+00 2.104350170173721e-19
4.591197317613953e-03 0.000000000000000e+00 2.104354693241019e-19
4.591173486397726e-03 0.000000000000000e+00 2.104359204951372e-19
4.591149705123506e-03 0.000000000000000e+00 2.104363707174061e-19
4.591125982129479e-03 0.000000000000000e+00 2.104368197685016e-19
4.591102308652006e-03 0.000000000000000e+00 2.104372678631878e-19
4.591078693029989e-03 0.000000000000000e+00 2.104377148174110e-19
4.591055126501927e-03 0.000000000000000e+00 2.104381608352039e-19
4.591031617407627e-03 0.000000000000000e+00 2.104386056924218e-19
4.591008156986620e-03 0.000000000000000e+00 2.104390496216577e-19
4.590984753580276e-03 0.000000000000000e+00 2.104394924244166e-19
4.590961398428710e-03 0.000000000000000e+00 2.104399343033863e-19
4.590938099875977e-03 0.000000000000000e+00 2.104403750492973e-19
4.590914851299922e-03 0.000000000000000e+00 2.104408148290333e-19
4.590891652494235e-03 0.000000000000000e+00 2.104412536391293e-19
4.590868509665497e-03 0.000000000000000e+00 2.104416913338022e-19
4.590845416195173e-03 0.000000000000000e+00 2.104421280833019e-19
4.590822374014709e-03 0.000000000000000e+00 2.104425638300649e-19
4.590799380782626e-03 0.000000000000000e+00 2.104429986196849e-19
4.590776442708307e-03 0.000000000000000e+00 2.104434323118192e-19
4.590753553173691e-03 0.000000000000000e+00 2.104438650750349e-19
4.590730711976522e-03 0.000000000000000e+00 2.104442968874916e-19
4.590707925326802e-03 0.000000000000000e+00 2.104447276188876e-19
4.590685184472124e-03 0.000000000000000e+00 2.104451574791432e-19
4.590662497761456e-03 0.000000000000000e+00 2.104455862658362e-19
4.590639856442509e-03 0.000000000000000e+00 2.104460141635994e-19
4.590617268866343e-03 0.000000000000000e+00 2.104464410049844e-19
4.590594726281302e-03 0.000000000000000e+00 2.104468669900603e-19
4.590572237038774e-03 0.000000000000000e+00 2.104472918967686e-19
4.590549792389439e-03 0.000000000000000e+00 2.104477159659781e-19
4.590527400683995e-03 0.000000000000000e+00 2.104481389879066e-19
4.590505053173600e-03 0.000000000000000e+00 2.104485611393080e-19
4.590482758212732e-03 0.000000000000000e+00 2.104489822631775e-19
4.590460509189208e-03 0.000000000000000e+00 2.104494025000515e-19
4.590438305906403e-03 0.000000000000000e+00 2.104498218295271e-19
4.590416154581873e-03 0.000000000000000e+00 2.104502401548261e-19
4.590394046467019e-03 0.000000000000000e+00 2.104506576403934e-19
4.590371989917496e-03 0.000000000000000e+00 2.104510740841086e-19
4.590349976188274e-03 0.000000000000000e+00 2.104514897246148e-19
4.590328013633471e-03 0.000000000000000e+00 2.104519043375364e-19
4.590306093508943e-03 0.000000000000000e+00 2.104523181581527e-19
4.590284222032246e-03 0.000000000000000e+00 2.104527310107955e-19
4.590262399010767e-03 0.000000000000000e+00 2.104531429092734e-19
4.590240617837371e-03 0.000000000000000e+00 2.104535539987457e-19
4.590218886870438e-03 0.000000000000000e+00 2.104539640914413e-19
4.590197197364759e-03 0.000000000000000e+00 2.104543733865938e-19
4.590175557680024e-03 0.000000000000000e+00 2.104547817004676e-19
4.590153959072430e-03 0.000000000000000e+00 2.104551892362276e-19
4.590132409901916e-03 0.000000000000000e+00 2.104555957655813e-19
4.590110901424859e-03 0.000000000000000e+00 2.104560015357760e-19
4.590089442002661e-03 0.000000000000000e+00 2.104564063268524e-19
4.590068022892180e-03 0.000000000000000e+00 2.104568103323272e-19
4.590046650316135e-03 0.000000000000000e+00 2.104572134357479e-19
4.590025324084612e-03 0.000000000000000e+00 2.104576156219614e-19
4.590004037594013e-03 0.000000000000000e+00 2.104580170409952e-19
4.589982799205733e-03 0.000000000000000e+00 2.104584175042565e-19
4.589961600179053e-03 0.000000000000000e+00 2.104588172220906e-19
4.589940448875836e-03 0.000000000000000e+00 2.104592159986930e-19
4.589919336556465e-03 0.000000000000000e+00 2.104596140220351e-19
4.589898271583071e-03 0.000000000000000e+00 2.104600111035168e-19
4.589877245214672e-03 0.000000000000000e+00 2.104604074275023e-19
4.589856263678243e-03 0.000000000000000e+00 2.104608028959956e-19
4.589835326784668e-03 0.000000000000000e+00 2.104611974672479e-19
4.589814427932742e-03 0.000000000000000e+00 2.104615913085432e-19
4.589793575486657e-03 0.000000000000000e+00 2.104619842339544e-19
4.589772760706562e-03 0.000000000000000e+00 2.104623764436980e-19
4.589751991957106e-03 0.000000000000000e+00 2.104627677191217e-19
4.589731260500152e-03 0.000000000000000e+00 2.104631583014156e-19
4.589710574699516e-03 0.000000000000000e+00 2.104635479670261e-19
4.589689925818056e-03 0.000000000000000e+00 2.104639369263913e-19
4.589669322219930e-03 0.000000000000000e+00 2.104643249934598e-19
4.589648755166958e-03 0.000000000000000e+00 2.104647123517908e-19
4.589628230886501e-03 0.000000000000000e+00 2.104650988749648e-19
4.589607749192849e-03 0.000000000000000e+00 2.104654845372570e-19
4.589587303486567e-03 0.000000000000000e+00 2.104658695367370e-19
4.589566902132595e-03 0.000000000000000e+00 2.104662536374229e-19
4.589546536394632e-03 0.000000000000000e+00 2.104666370673390e-19
4.589526214637068e-03 0.000000000000000e+00 2.104670196160491e-19
4.589505928124493e-03 0.000000000000000e+00 2.104674014833604e-19
4.589485685222090e-03 0.000000000000000e+00 2.104677824969565e-19
4.589465477193205e-03 0.000000000000000e+00 2.104681628328283e-19
4.589445312403696e-03 0.000000000000000e+00 2.104685423066585e-19
4.589425182117597e-03 0.000000000000000e+00 2.104689211303599e-19
4.589405092563065e-03 0.000000000000000e+00 2.104692991418887e-19
4.589385043555468e-03 0.000000000000000e+00 2.104696763506451e-19
4.589365028495333e-03 0.000000000000000e+00 2.104700529190109e-19
4.589345055750029e-03 0.000000000000000e+00 2.104704286290074e-19
4.589325116583144e-03 0.000000000000000e+00 2.104708037188956e-19
4.589305219361313e-03 0.000000000000000e+00 2.104711779535493e-19
4.589285355347456e-03 0.000000000000000e+00 2.104715515656508e-19
4.589265532909341e-03 0.000000000000000e+00 2.104719243361591e-19
4.589245743310445e-03 0.000000000000000e+00 2.104722964976033e-19
4.589225992779396e-03 0.000000000000000e+00 2.104726678766827e-19
4.589206281131129e-03 0.000000000000000e+00 2.104730384842633e-19
4.589186601768320e-03 0.000000000000000e+00 2.104734084843800e-19
4.589166963056843e-03 0.000000000000000e+00 2.104737776492870e-19
4.589147356261092e-03 0.000000000000000e+00 2.104741462336043e-19
4.589127789747317e-03 0.000000000000000e+00 2.104745139909640e-19
4.589108254779119e-03 0.000000000000000e+00 2.104748811625583e-19
4.589088759724013e-03 0.000000000000000e+00 2.104752475198467e-19
4.589069295844162e-03 0.000000000000000e+00 2.104756132911092e-19
4.589049871507930e-03 0.000000000000000e+00 2.104759782833042e-19
4.589030477977246e-03 0.000000000000000e+00 2.104763426684830e-19
4.589011121481863e-03 0.000000000000000e+00 2.104767063260529e-19
4.588991801835950e-03 0.000000000000000e+00 2.104770692501521e-19
4.588972512440876e-03 0.000000000000000e+00 2.104774316023143e-19
4.588953261662666e-03 0.000000000000000e+00 2.104777931824626e-19
4.588934040765469e-03 0.000000000000000e+00 2.104781541840889e-19
4.588914858114056e-03 0.000000000000000e+00 2.104785144233241e-19
4.588895704972167e-03 0.000000000000000e+00 2.104788741032767e-19
4.588876589705527e-03 0.000000000000000e+00 2.104792330241249e-19
4.588857503577368e-03 0.000000000000000e+00 2.104795913811794e-19
4.588838452814477e-03 0.000000000000000e+00 2.104799490408011e-19
4.588819437231129e-03 0.000000000000000e+00 2.104803060068480e-19
4.588800450227713e-03 0.000000000000000e+00 2.104806624164644e-19
4.588781500170452e-03 0.000000000000000e+00 2.104810180956116e-19
4.588762578319387e-03 0.000000000000000e+00 2.104813732239689e-19
4.588743693041622e-03 0.000000000000000e+00 2.104817276239626e-19
4.588724835597729e-03 0.000000000000000e+00 2.104820815007248e-19
4.588706014352116e-03 0.000000000000000e+00 2.104824346396870e-19
4.588687220567731e-03 0.000000000000000e+00 2.104827872581454e-19
4.588668462607065e-03 0.000000000000000e+00 2.104831391579328e-19
4.588649731731786e-03 0.000000000000000e+00 2.104834905373806e-19
4.588631034169335e-03 0.000000000000000e+00 2.104838412619762e-19
4.588612369730033e-03 0.000000000000000e+00 2.104841913085155e-19
4.588593731813255e-03 0.000000000000000e+00 2.104845408718881e-19
4.588575128782247e-03 0.000000000000000e+00 2.104848897068613e-19
4.588556551897709e-03 0.000000000000000e+00 2.104852380695256e-19
4.588538009521231e-03 0.000000000000000e+00 2.104855857151808e-19
4.588519492913904e-03 0.000000000000000e+00 2.104859328812867e-19
4.588501010437649e-03 0.000000000000000e+00 2.104862793588356e-19
4.588482553351114e-03 0.000000000000000e+00 2.104866253414917e-19
4.588464127879210e-03 0.000000000000000e+00 2.104869707085039e-19
4.588445733831652e-03 0.000000000000000e+00 2.104873154314957e-19
4.588427364605898e-03 0.000000000000000e+00 2.104876596831335e-19
4.588409028561252e-03 0.000000000000000e+00 2.104880032737928e-19
4.588390716958176e-03 0.000000000000000e+00 2.104883463937337e-19
4.588372438155121e-03 0.000000000000000e+00 2.104886888444853e-19
4.588354183411262e-03 0.000000000000000e+00 2.104890308417078e-19
4.588335961086335e-03 0.000000000000000e+00 2.104893721869293e-19
4.588317762435991e-03 0.000000000000000e+00 2.104897130691742e-19
4.588299595821535e-03 0.000000000000000e+00 2.104900533086001e-19
4.588281452498834e-03 0.000000000000000e+00 2.104903931023901e-19
4.588263338687950e-03 0.000000000000000e+00 2.104907323030700e-19
4.588245254197584e-03 0.000000000000000e+00 2.104910709137648e-19
4.588227192420047e-03 0.000000000000000e+00 2.104914090923112e-19
4.588209161713405e-03 0.000000000000000e+00 2.104917466379076e-19
4.588191153333249e-03 0.000000000000000e+00 2.104920837659380e-19
4.588173175635631e-03 0.000000000000000e+00 2.104924202505084e-19
4.588155219876619e-03 0.000000000000000e+00 2.104927563330080e-19
4.588137294410939e-03 0.000000000000000e+00 2.104930917993036e-19
4.588119390493260e-03 0.000000000000000e+00 2.104934268370429e-19
4.588101514341580e-03 0.000000000000000e+00 2.104937613304311e-19
4.588083665759674e-03 0.000000000000000e+00 2.104940952595762e-19
4.588065838138458e-03 0.000000000000000e+00 2.104944288040394e-19
4.588048039832299e-03 0.000000000000000e+00 2.104947617274658e-19
4.588030262093376e-03 0.000000000000000e+00 2.104950942723236e-19
4.588012513275076e-03 0.000000000000000e+00 2.104954262164059e-19
4.587994784629600e-03 0.000000000000000e+00 2.104957577843352e-19
4.587977084508917e-03 0.000000000000000e+00 2.104960887657619e-19
4.587959404164042e-03 0.000000000000000e+00 2.104964193631778e-19
4.587941751947772e-03 0.000000000000000e+00 2.104967493821719e-19
4.587924119109099e-03 0.000000000000000e+00 2.104970790334252e-19
4.587906511862686e-03 0.000000000000000e+00 2.104974081747058e-19
4.587888930007496e-03 0.000000000000000e+00 2.104977367984372e-19
4.587871366930160e-03 0.000000000000000e+00 2.104980650487018e-19
4.587853830980437e-03 0.000000000000000e+00 2.104983927520642e-19
4.587836313407337e-03 0.000000000000000e+00 2.104987200959724e-19
4.587818822559183e-03 0.000000000000000e+00 2.104990468957123e-19
4.587801349683365e-03 0.000000000000000e+00 2.104993733617108e-19
4.587783903127611e-03 0.000000000000000e+00 2.104996992677486e-19
4.587766474138432e-03 0.000000000000000e+00 2.105000248306186e-19
4.587749068925790e-03 0.000000000000000e+00 2.105003499316378e-19
4.587731687286192e-03 0.000000000000000e+00 2.105006745349406e-19
4.587714322600678e-03 0.000000000000000e+00 2.105009988189522e-19
4.587696983216656e-03 0.000000000000000e+00 2.105013225795326e-19
4.587679660377597e-03 0.000000000000000e+00 2.105016460170394e-19
4.587662362428650e-03 0.000000000000000e+00 2.105019689456391e-19
4.587645080612906e-03 0.000000000000000e+00 2.105022915548154e-19
4.587627823274115e-03 0.000000000000000e+00 2.105026136516696e-19
4.587610581654723e-03 0.000000000000000e+00 2.105029354692609e-19
4.587593364097610e-03 0.000000000000000e+00 2.105032567584534e-19
4.587576161844333e-03 0.000000000000000e+00 2.105035777620853e-19
4.587558981099467e-03 0.000000000000000e+00 2.105038983303744e-19
4.587541821653042e-03 0.000000000000000e+00 2.105042184587548e-19
4.587524676882892e-03 0.000000000000000e+00 2.105045383004889e-19
4.587507555129640e-03 0.000000000000000e+00 2.105048576531642e-19
4.587490447632582e-03 0.000000000000000e+00 2.105051767400559e-19
4.587473362729955e-03 0.000000000000000e+00 2.105054953590475e-19
4.587456291660336e-03 0.000000000000000e+00 2.105058137016403e-19
4.587439242762782e-03 0.000000000000000e+00 2.105061315794756e-19
4.587422207272089e-03 0.000000000000000e+00 2.105064492018964e-19
4.587405191389529e-03 0.000000000000000e+00 2.105067664041353e-19
4.587388194901679e-03 0.000000000000000e+00 2.105070832144556e-19
4.587371211180222e-03 0.000000000000000e+00 2.105073997817669e-19
4.587354248562128e-03 0.000000000000000e+00 2.105077158911871e-19
4.587337298279947e-03 0.000000000000000e+00 2.105080317664483e-19
4.587320368669295e-03 0.000000000000000e+00 2.105083472106745e-19
4.587303450963514e-03 0.000000000000000e+00 2.105086624160023e-19
4.587286553495499e-03 0.000000000000000e+00 2.105089771950813e-19
4.587269667497189e-03 0.000000000000000e+00 2.105092917551290e-19
4.587252801301491e-03 0.000000000000000e+00 2.105096058836414e-19
4.587235946138976e-03 0.000000000000000e+00 2.105099198081242e-19
4.587219108203081e-03 0.000000000000000e+00 2.105102333597515e-19
4.587202287274528e-03 0.000000000000000e+00 2.105105465605259e-19
4.587185476719212e-03 0.000000000000000e+00 2.105108595485001e-19
4.587168684868204e-03 0.000000000000000e+00 2.105111721470300e-19
4.587151902947370e-03 0.000000000000000e+00 2.105114845478944e-19
4.587135139286982e-03 0.000000000000000e+00 2.105117965613692e-19
4.587118385112828e-03 0.000000000000000e+00 2.105121083872345e-19
4.587101648752795e-03 0.000000000000000e+00 2.105124198246892e-19
4.587084921432018e-03 0.000000000000000e+00 2.105127310880394e-19
4.587068209339415e-03 0.000000000000000e+00 2.105130420219417e-19
4.587051512249388e-03 0.000000000000000e+00 2.105133526451900e-19
4.587034823523120e-03 0.000000000000000e+00 2.105136630983776e-19
4.587018151486155e-03 0.000000000000000e+00 2.105139731955549e-19
4.587001487360602e-03 0.000000000000000e+00 2.105142831299551e-19
4.586984839468036e-03 0.000000000000000e+00 2.105145927105481e-19
4.586968199031795e-03 0.000000000000000e+00 2.105149021455232e-19
4.586951574373355e-03 0.000000000000000e+00 2.105152112403521e-19
4.586934956711800e-03 0.000000000000000e+00 2.105155201899076e-19
4.586918354369385e-03 0.000000000000000e+00 2.105158288162398e-19
4.586901758562453e-03 0.000000000000000e+00 2.105161372988466e-19
4.586885175475344e-03 0.000000000000000e+00 2.105164455176863e-19
4.586868604875543e-03 0.000000000000000e+00 2.105167534715011e-19
4.586852040117089e-03 0.000000000000000e+00 2.105170612965151e-19
4.586835489517631e-03 0.000000000000000e+00 2.105173687967898e-19
4.586818944293585e-03 0.000000000000000e+00 2.105176762106425e-19
4.586802412760140e-03 0.000000000000000e+00 2.105179833131442e-19
4.586785886132169e-03 0.000000000000000e+00 2.105182903336430e-19
4.586769372725051e-03 0.000000000000000e+00 2.105185970466120e-19
4.586752863751283e-03 0.000000000000000e+00 2.105189036644910e-19
4.586736365386375e-03 0.000000000000000e+00 2.105192100648315e-19
4.586719877394229e-03 0.000000000000000e+00 2.105195162313957e-19
4.586703393121751e-03 0.000000000000000e+00 2.105198223263058e-19
4.586686920882242e-03 0.000000000000000e+00 2.105201281440381e-19
4.586670451884263e-03 0.000000000000000e+00 2.105204339080850e-19
4.586653994439201e-03 0.000000000000000e+00 2.105207394057827e-19
4.586637539754061e-03 0.000000000000000e+00 2.105210448494150e-19
4.586621096139562e-03 0.000000000000000e+00 2.105213500625119e-19
4.586604654800899e-03 0.000000000000000e+00 2.105216552164499e-19
4.586588224046928e-03 0.000000000000000e+00 2.105219601368864e-19
4.586571795082294e-03 0.000000000000000e+00 2.105222650135416e-19
4.586555374076381e-03 0.000000000000000e+00 2.105225697380592e-19
4.586538960784292e-03 0.000000000000000e+00 2.105228742773093e-19
4.586522548545328e-03 0.000000000000000e+00 2.105231787980216e-19
4.586506145665290e-03 0.000000000000000e+00 2.105234831092635e-19
4.586489743346056e-03 0.000000000000000e+00 2.105237874324580e-19
4.586473349888561e-03 0.000000000000000e+00 2.105240915420280e-19
4.586456956495654e-03 0.000000000000000e+00 2.105243956686835e-19
4.586440571466959e-03 0.000000000000000e+00 2.105246995999403e-19
4.586424186000834e-03 0.000000000000000e+00 2.105250035598563e-19
4.586407806261036e-03 0.000000000000000e+00 2.105253073860924e-19
4.586391431994723e-03 0.000000000000000e+00 2.105256111040914e-19
4.586375056535421e-03 0.000000000000000e+00 2.105259148738327e-19
4.586358688181676e-03 0.000000000000000e+00 2.105262184661157e-19
4.586342318127281e-03 0.000000000000000e+00 2.105265221298307e-19
4.586325954668790e-03 0.000000000000000e+00 2.105268256469390e-19
4.586309588998305e-03 0.000000000000000e+00 2.105271292468914e-19
4.586293229410308e-03 0.000000000000000e+00 2.105274326983752e-19
4.586276867096433e-03 0.000000000000000e+00 2.105277362609780e-19
4.586260510348559e-03 0.000000000000000e+00 2.105280397044925e-19
4.586244150355120e-03 0.000000000000000e+00 2.105283432352786e-19
4.586227793269749e-03 0.000000000000000e+00 2.105286467529500e-19
4.586211438831141e-03 0.000000000000000e+00 2.105289502264407e-19
4.586195080362458e-03 0.000000000000000e+00 2.105292538263627e-19
4.586178726151237e-03 0.000000000000000e+00 2.105295573739985e-19
4.586162367381758e-03 0.000000000000000e+00 2.105298610667159e-19
4.586146012339568e-03 0.000000000000000e+00 2.105301647265528e-19
4.586129652205030e-03 0.000000000000000e+00 2.105304685481628e-19
4.586113295262382e-03 0.000000000000000e+00 2.105307723629683e-19
4.586096932689690e-03 0.000000000000000e+00 2.105310763684838e-19
4.586080570629461e-03 0.000000000000000e+00 2.105313804324067e-19
4.586064208809561e-03 0.000000000000000e+00 2.105316845828575e-19
4.586047840541833e-03 0.000000000000000e+00 2.105319889512707e-19
4.586031474102342e-03 0.000000000000000e+00 2.105322933977384e-19
4.586015100662525e-03 0.000000000000000e+00 2.105325981134944e-19
4.585998728494390e-03 0.000000000000000e+00 2.105329029049893e-19
4.585982348765328e-03 0.000000000000000e+00 2.105332080159945e-19
4.585965969744505e-03 0.000000000000000e+00 2.105335132433280e-19
4.585949582594415e-03 0.000000000000000e+00 2.105338188376436e-19
4.585933195578620e-03 0.000000000000000e+00 2.105341246023465e-19
4.585916799855602e-03 0.000000000000000e+00 2.105344307631250e-19
4.585900401545977e-03 0.000000000000000e+00 2.105347371983226e-19
4.585884000353866e-03 0.000000000000000e+00 2.105350439292848e-19
4.585867589566762e-03 0.000000000000000e+00 2.105353511665068e-19
4.585851177432597e-03 0.000000000000000e+00 2.105356586913010e-19
4.585834755094596e-03 0.000000000000000e+00 2.105359667835354e-19
4.585818330792264e-03 0.000000000000000e+00 2.105362752542754e-19
4.585801895659770e-03 0.000000000000000e+00 2.105365843288920e-19
4.585785457928197e-03 0.000000000000000e+00 2.105368938762409e-19
4.585769008720237e-03 0.000000000000000e+00 2.105372041171856e-19
4.585752554117925e-03 0.000000000000000e+00 2.105375149465759e-19
4.585736093781437e-03 0.000000000000000e+00 2.105378264145799e-19
4.585719620953173e-03 0.000000000000000e+00 2.105381386868632e-19
4.585703143828800e-03 0.000000000000000e+00 2.105384516220451e-19
4.585686653492974e-03 0.000000000000000e+00 2.105387654296329e-19
4.585670158122000e-03 0.000000000000000e+00 2.105390799551248e-19
4.585653648777470e-03 0.000000000000000e+00 2.105393954157893e-19
4.585637133605966e-03 0.000000000000000e+00 2.105397115688021e-19
4.585620603634656e-03 0.000000000000000e+00 2.105400286059549e-19
4.585604066970473e-03 0.000000000000000e+00 2.105403462532767e-19
4.585587514586370e-03 0.000000000000000e+00 2.105406646315417e-19
4.585570952380144e-03 0.000000000000000e+00 2.105409833777123e-19
4.585554379782456e-03 0.000000000000000e+00 2.105413022657411e-19
4.585537789736129e-03 0.000000000000000e+00 2.105416210967966e-19
4.585521190041857e-03 0.000000000000000e+00 2.105419391957862e-19
4.585504571251901e-03 0.000000000000000e+00 2.105422561456821e-19
4.585487940809066e-03 0.000000000000000e+00 2.105425709175561e-19
4.585471288768947e-03 0.000000000000000e+00 2.105428827372613e-19
4.585454621906003e-03 0.000000000000000e+00 2.105431901601280e-19
4.585437931567865e-03 0.000000000000000e+00 2.105434919232491e-19
4.585421217625829e-03 0.000000000000000e+00 2.105437863735376e-19
4.585404478938715e-03 0.000000000000000e+00 2.105440717718492e-19
4.585387707327444e-03 0.000000000000000e+00 2.105443466213563e-19
4.585370914700636e-03 0.000000000000000e+00 2.105446092377523e-19
4.585354112568591e-03 0.000000000000000e+00 2.105448584717466e-19
4.585337378605819e-03 0.000000000000000e+00 2.105450925904080e-19
4.585320908391117e-03 0.000000000000000e+00 2.105453081585045e-19
4.585305241101463e-03 0.000000000000000e+00 2.105454950331072e-19
4.585291384305367e-03 0.000000000000000e+00 2.105456332541336e-19
4.585279645130393e-03 0.000000000000000e+00 2.105457205918055e-19
-4.556221336018608e-03 -0.000000000000000e+00 -2.110634631930869e-19
-4.556200905933503e-03  0.000000000000000e+00 -2.110639318397712e-19
-4.556243684337860e-03 -0.000000000000000e+00 -2.110629440305344e-19
-4.556263922033806e-03 -0.000000000000000e+00 -2.110624754908552e-19
-4.556282339711050e-03 -0.000000000000000e+00 -2.110620557355875e-19
-4.556299962621043e-03 -0.000000000000000e+00 -2.110616643991117e-19
-4.556317313418021e-03 -0.000000000000000e+00 -2.110612917062182e-19
-4.556334605363160e-03 -0.000000000000000e+00 -2.110609338372072e-19
-4.556351899608311e-03 -0.000000000000000e+00 -2.110605894374443e-19
-4.556369225345663e-03 -0.000000000000000e+00 -2.110602569314738e-19
-4.556386577960968e-03 -0.000000000000000e+00 -2.110599350441782e-19
-4.556403964818843e-03 -0.000000000000000e+00 -2.110596219150556e-19
-4.556421378944672e-03 -0.000000000000000e+00 -2.110593159357960e-19
-4.556438814374316e-03 -0.000000000000000e+00 -2.110590156263926e-19
-4.556456277999847e-03 -0.000000000000000e+00 -2.110587193232550e-19
-4.556473760072263e-03 -0.000000000000000e+00 -2.110584259908884e-19
-4.556491268327039e-03 -0.000000000000000e+00 -2.110581344284688e-19
-4.556508793684007e-03 -0.000000000000000e+00 -2.110578440172329e-19
-4.556526344374834e-03 -0.000000000000000e+00 -2.110575539148473e-19
-4.556543911677344e-03 -0.000000000000000e+00 -2.110572638605334e-19
-4.556561504075443e-03 -0.000000000000000e+00 -2.110569732725754e-19
-4.556579115164286e-03 -0.000000000000000e+00 -2.110566820435768e-19
-4.556596745005932e-03 -0.000000000000000e+00 -2.110563900091628e-19
-4.556614400115046e-03 -0.000000000000000e+00 -2.110560968742305e-19
-4.556632072072901e-03 -0.000000000000000e+00 -2.110558027810468e-19
-4.556649769585613e-03 -0.000000000000000e+00 -2.110555075011547e-19
-4.556667484274164e-03 -0.000000000000000e+00 -2.110552111948003e-19
-4.556685224878325e-03 -0.000000000000000e+00 -2.110549136632145e-19
-4.556702983048511e-03 -0.000000000000000e+00 -2.110546151467124e-19
-4.556720767546590e-03 -0.000000000000000e+00 -2.110543154198488e-19
-4.556738570042463e-03 -0.000000000000000e+00 -2.110540147515629e-19
-4.556756399316542e-03 -0.000000000000000e+00 -2.110537129487371e-19
-4.556774249191460e-03 -0.000000000000000e+00 -2.110534101995216e-19
-4.556792119910234e-03 -0.000000000000000e+00 -2.110531065245540e-19
-4.556810018133932e-03 -0.000000000000000e+00 -2.110528018138024e-19
-4.556827935566516e-03 -0.000000000000000e+00 -2.110524962804365e-19
-4.556845881016172e-03 -0.000000000000000e+00 -2.110521897840905e-19
-4.556863846194685e-03 -0.000000000000000e+00 -2.110518825038863e-19
-4.556881839919739e-03 -0.000000000000000e+00 -2.110515743020681e-19
-4.556899853909400e-03 -0.000000000000000e+00 -2.110512653811830e-19
-4.556917896988704e-03 -0.000000000000000e+00 -2.110509555521958e-19
-4.556935963020251e-03 -0.000000000000000e+00 -2.110506450070957e-19
-4.556954052282281e-03 -0.000000000000000e+00 -2.110503337561413e-19
-4.556972171468816e-03 -0.000000000000000e+00 -2.110500216499841e-19
-4.556990312312300e-03 -0.000000000000000e+00 -2.110497089088257e-19
-4.557008483649012e-03 -0.000000000000000e+00 -2.110493953317948e-19
-4.557026677214005e-03 -0.000000000000000e+00 -2.110490811635656e-19
-4.557044901847066e-03 -0.000000000000000e+00 -2.110487661688844e-19
-4.557063149288052e-03 -0.000000000000000e+00 -2.110484505853347e-19
-4.557081428378342e-03 -0.000000000000000e+00 -2.110481342095344e-19
-4.557099730860832e-03 -0.000000000000000e+00 -2.110478172568656e-19
-4.557118065579625e-03 -0.000000000000000e+00 -2.110474995184288e-19
-4.557136426416727e-03 -0.000000000000000e+00 -2.110471811554386e-19
-4.557154813668985e-03 -0.000000000000000e+00 -2.110468621594233e-19
-4.557173234044891e-03 -0.000000000000000e+00 -2.110465423963666e-19
-4.557191679293120e-03 -0.000000000000000e+00 -2.110462220642280e-19
-4.557210158262355e-03 -0.000000000000000e+00 -2.110459009717954e-19
-4.557228662700518e-03 -0.000000000000000e+00 -2.110455793076759e-19
-4.557247201459521e-03 -0.000000000000000e+00 -2.110452568783448e-19
-4.557265766288605e-03 -0.000000000000000e+00 -2.110449338734218e-19
-4.557284366040868e-03 -0.000000000000000e+00 -2.110446101221251e-19
-4.557302994603656e-03 -0.000000000000000e+00 -2.110442857302936e-19
-4.557321652279532e-03 -0.000000000000000e+00 -2.110439607304420e-19
-4.557340345785123e-03 -0.000000000000000e+00 -2.110436349535190e-19
-4.557359066872446e-03 -0.000000000000000e+00 -2.110433086077051e-19
-4.557377824395771e-03 -0.000000000000000e+00 -2.110429814747511e-19
-4.557396610108570e-03 -0.000000000000000e+00 -2.110426537852886e-19
-4.557415432866045e-03 -0.000000000000000e+00 -2.110423253082482e-19
-4.557434284422139e-03 -0.000000000000000e+00 -2.110419962481190e-19
-4.557453173632904e-03 -0.000000000000000e+00 -2.110416663975485e-19
-4.557472092251156e-03 -0.000000000000000e+00 -2.110413359495393e-19
-4.557491049136021e-03 -0.000000000000000e+00 -2.110410047145785e-19
-4.557510038178276e-03 -0.000000000000000e+00 -2.110406728371308e-19
-4.557529059684329e-03 -0.000000000000000e+00 -2.110403403080747e-19
-4.557548120375029e-03 -0.000000000000000e+00 -2.110400069854363e-19
-4.557567212004178e-03 -0.000000000000000e+00 -2.110396730420255e-19
-4.557586343430407e-03 -0.000000000000000e+00 -2.110393383031139e-19
-4.557605506408840e-03 -0.000000000000000e+00 -2.110390029411727e-19
-4.557624709798347e-03 -0.000000000000000e+00 -2.110386667589244e-19
-4.557643945354350e-03 -0.000000000000000e+00 -2.110383299315734e-19
-4.557663221935781e-03 -0.000000000000000e+00 -2.110379923029750e-19
-4.557682533436352e-03 -0.000000000000000e+00 -2.110376539746112e-19
-4.557701880163221e-03 -0.000000000000000e+00 -2.110373149728722e-19
-4.557721268838764e-03 -0.000000000000000e+00 -2.110369751314072e-19
-4.557740691218220e-03 -0.000000000000000e+00 -2.110366346367175e-19
-4.557760156160984e-03 -0.000000000000000e+00 -2.110362932867328e-19
-4.557779655423773e-03 -0.000000000000000e+00 -2.110359512848349e-19
-4.557799197865473e-03 -0.000000000000000e+00 -2.110356084216240e-19
-4.557818775243587e-03 -0.000000000000000e+00 -2.110352648720256e-19
-4.557838396415775e-03 -0.000000000000000e+00 -2.110349204696317e-19
-4.557858053140538e-03 -0.000000000000000e+00 -2.110345754020503e-19
-4.557877754276182e-03 -0.000000000000000e+00 -2.110342294484234e-19
-4.557897493718432e-03 -0.000000000000000e+00 -2.110338827477568e-19
-4.557917271773756e-03 -0.000000000000000e+00 -2.110335353110256e-19
-4.557937095165008e-03 -0.000000000000000e+00 -2.110331869827217e-19
-4.557956955648618e-03 -0.000000000000000e+00 -2.110328379491037e-19
-4.557976862083076e-03 -0.000000000000000e+00 -2.110324880073006e-19
-4.557996806226693e-03 -0.000000000000000e+00 -2.110321373472556e-19
-4.558016796938100e-03 -0.000000000000000e+00 -2.110317857888584e-19
-4.558036825972622e-03 -0.000000000000000e+00 -2.110314334934188e-19
-4.558056902191857e-03 -0.000000000000000e+00 -2.110310802748468e-19
-4.558077019488595e-03 -0.000000000000000e+00 -2.110307262902056e-19
-4.558097178171036e-03 -0.000000000000000e+00 -2.110303714933901e-19
-4.558117384960299e-03 -0.000000000000000e+00 -2.110300157782079e-19
-4.558137631612618e-03 -0.000000000000000e+00 -2.110296592849889e-19
-4.558157926987298e-03 -0.000000000000000e+00 -2.110293018513235e-19
-4.558178262840650e-03 -0.000000000000000e+00 -2.110289436623316e-19
-4.558198648030339e-03 -0.000000000000000e+00 -2.110285845175642e-19
-4.558219074313205e-03 -0.000000000000000e+00 -2.110282245804109e-19
-4.558239550547312e-03 -0.000000000000000e+00 -2.110278636734817e-19
-4.558260068488806e-03 -0.000000000000000e+00 -2.110275019952136e-19
-4.558280636995488e-03 -0.000000000000000e+00 -2.110271393299007e-19
-4.558301249961146e-03 -0.000000000000000e+00 -2.110267758185996e-19
-4.558321907692319e-03 -0.000000000000000e+00 -2.110264114662006e-19
-4.558342616908212e-03 -0.000000000000000e+00 -2.110260461012718e-19
-4.558363369365574e-03 -0.000000000000000e+00 -2.110256799427097e-19
-4.558384173919772e-03 -0.000000000000000e+00 -2.110253127642332e-19
-4.558405022327881e-03 -0.000000000000000e+00 -2.110249447606739e-19
-4.558425923445139e-03 -0.000000000000000e+00 -2.110245757401928e-19
-4.558446869027339e-03 -0.000000000000000e+00 -2.110242058940925e-19
-4.558467867930293e-03 -0.000000000000000e+00 -2.110238350032771e-19
-4.558488914046502e-03 -0.000000000000000e+00 -2.110234632292780e-19
-4.558510007681356e-03 -0.000000000000000e+00 -2.110230905531885e-19
-4.558531155552460e-03 -0.000000000000000e+00 -2.110227168469239e-19
-4.558552349413646e-03 -0.000000000000000e+00 -2.110223422579365e-19
-4.558573598121728e-03 -0.000000000000000e+00 -2.110219666172432e-19
-4.558594893428558e-03 -0.000000000000000e+00 -2.110215901004706e-19
-4.558616244190117e-03 -0.000000000000000e+00 -2.110212125156972e-19
-4.558637642159212e-03 -0.000000000000000e+00 -2.110208340486933e-19
-4.558659096190018e-03 -0.000000000000000e+00 -2.110204545066614e-19
-4.558680598035451e-03 -0.000000000000000e+00 -2.110200740765373e-19
-4.558702156549656e-03 -0.000000000000000e+00 -2.110196925326621e-19
-4.558723765622684e-03 -0.000000000000000e+00 -2.110193100564098e-19
-4.558745425557104e-03 -0.000000000000000e+00 -2.110189266150864e-19
-4.558767143067525e-03 -0.000000000000000e+00 -2.110185420596180e-19
-4.558788909906685e-03 -0.000000000000000e+00 -2.110181565900615e-19
-4.558810734927383e-03 -0.000000000000000e+00 -2.110177700059232e-19
-4.558832609878992e-03 -0.000000000000000e+00 -2.110173824872763e-19
-4.558854543614763e-03 -0.000000000000000e+00 -2.110169938272950e-19
-4.558876527885138e-03 -0.000000000000000e+00 -2.110166042276010e-19
-4.558898571541851e-03 -0.000000000000000e+00 -2.110162135040469e-19
-4.558920668471197e-03 -0.000000000000000e+00 -2.110158217581368e-19
-4.558942818974431e-03 -0.000000000000000e+00 -2.110154290179008e-19
-4.558965029764423e-03 -0.000000000000000e+00 -2.110150351104989e-19
-4.558987292589552e-03 -0.000000000000000e+00 -2.110146402424036e-19
-4.559009616300435e-03 -0.000000000000000e+00 -2.110142442049941e-19
-4.559031992644596e-03 -0.000000000000000e+00 -2.110138471877477e-19
-4.559054430472373e-03 -0.000000000000000e+00 -2.110134489684085e-19
-4.559076921530587e-03 -0.000000000000000e+00 -2.110130497857881e-19
-4.559099474669003e-03 -0.000000000000000e+00 -2.110126494020466e-19
-4.559122081632558e-03 -0.000000000000000e+00 -2.110122480025982e-19
-4.559144751271920e-03 -0.000000000000000e+00 -2.110118454221864e-19
-4.559167477468477e-03 -0.000000000000000e+00 -2.110114417733639e-19
-4.559190260520143e-03 -0.000000000000000e+00 -2.110110370425339e-19
-4.559213107136756e-03 -0.000000000000000e+00 -2.110106311113136e-19
-4.559236009062041e-03 -0.000000000000000e+00 -2.110102241463761e-19
-4.559258975143731e-03 -0.000000000000000e+00 -2.110098159478192e-19
-4.559281997125301e-03 -0.000000000000000e+00 -2.110094067176959e-19
-4.559305083852492e-03 -0.000000000000000e+00 -2.110089962431620e-19
-4.559328227069028e-03 -0.000000000000000e+00 -2.110085847102269e-19
-4.559351435620697e-03 -0.000000000000000e+00 -2.110081719311895e-19
-4.559374703385771e-03 -0.000000000000000e+00 -2.110077580448345e-19
-4.559398030659524e-03 -0.000000000000000e+00 -2.110073430437808e-19
-4.559421424147375e-03 -0.000000000000000e+00 -2.110069267689571e-19
-4.559444875590745e-03 -0.000000000000000e+00 -2.110065094132300e-19
-4.559468393832695e-03 -0.000000000000000e+00 -2.110060907830953e-19
-4.559491970613228e-03 -0.000000000000000e+00 -2.110056710640084e-19
-4.559515614776216e-03 -0.000000000000000e+00 -2.110052500605839e-19
-4.559539318060172e-03 -0.000000000000000e+00 -2.110048279524855e-19
-4.559563089307577e-03 -0.000000000000000e+00 -2.110044045475497e-19
-4.559586920255519e-03 -0.000000000000000e+00 -2.110039800378689e-19
-4.559610819746657e-03 -0.000000000000000e+00 -2.110035542074131e-19
-4.559634781655476e-03 -0.000000000000000e+00 -2.110031272092372e-19
-4.559658806271542e-03 -0.000000000000000e+00 -2.110026990243590e-19
-4.559682900296111e-03 -0.000000000000000e+00 -2.110022695347812e-19
-4.559707055465526e-03 -0.000000000000000e+00 -2.110018389015801e-19
-4.559731280619061e-03 -0.000000000000000e+00 -2.110014069290380e-19
-4.559755567492429e-03 -0.000000000000000e+00 -2.110009737982136e-19
-4.559779924921872e-03 -0.000000000000000e+00 -2.110005393324382e-19
-4.559804344644230e-03 -0.000000000000000e+00 -2.110001036978882e-19
-4.559828835494685e-03 -0.000000000000000e+00 -2.109996667234136e-19
-4.559853391346065e-03 -0.000000000000000e+00 -2.109992285090333e-19
-4.559878012482441e-03 -0.000000000000000e+00 -2.109987890876899e-19
-4.559902705602086e-03 -0.000000000000000e+00 -2.109983482796092e-19
-4.559927462436018e-03 -0.000000000000000e+00 -2.109979062990264e-19
-4.559952291820142e-03 -0.000000000000000e+00 -2.109974629151022e-19
-4.559977185485011e-03 -0.000000000000000e+00 -2.109970183597814e-19
-4.560002152265657e-03 -0.000000000000000e+00 -2.109965723900978e-19
-4.560027183890297e-03 -0.000000000000000e+00 -2.109961252286942e-19
-4.560052289193445e-03 -0.000000000000000e+00 -2.109956766530327e-19
-4.560077459904218e-03 -0.000000000000000e+00 -2.109952268523532e-19
-4.560102704853186e-03 -0.000000000000000e+00 -2.109947756518866e-19
-4.560128017908103e-03 -0.000000000000000e+00 -2.109943231614713e-19
-4.560153399347762e-03 -0.000000000000000e+00 -2.109938693963917e-19
-4.560178855864435e-03 -0.000000000000000e+00 -2.109934141973490e-19
-4.560204379185410e-03 -0.000000000000000e+00 -2.109929577711034e-19
-4.560229978139748e-03 -0.000000000000000e+00 -2.109924998874788e-19
-4.560255644452669e-03 -0.000000000000000e+00 -2.109920407378373e-19
-4.560281386954195e-03 -0.000000000000000e+00 -2.109915801500424e-19
-4.560307197367394e-03 -0.000000000000000e+00 -2.109911183105251e-19
-4.560333084520818e-03 -0.000000000000000e+00 -2.109906549842972e-19
-4.560359042275769e-03 -0.000000000000000e+00 -2.109901903507354e-19
-4.560385070906412e-03 -0.000000000000000e+00 -2.109897243921900e-19
-4.560411177101372e-03 -0.000000000000000e+00 -2.109892569498205e-19
-4.560437352583076e-03 -0.000000000000000e+00 -2.109887882190966e-19
-4.560463606175463e-03 -0.000000000000000e+00 -2.109883179963936e-19
-4.560489929600587e-03 -0.000000000000000e+00 -2.109878464713767e-19
-4.560516331681740e-03 -0.000000000000000e+00 -2.109873734340953e-19
-4.560542804138464e-03 -0.000000000000000e+00 -2.109868991186326e-19
-4.560569355795319e-03 -0.000000000000000e+00 -2.109864232822176e-19
-4.560595978369423e-03 -0.000000000000000e+00 -2.109859461242415e-19
-4.560622680682405e-03 -0.000000000000000e+00 -2.109854674330789e-19
-4.560649456592084e-03 -0.000000000000000e+00 -2.109849873750542e-19
-4.560676306365631e-03 -0.000000000000000e+00 -2.109845059406697e-19
-4.560703236685668e-03 -0.000000000000000e+00 -2.109840229616569e-19
-4.560730239269439e-03 -0.000000000000000e+00 -2.109835386446851e-19
-4.560757322934628e-03 -0.000000000000000e+00 -2.109830527818006e-19
-4.560784479397387e-03 -0.000000000000000e+00 -2.109825655561865e-19
-4.560811717475287e-03 -0.000000000000000e+00 -2.109820767690121e-19
-4.560839028882651e-03 -0.000000000000000e+00 -2.109815866367700e-19
-4.560866422436886e-03 -0.000000000000000e+00 -2.109810949284128e-19
-4.560893891987814e-03 -0.000000000000000e+00 -2.109806017980842e-19
-4.560921437801101e-03 -0.000000000000000e+00 -2.109801072390923e-19
-4.560949066552022e-03 -0.000000000000000e+00 -2.109796110956570e-19
-4.560976769954743e-03 -0.000000000000000e+00 -2.109791135626046e-19
-4.561004556821387e-03 -0.000000000000000e+00 -2.109786144562738e-19
-4.561032418863194e-03 -0.000000000000000e+00 -2.109781139276074e-19
-4.561060364892814e-03 -0.000000000000000e+00 -2.109776118145914e-19
-4.561088386619947e-03 -0.000000000000000e+00 -2.109771082740657e-19
-4.561116492856575e-03 -0.000000000000000e+00 -2.109766031315160e-19
-4.561144675310589e-03 -0.000000000000000e+00 -2.109760965790808e-19
-4.561172942793660e-03 -0.000000000000000e+00 -2.109755883929030e-19
-4.561201289150173e-03 -0.000000000000000e+00 -2.109750787367612e-19
-4.561229714638159e-03 -0.000000000000000e+00 -2.109745675925376e-19
-4.561258225930208e-03 -0.000000000000000e+00 -2.109740548205254e-19
-4.561286814730099e-03 -0.000000000000000e+00 -2.109735406081952e-19
-4.561315489846824e-03 -0.000000000000000e+00 -2.109730247457336e-19
-4.561344242986171e-03 -0.000000000000000e+00 -2.109725074115138e-19
-4.561373082952769e-03 -0.000000000000000e+00 -2.109719884526039e-19
-4.561402001452199e-03 -0.000000000000000e+00 -2.109714680200830e-19
-4.561431007288588e-03 -0.000000000000000e+00 -2.109709459097743e-19
-4.561460094303711e-03 -0.000000000000000e+00 -2.109704222932207e-19
-4.561489262750700e-03 -0.000000000000000e+00 -2.109698971464981e-19
-4.561518519294376e-03 -0.000000000000000e+00 -2.109693703092417e-19
-4.561547855637598e-03 -0.000000000000000e+00 -2.109688419917830e-19
-4.561577280582979e-03 -0.000000000000000e+00 -2.109683119883803e-19
-4.561606785829675e-03 -0.000000000000000e+00 -2.109677804912961e-19
-4.561636380179874e-03 -0.000000000000000e+00 -2.109672472996160e-19
-4.561666055333088e-03 -0.000000000000000e+00 -2.109667125802463e-19
-4.561695820089429e-03 -0.000000000000000e+00 -2.109661761796902e-19
-4.561725666147784e-03 -0.000000000000000e+00 -2.109656382392973e-19
-4.561755602306429e-03 -0.000000000000000e+00 -2.109650985961601e-19
-4.561785622401236e-03 -0.000000000000000e+00 -2.109645573741439e-19
-4.561815726679148e-03 -0.000000000000000e+00 -2.109640145903437e-19
-4.561845921801078e-03 -0.000000000000000e+00 -2.109634700488189e-19
-4.561876199461457e-03 -0.000000000000000e+00 -2.109629239779513e-19
-4.561906568458121e-03 -0.000000000000000e+00 -2.109623761670628e-19
-4.561937020484718e-03 -0.000000000000000e+00 -2.109618267976838e-19
-4.561967564338204e-03 -0.000000000000000e+00 -2.109612756974449e-19
-4.561998191710886e-03 -0.000000000000000e+00 -2.109607230342782e-19
-4.562028911398648e-03 -0.000000000000000e+00 -2.109601685898687e-19
-4.562059715092703e-03 -0.000000000000000e+00 -2.109596125904141e-19
-4.562090611588281e-03 -0.000000000000000e+00 -2.109590548353664e-19
-4.562121594713618e-03 -0.000000000000000e+00 -2.109584954533052e-19
-4.562152664710300e-03 -0.000000000000000e+00 -2.109579344324019e-19
-4.562183828233853e-03 -0.000000000000000e+00 -2.109573716230505e-19
-4.562215076973679e-03 -0.000000000000000e+00 -2.109568072150291e-19
-4.562246419721239e-03 -0.000000000000000e+00 -2.109562410121368e-19
-4.562277848165610e-03 -0.000000000000000e+00 -2.109556732225057e-19
-4.562309371096434e-03 -0.000000000000000e+00 -2.109551036381857e-19
-4.562340980202589e-03 -0.000000000000000e+00 -2.109545324293431e-19
-4.562372684273641e-03 -0.000000000000000e+00 -2.109539594290724e-19
-4.562404477132982e-03 -0.000000000000000e+00 -2.109533847415799e-19
-4.562436359019059e-03 -0.000000000000000e+00 -2.109528083901115e-19
-4.562468336582175e-03 -0.000000000000000e+00 -2.109522302204120e-19
-4.562500401507692e-03 -0.000000000000000e+00 -2.109516504128962e-19
-4.562532562582926e-03 -0.000000000000000e+00 -2.109510687506025e-19
-4.562564811491692e-03 -0.000000000000000e+00 -2.109504854727298e-19
-4.562597157021149e-03 -0.000000000000000e+00 -2.109499003405320e-19
-4.562629590854299e-03 -0.000000000000000e+00 -2.109493135541912e-19
-4.562662121776604e-03 -0.000000000000000e+00 -2.109487249241030e-19
-4.562694741471240e-03 -0.000000000000000e+00 -2.109481346395159e-19
-4.562727458721773e-03 -0.000000000000000e+00 -2.109475424755662e-19
-4.562760267349308e-03 -0.000000000000000e+00 -2.109469486028335e-19
-4.562793167584411e-03 -0.000000000000000e+00 -2.109463530111397e-19
-4.562826166073939e-03 -0.000000000000000e+00 -2.109457555361630e-19
-4.562859254497511e-03 -0.000000000000000e+00 -2.109451563843702e-19
-4.562892441638207e-03 -0.000000000000000e+00 -2.109445553457541e-19
-4.562925719175655e-03 -0.000000000000000e+00 -2.109439526140831e-19
-4.562959095890824e-03 -0.000000000000000e+00 -2.109433479887242e-19
-4.562992563462475e-03 -0.000000000000000e+00 -2.109427416734406e-19
-4.563026130672314e-03 -0.000000000000000e+00 -2.109421334626193e-19
-4.563059791334545e-03 -0.000000000000000e+00 -2.109415234729379e-19
-4.563093545679417e-03 -0.000000000000000e+00 -2.109409117118179e-19
-4.563127400348743e-03 -0.000000000000000e+00 -2.109402980649154e-19
-4.563161347017752e-03 -0.000000000000000e+00 -2.109396826670294e-19
-4.563195394466510e-03 -0.000000000000000e+00 -2.109390653544981e-19
-4.563229534371143e-03 -0.000000000000000e+00 -2.109384463177607e-19
-4.563263775509324e-03 -0.000000000000000e+00 -2.109378253525858e-19
-4.563298109556423e-03 -0.000000000000000e+00 -2.109372026402196e-19
-4.563332545289671e-03 -0.000000000000000e+00 -2.109365779791474e-19
-4.563367074383548e-03 -0.000000000000000e+00 -2.109359515635113e-19
-4.563401705615866e-03 -0.000000000000000e+00 -2.109353232001928e-19
-4.563436430659508e-03 -0.000000000000000e+00 -2.109346930930193e-19
-4.563471256151936e-03 -0.000000000000000e+00 -2.109340610492646e-19
-4.563506182319065e-03 -0.000000000000000e+00 -2.109334271030848e-19
-4.563541202971295e-03 -0.000000000000000e+00 -2.109327913871922e-19
-4.563576324745464e-03 -0.000000000000000e+00 -2.109321537443981e-19
-4.563611545726562e-03 -0.000000000000000e+00 -2.109315142155176e-19
-4.563646868276689e-03 -0.000000000000000e+00 -2.109308727738713e-19
-4.563682286205320e-03 -0.000000000000000e+00 -2.109302295361921e-19
-4.563717806148769e-03 -0.000000000000000e+00 -2.109295843256326e-19
-4.563753428327422e-03 -0.000000000000000e+00 -2.109289372301555e-19
-4.563789146551762e-03 -0.000000000000000e+00 -2.109282882707505e-19
-4.563824969594068e-03 -0.000000000000000e+00 -2.109276373273209e-19
-4.563860889124890e-03 -0.000000000000000e+00 -2.109269846001327e-19
-4.563896913916617e-03 -0.000000000000000e+00 -2.109263298509358e-19
-4.563933035638382e-03 -0.000000000000000e+00 -2.109256732691894e-19
-4.563969263062924e-03 -0.000000000000000e+00 -2.109250146433084e-19
-4.564005587858725e-03 -0.000000000000000e+00 -2.109243542204443e-19
-4.564042018797579e-03 -0.000000000000000e+00 -2.109236917421632e-19
-4.564078547548906e-03 -0.000000000000000e+00 -2.109230274486439e-19
-4.564115182882632e-03 -0.000000000000000e+00 -2.109223610903182e-19
-4.564151916468090e-03 -0.000000000000000e+00 -2.109216929137005e-19
-4.564188754937175e-03 -0.000000000000000e+00 -2.109210227543273e-19
-4.564225698509998e-03 -0.000000000000000e+00 -2.109203505171687e-19
-4.564262740991848e-03 -0.000000000000000e+00 -2.109196764811097e-19
-4.564299889013745e-03 -0.000000000000000e+00 -2.109190004083748e-19
-4.564337140658373e-03 -0.000000000000000e+00 -2.109183223812205e-19
-4.564374498280581e-03 -0.000000000000000e+00 -2.109176423267394e-19
-4.564411955686668e-03 -0.000000000000000e+00 -2.109169603851459e-19
-4.564449519506695e-03 -0.000000000000000e+00 -2.109162764631481e-19
-4.564487189959228e-03 -0.000000000000000e+00 -2.109155904284272e-19
-4.564524960849103e-03 -0.000000000000000e+00 -2.109149025723077e-19
-4.564562840944387e-03 -0.000000000000000e+00 -2.109142126037958e-19
-4.564600821912679e-03 -0.000000000000000e+00 -2.109135207267666e-19
-4.564638912521841e-03 -0.000000000000000e+00 -2.109128267171238e-19
-4.564677104437943e-03 -0.000000000000000e+00 -2.109121308466087e-19
-4.564715406430752e-03 -0.000000000000000e+00 -2.109114328739128e-19
-4.564753810164815e-03 -0.000000000000000e+00 -2.109107329304778e-19
-4.564792324409634e-03 -0.000000000000000e+00 -2.109100309214967e-19
-4.564830940830430e-03 -0.000000000000000e+00 -2.109093269658768e-19
-4.564869668195397e-03 -0.000000000000000e+00 -2.109086208924309e-19
-4.564908500308476e-03 -0.000000000000000e+00 -2.109079128215675e-19
-4.564947437386966e-03 -0.000000000000000e+00 -2.109072027495901e-19
-4.564986486060023e-03 -0.000000000000000e+00 -2.109064905536252e-19
-4.565025637993795e-03 -0.000000000000000e+00 -2.109057763892959e-19
-4.565064901957293e-03 -0.000000000000000e+00 -2.109050601157815e-19
-4.565104269614402e-03 -0.000000000000000e+00 -2.109043418820929e-19
-4.565143749734417e-03 -0.000000000000000e+00 -2.109036214887769e-19
-4.565183333983333e-03 -0.000000000000000e+00 -2.109028990980677e-19
-4.565223031127944e-03 -0.000000000000000e+00 -2.109021745501515e-19
-4.565262832835248e-03 -0.000000000000000e+00 -2.109014480364725e-19
-4.565302745735493e-03 -0.000000000000000e+00 -2.109007193877150e-19
-4.565342770045096e-03 -0.000000000000000e+00 -2.108999886319190e-19
-4.565382899567674e-03 -0.000000000000000e+00 -2.108992558754727e-19
-4.565423140934934e-03 -0.000000000000000e+00 -2.108985209940548e-19
-4.565463492224599e-03 -0.000000000000000e+00 -2.108977839617374e-19
-4.565503955793581e-03 -0.000000000000000e+00 -2.108970448364709e-19
-4.565544525444282e-03 -0.000000000000000e+00 -2.108963036836885e-19
-4.565585207809916e-03 -0.000000000000000e+00 -2.108955603644865e-19
-4.565626000968112e-03 -0.000000000000000e+00 -2.108948149620730e-19
-4.565666907275290e-03 -0.000000000000000e+00 -2.108940674021166e-19
-4.565707922674142e-03 -0.000000000000000e+00 -2.108933177202157e-19
-4.565749047383014e-03 -0.000000000000000e+00 -2.108925660009897e-19
-4.565790288032453e-03 -0.000000000000000e+00 -2.108918120330558e-19
-4.565831636291283e-03 -0.000000000000000e+00 -2.108910560294369e-19
-4.565873100927674e-03 -0.000000000000000e+00 -2.108902978087657e-19
-4.565914673610098e-03 -0.000000000000000e+00 -2.108895375032860e-19
-4.565956363109443e-03 -0.000000000000000e+00 -2.108887749962094e-19
-4.565998161093836e-03 -0.000000000000000e+00 -2.108880103792314e-19
-4.566040076332390e-03 -0.000000000000000e+00 -2.108872435347189e-19
-4.566082102633275e-03 -0.000000000000000e+00 -2.108864746178323e-19
-4.566124240215631e-03 -0.000000000000000e+00 -2.108857035220468e-19
-4.566166495712926e-03 -0.000000000000000e+00 -2.108849301604389e-19
-4.566208860795743e-03 -0.000000000000000e+00 -2.108841547623545e-19
-4.566251344234691e-03 -0.000000000000000e+00 -2.108833770899875e-19
-4.566293937701078e-03 -0.000000000000000e+00 -2.108825972761001e-19
-4.566336649966330e-03 -0.000000000000000e+00 -2.108818152269341e-19
-4.566379472701696e-03 -0.000000000000000e+00 -2.108810310431086e-19
-4.566422414681356e-03 -0.000000000000000e+00 -2.108802445871785e-19
-4.566465467575002e-03 -0.000000000000000e+00 -2.108794560165633e-19
-4.566508640157305e-03 -0.000000000000000e+00 -2.108786651090663e-19
-4.566551926238714e-03 -0.000000000000000e+00 -2.108778720799541e-19
-4.566705184396459e-03 -0.000000000000000e+00 -2.108744701373691e-19
-4.566638844068081e-03 -0.000000000000000e+00 -2.108762794052232e-19
-4.566682478402668e-03 -0.000000000000000e+00 -2.108754796848146e-19
-4.566726231407714e-03 -0.000000000000000e+00 -2.108746776807914e-19
-4.548147670236013e-03 -0.000000000000000e+00 -2.111993608938982e-19
-4.548177638796553e-03 -0.000000000000000e+00 -2.111988629805146e-19
-4.548207531451157e-03 -0.000000000000000e+00 -2.111983662511281e-19
-4.548237342100006e-03 -0.000000000000000e+00 -2.111978708793996e-19
-4.548267079609314e-03 -0.000000000000000e+00 -2.111973766531136e-19
-4.548296737878926e-03 -0.000000000000000e+00 -2.111968837071281e-19
-4.548326317218225e-03 -0.000000000000000e+00 -2.111963920491666e-19
-4.548355824351183e-03 -0.000000000000000e+00 -2.111959015255200e-19
-4.548385251033574e-03 -0.000000000000000e+00 -2.111954123094251e-19
-4.548414606124347e-03 -0.000000000000000e+00 -2.111949242062296e-19
-4.548443881376575e-03 -0.000000000000000e+00 -2.111944374245405e-19
-4.548473085645991e-03 -0.000000000000000e+00 -2.111939517523617e-19
-4.548502210683585e-03 -0.000000000000000e+00 -2.111934673833899e-19
-4.548531265341442e-03 -0.000000000000000e+00 -2.111929841082218e-19
-4.548560241366909e-03 -0.000000000000000e+00 -2.111925021298267e-19
-4.548589147611463e-03 -0.000000000000000e+00 -2.111920212408644e-19
-4.548617977956525e-03 -0.000000000000000e+00 -2.111915415953382e-19
-4.548646732699683e-03 -0.000000000000000e+00 -2.111910631679395e-19
-4.548675416409207e-03 -0.000000000000000e+00 -2.111905858800345e-19
-4.548704027240984e-03 -0.000000000000000e+00 -2.111901097479332e-19
-4.548732567623383e-03 -0.000000000000000e+00 -2.111896347277307e-19
-4.548761031433799e-03 -0.000000000000000e+00 -2.111891609697302e-19
-4.548789425374977e-03 -0.000000000000000e+00 -2.111886883444490e-19
-4.548817747596755e-03 -0.000000000000000e+00 -2.111882168541190e-19
-4.548846000522994e-03 -0.000000000000000e+00 -2.111877464627347e-19
-4.548874180162819e-03 -0.000000000000000e+00 -2.111872772591685e-19
-4.548902286801453e-03 -0.000000000000000e+00 -2.111868092495458e-19
-4.548930327133631e-03 -0.000000000000000e+00 -2.111863422654029e-19
-4.548958292890727e-03 -0.000000000000000e+00 -2.111858765213647e-19
-4.548986192904010e-03 -0.000000000000000e+00 -2.111854118046606e-19
-4.549014018900288e-03 -0.000000000000000e+00 -2.111849483161982e-19
-4.549041779710035e-03 -0.000000000000000e+00 -2.111844858383087e-19
-4.549069467057463e-03 -0.000000000000000e+00 -2.111840245773235e-19
-4.549097089770098e-03 -0.000000000000000e+00 -2.111835643166080e-19
-4.549124639571269e-03 -0.000000000000000e+00 -2.111831052645297e-19
-4.549152125284136e-03 -0.000000000000000e+00 -2.111826472148382e-19
-4.549179540768271e-03 -0.000000000000000e+00 -2.111821902977558e-19
-4.549206886294909e-03 -0.000000000000000e+00 -2.111817345478806e-19
-4.549234168546711e-03 -0.000000000000000e+00 -2.111812797591226e-19
-4.549261379240424e-03 -0.000000000000000e+00 -2.111808261646129e-19
-4.549288527196406e-03 -0.000000000000000e+00 -2.111803735491216e-19
-4.549315604129029e-03 -0.000000000000000e+00 -2.111799221150842e-19
-4.549342618855010e-03 -0.000000000000000e+00 -2.111794716324814e-19
-4.549369563087284e-03 -0.000000000000000e+00 -2.111790223395409e-19
-4.549396445640905e-03 -0.000000000000000e+00 -2.111785739984046e-19
-4.549423260364350e-03 -0.000000000000000e+00 -2.111781267694088e-19
-4.549450007518665e-03 -0.000000000000000e+00 -2.111776806391965e-19
-4.549476691640291e-03 -0.000000000000000e+00 -2.111772355053436e-19
-4.549503310849734e-03 -0.000000000000000e+00 -2.111767914190289e-19
-4.549529867543004e-03 -0.000000000000000e+00 -2.111763483262152e-19
-4.549556355564718e-03 -0.000000000000000e+00 -2.111759063725379e-19
-4.549582781583275e-03 -0.000000000000000e+00 -2.111754654034255e-19
-4.549609143716657e-03 -0.000000000000000e+00 -2.111750254511618e-19
-4.549635444357239e-03 -0.000000000000000e+00 -2.111745864945801e-19
-4.549661677344461e-03 -0.000000000000000e+00 -2.111741486509216e-19
-4.549687849343535e-03 -0.000000000000000e+00 -2.111737117788999e-19
-4.549713960605998e-03 -0.000000000000000e+00 -2.111732758693510e-19
-4.549740004969241e-03 -0.000000000000000e+00 -2.111728410593743e-19
-4.549765991233753e-03 -0.000000000000000e+00 -2.111724071673324e-19
-4.549791911096951e-03 -0.000000000000000e+00 -2.111719743809496e-19
-4.549817773357339e-03 -0.000000000000000e+00 -2.111715424665345e-19
-4.549843569710952e-03 -0.000000000000000e+00 -2.111711116715857e-19
-4.549869308954640e-03 -0.000000000000000e+00 -2.111706817681719e-19
-4.549894982781895e-03 -0.000000000000000e+00 -2.111702529260795e-19
-4.549920599989018e-03 -0.000000000000000e+00 -2.111698250016938e-19
-4.549946154404530e-03 -0.000000000000000e+00 -2.111693980694490e-19
-4.549971646271976e-03 -0.000000000000000e+00 -2.111689721818539e-19
-4.549997082245867e-03 -0.000000000000000e+00 -2.111685471524051e-19
-4.550022454015677e-03 -0.000000000000000e+00 -2.111681232039321e-19
-4.550047770372536e-03 -0.000000000000000e+00 -2.111677001220906e-19
-4.550073023004834e-03 -0.000000000000000e+00 -2.111672780913497e-19
-4.550098220701237e-03 -0.000000000000000e+00 -2.111668569080933e-19
-4.550123355148878e-03 -0.000000000000000e+00 -2.111664367968759e-19
-4.550148435135077e-03 -0.000000000000000e+00 -2.111660175255147e-19
-4.550173452345058e-03 -0.000000000000000e+00 -2.111655992929108e-19
-4.550198415565225e-03 -0.000000000000000e+00 -2.111651818967812e-19
-4.550223316477791e-03 -0.000000000000000e+00 -2.111647655467969e-19
-4.550248161731066e-03 -0.000000000000000e+00 -2.111643500764731e-19
-4.550272951557359e-03 -0.000000000000000e+00 -2.111639354896717e-19
-4.550297679775914e-03 -0.000000000000000e+00 -2.111635219325698e-19
-4.550322353030883e-03 -0.000000000000000e+00 -2.111631092353101e-19
-4.550346969416350e-03 -0.000000000000000e+00 -2.111626974558441e-19
-4.550371531299149e-03 -0.000000000000000e+00 -2.111622865489669e-19
-4.550396032495068e-03 -0.000000000000000e+00 -2.111618766554037e-19
-4.550420479647182e-03 -0.000000000000000e+00 -2.111614676069716e-19
-4.550444872982634e-03 -0.000000000000000e+00 -2.111610594258893e-19
-4.550469206316137e-03 -0.000000000000000e+00 -2.111606522428367e-19
-4.550493488424668e-03 -0.000000000000000e+00 -2.111602458482691e-19
-4.550517710983644e-03 -0.000000000000000e+00 -2.111598404449804e-19
-4.550541882769640e-03 -0.000000000000000e+00 -2.111594358487097e-19
-4.550565995455690e-03 -0.000000000000000e+00 -2.111590322272722e-19
-4.550590057817413e-03 -0.000000000000000e+00 -2.111586293809657e-19
-4.550614061527232e-03 -0.000000000000000e+00 -2.111582275322132e-19
-4.550638015358117e-03 -0.000000000000000e+00 -2.111578264405055e-19
-4.550661910982892e-03 -0.000000000000000e+00 -2.111574263159850e-19
-4.550685757173760e-03 -0.000000000000000e+00 -2.111570269822554e-19
-4.550709545599461e-03 -0.000000000000000e+00 -2.111566285966753e-19
-4.550733282895265e-03 -0.000000000000000e+00 -2.111562310190612e-19
-4.550756969280723e-03 -0.000000000000000e+00 -2.111558342701675e-19
-4.550780598561057e-03 -0.000000000000000e+00 -2.111554384471183e-19
-4.550804179507522e-03 -0.000000000000000e+00 -2.111550433858172e-19
-4.550827703786966e-03 -0.000000000000000e+00 -2.111546492887274e-19
-4.550851180166795e-03 -0.000000000000000e+00 -2.111542559175483e-19
-4.550874600315100e-03 -0.000000000000000e+00 -2.111538634969952e-19
-4.550897972998114e-03 -0.000000000000000e+00 -2.111534717921254e-19
-4.550921292020229e-03 -0.000000000000000e+00 -2.111530809789438e-19
-4.550944557595870e-03 -0.000000000000000e+00 -2.111526910439747e-19
-4.550967776353836e-03 -0.000000000000000e+00 -2.111523018423911e-19
-4.550990939957303e-03 -0.000000000000000e+00 -2.111519135622920e-19
-4.551014057172854e-03 -0.000000000000000e+00 -2.111515260047723e-19
-4.551037119662097e-03 -0.000000000000000e+00 -2.111511393538924e-19
-4.551060136189939e-03 -0.000000000000000e+00 -2.111507534068108e-19
-4.551083098417463e-03 -0.000000000000000e+00 -2.111503683921416e-19
-4.551106015109170e-03 -0.000000000000000e+00 -2.111499840629568e-19
-4.551128877924363e-03 -0.000000000000000e+00 -2.111496006395322e-19
-4.551151695626815e-03 -0.000000000000000e+00 -2.111492179286673e-19
-4.551174462014272e-03 -0.000000000000000e+00 -2.111488360471277e-19
-4.551197177297009e-03 -0.000000000000000e+00 -2.111484550103775e-19
-4.551219848098822e-03 -0.000000000000000e+00 -2.111480746686997e-19
-4.551242466078438e-03 -0.000000000000000e+00 -2.111476952109942e-19
-4.551265039996495e-03 -0.000000000000000e+00 -2.111473164272210e-19
-4.551287561511010e-03 -0.000000000000000e+00 -2.111469385134890e-19
-4.551310039381286e-03 -0.000000000000000e+00 -2.111465612821285e-19
-4.551332465264778e-03 -0.000000000000000e+00 -2.111461849220389e-19
-4.551354847921954e-03 -0.000000000000000e+00 -2.111458092491558e-19
-4.551377181145160e-03 -0.000000000000000e+00 -2.111454343617704e-19
-4.551399465142721e-03 -0.000000000000000e+00 -2.111450603019257e-19
-4.551421706534931e-03 -0.000000000000000e+00 -2.111446869026309e-19
-4.551443896976592e-03 -0.000000000000000e+00 -2.111443143501037e-19
-4.551466045226375e-03 -0.000000000000000e+00 -2.111439424444167e-19
-4.551488142938377e-03 -0.000000000000000e+00 -2.111435714045093e-19
-4.551510198869329e-03 -0.000000000000000e+00 -2.111432009894769e-19
-4.551532204673931e-03 -0.000000000000000e+00 -2.111428314231565e-19
-4.551554169107651e-03 -0.000000000000000e+00 -2.111424624953922e-19
-4.551576083824608e-03 -0.000000000000000e+00 -2.111420943925148e-19
-4.551597957581109e-03 -0.000000000000000e+00 -2.111417269312442e-19
-4.551619784167825e-03 -0.000000000000000e+00 -2.111413602382762e-19
-4.551641563788349e-03 -0.000000000000000e+00 -2.111409943396101e-19
-4.551663303059892e-03 -0.000000000000000e+00 -2.111406290374504e-19
-4.551684993635202e-03 -0.000000000000000e+00 -2.111402645680488e-19
-4.551706644268109e-03 -0.000000000000000e+00 -2.111399007036528e-19
-4.551728246611682e-03 -0.000000000000000e+00 -2.111395376549650e-19
-4.551749809418654e-03 -0.000000000000000e+00 -2.111391752224452e-19
-4.551771324341039e-03 -0.000000000000000e+00 -2.111388135786743e-19
-4.551792800132601e-03 -0.000000000000000e+00 -2.111384525479245e-19
-4.551814228444475e-03 -0.000000000000000e+00 -2.111380923147753e-19
-4.551835618029488e-03 -0.000000000000000e+00 -2.111377326675715e-19
-4.551856962676255e-03 -0.000000000000000e+00 -2.111373737686177e-19
-4.551878262586064e-03 -0.000000000000000e+00 -2.111370156087680e-19
-4.551899524374908e-03 -0.000000000000000e+00 -2.111366580258962e-19
-4.551920739691898e-03 -0.000000000000000e+00 -2.111363012382353e-19
-4.551941917289718e-03 -0.000000000000000e+00 -2.111359450077741e-19
-4.551963048817986e-03 -0.000000000000000e+00 -2.111355895698903e-19
-4.551984143029875e-03 -0.000000000000000e+00 -2.111352346921496e-19
-4.552005191573606e-03 -0.000000000000000e+00 -2.111348805938393e-19
-4.552026203201620e-03 -0.000000000000000e+00 -2.111345270426771e-19
-4.552047171701059e-03 -0.000000000000000e+00 -2.111341742122066e-19
-4.552068097272683e-03 -0.000000000000000e+00 -2.111338220918044e-19
-4.552088986529355e-03 -0.000000000000000e+00 -2.111334705176761e-19
-4.552109831120709e-03 -0.000000000000000e+00 -2.111331197178068e-19
-4.552130639797693e-03 -0.000000000000000e+00 -2.111327694378148e-19
-4.552151404209329e-03 -0.000000000000000e+00 -2.111324199243040e-19
-4.552172133107151e-03 -0.000000000000000e+00 -2.111320709363163e-19
-4.552192818138716e-03 -0.000000000000000e+00 -2.111317227026267e-19
-4.552213468056801e-03 -0.000000000000000e+00 -2.111313749951857e-19
-4.552234074507900e-03 -0.000000000000000e+00 -2.111310280072666e-19
-4.552254646244805e-03 -0.000000000000000e+00 -2.111306815670458e-19
-4.552275177052424e-03 -0.000000000000000e+00 -2.111303357953444e-19
-4.552295667131130e-03 -0.000000000000000e+00 -2.111299906982501e-19
-4.552316123093971e-03 -0.000000000000000e+00 -2.111296461144533e-19
-4.552336536589288e-03 -0.000000000000000e+00 -2.111293022442550e-19
-4.552356916367150e-03 -0.000000000000000e+00 -2.111289588943839e-19
-4.552377254076940e-03 -0.000000000000000e+00 -2.111286162489307e-19
-4.552397558468946e-03 -0.000000000000000e+00 -2.111282741050059e-19
-4.552417821191384e-03 -0.000000000000000e+00 -2.111279326626478e-19
-4.552438050994870e-03 -0.000000000000000e+00 -2.111275917267628e-19
-4.552458241666358e-03 -0.000000000000000e+00 -2.111272514312061e-19
-4.552478393405218e-03 -0.000000000000000e+00 -2.111269117723311e-19
-4.552498512824604e-03 -0.000000000000000e+00 -2.111265726132076e-19
-4.552518591571759e-03 -0.000000000000000e+00 -2.111262341280847e-19
-4.552538638399963e-03 -0.000000000000000e+00 -2.111258961374923e-19
-4.552558644955411e-03 -0.000000000000000e+00 -2.111255588192136e-19
-4.552578619990662e-03 -0.000000000000000e+00 -2.111252219683226e-19
-4.552598555154387e-03 -0.000000000000000e+00 -2.111248857995949e-19
-4.552618459196600e-03 -0.000000000000000e+00 -2.111245500959376e-19
-4.552638323767697e-03 -0.000000000000000e+00 -2.111242150557223e-19
-4.552658157618780e-03 -0.000000000000000e+00 -2.111238804808189e-19
-4.552677954535086e-03 -0.000000000000000e+00 -2.111235465059417e-19
-4.552697714718914e-03 -0.000000000000000e+00 -2.111232131544938e-19
-4.552717444783343e-03 -0.000000000000000e+00 -2.111228802317844e-19
-4.552737136377574e-03 -0.000000000000000e+00 -2.111225479832438e-19
-4.552756798253186e-03 -0.000000000000000e+00 -2.111222161529768e-19
-4.552776422060835e-03 -0.000000000000000e+00 -2.111218849858800e-19
-4.552796016551530e-03 -0.000000000000000e+00 -2.111215542446862e-19
-4.552815573375401e-03 -0.000000000000000e+00 -2.111212241385967e-19
-4.552835101285736e-03 -0.000000000000000e+00 -2.111208944741382e-19
-4.552854594069473e-03 -0.000000000000000e+00 -2.111205653722530e-19
-4.552874051928659e-03 -0.000000000000000e+00 -2.111202368615070e-19
-4.552893481477499e-03 -0.000000000000000e+00 -2.111199087694216e-19
-4.552912874368268e-03 -0.000000000000000e+00 -2.111195812858090e-19
-4.552932239351984e-03 -0.000000000000000e+00 -2.111192542205956e-19
-4.552951568081602e-03 -0.000000000000000e+00 -2.111189277724373e-19
-4.552970869309262e-03 -0.000000000000000e+00 -2.111186017258584e-19
-4.552990134686405e-03 -0.000000000000000e+00 -2.111182762795135e-19
-4.553009372968549e-03 -0.000000000000000e+00 -2.111179512445622e-19
-4.553028575805420e-03 -0.000000000000000e+00 -2.111176268010268e-19
-4.553047751952078e-03 -0.000000000000000e+00 -2.111173027519049e-19
-4.553066895199346e-03 -0.000000000000000e+00 -2.111169792448513e-19
-4.553086005749285e-03 -0.000000000000000e+00 -2.111166562769186e-19
-4.553105090220250e-03 -0.000000000000000e+00 -2.111163336904478e-19
-4.553124140264811e-03 -0.000000000000000e+00 -2.111160116864192e-19
-4.553143164637857e-03 -0.000000000000000e+00 -2.111156900496230e-19
-4.553162154993757e-03 -0.000000000000000e+00 -2.111153690061301e-19
-4.553181120086795e-03 -0.000000000000000e+00 -2.111150483147257e-19
-4.553200051572472e-03 -0.000000000000000e+00 -2.111147281897162e-19
-4.553218958206290e-03 -0.000000000000000e+00 -2.111144084436278e-19
-4.553237833780323e-03 -0.000000000000000e+00 -2.111140891924283e-19
-4.553256678500804e-03 -0.000000000000000e+00 -2.111137704561807e-19
-4.553275498986676e-03 -0.000000000000000e+00 -2.111134520554956e-19
-4.553294286893435e-03 -0.000000000000000e+00 -2.111131342268986e-19
-4.553313050978577e-03 -0.000000000000000e+00 -2.111128167280913e-19
-4.553331782898422e-03 -0.000000000000000e+00 -2.111124997814507e-19
-4.553350491410285e-03 -0.000000000000000e+00 -2.111121831625236e-19
-4.553369168171697e-03 -0.000000000000000e+00 -2.111118670818282e-19
-4.553387821941010e-03 -0.000000000000000e+00 -2.111115513370405e-19
-4.553406444374747e-03 -0.000000000000000e+00 -2.111112361227402e-19
-4.553425044233142e-03 -0.000000000000000e+00 -2.111109212284131e-19
-4.553443615310656e-03 -0.000000000000000e+00 -2.111106067964595e-19
-4.553462157817397e-03 -0.000000000000000e+00 -2.111102928346227e-19
-4.553480678375675e-03 -0.000000000000000e+00 -2.111099791989864e-19
-4.553499168644657e-03 -0.000000000000000e+00 -2.111096660631544e-19
-4.553517637384083e-03 -0.000000000000000e+00 -2.111093532398440e-19
-4.553536076254413e-03 -0.000000000000000e+00 -2.111090409139371e-19
-4.553554494016839e-03 -0.000000000000000e+00 -2.111087288751731e-19
-4.553572882332203e-03 -0.000000000000000e+00 -2.111084173499377e-19
-4.553591249962483e-03 -0.000000000000000e+00 -2.111081061216064e-19
-4.553609590706071e-03 -0.000000000000000e+00 -2.111077953090284e-19
-4.553627904774794e-03 -0.000000000000000e+00 -2.111074849482369e-19
-4.553646198795808e-03 -0.000000000000000e+00 -2.111071748609751e-19
-4.553664464429889e-03 -0.000000000000000e+00 -2.111068652515515e-19
-4.553682710441568e-03 -0.000000000000000e+00 -2.111065559197767e-19
-4.553700928493718e-03 -0.000000000000000e+00 -2.111062470516549e-19
-4.553719127351116e-03 -0.000000000000000e+00 -2.111059384578717e-19
-4.553737298677845e-03 -0.000000000000000e+00 -2.111056303314977e-19
-4.553755451239172e-03 -0.000000000000000e+00 -2.111053224396452e-19
-4.553773576699894e-03 -0.000000000000000e+00 -2.111050150316240e-19
-4.553791683825983e-03 -0.000000000000000e+00 -2.111047078647689e-19
-4.553809766420384e-03 -0.000000000000000e+00 -2.111044010890381e-19
-4.553827824700485e-03 -0.000000000000000e+00 -2.111040947091755e-19
-4.553845865295737e-03 -0.000000000000000e+00 -2.111037885720947e-19
-4.553863879872791e-03 -0.000000000000000e+00 -2.111034828803900e-19
-4.553881877199508e-03 -0.000000000000000e+00 -2.111031774109676e-19
-4.553899848944739e-03 -0.000000000000000e+00 -2.111028723661278e-19
-4.553917803876914e-03 -0.000000000000000e+00 -2.111025675545549e-19
-4.553935733663884e-03 -0.000000000000000e+00 -2.111022631647961e-19
-4.553953647077716e-03 -0.000000000000000e+00 -2.111019589876985e-19
-4.553971537923875e-03 -0.000000000000000e+00 -2.111016551882237e-19
-4.553989406422496e-03 -0.000000000000000e+00 -2.111013517383036e-19
-4.554007259208474e-03 -0.000000000000000e+00 -2.111010484892288e-19
-4.554025087951384e-03 -0.000000000000000e+00 -2.111007456560832e-19
-4.554042901425085e-03 -0.000000000000000e+00 -2.111004430153416e-19
-4.554060691300354e-03 -0.000000000000000e+00 -2.111001407640900e-19
-4.554078466350117e-03 -0.000000000000000e+00 -2.110998387104055e-19
-4.554096218247677e-03 -0.000000000000000e+00 -2.110995370418577e-19
-4.554113955767237e-03 -0.000000000000000e+00 -2.110992355514517e-19
-4.554131670581907e-03 -0.000000000000000e+00 -2.110989344519208e-19
-4.554149371467102e-03 -0.000000000000000e+00 -2.110986335159921e-19
-4.554167052235228e-03 -0.000000000000000e+00 -2.110983329127312e-19
-4.554184713111429e-03 -0.000000000000000e+00 -2.110980326203827e-19
-4.554202360735456e-03 -0.000000000000000e+00 -2.110977325011434e-19
-4.554219986781954e-03 -0.000000000000000e+00 -2.110974327319204e-19
-4.554237600030560e-03 -0.000000000000000e+00 -2.110971331211994e-19
-4.554255192156520e-03 -0.000000000000000e+00 -2.110968338589805e-19
-4.554272771939433e-03 -0.000000000000000e+00 -2.110965347457671e-19
-4.554290331056730e-03 -0.000000000000000e+00 -2.110962359826539e-19
-4.554307878288517e-03 -0.000000000000000e+00 -2.110959373556365e-19
-4.554325407451052e-03 -0.000000000000000e+00 -2.110956390203731e-19
-4.554342918775009e-03 -0.000000000000000e+00 -2.110953409583938e-19
-4.554360418904165e-03 -0.000000000000000e+00 -2.110950430294416e-19
-4.554377899517948e-03 -0.000000000000000e+00 -2.110947454198163e-19
-4.554395369399028e-03 -0.000000000000000e+00 -2.110944479366477e-19
-4.554412820230651e-03 -0.000000000000000e+00 -2.110941507713440e-19
-4.554430260794083e-03 -0.000000000000000e+00 -2.110938537161096e-19
-4.554447682772488e-03 -0.000000000000000e+00 -2.110935569658844e-19
-4.554465094951245e-03 -0.000000000000000e+00 -2.110932603262222e-19
-4.554482489012582e-03 -0.000000000000000e+00 -2.110929639755232e-19
-4.554499873744439e-03 -0.000000000000000e+00 -2.110926677347563e-19
-4.554517242966433e-03 -0.000000000000000e+00 -2.110923717256488e-19
-4.554534596915894e-03 -0.000000000000000e+00 -2.110920759476445e-19
-4.554551942242543e-03 -0.000000000000000e+00 -2.110917802661966e-19
-4.554569270632761e-03 -0.000000000000000e+00 -2.110914848778117e-19
-4.554586590874023e-03 -0.000000000000000e+00 -2.110911895447685e-19
-4.554603894654984e-03 -0.000000000000000e+00 -2.110908944926242e-19
-4.554621190764514e-03 -0.000000000000000e+00 -2.110905994926920e-19
-4.554638470890883e-03 -0.000000000000000e+00 -2.110903047711978e-19
-4.554655743825172e-03 -0.000000000000000e+00 -2.110900101164374e-19
-4.554673003395326e-03 -0.000000000000000e+00 -2.110897156516385e-19
-4.554690249840867e-03 -0.000000000000000e+00 -2.110894213938633e-19
-4.554707489818140e-03 -0.000000000000000e+00 -2.110891271818604e-19
-4.554724715017088e-03 -0.000000000000000e+00 -2.110888332220795e-19
-4.554741934232196e-03 -0.000000000000000e+00 -2.110885392920066e-19
-4.554759139155155e-03 -0.000000000000000e+00 -2.110882456053497e-19
-4.554776338581812e-03 -0.000000000000000e+00 -2.110879519509299e-19
-4.554793524204304e-03 -0.000000000000000e+00 -2.110876585063955e-19
-4.554810704820121e-03 -0.000000000000000e+00 -2.110873651016238e-19
-4.554827872123019e-03 -0.000000000000000e+00 -2.110870719122945e-19
-4.554845034910858e-03 -0.000000000000000e+00 -2.110867787501122e-19
-4.554862187016638e-03 -0.000000000000000e+00 -2.110864857249574e-19
-4.554879328687539e-03 -0.000000000000000e+00 -2.110861928715862e-19
-4.554896466586429e-03 -0.000000000000000e+00 -2.110859000250104e-19
-4.554913592409553e-03 -0.000000000000000e+00 -2.110856073780276e-19
-4.554930714956953e-03 -0.000000000000000e+00 -2.110853147112128e-19
-4.554947825929506e-03 -0.000000000000000e+00 -2.110850222522875e-19
-4.554964934126024e-03 -0.000000000000000e+00 -2.110847297728427e-19
-4.554982031248432e-03 -0.000000000000000e+00 -2.110844374878391e-19
-4.554999126099726e-03 -0.000000000000000e+00 -2.110841451758787e-19
-4.555016212517447e-03 -0.000000000000000e+00 -2.110838530021695e-19
-4.555033290755517e-03 -0.000000000000000e+00 -2.110835609443579e-19
-4.555050367481331e-03 -0.000000000000000e+00 -2.110832688457979e-19
-4.555067434397126e-03 -0.000000000000000e+00 -2.110829769392914e-19
-4.555084500309680e-03 -0.000000000000000e+00 -2.110826849798403e-19
-4.555101556922866e-03 -0.000000000000000e+00 -2.110823931896948e-19
-4.555118613044755e-03 -0.000000000000000e+00 -2.110821013439653e-19
-4.555135660380898e-03 -0.000000000000000e+00 -2.110818096789112e-19
-4.555152707739396e-03 -0.000000000000000e+00 -2.110815179403112e-19
-4.555169746827915e-03 -0.000000000000000e+00 -2.110812263642047e-19
-4.555186786457320e-03 -0.000000000000000e+00 -2.110809347505724e-19
-4.555203820472957e-03 -0.000000000000000e+00 -2.110806432067041e-19
-4.555220849134860e-03 -0.000000000000000e+00 -2.110803517711867e-19
-4.555237879118245e-03 -0.000000000000000e+00 -2.110800602816132e-19
-4.555254902133642e-03 -0.000000000000000e+00 -2.110797689256601e-19
-4.555271926994442e-03 -0.000000000000000e+00 -2.110794775157528e-19
-4.555288945412404e-03 -0.000000000000000e+00 -2.110791862405685e-19
-4.555305966203987e-03 -0.000000000000000e+00 -2.110788949171901e-19
-4.555322981081348e-03 -0.000000000000000e+00 -2.110786037270648e-19
-4.555339998862263e-03 -0.000000000000000e+00 -2.110783124868019e-19
-4.555357013399495e-03 -0.000000000000000e+00 -2.110780213442239e-19
-4.555374024959859e-03 -0.000000000000000e+00 -2.110777302882773e-19
-4.555391040225462e-03 -0.000000000000000e+00 -2.110774392063181e-19
-4.555408050913466e-03 -0.000000000000000e+00 -2.110771482589594e-19
-4.555425065844826e-03 -0.000000000000000e+00 -2.110768572778061e-19
-4.555442076738987e-03 -0.000000000000000e+00 -2.110765664816196e-19
-4.555459092419018e-03 -0.000000000000000e+00 -2.110762756544856e-19
-4.555476104605080e-03 -0.000000000000000e+00 -2.110759850303891e-19
-4.555493122122781e-03 -0.000000000000000e+00 -2.110756943927624e-19
-4.555510136695278e-03 -0.000000000000000e+00 -2.110754039759395e-19
-4.555527157149251e-03 -0.000000000000000e+00 -2.110751135960376e-19
-4.555544177347639e-03 -0.000000000000000e+00 -2.110748234210435e-19
-4.555561197567949e-03 -0.000000000000000e+00 -2.110745334809602e-19
-4.555578224502289e-03 -0.000000000000000e+00 -2.110742436222047e-19
-4.555595249880067e-03 -0.000000000000000e+00 -2.110739541265259e-19
-4.555612282532901e-03 -0.000000000000000e+00 -2.110736647838874e-19
-4.555629314193449e-03 -0.000000000000000e+00 -2.110733758604790e-19
-4.555646353696677e-03 -0.000000000000000e+00 -2.110730872162673e-19
-4.555663392777549e-03 -0.000000000000000e+00 -2.110727990764751e-19
-4.555680440275938e-03 -0.000000000000000e+00 -2.110725113236514e-19
-4.555697490068861e-03 -0.000000000000000e+00 -2.110722241761916e-19
-4.555714542451486e-03 -0.000000000000000e+00 -2.110719377073113e-19
-4.555731604133050e-03 -0.000000000000000e+00 -2.110716518848685e-19
-4.555748666866051e-03 -0.000000000000000e+00 -2.110713669934488e-19
-4.555765739510840e-03 -0.000000000000000e+00 -2.110710829752794e-19
-4.555782813833817e-03 -0.000000000000000e+00 -2.110708001429798e-19
-4.555799898714976e-03 -0.000000000000000e+00 -2.110705184402240e-19
-4.555816985950250e-03 -0.000000000000000e+00 -2.110702382680806e-19
-4.555834084458770e-03 -0.000000000000000e+00 -2.110699595820836e-19
-4.555851186087972e-03 -0.000000000000000e+00 -2.110696827807631e-19
-4.555868299833231e-03 -0.000000000000000e+00 -2.110694078284683e-19
-4.555885419787236e-03 -0.000000000000000e+00 -2.110691351110186e-19
-4.555902546542904e-03 -0.000000000000000e+00 -2.110688647840857e-19
-4.555919687228544e-03 -0.000000000000000e+00 -2.110685968424855e-19
-4.555936834180611e-03 -0.000000000000000e+00 -2.110683315718639e-19
-4.555953997072800e-03 -0.000000000000000e+00 -2.110680687502581e-19
-4.555971168804201e-03 -0.000000000000000e+00 -2.110678084420036e-19
-4.555988359807337e-03 -0.000000000000000e+00 -2.110675500460999e-19
-4.556005563972836e-03 -0.000000000000000e+00 -2.110672931350673e-19
-4.556022790821557e-03 -0.000000000000000e+00 -2.110670365285961e-19
-4.556040041568088e-03 -0.000000000000000e+00 -2.110667788261787e-19
-4.556057318647187e-03 -0.000000000000000e+00 -2.110665181302075e-19
-4.556074631691824e-03 -0.000000000000000e+00 -2.110662518506035e-19
-4.556091970308367e-03 -0.000000000000000e+00 -2.110659774130320e-19
-4.556109324402447e-03 -0.000000000000000e+00 -2.110656919860827e-19
-4.556126617398293e-03 -0.000000000000000e+00 -2.110653942120647e-19
-4.556143654245887e-03 -0.000000000000000e+00 -2.110650860348750e-19
-4.556159895487567e-03 -0.000000000000000e+00 -2.110647783783337e-19
-4.556174332304038e-03 -0.000000000000000e+00 -2.110644947059096e-19
-4.556186655333144e-03 -0.000000000000000e+00 -2.110642435118661e-19
-4.585246131017256e-03 -0.000000000000000e+00 -2.105516349997617e-19
-4.585265979173383e-03  0.000000000000000e+00 -2.105514701066143e-19
-4.585224358408913e-03 -0.000000000000000e+00 -2.105518528273447e-19
-4.585204687161113e-03 -0.000000000000000e+00 -2.105520816822916e-19
-4.585186824434291e-03 -0.000000000000000e+00 -2.105523273152224e-19
-4.585169743725695e-03 -0.000000000000000e+00 -2.105526008662302e-19
-4.585152922099781e-03 -0.000000000000000e+00 -2.105529047555698e-19
-4.585136146823435e-03 -0.000000000000000e+00 -2.105532359844361e-19
-4.585119357842597e-03 -0.000000000000000e+00 -2.105535888653891e-19
-4.585102527379951e-03 -0.000000000000000e+00 -2.105539575338509e-19
-4.585085661563609e-03 -0.000000000000000e+00 -2.105543361910917e-19
-4.585068754481468e-03 -0.000000000000000e+00 -2.105547201399263e-19
-4.585051814400285e-03 -0.000000000000000e+00 -2.105551055979262e-19
-4.585034848368450e-03 -0.000000000000000e+00 -2.105554896606031e-19
-4.585017850360659e-03 -0.000000000000000e+00 -2.105558705548695e-19
-4.585000830789132e-03 -0.000000000000000e+00 -2.105562469848487e-19
-4.584983782404474e-03 -0.000000000000000e+00 -2.105566183547696e-19
-4.584966714626592e-03 -0.000000000000000e+00 -2.105569843215414e-19
-4.584949619447466e-03 -0.000000000000000e+00 -2.105573450212778e-19
-4.584932505724001e-03 -0.000000000000000e+00 -2.105577005266559e-19
-4.584915365040809e-03 -0.000000000000000e+00 -2.105580513080977e-19
-4.584898203823651e-03 -0.000000000000000e+00 -2.105583976823387e-19
-4.584881021998058e-03 -0.000000000000000e+00 -2.105587400342926e-19
-4.584863813014712e-03 -0.000000000000000e+00 -2.105590789037536e-19
-4.584846585243561e-03 -0.000000000000000e+00 -2.105594145648497e-19
-4.584829329921512e-03 -0.000000000000000e+00 -2.105597474681136e-19
-4.584812055366677e-03 -0.000000000000000e+00 -2.105600779157614e-19
-4.584794752777357e-03 -0.000000000000000e+00 -2.105604063234609e-19
-4.584777430442088e-03 -0.000000000000000e+00 -2.105607328307730e-19
-4.584760079540218e-03 -0.000000000000000e+00 -2.105610578865668e-19
-4.584742708346021e-03 -0.000000000000000e+00 -2.105613815418905e-19
-4.584725308026617e-03 -0.000000000000000e+00 -2.105617041432969e-19
-4.584707884710484e-03 -0.000000000000000e+00 -2.105620257867110e-19
-4.584690438109201e-03 -0.000000000000000e+00 -2.105623466541399e-19
-4.584672961519815e-03 -0.000000000000000e+00 -2.105626669407274e-19
-4.584655463199666e-03 -0.000000000000000e+00 -2.105629867088144e-19
-4.584637934304962e-03 -0.000000000000000e+00 -2.105633061015006e-19
-4.584620383091066e-03 -0.000000000000000e+00 -2.105636252152020e-19
-4.584602800710109e-03 -0.000000000000000e+00 -2.105639441563741e-19
-4.584585195416073e-03 -0.000000000000000e+00 -2.105642629459231e-19
-4.584567558358201e-03 -0.000000000000000e+00 -2.105645817667378e-19
-4.584549895650012e-03 -0.000000000000000e+00 -2.105649005610697e-19
-4.584532206991154e-03 -0.000000000000000e+00 -2.105652193962486e-19
-4.584514485666974e-03 -0.000000000000000e+00 -2.105655384214213e-19
-4.584496739925861e-03 -0.000000000000000e+00 -2.105658575710235e-19
-4.584478960913524e-03 -0.000000000000000e+00 -2.105661770055703e-19
-4.584461156878032e-03 -0.000000000000000e+00 -2.105664965965999e-19
-4.584443318963729e-03 -0.000000000000000e+00 -2.105668165608313e-19
-4.584425455415733e-03 -0.000000000000000e+00 -2.105671367726491e-19
-4.584407557378399e-03 -0.000000000000000e+00 -2.105674573749490e-19
-4.584389633095340e-03 -0.000000000000000e+00 -2.105677782774178e-19
-4.584371673709430e-03 -0.000000000000000e+00 -2.105680996258091e-19
-4.584353685326368e-03 -0.000000000000000e+00 -2.105684213547521e-19
-4.584335667637351e-03 -0.000000000000000e+00 -2.105687435068372e-19
-4.584317613922420e-03 -0.000000000000000e+00 -2.105690661447594e-19
-4.584299532421818e-03 -0.000000000000000e+00 -2.105693891972093e-19
-4.584281414276071e-03 -0.000000000000000e+00 -2.105697127603388e-19
-4.584263267726835e-03 -0.000000000000000e+00 -2.105700367772775e-19
-4.584245083911973e-03 -0.000000000000000e+00 -2.105703613448111e-19
-4.584226871072271e-03 -0.000000000000000e+00 -2.105706864004967e-19
-4.584208620344882e-03 -0.000000000000000e+00 -2.105710119924248e-19
-4.584190337832829e-03 -0.000000000000000e+00 -2.105713381467502e-19
-4.584172023224167e-03 -0.000000000000000e+00 -2.105716648067117e-19
-4.584153669792889e-03 -0.000000000000000e+00 -2.105719920892633e-19
-4.584135285777871e-03 -0.000000000000000e+00 -2.105723198885102e-19
-4.584116862315648e-03 -0.000000000000000e+00 -2.105726483417771e-19
-4.584098407643807e-03 -0.000000000000000e+00 -2.105729772964509e-19
-4.584079912898159e-03 -0.000000000000000e+00 -2.105733069138595e-19
-4.584061386315908e-03 -0.000000000000000e+00 -2.105736370921922e-19
-4.584042819032135e-03 -0.000000000000000e+00 -2.105739679439758e-19
-4.584024219285253e-03 -0.000000000000000e+00 -2.105742993891972e-19
-4.584005578207333e-03 -0.000000000000000e+00 -2.105746315034786e-19
-4.583986901898852e-03 -0.000000000000000e+00 -2.105749642267669e-19
-4.583968190044657e-03 -0.000000000000000e+00 -2.105752975773828e-19
-4.583949435915172e-03 -0.000000000000000e+00 -2.105756316106400e-19
-4.583930647747851e-03 -0.000000000000000e+00 -2.105759662846227e-19
-4.583911816675310e-03 -0.000000000000000e+00 -2.105763016433431e-19
-4.583892950933688e-03 -0.000000000000000e+00 -2.105766376448554e-19
-4.583874041655343e-03 -0.000000000000000e+00 -2.105769743776494e-19
-4.583855097076039e-03 -0.000000000000000e+00 -2.105773117937452e-19
-4.583836108328064e-03 -0.000000000000000e+00 -2.105776498988473e-19
-4.583817081508870e-03 -0.000000000000000e+00 -2.105779887158372e-19
-4.583798016302406e-03 -0.000000000000000e+00 -2.105783281892891e-19
-4.583778905977403e-03 -0.000000000000000e+00 -2.105786684207376e-19
-4.583759758769723e-03 -0.000000000000000e+00 -2.105790093385468e-19
-4.583740565810925e-03 -0.000000000000000e+00 -2.105793510392777e-19
-4.583721335335350e-03 -0.000000000000000e+00 -2.105796934171614e-19
-4.583702058475025e-03 -0.000000000000000e+00 -2.105800365831342e-19
-4.583682743463343e-03 -0.000000000000000e+00 -2.105803804880361e-19
-4.583663381433517e-03 -0.000000000000000e+00 -2.105807251566068e-19
-4.583643980617862e-03 -0.000000000000000e+00 -2.105810705140439e-19
-4.583624532148779e-03 -0.000000000000000e+00 -2.105814166937411e-19
-4.583605042121327e-03 -0.000000000000000e+00 -2.105817636418268e-19
-4.583585510219663e-03 -0.000000000000000e+00 -2.105821113322181e-19
-4.583565929711516e-03 -0.000000000000000e+00 -2.105824598433332e-19
-4.583546308831067e-03 -0.000000000000000e+00 -2.105828091026771e-19
-4.583526638710280e-03 -0.000000000000000e+00 -2.105831592072243e-19
-4.583506927581318e-03 -0.000000000000000e+00 -2.105835100768928e-19
-4.583487166575903e-03 -0.000000000000000e+00 -2.105838617629920e-19
-4.583467363929095e-03 -0.000000000000000e+00 -2.105842142426874e-19
-4.583447510769218e-03 -0.000000000000000e+00 -2.105845675812822e-19
-4.583427613194368e-03 -0.000000000000000e+00 -2.105849216836103e-19
-4.583407670886194e-03 -0.000000000000000e+00 -2.105852766394526e-19
-4.583387677113592e-03 -0.000000000000000e+00 -2.105856324280798e-19
-4.583367640110484e-03 -0.000000000000000e+00 -2.105859890683297e-19
-4.583347551007427e-03 -0.000000000000000e+00 -2.105863465757126e-19
-4.583327418038141e-03 -0.000000000000000e+00 -2.105867048793926e-19
-4.583307232334730e-03 -0.000000000000000e+00 -2.105870640709447e-19
-4.583287002130190e-03 -0.000000000000000e+00 -2.105874241228965e-19
-4.583266718556199e-03 -0.000000000000000e+00 -2.105877850806208e-19
-4.583246389846281e-03 -0.000000000000000e+00 -2.105881468465054e-19
-4.583226007132230e-03 -0.000000000000000e+00 -2.105885095424985e-19
-4.583205576509813e-03 -0.000000000000000e+00 -2.105888731096064e-19
-4.583185097661988e-03 -0.000000000000000e+00 -2.105892375328888e-19
-4.583164563858942e-03 -0.000000000000000e+00 -2.105896029217806e-19
-4.583143983333318e-03 -0.000000000000000e+00 -2.105899691375860e-19
-4.583123347218996e-03 -0.000000000000000e+00 -2.105903363233579e-19
-4.583102663748190e-03 -0.000000000000000e+00 -2.105907043884735e-19
-4.583081924054760e-03 -0.000000000000000e+00 -2.105910734070515e-19
-4.583061136372064e-03 -0.000000000000000e+00 -2.105914432955346e-19
-4.583040291833293e-03 -0.000000000000000e+00 -2.105918141824944e-19
-4.583019396534939e-03 -0.000000000000000e+00 -2.105921859678177e-19
-4.582998450160505e-03 -0.000000000000000e+00 -2.105925586839962e-19
-4.582977445981203e-03 -0.000000000000000e+00 -2.105929323536260e-19
-4.582956392232018e-03 -0.000000000000000e+00 -2.105933069808224e-19
-4.582935280044783e-03 -0.000000000000000e+00 -2.105936825938026e-19
-4.582914117656349e-03 -0.000000000000000e+00 -2.105940591403668e-19
-4.582892896199275e-03 -0.000000000000000e+00 -2.105944366946085e-19
-4.582871623909269e-03 -0.000000000000000e+00 -2.105948151839716e-19
-4.582850291920587e-03 -0.000000000000000e+00 -2.105951946843362e-19
-4.582828908468709e-03 -0.000000000000000e+00 -2.105955751207816e-19
-4.582807464687768e-03 -0.000000000000000e+00 -2.105959566348839e-19
-4.582785966676002e-03 -0.000000000000000e+00 -2.105963390867502e-19
-4.582764414118984e-03 -0.000000000000000e+00 -2.105967225363706e-19
-4.582742800290199e-03 -0.000000000000000e+00 -2.105971070482607e-19
-4.582721133424990e-03 -0.000000000000000e+00 -2.105974925211969e-19
-4.582699404658476e-03 -0.000000000000000e+00 -2.105978790464005e-19
-4.582677622229230e-03 -0.000000000000000e+00 -2.105982665627097e-19
-4.582655777271838e-03 -0.000000000000000e+00 -2.105986551739742e-19
-4.582633878023613e-03 -0.000000000000000e+00 -2.105990447758678e-19
-4.582611915620512e-03 -0.000000000000000e+00 -2.105994354269114e-19
-4.582589896163891e-03 -0.000000000000000e+00 -2.105998271469739e-19
-4.582567819340081e-03 -0.000000000000000e+00 -2.106002198745326e-19
-4.582545678423654e-03 -0.000000000000000e+00 -2.106006137215839e-19
-4.582523481653719e-03 -0.000000000000000e+00 -2.106010085741215e-19
-4.582501220166957e-03 -0.000000000000000e+00 -2.106014045395921e-19
-4.582478902203192e-03 -0.000000000000000e+00 -2.106018015379869e-19
-4.582456518899279e-03 -0.000000000000000e+00 -2.106021997040148e-19
-4.582434078495548e-03 -0.000000000000000e+00 -2.106025988589944e-19
-4.582411572129316e-03 -0.000000000000000e+00 -2.106029991688040e-19
-4.582389008042693e-03 -0.000000000000000e+00 -2.106034005616063e-19
-4.582366377371926e-03 -0.000000000000000e+00 -2.106038030580549e-19
-4.582343686222520e-03 -0.000000000000000e+00 -2.106042066559751e-19
-4.582320934283371e-03 -0.000000000000000e+00 -2.106046113770954e-19
-4.582298114831342e-03 -0.000000000000000e+00 -2.106050172244877e-19
-4.582275236109442e-03 -0.000000000000000e+00 -2.106054241637909e-19
-4.582252289256463e-03 -0.000000000000000e+00 -2.106058322850009e-19
-4.582229282515509e-03 -0.000000000000000e+00 -2.106062414829847e-19
-4.582206207027271e-03 -0.000000000000000e+00 -2.106066518736717e-19
-4.582183071034440e-03 -0.000000000000000e+00 -2.106070633839878e-19
-4.582159865677511e-03 -0.000000000000000e+00 -2.106074760795531e-19
-4.582136597064485e-03 -0.000000000000000e+00 -2.106078899057478e-19
-4.582113264886259e-03 -0.000000000000000e+00 -2.106083048718689e-19
-4.582089862423493e-03 -0.000000000000000e+00 -2.106087210624330e-19
-4.582066397920855e-03 -0.000000000000000e+00 -2.106091383906804e-19
-4.582042862521163e-03 -0.000000000000000e+00 -2.106095569338835e-19
-4.582019264470399e-03 -0.000000000000000e+00 -2.106099766201360e-19
-4.581995594910431e-03 -0.000000000000000e+00 -2.106103975304271e-19
-4.581971862088557e-03 -0.000000000000000e+00 -2.106108196044643e-19
-4.581948057147933e-03 -0.000000000000000e+00 -2.106112429168225e-19
-4.581924188337099e-03 -0.000000000000000e+00 -2.106116673823804e-19
-4.581900246798900e-03 -0.000000000000000e+00 -2.106120931234202e-19
-4.581876238644349e-03 -0.000000000000000e+00 -2.106125200568015e-19
-4.581852163569258e-03 -0.000000000000000e+00 -2.106129482151159e-19
-4.581828014857642e-03 -0.000000000000000e+00 -2.106133776007667e-19
-4.581803800758482e-03 -0.000000000000000e+00 -2.106138081906421e-19
-4.581779512417596e-03 -0.000000000000000e+00 -2.106142400664664e-19
-4.581755158084439e-03 -0.000000000000000e+00 -2.106146731651683e-19
-4.581730728907713e-03 -0.000000000000000e+00 -2.106151075304567e-19
-4.581706233135602e-03 -0.000000000000000e+00 -2.106155431289651e-19
-4.581681661917749e-03 -0.000000000000000e+00 -2.106159799933848e-19
-4.581657021366168e-03 -0.000000000000000e+00 -2.106164181466157e-19
-4.581632311181507e-03 -0.000000000000000e+00 -2.106168575175017e-19
-4.581607524650104e-03 -0.000000000000000e+00 -2.106172982320127e-19
-4.581582670025607e-03 -0.000000000000000e+00 -2.106177401608157e-19
-4.581557738456534e-03 -0.000000000000000e+00 -2.106181834559069e-19
-4.581532738196817e-03 -0.000000000000000e+00 -2.106186279525257e-19
-4.581507660395742e-03 -0.000000000000000e+00 -2.106190738269335e-19
-4.581482513309421e-03 -0.000000000000000e+00 -2.106195209330381e-19
-4.581457288087491e-03 -0.000000000000000e+00 -2.106199694062398e-19
-4.581431992985010e-03 -0.000000000000000e+00 -2.106204191672004e-19
-4.581406619155436e-03 -0.000000000000000e+00 -2.106208702558979e-19
-4.581381172715010e-03 -0.000000000000000e+00 -2.106213226756587e-19
-4.581355653368840e-03 -0.000000000000000e+00 -2.106217763907133e-19
-4.581330054408454e-03 -0.000000000000000e+00 -2.106222314861813e-19
-4.581304384090362e-03 -0.000000000000000e+00 -2.106226878476936e-19
-4.581278633569107e-03 -0.000000000000000e+00 -2.106231456260437e-19
-4.581252811103149e-03 -0.000000000000000e+00 -2.106236047377172e-19
-4.581226907845903e-03 -0.000000000000000e+00 -2.106240652173685e-19
-4.581200932057788e-03 -0.000000000000000e+00 -2.106245269913966e-19
-4.581174874893588e-03 -0.000000000000000e+00 -2.106249902201985e-19
-4.581148742475319e-03 -0.000000000000000e+00 -2.106254547681509e-19
-4.581122534512010e-03 -0.000000000000000e+00 -2.106259206654234e-19
-4.581096244298120e-03 -0.000000000000000e+00 -2.106263879962476e-19
-4.581069880094348e-03 -0.000000000000000e+00 -2.106268566689137e-19
-4.581043433059630e-03 -0.000000000000000e+00 -2.106273267811965e-19
-4.581016911454896e-03 -0.000000000000000e+00 -2.106277982529862e-19
-4.580990306439576e-03 -0.000000000000000e+00 -2.106282711947118e-19
-4.580963626276943e-03 -0.000000000000000e+00 -2.106287454374930e-19
-4.580936862124998e-03 -0.000000000000000e+00 -2.106292211573314e-19
-4.580910022249276e-03 -0.000000000000000e+00 -2.106296982547989e-19
-4.580883097810584e-03 -0.000000000000000e+00 -2.106301768436891e-19
-4.580856094933515e-03 -0.000000000000000e+00 -2.106306568144852e-19
-4.580829013333245e-03 -0.000000000000000e+00 -2.106311381811806e-19
-4.580801846309357e-03 -0.000000000000000e+00 -2.106316210469590e-19
-4.580774602126824e-03 -0.000000000000000e+00 -2.106321052977680e-19
-4.580747271949949e-03 -0.000000000000000e+00 -2.106325910401429e-19
-4.580719864044690e-03 -0.000000000000000e+00 -2.106330782070287e-19
-4.580692369575287e-03 -0.000000000000000e+00 -2.106335668866925e-19
-4.580664796809334e-03 -0.000000000000000e+00 -2.106340569455006e-19
-4.580637136911084e-03 -0.000000000000000e+00 -2.106345485361391e-19
-4.580609396012439e-03 -0.000000000000000e+00 -2.106350415736416e-19
-4.580581573829310e-03 -0.000000000000000e+00 -2.106355360663399e-19
-4.580553663667847e-03 -0.000000000000000e+00 -2.106360320925983e-19
-4.580525673795396e-03 -0.000000000000000e+00 -2.106365295620661e-19
-4.580497595381038e-03 -0.000000000000000e+00 -2.106370285327843e-19
-4.580469436694875e-03 -0.000000000000000e+00 -2.106375290022547e-19
-4.580441188905317e-03 -0.000000000000000e+00 -2.106380309851826e-19
-4.580412860283807e-03 -0.000000000000000e+00 -2.106385344673057e-19
-4.580384441999262e-03 -0.000000000000000e+00 -2.106390394883342e-19
-4.580355942324747e-03 -0.000000000000000e+00 -2.106395459634473e-19
-4.580327352429351e-03 -0.000000000000000e+00 -2.106400540310317e-19
-4.580298678449418e-03 -0.000000000000000e+00 -2.106405635869188e-19
-4.580269920107551e-03 -0.000000000000000e+00 -2.106410746624420e-19
-4.580241070711642e-03 -0.000000000000000e+00 -2.106415873037861e-19
-4.580212138538440e-03 -0.000000000000000e+00 -2.106421014355610e-19
-4.580183114759230e-03 -0.000000000000000e+00 -2.106426171681003e-19
-4.580154007648551e-03 -0.000000000000000e+00 -2.106431344441108e-19
-4.580124808381899e-03 -0.000000000000000e+00 -2.106436532602980e-19
-4.580095525233818e-03 -0.000000000000000e+00 -2.106441736139415e-19
-4.580066149380152e-03 -0.000000000000000e+00 -2.106446956042355e-19
-4.580036686959025e-03 -0.000000000000000e+00 -2.106452191114689e-19
-4.580007137697139e-03 -0.000000000000000e+00 -2.106457441786673e-19
-4.579977494909362e-03 -0.000000000000000e+00 -2.106462708935055e-19
-4.579947766872461e-03 -0.000000000000000e+00 -2.106467991347985e-19
-4.579917944763351e-03 -0.000000000000000e+00 -2.106473290048653e-19
-4.579888036862323e-03 -0.000000000000000e+00 -2.106478604187681e-19
-4.579858034346520e-03 -0.000000000000000e+00 -2.106483934691657e-19
-4.579827945495695e-03 -0.000000000000000e+00 -2.106489281217969e-19
-4.579797761488835e-03 -0.000000000000000e+00 -2.106494643745348e-19
-4.579767490606159e-03 -0.000000000000000e+00 -2.106500022442332e-19
-4.579737124028305e-03 -0.000000000000000e+00 -2.106505417476297e-19
-4.579706667898304e-03 -0.000000000000000e+00 -2.106510828604632e-19
-4.579676121947954e-03 -0.000000000000000e+00 -2.106516255438092e-19
-4.579645479494963e-03 -0.000000000000000e+00 -2.106521699565174e-19
-4.579614748823547e-03 -0.000000000000000e+00 -2.106527159414786e-19
-4.579583921114275e-03 -0.000000000000000e+00 -2.106532636109336e-19
-4.579553004651881e-03 -0.000000000000000e+00 -2.106538129014808e-19
-4.579521990617656e-03 -0.000000000000000e+00 -2.106543638487537e-19
-4.579490887297507e-03 -0.000000000000000e+00 -2.106549164165760e-19
-4.579459685873557e-03 -0.000000000000000e+00 -2.106554707324865e-19
-4.579428394632595e-03 -0.000000000000000e+00 -2.106560266437951e-19
-4.579397004757207e-03 -0.000000000000000e+00 -2.106565842425083e-19
-4.579365522396965e-03 -0.000000000000000e+00 -2.106571434950886e-19
-4.579333947287908e-03 -0.000000000000000e+00 -2.106577044205301e-19
-4.579302272752056e-03 -0.000000000000000e+00 -2.106582670850858e-19
-4.579270507077440e-03 -0.000000000000000e+00 -2.106588314089132e-19
-4.579238641449952e-03 -0.000000000000000e+00 -2.106593974754067e-19
-4.579206684157745e-03 -0.000000000000000e+00 -2.106599651680055e-19
-4.579174626388286e-03 -0.000000000000000e+00 -2.106605345936490e-19
-4.579142476429726e-03 -0.000000000000000e+00 -2.106611057116947e-19
-4.579110225469400e-03 -0.000000000000000e+00 -2.106616785469711e-19
-4.579077879660731e-03 -0.000000000000000e+00 -2.106622531147656e-19
-4.579045438741957e-03 -0.000000000000000e+00 -2.106628293639409e-19
-4.579012896039337e-03 -0.000000000000000e+00 -2.106634073701364e-19
-4.578980259844018e-03 -0.000000000000000e+00 -2.106639870722892e-19
-4.578947521344997e-03 -0.000000000000000e+00 -2.106645685953677e-19
-4.578914688834744e-03 -0.000000000000000e+00 -2.106651517607758e-19
-4.578881753502195e-03 -0.000000000000000e+00 -2.106657367370354e-19
-4.578848723640417e-03 -0.000000000000000e+00 -2.106663234235928e-19
-4.578815590439833e-03 -0.000000000000000e+00 -2.106669118907301e-19
-4.578782362193027e-03 -0.000000000000000e+00 -2.106675020597285e-19
-4.578749030092154e-03 -0.000000000000000e+00 -2.106680940714414e-19
-4.578715600291669e-03 -0.000000000000000e+00 -2.106686878083740e-19
-4.578682072536425e-03 -0.000000000000000e+00 -2.106692832864101e-19
-4.578648440154895e-03 -0.000000000000000e+00 -2.106698806013353e-19
-4.578614711442673e-03 -0.000000000000000e+00 -2.106704796400762e-19
-4.578580877591781e-03 -0.000000000000000e+00 -2.106710805137396e-19
-4.578546946897554e-03 -0.000000000000000e+00 -2.106716831346276e-19
-4.578512910553839e-03 -0.000000000000000e+00 -2.106722875951499e-19
-4.578478776856656e-03 -0.000000000000000e+00 -2.106728937876380e-19
-4.578444536998871e-03 -0.000000000000000e+00 -2.106735018144144e-19
-4.578410197140757e-03 -0.000000000000000e+00 -2.106741116659533e-19
-4.578375757026435e-03 -0.000000000000000e+00 -2.106747233228670e-19
-4.578341209988302e-03 -0.000000000000000e+00 -2.106753367810790e-19
-4.578306564325294e-03 -0.000000000000000e+00 -2.106759520709275e-19
-4.578271811231260e-03 -0.000000000000000e+00 -2.106765692108472e-19
-4.578236959003957e-03 -0.000000000000000e+00 -2.106771881198447e-19
-4.578201998839444e-03 -0.000000000000000e+00 -2.106778088975654e-19
-4.578166939035924e-03 -0.000000000000000e+00 -2.106784314814068e-19
-4.578131770789663e-03 -0.000000000000000e+00 -2.106790559655825e-19
-4.578096502399489e-03 -0.000000000000000e+00 -2.106796822617138e-19
-4.578061125060817e-03 -0.000000000000000e+00 -2.106803104471808e-19
-4.578025647073831e-03 -0.000000000000000e+00 -2.106809404142746e-19
-4.577990061774002e-03 -0.000000000000000e+00 -2.106815723157584e-19
-4.577954368908224e-03 -0.000000000000000e+00 -2.106822060788218e-19
-4.577918574638762e-03 -0.000000000000000e+00 -2.106828416618840e-19
-4.577882672301323e-03 -0.000000000000000e+00 -2.106834791466275e-19
-4.577846663783310e-03 -0.000000000000000e+00 -2.106841185231050e-19
-4.577810546694871e-03 -0.000000000000000e+00 -2.106847597641141e-19
-4.577774327198652e-03 -0.000000000000000e+00 -2.106854028600328e-19
-4.577737998630337e-03 -0.000000000000000e+00 -2.106860479318533e-19
-4.577701560741353e-03 -0.000000000000000e+00 -2.106866947992903e-19
-4.577665019692945e-03 -0.000000000000000e+00 -2.106873436441574e-19
-4.577628366684347e-03 -0.000000000000000e+00 -2.106879943978876e-19
-4.577591610016478e-03 -0.000000000000000e+00 -2.106886469598911e-19
-4.577554740888157e-03 -0.000000000000000e+00 -2.106893014978939e-19
-4.577517767601391e-03 -0.000000000000000e+00 -2.106899579329513e-19
-4.577480681354423e-03 -0.000000000000000e+00 -2.106906163794377e-19
-4.577443490449603e-03 -0.000000000000000e+00 -2.106912766430316e-19
-4.577406186085767e-03 -0.000000000000000e+00 -2.106919389318227e-19
-4.577368776564049e-03 -0.000000000000000e+00 -2.106926030653886e-19
-4.577331253084919e-03 -0.000000000000000e+00 -2.106932692341445e-19
-4.577293623949238e-03 -0.000000000000000e+00 -2.106939372449858e-19
-4.577255882495164e-03 -0.000000000000000e+00 -2.106946071942014e-19
-4.577218028472540e-03 -0.000000000000000e+00 -2.106952792674231e-19
-4.577180068045796e-03 -0.000000000000000e+00 -2.106959531307586e-19
-4.577141994553532e-03 -0.000000000000000e+00 -2.106966290271373e-19
-4.577103809882510e-03 -0.000000000000000e+00 -2.106973068636732e-19
-4.577065511647153e-03 -0.000000000000000e+00 -2.106979867057467e-19
-4.577027106010280e-03 -0.000000000000000e+00 -2.106986684967504e-19
-4.576988586310798e-03 -0.000000000000000e+00 -2.106993521906574e-19
-4.576949952298947e-03 -0.000000000000000e+00 -2.107000380476902e-19
-4.576911210138518e-03 -0.000000000000000e+00 -2.107007257090558e-19
-4.576872351029903e-03 -0.000000000000000e+00 -2.107014154480206e-19
-4.576833383273816e-03 -0.000000000000000e+00 -2.107021071567524e-19
-4.576794298070519e-03 -0.000000000000000e+00 -2.107028009747184e-19
-4.576755103721923e-03 -0.000000000000000e+00 -2.107034966583998e-19
-4.576715791426045e-03 -0.000000000000000e+00 -2.107041943816064e-19
-4.576676369485968e-03 -0.000000000000000e+00 -2.107048941814678e-19
-4.576636829099620e-03 -0.000000000000000e+00 -2.107055959387940e-19
-4.576597178569076e-03 -0.000000000000000e+00 -2.107062997157481e-19
-4.576557409093240e-03 -0.000000000000000e+00 -2.107070055459379e-19
-4.576517526835088e-03 -0.000000000000000e+00 -2.107077134123955e-19
-4.576477531544076e-03 -0.000000000000000e+00 -2.107084233180901e-19
-4.576437416557596e-03 -0.000000000000000e+00 -2.107091352761219e-19
-4.576397190175909e-03 -0.000000000000000e+00 -2.107098492751758e-19
-4.576356843596180e-03 -0.000000000000000e+00 -2.107105652880779e-19
-4.576316385120576e-03 -0.000000000000000e+00 -2.107112833168074e-19
-4.576275805945582e-03 -0.000000000000000e+00 -2.107120034514415e-19
-4.576235114370911e-03 -0.000000000000000e+00 -2.107127256674336e-19
-4.576194301595168e-03 -0.000000000000000e+00 -2.107134499756630e-19
-4.576153375916679e-03 -0.000000000000000e+00 -2.107141762931222e-19
-4.576112330670231e-03 -0.000000000000000e+00 -2.107149047257343e-19
-4.576071165604319e-03 -0.000000000000000e+00 -2.107156352130007e-19
-4.576029886879992e-03 -0.000000000000000e+00 -2.107163677659655e-19
-4.575988487830081e-03 -0.000000000000000e+00 -2.107171024005094e-19
-4.575946970341096e-03 -0.000000000000000e+00 -2.107178392401819e-19
-4.575905332020291e-03 -0.000000000000000e+00 -2.107185780884669e-19
-4.575863579029131e-03 -0.000000000000000e+00 -2.107193190383559e-19
-4.575821704698091e-03 -0.000000000000000e+00 -2.107200621348354e-19
-4.575779710913031e-03 -0.000000000000000e+00 -2.107208072831769e-19
-4.575737595280870e-03 -0.000000000000000e+00 -2.107215545514432e-19
-4.575695361821936e-03 -0.000000000000000e+00 -2.107223040161130e-19
-4.575653010280799e-03 -0.000000000000000e+00 -2.107230555034427e-19
-4.575610533989543e-03 -0.000000000000000e+00 -2.107238092034646e-19
-4.575567941241847e-03 -0.000000000000000e+00 -2.107245649899278e-19
-4.575525223231691e-03 -0.000000000000000e+00 -2.107253229167445e-19
-4.575482388252733e-03 -0.000000000000000e+00 -2.107260830192423e-19
-4.575439427495816e-03 -0.000000000000000e+00 -2.107268452220777e-19
-4.575396349254439e-03 -0.000000000000000e+00 -2.107276096416805e-19
-4.575353144720828e-03 -0.000000000000000e+00 -2.107283762044659e-19
-4.575309820047981e-03 -0.000000000000000e+00 -2.107291448237618e-19
-4.575266374977661e-03 -0.000000000000000e+00 -2.107299157080899e-19
-4.575222802837123e-03 -0.000000000000000e+00 -2.107306887984598e-19
-4.575179111916221e-03 -0.000000000000000e+00 -2.107314639359146e-19
-4.575135293404613e-03 -0.000000000000000e+00 -2.107322412871683e-19
-4.575091355590973e-03 -0.000000000000000e+00 -2.107330208864109e-19
-4.575047289663655e-03 -0.000000000000000e+00 -2.107338026122337e-19
-4.575003103910986e-03 -0.000000000000000e+00 -2.107345865631177e-19
-4.574958789518037e-03 -0.000000000000000e+00 -2.107353727049332e-19
-4.574914354774210e-03 -0.000000000000000e+00 -2.107361610226187e-19
-4.574869790863645e-03 -0.000000000000000e+00 -2.107369516515384e-19
-4.574825103934474e-03 -0.000000000000000e+00 -2.107377443847447e-19
-4.574670435367811e-03 -0.000000000000000e+00 -2.107398426803912e-19
-4.574735355684210e-03 -0.000000000000000e+00 -2.107393364965135e-19
-4.574690291692392e-03 -0.000000000000000e+00 -2.107401359391753e-19
-4.574645099342474e-03 -0.000000000000000e+00 -2.107409376392342e-19
-4.592873614319442e-03 -0.000000000000000e+00 -2.104163979448096e-19
-4.592845761866146e-03 -0.000000000000000e+00 -2.104168953054725e-19
-4.592817977137419e-03 -0.000000000000000e+00 -2.104173914762158e-19
-4.592790266274890e-03 -0.000000000000000e+00 -2.104178863331285e-19
-4.592762620453906e-03 -0.000000000000000e+00 -2.104183799913415e-19
-4.592735045815903e-03 -0.000000000000000e+00 -2.104188724045027e-19
-4.592707542092462e-03 -0.000000000000000e+00 -2.104193635523598e-19
-4.592680102600387e-03 -0.000000000000000e+00 -2.104198535091914e-19
-4.592652735624347e-03 -0.000000000000000e+00 -2.104203422281043e-19
-4.592625432345650e-03 -0.000000000000000e+00 -2.104208297892147e-19
-4.592598201051135e-03 -0.000000000000000e+00 -2.104213160749213e-19
-4.592571032924784e-03 -0.000000000000000e+00 -2.104218012000855e-19
-4.592543936255030e-03 -0.000000000000000e+00 -2.104222850769456e-19
-4.592516902229003e-03 -0.000000000000000e+00 -2.104227678152440e-19
-4.592489939138246e-03 -0.000000000000000e+00 -2.104232493087490e-19
-4.592463038169979e-03 -0.000000000000000e+00 -2.104237296630394e-19
-4.592436205481255e-03 -0.000000000000000e+00 -2.104242087938041e-19
-4.592409440812618e-03 -0.000000000000000e+00 -2.104246867469554e-19
-4.592382739633745e-03 -0.000000000000000e+00 -2.104251635230269e-19
-4.592356103826484e-03 -0.000000000000000e+00 -2.104256391608713e-19
-4.592329530999885e-03 -0.000000000000000e+00 -2.104261136676719e-19
-4.592303027313773e-03 -0.000000000000000e+00 -2.104265869665200e-19
-4.592276586102414e-03 -0.000000000000000e+00 -2.104270590835684e-19
-4.592250209252666e-03 -0.000000000000000e+00 -2.104275300859297e-19
-4.592223894377213e-03 -0.000000000000000e+00 -2.104279999650447e-19
-4.592197645503201e-03 -0.000000000000000e+00 -2.104284686908873e-19
-4.592171462381432e-03 -0.000000000000000e+00 -2.104289362467025e-19
-4.592145338352992e-03 -0.000000000000000e+00 -2.104294027367579e-19
-4.592119281722096e-03 -0.000000000000000e+00 -2.104298680316979e-19
-4.592093283692838e-03 -0.000000000000000e+00 -2.104303322483114e-19
-4.592067352573530e-03 -0.000000000000000e+00 -2.104307952847898e-19
-4.592041479568639e-03 -0.000000000000000e+00 -2.104312572676974e-19
-4.592015672988599e-03 -0.000000000000000e+00 -2.104317180844175e-19
-4.591989924040423e-03 -0.000000000000000e+00 -2.104321778595036e-19
-4.591964241034945e-03 -0.000000000000000e+00 -2.104326364762509e-19
-4.591938615183113e-03 -0.000000000000000e+00 -2.104330940385482e-19
-4.591913052659150e-03 -0.000000000000000e+00 -2.104335505099034e-19
-4.591887553225421e-03 -0.000000000000000e+00 -2.104340058168406e-19
-4.591862110232661e-03 -0.000000000000000e+00 -2.104344601390418e-19
-4.591836731997315e-03 -0.000000000000000e+00 -2.104349133103942e-19
-4.591811409732002e-03 -0.000000000000000e+00 -2.104353654527283e-19
-4.591786151755094e-03 -0.000000000000000e+00 -2.104358164613588e-19
-4.591760949282468e-03 -0.000000000000000e+00 -2.104362664877803e-19
-4.591735810633486e-03 -0.000000000000000e+00 -2.104367153557283e-19
-4.591710727025309e-03 -0.000000000000000e+00 -2.104371632323908e-19
-4.591685704641366e-03 -0.000000000000000e+00 -2.104376100212333e-19
-4.591660743252395e-03 -0.000000000000000e+00 -2.104380557448555e-19
-4.591635838353460e-03 -0.000000000000000e+00 -2.104385004517894e-19
-4.591610991855451e-03 -0.000000000000000e+00 -2.104389441117048e-19
-4.591586201393451e-03 -0.000000000000000e+00 -2.104393867525018e-19
-4.591561473153858e-03 -0.000000000000000e+00 -2.104398283070855e-19
-4.591536800499021e-03 -0.000000000000000e+00 -2.104402688523190e-19
-4.591512185341520e-03 -0.000000000000000e+00 -2.104407083956671e-19
-4.591487625319368e-03 -0.000000000000000e+00 -2.104411468993356e-19
-4.591463126623290e-03 -0.000000000000000e+00 -2.104415843531176e-19
-4.591438682618106e-03 -0.000000000000000e+00 -2.104420208073412e-19
-4.591414293082082e-03 -0.000000000000000e+00 -2.104424562763460e-19
-4.591389964207451e-03 -0.000000000000000e+00 -2.104428907102200e-19
-4.591365687223160e-03 -0.000000000000000e+00 -2.104433241639338e-19
-4.591341470461061e-03 -0.000000000000000e+00 -2.104437565624546e-19
-4.591317305151717e-03 -0.000000000000000e+00 -2.104441880648947e-19
-4.591293199627991e-03 -0.000000000000000e+00 -2.104446184766799e-19
-4.591269145121746e-03 -0.000000000000000e+00 -2.104450479454239e-19
-4.591245149968018e-03 -0.000000000000000e+00 -2.104454764320353e-19
-4.591221205398867e-03 -0.000000000000000e+00 -2.104459039154710e-19
-4.591197317613946e-03 -0.000000000000000e+00 -2.104463304713198e-19
-4.591173486397719e-03 -0.000000000000000e+00 -2.104467559906693e-19
-4.591149705123495e-03 -0.000000000000000e+00 -2.104471806144361e-19
-4.591125982129476e-03 -0.000000000000000e+00 -2.104476041974944e-19
-4.591102308651999e-03 -0.000000000000000e+00 -2.104480268603605e-19
-4.591078693029983e-03 -0.000000000000000e+00 -2.104484485346296e-19
-4.591055126501919e-03 -0.000000000000000e+00 -2.104488693194193e-19
-4.591031617407623e-03 -0.000000000000000e+00 -2.104492890661618e-19
-4.591008156986615e-03 -0.000000000000000e+00 -2.104497079311210e-19
-4.590984753580267e-03 -0.000000000000000e+00 -2.104501258170753e-19
-4.590961398428704e-03 -0.000000000000000e+00 -2.104505428204864e-19
-4.590938099875970e-03 -0.000000000000000e+00 -2.104509588226668e-19
-4.590914851299917e-03 -0.000000000000000e+00 -2.104513739245482e-19
-4.590891652494227e-03 -0.000000000000000e+00 -2.104517881147138e-19
-4.590868509665491e-03 -0.000000000000000e+00 -2.104522013253556e-19
-4.590845416195163e-03 -0.000000000000000e+00 -2.104526136642532e-19
-4.590822374014704e-03 -0.000000000000000e+00 -2.104530250878645e-19
-4.590799380782624e-03 -0.000000000000000e+00 -2.104534356068745e-19
-4.590776442708303e-03 -0.000000000000000e+00 -2.104538451644386e-19
-4.590753553173684e-03 -0.000000000000000e+00 -2.104542538649669e-19
-4.590730711976516e-03 -0.000000000000000e+00 -2.104546616604026e-19
-4.590707925326795e-03 -0.000000000000000e+00 -2.104550685139910e-19
-4.590685184472116e-03 -0.000000000000000e+00 -2.104554745368694e-19
-4.590662497761452e-03 -0.000000000000000e+00 -2.104558796241652e-19
-4.590639856442502e-03 -0.000000000000000e+00 -2.104562838364341e-19
-4.590617268866336e-03 -0.000000000000000e+00 -2.104566871388202e-19
-4.590594726281293e-03 -0.000000000000000e+00 -2.104570896227669e-19
-4.590572237038773e-03 -0.000000000000000e+00 -2.104574911441991e-19
-4.590549792389434e-03 -0.000000000000000e+00 -2.104578918762396e-19
-4.590527400683991e-03 -0.000000000000000e+00 -2.104582916993341e-19
-4.590505053173595e-03 -0.000000000000000e+00 -2.104586906583824e-19
-4.590482758212726e-03 -0.000000000000000e+00 -2.104590887395158e-19
-4.590460509189204e-03 -0.000000000000000e+00 -2.104594859912422e-19
-4.590438305906400e-03 -0.000000000000000e+00 -2.104598823685328e-19
-4.590416154581871e-03 -0.000000000000000e+00 -2.104602779019060e-19
-4.590394046467008e-03 -0.000000000000000e+00 -2.104606726116368e-19
-4.590371989917496e-03 -0.000000000000000e+00 -2.104610663936496e-19
-4.590349976188269e-03 -0.000000000000000e+00 -2.104614594167419e-19
-4.590328013633466e-03 -0.000000000000000e+00 -2.104618515322672e-19
-4.590306093508934e-03 -0.000000000000000e+00 -2.104622429023222e-19
-4.590284222032234e-03 -0.000000000000000e+00 -2.104626333996250e-19
-4.590262399010760e-03 -0.000000000000000e+00 -2.104630230476944e-19
-4.590240617837364e-03 -0.000000000000000e+00 -2.104634119044398e-19
-4.590218886870434e-03 -0.000000000000000e+00 -2.104637998945659e-19
-4.590197197364749e-03 -0.000000000000000e+00 -2.104641871080291e-19
-4.590175557680020e-03 -0.000000000000000e+00 -2.104645734776475e-19
-4.590153959072422e-03 -0.000000000000000e+00 -2.104649591012871e-19
-4.590132409901916e-03 -0.000000000000000e+00 -2.104653438226562e-19
-4.590110901424856e-03 -0.000000000000000e+00 -2.104657278277907e-19
-4.590089442002658e-03 -0.000000000000000e+00 -2.104661109771163e-19
-4.590068022892174e-03 -0.000000000000000e+00 -2.104664933492187e-19
-4.590046650316129e-03 -0.000000000000000e+00 -2.104668749354175e-19
-4.590025324084604e-03 -0.000000000000000e+00 -2.104672557013851e-19
-4.590004037594009e-03 -0.000000000000000e+00 -2.104676357148787e-19
-4.589982799205727e-03 -0.000000000000000e+00 -2.104680148990529e-19
-4.589961600179046e-03 -0.000000000000000e+00 -2.104683933662351e-19
-4.589940448875836e-03 -0.000000000000000e+00 -2.104687710251707e-19
-4.589919336556459e-03 -0.000000000000000e+00 -2.104691479434757e-19
-4.589898271583067e-03 -0.000000000000000e+00 -2.104695240443155e-19
-4.589877245214666e-03 -0.000000000000000e+00 -2.104698993880405e-19
-4.589856263678236e-03 -0.000000000000000e+00 -2.104702740030310e-19
-4.589835326784656e-03 -0.000000000000000e+00 -2.104706478017924e-19
-4.589814427932737e-03 -0.000000000000000e+00 -2.104710208866776e-19
-4.589793575486651e-03 -0.000000000000000e+00 -2.104713931862707e-19
-4.589772760706553e-03 -0.000000000000000e+00 -2.104717647926695e-19
-4.589751991957099e-03 -0.000000000000000e+00 -2.104721355690239e-19
-4.589731260500148e-03 -0.000000000000000e+00 -2.104725056894422e-19
-4.589710574699513e-03 -0.000000000000000e+00 -2.104728750072420e-19
-4.589689925818049e-03 -0.000000000000000e+00 -2.104732436350655e-19
-4.589669322219924e-03 -0.000000000000000e+00 -2.104736115012499e-19
-4.589648755166955e-03 -0.000000000000000e+00 -2.104739786646408e-19
-4.589628230886496e-03 -0.000000000000000e+00 -2.104743450967893e-19
-4.589607749192840e-03 -0.000000000000000e+00 -2.104747107423779e-19
-4.589587303486561e-03 -0.000000000000000e+00 -2.104750757654034e-19
-4.589566902132588e-03 -0.000000000000000e+00 -2.104754399943738e-19
-4.589546536394622e-03 -0.000000000000000e+00 -2.104758035771414e-19
-4.589526214637064e-03 -0.000000000000000e+00 -2.104761663932904e-19
-4.589505928124489e-03 -0.000000000000000e+00 -2.104765285342716e-19
-4.589485685222085e-03 -0.000000000000000e+00 -2.104768899559434e-19
-4.589465477193199e-03 -0.000000000000000e+00 -2.104772507020823e-19
-4.589445312403690e-03 -0.000000000000000e+00 -2.104776107045713e-19
-4.589425182117587e-03 -0.000000000000000e+00 -2.104779700790617e-19
-4.589405092563062e-03 -0.000000000000000e+00 -2.104783287259015e-19
-4.589385043555459e-03 -0.000000000000000e+00 -2.104786866600825e-19
-4.589365028495323e-03 -0.000000000000000e+00 -2.104790439742443e-19
-4.589345055750022e-03 -0.000000000000000e+00 -2.104794005330098e-19
-4.589325116583137e-03 -0.000000000000000e+00 -2.104797565047255e-19
-4.589305219361308e-03 -0.000000000000000e+00 -2.104801117196983e-19
-4.589285355347449e-03 -0.000000000000000e+00 -2.104804663350982e-19
-4.589265532909331e-03 -0.000000000000000e+00 -2.104808202134499e-19
-4.589245743310435e-03 -0.000000000000000e+00 -2.104811735116418e-19
-4.589225992779384e-03 -0.000000000000000e+00 -2.104815261075484e-19
-4.589206281131121e-03 -0.000000000000000e+00 -2.104818780191043e-19
-4.589186601768313e-03 -0.000000000000000e+00 -2.104822293423591e-19
-4.589166963056833e-03 -0.000000000000000e+00 -2.104825799223746e-19
-4.589147356261081e-03 -0.000000000000000e+00 -2.104829299602733e-19
-4.589127789747310e-03 -0.000000000000000e+00 -2.104832792638941e-19
-4.589108254779111e-03 -0.000000000000000e+00 -2.104836280074817e-19
-4.589088759724006e-03 -0.000000000000000e+00 -2.104839760345839e-19
-4.589069295844153e-03 -0.000000000000000e+00 -2.104843234935755e-19
-4.589049871507923e-03 -0.000000000000000e+00 -2.104846702990431e-19
-4.589030477977236e-03 -0.000000000000000e+00 -2.104850164869023e-19
-4.589011121481862e-03 -0.000000000000000e+00 -2.104853620405276e-19
-4.588991801835939e-03 -0.000000000000000e+00 -2.104857069444128e-19
-4.588972512440865e-03 -0.000000000000000e+00 -2.104860512896012e-19
-4.588953261662662e-03 -0.000000000000000e+00 -2.104863949765463e-19
-4.588934040765462e-03 -0.000000000000000e+00 -2.104867380841474e-19
-4.588914858114047e-03 -0.000000000000000e+00 -2.104870805452391e-19
-4.588895704972160e-03 -0.000000000000000e+00 -2.104874224579500e-19
-4.588876589705521e-03 -0.000000000000000e+00 -2.104877637232527e-19
-4.588857503577360e-03 -0.000000000000000e+00 -2.104881044236713e-19
-4.588838452814467e-03 -0.000000000000000e+00 -2.104884445164245e-19
-4.588819437231117e-03 -0.000000000000000e+00 -2.104887840054941e-19
-4.588800450227706e-03 -0.000000000000000e+00 -2.104891229331547e-19
-4.588781500170442e-03 -0.000000000000000e+00 -2.104894612519886e-19
-4.588762578319378e-03 -0.000000000000000e+00 -2.104897990131715e-19
-4.588743693041612e-03 -0.000000000000000e+00 -2.104901361622592e-19
-4.588724835597719e-03 -0.000000000000000e+00 -2.104904728013641e-19
-4.588706014352109e-03 -0.000000000000000e+00 -2.104908088019664e-19
-4.588687220567726e-03 -0.000000000000000e+00 -2.104911442906032e-19
-4.588668462607056e-03 -0.000000000000000e+00 -2.104914791715023e-19
-4.588649731731776e-03 -0.000000000000000e+00 -2.104918135332374e-19
-4.588631034169331e-03 -0.000000000000000e+00 -2.104921473313671e-19
-4.588612369730021e-03 -0.000000000000000e+00 -2.104924805156716e-19
-4.588593731813245e-03 -0.000000000000000e+00 -2.104928132439486e-19
-4.588575128782238e-03 -0.000000000000000e+00 -2.104931453263507e-19
-4.588556551897700e-03 -0.000000000000000e+00 -2.104934769669708e-19
-4.588538009521224e-03 -0.000000000000000e+00 -2.104938079769816e-19
-4.588519492913896e-03 -0.000000000000000e+00 -2.104941385232405e-19
-4.588501010437640e-03 -0.000000000000000e+00 -2.104944684883334e-19
-4.588482553351102e-03 -0.000000000000000e+00 -2.104947979514503e-19
-4.588464127879203e-03 -0.000000000000000e+00 -2.104951268956457e-19
-4.588445733831639e-03 -0.000000000000000e+00 -2.104954552603950e-19
-4.588427364605888e-03 -0.000000000000000e+00 -2.104957831590417e-19
-4.588409028561243e-03 -0.000000000000000e+00 -2.104961105128822e-19
-4.588390716958167e-03 -0.000000000000000e+00 -2.104964373943996e-19
-4.588372438155114e-03 -0.000000000000000e+00 -2.104967637071824e-19
-4.588354183411251e-03 -0.000000000000000e+00 -2.104970895744842e-19
-4.588335961086325e-03 -0.000000000000000e+00 -2.104974148999534e-19
-4.588317762435980e-03 -0.000000000000000e+00 -2.104977397534599e-19
-4.588299595821522e-03 -0.000000000000000e+00 -2.104980640759836e-19
-4.588281452498822e-03 -0.000000000000000e+00 -2.104983879537379e-19
-4.588263338687937e-03 -0.000000000000000e+00 -2.104987113162404e-19
-4.588245254197573e-03 -0.000000000000000e+00 -2.104990341660219e-19
-4.588227192420037e-03 -0.000000000000000e+00 -2.104993565866685e-19
-4.588209161713394e-03 -0.000000000000000e+00 -2.104996784771649e-19
-4.588191153333239e-03 -0.000000000000000e+00 -2.104999999601601e-19
-4.588173175635622e-03 -0.000000000000000e+00 -2.105003208843983e-19
-4.588155219876608e-03 -0.000000000000000e+00 -2.105006414245724e-19
-4.588137294410927e-03 -0.000000000000000e+00 -2.105009614529203e-19
-4.588119390493244e-03 -0.000000000000000e+00 -2.105012810366176e-19
-4.588101514341571e-03 -0.000000000000000e+00 -2.105016001685473e-19
-4.588083665759662e-03 -0.000000000000000e+00 -2.105019188051051e-19
-4.588065838138447e-03 -0.000000000000000e+00 -2.105022370733590e-19
-4.588048039832287e-03 -0.000000000000000e+00 -2.105025548011325e-19
-4.588030262093363e-03 -0.000000000000000e+00 -2.105028721652040e-19
-4.588012513275065e-03 -0.000000000000000e+00 -2.105031890216762e-19
-4.587994784629588e-03 -0.000000000000000e+00 -2.105035055116546e-19
-4.587977084508906e-03 -0.000000000000000e+00 -2.105038215149271e-19
-4.587959404164032e-03 -0.000000000000000e+00 -2.105041371283126e-19
-4.587941751947759e-03 -0.000000000000000e+00 -2.105044522635265e-19
-4.587924119109087e-03 -0.000000000000000e+00 -2.105047670337130e-19
-4.587906511862679e-03 -0.000000000000000e+00 -2.105050813788649e-19
-4.587888930007483e-03 -0.000000000000000e+00 -2.105053952799433e-19
-4.587871366930152e-03 -0.000000000000000e+00 -2.105057087930090e-19
-4.587853830980424e-03 -0.000000000000000e+00 -2.105060218716703e-19
-4.587836313407327e-03 -0.000000000000000e+00 -2.105063345826564e-19
-4.587818822559171e-03 -0.000000000000000e+00 -2.105066468569861e-19
-4.587801349683356e-03 -0.000000000000000e+00 -2.105069588073109e-19
-4.587783903127597e-03 -0.000000000000000e+00 -2.105072702816373e-19
-4.587766474138420e-03 -0.000000000000000e+00 -2.105075814053365e-19
-4.587749068925779e-03 -0.000000000000000e+00 -2.105078921654256e-19
-4.587731687286180e-03 -0.000000000000000e+00 -2.105082024862914e-19
-4.587714322600667e-03 -0.000000000000000e+00 -2.105085124925757e-19
-4.587696983216648e-03 -0.000000000000000e+00 -2.105088220764868e-19
-4.587679660377588e-03 -0.000000000000000e+00 -2.105091313304711e-19
-4.587662362428642e-03 -0.000000000000000e+00 -2.105094401832915e-19
-4.587645080612894e-03 -0.000000000000000e+00 -2.105097487056539e-19
-4.587627823274106e-03 -0.000000000000000e+00 -2.105100568121636e-19
-4.587610581654714e-03 -0.000000000000000e+00 -2.105103646606782e-19
-4.587593364097599e-03 -0.000000000000000e+00 -2.105106720533165e-19
-4.587576161844324e-03 -0.000000000000000e+00 -2.105109791674870e-19
-4.587558981099459e-03 -0.000000000000000e+00 -2.105112859279332e-19
-4.587541821653032e-03 -0.000000000000000e+00 -2.105115923215338e-19
-4.587524676882885e-03 -0.000000000000000e+00 -2.105118984226126e-19
-4.587507555129630e-03 -0.000000000000000e+00 -2.105122041267141e-19
-4.587490447632570e-03 -0.000000000000000e+00 -2.105125095720951e-19
-4.587473362729945e-03 -0.000000000000000e+00 -2.105128146548307e-19
-4.587456291660327e-03 -0.000000000000000e+00 -2.105131194496256e-19
-4.587439242762772e-03 -0.000000000000000e+00 -2.105134238801250e-19
-4.587422207272078e-03 -0.000000000000000e+00 -2.105137280566062e-19
-4.587405191389520e-03 -0.000000000000000e+00 -2.105140318738299e-19
-4.587388194901667e-03 -0.000000000000000e+00 -2.105143353843179e-19
-4.587371211180215e-03 -0.000000000000000e+00 -2.105146386535740e-19
-4.587354248562117e-03 -0.000000000000000e+00 -2.105149415521787e-19
-4.587337298279939e-03 -0.000000000000000e+00 -2.105152442191703e-19
-4.587320368669283e-03 -0.000000000000000e+00 -2.105155465611189e-19
-4.587303450963507e-03 -0.000000000000000e+00 -2.105158486539219e-19
-4.587286553495489e-03 -0.000000000000000e+00 -2.105161504231293e-19
-4.587269667497183e-03 -0.000000000000000e+00 -2.105164519747752e-19
-4.587252801301479e-03 -0.000000000000000e+00 -2.105167531841272e-19
-4.587235946138968e-03 -0.000000000000000e+00 -2.105170541977724e-19
-4.587219108203070e-03 -0.000000000000000e+00 -2.105173549022115e-19
-4.587202287274518e-03 -0.000000000000000e+00 -2.105176553373677e-19
-4.587185476719203e-03 -0.000000000000000e+00 -2.105179555469639e-19
-4.587168684868193e-03 -0.000000000000000e+00 -2.105182554779833e-19
-4.587151902947359e-03 -0.000000000000000e+00 -2.105185552054556e-19
-4.587135139286973e-03 -0.000000000000000e+00 -2.105188546502023e-19
-4.587118385112821e-03 -0.000000000000000e+00 -2.105191539032774e-19
-4.587101648752783e-03 -0.000000000000000e+00 -2.105194528632895e-19
-4.587084921432013e-03 -0.000000000000000e+00 -2.105197516503488e-19
-4.587068209339409e-03 -0.000000000000000e+00 -2.105200501778723e-19
-4.587051512249377e-03 -0.000000000000000e+00 -2.105203484792610e-19
-4.587034823523113e-03 -0.000000000000000e+00 -2.105206466032636e-19
-4.587018151486147e-03 -0.000000000000000e+00 -2.105209444781734e-19
-4.587001487360591e-03 -0.000000000000000e+00 -2.105212421819125e-19
-4.586984839468028e-03 -0.000000000000000e+00 -2.105215396324964e-19
-4.586968199031786e-03 -0.000000000000000e+00 -2.105218369378309e-19
-4.586951574373346e-03 -0.000000000000000e+00 -2.105221340089590e-19
-4.586934956711792e-03 -0.000000000000000e+00 -2.105224309270272e-19
-4.586918354369375e-03 -0.000000000000000e+00 -2.105227276362908e-19
-4.586901758562445e-03 -0.000000000000000e+00 -2.105230241870755e-19
-4.586885175475336e-03 -0.000000000000000e+00 -2.105233205633979e-19
-4.586868604875534e-03 -0.000000000000000e+00 -2.105236167584349e-19
-4.586852040117082e-03 -0.000000000000000e+00 -2.105239128120989e-19
-4.586835489517619e-03 -0.000000000000000e+00 -2.105242086325723e-19
-4.586818944293577e-03 -0.000000000000000e+00 -2.105245043878929e-19
-4.586802412760133e-03 -0.000000000000000e+00 -2.105247999282001e-19
-4.586785886132162e-03 -0.000000000000000e+00 -2.105250954035647e-19
-4.586769372725041e-03 -0.000000000000000e+00 -2.105253906629664e-19
-4.586752863751277e-03 -0.000000000000000e+00 -2.105256858226005e-19
-4.586736365386368e-03 -0.000000000000000e+00 -2.105259808614729e-19
-4.586719877394218e-03 -0.000000000000000e+00 -2.105262757428136e-19
-4.586703393121744e-03 -0.000000000000000e+00 -2.105265705581969e-19
-4.586686920882235e-03 -0.000000000000000e+00 -2.105268651966043e-19
-4.586670451884255e-03 -0.000000000000000e+00 -2.105271597962713e-19
-4.586653994439195e-03 -0.000000000000000e+00 -2.105274542318583e-19
-4.586637539754052e-03 -0.000000000000000e+00 -2.105277486191557e-19
-4.586621096139556e-03 -0.000000000000000e+00 -2.105280429052205e-19
-4.586604654800890e-03 -0.000000000000000e+00 -2.105283371239896e-19
-4.586588224046916e-03 -0.000000000000000e+00 -2.105286312267387e-19
-4.586571795082286e-03 -0.000000000000000e+00 -2.105289252841023e-19
-4.586555374076377e-03 -0.000000000000000e+00 -2.105292193032105e-19
-4.586538960784280e-03 -0.000000000000000e+00 -2.105295132133568e-19
-4.586522548545321e-03 -0.000000000000000e+00 -2.105298071152194e-19
-4.586506145665279e-03 -0.000000000000000e+00 -2.105301009268585e-19
-4.586489743346051e-03 -0.000000000000000e+00 -2.105303947822932e-19
-4.586473349888554e-03 -0.000000000000000e+00 -2.105306885301500e-19
-4.586456956495645e-03 -0.000000000000000e+00 -2.105309823230884e-19
-4.586440571466946e-03 -0.000000000000000e+00 -2.105312760359054e-19
-4.586424186000826e-03 -0.000000000000000e+00 -2.105315698078279e-19
-4.586407806261027e-03 -0.000000000000000e+00 -2.105318635379534e-19
-4.586391431994716e-03 -0.000000000000000e+00 -2.105321572725823e-19
-4.586375056535410e-03 -0.000000000000000e+00 -2.105324510988258e-19
-4.586358688181671e-03 -0.000000000000000e+00 -2.105327448580900e-19
-4.586342318127271e-03 -0.000000000000000e+00 -2.105330387391855e-19
-4.586325954668785e-03 -0.000000000000000e+00 -2.105333326058038e-19
-4.586309588998297e-03 -0.000000000000000e+00 -2.105336266078502e-19
-4.586293229410301e-03 -0.000000000000000e+00 -2.105339205824278e-19
-4.586276867096429e-03 -0.000000000000000e+00 -2.105342147397346e-19
-4.586260510348546e-03 -0.000000000000000e+00 -2.105345089190280e-19
-4.586244150355111e-03 -0.000000000000000e+00 -2.105348032239667e-19
-4.586227793269748e-03 -0.000000000000000e+00 -2.105350976773878e-19
-4.586211438831127e-03 -0.000000000000000e+00 -2.105353922124570e-19
-4.586195080362452e-03 -0.000000000000000e+00 -2.105356869373759e-19
-4.586178726151227e-03 -0.000000000000000e+00 -2.105359817943221e-19
-4.586162367381752e-03 -0.000000000000000e+00 -2.105362768689177e-19
-4.586146012339558e-03 -0.000000000000000e+00 -2.105365721048188e-19
-4.586129652205027e-03 -0.000000000000000e+00 -2.105368675821214e-19
-4.586113295262372e-03 -0.000000000000000e+00 -2.105371632632451e-19
-4.586096932689685e-03 -0.000000000000000e+00 -2.105374592339655e-19
-4.586080570629454e-03 -0.000000000000000e+00 -2.105377554530658e-19
-4.586064208809550e-03 -0.000000000000000e+00 -2.105380519718845e-19
-4.586047840541826e-03 -0.000000000000000e+00 -2.105383488200473e-19
-4.586031474102337e-03 -0.000000000000000e+00 -2.105386460171322e-19
-4.586015100662517e-03 -0.000000000000000e+00 -2.105389436362243e-19
-4.585998728494380e-03 -0.000000000000000e+00 -2.105392415895161e-19
-4.585982348765321e-03 -0.000000000000000e+00 -2.105395400550701e-19
-4.585965969744498e-03 -0.000000000000000e+00 -2.105398389257555e-19
-4.585949582594406e-03 -0.000000000000000e+00 -2.105401383932661e-19
-4.585933195578612e-03 -0.000000000000000e+00 -2.105404383634857e-19
-4.585916799855594e-03 -0.000000000000000e+00 -2.105407389780721e-19
-4.585900401545970e-03 -0.000000000000000e+00 -2.105410402165448e-19
-4.585884000353860e-03 -0.000000000000000e+00 -2.105413421160616e-19
-4.585867589566755e-03 -0.000000000000000e+00 -2.105416448637064e-19
-4.585851177432594e-03 -0.000000000000000e+00 -2.105419483206706e-19
-4.585834755094592e-03 -0.000000000000000e+00 -2.105422527364594e-19
-4.585818330792271e-03 -0.000000000000000e+00 -2.105425580314474e-19
-4.585801895659773e-03 -0.000000000000000e+00 -2.105428643457746e-19
-4.585785457928203e-03 -0.000000000000000e+00 -2.105431717150200e-19
-4.585769008720234e-03 -0.000000000000000e+00 -2.105434802697810e-19
-4.585752554117925e-03 -0.000000000000000e+00 -2.105437900209658e-19
-4.585736093781434e-03 -0.000000000000000e+00 -2.105441010614162e-19
-4.585719620953171e-03 -0.000000000000000e+00 -2.105444134863613e-19
-4.585703143828804e-03 -0.000000000000000e+00 -2.105447273089215e-19
-4.585686653492974e-03 -0.000000000000000e+00 -2.105450426346537e-19
-4.585670158122002e-03 -0.000000000000000e+00 -2.105453594490231e-19
-4.585653648777470e-03 -0.000000000000000e+00 -2.105456778713589e-19
-4.585637133605972e-03 -0.000000000000000e+00 -2.105459977082293e-19
-4.585620603634660e-03 -0.000000000000000e+00 -2.105463190252770e-19
-4.585604066970480e-03 -0.000000000000000e+00 -2.105466415634741e-19
-4.585587514586374e-03 -0.000000000000000e+00 -2.105469652421462e-19
-4.585570952380148e-03 -0.000000000000000e+00 -2.105472895426126e-19
-4.585554379782461e-03 -0.000000000000000e+00 -2.105476139880878e-19
-4.585537789736133e-03 -0.000000000000000e+00 -2.105479379230518e-19
-4.585521190041866e-03 -0.000000000000000e+00 -2.105482602657152e-19
-4.585504571251903e-03 -0.000000000000000e+00 -2.105485798336673e-19
-4.585487940809075e-03 -0.000000000000000e+00 -2.105488948189142e-19
-4.585471288768949e-03 -0.000000000000000e+00 -2.105492033013626e-19
-4.585454621906007e-03 -0.000000000000000e+00 -2.105495026127023e-19
-4.585437931567868e-03 -0.000000000000000e+00 -2.105497898980559e-19
-4.585421217625832e-03 -0.000000000000000e+00 -2.105500618266287e-19
-4.585404478938718e-03 -0.000000000000000e+00 -2.105503148636806e-19
-4.585387707327444e-03 -0.000000000000000e+00 -2.105505457170835e-19
-4.585370914700634e-03 -0.000000000000000e+00 -2.105507514483883e-19
-4.585354112568591e-03 -0.000000000000000e+00 -2.105509301941647e-19
-4.585337378605818e-03 -0.000000000000000e+00 -2.105510813025052e-19
-4.585320908391118e-03 -0.000000000000000e+00 -2.105512049395454e-19
-4.585305241101460e-03 -0.000000000000000e+00 -2.105513001098774e-19
-4.585291384305367e-03 -0.000000000000000e+00 -2.105513628723138e-19
-4.585279645130385e-03 -0.000000000000000e+00 -2.105513998210997e-19
4.556221336018621e-03 0.000000000000000e+00 2.110694077967669e-19
 4.556200905933509e-03 -0.000000000000000e+00  2.110699438230849e-19
4.556243684337852e-03 0.000000000000000e+00 2.110688385293738e-19
4.556263922033792e-03 0.000000000000000e+00 2.110682950034989e-19
4.556282339711038e-03 0.000000000000000e+00 2.110677839976179e-19
4.556299962621030e-03 0.000000000000000e+00 2.110673013785384e-19
4.556317313418011e-03 0.000000000000000e+00 2.110668462879072e-19
4.556334605363172e-03 0.000000000000000e+00 2.110664187419869e-19
4.556351899608318e-03 0.000000000000000e+00 2.110660182470955e-19
4.556369225345677e-03 0.000000000000000e+00 2.110656427065307e-19
4.556386577960974e-03 0.000000000000000e+00 2.110652894018578e-19
4.556403964818855e-03 0.000000000000000e+00 2.110649548565710e-19
4.556421378944681e-03 0.000000000000000e+00 2.110646355797106e-19
4.556438814374323e-03 0.000000000000000e+00 2.110643283686939e-19
4.556456277999859e-03 0.000000000000000e+00 2.110640301102910e-19
4.556473760072269e-03 0.000000000000000e+00 2.110637383561933e-19
4.556491268327047e-03 0.000000000000000e+00 2.110634509519919e-19
4.556508793684012e-03 0.000000000000000e+00 2.110631663117052e-19
4.556526344374839e-03 0.000000000000000e+00 2.110628830213484e-19
4.556543911677349e-03 0.000000000000000e+00 2.110626002294626e-19
4.556561504075450e-03 0.000000000000000e+00 2.110623170577034e-19
4.556579115164294e-03 0.000000000000000e+00 2.110620330486928e-19
4.556596745005936e-03 0.000000000000000e+00 2.110617478631871e-19
4.556614400115056e-03 0.000000000000000e+00 2.110614611317462e-19
4.556632072072908e-03 0.000000000000000e+00 2.110611728294641e-19
4.556649769585624e-03 0.000000000000000e+00 2.110608828005645e-19
4.556667484274164e-03 0.000000000000000e+00 2.110605910594207e-19
4.556685224878334e-03 0.000000000000000e+00 2.110602975123534e-19
4.556702983048519e-03 0.000000000000000e+00 2.110600023361363e-19
4.556720767546599e-03 0.000000000000000e+00 2.110597053854707e-19
4.556738570042469e-03 0.000000000000000e+00 2.110594068958135e-19
4.556756399316552e-03 0.000000000000000e+00 2.110591067877585e-19
4.556774249191473e-03 0.000000000000000e+00 2.110588052122444e-19
4.556792119910245e-03 0.000000000000000e+00 2.110585022138479e-19
4.556810018133946e-03 0.000000000000000e+00 2.110581978043468e-19
4.556827935566523e-03 0.000000000000000e+00 2.110578921096452e-19
4.556845881016183e-03 0.000000000000000e+00 2.110575851574144e-19
4.556863846194692e-03 0.000000000000000e+00 2.110572770058375e-19
4.556881839919749e-03 0.000000000000000e+00 2.110569676882121e-19
4.556899853909405e-03 0.000000000000000e+00 2.110566573098417e-19
4.556917896988715e-03 0.000000000000000e+00 2.110563458017499e-19
4.556935963020261e-03 0.000000000000000e+00 2.110560333244688e-19
4.556954052282289e-03 0.000000000000000e+00 2.110557199034119e-19
4.556972171468829e-03 0.000000000000000e+00 2.110554054731294e-19
4.556990312312308e-03 0.000000000000000e+00 2.110550901747454e-19
4.557008483649021e-03 0.000000000000000e+00 2.110547739159981e-19
4.557026677214012e-03 0.000000000000000e+00 2.110544568870347e-19
4.557044901847075e-03 0.000000000000000e+00 2.110541389269311e-19
4.557063149288058e-03 0.000000000000000e+00 2.110538202118046e-19
4.557081428378349e-03 0.000000000000000e+00 2.110535006445132e-19
4.557099730860839e-03 0.000000000000000e+00 2.110531803568549e-19
4.557118065579632e-03 0.000000000000000e+00 2.110528592407327e-19
4.557136426416735e-03 0.000000000000000e+00 2.110525373957249e-19
4.557154813668995e-03 0.000000000000000e+00 2.110522148103522e-19
4.557173234044901e-03 0.000000000000000e+00 2.110518914502408e-19
4.557191679293126e-03 0.000000000000000e+00 2.110515674125048e-19
4.557210158262364e-03 0.000000000000000e+00 2.110512426245376e-19
4.557228662700521e-03 0.000000000000000e+00 2.110509171647053e-19
4.557247201459531e-03 0.000000000000000e+00 2.110505909558756e-19
4.557265766288612e-03 0.000000000000000e+00 2.110502640784740e-19
4.557284366040873e-03 0.000000000000000e+00 2.110499365008840e-19
4.557302994603666e-03 0.000000000000000e+00 2.110496082120558e-19
4.557321652279539e-03 0.000000000000000e+00 2.110492792826202e-19
4.557340345785137e-03 0.000000000000000e+00 2.110489496083646e-19
4.557359066872452e-03 0.000000000000000e+00 2.110486193069048e-19
4.557377824395779e-03 0.000000000000000e+00 2.110482882517088e-19
4.557396610108575e-03 0.000000000000000e+00 2.110479566053397e-19
4.557415432866049e-03 0.000000000000000e+00 2.110476242156473e-19
4.557434284422141e-03 0.000000000000000e+00 2.110472911929214e-19
4.557453173632910e-03 0.000000000000000e+00 2.110469574324698e-19
4.557472092251161e-03 0.000000000000000e+00 2.110466230215635e-19
4.557491049136024e-03 0.000000000000000e+00 2.110462878912950e-19
4.557510038178283e-03 0.000000000000000e+00 2.110459521079503e-19
4.557529059684338e-03 0.000000000000000e+00 2.110456156589890e-19
4.557548120375039e-03 0.000000000000000e+00 2.110452784944693e-19
4.557567212004182e-03 0.000000000000000e+00 2.110449406613023e-19
4.557586343430414e-03 0.000000000000000e+00 2.110446021201258e-19
4.557605506408846e-03 0.000000000000000e+00 2.110442629172177e-19
4.557624709798353e-03 0.000000000000000e+00 2.110439229681243e-19
4.557643945354356e-03 0.000000000000000e+00 2.110435823245995e-19
4.557663221935787e-03 0.000000000000000e+00 2.110432409844593e-19
4.557682533436361e-03 0.000000000000000e+00 2.110428989281169e-19
4.557701880163226e-03 0.000000000000000e+00 2.110425562140803e-19
4.557721268838777e-03 0.000000000000000e+00 2.110422127437036e-19
4.557740691218224e-03 0.000000000000000e+00 2.110418685913311e-19
4.557760156160995e-03 0.000000000000000e+00 2.110415236629436e-19
4.557779655423777e-03 0.000000000000000e+00 2.110411780666989e-19
4.557799197865484e-03 0.000000000000000e+00 2.110408316939029e-19
4.557818775243591e-03 0.000000000000000e+00 2.110404845958322e-19
4.557838396415784e-03 0.000000000000000e+00 2.110401367497347e-19
4.557858053140543e-03 0.000000000000000e+00 2.110397882322920e-19
4.557877754276191e-03 0.000000000000000e+00 2.110394389118780e-19
4.557897493718438e-03 0.000000000000000e+00 2.110390888440399e-19
4.557917271773761e-03 0.000000000000000e+00 2.110387380564415e-19
4.557937095165015e-03 0.000000000000000e+00 2.110383864721588e-19
4.557956955648621e-03 0.000000000000000e+00 2.110380341651076e-19
4.557976862083080e-03 0.000000000000000e+00 2.110376810396547e-19
4.557996806226696e-03 0.000000000000000e+00 2.110373271771583e-19
4.558016796938111e-03 0.000000000000000e+00 2.110369725275180e-19
4.558036825972627e-03 0.000000000000000e+00 2.110366171147226e-19
4.558056902191869e-03 0.000000000000000e+00 2.110362608768323e-19
4.558077019488601e-03 0.000000000000000e+00 2.110359039054104e-19
4.558097178171044e-03 0.000000000000000e+00 2.110355461140531e-19
4.558117384960307e-03 0.000000000000000e+00 2.110351875244351e-19
4.558137631612624e-03 0.000000000000000e+00 2.110348281186307e-19
4.558157926987303e-03 0.000000000000000e+00 2.110344678819907e-19
4.558178262840654e-03 0.000000000000000e+00 2.110341068861820e-19
4.558198648030348e-03 0.000000000000000e+00 2.110337450404227e-19
4.558219074313212e-03 0.000000000000000e+00 2.110333823729471e-19
4.558239550547317e-03 0.000000000000000e+00 2.110330188391125e-19
4.558260068488811e-03 0.000000000000000e+00 2.110326545372336e-19
4.558280636995497e-03 0.000000000000000e+00 2.110322893460336e-19
4.558301249961151e-03 0.000000000000000e+00 2.110319233251593e-19
4.558321907692326e-03 0.000000000000000e+00 2.110315564901748e-19
4.558342616908219e-03 0.000000000000000e+00 2.110311887322472e-19
4.558363369365578e-03 0.000000000000000e+00 2.110308201906551e-19
4.558384173919780e-03 0.000000000000000e+00 2.110304507229069e-19
4.558405022327885e-03 0.000000000000000e+00 2.110300804201722e-19
4.558425923445143e-03 0.000000000000000e+00 2.110297092088521e-19
4.558446869027342e-03 0.000000000000000e+00 2.110293371730208e-19
4.558467867930301e-03 0.000000000000000e+00 2.110289641845957e-19
4.558488914046509e-03 0.000000000000000e+00 2.110285903441715e-19
4.558510007681360e-03 0.000000000000000e+00 2.110282156197234e-19
4.558531155552468e-03 0.000000000000000e+00 2.110278399891040e-19
4.558552349413648e-03 0.000000000000000e+00 2.110274634486443e-19
4.558573598121732e-03 0.000000000000000e+00 2.110270859705525e-19
4.558594893428566e-03 0.000000000000000e+00 2.110267076074496e-19
4.558616244190121e-03 0.000000000000000e+00 2.110263282856483e-19
4.558637642159215e-03 0.000000000000000e+00 2.110259480781052e-19
4.558659096190023e-03 0.000000000000000e+00 2.110255669093280e-19
4.558680598035454e-03 0.000000000000000e+00 2.110251848546210e-19
4.558702156549663e-03 0.000000000000000e+00 2.110248017727793e-19
4.558723765622688e-03 0.000000000000000e+00 2.110244178040633e-19
4.558745425557112e-03 0.000000000000000e+00 2.110240328888404e-19
4.558767143067527e-03 0.000000000000000e+00 2.110236469629459e-19
4.558788909906688e-03 0.000000000000000e+00 2.110232601279524e-19
4.558810734927385e-03 0.000000000000000e+00 2.110228722929739e-19
4.558832609879001e-03 0.000000000000000e+00 2.110224835195089e-19
4.558854543614768e-03 0.000000000000000e+00 2.110220937040358e-19
4.558876527885139e-03 0.000000000000000e+00 2.110217029512040e-19
4.558898571541859e-03 0.000000000000000e+00 2.110213112028117e-19
4.558920668471201e-03 0.000000000000000e+00 2.110209184393054e-19
4.558942818974438e-03 0.000000000000000e+00 2.110205247225183e-19
4.558965029764431e-03 0.000000000000000e+00 2.110201299407581e-19
4.558987292589560e-03 0.000000000000000e+00 2.110197342083375e-19
4.559009616300438e-03 0.000000000000000e+00 2.110193374181061e-19
4.559031992644603e-03 0.000000000000000e+00 2.110189396503715e-19
4.559054430472374e-03 0.000000000000000e+00 2.110185407707168e-19
4.559076921530590e-03 0.000000000000000e+00 2.110181409581137e-19
4.559099474669010e-03 0.000000000000000e+00 2.110177400469706e-19
4.559122081632561e-03 0.000000000000000e+00 2.110173381094116e-19
4.559144751271924e-03 0.000000000000000e+00 2.110169351250642e-19
4.559167477468482e-03 0.000000000000000e+00 2.110165310963853e-19
4.559190260520153e-03 0.000000000000000e+00 2.110161260019247e-19
4.559213107136761e-03 0.000000000000000e+00 2.110157198388855e-19
4.559236009062047e-03 0.000000000000000e+00 2.110153126419057e-19
4.559258975143731e-03 0.000000000000000e+00 2.110149043212600e-19
4.559281997125311e-03 0.000000000000000e+00 2.110144949823575e-19
4.559305083852501e-03 0.000000000000000e+00 2.110140845095337e-19
4.559328227069032e-03 0.000000000000000e+00 2.110136729761365e-19
4.559351435620704e-03 0.000000000000000e+00 2.110132603168095e-19
4.559374703385776e-03 0.000000000000000e+00 2.110128465864426e-19
4.559398030659533e-03 0.000000000000000e+00 2.110124317760020e-19
4.559421424147381e-03 0.000000000000000e+00 2.110120158012361e-19
4.559444875590750e-03 0.000000000000000e+00 2.110115987491709e-19
4.559468393832701e-03 0.000000000000000e+00 2.110111805427935e-19
4.559491970613237e-03 0.000000000000000e+00 2.110107612542741e-19
4.559515614776220e-03 0.000000000000000e+00 2.110103408028861e-19
4.559539318060175e-03 0.000000000000000e+00 2.110099192491833e-19
4.559563089307582e-03 0.000000000000000e+00 2.110094965188508e-19
4.559586920255522e-03 0.000000000000000e+00 2.110090726972704e-19
4.559610819746663e-03 0.000000000000000e+00 2.110086476624198e-19
4.559634781655481e-03 0.000000000000000e+00 2.110082214977005e-19
4.559658806271549e-03 0.000000000000000e+00 2.110077941707787e-19
4.559682900296117e-03 0.000000000000000e+00 2.110073656795119e-19
4.559707055465535e-03 0.000000000000000e+00 2.110069360472706e-19
4.559731280619064e-03 0.000000000000000e+00 2.110065051925884e-19
4.559755567492429e-03 0.000000000000000e+00 2.110060731787992e-19
4.559779924921877e-03 0.000000000000000e+00 2.110056399624491e-19
4.559804344644234e-03 0.000000000000000e+00 2.110052055771678e-19
4.559828835494694e-03 0.000000000000000e+00 2.110047699905202e-19
4.559853391346067e-03 0.000000000000000e+00 2.110043331798682e-19
4.559878012482449e-03 0.000000000000000e+00 2.110038952166268e-19
4.559902705602093e-03 0.000000000000000e+00 2.110034559750853e-19
4.559927462436025e-03 0.000000000000000e+00 2.110030155848378e-19
4.559952291820146e-03 0.000000000000000e+00 2.110025738941487e-19
4.559977185485020e-03 0.000000000000000e+00 2.110021310680393e-19
4.560002152265666e-03 0.000000000000000e+00 2.110016869305089e-19
4.560027183890298e-03 0.000000000000000e+00 2.110012416279119e-19
4.560052289193456e-03 0.000000000000000e+00 2.110007950251099e-19
4.560077459904227e-03 0.000000000000000e+00 2.110003472017052e-19
4.560102704853197e-03 0.000000000000000e+00 2.109998981179791e-19
4.560128017908108e-03 0.000000000000000e+00 2.109994477708721e-19
4.560153399347772e-03 0.000000000000000e+00 2.109989961964157e-19
4.560178855864441e-03 0.000000000000000e+00 2.109985433097563e-19
4.560204379185422e-03 0.000000000000000e+00 2.109980892255280e-19
4.560229978139752e-03 0.000000000000000e+00 2.109976337932011e-19
4.560255644452676e-03 0.000000000000000e+00 2.109971770965601e-19
4.560281386954200e-03 0.000000000000000e+00 2.109967191012141e-19
4.560307197367399e-03 0.000000000000000e+00 2.109962598810334e-19
4.560333084520825e-03 0.000000000000000e+00 2.109957992758900e-19
4.560359042275773e-03 0.000000000000000e+00 2.109953374216757e-19
4.560385070906416e-03 0.000000000000000e+00 2.109948742884908e-19
4.560411177101382e-03 0.000000000000000e+00 2.109944097923745e-19
4.560437352583080e-03 0.000000000000000e+00 2.109939440253086e-19
4.560463606175471e-03 0.000000000000000e+00 2.109934768897889e-19
4.560489929600594e-03 0.000000000000000e+00 2.109930084662003e-19
4.560516331681748e-03 0.000000000000000e+00 2.109925386443864e-19
4.560542804138468e-03 0.000000000000000e+00 2.109920675935034e-19
4.560569355795327e-03 0.000000000000000e+00 2.109915951378224e-19
4.560595978369429e-03 0.000000000000000e+00 2.109911213770518e-19
4.560622680682415e-03 0.000000000000000e+00 2.109906461976736e-19
4.560649456592090e-03 0.000000000000000e+00 2.109901697094830e-19
4.560676306365636e-03 0.000000000000000e+00 2.109896918987646e-19
4.560703236685673e-03 0.000000000000000e+00 2.109892126626176e-19
4.560730239269446e-03 0.000000000000000e+00 2.109887321153728e-19
4.560757322934635e-03 0.000000000000000e+00 2.109882501507768e-19
4.560784479397391e-03 0.000000000000000e+00 2.109877668361712e-19
4.560811717475292e-03 0.000000000000000e+00 2.109872820835688e-19
4.560839028882656e-03 0.000000000000000e+00 2.109867960268915e-19
4.560866422436896e-03 0.000000000000000e+00 2.109863085137364e-19
4.560893891987820e-03 0.000000000000000e+00 2.109858196293598e-19
4.560921437801108e-03 0.000000000000000e+00 2.109853293657162e-19
4.560949066552028e-03 0.000000000000000e+00 2.109848376447303e-19
4.560976769954751e-03 0.000000000000000e+00 2.109843445570450e-19
4.561004556821395e-03 0.000000000000000e+00 2.109838500449082e-19
4.561032418863200e-03 0.000000000000000e+00 2.109833541111127e-19
4.561060364892815e-03 0.000000000000000e+00 2.109828567412448e-19
4.561088386619956e-03 0.000000000000000e+00 2.109823579498626e-19
4.561116492856580e-03 0.000000000000000e+00 2.109818576975518e-19
4.561144675310591e-03 0.000000000000000e+00 2.109813560694305e-19
4.561172942793665e-03 0.000000000000000e+00 2.109808529274082e-19
4.561201289150179e-03 0.000000000000000e+00 2.109803483759555e-19
4.561229714638166e-03 0.000000000000000e+00 2.109798423840376e-19
4.561258225930215e-03 0.000000000000000e+00 2.109793349057697e-19
4.561286814730107e-03 0.000000000000000e+00 2.109788260168488e-19
4.561315489846829e-03 0.000000000000000e+00 2.109783156072423e-19
4.561344242986178e-03 0.000000000000000e+00 2.109778037345499e-19
4.561373082952771e-03 0.000000000000000e+00 2.109772904023714e-19
4.561402001452203e-03 0.000000000000000e+00 2.109767756137366e-19
4.561431007288595e-03 0.000000000000000e+00 2.109762592697596e-19
4.561460094303717e-03 0.000000000000000e+00 2.109757414904599e-19
4.561489262750708e-03 0.000000000000000e+00 2.109752222331269e-19
4.561518519294377e-03 0.000000000000000e+00 2.109747014103943e-19
4.561547855637607e-03 0.000000000000000e+00 2.109741791437655e-19
4.561577280582980e-03 0.000000000000000e+00 2.109736553312328e-19
4.561606785829685e-03 0.000000000000000e+00 2.109731300580543e-19
4.561636380179876e-03 0.000000000000000e+00 2.109726032318861e-19
4.561666055333095e-03 0.000000000000000e+00 2.109720748873111e-19
4.561695820089431e-03 0.000000000000000e+00 2.109715450267753e-19
4.561725666147789e-03 0.000000000000000e+00 2.109710136337481e-19
4.561755602306438e-03 0.000000000000000e+00 2.109704806918138e-19
4.561785622401240e-03 0.000000000000000e+00 2.109699462255603e-19
4.561815726679155e-03 0.000000000000000e+00 2.109694102742367e-19
4.561845921801084e-03 0.000000000000000e+00 2.109688726793203e-19
4.561876199461466e-03 0.000000000000000e+00 2.109683335982513e-19
4.561906568458124e-03 0.000000000000000e+00 2.109677929191178e-19
4.561937020484727e-03 0.000000000000000e+00 2.109672507056535e-19
4.561967564338206e-03 0.000000000000000e+00 2.109667069225573e-19
4.561998191710893e-03 0.000000000000000e+00 2.109661616063426e-19
4.562028911398654e-03 0.000000000000000e+00 2.109656146298028e-19
4.562059715092714e-03 0.000000000000000e+00 2.109650661459697e-19
4.562090611588290e-03 0.000000000000000e+00 2.109645160631731e-19
4.562121594713625e-03 0.000000000000000e+00 2.109639644152930e-19
4.562152664710309e-03 0.000000000000000e+00 2.109634111836758e-19
4.562183828233860e-03 0.000000000000000e+00 2.109628563024120e-19
4.562215076973691e-03 0.000000000000000e+00 2.109622998516919e-19
4.562246419721244e-03 0.000000000000000e+00 2.109617417484631e-19
4.562277848165618e-03 0.000000000000000e+00 2.109611821096386e-19
4.562309371096439e-03 0.000000000000000e+00 2.109606208286268e-19
4.562340980202593e-03 0.000000000000000e+00 2.109600579464223e-19
4.562372684273648e-03 0.000000000000000e+00 2.109594934385479e-19
4.562404477132987e-03 0.000000000000000e+00 2.109589272900729e-19
4.562436359019067e-03 0.000000000000000e+00 2.109583595524905e-19
4.562468336582180e-03 0.000000000000000e+00 2.109577901505163e-19
4.562500401507702e-03 0.000000000000000e+00 2.109572191455756e-19
4.562532562582929e-03 0.000000000000000e+00 2.109566464130574e-19
4.562564811491704e-03 0.000000000000000e+00 2.109560721319254e-19
4.562597157021152e-03 0.000000000000000e+00 2.109554961340168e-19
4.562629590854309e-03 0.000000000000000e+00 2.109549185202543e-19
4.562662121776610e-03 0.000000000000000e+00 2.109543392207225e-19
4.562694741471247e-03 0.000000000000000e+00 2.109537583145089e-19
4.562727458721780e-03 0.000000000000000e+00 2.109531756611322e-19
4.562760267349312e-03 0.000000000000000e+00 2.109525913784589e-19
4.562793167584418e-03 0.000000000000000e+00 2.109520054509810e-19
4.562826166073943e-03 0.000000000000000e+00 2.109514177832861e-19
4.562859254497524e-03 0.000000000000000e+00 2.109508284888275e-19
4.562892441638211e-03 0.000000000000000e+00 2.109502374568787e-19
4.562925719175665e-03 0.000000000000000e+00 2.109496447755186e-19
4.562959095890830e-03 0.000000000000000e+00 2.109490503527182e-19
4.562992563462488e-03 0.000000000000000e+00 2.109484542965363e-19
4.563026130672321e-03 0.000000000000000e+00 2.109478565050315e-19
4.563059791334550e-03 0.000000000000000e+00 2.109472569881215e-19
4.563093545679424e-03 0.000000000000000e+00 2.109466557655849e-19
4.563127400348755e-03 0.000000000000000e+00 2.109460528418878e-19
4.563161347017762e-03 0.000000000000000e+00 2.109454481870894e-19
4.563195394466514e-03 0.000000000000000e+00 2.109448417831478e-19
4.563229534371151e-03 0.000000000000000e+00 2.109442337114581e-19
4.563263775509333e-03 0.000000000000000e+00 2.109436238727721e-19
4.563298109556433e-03 0.000000000000000e+00 2.109430123300950e-19
4.563332545289678e-03 0.000000000000000e+00 2.109423989896161e-19
4.563367074383556e-03 0.000000000000000e+00 2.109417839401216e-19
4.563401705615874e-03 0.000000000000000e+00 2.109411671046372e-19
4.563436430659513e-03 0.000000000000000e+00 2.109405485912828e-19
4.563471256151946e-03 0.000000000000000e+00 2.109399282477061e-19
4.563506182319067e-03 0.000000000000000e+00 2.109393061471301e-19
4.563541202971306e-03 0.000000000000000e+00 2.109386823315543e-19
4.563576324745468e-03 0.000000000000000e+00 2.109380567197112e-19
4.563611545726573e-03 0.000000000000000e+00 2.109374293219686e-19
4.563646868276695e-03 0.000000000000000e+00 2.109368001659502e-19
4.563682286205328e-03 0.000000000000000e+00 2.109361692617030e-19
4.563717806148779e-03 0.000000000000000e+00 2.109355364886612e-19
4.563753428327430e-03 0.000000000000000e+00 2.109349020275352e-19
4.563789146551769e-03 0.000000000000000e+00 2.109342656969459e-19
4.563824969594076e-03 0.000000000000000e+00 2.109336275658879e-19
4.563860889124901e-03 0.000000000000000e+00 2.109329877353898e-19
4.563896913916620e-03 0.000000000000000e+00 2.109323460381593e-19
4.563933035638395e-03 0.000000000000000e+00 2.109317025535814e-19
4.563969263062927e-03 0.000000000000000e+00 2.109310571677220e-19
4.564005587858734e-03 0.000000000000000e+00 2.109304100753479e-19
4.564042018797583e-03 0.000000000000000e+00 2.109297610688119e-19
4.564078547548917e-03 0.000000000000000e+00 2.109291103289864e-19
4.564115182882639e-03 0.000000000000000e+00 2.109284576659048e-19
4.564151916468094e-03 0.000000000000000e+00 2.109278032731253e-19
4.564188754937182e-03 0.000000000000000e+00 2.109271470548134e-19
4.564225698510001e-03 0.000000000000000e+00 2.109264888257938e-19
4.564262740991859e-03 0.000000000000000e+00 2.109258289204184e-19
4.564299889013751e-03 0.000000000000000e+00 2.109251670962191e-19
4.564337140658382e-03 0.000000000000000e+00 2.109245034465457e-19
4.564374498280585e-03 0.000000000000000e+00 2.109238379064858e-19
4.564411955686678e-03 0.000000000000000e+00 2.109231705331136e-19
4.564449519506703e-03 0.000000000000000e+00 2.109225013729295e-19
4.564487189959236e-03 0.000000000000000e+00 2.109218301661827e-19
4.564524960849112e-03 0.000000000000000e+00 2.109211572721428e-19
4.564562840944393e-03 0.000000000000000e+00 2.109204824180227e-19
4.564600821912687e-03 0.000000000000000e+00 2.109198057121355e-19
4.564638912521843e-03 0.000000000000000e+00 2.109191270154980e-19
4.564677104437954e-03 0.000000000000000e+00 2.109184465721163e-19
4.564715406430756e-03 0.000000000000000e+00 2.109177642086665e-19
4.564753810164825e-03 0.000000000000000e+00 2.109170798885114e-19
4.564792324409640e-03 0.000000000000000e+00 2.109163937313372e-19
4.564830940830437e-03 0.000000000000000e+00 2.109157056754758e-19
4.564869668195405e-03 0.000000000000000e+00 2.109150156878177e-19
4.564908500308483e-03 0.000000000000000e+00 2.109143237858343e-19
4.564947437386974e-03 0.000000000000000e+00 2.109136299670615e-19
4.564986486060030e-03 0.000000000000000e+00 2.109129342189035e-19
4.565025637993806e-03 0.000000000000000e+00 2.109122365531887e-19
4.565064901957300e-03 0.000000000000000e+00 2.109115369976023e-19
4.565104269614409e-03 0.000000000000000e+00 2.109108355506805e-19
4.565143749734421e-03 0.000000000000000e+00 2.109101321228652e-19
4.565183333983340e-03 0.000000000000000e+00 2.109094267392238e-19
4.565223031127952e-03 0.000000000000000e+00 2.109087193894004e-19
4.565262832835249e-03 0.000000000000000e+00 2.109080101569311e-19
4.565302745735500e-03 0.000000000000000e+00 2.109072989364196e-19
4.565342770045102e-03 0.000000000000000e+00 2.109065857889004e-19
4.565382899567684e-03 0.000000000000000e+00 2.109058707038628e-19
4.565423140934935e-03 0.000000000000000e+00 2.109051536659655e-19
4.565463492224610e-03 0.000000000000000e+00 2.109044345521997e-19
4.565503955793585e-03 0.000000000000000e+00 2.109037135596278e-19
4.565544525444289e-03 0.000000000000000e+00 2.109029905958033e-19
4.565585207809923e-03 0.000000000000000e+00 2.109022656162929e-19
4.565626000968120e-03 0.000000000000000e+00 2.109015387163767e-19
4.565666907275297e-03 0.000000000000000e+00 2.109008098285493e-19
4.565707922674148e-03 0.000000000000000e+00 2.109000788768915e-19
4.565749047383023e-03 0.000000000000000e+00 2.108993460357109e-19
4.565790288032457e-03 0.000000000000000e+00 2.108986111155400e-19
4.565831636291294e-03 0.000000000000000e+00 2.108978742432001e-19
4.565873100927678e-03 0.000000000000000e+00 2.108971353653498e-19
4.565914673610109e-03 0.000000000000000e+00 2.108963944472406e-19
4.565956363109449e-03 0.000000000000000e+00 2.108956515647926e-19
4.565998161093845e-03 0.000000000000000e+00 2.108949066021587e-19
4.566040076332397e-03 0.000000000000000e+00 2.108941596335094e-19
4.566082102633280e-03 0.000000000000000e+00 2.108934107461055e-19
4.566124240215640e-03 0.000000000000000e+00 2.108926597320196e-19
4.566166495712927e-03 0.000000000000000e+00 2.108919066508353e-19
4.566208860795751e-03 0.000000000000000e+00 2.108911516621107e-19
4.566251344234694e-03 0.000000000000000e+00 2.108903945997325e-19
4.566293937701090e-03 0.000000000000000e+00 2.108896354301186e-19
4.566336649966335e-03 0.000000000000000e+00 2.108888742752887e-19
4.566379472701707e-03 0.000000000000000e+00 2.108881110373723e-19
4.566422414681363e-03 0.000000000000000e+00 2.108873457511178e-19
4.566465467575010e-03 0.000000000000000e+00 2.108865784322055e-19
4.566508640157312e-03 0.000000000000000e+00 2.108858089458962e-19
4.566551926238716e-03 0.000000000000000e+00 2.108850374997656e-19
4.566705184396464e-03 0.000000000000000e+00 2.108829606362919e-19
4.566638844068082e-03 0.000000000000000e+00 2.108834883980739e-19
4.566682478402676e-03 0.000000000000000e+00 2.108827106796864e-19
4.566726231407719e-03 0.000000000000000e+00 2.108819308509163e-19
4.548147670236020e-03 0.000000000000000e+00 2.112117788887724e-19
4.548177638796557e-03 0.000000000000000e+00 2.112112494317890e-19
4.548207531451161e-03 0.000000000000000e+00 2.112107212886650e-19
4.548237342100011e-03 0.000000000000000e+00 2.112101945826807e-19
4.548267079609321e-03 0.000000000000000e+00 2.112096691980762e-19
4.548296737878931e-03 0.000000000000000e+00 2.112091451805815e-19
4.548326317218230e-03 0.000000000000000e+00 2.112086225498281e-19
4.548355824351189e-03 0.000000000000000e+00 2.112081012309234e-19
4.548385251033581e-03 0.000000000000000e+00 2.112075812701480e-19
4.548414606124356e-03 0.000000000000000e+00 2.112070625867794e-19
4.548443881376578e-03 0.000000000000000e+00 2.112065452978129e-19
4.548473085645998e-03 0.000000000000000e+00 2.112060292877897e-19
4.548502210683591e-03 0.000000000000000e+00 2.112055146438760e-19
4.548531265341446e-03 0.000000000000000e+00 2.112050012557347e-19
4.548560241366916e-03 0.000000000000000e+00 2.112044892290126e-19
4.548589147611472e-03 0.000000000000000e+00 2.112039784575441e-19
4.548617977956529e-03 0.000000000000000e+00 2.112034690250611e-19
4.548646732699686e-03 0.000000000000000e+00 2.112029608850732e-19
4.548675416409215e-03 0.000000000000000e+00 2.112024540364749e-19
4.548704027240987e-03 0.000000000000000e+00 2.112019484398434e-19
4.548732567623390e-03 0.000000000000000e+00 2.112014440874290e-19
4.548761031433805e-03 0.000000000000000e+00 2.112009410555785e-19
4.548789425374985e-03 0.000000000000000e+00 2.112004393175814e-19
4.548817747596762e-03 0.000000000000000e+00 2.111999388057690e-19
4.548846000523002e-03 0.000000000000000e+00 2.111994395281489e-19
4.548874180162823e-03 0.000000000000000e+00 2.111989415141989e-19
4.548902286801459e-03 0.000000000000000e+00 2.111984447801312e-19
4.548930327133638e-03 0.000000000000000e+00 2.111979492211361e-19
4.548958292890733e-03 0.000000000000000e+00 2.111974549660305e-19
4.548986192904016e-03 0.000000000000000e+00 2.111969618974929e-19
4.549014018900292e-03 0.000000000000000e+00 2.111964701168001e-19
4.549041779710042e-03 0.000000000000000e+00 2.111959794968623e-19
4.549069467057471e-03 0.000000000000000e+00 2.111954901497689e-19
4.549097089770100e-03 0.000000000000000e+00 2.111950019504484e-19
4.549124639571279e-03 0.000000000000000e+00 2.111945150150868e-19
4.549152125284142e-03 0.000000000000000e+00 2.111940292392819e-19
4.549179540768276e-03 0.000000000000000e+00 2.111935446590143e-19
4.549206886294913e-03 0.000000000000000e+00 2.111930613472528e-19
4.549234168546718e-03 0.000000000000000e+00 2.111925791238101e-19
4.549261379240430e-03 0.000000000000000e+00 2.111920981542986e-19
4.549288527196411e-03 0.000000000000000e+00 2.111916183163907e-19
4.549315604129033e-03 0.000000000000000e+00 2.111911397142744e-19
4.549342618855018e-03 0.000000000000000e+00 2.111906621959645e-19
4.549369563087290e-03 0.000000000000000e+00 2.111901859372367e-19
4.549396445640909e-03 0.000000000000000e+00 2.111897107704176e-19
4.549423260364357e-03 0.000000000000000e+00 2.111892367915580e-19
4.549450007518665e-03 0.000000000000000e+00 2.111887639775815e-19
4.549476691640296e-03 0.000000000000000e+00 2.111882922794762e-19
4.549503310849739e-03 0.000000000000000e+00 2.111878217271011e-19
4.549529867543013e-03 0.000000000000000e+00 2.111873522920839e-19
4.549556355564722e-03 0.000000000000000e+00 2.111868840410541e-19
4.549582781583283e-03 0.000000000000000e+00 2.111864168966821e-19
4.549609143716662e-03 0.000000000000000e+00 2.111859508510426e-19
4.549635444357240e-03 0.000000000000000e+00 2.111854859414704e-19
4.549661677344470e-03 0.000000000000000e+00 2.111850221777156e-19
4.549687849343539e-03 0.000000000000000e+00 2.111845595089990e-19
4.549713960606003e-03 0.000000000000000e+00 2.111840979205303e-19
4.549740004969246e-03 0.000000000000000e+00 2.111836374617728e-19
4.549765991233760e-03 0.000000000000000e+00 2.111831780773120e-19
4.549791911096953e-03 0.000000000000000e+00 2.111827198417402e-19
4.549817773357346e-03 0.000000000000000e+00 2.111822625955048e-19
4.549843569710958e-03 0.000000000000000e+00 2.111818065327435e-19
4.549869308954647e-03 0.000000000000000e+00 2.111813515054101e-19
4.549894982781902e-03 0.000000000000000e+00 2.111808975521654e-19
4.549920599989022e-03 0.000000000000000e+00 2.111804446936233e-19
4.549946154404535e-03 0.000000000000000e+00 2.111799928537701e-19
4.549971646271982e-03 0.000000000000000e+00 2.111795421410958e-19
4.549997082245879e-03 0.000000000000000e+00 2.111790924142627e-19
4.550022454015683e-03 0.000000000000000e+00 2.111786438179809e-19
4.550047770372542e-03 0.000000000000000e+00 2.111781962313184e-19
4.550073023004839e-03 0.000000000000000e+00 2.111777497222664e-19
4.550098220701244e-03 0.000000000000000e+00 2.111773041913007e-19
4.550123355148880e-03 0.000000000000000e+00 2.111768597865794e-19
4.550148435135079e-03 0.000000000000000e+00 2.111764163514349e-19
4.550173452345065e-03 0.000000000000000e+00 2.111759739826870e-19
4.550198415565232e-03 0.000000000000000e+00 2.111755325834746e-19
4.550223316477798e-03 0.000000000000000e+00 2.111750922720886e-19
4.550248161731072e-03 0.000000000000000e+00 2.111746529472023e-19
4.550272951557367e-03 0.000000000000000e+00 2.111742146198406e-19
4.550297679775918e-03 0.000000000000000e+00 2.111737773574212e-19
4.550322353030893e-03 0.000000000000000e+00 2.111733410517803e-19
4.550346969416355e-03 0.000000000000000e+00 2.111729057460719e-19
4.550371531299153e-03 0.000000000000000e+00 2.111724714292315e-19
4.550396032495074e-03 0.000000000000000e+00 2.111720381577211e-19
4.550420479647189e-03 0.000000000000000e+00 2.111716058267568e-19
4.550444872982639e-03 0.000000000000000e+00 2.111711744840167e-19
4.550469206316144e-03 0.000000000000000e+00 2.111707441658850e-19
4.550493488424673e-03 0.000000000000000e+00 2.111703147608540e-19
4.550517710983648e-03 0.000000000000000e+00 2.111698863734277e-19
4.550541882769648e-03 0.000000000000000e+00 2.111694589426858e-19
4.550565995455695e-03 0.000000000000000e+00 2.111690325031190e-19
4.550590057817420e-03 0.000000000000000e+00 2.111686069629239e-19
4.550614061527234e-03 0.000000000000000e+00 2.111681824658184e-19
4.550638015358123e-03 0.000000000000000e+00 2.111677588383202e-19
4.550661910982897e-03 0.000000000000000e+00 2.111673361996310e-19
4.550685757173763e-03 0.000000000000000e+00 2.111669145044993e-19
4.550709545599468e-03 0.000000000000000e+00 2.111664937664436e-19
4.550733282895269e-03 0.000000000000000e+00 2.111660739366079e-19
4.550756969280727e-03 0.000000000000000e+00 2.111656550596775e-19
4.550780598561057e-03 0.000000000000000e+00 2.111652371047875e-19
4.550804179507532e-03 0.000000000000000e+00 2.111648200513258e-19
4.550827703786967e-03 0.000000000000000e+00 2.111644040030267e-19
4.550851180166799e-03 0.000000000000000e+00 2.111639887907575e-19
4.550874600315103e-03 0.000000000000000e+00 2.111635745628301e-19
4.550897972998121e-03 0.000000000000000e+00 2.111631611568137e-19
4.550921292020236e-03 0.000000000000000e+00 2.111627486996620e-19
4.550944557595875e-03 0.000000000000000e+00 2.111623371675275e-19
4.550967776353841e-03 0.000000000000000e+00 2.111619265021761e-19
4.550990939957307e-03 0.000000000000000e+00 2.111615167785760e-19
4.551014057172863e-03 0.000000000000000e+00 2.111611079064526e-19
4.551037119662101e-03 0.000000000000000e+00 2.111606999526657e-19
4.551060136189944e-03 0.000000000000000e+00 2.111602928190327e-19
4.551083098417464e-03 0.000000000000000e+00 2.111598866615298e-19
4.551106015109172e-03 0.000000000000000e+00 2.111594812938078e-19
4.551128877924368e-03 0.000000000000000e+00 2.111590768551285e-19
4.551151695626819e-03 0.000000000000000e+00 2.111586732665978e-19
4.551174462014278e-03 0.000000000000000e+00 2.111582705365882e-19
4.551197177297015e-03 0.000000000000000e+00 2.111578686991212e-19
4.551219848098828e-03 0.000000000000000e+00 2.111574676861376e-19
4.551242466078442e-03 0.000000000000000e+00 2.111570675741804e-19
4.551265039996501e-03 0.000000000000000e+00 2.111566682506231e-19
4.551287561511008e-03 0.000000000000000e+00 2.111562698064229e-19
4.551310039381291e-03 0.000000000000000e+00 2.111558721736679e-19
4.551332465264782e-03 0.000000000000000e+00 2.111554754288988e-19
4.551354847921960e-03 0.000000000000000e+00 2.111550795114754e-19
4.551377181145167e-03 0.000000000000000e+00 2.111546843927262e-19
4.551399465142729e-03 0.000000000000000e+00 2.111542901598578e-19
4.551421706534936e-03 0.000000000000000e+00 2.111538967102325e-19
4.551443896976596e-03 0.000000000000000e+00 2.111535041149816e-19
4.551466045226384e-03 0.000000000000000e+00 2.111531122817261e-19
4.551488142938379e-03 0.000000000000000e+00 2.111527213470354e-19
4.551510198869332e-03 0.000000000000000e+00 2.111523311365236e-19
4.551532204673933e-03 0.000000000000000e+00 2.111519417965953e-19
4.551554169107657e-03 0.000000000000000e+00 2.111515532143363e-19
4.551576083824615e-03 0.000000000000000e+00 2.111511654611348e-19
4.551597957581113e-03 0.000000000000000e+00 2.111507784778754e-19
4.551619784167830e-03 0.000000000000000e+00 2.111503922927382e-19
4.551641563788356e-03 0.000000000000000e+00 2.111500069607733e-19
4.551663303059897e-03 0.000000000000000e+00 2.111496223177203e-19
4.551684993635207e-03 0.000000000000000e+00 2.111492385348048e-19
4.551706644268119e-03 0.000000000000000e+00 2.111488554639177e-19
4.551728246611686e-03 0.000000000000000e+00 2.111484732252112e-19
4.551749809418660e-03 0.000000000000000e+00 2.111480917269786e-19
4.551771324341042e-03 0.000000000000000e+00 2.111477110131047e-19
4.551792800132608e-03 0.000000000000000e+00 2.111473310395597e-19
4.551814228444479e-03 0.000000000000000e+00 2.111469518742092e-19
4.551835618029499e-03 0.000000000000000e+00 2.111465734011477e-19
4.551856962676258e-03 0.000000000000000e+00 2.111461957197840e-19
4.551878262586071e-03 0.000000000000000e+00 2.111458188148745e-19
4.551899524374918e-03 0.000000000000000e+00 2.111454425935370e-19
4.551920739691902e-03 0.000000000000000e+00 2.111450671909058e-19
4.551941917289726e-03 0.000000000000000e+00 2.111446924383906e-19
4.551963048817990e-03 0.000000000000000e+00 2.111443185054470e-19
4.551984143029883e-03 0.000000000000000e+00 2.111439452346662e-19
4.552005191573617e-03 0.000000000000000e+00 2.111435727632864e-19
4.552026203201630e-03 0.000000000000000e+00 2.111432009341873e-19
4.552047171701070e-03 0.000000000000000e+00 2.111428298692594e-19
4.552068097272689e-03 0.000000000000000e+00 2.111424595503387e-19
4.552088986529364e-03 0.000000000000000e+00 2.111420898811461e-19
4.552109831120717e-03 0.000000000000000e+00 2.111417210163917e-19
4.552130639797704e-03 0.000000000000000e+00 2.111413527547291e-19
4.552151404209333e-03 0.000000000000000e+00 2.111409852880953e-19
4.552172133107158e-03 0.000000000000000e+00 2.111406184420220e-19
4.552192818138723e-03 0.000000000000000e+00 2.111402523727440e-19
4.552213468056808e-03 0.000000000000000e+00 2.111398869316648e-19
4.552234074507911e-03 0.000000000000000e+00 2.111395222039837e-19
4.552254646244814e-03 0.000000000000000e+00 2.111391581535690e-19
4.552275177052428e-03 0.000000000000000e+00 2.111387947968337e-19
4.552295667131141e-03 0.000000000000000e+00 2.111384321490724e-19
4.552316123093983e-03 0.000000000000000e+00 2.111380701190320e-19
4.552336536589292e-03 0.000000000000000e+00 2.111377088060514e-19
4.552356916367155e-03 0.000000000000000e+00 2.111373481310249e-19
4.552377254076946e-03 0.000000000000000e+00 2.111369881609138e-19
4.552397558468953e-03 0.000000000000000e+00 2.111366287973879e-19
4.552417821191390e-03 0.000000000000000e+00 2.111362701392720e-19
4.552438050994879e-03 0.000000000000000e+00 2.111359121038438e-19
4.552458241666366e-03 0.000000000000000e+00 2.111355547336897e-19
4.552478393405226e-03 0.000000000000000e+00 2.111351980246281e-19
4.552498512824614e-03 0.000000000000000e+00 2.111348419341952e-19
4.552518591571767e-03 0.000000000000000e+00 2.111344865096143e-19
4.552538638399973e-03 0.000000000000000e+00 2.111341316995205e-19
4.552558644955420e-03 0.000000000000000e+00 2.111337775581699e-19
4.552578619990672e-03 0.000000000000000e+00 2.111334239832637e-19
4.552598555154395e-03 0.000000000000000e+00 2.111330711031382e-19
4.552618459196606e-03 0.000000000000000e+00 2.111327187910720e-19
4.552638323767707e-03 0.000000000000000e+00 2.111323671426577e-19
4.552658157618789e-03 0.000000000000000e+00 2.111320160691421e-19
4.552677954535091e-03 0.000000000000000e+00 2.111316656147902e-19
4.552697714718924e-03 0.000000000000000e+00 2.111313158296451e-19
4.552717444783354e-03 0.000000000000000e+00 2.111309665557376e-19
4.552737136377581e-03 0.000000000000000e+00 2.111306179827425e-19
4.552756798253194e-03 0.000000000000000e+00 2.111302699063974e-19
4.552776422060840e-03 0.000000000000000e+00 2.111299225153632e-19
4.552796016551538e-03 0.000000000000000e+00 2.111295756426152e-19
4.552815573375411e-03 0.000000000000000e+00 2.111292294054052e-19
4.552835101285748e-03 0.000000000000000e+00 2.111288837243802e-19
4.552854594069481e-03 0.000000000000000e+00 2.111285386163270e-19
4.552874051928671e-03 0.000000000000000e+00 2.111281941416127e-19
4.552893481477511e-03 0.000000000000000e+00 2.111278501867366e-19
4.552912874368276e-03 0.000000000000000e+00 2.111275068302493e-19
4.552932239351995e-03 0.000000000000000e+00 2.111271639995168e-19
4.552951568081608e-03 0.000000000000000e+00 2.111268217908002e-19
4.552970869309274e-03 0.000000000000000e+00 2.111264800806989e-19
4.552990134686414e-03 0.000000000000000e+00 2.111261389654184e-19
4.553009372968561e-03 0.000000000000000e+00 2.111257983749474e-19
4.553028575805433e-03 0.000000000000000e+00 2.111254583681630e-19
4.553047751952089e-03 0.000000000000000e+00 2.111251188587140e-19
4.553066895199360e-03 0.000000000000000e+00 2.111247799169468e-19
4.553086005749294e-03 0.000000000000000e+00 2.111244415401954e-19
4.553105090220261e-03 0.000000000000000e+00 2.111241036447410e-19
4.553124140264819e-03 0.000000000000000e+00 2.111237663314717e-19
4.553143164637869e-03 0.000000000000000e+00 2.111234294776082e-19
4.553162154993766e-03 0.000000000000000e+00 2.111230932342848e-19
4.553181120086807e-03 0.000000000000000e+00 2.111227574266833e-19
4.553200051572485e-03 0.000000000000000e+00 2.111224221824468e-19
4.553218958206306e-03 0.000000000000000e+00 2.111220874342827e-19
4.553237833780335e-03 0.000000000000000e+00 2.111217531891940e-19
4.553256678500815e-03 0.000000000000000e+00 2.111214194906701e-19
4.553275498986689e-03 0.000000000000000e+00 2.111210862115360e-19
4.553294286893447e-03 0.000000000000000e+00 2.111207535238603e-19
4.553313050978589e-03 0.000000000000000e+00 2.111204212507614e-19
4.553331782898431e-03 0.000000000000000e+00 2.111200895360342e-19
4.553350491410297e-03 0.000000000000000e+00 2.111197582384765e-19
4.553369168171709e-03 0.000000000000000e+00 2.111194274782043e-19
4.553387821941021e-03 0.000000000000000e+00 2.111190971583062e-19
4.553406444374761e-03 0.000000000000000e+00 2.111187673669787e-19
4.553425044233154e-03 0.000000000000000e+00 2.111184379909899e-19
4.553443615310664e-03 0.000000000000000e+00 2.111181090902665e-19
4.553462157817408e-03 0.000000000000000e+00 2.111177806837677e-19
4.553480678375682e-03 0.000000000000000e+00 2.111174527153550e-19
4.553499168644668e-03 0.000000000000000e+00 2.111171252313506e-19
4.553517637384093e-03 0.000000000000000e+00 2.111167981649544e-19
4.553536076254423e-03 0.000000000000000e+00 2.111164715850838e-19
4.553554494016848e-03 0.000000000000000e+00 2.111161453790266e-19
4.553572882332216e-03 0.000000000000000e+00 2.111158196987173e-19
4.553591249962493e-03 0.000000000000000e+00 2.111154944187342e-19
4.553609590706082e-03 0.000000000000000e+00 2.111151695520105e-19
4.553627904774804e-03 0.000000000000000e+00 2.111148451741140e-19
4.553646198795820e-03 0.000000000000000e+00 2.111145211603640e-19
4.553664464429897e-03 0.000000000000000e+00 2.111141976185165e-19
4.553682710441580e-03 0.000000000000000e+00 2.111138744560943e-19
4.553700928493726e-03 0.000000000000000e+00 2.111135517443099e-19
4.553719127351129e-03 0.000000000000000e+00 2.111132294124357e-19
4.553737298677854e-03 0.000000000000000e+00 2.111129075458525e-19
4.553755451239185e-03 0.000000000000000e+00 2.111125859866923e-19
4.553773576699905e-03 0.000000000000000e+00 2.111122649328332e-19
4.553791683825993e-03 0.000000000000000e+00 2.111119442068678e-19
4.553809766420394e-03 0.000000000000000e+00 2.111116238840615e-19
4.553827824700495e-03 0.000000000000000e+00 2.111113039775507e-19
4.553845865295746e-03 0.000000000000000e+00 2.111109844130312e-19
4.553863879872802e-03 0.000000000000000e+00 2.111106652949882e-19
4.553881877199521e-03 0.000000000000000e+00 2.111103464852005e-19
4.553899848944752e-03 0.000000000000000e+00 2.111100280876360e-19
4.553917803876923e-03 0.000000000000000e+00 2.111097100276397e-19
4.553935733663896e-03 0.000000000000000e+00 2.111093923816269e-19
4.553953647077728e-03 0.000000000000000e+00 2.111090750393869e-19
4.553971537923886e-03 0.000000000000000e+00 2.111087581062369e-19
4.553989406422508e-03 0.000000000000000e+00 2.111084415297392e-19
4.554007259208484e-03 0.000000000000000e+00 2.111081252444880e-19
4.554025087951393e-03 0.000000000000000e+00 2.111078093800059e-19
4.554042901425095e-03 0.000000000000000e+00 2.111074937973741e-19
4.554060691300366e-03 0.000000000000000e+00 2.111071785901496e-19
4.554078466350127e-03 0.000000000000000e+00 2.111068636825736e-19
4.554096218247686e-03 0.000000000000000e+00 2.111065491492503e-19
4.554113955767245e-03 0.000000000000000e+00 2.111062348843080e-19
4.554131670581920e-03 0.000000000000000e+00 2.111059210126617e-19
4.554149371467110e-03 0.000000000000000e+00 2.111056073879134e-19
4.554167052235239e-03 0.000000000000000e+00 2.111052941237733e-19
4.554184713111440e-03 0.000000000000000e+00 2.111049811805422e-19
4.554202360735468e-03 0.000000000000000e+00 2.111046685147358e-19
4.554219986781964e-03 0.000000000000000e+00 2.111043561796340e-19
4.554237600030576e-03 0.000000000000000e+00 2.111040441004806e-19
4.554255192156530e-03 0.000000000000000e+00 2.111037323567526e-19
4.554272771939442e-03 0.000000000000000e+00 2.111034208577133e-19
4.554290331056744e-03 0.000000000000000e+00 2.111031097050948e-19
4.554307878288526e-03 0.000000000000000e+00 2.111027987791482e-19
4.554325407451061e-03 0.000000000000000e+00 2.111024881668455e-19
4.554342918775019e-03 0.000000000000000e+00 2.111021778351988e-19
4.554360418904174e-03 0.000000000000000e+00 2.111018677359003e-19
4.554377899517958e-03 0.000000000000000e+00 2.111015579411271e-19
4.554395369399041e-03 0.000000000000000e+00 2.111012483734591e-19
4.554412820230661e-03 0.000000000000000e+00 2.111009391154130e-19
4.554430260794094e-03 0.000000000000000e+00 2.111006300596541e-19
4.554447682772499e-03 0.000000000000000e+00 2.111003212957464e-19
4.554465094951256e-03 0.000000000000000e+00 2.111000127431860e-19
4.554482489012595e-03 0.000000000000000e+00 2.110997044584085e-19
4.554499873744449e-03 0.000000000000000e+00 2.110993963918194e-19
4.554517242966443e-03 0.000000000000000e+00 2.110990885625662e-19
4.554534596915902e-03 0.000000000000000e+00 2.110987809736547e-19
4.554551942242554e-03 0.000000000000000e+00 2.110984735883295e-19
4.554569270632773e-03 0.000000000000000e+00 2.110981664993526e-19
4.554586590874031e-03 0.000000000000000e+00 2.110978595396913e-19
4.554603894654992e-03 0.000000000000000e+00 2.110975528602785e-19
4.554621190764523e-03 0.000000000000000e+00 2.110972463121850e-19
4.554638470890895e-03 0.000000000000000e+00 2.110969400476525e-19
4.554655743825181e-03 0.000000000000000e+00 2.110966339517819e-19
4.554673003395333e-03 0.000000000000000e+00 2.110963280469572e-19
4.554690249840879e-03 0.000000000000000e+00 2.110960223714275e-19
4.554707489818149e-03 0.000000000000000e+00 2.110957168351992e-19
4.554724715017095e-03 0.000000000000000e+00 2.110954115509803e-19
4.554741934232207e-03 0.000000000000000e+00 2.110951063823375e-19
4.554759139155162e-03 0.000000000000000e+00 2.110948014565430e-19
4.554776338581822e-03 0.000000000000000e+00 2.110944966598679e-19
4.554793524204315e-03 0.000000000000000e+00 2.110941920474641e-19
4.554810704820133e-03 0.000000000000000e+00 2.110938875877596e-19
4.554827872123032e-03 0.000000000000000e+00 2.110935833320120e-19
4.554845034910869e-03 0.000000000000000e+00 2.110932792123011e-19
4.554862187016645e-03 0.000000000000000e+00 2.110929752244110e-19
4.554879328687553e-03 0.000000000000000e+00 2.110926714421713e-19
4.554896466586441e-03 0.000000000000000e+00 2.110923677682601e-19
4.554913592409565e-03 0.000000000000000e+00 2.110920642882239e-19
4.554930714956962e-03 0.000000000000000e+00 2.110917608719201e-19
4.554947825929516e-03 0.000000000000000e+00 2.110914576748943e-19
4.554964934126034e-03 0.000000000000000e+00 2.110911545489760e-19
4.554982031248445e-03 0.000000000000000e+00 2.110908516242114e-19
4.554999126099737e-03 0.000000000000000e+00 2.110905487665877e-19
4.555016212517460e-03 0.000000000000000e+00 2.110902460826410e-19
4.555033290755524e-03 0.000000000000000e+00 2.110899435321498e-19
4.555050367481342e-03 0.000000000000000e+00 2.110896410345739e-19
4.555067434397134e-03 0.000000000000000e+00 2.110893387556160e-19
4.555084500309691e-03 0.000000000000000e+00 2.110890365141611e-19
4.555101556922873e-03 0.000000000000000e+00 2.110887344548534e-19
4.555118613044765e-03 0.000000000000000e+00 2.110884324368273e-19
4.555135660380907e-03 0.000000000000000e+00 2.110881306327929e-19
4.555152707739405e-03 0.000000000000000e+00 2.110878288432089e-19
4.555169746827929e-03 0.000000000000000e+00 2.110875272404090e-19
4.555186786457331e-03 0.000000000000000e+00 2.110872257333444e-19
4.555203820472961e-03 0.000000000000000e+00 2.110869243129203e-19
4.555220849134873e-03 0.000000000000000e+00 2.110866230609484e-19
4.555237879118253e-03 0.000000000000000e+00 2.110863218855779e-19
4.555254902133654e-03 0.000000000000000e+00 2.110860208624923e-19
4.555271926994449e-03 0.000000000000000e+00 2.110857199256030e-19
4.555288945412415e-03 0.000000000000000e+00 2.110854191526322e-19
4.555305966203997e-03 0.000000000000000e+00 2.110851184869127e-19
4.555322981081361e-03 0.000000000000000e+00 2.110848179917189e-19
4.555339998862272e-03 0.000000000000000e+00 2.110845176094829e-19
4.555357013399505e-03 0.000000000000000e+00 2.110842174124250e-19
4.555374024959872e-03 0.000000000000000e+00 2.110839173833065e-19
4.555391040225472e-03 0.000000000000000e+00 2.110836175300527e-19
4.555408050913473e-03 0.000000000000000e+00 2.110833178744689e-19
4.555425065844837e-03 0.000000000000000e+00 2.110830183891234e-19
4.555442076738999e-03 0.000000000000000e+00 2.110827192122273e-19
4.555459092419029e-03 0.000000000000000e+00 2.110824202214151e-19
4.555476104605092e-03 0.000000000000000e+00 2.110821215854100e-19
4.555493122122792e-03 0.000000000000000e+00 2.110818231806789e-19
4.555510136695290e-03 0.000000000000000e+00 2.110815251768090e-19
4.555527157149263e-03 0.000000000000000e+00 2.110812275157508e-19
4.555544177347648e-03 0.000000000000000e+00 2.110809303106424e-19
4.555561197567960e-03 0.000000000000000e+00 2.110806336270263e-19
4.555578224502297e-03 0.000000000000000e+00 2.110803373916490e-19
4.555595249880078e-03 0.000000000000000e+00 2.110800418694501e-19
4.555612282532915e-03 0.000000000000000e+00 2.110797469505994e-19
4.555629314193459e-03 0.000000000000000e+00 2.110794528692476e-19
4.555646353696681e-03 0.000000000000000e+00 2.110791596559508e-19
4.555663392777560e-03 0.000000000000000e+00 2.110788674633064e-19
4.555680440275951e-03 0.000000000000000e+00 2.110785763675686e-19
4.555697490068868e-03 0.000000000000000e+00 2.110782865843467e-19
4.555714542451496e-03 0.000000000000000e+00 2.110779982675981e-19
4.555731604133057e-03 0.000000000000000e+00 2.110777115891764e-19
4.555748666866056e-03 0.000000000000000e+00 2.110774268224085e-19
4.555765739510849e-03 0.000000000000000e+00 2.110771441652481e-19
4.555782813833824e-03 0.000000000000000e+00 2.110768639485092e-19
4.555799898714981e-03 0.000000000000000e+00 2.110765863747963e-19
4.555816985950257e-03 0.000000000000000e+00 2.110763119540799e-19
4.555834084458778e-03 0.000000000000000e+00 2.110760409154234e-19
4.555851186087980e-03 0.000000000000000e+00 2.110757737670291e-19
4.555868299833239e-03 0.000000000000000e+00 2.110755107598806e-19
4.555885419787240e-03 0.000000000000000e+00 2.110752524582845e-19
4.555902546542907e-03 0.000000000000000e+00 2.110749991983426e-19
4.555919687228551e-03 0.000000000000000e+00 2.110747512276141e-19
4.555936834180613e-03 0.000000000000000e+00 2.110745088490685e-19
4.555953997072808e-03 0.000000000000000e+00 2.110742719672114e-19
4.555971168804206e-03 0.000000000000000e+00 2.110740404609316e-19
4.555988359807345e-03 0.000000000000000e+00 2.110738135001106e-19
4.556005563972847e-03 0.000000000000000e+00 2.110735900088460e-19
4.556022790821560e-03 0.000000000000000e+00 2.110733679556710e-19
4.556040041568097e-03 0.000000000000000e+00 2.110731445642841e-19
4.556057318647192e-03 0.000000000000000e+00 2.110729160960175e-19
4.556074631691831e-03 0.000000000000000e+00 2.110726776692848e-19
4.556091970308351e-03 0.000000000000000e+00 2.110724237053556e-19
4.556109324402430e-03 0.000000000000000e+00 2.110721481063620e-19
4.556126617398280e-03 0.000000000000000e+00 2.110718453430771e-19
4.556143654245876e-03 0.000000000000000e+00 2.110715122668086e-19
4.556159895487554e-03 0.000000000000000e+00 2.110711514348600e-19
4.556174332304042e-03 0.000000000000000e+00 2.110707737953100e-19
4.556186655333154e-03 0.000000000000000e+00 2.110703852830053e-19

VECTORS velocity double
0.000000000000000e+00 0.000000000000000e+00 0.000000000000000e+00
0.000000000000000e+00 0.000000000000000e+00 0.000000000000000e+00
0.000000000000000e+00 0.000000000000000e+00 0.000000000000000e+00
0.000000000000000e+00 0.000000000000000e+00 0.000000000000000e+00
0.000000000000000e+00 0.000000000000000e+00 0.000000000000000e+00
0.000000000000000e+00 0.000000000000000e+00 0.000000000000000e+00
0.000000000000000e+00 0.000000000000000e+00 0.000000000000000e+00
0.000000000000000e+00 0.000000000000000e+00 0.000000000000000e+00
0.000000000000000e+00 0.000000000000000e+00 0.000000000000000e+00
0.000000000000000e+00 0.000000000000000e+00 0.000000000000000e+00
0.000000000000000e+00 0.000000000000000e+00 0.000000000000000e+00
0.000000000000000e+00 0.000000000000000e+00 0.000000000000000e+00
0.000000000000000e+00 0.000000000000000e+00 0.000000000000000e+00
0.000000000000000e+00 0.000000000000000e+00 0.000000000000000e+00
0.000000000000000e+00 0.000000000000000e+00 0.000000000000000e+00
0.000000000000000e+00 0.000000000000000e+00 0.000000000000000e+00
0.000000000000000e+00 0.000000000000000e+00 0.000000000000000e+00
0.000000000000000e+00 0.000000000000000e+00 0.000000000000000e+00
0.000000000000000e+00 0.000000000000000e+00 0.000000000000000e+00
0.000000000000000e+00 0.000000000000000e+00 0.000000000000000e+00
0.000000000000000e+00 0.000000000000000e+00 0.000000000000000e+00
0.000000000000000e+00 0.000000000000000e+00 0.000000000000000e+00
0.000000000000000e+00 0.000000000000000e+00 0.000000000000000e+00
0.000000000000000e+00 0.000000000000000e+00 0.000000000000000e+00
0.000000000000000e+00 0.000000000000000e+00 0.000000000000000e+00
0.000000000000000e+00 0.000000000000000e+00 0.000000000000000e+00
0.000000000000000e+00 0.000000000000000e+00 0.000000000000000e+00
0.000000000000000e+00 0.000000000000000e+00 0.000000000000000e+00
0.000000000000000e+00 0.000000000000000e+00 0.000000000000000e+00
0.000000000000000e+00 0.000000000000000e+00 0.000000000000000e+00
0.000000000000000e+00 0.000000000000000e+00 0.000000000000000e+00
0.000000000000000e+00 0.000000000000000e+00 0.000000000000000e+00
0.000000000000000e+00 0.000000000000000e+00 0.000000000000000e+00
0.000000000000000e+00 0.000000000000000e+00 0.000000000000000e+00
0.000000000000000e+00 0.000000000000000e+00 0.000000000000000e+00
0.000000000000000e+00 0.000000000000000e+00 0.000000000000000e+00
0.000000000000000e+00 0.000000000000000e+00 0.000000000000000e+00
0.000000000000000e+00 0.000000000000000e+00 0.000000000000000e+00
0.000000000000000e+00 0.000000000000000e+00 0.000000000000000e+00
0.000000000000000e+00 0.000000000000000e+00 0.000000000000000e+00
0.000000000000000e+00 0.000000000000000e+00 0.000000000000000e+00
0.000000000000000e+00 0.000000000000000e+00 0.000000000000000e+00
0.000000000000000e+00 0.000000000000000e+00 0.000000000000000e+00
0.000000000000000e+00 0.000000000000000e+00 0.000000000000000e+00
0.000000000000000e+00 0.000000000000000e+00 0.000000000000000e+00
0.000000000000000e+00 0.000000000000000e+00 0.000000000000000e+00
0.000000000000000e+00 0.000000000000000e+00 0.000000000000000e+00
0.000000000000000e+00 0.000000000000000e+00 0.000000000000000e+00
0.000000000000000e+00 0.000000000000000e+00 0.000000000000000e+00
0.000000000000000e+00 0.000000000000000e+00 0.000000000000000e+00
0.000000000000000e+00 0.000000000000000e+00 0.000000000000000e+00
0.000000000000000e+00 0.000000000000000e+00 0.000000000000000e+00
0.000000000000000e+00 0.000000000000000e+00 0.000000000000000e+00
0.000000000000000e+00 0.000000000000000e+00 0.000000000000000e+00
0.000000000000000e+00 0.000000000000000e+00 0.000000000000000e+00
0.000000000000000e+00 0.000000000000000e+00 0.000000000000000e+00
0.000000000000000e+00 0.000000000000000e+00 0.000000000000000e+00
0.000000000000000e+00 0.000000000000000e+00 0.000000000000000e+00
0.000000000000000e+00 0.000000000000000e+00 0.000000000000000e+00
0.000000000000000e+00 0.000000000000000e+00 0.000000000000000e+00
0.000000000000000e+00 0.000000000000000e+00 0.000000000000000e+00
0.000000000000000e+00 0.000000000000000e+00 0.000000000000000e+00
0.000000000000000e+00 0.000000000000000e+00 0.000000000000000e+00
0.000000000000000e+00 0.000000000000000e+00 0.000000000000000e+00
0.000000000000000e+00 0.000000000000000e+00 0.000000000000000e+00
0.000000000000000e+00 0.000000000000000e+00 0.000000000000000e+00
0.000000000000000e+00 0.000000000000000e+00 0.000000000000000e+00
0.000000000000000e+00 0.000000000000000e+00 0.000000000000000e+00
0.000000000000000e+00 0.000000000000000e+00 0.000000000000000e+00
0.000000000000000e+00 0.000000000000000e+00 0.000000000000000e+00
0.000000000000000e+00 0.000000000000000e+00 0.000000000000000e+00
0.000000000000000e+00 0.000000000000000e+00 0.000000000000000e+00
0.000000000000000e+00 0.000000000000000e+00 0.000000000000000e+00
0.000000000000000e+00 0.000000000000000e+00 0.000000000000000e+00
0.000000000000000e+00 0.000000000000000e+00 0.000000000000000e+00
0.000000000000000e+00 0.000000000000000e+00 0.000000000000000e+00
0.000000000000000e+00 0.000000000000000e+00 0.000000000000000e+00
0.000000000000000e+00 0.000000000000000e+00 0.000000000000000e+00
0.000000000000000e+00 0.000000000000000e+00 0.000000000000000e+00
0.000000000000000e+00 0.000000000000000e+00 0.000000000000000e+00
0.000000000000000e+00 0.000000000000000e+00 0.000000000000000e+00
0.000000000000000e+00 0.000000000000000e+00 0.000000000000000e+00
0.000000000000000e+00 0.000000000000000e+00 0.000000000000000e+00
0.000000000000000e+00 0.000000000000000e+00 0.000000000000000e+00
0.000000000000000e+00 0.000000000000000e+00 0.000000000000000e+00
0.000000000000000e+00 0.000000000000000e+00 0.000000000000000e+00
0.000000000000000e+00 0.000000000000000e+00 0.000000000000000e+00
0.000000000000000e+00 0.000000000000000e+00 0.000000000000000e+00
0.000000000000000e+00 0.000000000000000e+00 0.000000000000000e+00
0.000000000000000e+00 0.000000000000000e+00 0.000000000000000e+00
0.000000000000000e+00 0.000000000000000e+00 0.000000000000000e+00
0.000000000000000e+00 0.000000000000000e+00 0.000000000000000e+00
0.000000000000000e+00 0.000000000000000e+00 0.000000000000000e+00
0.000000000000000e+00 0.000000000000000e+00 0.000000000000000e+00
0.000000000000000e+00 0.000000000000000e+00 0.000000000000000e+00
0.000000000000000e+00 0.000000000000000e+00 0.000000000000000e+00
0.000000000000000e+00 0.000000000000000e+00 0.000000000000000e+00
0.000000000000000e+00 0.000000000000000e+00 0.000000000000000e+00
0.000000000000000e+00 0.000000000000000e+00 0.000000000000000e+00
0.000000000000000e+00 0.000000000000000e+00 0.000000000000000e+00
0.000000000000000e+00 0.000000000000000e+00 0.000000000000000e+00
0.000000000000000e+00 0.000000000000000e+00 0.000000000000000e+00
0.000000000000000e+00 0.000000000000000e+00 0.000000000000000e+00
0.000000000000000e+00 0.000000000000000e+00 0.000000000000000e+00
0.000000000000000e+00 0.000000000000000e+00 0.000000000000000e+00
0.000000000000000e+00 0.000000000000000e+00 0.000000000000000e+00
0.000000000000000e+00 0.000000000000000e+00 0.000000000000000e+00
0.000000000000000e+00 0.000000000000000e+00 0.000000000000000e+00
0.000000000000000e+00 0.000000000000000e+00 0.000000000000000e+00
0.000000000000000e+00 0.000000000000000e+00 0.000000000000000e+00
0.000000000000000e+00 0.000000000000000e+00 0.000000000000000e+00
0.000000000000000e+00 0.000000000000000e+00 0.000000000000000e+00
0.000000000000000e+00 0.000000000000000e+00 0.000000000000000e+00
0.000000000000000e+00 0.000000000000000e+00 0.000000000000000e+00
0.000000000000000e+00 0.000000000000000e+00 0.000000000000000e+00
0.000000000000000e+00 0.000000000000000e+00 0.000000000000000e+00
0.000000000000000e+00 0.000000000000000e+00 0.000000000000000e+00
0.000000000000000e+00 0.000000000000000e+00 0.000000000000000e+00
0.000000000000000e+00 0.000000000000000e+00 0.000000000000000e+00
0.000000000000000e+00 0.000000000000000e+00 0.000000000000000e+00
0.000000000000000e+00 0.000000000000000e+00 0.000000000000000e+00
0.000000000000000e+00 0.000000000000000e+00 0.000000000000000e+00
0.000000000000000e+00 0.000000000000000e+00 0.000000000000000e+00
0.000000000000000e+00 0.000000000000000e+00 0.000000000000000e+00
0.000000000000000e+00 0.000000000000000e+00 0.000000000000000e+00
0.000000000000000e+00 0.000000000000000e+00 0.000000000000000e+00
0.000000000000000e+00 0.000000000000000e+00 0.000000000000000e+00
0.000000000000000e+00 0.000000000000000e+00 0.000000000000000e+00
0.000000000000000e+00 0.000000000000000e+00 0.000000000000000e+00
0.000000000000000e+00 0.000000000000000e+00 0.000000000000000e+00
0.000000000000000e+00 0.000000000000000e+00 0.000000000000000e+00
0.000000000000000e+00 0.000000000000000e+00 0.000000000000000e+00
0.000000000000000e+00 0.000000000000000e+00 0.000000000000000e+00
0.000000000000000e+00 0.000000000000000e+00 0.000000000000000e+00
0.000000000000000e+00 0.000000000000000e+00 0.000000000000000e+00
0.000000000000000e+00 0.000000000000000e+00 0.000000000000000e+00
0.000000000000000e+00 0.000000000000000e+00 0.000000000000000e+00
0.000000000000000e+00 0.000000000000000e+00 0.000000000000000e+00
0.000000000000000e+00 0.000000000000000e+00 0.000000000000000e+00
0.000000000000000e+00 0.000000000000000e+00 0.000000000000000e+00
0.000000000000000e+00 0.000000000000000e+00 0.000000000000000e+00
0.000000000000000e+00 0.000000000000000e+00 0.000000000000000e+00
0.000000000000000e+00 0.000000000000000e+00 0.000000000000000e+00
0.000000000000000e+00 0.000000000000000e+00 0.000000000000000e+00
0.000000000000000e+00 0.000000000000000e+00 0.000000000000000e+00
0.000000000000000e+00 0.000000000000000e+00 0.000000000000000e+00
0.000000000000000e+00 0.000000000000000e+00 0.000000000000000e+00
0.000000000000000e+00 0.000000000000000e+00 0.000000000000000e+00
0.000000000000000e+00 0.000000000000000e+00 0.000000000000000e+00
0.000000000000000e+00 0.000000000000000e+00 0.000000000000000e+00
0.000000000000000e+00 0.000000000000000e+00 0.000000000000000e+00
0.000000000000000e+00 0.000000000000000e+00 0.000000000000000e+00
0.000000000000000e+00 0.000000000000000e+00 0.000000000000000e+00
0.000000000000000e+00 0.000000000000000e+00 0.000000000000000e+00
0.000000000000000e+00 0.000000000000000e+00 0.000000000000000e+00
0.000000000000000e+00 0.000000000000000e+00 0.000000000000000e+00
0.000000000000000e+00 0.000000000000000e+00 0.000000000000000e+00
0.000000000000000e+00 0.000000000000000e+00 0.000000000000000e+00
0.000000000000000e+00 0.000000000000000e+00 0.000000000000000e+00
0.000000000000000e+00 0.000000000000000e+00 0.000000000000000e+00
0.000000000000000e+00 0.000000000000000e+00 0.000000000000000e+00
0.000000000000000e+00 0.000000000000000e+00 0.000000000000000e+00
0.000000000000000e+00 0.000000000000000e+00 0.000000000000000e+00
0.000000000000000e+00 0.000000000000000e+00 0.000000000000000e+00
0.000000000000000e+00 0.000000000000000e+00 0.000000000000000e+00
0.000000000000000e+00 0.000000000000000e+00 0.000000000000000e+00
0.000000000000000e+00 0.000000000000000e+00 0.000000000000000e+00
0.000000000000000e+00 0.000000000000000e+00 0.000000000000000e+00
0.000000000000000e+00 0.000000000000000e+00 0.000000000000000e+00
0.000000000000000e+00 0.000000000000000e+00 0.000000000000000e+00
0.000000000000000e+00 0.000000000000000e+00 0.000000000000000e+00
0.000000000000000e+00 0.000000000000000e+00 0.000000000000000e+00
0.000000000000000e+00 0.000000000000000e+00 0.000000000000000e+00
0.000000000000000e+00 0.000000000000000e+00 0.000000000000000e+00
0.000000000000000e+00 0.000000000000000e+00 0.000000000000000e+00
0.000000000000000e+00 0.000000000000000e+00 0.000000000000000e+00
0.000000000000000e+00 0.000000000000000e+00 0.000000000000000e+00
0.000000000000000e+00 0.000000000000000e+00 0.000000000000000e+00
0.000000000000000e+00 0.000000000000000e+00 0.000000000000000e+00
0.000000000000000e+00 0.000000000000000e+00 0.000000000000000e+00
0.000000000000000e+00 0.000000000000000e+00 0.000000000000000e+00
0.000000000000000e+00 0.000000000000000e+00 0.000000000000000e+00
0.000000000000000e+00 0.000000000000000e+00 0.000000000000000e+00
0.000000000000000e+00 0.000000000000000e+00 0.000000000000000e+00
0.000000000000000e+00 0.000000000000000e+00 0.000000000000000e+00
0.000000000000000e+00 0.000000000000000e+00 0.000000000000000e+00
0.000000000000000e+00 0.000000000000000e+00 0.000000000000000e+00
0.000000000000000e+00 0.000000000000000e+00 0.000000000000000e+00
0.000000000000000e+00 0.000000000000000e+00 0.000000000000000e+00
0.000000000000000e+00 0.000000000000000e+00 0.000000000000000e+00
0.000000000000000e+00 0.000000000000000e+00 0.000000000000000e+00
0.000000000000000e+00 0.000000000000000e+00 0.000000000000000e+00
0.000000000000000e+00 0.000000000000000e+00 0.000000000000000e+00
0.000000000000000e+00 0.000000000000000e+00 0.000000000000000e+00
0.000000000000000e+00 0.000000000000000e+00 0.000000000000000e+00
0.000000000000000e+00 0.000000000000000e+00 0.000000000000000e+00
0.000000000000000e+00 0.000000000000000e+00 0.000000000000000e+00
0.000000000000000e+00 0.000000000000000e+00 0.000000000000000e+00
0.000000000000000e+00 0.000000000000000e+00 0.000000000000000e+00
0.000000000000000e+00 0.000000000000000e+00 0.000000000000000e+00
0.000000000000000e+00 0.000000000000000e+00 0.000000000000000e+00
0.000000000000000e+00 0.000000000000000e+00 0.000000000000000e+00
0.000000000000000e+00 0.000000000000000e+00 0.000000000000000e+00
0.000000000000000e+00 0.000000000000000e+00 0.000000000000000e+00
0.000000000000000e+00 0.000000000000000e+00 0.000000000000000e+00
0.000000000000000e+00 0.000000000000000e+00 0.000000000000000e+00
0.000000000000000e+00 0.000000000000000e+00 0.000000000000000e+00
0.000000000000000e+00 0.000000000000000e+00 0.000000000000000e+00
0.000000000000000e+00 0.000000000000000e+00 0.000000000000000e+00
0.000000000000000e+00 0.000000000000000e+00 0.000000000000000e+00
0.000000000000000e+00 0.000000000000000e+00 0.000000000000000e+00
0.000000000000000e+00 0.000000000000000e+00 0.000000000000000e+00
0.000000000000000e+00 0.000000000000000e+00 0.000000000000000e+00
0.000000000000000e+00 0.000000000000000e+00 0.000000000000000e+00
0.000000000000000e+00 0.000000000000000e+00 0.000000000000000e+00
0.000000000000000e+00 0.000000000000000e+00 0.000000000000000e+00
0.000000000000000e+00 0.000000000000000e+00 0.000000000000000e+00
0.000000000000000e+00 0.000000000000000e+00 0.000000000000000e+00
0.000000000000000e+00 0.000000000000000e+00 0.000000000000000e+00
0.000000000000000e+00 0.000000000000000e+00 0.000000000000000e+00
0.000000000000000e+00 0.000000000000000e+00 0.000000000000000e+00
0.000000000000000e+00 0.000000000000000e+00 0.000000000000000e+00
0.000000000000000e+00 0.000000000000000e+00 0.000000000000000e+00
0.000000000000000e+00 0.000000000000000e+00 0.000000000000000e+00
0.000000000000000e+00 0.000000000000000e+00 0.000000000000000e+00
0.000000000000000e+00 0.000000000000000e+00 0.000000000000000e+00
0.000000000000000e+00 0.000000000000000e+00 0.000000000000000e+00
0.000000000000000e+00 0.000000000000000e+00 0.000000000000000e+00
0.000000000000000e+00 0.000000000000000e+00 0.000000000000000e+00
0.000000000000000e+00 0.000000000000000e+00 0.000000000000000e+00
0.000000000000000e+00 0.000000000000000e+00 0.000000000000000e+00
0.000000000000000e+00 0.000000000000000e+00 0.000000000000000e+00
0.000000000000000e+00 0.000000000000000e+00 0.000000000000000e+00
0.000000000000000e+00 0.000000000000000e+00 0.000000000000000e+00
0.000000000000000e+00 0.000000000000000e+00 0.000000000000000e+00
0.000000000000000e+00 0.000000000000000e+00 0.000000000000000e+00
0.000000000000000e+00 0.000000000000000e+00 0.000000000000000e+00
0.000000000000000e+00 0.000000000000000e+00 0.000000000000000e+00
0.000000000000000e+00 0.000000000000000e+00 0.000000000000000e+00
0.000000000000000e+00 0.000000000000000e+00 0.000000000000000e+00
0.000000000000000e+00 0.000000000000000e+00 0.000000000000000e+00
0.000000000000000e+00 0.000000000000000e+00 0.000000000000000e+00
0.000000000000000e+00 0.000000000000000e+00 0.000000000000000e+00
0.000000000000000e+00 0.000000000000000e+00 0.000000000000000e+00
0.000000000000000e+00 0.000000000000000e+00 0.000000000000000e+00
0.000000000000000e+00 0.000000000000000e+00 0.000000000000000e+00
0.000000000000000e+00 0.000000000000000e+00 0.000000000000000e+00
0.000000000000000e+00 0.000000000000000e+00 0.000000000000000e+00
0.000000000000000e+00 0.000000000000000e+00 0.000000000000000e+00
0.000000000000000e+00 0.000000000000000e+00 0.000000000000000e+00
0.000000000000000e+00 0.000000000000000e+00 0.000000000000000e+00
0.000000000000000e+00 0.000000000000000e+00 0.000000000000000e+00
0.000000000000000e+00 0.000000000000000e+00 0.000000000000000e+00
0.000000000000000e+00 0.000000000000000e+00 0.000000000000000e+00
0.000000000000000e+00 0.000000000000000e+00 0.000000000000000e+00
0.000000000000000e+00 0.000000000000000e+00 0.000000000000000e+00
0.000000000000000e+00 0.000000000000000e+00 0.000000000000000e+00
0.000000000000000e+00 0.000000000000000e+00 0.000000000000000e+00
0.000000000000000e+00 0.000000000000000e+00 0.000000000000000e+00
0.000000000000000e+00 0.000000000000000e+00 0.000000000000000e+00
0.000000000000000e+00 0.000000000000000e+00 0.000000000000000e+00
0.000000000000000e+00 0.000000000000000e+00 0.000000000000000e+00
0.000000000000000e+00 0.000000000000000e+00 0.000000000000000e+00
0.000000000000000e+00 0.000000000000000e+00 0.000000000000000e+00
0.000000000000000e+00 0.000000000000000e+00 0.000000000000000e+00
0.000000000000000e+00 0.000000000000000e+00 0.000000000000000e+00
0.000000000000000e+00 0.000000000000000e+00 0.000000000000000e+00
0.000000000000000e+00 0.000000000000000e+00 0.000000000000000e+00
0.000000000000000e+00 0.000000000000000e+00 0.000000000000000e+00
0.000000000000000e+00 0.000000000000000e+00 0.000000000000000e+00
0.000000000000000e+00 0.000000000000000e+00 0.000000000000000e+00
0.000000000000000e+00 0.000000000000000e+00 0.000000000000000e+00
0.000000000000000e+00 0.000000000000000e+00 0.000000000000000e+00
0.000000000000000e+00 0.000000000000000e+00 0.000000000000000e+00
0.000000000000000e+00 0.000000000000000e+00 0.000000000000000e+00
0.000000000000000e+00 0.000000000000000e+00 0.000000000000000e+00
0.000000000000000e+00 0.000000000000000e+00 0.000000000000000e+00
0.000000000000000e+00 0.000000000000000e+00 0.000000000000000e+00
0.000000000000000e+00 0.000000000000000e+00 0.000000000000000e+00
0.000000000000000e+00 0.000000000000000e+00 0.000000000000000e+00
0.000000000000000e+00 0.000000000000000e+00 0.000000000000000e+00
0.000000000000000e+00 0.000000000000000e+00 0.000000000000000e+00
0.000000000000000e+00 0.000000000000000e+00 0.000000000000000e+00
0.000000000000000e+00 0.000000000000000e+00 0.000000000000000e+00
0.000000000000000e+00 0.000000000000000e+00 0.000000000000000e+00
0.000000000000000e+00 0.000000000000000e+00 0.000000000000000e+00
0.000000000000000e+00 0.000000000000000e+00 0.000000000000000e+00
0.000000000000000e+00 0.000000000000000e+00 0.000000000000000e+00
0.000000000000000e+00 0.000000000000000e+00 0.000000000000000e+00
0.000000000000000e+00 0.000000000000000e+00 0.000000000000000e+00
0.000000000000000e+00 0.000000000000000e+00 0.000000000000000e+00
0.000000000000000e+00 0.000000000000000e+00 0.000000000000000e+00
0.000000000000000e+00 0.000000000000000e+00 0.000000000000000e+00
0.000000000000000e+00 0.000000000000000e+00 0.000000000000000e+00
0.000000000000000e+00 0.000000000000000e+00 0.000000000000000e+00
0.000000000000000e+00 0.000000000000000e+00 0.000000000000000e+00
0.000000000000000e+00 0.000000000000000e+00 0.000000000000000e+00
0.000000000000000e+00 0.000000000000000e+00 0.000000000000000e+00
0.000000000000000e+00 0.000000000000000e+00 0.000000000000000e+00
0.000000000000000e+00 0.000000000000000e+00 0.000000000000000e+00
0.000000000000000e+00 0.000000000000000e+00 0.000000000000000e+00
0.000000000000000e+00 0.000000000000000e+00 0.000000000000000e+00
0.000000000000000e+00 0.000000000000000e+00 0.000000000000000e+00
0.000000000000000e+00 0.000000000000000e+00 0.000000000000000e+00
0.000000000000000e+00 0.000000000000000e+00 0.000000000000000e+00
0.000000000000000e+00 0.000000000000000e+00 0.000000000000000e+00
0.000000000000000e+00 0.000000000000000e+00 0.000000000000000e+00
0.000000000000000e+00 0.000000000000000e+00 0.000000000000000e+00
0.000000000000000e+00 0.000000000000000e+00 0.000000000000000e+00
0.000000000000000e+00 0.000000000000000e+00 0.000000000000000e+00
0.000000000000000e+00 0.000000000000000e+00 0.000000000000000e+00
0.000000000000000e+00 0.000000000000000e+00 0.000000000000000e+00
0.000000000000000e+00 0.000000000000000e+00 0.000000000000000e+00
0.000000000000000e+00 0.000000000000000e+00 0.000000000000000e+00
0.000000000000000e+00 0.000000000000000e+00 0.000000000000000e+00
0.000000000000000e+00 0.000000000000000e+00 0.000000000000000e+00
0.000000000000000e+00 0.000000000000000e+00 0.000000000000000e+00
0.000000000000000e+00 0.000000000000000e+00 0.000000000000000e+00
0.000000000000000e+00 0.000000000000000e+00 0.000000000000000e+00
0.000000000000000e+00 0.000000000000000e+00 0.000000000000000e+00
0.000000000000000e+00 0.000000000000000e+00 0.000000000000000e+00
0.000000000000000e+00 0.000000000000000e+00 0.000000000000000e+00
0.000000000000000e+00 0.000000000000000e+00 0.000000000000000e+00
0.000000000000000e+00 0.000000000000000e+00 0.000000000000000e+00
0.000000000000000e+00 0.000000000000000e+00 0.000000000000000e+00
0.000000000000000e+00 0.000000000000000e+00 0.000000000000000e+00
0.000000000000000e+00 0.000000000000000e+00 0.000000000000000e+00
0.000000000000000e+00 0.000000000000000e+00 0.000000000000000e+00
0.000000000000000e+00 0.000000000000000e+00 0.000000000000000e+00
0.000000000000000e+00 0.000000000000000e+00 0.000000000000000e+00
0.000000000000000e+00 0.000000000000000e+00 0.000000000000000e+00
0.000000000000000e+00 0.000000000000000e+00 0.000000000000000e+00
0.000000000000000e+00 0.000000000000000e+00 0.000000000000000e+00
0.000000000000000e+00 0.000000000000000e+00 0.000000000000000e+00
0.000000000000000e+00 0.000000000000000e+00 0.000000000000000e+00
0.000000000000000e+00 0.000000000000000e+00 0.000000000000000e+00
0.000000000000000e+00 0.000000000000000e+00 0.000000000000000e+00
0.000000000000000e+00 0.000000000000000e+00 0.000000000000000e+00
0.000000000000000e+00 0.000000000000000e+00 0.000000000000000e+00
0.000000000000000e+00 0.000000000000000e+00 0.000000000000000e+00
0.000000000000000e+00 0.000000000000000e+00 0.000000000000000e+00
0.000000000000000e+00 0.000000000000000e+00 0.000000000000000e+00
0.000000000000000e+00 0.000000000000000e+00 0.000000000000000e+00
0.000000000000000e+00 0.000000000000000e+00 0.000000000000000e+00
0.000000000000000e+00 0.000000000000000e+00 0.000000000000000e+00
0.000000000000000e+00 0.000000000000000e+00 0.000000000000000e+00
0.000000000000000e+00 0.000000000000000e+00 0.000000000000000e+00
0.000000000000000e+00 0.000000000000000e+00 0.000000000000000e+00
0.000000000000000e+00 0.000000000000000e+00 0.000000000000000e+00
0.000000000000000e+00 0.000000000000000e+00 0.000000000000000e+00
0.000000000000000e+00 0.000000000000000e+00 0.000000000000000e+00
0.000000000000000e+00 0.000000000000000e+00 0.000000000000000e+00
0.000000000000000e+00 0.000000000000000e+00 0.000000000000000e+00
0.000000000000000e+00 0.000000000000000e+00 0.000000000000000e+00
0.000000000000000e+00 0.000000000000000e+00 0.000000000000000e+00
0.000000000000000e+00 0.000000000000000e+00 0.000000000000000e+00
0.000000000000000e+00 0.000000000000000e+00 0.000000000000000e+00
0.000000000000000e+00 0.000000000000000e+00 0.000000000000000e+00
0.000000000000000e+00 0.000000000000000e+00 0.000000000000000e+00
0.000000000000000e+00 0.000000000000000e+00 0.000000000000000e+00
0.000000000000000e+00 0.000000000000000e+00 0.000000000000000e+00
0.000000000000000e+00 0.000000000000000e+00 0.000000000000000e+00
0.000000000000000e+00 0.000000000000000e+00 0.000000000000000e+00
0.000000000000000e+00 0.000000000000000e+00 0.000000000000000e+00
0.000000000000000e+00 0.000000000000000e+00 0.000000000000000e+00
0.000000000000000e+00 0.000000000000000e+00 0.000000000000000e+00
0.000000000000000e+00 0.000000000000000e+00 0.000000000000000e+00
0.000000000000000e+00 0.000000000000000e+00 0.000000000000000e+00
0.000000000000000e+00 0.000000000000000e+00 0.000000000000000e+00
0.000000000000000e+00 0.000000000000000e+00 0.000000000000000e+00
0.000000000000000e+00 0.000000000000000e+00 0.000000000000000e+00
0.000000000000000e+00 0.000000000000000e+00 0.000000000000000e+00
0.000000000000000e+00 0.000000000000000e+00 0.000000000000000e+00
0.000000000000000e+00 0.000000000000000e+00 0.000000000000000e+00
0.000000000000000e+00 0.000000000000000e+00 0.000000000000000e+00
0.000000000000000e+00 0.000000000000000e+00 0.000000000000000e+00
0.000000000000000e+00 0.000000000000000e+00 0.000000000000000e+00
0.000000000000000e+00 0.000000000000000e+00 0.000000000000000e+00
0.000000000000000e+00 0.000000000000000e+00 0.000000000000000e+00
0.000000000000000e+00 0.000000000000000e+00 0.000000000000000e+00
0.000000000000000e+00 0.000000000000000e+00 0.000000000000000e+00
0.000000000000000e+00 0.000000000000000e+00 0.000000000000000e+00
0.000000000000000e+00 0.000000000000000e+00 0.000000000000000e+00
0.000000000000000e+00 0.000000000000000e+00 0.000000000000000e+00
0.000000000000000e+00 0.000000000000000e+00 0.000000000000000e+00
0.000000000000000e+00 0.000000000000000e+00 0.000000000000000e+00
0.000000000000000e+00 0.000000000000000e+00 0.000000000000000e+00
0.000000000000000e+00 0.000000000000000e+00 0.000000000000000e+00
0.000000000000000e+00 0.000000000000000e+00 0.000000000000000e+00
0.000000000000000e+00 0.000000000000000e+00 0.000000000000000e+00
0.000000000000000e+00 0.000000000000000e+00 0.000000000000000e+00
0.000000000000000e+00 0.000000000000000e+00 0.000000000000000e+00
0.000000000000000e+00 0.000000000000000e+00 0.000000000000000e+00
0.000000000000000e+00 0.000000000000000e+00 0.000000000000000e+00
0.000000000000000e+00 0.000000000000000e+00 0.000000000000000e+00
0.000000000000000e+00 0.000000000000000e+00 0.000000000000000e+00
0.000000000000000e+00 0.000000000000000e+00 0.000000000000000e+00
0.000000000000000e+00 0.000000000000000e+00 0.000000000000000e+00
0.000000000000000e+00 0.000000000000000e+00 0.000000000000000e+00
0.000000000000000e+00 0.000000000000000e+00 0.000000000000000e+00
0.000000000000000e+00 0.000000000000000e+00 0.000000000000000e+00
0.000000000000000e+00 0.000000000000000e+00 0.000000000000000e+00
0.000000000000000e+00 0.000000000000000e+00 0.000000000000000e+00
0.000000000000000e+00 0.000000000000000e+00 0.000000000000000e+00
0.000000000000000e+00 0.000000000000000e+00 0.000000000000000e+00
0.000000000000000e+00 0.000000000000000e+00 0.000000000000000e+00
0.000000000000000e+00 0.000000000000000e+00 0.000000000000000e+00
0.000000000000000e+00 0.000000000000000e+00 0.000000000000000e+00
0.000000000000000e+00 0.000000000000000e+00 0.000000000000000e+00
0.000000000000000e+00 0.000000000000000e+00 0.000000000000000e+00
0.000000000000000e+00 0.000000000000000e+00 0.000000000000000e+00
0.000000000000000e+00 0.000000000000000e+00 0.000000000000000e+00
0.000000000000000e+00 0.000000000000000e+00 0.000000000000000e+00
0.000000000000000e+00 0.000000000000000e+00 0.000000000000000e+00
0.000000000000000e+00 0.000000000000000e+00 0.000000000000000e+00
0.000000000000000e+00 0.000000000000000e+00 0.000000000000000e+00
0.000000000000000e+00 0.000000000000000e+00 0.000000000000000e+00
0.000000000000000e+00 0.000000000000000e+00 0.000000000000000e+00
0.000000000000000e+00 0.000000000000000e+00 0.000000000000000e+00
0.000000000000000e+00 0.000000000000000e+00 0.000000000000000e+00
0.000000000000000e+00 0.000000000000000e+00 0.000000000000000e+00
0.000000000000000e+00 0.000000000000000e+00 0.000000000000000e+00
0.000000000000000e+00 0.000000000000000e+00 0.000000000000000e+00
0.000000000000000e+00 0.000000000000000e+00 0.000000000000000e+00
0.000000000000000e+00 0.000000000000000e+00 0.000000000000000e+00
0.000000000000000e+00 0.000000000000000e+00 0.000000000000000e+00
0.000000000000000e+00 0.000000000000000e+00 0.000000000000000e+00
0.000000000000000e+00 0.000000000000000e+00 0.000000000000000e+00
0.000000000000000e+00 0.000000000000000e+00 0.000000000000000e+00
0.000000000000000e+00 0.000000000000000e+00 0.000000000000000e+00
0.000000000000000e+00 0.000000000000000e+00 0.000000000000000e+00
0.000000000000000e+00 0.000000000000000e+00 0.000000000000000e+00
0.000000000000000e+00 0.000000000000000e+00 0.000000000000000e+00
0.000000000000000e+00 0.000000000000000e+00 0.000000000000000e+00
0.000000000000000e+00 0.000000000000000e+00 0.000000000000000e+00
0.000000000000000e+00 0.000000000000000e+00 0.000000000000000e+00
0.000000000000000e+00 0.000000000000000e+00 0.000000000000000e+00
0.000000000000000e+00 0.000000000000000e+00 0.000000000000000e+00
0.000000000000000e+00 0.000000000000000e+00 0.000000000000000e+00
0.000000000000000e+00 0.000000000000000e+00 0.000000000000000e+00
0.000000000000000e+00 0.000000000000000e+00 0.000000000000000e+00
0.000000000000000e+00 0.000000000000000e+00 0.000000000000000e+00
0.000000000000000e+00 0.000000000000000e+00 0.000000000000000e+00
0.000000000000000e+00 0.000000000000000e+00 0.000000000000000e+00
0.000000000000000e+00 0.000000000000000e+00 0.000000000000000e+00
0.000000000000000e+00 0.000000000000000e+00 0.000000000000000e+00
0.000000000000000e+00 0.000000000000000e+00 0.000000000000000e+00
0.000000000000000e+00 0.000000000000000e+00 0.000000000000000e+00
0.000000000000000e+00 0.000000000000000e+00 0.000000000000000e+00
0.000000000000000e+00 0.000000000000000e+00 0.000000000000000e+00
0.000000000000000e+00 0.000000000000000e+00 0.000000000000000e+00
0.000000000000000e+00 0.000000000000000e+00 0.000000000000000e+00
0.000000000000000e+00 0.000000000000000e+00 0.000000000000000e+00
0.000000000000000e+00 0.000000000000000e+00 0.000000000000000e+00
0.000000000000000e+00 0.000000000000000e+00 0.000000000000000e+00
0.000000000000000e+00 0.000000000000000e+00 0.000000000000000e+00
0.000000000000000e+00 0.000000000000000e+00 0.000000000000000e+00
0.000000000000000e+00 0.000000000000000e+00 0.000000000000000e+00
0.000000000000000e+00 0.000000000000000e+00 0.000000000000000e+00
0.000000000000000e+00 0.000000000000000e+00 0.000000000000000e+00
0.000000000000000e+00 0.000000000000000e+00 0.000000000000000e+00
0.000000000000000e+00 0.000000000000000e+00 0.000000000000000e+00
0.000000000000000e+00 0.000000000000000e+00 0.000000000000000e+00
0.000000000000000e+00 0.000000000000000e+00 0.000000000000000e+00
0.000000000000000e+00 0.000000000000000e+00 0.000000000000000e+00
0.000000000000000e+00 0.000000000000000e+00 0.000000000000000e+00
0.000000000000000e+00 0.000000000000000e+00 0.000000000000000e+00
0.000000000000000e+00 0.000000000000000e+00 0.000000000000000e+00
0.000000000000000e+00 0.000000000000000e+00 0.000000000000000e+00
0.000000000000000e+00 0.000000000000000e+00 0.000000000000000e+00
0.000000000000000e+00 0.000000000000000e+00 0.000000000000000e+00
0.000000000000000e+00 0.000000000000000e+00 0.000000000000000e+00
0.000000000000000e+00 0.000000000000000e+00 0.000000000000000e+00
0.000000000000000e+00 0.000000000000000e+00 0.000000000000000e+00
0.000000000000000e+00 0.000000000000000e+00 0.000000000000000e+00
0.000000000000000e+00 0.000000000000000e+00 0.000000000000000e+00
0.000000000000000e+00 0.000000000000000e+00 0.000000000000000e+00
0.000000000000000e+00 0.000000000000000e+00 0.000000000000000e+00
0.000000000000000e+00 0.000000000000000e+00 0.000000000000000e+00
0.000000000000000e+00 0.000000000000000e+00 0.000000000000000e+00
0.000000000000000e+00 0.000000000000000e+00 0.000000000000000e+00
0.000000000000000e+00 0.000000000000000e+00 0.000000000000000e+00
0.000000000000000e+00 0.000000000000000e+00 0.000000000000000e+00
0.000000000000000e+00 0.000000000000000e+00 0.000000000000000e+00
0.000000000000000e+00 0.000000000000000e+00 0.000000000000000e+00
0.000000000000000e+00 0.000000000000000e+00 0.000000000000000e+00
0.000000000000000e+00 0.000000000000000e+00 0.000000000000000e+00
0.000000000000000e+00 0.000000000000000e+00 0.000000000000000e+00
0.000000000000000e+00 0.000000000000000e+00 0.000000000000000e+00
0.000000000000000e+00 0.000000000000000e+00 0.000000000000000e+00
0.000000000000000e+00 0.000000000000000e+00 0.000000000000000e+00
0.000000000000000e+00 0.000000000000000e+00 0.000000000000000e+00
0.000000000000000e+00 0.000000000000000e+00 0.000000000000000e+00
0.000000000000000e+00 0.000000000000000e+00 0.000000000000000e+00
0.000000000000000e+00 0.000000000000000e+00 0.000000000000000e+00
0.000000000000000e+00 0.000000000000000e+00 0.000000000000000e+00
0.000000000000000e+00 0.000000000000000e+00 0.000000000000000e+00
0.000000000000000e+00 0.000000000000000e+00 0.000000000000000e+00
0.000000000000000e+00 0.000000000000000e+00 0.000000000000000e+00
0.000000000000000e+00 0.000000000000000e+00 0.000000000000000e+00
0.000000000000000e+00 0.000000000000000e+00 0.000000000000000e+00
0.000000000000000e+00 0.000000000000000e+00 0.000000000000000e+00
0.000000000000000e+00 0.000000000000000e+00 0.000000000000000e+00
0.000000000000000e+00 0.000000000000000e+00 0.000000000000000e+00
0.000000000000000e+00 0.000000000000000e+00 0.000000000000000e+00
0.000000000000000e+00 0.000000000000000e+00 0.000000000000000e+00
0.000000000000000e+00 0.000000000000000e+00 0.000000000000000e+00
0.000000000000000e+00 0.000000000000000e+00 0.000000000000000e+00
0.000000000000000e+00 0.000000000000000e+00 0.000000000000000e+00
0.000000000000000e+00 0.000000000000000e+00 0.000000000000000e+00
0.000000000000000e+00 0.000000000000000e+00 0.000000000000000e+00
0.000000000000000e+00 0.000000000000000e+00 0.000000000000000e+00
0.000000000000000e+00 0.000000000000000e+00 0.000000000000000e+00
0.000000000000000e+00 0.000000000000000e+00 0.000000000000000e+00
0.000000000000000e+00 0.000000000000000e+00 0.000000000000000e+00
0.000000000000000e+00 0.000000000000000e+00 0.000000000000000e+00
0.000000000000000e+00 0.000000000000000e+00 0.000000000000000e+00
0.000000000000000e+00 0.000000000000000e+00 0.000000000000000e+00
0.000000000000000e+00 0.000000000000000e+00 0.000000000000000e+00
0.000000000000000e+00 0.000000000000000e+00 0.000000000000000e+00
0.000000000000000e+00 0.000000000000000e+00 0.000000000000000e+00
0.000000000000000e+00 0.000000000000000e+00 0.000000000000000e+00
0.000000000000000e+00 0.000000000000000e+00 0.000000000000000e+00
0.000000000000000e+00 0.000000000000000e+00 0.000000000000000e+00
0.000000000000000e+00 0.000000000000000e+00 0.000000000000000e+00
0.000000000000000e+00 0.000000000000000e+00 0.000000000000000e+00
0.000000000000000e+00 0.000000000000000e+00 0.000000000000000e+00
0.000000000000000e+00 0.000000000000000e+00 0.000000000000000e+00
0.000000000000000e+00 0.000000000000000e+00 0.000000000000000e+00
0.000000000000000e+00 0.000000000000000e+00 0.000000000000000e+00
0.000000000000000e+00 0.000000000000000e+00 0.000000000000000e+00
0.000000000000000e+00 0.000000000000000e+00 0.000000000000000e+00
0.000000000000000e+00 0.000000000000000e+00 0.000000000000000e+00
0.000000000000000e+00 0.000000000000000e+00 0.000000000000000e+00
0.000000000000000e+00 0.000000000000000e+00 0.000000000000000e+00
0.000000000000000e+00 0.000000000000000e+00 0.000000000000000e+00
0.000000000000000e+00 0.000000000000000e+00 0.000000000000000e+00
0.000000000000000e+00 0.000000000000000e+00 0.000000000000000e+00
0.000000000000000e+00 0.000000000000000e+00 0.000000000000000e+00
0.000000000000000e+00 0.000000000000000e+00 0.000000000000000e+00
0.000000000000000e+00 0.000000000000000e+00 0.000000000000000e+00
0.000000000000000e+00 0.000000000000000e+00 0.000000000000000e+00
0.000000000000000e+00 0.000000000000000e+00 0.000000000000000e+00
0.000000000000000e+00 0.000000000000000e+00 0.000000000000000e+00
0.000000000000000e+00 0.000000000000000e+00 0.000000000000000e+00
0.000000000000000e+00 0.000000000000000e+00 0.000000000000000e+00
0.000000000000000e+00 0.000000000000000e+00 0.000000000000000e+00
0.000000000000000e+00 0.000000000000000e+00 0.000000000000000e+00
0.000000000000000e+00 0.000000000000000e+00 0.000000000000000e+00
0.000000000000000e+00 0.000000000000000e+00 0.000000000000000e+00
0.000000000000000e+00 0.000000000000000e+00 0.000000000000000e+00
0.000000000000000e+00 0.000000000000000e+00 0.000000000000000e+00
0.000000000000000e+00 0.000000000000000e+00 0.000000000000000e+00
0.000000000000000e+00 0.000000000000000e+00 0.000000000000000e+00
0.000000000000000e+00 0.000000000000000e+00 0.000000000000000e+00
0.000000000000000e+00 0.000000000000000e+00 0.000000000000000e+00
0.000000000000000e+00 0.000000000000000e+00 0.000000000000000e+00
0.000000000000000e+00 0.000000000000000e+00 0.000000000000000e+00
0.000000000000000e+00 0.000000000000000e+00 0.000000000000000e+00
0.000000000000000e+00 0.000000000000000e+00 0.000000000000000e+00
0.000000000000000e+00 0.000000000000000e+00 0.000000000000000e+00
0.000000000000000e+00 0.000000000000000e+00 0.000000000000000e+00
0.000000000000000e+00 0.000000000000000e+00 0.000000000000000e+00
0.000000000000000e+00 0.000000000000000e+00 0.000000000000000e+00
0.000000000000000e+00 0.000000000000000e+00 0.000000000000000e+00
0.000000000000000e+00 0.000000000000000e+00 0.000000000000000e+00
0.000000000000000e+00 0.000000000000000e+00 0.000000000000000e+00
0.000000000000000e+00 0.000000000000000e+00 0.000000000000000e+00
0.000000000000000e+00 0.000000000000000e+00 0.000000000000000e+00
0.000000000000000e+00 0.000000000000000e+00 0.000000000000000e+00
0.000000000000000e+00 0.000000000000000e+00 0.000000000000000e+00
0.000000000000000e+00 0.000000000000000e+00 0.000000000000000e+00
0.000000000000000e+00 0.000000000000000e+00 0.000000000000000e+00
0.000000000000000e+00 0.000000000000000e+00 0.000000000000000e+00
0.000000000000000e+00 0.000000000000000e+00 0.000000000000000e+00
0.000000000000000e+00 0.000000000000000e+00 0.000000000000000e+00
0.000000000000000e+00 0.000000000000000e+00 0.000000000000000e+00
0.000000000000000e+00 0.000000000000000e+00 0.000000000000000e+00
0.000000000000000e+00 0.000000000000000e+00 0.000000000000000e+00
0.000000000000000e+00 0.000000000000000e+00 0.000000000000000e+00
0.000000000000000e+00 0.000000000000000e+00 0.000000000000000e+00
0.000000000000000e+00 0.000000000000000e+00 0.000000000000000e+00
0.000000000000000e+00 0.000000000000000e+00 0.000000000000000e+00
0.000000000000000e+00 0.000000000000000e+00 0.000000000000000e+00
0.000000000000000e+00 0.000000000000000e+00 0.000000000000000e+00
0.000000000000000e+00 0.000000000000000e+00 0.000000000000000e+00
0.000000000000000e+00 0.000000000000000e+00 0.000000000000000e+00
0.000000000000000e+00 0.000000000000000e+00 0.000000000000000e+00
0.000000000000000e+00 0.000000000000000e+00 0.000000000000000e+00
0.000000000000000e+00 0.000000000000000e+00 0.000000000000000e+00
0.000000000000000e+00 0.000000000000000e+00 0.000000000000000e+00
0.000000000000000e+00 0.000000000000000e+00 0.000000000000000e+00
0.000000000000000e+00 0.000000000000000e+00 0.000000000000000e+00
0.000000000000000e+00 0.000000000000000e+00 0.000000000000000e+00
0.000000000000000e+00 0.000000000000000e+00 0.000000000000000e+00
0.000000000000000e+00 0.000000000000000e+00 0.000000000000000e+00
0.000000000000000e+00 0.000000000000000e+00 0.000000000000000e+00
0.000000000000000e+00 0.000000000000000e+00 0.000000000000000e+00
0.000000000000000e+00 0.000000000000000e+00 0.000000000000000e+00
0.000000000000000e+00 0.000000000000000e+00 0.000000000000000e+00
0.000000000000000e+00 0.000000000000000e+00 0.000000000000000e+00
0.000000000000000e+00 0.000000000000000e+00 0.000000000000000e+00
0.000000000000000e+00 0.000000000000000e+00 0.000000000000000e+00
0.000000000000000e+00 0.000000000000000e+00 0.000000000000000e+00
0.000000000000000e+00 0.000000000000000e+00 0.000000000000000e+00
0.000000000000000e+00 0.000000000000000e+00 0.000000000000000e+00
0.000000000000000e+00 0.000000000000000e+00 0.000000000000000e+00
0.000000000000000e+00 0.000000000000000e+00 0.000000000000000e+00
0.000000000000000e+00 0.000000000000000e+00 0.000000000000000e+00
0.000000000000000e+00 0.000000000000000e+00 0.000000000000000e+00
0.000000000000000e+00 0.000000000000000e+00 0.000000000000000e+00
0.000000000000000e+00 0.000000000000000e+00 0.000000000000000e+00
0.000000000000000e+00 0.000000000000000e+00 0.000000000000000e+00
0.000000000000000e+00 0.000000000000000e+00 0.000000000000000e+00
0.000000000000000e+00 0.000000000000000e+00 0.000000000000000e+00
0.000000000000000e+00 0.000000000000000e+00 0.000000000000000e+00
0.000000000000000e+00 0.000000000000000e+00 0.000000000000000e+00
0.000000000000000e+00 0.000000000000000e+00 0.000000000000000e+00
0.000000000000000e+00 0.000000000000000e+00 0.000000000000000e+00
0.000000000000000e+00 0.000000000000000e+00 0.000000000000000e+00
0.000000000000000e+00 0.000000000000000e+00 0.000000000000000e+00
0.000000000000000e+00 0.000000000000000e+00 0.000000000000000e+00
0.000000000000000e+00 0.000000000000000e+00 0.000000000000000e+00
0.000000000000000e+00 0.000000000000000e+00 0.000000000000000e+00
0.000000000000000e+00 0.000000000000000e+00 0.000000000000000e+00
0.000000000000000e+00 0.000000000000000e+00 0.000000000000000e+00
0.000000000000000e+00 0.000000000000000e+00 0.000000000000000e+00
0.000000000000000e+00 0.000000000000000e+00 0.000000000000000e+00
0.000000000000000e+00 0.000000000000000e+00 0.000000000000000e+00
0.000000000000000e+00 0.000000000000000e+00 0.000000000000000e+00
0.000000000000000e+00 0.000000000000000e+00 0.000000000000000e+00
0.000000000000000e+00 0.000000000000000e+00 0.000000000000000e+00
0.000000000000000e+00 0.000000000000000e+00 0.000000000000000e+00
0.000000000000000e+00 0.000000000000000e+00 0.000000000000000e+00
0.000000000000000e+00 0.000000000000000e+00 0.000000000000000e+00
0.000000000000000e+00 0.000000000000000e+00 0.000000000000000e+00
0.000000000000000e+00 0.000000000000000e+00 0.000000000000000e+00
0.000000000000000e+00 0.000000000000000e+00 0.000000000000000e+00
0.000000000000000e+00 0.000000000000000e+00 0.000000000000000e+00
0.000000000000000e+00 0.000000000000000e+00 0.000000000000000e+00
0.000000000000000e+00 0.000000000000000e+00 0.000000000000000e+00
0.000000000000000e+00 0.000000000000000e+00 0.000000000000000e+00
0.000000000000000e+00 0.000000000000000e+00 0.000000000000000e+00
0.000000000000000e+00 0.000000000000000e+00 0.000000000000000e+00
0.000000000000000e+00 0.000000000000000e+00 0.000000000000000e+00
0.000000000000000e+00 0.000000000000000e+00 0.000000000000000e+00
0.000000000000000e+00 0.000000000000000e+00 0.000000000000000e+00
0.000000000000000e+00 0.000000000000000e+00 0.000000000000000e+00
0.000000000000000e+00 0.000000000000000e+00 0.000000000000000e+00
0.000000000000000e+00 0.000000000000000e+00 0.000000000000000e+00
0.000000000000000e+00 0.000000000000000e+00 0.000000000000000e+00
0.000000000000000e+00 0.000000000000000e+00 0.000000000000000e+00
0.000000000000000e+00 0.000000000000000e+00 0.000000000000000e+00
0.000000000000000e+00 0.000000000000000e+00 0.000000000000000e+00
0.000000000000000e+00 0.000000000000000e+00 0.000000000000000e+00
0.000000000000000e+00 0.000000000000000e+00 0.000000000000000e+00
0.000000000000000e+00 0.000000000000000e+00 0.000000000000000e+00
0.000000000000000e+00 0.000000000000000e+00 0.000000000000000e+00
0.000000000000000e+00 0.000000000000000e+00 0.000000000000000e+00
0.000000000000000e+00 0.000000000000000e+00 0.000000000000000e+00
0.000000000000000e+00 0.000000000000000e+00 0.000000000000000e+00
0.000000000000000e+00 0.000000000000000e+00 0.000000000000000e+00
0.000000000000000e+00 0.000000000000000e+00 0.000000000000000e+00
0.000000000000000e+00 0.000000000000000e+00 0.000000000000000e+00
0.000000000000000e+00 0.000000000000000e+00 0.000000000000000e+00
0.000000000000000e+00 0.000000000000000e+00 0.000000000000000e+00
0.000000000000000e+00 0.000000000000000e+00 0.000000000000000e+00
0.000000000000000e+00 0.000000000000000e+00 0.000000000000000e+00
0.000000000000000e+00 0.000000000000000e+00 0.000000000000000e+00
0.000000000000000e+00 0.000000000000000e+00 0.000000000000000e+00
0.000000000000000e+00 0.000000000000000e+00 0.000000000000000e+00
0.000000000000000e+00 0.000000000000000e+00 0.000000000000000e+00
0.000000000000000e+00 0.000000000000000e+00 0.000000000000000e+00
0.000000000000000e+00 0.000000000000000e+00 0.000000000000000e+00
0.000000000000000e+00 0.000000000000000e+00 0.000000000000000e+00
0.000000000000000e+00 0.000000000000000e+00 0.000000000000000e+00
0.000000000000000e+00 0.000000000000000e+00 0.000000000000000e+00
0.000000000000000e+00 0.000000000000000e+00 0.000000000000000e+00
0.000000000000000e+00 0.000000000000000e+00 0.000000000000000e+00
0.000000000000000e+00 0.000000000000000e+00 0.000000000000000e+00
0.000000000000000e+00 0.000000000000000e+00 0.000000000000000e+00
0.000000000000000e+00 0.000000000000000e+00 0.000000000000000e+00
0.000000000000000e+00 0.000000000000000e+00 0.000000000000000e+00
0.000000000000000e+00 0.000000000000000e+00 0.000000000000000e+00
0.000000000000000e+00 0.000000000000000e+00 0.000000000000000e+00
0.000000000000000e+00 0.000000000000000e+00 0.000000000000000e+00
0.000000000000000e+00 0.000000000000000e+00 0.000000000000000e+00
0.000000000000000e+00 0.000000000000000e+00 0.000000000000000e+00
0.000000000000000e+00 0.000000000000000e+00 0.000000000000000e+00
0.000000000000000e+00 0.000000000000000e+00 0.000000000000000e+00
0.000000000000000e+00 0.000000000000000e+00 0.000000000000000e+00
0.000000000000000e+00 0.000000000000000e+00 0.000000000000000e+00
0.000000000000000e+00 0.000000000000000e+00 0.000000000000000e+00
0.000000000000000e+00 0.000000000000000e+00 0.000000000000000e+00
0.000000000000000e+00 0.000000000000000e+00 0.000000000000000e+00
0.000000000000000e+00 0.000000000000000e+00 0.000000000000000e+00
0.000000000000000e+00 0.000000000000000e+00 0.000000000000000e+00
0.000000000000000e+00 0.000000000000000e+00 0.000000000000000e+00
0.000000000000000e+00 0.000000000000000e+00 0.000000000000000e+00
0.000000000000000e+00 0.000000000000000e+00 0.000000000000000e+00
0.000000000000000e+00 0.000000000000000e+00 0.000000000000000e+00
0.000000000000000e+00 0.000000000000000e+00 0.000000000000000e+00
0.000000000000000e+00 0.000000000000000e+00 0.000000000000000e+00
0.000000000000000e+00 0.000000000000000e+00 0.000000000000000e+00
0.000000000000000e+00 0.000000000000000e+00 0.000000000000000e+00
0.000000000000000e+00 0.000000000000000e+00 0.000000000000000e+00
0.000000000000000e+00 0.000000000000000e+00 0.000000000000000e+00
0.000000000000000e+00 0.000000000000000e+00 0.000000000000000e+00
0.000000000000000e+00 0.000000000000000e+00 0.000000000000000e+00
0.000000000000000e+00 0.000000000000000e+00 0.000000000000000e+00
0.000000000000000e+00 0.000000000000000e+00 0.000000000000000e+00
0.000000000000000e+00 0.000000000000000e+00 0.000000000000000e+00
0.000000000000000e+00 0.000000000000000e+00 0.000000000000000e+00
0.000000000000000e+00 0.000000000000000e+00 0.000000000000000e+00
0.000000000000000e+00 0.000000000000000e+00 0.000000000000000e+00
0.000000000000000e+00 0.000000000000000e+00 0.000000000000000e+00
0.000000000000000e+00 0.000000000000000e+00 0.000000000000000e+00
0.000000000000000e+00 0.000000000000000e+00 0.000000000000000e+00
0.000000000000000e+00 0.000000000000000e+00 0.000000000000000e+00
0.000000000000000e+00 0.000000000000000e+00 0.000000000000000e+00
0.000000000000000e+00 0.000000000000000e+00 0.000000000000000e+00
0.000000000000000e+00 0.000000000000000e+00 0.000000000000000e+00
0.000000000000000e+00 0.000000000000000e+00 0.000000000000000e+00
0.000000000000000e+00 0.000000000000000e+00 0.000000000000000e+00
0.000000000000000e+00 0.000000000000000e+00 0.000000000000000e+00
0.000000000000000e+00 0.000000000000000e+00 0.000000000000000e+00
0.000000000000000e+00 0.000000000000000e+00 0.000000000000000e+00
0.000000000000000e+00 0.000000000000000e+00 0.000000000000000e+00
0.000000000000000e+00 0.000000000000000e+00 0.000000000000000e+00
0.000000000000000e+00 0.000000000000000e+00 0.000000000000000e+00
0.000000000000000e+00 0.000000000000000e+00 0.000000000000000e+00
0.000000000000000e+00 0.000000000000000e+00 0.000000000000000e+00
0.000000000000000e+00 0.000000000000000e+00 0.000000000000000e+00
0.000000000000000e+00 0.000000000000000e+00 0.000000000000000e+00
0.000000000000000e+00 0.000000000000000e+00 0.000000000000000e+00
0.000000000000000e+00 0.000000000000000e+00 0.000000000000000e+00
0.000000000000000e+00 0.000000000000000e+00 0.000000000000000e+00
0.000000000000000e+00 0.000000000000000e+00 0.000000000000000e+00
0.000000000000000e+00 0.000000000000000e+00 0.000000000000000e+00
0.000000000000000e+00 0.000000000000000e+00 0.000000000000000e+00
0.000000000000000e+00 0.000000000000000e+00 0.000000000000000e+00
0.000000000000000e+00 0.000000000000000e+00 0.000000000000000e+00
0.000000000000000e+00 0.000000000000000e+00 0.000000000000000e+00
0.000000000000000e+00 0.000000000000000e+00 0.000000000000000e+00
0.000000000000000e+00 0.000000000000000e+00 0.000000000000000e+00
0.000000000000000e+00 0.000000000000000e+00 0.000000000000000e+00
0.000000000000000e+00 0.000000000000000e+00 0.000000000000000e+00
0.000000000000000e+00 0.000000000000000e+00 0.000000000000000e+00
0.000000000000000e+00 0.000000000000000e+00 0.000000000000000e+00
0.000000000000000e+00 0.000000000000000e+00 0.000000000000000e+00
0.000000000000000e+00 0.000000000000000e+00 0.000000000000000e+00
0.000000000000000e+00 0.000000000000000e+00 0.000000000000000e+00
0.000000000000000e+00 0.000000000000000e+00 0.000000000000000e+00
0.000000000000000e+00 0.000000000000000e+00 0.000000000000000e+00
0.000000000000000e+00 0.000000000000000e+00 0.000000000000000e+00
0.000000000000000e+00 0.000000000000000e+00 0.000000000000000e+00
0.000000000000000e+00 0.000000000000000e+00 0.000000000000000e+00
0.000000000000000e+00 0.000000000000000e+00 0.000000000000000e+00
0.000000000000000e+00 0.000000000000000e+00 0.000000000000000e+00
0.000000000000000e+00 0.000000000000000e+00 0.000000000000000e+00
0.000000000000000e+00 0.000000000000000e+00 0.000000000000000e+00
0.000000000000000e+00 0.000000000000000e+00 0.000000000000000e+00
0.000000000000000e+00 0.000000000000000e+00 0.000000000000000e+00
0.000000000000000e+00 0.000000000000000e+00 0.000000000000000e+00
0.000000000000000e+00 0.000000000000000e+00 0.000000000000000e+00
0.000000000000000e+00 0.000000000000000e+00 0.000000000000000e+00
0.000000000000000e+00 0.000000000000000e+00 0.000000000000000e+00
0.000000000000000e+00 0.000000000000000e+00 0.000000000000000e+00
0.000000000000000e+00 0.000000000000000e+00 0.000000000000000e+00
0.000000000000000e+00 0.000000000000000e+00 0.000000000000000e+00
0.000000000000000e+00 0.000000000000000e+00 0.000000000000000e+00
0.000000000000000e+00 0.000000000000000e+00 0.000000000000000e+00
0.000000000000000e+00 0.000000000000000e+00 0.000000000000000e+00
0.000000000000000e+00 0.000000000000000e+00 0.000000000000000e+00
0.000000000000000e+00 0.000000000000000e+00 0.000000000000000e+00
0.000000000000000e+00 0.000000000000000e+00 0.000000000000000e+00
0.000000000000000e+00 0.000000000000000e+00 0.000000000000000e+00
0.000000000000000e+00 0.000000000000000e+00 0.000000000000000e+00
0.000000000000000e+00 0.000000000000000e+00 0.000000000000000e+00
0.000000000000000e+00 0.000000000000000e+00 0.000000000000000e+00
0.000000000000000e+00 0.000000000000000e+00 0.000000000000000e+00
0.000000000000000e+00 0.000000000000000e+00 0.000000000000000e+00
0.000000000000000e+00 0.000000000000000e+00 0.000000000000000e+00
0.000000000000000e+00 0.000000000000000e+00 0.000000000000000e+00
0.000000000000000e+00 0.000000000000000e+00 0.000000000000000e+00
0.000000000000000e+00 0.000000000000000e+00 0.000000000000000e+00
0.000000000000000e+00 0.000000000000000e+00 0.000000000000000e+00
0.000000000000000e+00 0.000000000000000e+00 0.000000000000000e+00
0.000000000000000e+00 0.000000000000000e+00 0.000000000000000e+00
0.000000000000000e+00 0.000000000000000e+00 0.000000000000000e+00
0.000000000000000e+00 0.000000000000000e+00 0.000000000000000e+00
0.000000000000000e+00 0.000000000000000e+00 0.000000000000000e+00
0.000000000000000e+00 0.000000000000000e+00 0.000000000000000e+00
0.000000000000000e+00 0.000000000000000e+00 0.000000000000000e+00
0.000000000000000e+00 0.000000000000000e+00 0.000000000000000e+00
0.000000000000000e+00 0.000000000000000e+00 0.000000000000000e+00
0.000000000000000e+00 0.000000000000000e+00 0.000000000000000e+00
0.000000000000000e+00 0.000000000000000e+00 0.000000000000000e+00
0.000000000000000e+00 0.000000000000000e+00 0.000000000000000e+00
0.000000000000000e+00 0.000000000000000e+00 0.000000000000000e+00
0.000000000000000e+00 0.000000000000000e+00 0.000000000000000e+00
0.000000000000000e+00 0.000000000000000e+00 0.000000000000000e+00
0.000000000000000e+00 0.000000000000000e+00 0.000000000000000e+00
0.000000000000000e+00 0.000000000000000e+00 0.000000000000000e+00
0.000000000000000e+00 0.000000000000000e+00 0.000000000000000e+00
0.000000000000000e+00 0.000000000000000e+00 0.000000000000000e+00
0.000000000000000e+00 0.000000000000000e+00 0.000000000000000e+00
0.000000000000000e+00 0.000000000000000e+00 0.000000000000000e+00
0.000000000000000e+00 0.000000000000000e+00 0.000000000000000e+00
0.000000000000000e+00 0.000000000000000e+00 0.000000000000000e+00
0.000000000000000e+00 0.000000000000000e+00 0.000000000000000e+00
0.000000000000000e+00 0.000000000000000e+00 0.000000000000000e+00
0.000000000000000e+00 0.000000000000000e+00 0.000000000000000e+00
0.000000000000000e+00 0.000000000000000e+00 0.000000000000000e+00
0.000000000000000e+00 0.000000000000000e+00 0.000000000000000e+00
0.000000000000000e+00 0.000000000000000e+00 0.000000000000000e+00
0.000000000000000e+00 0.000000000000000e+00 0.000000000000000e+00
0.000000000000000e+00 0.000000000000000e+00 0.000000000000000e+00
0.000000000000000e+00 0.000000000000000e+00 0.000000000000000e+00
0.000000000000000e+00 0.000000000000000e+00 0.000000000000000e+00
0.000000000000000e+00 0.000000000000000e+00 0.000000000000000e+00
0.000000000000000e+00 0.000000000000000e+00 0.000000000000000e+00
0.000000000000000e+00 0.000000000000000e+00 0.000000000000000e+00
0.000000000000000e+00 0.000000000000000e+00 0.000000000000000e+00
0.000000000000000e+00 0.000000000000000e+00 0.000000000000000e+00
0.000000000000000e+00 0.000000000000000e+00 0.000000000000000e+00
0.000000000000000e+00 0.000000000000000e+00 0.000000000000000e+00
0.000000000000000e+00 0.000000000000000e+00 0.000000000000000e+00
0.000000000000000e+00 0.000000000000000e+00 0.000000000000000e+00
0.000000000000000e+00 0.000000000000000e+00 0.000000000000000e+00
0.000000000000000e+00 0.000000000000000e+00 0.000000000000000e+00
0.000000000000000e+00 0.000000000000000e+00 0.000000000000000e+00
0.000000000000000e+00 0.000000000000000e+00 0.000000000000000e+00
0.000000000000000e+00 0.000000000000000e+00 0.000000000000000e+00
0.000000000000000e+00 0.000000000000000e+00 0.000000000000000e+00
0.000000000000000e+00 0.000000000000000e+00 0.000000000000000e+00
0.000000000000000e+00 0.000000000000000e+00 0.000000000000000e+00
0.000000000000000e+00 0.000000000000000e+00 0.000000000000000e+00
0.000000000000000e+00 0.000000000000000e+00 0.000000000000000e+00
0.000000000000000e+00 0.000000000000000e+00 0.000000000000000e+00
0.000000000000000e+00 0.000000000000000e+00 0.000000000000000e+00
0.000000000000000e+00 0.000000000000000e+00 0.000000000000000e+00
0.000000000000000e+00 0.000000000000000e+00 0.000000000000000e+00
0.000000000000000e+00 0.000000000000000e+00 0.000000000000000e+00
0.000000000000000e+00 0.000000000000000e+00 0.000000000000000e+00
0.000000000000000e+00 0.000000000000000e+00 0.000000000000000e+00
0.000000000000000e+00 0.000000000000000e+00 0.000000000000000e+00
0.000000000000000e+00 0.000000000000000e+00 0.000000000000000e+00
0.000000000000000e+00 0.000000000000000e+00 0.000000000000000e+00
0.000000000000000e+00 0.000000000000000e+00 0.000000000000000e+00
0.000000000000000e+00 0.000000000000000e+00 0.000000000000000e+00
0.000000000000000e+00 0.000000000000000e+00 0.000000000000000e+00
0.000000000000000e+00 0.000000000000000e+00 0.000000000000000e+00
0.000000000000000e+00 0.000000000000000e+00 0.000000000000000e+00
0.000000000000000e+00 0.000000000000000e+00 0.000000000000000e+00
0.000000000000000e+00 0.000000000000000e+00 0.000000000000000e+00
0.000000000000000e+00 0.000000000000000e+00 0.000000000000000e+00
0.000000000000000e+00 0.000000000000000e+00 0.000000000000000e+00
0.000000000000000e+00 0.000000000000000e+00 0.000000000000000e+00
0.000000000000000e+00 0.000000000000000e+00 0.000000000000000e+00
0.000000000000000e+00 0.000000000000000e+00 0.000000000000000e+00
0.000000000000000e+00 0.000000000000000e+00 0.000000000000000e+00
0.000000000000000e+00 0.000000000000000e+00 0.000000000000000e+00
0.000000000000000e+00 0.000000000000000e+00 0.000000000000000e+00
0.000000000000000e+00 0.000000000000000e+00 0.000000000000000e+00
0.000000000000000e+00 0.000000000000000e+00 0.000000000000000e+00
0.000000000000000e+00 0.000000000000000e+00 0.000000000000000e+00
0.000000000000000e+00 0.000000000000000e+00 0.000000000000000e+00
0.000000000000000e+00 0.000000000000000e+00 0.000000000000000e+00
0.000000000000000e+00 0.000000000000000e+00 0.000000000000000e+00
0.000000000000000e+00 0.000000000000000e+00 0.000000000000000e+00
0.000000000000000e+00 0.000000000000000e+00 0.000000000000000e+00
0.000000000000000e+00 0.000000000000000e+00 0.000000000000000e+00
0.000000000000000e+00 0.000000000000000e+00 0.000000000000000e+00
0.000000000000000e+00 0.000000000000000e+00 0.000000000000000e+00
0.000000000000000e+00 0.000000000000000e+00 0.000000000000000e+00
0.000000000000000e+00 0.000000000000000e+00 0.000000000000000e+00
0.000000000000000e+00 0.000000000000000e+00 0.000000000000000e+00
0.000000000000000e+00 0.000000000000000e+00 0.000000000000000e+00
0.000000000000000e+00 0.000000000000000e+00 0.000000000000000e+00
0.000000000000000e+00 0.000000000000000e+00 0.000000000000000e+00
0.000000000000000e+00 0.000000000000000e+00 0.000000000000000e+00
0.000000000000000e+00 0.000000000000000e+00 0.000000000000000e+00
0.000000000000000e+00 0.000000000000000e+00 0.000000000000000e+00
0.000000000000000e+00 0.000000000000000e+00 0.000000000000000e+00
0.000000000000000e+00 0.000000000000000e+00 0.000000000000000e+00
0.000000000000000e+00 0.000000000000000e+00 0.000000000000000e+00
0.000000000000000e+00 0.000000000000000e+00 0.000000000000000e+00
0.000000000000000e+00 0.000000000000000e+00 0.000000000000000e+00
0.000000000000000e+00 0.000000000000000e+00 0.000000000000000e+00
0.000000000000000e+00 0.000000000000000e+00 0.000000000000000e+00
0.000000000000000e+00 0.000000000000000e+00 0.000000000000000e+00
0.000000000000000e+00 0.000000000000000e+00 0.000000000000000e+00
0.000000000000000e+00 0.000000000000000e+00 0.000000000000000e+00
0.000000000000000e+00 0.000000000000000e+00 0.000000000000000e+00
0.000000000000000e+00 0.000000000000000e+00 0.000000000000000e+00
0.000000000000000e+00 0.000000000000000e+00 0.000000000000000e+00
0.000000000000000e+00 0.000000000000000e+00 0.000000000000000e+00
0.000000000000000e+00 0.000000000000000e+00 0.000000000000000e+00
0.000000000000000e+00 0.000000000000000e+00 0.000000000000000e+00
0.000000000000000e+00 0.000000000000000e+00 0.000000000000000e+00
0.000000000000000e+00 0.000000000000000e+00 0.000000000000000e+00
0.000000000000000e+00 0.000000000000000e+00 0.000000000000000e+00
0.000000000000000e+00 0.000000000000000e+00 0.000000000000000e+00
0.000000000000000e+00 0.000000000000000e+00 0.000000000000000e+00
0.000000000000000e+00 0.000000000000000e+00 0.000000000000000e+00
0.000000000000000e+00 0.000000000000000e+00 0.000000000000000e+00
0.000000000000000e+00 0.000000000000000e+00 0.000000000000000e+00
0.000000000000000e+00 0.000000000000000e+00 0.000000000000000e+00
0.000000000000000e+00 0.000000000000000e+00 0.000000000000000e+00
0.000000000000000e+00 0.000000000000000e+00 0.000000000000000e+00
0.000000000000000e+00 0.000000000000000e+00 0.000000000000000e+00
0.000000000000000e+00 0.000000000000000e+00 0.000000000000000e+00
0.000000000000000e+00 0.000000000000000e+00 0.000000000000000e+00
0.000000000000000e+00 0.000000000000000e+00 0.000000000000000e+00
0.000000000000000e+00 0.000000000000000e+00 0.000000000000000e+00
0.000000000000000e+00 0.000000000000000e+00 0.000000000000000e+00
0.000000000000000e+00 0.000000000000000e+00 0.000000000000000e+00
0.000000000000000e+00 0.000000000000000e+00 0.000000000000000e+00
0.000000000000000e+00 0.000000000000000e+00 0.000000000000000e+00
0.000000000000000e+00 0.000000000000000e+00 0.000000000000000e+00
0.000000000000000e+00 0.000000000000000e+00 0.000000000000000e+00
0.000000000000000e+00 0.000000000000000e+00 0.000000000000000e+00
0.000000000000000e+00 0.000000000000000e+00 0.000000000000000e+00
0.000000000000000e+00 0.000000000000000e+00 0.000000000000000e+00
0.000000000000000e+00 0.000000000000000e+00 0.000000000000000e+00
0.000000000000000e+00 0.000000000000000e+00 0.000000000000000e+00
0.000000000000000e+00 0.000000000000000e+00 0.000000000000000e+00
0.000000000000000e+00 0.000000000000000e+00 0.000000000000000e+00
0.000000000000000e+00 0.000000000000000e+00 0.000000000000000e+00
0.000000000000000e+00 0.000000000000000e+00 0.000000000000000e+00
0.000000000000000e+00 0.000000000000000e+00 0.000000000000000e+00
0.000000000000000e+00 0.000000000000000e+00 0.000000000000000e+00
0.000000000000000e+00 0.000000000000000e+00 0.000000000000000e+00
0.000000000000000e+00 0.000000000000000e+00 0.000000000000000e+00
0.000000000000000e+00 0.000000000000000e+00 0.000000000000000e+00
0.000000000000000e+00 0.000000000000000e+00 0.000000000000000e+00
0.000000000000000e+00 0.000000000000000e+00 0.000000000000000e+00
0.000000000000000e+00 0.000000000000000e+00 0.000000000000000e+00
0.000000000000000e+00 0.000000000000000e+00 0.000000000000000e+00
0.000000000000000e+00 0.000000000000000e+00 0.000000000000000e+00
0.000000000000000e+00 0.000000000000000e+00 0.000000000000000e+00
0.000000000000000e+00 0.000000000000000e+00 0.000000000000000e+00
0.000000000000000e+00 0.000000000000000e+00 0.000000000000000e+00
0.000000000000000e+00 0.000000000000000e+00 0.000000000000000e+00
0.000000000000000e+00 0.000000000000000e+00 0.000000000000000e+00
0.000000000000000e+00 0.000000000000000e+00 0.000000000000000e+00
0.000000000000000e+00 0.000000000000000e+00 0.000000000000000e+00
0.000000000000000e+00 0.000000000000000e+00 0.000000000000000e+00
0.000000000000000e+00 0.000000000000000e+00 0.000000000000000e+00
0.000000000000000e+00 0.000000000000000e+00 0.000000000000000e+00
0.000000000000000e+00 0.000000000000000e+00 0.000000000000000e+00
0.000000000000000e+00 0.000000000000000e+00 0.000000000000000e+00
0.000000000000000e+00 0.000000000000000e+00 0.000000000000000e+00
0.000000000000000e+00 0.000000000000000e+00 0.000000000000000e+00
0.000000000000000e+00 0.000000000000000e+00 0.000000000000000e+00
0.000000000000000e+00 0.000000000000000e+00 0.000000000000000e+00
0.000000000000000e+00 0.000000000000000e+00 0.000000000000000e+00
0.000000000000000e+00 0.000000000000000e+00 0.000000000000000e+00
0.000000000000000e+00 0.000000000000000e+00 0.000000000000000e+00
0.000000000000000e+00 0.000000000000000e+00 0.000000000000000e+00
0.000000000000000e+00 0.000000000000000e+00 0.000000000000000e+00
0.000000000000000e+00 0.000000000000000e+00 0.000000000000000e+00
0.000000000000000e+00 0.000000000000000e+00 0.000000000000000e+00
0.000000000000000e+00 0.000000000000000e+00 0.000000000000000e+00
0.000000000000000e+00 0.000000000000000e+00 0.000000000000000e+00
0.000000000000000e+00 0.000000000000000e+00 0.000000000000000e+00
0.000000000000000e+00 0.000000000000000e+00 0.000000000000000e+00
0.000000000000000e+00 0.000000000000000e+00 0.000000000000000e+00
0.000000000000000e+00 0.000000000000000e+00 0.000000000000000e+00
0.000000000000000e+00 0.000000000000000e+00 0.000000000000000e+00
0.000000000000000e+00 0.000000000000000e+00 0.000000000000000e+00
0.000000000000000e+00 0.000000000000000e+00 0.000000000000000e+00
0.000000000000000e+00 0.000000000000000e+00 0.000000000000000e+00
0.000000000000000e+00 0.000000000000000e+00 0.000000000000000e+00
0.000000000000000e+00 0.000000000000000e+00 0.000000000000000e+00
0.000000000000000e+00 0.000000000000000e+00 0.000000000000000e+00
0.000000000000000e+00 0.000000000000000e+00 0.000000000000000e+00
0.000000000000000e+00 0.000000000000000e+00 0.000000000000000e+00
0.000000000000000e+00 0.000000000000000e+00 0.000000000000000e+00
0.000000000000000e+00 0.000000000000000e+00 0.000000000000000e+00
0.000000000000000e+00 0.000000000000000e+00 0.000000000000000e+00
0.000000000000000e+00 0.000000000000000e+00 0.000000000000000e+00
0.000000000000000e+00 0.000000000000000e+00 0.000000000000000e+00
0.000000000000000e+00 0.000000000000000e+00 0.000000000000000e+00
0.000000000000000e+00 0.000000000000000e+00 0.000000000000000e+00
0.000000000000000e+00 0.000000000000000e+00 0.000000000000000e+00
0.000000000000000e+00 0.000000000000000e+00 0.000000000000000e+00
0.000000000000000e+00 0.000000000000000e+00 0.000000000000000e+00
0.000000000000000e+00 0.000000000000000e+00 0.000000000000000e+00
0.000000000000000e+00 0.000000000000000e+00 0.000000000000000e+00
0.000000000000000e+00 0.000000000000000e+00 0.000000000000000e+00
0.000000000000000e+00 0.000000000000000e+00 0.000000000000000e+00
0.000000000000000e+00 0.000000000000000e+00 0.000000000000000e+00
0.000000000000000e+00 0.000000000000000e+00 0.000000000000000e+00
0.000000000000000e+00 0.000000000000000e+00 0.000000000000000e+00
0.000000000000000e+00 0.000000000000000e+00 0.000000000000000e+00
0.000000000000000e+00 0.000000000000000e+00 0.000000000000000e+00
0.000000000000000e+00 0.000000000000000e+00 0.000000000000000e+00
0.000000000000000e+00 0.000000000000000e+00 0.000000000000000e+00
0.000000000000000e+00 0.000000000000000e+00 0.000000000000000e+00
0.000000000000000e+00 0.000000000000000e+00 0.000000000000000e+00
0.000000000000000e+00 0.000000000000000e+00 0.000000000000000e+00
0.000000000000000e+00 0.000000000000000e+00 0.000000000000000e+00
0.000000000000000e+00 0.000000000000000e+00 0.000000000000000e+00
0.000000000000000e+00 0.000000000000000e+00 0.000000000000000e+00
0.000000000000000e+00 0.000000000000000e+00 0.000000000000000e+00
0.000000000000000e+00 0.000000000000000e+00 0.000000000000000e+00
0.000000000000000e+00 0.000000000000000e+00 0.000000000000000e+00
0.000000000000000e+00 0.000000000000000e+00 0.000000000000000e+00
0.000000000000000e+00 0.000000000000000e+00 0.000000000000000e+00
0.000000000000000e+00 0.000000000000000e+00 0.000000000000000e+00
0.000000000000000e+00 0.000000000000000e+00 0.000000000000000e+00
0.000000000000000e+00 0.000000000000000e+00 0.000000000000000e+00
0.000000000000000e+00 0.000000000000000e+00 0.000000000000000e+00
0.000000000000000e+00 0.000000000000000e+00 0.000000000000000e+00
0.000000000000000e+00 0.000000000000000e+00 0.000000000000000e+00
0.000000000000000e+00 0.000000000000000e+00 0.000000000000000e+00
0.000000000000000e+00 0.000000000000000e+00 0.000000000000000e+00
0.000000000000000e+00 0.000000000000000e+00 0.000000000000000e+00
0.000000000000000e+00 0.000000000000000e+00 0.000000000000000e+00
0.000000000000000e+00 0.000000000000000e+00 0.000000000000000e+00
0.000000000000000e+00 0.000000000000000e+00 0.000000000000000e+00
0.000000000000000e+00 0.000000000000000e+00 0.000000000000000e+00
0.000000000000000e+00 0.000000000000000e+00 0.000000000000000e+00
0.000000000000000e+00 0.000000000000000e+00 0.000000000000000e+00
0.000000000000000e+00 0.000000000000000e+00 0.000000000000000e+00
0.000000000000000e+00 0.000000000000000e+00 0.000000000000000e+00
0.000000000000000e+00 0.000000000000000e+00 0.000000000000000e+00
0.000000000000000e+00 0.000000000000000e+00 0.000000000000000e+00
0.000000000000000e+00 0.000000000000000e+00 0.000000000000000e+00
0.000000000000000e+00 0.000000000000000e+00 0.000000000000000e+00
0.000000000000000e+00 0.000000000000000e+00 0.000000000000000e+00
0.000000000000000e+00 0.000000000000000e+00 0.000000000000000e+00
0.000000000000000e+00 0.000000000000000e+00 0.000000000000000e+00
0.000000000000000e+00 0.000000000000000e+00 0.000000000000000e+00
0.000000000000000e+00 0.000000000000000e+00 0.000000000000000e+00
0.000000000000000e+00 0.000000000000000e+00 0.000000000000000e+00
0.000000000000000e+00 0.000000000000000e+00 0.000000000000000e+00
0.000000000000000e+00 0.000000000000000e+00 0.000000000000000e+00
0.000000000000000e+00 0.000000000000000e+00 0.000000000000000e+00
0.000000000000000e+00 0.000000000000000e+00 0.000000000000000e+00
0.000000000000000e+00 0.000000000000000e+00 0.000000000000000e+00
0.000000000000000e+00 0.000000000000000e+00 0.000000000000000e+00
0.000000000000000e+00 0.000000000000000e+00 0.000000000000000e+00
0.000000000000000e+00 0.000000000000000e+00 0.000000000000000e+00
0.000000000000000e+00 0.000000000000000e+00 0.000000000000000e+00
0.000000000000000e+00 0.000000000000000e+00 0.000000000000000e+00
0.000000000000000e+00 0.000000000000000e+00 0.000000000000000e+00
0.000000000000000e+00 0.000000000000000e+00 0.000000000000000e+00
0.000000000000000e+00 0.000000000000000e+00 0.000000000000000e+00
0.000000000000000e+00 0.000000000000000e+00 0.000000000000000e+00
0.000000000000000e+00 0.000000000000000e+00 0.000000000000000e+00
0.000000000000000e+00 0.000000000000000e+00 0.000000000000000e+00
0.000000000000000e+00 0.000000000000000e+00 0.000000000000000e+00
0.000000000000000e+00 0.000000000000000e+00 0.000000000000000e+00
0.000000000000000e+00 0.000000000000000e+00 0.000000000000000e+00
0.000000000000000e+00 0.000000000000000e+00 0.000000000000000e+00
0.000000000000000e+00 0.000000000000000e+00 0.000000000000000e+00
0.000000000000000e+00 0.000000000000000e+00 0.000000000000000e+00
0.000000000000000e+00 0.000000000000000e+00 0.000000000000000e+00
0.000000000000000e+00 0.000000000000000e+00 0.000000000000000e+00
0.000000000000000e+00 0.000000000000000e+00 0.000000000000000e+00
0.000000000000000e+00 0.000000000000000e+00 0.000000000000000e+00
0.000000000000000e+00 0.000000000000000e+00 0.000000000000000e+00
0.000000000000000e+00 0.000000000000000e+00 0.000000000000000e+00
0.000000000000000e+00 0.000000000000000e+00 0.000000000000000e+00
0.000000000000000e+00 0.000000000000000e+00 0.000000000000000e+00
0.000000000000000e+00 0.000000000000000e+00 0.000000000000000e+00
0.000000000000000e+00 0.000000000000000e+00 0.000000000000000e+00
0.000000000000000e+00 0.000000000000000e+00 0.000000000000000e+00
0.000000000000000e+00 0.000000000000000e+00 0.000000000000000e+00
0.000000000000000e+00 0.000000000000000e+00 0.000000000000000e+00
0.000000000000000e+00 0.000000000000000e+00 0.000000000000000e+00
0.000000000000000e+00 0.000000000000000e+00 0.000000000000000e+00
0.000000000000000e+00 0.000000000000000e+00 0.000000000000000e+00
0.000000000000000e+00 0.000000000000000e+00 0.000000000000000e+00
0.000000000000000e+00 0.000000000000000e+00 0.000000000000000e+00
0.000000000000000e+00 0.000000000000000e+00 0.000000000000000e+00
0.000000000000000e+00 0.000000000000000e+00 0.000000000000000e+00
0.000000000000000e+00 0.000000000000000e+00 0.000000000000000e+00
0.000000000000000e+00 0.000000000000000e+00 0.000000000000000e+00
0.000000000000000e+00 0.000000000000000e+00 0.000000000000000e+00
0.000000000000000e+00 0.000000000000000e+00 0.000000000000000e+00
0.000000000000000e+00 0.000000000000000e+00 0.000000000000000e+00
0.000000000000000e+00 0.000000000000000e+00 0.000000000000000e+00
0.000000000000000e+00 0.000000000000000e+00 0.000000000000000e+00
0.000000000000000e+00 0.000000000000000e+00 0.000000000000000e+00
0.000000000000000e+00 0.000000000000000e+00 0.000000000000000e+00
0.000000000000000e+00 0.000000000000000e+00 0.000000000000000e+00
0.000000000000000e+00 0.000000000000000e+00 0.000000000000000e+00
0.000000000000000e+00 0.000000000000000e+00 0.000000000000000e+00
0.000000000000000e+00 0.000000000000000e+00 0.000000000000000e+00
0.000000000000000e+00 0.000000000000000e+00 0.000000000000000e+00
0.000000000000000e+00 0.000000000000000e+00 0.000000000000000e+00
0.000000000000000e+00 0.000000000000000e+00 0.000000000000000e+00
0.000000000000000e+00 0.000000000000000e+00 0.000000000000000e+00
0.000000000000000e+00 0.000000000000000e+00 0.000000000000000e+00
0.000000000000000e+00 0.000000000000000e+00 0.000000000000000e+00
0.000000000000000e+00 0.000000000000000e+00 0.000000000000000e+00
0.000000000000000e+00 0.000000000000000e+00 0.000000000000000e+00
0.000000000000000e+00 0.000000000000000e+00 0.000000000000000e+00
0.000000000000000e+00 0.000000000000000e+00 0.000000000000000e+00
0.000000000000000e+00 0.000000000000000e+00 0.000000000000000e+00
0.000000000000000e+00 0.000000000000000e+00 0.000000000000000e+00
0.000000000000000e+00 0.000000000000000e+00 0.000000000000000e+00
0.000000000000000e+00 0.000000000000000e+00 0.000000000000000e+00
0.000000000000000e+00 0.000000000000000e+00 0.000000000000000e+00
0.000000000000000e+00 0.000000000000000e+00 0.000000000000000e+00
0.000000000000000e+00 0.000000000000000e+00 0.000000000000000e+00
0.000000000000000e+00 0.000000000000000e+00 0.000000000000000e+00
0.000000000000000e+00 0.000000000000000e+00 0.000000000000000e+00
0.000000000000000e+00 0.000000000000000e+00 0.000000000000000e+00
0.000000000000000e+00 0.000000000000000e+00 0.000000000000000e+00
0.000000000000000e+00 0.000000000000000e+00 0.000000000000000e+00
0.000000000000000e+00 0.000000000000000e+00 0.000000000000000e+00
0.000000000000000e+00 0.000000000000000e+00 0.000000000000000e+00
0.000000000000000e+00 0.000000000000000e+00 0.000000000000000e+00
0.000000000000000e+00 0.000000000000000e+00 0.000000000000000e+00
0.000000000000000e+00 0.000000000000000e+00 0.000000000000000e+00
0.000000000000000e+00 0.000000000000000e+00 0.000000000000000e+00
0.000000000000000e+00 0.000000000000000e+00 0.000000000000000e+00
0.000000000000000e+00 0.000000000000000e+00 0.000000000000000e+00
0.000000000000000e+00 0.000000000000000e+00 0.000000000000000e+00
0.000000000000000e+00 0.000000000000000e+00 0.000000000000000e+00
0.000000000000000e+00 0.000000000000000e+00 0.000000000000000e+00
0.000000000000000e+00 0.000000000000000e+00 0.000000000000000e+00
0.000000000000000e+00 0.000000000000000e+00 0.000000000000000e+00
0.000000000000000e+00 0.000000000000000e+00 0.000000000000000e+00
0.000000000000000e+00 0.000000000000000e+00 0.000000000000000e+00
0.000000000000000e+00 0.000000000000000e+00 0.000000000000000e+00
0.000000000000000e+00 0.000000000000000e+00 0.000000000000000e+00
0.000000000000000e+00 0.000000000000000e+00 0.000000000000000e+00
0.000000000000000e+00 0.000000000000000e+00 0.000000000000000e+00
0.000000000000000e+00 0.000000000000000e+00 0.000000000000000e+00
0.000000000000000e+00 0.000000000000000e+00 0.000000000000000e+00
0.000000000000000e+00 0.000000000000000e+00 0.000000000000000e+00
0.000000000000000e+00 0.000000000000000e+00 0.000000000000000e+00
0.000000000000000e+00 0.000000000000000e+00 0.000000000000000e+00
0.000000000000000e+00 0.000000000000000e+00 0.000000000000000e+00
0.000000000000000e+00 0.000000000000000e+00 0.000000000000000e+00
0.000000000000000e+00 0.000000000000000e+00 0.000000000000000e+00
0.000000000000000e+00 0.000000000000000e+00 0.000000000000000e+00
0.000000000000000e+00 0.000000000000000e+00 0.000000000000000e+00
0.000000000000000e+00 0.000000000000000e+00 0.000000000000000e+00
0.000000000000000e+00 0.000000000000000e+00 0.000000000000000e+00
0.000000000000000e+00 0.000000000000000e+00 0.000000000000000e+00
0.000000000000000e+00 0.000000000000000e+00 0.000000000000000e+00
0.000000000000000e+00 0.000000000000000e+00 0.000000000000000e+00
0.000000000000000e+00 0.000000000000000e+00 0.000000000000000e+00
0.000000000000000e+00 0.000000000000000e+00 0.000000000000000e+00
0.000000000000000e+00 0.000000000000000e+00 0.000000000000000e+00
0.000000000000000e+00 0.000000000000000e+00 0.000000000000000e+00
0.000000000000000e+00 0.000000000000000e+00 0.000000000000000e+00
0.000000000000000e+00 0.000000000000000e+00 0.000000000000000e+00
0.000000000000000e+00 0.000000000000000e+00 0.000000000000000e+00
0.000000000000000e+00 0.000000000000000e+00 0.000000000000000e+00
0.000000000000000e+00 0.000000000000000e+00 0.000000000000000e+00
0.000000000000000e+00 0.000000000000000e+00 0.000000000000000e+00
0.000000000000000e+00 0.000000000000000e+00 0.000000000000000e+00
0.000000000000000e+00 0.000000000000000e+00 0.000000000000000e+00
0.000000000000000e+00 0.000000000000000e+00 0.000000000000000e+00
0.000000000000000e+00 0.000000000000000e+00 0.000000000000000e+00
0.000000000000000e+00 0.000000000000000e+00 0.000000000000000e+00
0.000000000000000e+00 0.000000000000000e+00 0.000000000000000e+00
0.000000000000000e+00 0.000000000000000e+00 0.000000000000000e+00
0.000000000000000e+00 0.000000000000000e+00 0.000000000000000e+00
0.000000000000000e+00 0.000000000000000e+00 0.000000000000000e+00
0.000000000000000e+00 0.000000000000000e+00 0.000000000000000e+00
0.000000000000000e+00 0.000000000000000e+00 0.000000000000000e+00
0.000000000000000e+00 0.000000000000000e+00 0.000000000000000e+00
0.000000000000000e+00 0.000000000000000e+00 0.000000000000000e+00
0.000000000000000e+00 0.000000000000000e+00 0.000000000000000e+00
0.000000000000000e+00 0.000000000000000e+00 0.000000000000000e+00
0.000000000000000e+00 0.000000000000000e+00 0.000000000000000e+00
0.000000000000000e+00 0.000000000000000e+00 0.000000000000000e+00
0.000000000000000e+00 0.000000000000000e+00 0.000000000000000e+00
0.000000000000000e+00 0.000000000000000e+00 0.000000000000000e+00
0.000000000000000e+00 0.000000000000000e+00 0.000000000000000e+00
0.000000000000000e+00 0.000000000000000e+00 0.000000000000000e+00
0.000000000000000e+00 0.000000000000000e+00 0.000000000000000e+00
0.000000000000000e+00 0.000000000000000e+00 0.000000000000000e+00
0.000000000000000e+00 0.000000000000000e+00 0.000000000000000e+00
0.000000000000000e+00 0.000000000000000e+00 0.000000000000000e+00
0.000000000000000e+00 0.000000000000000e+00 0.000000000000000e+00
0.000000000000000e+00 0.000000000000000e+00 0.000000000000000e+00
0.000000000000000e+00 0.000000000000000e+00 0.000000000000000e+00
0.000000000000000e+00 0.000000000000000e+00 0.000000000000000e+00
0.000000000000000e+00 0.000000000000000e+00 0.000000000000000e+00
0.000000000000000e+00 0.000000000000000e+00 0.000000000000000e+00
0.000000000000000e+00 0.000000000000000e+00 0.000000000000000e+00
0.000000000000000e+00 0.000000000000000e+00 0.000000000000000e+00
0.000000000000000e+00 0.000000000000000e+00 0.000000000000000e+00
0.000000000000000e+00 0.000000000000000e+00 0.000000000000000e+00
0.000000000000000e+00 0.000000000000000e+00 0.000000000000000e+00
0.000000000000000e+00 0.000000000000000e+00 0.000000000000000e+00
0.000000000000000e+00 0.000000000000000e+00 0.000000000000000e+00
0.000000000000000e+00 0.000000000000000e+00 0.000000000000000e+00
0.000000000000000e+00 0.000000000000000e+00 0.000000000000000e+00
0.000000000000000e+00 0.000000000000000e+00 0.000000000000000e+00
0.000000000000000e+00 0.000000000000000e+00 0.000000000000000e+00
0.000000000000000e+00 0.000000000000000e+00 0.000000000000000e+00
0.000000000000000e+00 0.000000000000000e+00 0.000000000000000e+00
0.000000000000000e+00 0.000000000000000e+00 0.000000000000000e+00
0.000000000000000e+00 0.000000000000000e+00 0.000000000000000e+00
0.000000000000000e+00 0.000000000000000e+00 0.000000000000000e+00
0.000000000000000e+00 0.000000000000000e+00 0.000000000000000e+00
0.000000000000000e+00 0.000000000000000e+00 0.000000000000000e+00
0.000000000000000e+00 0.000000000000000e+00 0.000000000000000e+00
0.000000000000000e+00 0.000000000000000e+00 0.000000000000000e+00
0.000000000000000e+00 0.000000000000000e+00 0.000000000000000e+00
0.000000000000000e+00 0.000000000000000e+00 0.000000000000000e+00
0.000000000000000e+00 0.000000000000000e+00 0.000000000000000e+00
0.000000000000000e+00 0.000000000000000e+00 0.000000000000000e+00
0.000000000000000e+00 0.000000000000000e+00 0.000000000000000e+00
0.000000000000000e+00 0.000000000000000e+00 0.000000000000000e+00
0.000000000000000e+00 0.000000000000000e+00 0.000000000000000e+00
0.000000000000000e+00 0.000000000000000e+00 0.000000000000000e+00
0.000000000000000e+00 0.000000000000000e+00 0.000000000000000e+00
0.000000000000000e+00 0.000000000000000e+00 0.000000000000000e+00
0.000000000000000e+00 0.000000000000000e+00 0.000000000000000e+00
0.000000000000000e+00 0.000000000000000e+00 0.000000000000000e+00
0.000000000000000e+00 0.000000000000000e+00 0.000000000000000e+00
0.000000000000000e+00 0.000000000000000e+00 0.000000000000000e+00
0.000000000000000e+00 0.000000000000000e+00 0.000000000000000e+00
0.000000000000000e+00 0.000000000000000e+00 0.000000000000000e+00
0.000000000000000e+00 0.000000000000000e+00 0.000000000000000e+00
0.000000000000000e+00 0.000000000000000e+00 0.000000000000000e+00
0.000000000000000e+00 0.000000000000000e+00 0.000000000000000e+00
0.000000000000000e+00 0.000000000000000e+00 0.000000000000000e+00
0.000000000000000e+00 0.000000000000000e+00 0.000000000000000e+00
0.000000000000000e+00 0.000000000000000e+00 0.000000000000000e+00
0.000000000000000e+00 0.000000000000000e+00 0.000000000000000e+00
0.000000000000000e+00 0.000000000000000e+00 0.000000000000000e+00
0.000000000000000e+00 0.000000000000000e+00 0.000000000000000e+00
0.000000000000000e+00 0.000000000000000e+00 0.000000000000000e+00
0.000000000000000e+00 0.000000000000000e+00 0.000000000000000e+00
0.000000000000000e+00 0.000000000000000e+00 0.000000000000000e+00
0.000000000000000e+00 0.000000000000000e+00 0.000000000000000e+00
0.000000000000000e+00 0.000000000000000e+00 0.000000000000000e+00
0.000000000000000e+00 0.000000000000000e+00 0.000000000000000e+00
0.000000000000000e+00 0.000000000000000e+00 0.000000000000000e+00
0.000000000000000e+00 0.000000000000000e+00 0.000000000000000e+00
0.000000000000000e+00 0.000000000000000e+00 0.000000000000000e+00
0.000000000000000e+00 0.000000000000000e+00 0.000000000000000e+00
0.000000000000000e+00 0.000000000000000e+00 0.000000000000000e+00
0.000000000000000e+00 0.000000000000000e+00 0.000000000000000e+00
0.000000000000000e+00 0.000000000000000e+00 0.000000000000000e+00
0.000000000000000e+00 0.000000000000000e+00 0.000000000000000e+00
0.000000000000000e+00 0.000000000000000e+00 0.000000000000000e+00
0.000000000000000e+00 0.000000000000000e+00 0.000000000000000e+00
0.000000000000000e+00 0.000000000000000e+00 0.000000000000000e+00
0.000000000000000e+00 0.000000000000000e+00 0.000000000000000e+00
0.000000000000000e+00 0.000000000000000e+00 0.000000000000000e+00
0.000000000000000e+00 0.000000000000000e+00 0.000000000000000e+00
0.000000000000000e+00 0.000000000000000e+00 0.000000000000000e+00
0.000000000000000e+00 0.000000000000000e+00 0.000000000000000e+00
0.000000000000000e+00 0.000000000000000e+00 0.000000000000000e+00
0.000000000000000e+00 0.000000000000000e+00 0.000000000000000e+00
0.000000000000000e+00 0.000000000000000e+00 0.000000000000000e+00
0.000000000000000e+00 0.000000000000000e+00 0.000000000000000e+00
0.000000000000000e+00 0.000000000000000e+00 0.000000000000000e+00
0.000000000000000e+00 0.000000000000000e+00 0.000000000000000e+00
0.000000000000000e+00 0.000000000000000e+00 0.000000000000000e+00
0.000000000000000e+00 0.000000000000000e+00 0.000000000000000e+00
0.000000000000000e+00 0.000000000000000e+00 0.000000000000000e+00
0.000000000000000e+00 0.000000000000000e+00 0.000000000000000e+00
0.000000000000000e+00 0.000000000000000e+00 0.000000000000000e+00
0.000000000000000e+00 0.000000000000000e+00 0.000000000000000e+00
0.000000000000000e+00 0.000000000000000e+00 0.000000000000000e+00
0.000000000000000e+00 0.000000000000000e+00 0.000000000000000e+00
0.000000000000000e+00 0.000000000000000e+00 0.000000000000000e+00
0.000000000000000e+00 0.000000000000000e+00 0.000000000000000e+00
0.000000000000000e+00 0.000000000000000e+00 0.000000000000000e+00
0.000000000000000e+00 0.000000000000000e+00 0.000000000000000e+00
0.000000000000000e+00 0.000000000000000e+00 0.000000000000000e+00
0.000000000000000e+00 0.000000000000000e+00 0.000000000000000e+00
0.000000000000000e+00 0.000000000000000e+00 0.000000000000000e+00
0.000000000000000e+00 0.000000000000000e+00 0.000000000000000e+00
0.000000000000000e+00 0.000000000000000e+00 0.000000000000000e+00
0.000000000000000e+00 0.000000000000000e+00 0.000000000000000e+00
0.000000000000000e+00 0.000000000000000e+00 0.000000000000000e+00
0.000000000000000e+00 0.000000000000000e+00 0.000000000000000e+00
0.000000000000000e+00 0.000000000000000e+00 0.000000000000000e+00
0.000000000000000e+00 0.000000000000000e+00 0.000000000000000e+00
0.000000000000000e+00 0.000000000000000e+00 0.000000000000000e+00
0.000000000000000e+00 0.000000000000000e+00 0.000000000000000e+00
0.000000000000000e+00 0.000000000000000e+00 0.000000000000000e+00
0.000000000000000e+00 0.000000000000000e+00 0.000000000000000e+00
0.000000000000000e+00 0.000000000000000e+00 0.000000000000000e+00
0.000000000000000e+00 0.000000000000000e+00 0.000000000000000e+00
0.000000000000000e+00 0.000000000000000e+00 0.000000000000000e+00
0.000000000000000e+00 0.000000000000000e+00 0.000000000000000e+00
0.000000000000000e+00 0.000000000000000e+00 0.000000000000000e+00
0.000000000000000e+00 0.000000000000000e+00 0.000000000000000e+00
0.000000000000000e+00 0.000000000000000e+00 0.000000000000000e+00
0.000000000000000e+00 0.000000000000000e+00 0.000000000000000e+00
0.000000000000000e+00 0.000000000000000e+00 0.000000000000000e+00
0.000000000000000e+00 0.000000000000000e+00 0.000000000000000e+00
0.000000000000000e+00 0.000000000000000e+00 0.000000000000000e+00
0.000000000000000e+00 0.000000000000000e+00 0.000000000000000e+00
0.000000000000000e+00 0.000000000000000e+00 0.000000000000000e+00
0.000000000000000e+00 0.000000000000000e+00 0.000000000000000e+00
0.000000000000000e+00 0.000000000000000e+00 0.000000000000000e+00
0.000000000000000e+00 0.000000000000000e+00 0.000000000000000e+00
0.000000000000000e+00 0.000000000000000e+00 0.000000000000000e+00
0.000000000000000e+00 0.000000000000000e+00 0.000000000000000e+00
0.000000000000000e+00 0.000000000000000e+00 0.000000000000000e+00
0.000000000000000e+00 0.000000000000000e+00 0.000000000000000e+00
0.000000000000000e+00 0.000000000000000e+00 0.000000000000000e+00
0.000000000000000e+00 0.000000000000000e+00 0.000000000000000e+00
0.000000000000000e+00 0.000000000000000e+00 0.000000000000000e+00
0.000000000000000e+00 0.000000000000000e+00 0.000000000000000e+00
0.000000000000000e+00 0.000000000000000e+00 0.000000000000000e+00
0.000000000000000e+00 0.000000000000000e+00 0.000000000000000e+00
0.000000000000000e+00 0.000000000000000e+00 0.000000000000000e+00
0.000000000000000e+00 0.000000000000000e+00 0.000000000000000e+00
0.000000000000000e+00 0.000000000000000e+00 0.000000000000000e+00
0.000000000000000e+00 0.000000000000000e+00 0.000000000000000e+00
0.000000000000000e+00 0.000000000000000e+00 0.000000000000000e+00
0.000000000000000e+00 0.000000000000000e+00 0.000000000000000e+00
0.000000000000000e+00 0.000000000000000e+00 0.000000000000000e+00
0.000000000000000e+00 0.000000000000000e+00 0.000000000000000e+00
0.000000000000000e+00 0.000000000000000e+00 0.000000000000000e+00
0.000000000000000e+00 0.000000000000000e+00 0.000000000000000e+00
0.000000000000000e+00 0.000000000000000e+00 0.000000000000000e+00
0.000000000000000e+00 0.000000000000000e+00 0.000000000000000e+00
0.000000000000000e+00 0.000000000000000e+00 0.000000000000000e+00
0.000000000000000e+00 0.000000000000000e+00 0.000000000000000e+00
0.000000000000000e+00 0.000000000000000e+00 0.000000000000000e+00
0.000000000000000e+00 0.000000000000000e+00 0.000000000000000e+00
0.000000000000000e+00 0.000000000000000e+00 0.000000000000000e+00
0.000000000000000e+00 0.000000000000000e+00 0.000000000000000e+00
0.000000000000000e+00 0.000000000000000e+00 0.000000000000000e+00
0.000000000000000e+00 0.000000000000000e+00 0.000000000000000e+00
0.000000000000000e+00 0.000000000000000e+00 0.000000000000000e+00
0.000000000000000e+00 0.000000000000000e+00 0.000000000000000e+00
0.000000000000000e+00 0.000000000000000e+00 0.000000000000000e+00
0.000000000000000e+00 0.000000000000000e+00 0.000000000000000e+00
0.000000000000000e+00 0.000000000000000e+00 0.000000000000000e+00
0.000000000000000e+00 0.000000000000000e+00 0.000000000000000e+00
0.000000000000000e+00 0.000000000000000e+00 0.000000000000000e+00
0.000000000000000e+00 0.000000000000000e+00 0.000000000000000e+00
0.000000000000000e+00 0.000000000000000e+00 0.000000000000000e+00
0.000000000000000e+00 0.000000000000000e+00 0.000000000000000e+00
0.000000000000000e+00 0.000000000000000e+00 0.000000000000000e+00
0.000000000000000e+00 0.000000000000000e+00 0.000000000000000e+00
0.000000000000000e+00 0.000000000000000e+00 0.000000000000000e+00
0.000000000000000e+00 0.000000000000000e+00 0.000000000000000e+00
0.000000000000000e+00 0.000000000000000e+00 0.000000000000000e+00
0.000000000000000e+00 0.000000000000000e+00 0.000000000000000e+00
0.000000000000000e+00 0.000000000000000e+00 0.000000000000000e+00
0.000000000000000e+00 0.000000000000000e+00 0.000000000000000e+00
0.000000000000000e+00 0.000000000000000e+00 0.000000000000000e+00
0.000000000000000e+00 0.000000000000000e+00 0.000000000000000e+00
0.000000000000000e+00 0.000000000000000e+00 0.000000000000000e+00
0.000000000000000e+00 0.000000000000000e+00 0.000000000000000e+00
0.000000000000000e+00 0.000000000000000e+00 0.000000000000000e+00
0.000000000000000e+00 0.000000000000000e+00 0.000000000000000e+00
0.000000000000000e+00 0.000000000000000e+00 0.000000000000000e+00
0.000000000000000e+00 0.000000000000000e+00 0.000000000000000e+00
0.000000000000000e+00 0.000000000000000e+00 0.000000000000000e+00
0.000000000000000e+00 0.000000000000000e+00 0.000000000000000e+00
0.000000000000000e+00 0.000000000000000e+00 0.000000000000000e+00
0.000000000000000e+00 0.000000000000000e+00 0.000000000000000e+00
0.000000000000000e+00 0.000000000000000e+00 0.000000000000000e+00
0.000000000000000e+00 0.000000000000000e+00 0.000000000000000e+00
0.000000000000000e+00 0.000000000000000e+00 0.000000000000000e+00
0.000000000000000e+00 0.000000000000000e+00 0.000000000000000e+00
0.000000000000000e+00 0.000000000000000e+00 0.000000000000000e+00
0.000000000000000e+00 0.000000000000000e+00 0.000000000000000e+00
0.000000000000000e+00 0.000000000000000e+00 0.000000000000000e+00
0.000000000000000e+00 0.000000000000000e+00 0.000000000000000e+00
0.000000000000000e+00 0.000000000000000e+00 0.000000000000000e+00
0.000000000000000e+00 0.000000000000000e+00 0.000000000000000e+00
0.000000000000000e+00 0.000000000000000e+00 0.000000000000000e+00
0.000000000000000e+00 0.000000000000000e+00 0.000000000000000e+00
0.000000000000000e+00 0.000000000000000e+00 0.000000000000000e+00
0.000000000000000e+00 0.000000000000000e+00 0.000000000000000e+00
0.000000000000000e+00 0.000000000000000e+00 0.000000000000000e+00
0.000000000000000e+00 0.000000000000000e+00 0.000000000000000e+00
0.000000000000000e+00 0.000000000000000e+00 0.000000000000000e+00
0.000000000000000e+00 0.000000000000000e+00 0.000000000000000e+00
0.000000000000000e+00 0.000000000000000e+00 0.000000000000000e+00
0.000000000000000e+00 0.000000000000000e+00 0.000000000000000e+00
0.000000000000000e+00 0.000000000000000e+00 0.000000000000000e+00
0.000000000000000e+00 0.000000000000000e+00 0.000000000000000e+00
0.000000000000000e+00 0.000000000000000e+00 0.000000000000000e+00
0.000000000000000e+00 0.000000000000000e+00 0.000000000000000e+00
0.000000000000000e+00 0.000000000000000e+00 0.000000000000000e+00
0.000000000000000e+00 0.000000000000000e+00 0.000000000000000e+00
0.000000000000000e+00 0.000000000000000e+00 0.000000000000000e+00
0.000000000000000e+00 0.000000000000000e+00 0.000000000000000e+00
0.000000000000000e+00 0.000000000000000e+00 0.000000000000000e+00
0.000000000000000e+00 0.000000000000000e+00 0.000000000000000e+00
0.000000000000000e+00 0.000000000000000e+00 0.000000000000000e+00
0.000000000000000e+00 0.000000000000000e+00 0.000000000000000e+00
0.000000000000000e+00 0.000000000000000e+00 0.000000000000000e+00
0.000000000000000e+00 0.000000000000000e+00 0.000000000000000e+00
0.000000000000000e+00 0.000000000000000e+00 0.000000000000000e+00
0.000000000000000e+00 0.000000000000000e+00 0.000000000000000e+00
0.000000000000000e+00 0.000000000000000e+00 0.000000000000000e+00
0.000000000000000e+00 0.000000000000000e+00 0.000000000000000e+00
0.000000000000000e+00 0.000000000000000e+00 0.000000000000000e+00
0.000000000000000e+00 0.000000000000000e+00 0.000000000000000e+00
0.000000000000000e+00 0.000000000000000e+00 0.000000000000000e+00
0.000000000000000e+00 0.000000000000000e+00 0.000000000000000e+00
0.000000000000000e+00 0.000000000000000e+00 0.000000000000000e+00
0.000000000000000e+00 0.000000000000000e+00 0.000000000000000e+00
0.000000000000000e+00 0.000000000000000e+00 0.000000000000000e+00
0.000000000000000e+00 0.000000000000000e+00 0.000000000000000e+00
0.000000000000000e+00 0.000000000000000e+00 0.000000000000000e+00
0.000000000000000e+00 0.000000000000000e+00 0.000000000000000e+00
0.000000000000000e+00 0.000000000000000e+00 0.000000000000000e+00
0.000000000000000e+00 0.000000000000000e+00 0.000000000000000e+00
0.000000000000000e+00 0.000000000000000e+00 0.000000000000000e+00
0.000000000000000e+00 0.000000000000000e+00 0.000000000000000e+00
0.000000000000000e+00 0.000000000000000e+00 0.000000000000000e+00
0.000000000000000e+00 0.000000000000000e+00 0.000000000000000e+00
0.000000000000000e+00 0.000000000000000e+00 0.000000000000000e+00
0.000000000000000e+00 0.000000000000000e+00 0.000000000000000e+00
0.000000000000000e+00 0.000000000000000e+00 0.000000000000000e+00
0.000000000000000e+00 0.000000000000000e+00 0.000000000000000e+00
0.000000000000000e+00 0.000000000000000e+00 0.000000000000000e+00
0.000000000000000e+00 0.000000000000000e+00 0.000000000000000e+00
0.000000000000000e+00 0.000000000000000e+00 0.000000000000000e+00
0.000000000000000e+00 0.000000000000000e+00 0.000000000000000e+00
0.000000000000000e+00 0.000000000000000e+00 0.000000000000000e+00
0.000000000000000e+00 0.000000000000000e+00 0.000000000000000e+00
0.000000000000000e+00 0.000000000000000e+00 0.000000000000000e+00
0.000000000000000e+00 0.000000000000000e+00 0.000000000000000e+00
0.000000000000000e+00 0.000000000000000e+00 0.000000000000000e+00
0.000000000000000e+00 0.000000000000000e+00 0.000000000000000e+00
0.000000000000000e+00 0.000000000000000e+00 0.000000000000000e+00
0.000000000000000e+00 0.000000000000000e+00 0.000000000000000e+00
0.000000000000000e+00 0.000000000000000e+00 0.000000000000000e+00
0.000000000000000e+00 0.000000000000000e+00 0.000000000000000e+00
0.000000000000000e+00 0.000000000000000e+00 0.000000000000000e+00
0.000000000000000e+00 0.000000000000000e+00 0.000000000000000e+00
0.000000000000000e+00 0.000000000000000e+00 0.000000000000000e+00
0.000000000000000e+00 0.000000000000000e+00 0.000000000000000e+00
0.000000000000000e+00 0.000000000000000e+00 0.000000000000000e+00
0.000000000000000e+00 0.000000000000000e+00 0.000000000000000e+00
0.000000000000000e+00 0.000000000000000e+00 0.000000000000000e+00
0.000000000000000e+00 0.000000000000000e+00 0.000000000000000e+00
0.000000000000000e+00 0.000000000000000e+00 0.000000000000000e+00
0.000000000000000e+00 0.000000000000000e+00 0.000000000000000e+00
0.000000000000000e+00 0.000000000000000e+00 0.000000000000000e+00
0.000000000000000e+00 0.000000000000000e+00 0.000000000000000e+00
0.000000000000000e+00 0.000000000000000e+00 0.000000000000000e+00
0.000000000000000e+00 0.000000000000000e+00 0.000000000000000e+00
0.000000000000000e+00 0.000000000000000e+00 0.000000000000000e+00
0.000000000000000e+00 0.000000000000000e+00 0.000000000000000e+00
0.000000000000000e+00 0.000000000000000e+00 0.000000000000000e+00
0.000000000000000e+00 0.000000000000000e+00 0.000000000000000e+00
0.000000000000000e+00 0.000000000000000e+00 0.000000000000000e+00
0.000000000000000e+00 0.000000000000000e+00 0.000000000000000e+00
0.000000000000000e+00 0.000000000000000e+00 0.000000000000000e+00
0.000000000000000e+00 0.000000000000000e+00 0.000000000000000e+00
0.000000000000000e+00 0.000000000000000e+00 0.000000000000000e+00
0.000000000000000e+00 0.000000000000000e+00 0.000000000000000e+00
0.000000000000000e+00 0.000000000000000e+00 0.000000000000000e+00
0.000000000000000e+00 0.000000000000000e+00 0.000000000000000e+00
0.000000000000000e+00 0.000000000000000e+00 0.000000000000000e+00
0.000000000000000e+00 0.000000000000000e+00 0.000000000000000e+00
0.000000000000000e+00 0.000000000000000e+00 0.000000000000000e+00
0.000000000000000e+00 0.000000000000000e+00 0.000000000000000e+00
0.000000000000000e+00 0.000000000000000e+00 0.000000000000000e+00
0.000000000000000e+00 0.000000000000000e+00 0.000000000000000e+00
0.000000000000000e+00 0.000000000000000e+00 0.000000000000000e+00
0.000000000000000e+00 0.000000000000000e+00 0.000000000000000e+00
0.000000000000000e+00 0.000000000000000e+00 0.000000000000000e+00
0.000000000000000e+00 0.000000000000000e+00 0.000000000000000e+00
0.000000000000000e+00 0.000000000000000e+00 0.000000000000000e+00
0.000000000000000e+00 0.000000000000000e+00 0.000000000000000e+00
0.000000000000000e+00 0.000000000000000e+00 0.000000000000000e+00
0.000000000000000e+00 0.000000000000000e+00 0.000000000000000e+00
0.000000000000000e+00 0.000000000000000e+00 0.000000000000000e+00
0.000000000000000e+00 0.000000000000000e+00 0.000000000000000e+00
0.000000000000000e+00 0.000000000000000e+00 0.000000000000000e+00
0.000000000000000e+00 0.000000000000000e+00 0.000000000000000e+00
0.000000000000000e+00 0.000000000000000e+00 0.000000000000000e+00
0.000000000000000e+00 0.000000000000000e+00 0.000000000000000e+00
0.000000000000000e+00 0.000000000000000e+00 0.000000000000000e+00
0.000000000000000e+00 0.000000000000000e+00 0.000000000000000e+00
0.000000000000000e+00 0.000000000000000e+00 0.000000000000000e+00
0.000000000000000e+00 0.000000000000000e+00 0.000000000000000e+00
0.000000000000000e+00 0.000000000000000e+00 0.000000000000000e+00
0.000000000000000e+00 0.000000000000000e+00 0.000000000000000e+00
0.000000000000000e+00 0.000000000000000e+00 0.000000000000000e+00
0.000000000000000e+00 0.000000000000000e+00 0.000000000000000e+00
0.000000000000000e+00 0.000000000000000e+00 0.000000000000000e+00
0.000000000000000e+00 0.000000000000000e+00 0.000000000000000e+00
0.000000000000000e+00 0.000000000000000e+00 0.000000000000000e+00
0.000000000000000e+00 0.000000000000000e+00 0.000000000000000e+00
0.000000000000000e+00 0.000000000000000e+00 0.000000000000000e+00
0.000000000000000e+00 0.000000000000000e+00 0.000000000000000e+00
0.000000000000000e+00 0.000000000000000e+00 0.000000000000000e+00
0.000000000000000e+00 0.000000000000000e+00 0.000000000000000e+00
0.000000000000000e+00 0.000000000000000e+00 0.000000000000000e+00
0.000000000000000e+00 0.000000000000000e+00 0.000000000000000e+00
0.000000000000000e+00 0.000000000000000e+00 0.000000000000000e+00
0.000000000000000e+00 0.000000000000000e+00 0.000000000000000e+00
0.000000000000000e+00 0.000000000000000e+00 0.000000000000000e+00
0.000000000000000e+00 0.000000000000000e+00 0.000000000000000e+00
0.000000000000000e+00 0.000000000000000e+00 0.000000000000000e+00
0.000000000000000e+00 0.000000000000000e+00 0.000000000000000e+00
0.000000000000000e+00 0.000000000000000e+00 0.000000000000000e+00
0.000000000000000e+00 0.000000000000000e+00 0.000000000000000e+00
0.000000000000000e+00 0.000000000000000e+00 0.000000000000000e+00
0.000000000000000e+00 0.000000000000000e+00 0.000000000000000e+00
0.000000000000000e+00 0.000000000000000e+00 0.000000000000000e+00
0.000000000000000e+00 0.000000000000000e+00 0.000000000000000e+00
0.000000000000000e+00 0.000000000000000e+00 0.000000000000000e+00
0.000000000000000e+00 0.000000000000000e+00 0.000000000000000e+00
0.000000000000000e+00 0.000000000000000e+00 0.000000000000000e+00
0.000000000000000e+00 0.000000000000000e+00 0.000000000000000e+00
0.000000000000000e+00 0.000000000000000e+00 0.000000000000000e+00
0.000000000000000e+00 0.000000000000000e+00 0.000000000000000e+00
0.000000000000000e+00 0.000000000000000e+00 0.000000000000000e+00
0.000000000000000e+00 0.000000000000000e+00 0.000000000000000e+00
0.000000000000000e+00 0.000000000000000e+00 0.000000000000000e+00
0.000000000000000e+00 0.000000000000000e+00 0.000000000000000e+00
0.000000000000000e+00 0.000000000000000e+00 0.000000000000000e+00
0.000000000000000e+00 0.000000000000000e+00 0.000000000000000e+00
0.000000000000000e+00 0.000000000000000e+00 0.000000000000000e+00
0.000000000000000e+00 0.000000000000000e+00 0.000000000000000e+00
0.000000000000000e+00 0.000000000000000e+00 0.000000000000000e+00
0.000000000000000e+00 0.000000000000000e+00 0.000000000000000e+00
0.000000000000000e+00 0.000000000000000e+00 0.000000000000000e+00
0.000000000000000e+00 0.000000000000000e+00 0.000000000000000e+00
0.000000000000000e+00 0.000000000000000e+00 0.000000000000000e+00
0.000000000000000e+00 0.000000000000000e+00 0.000000000000000e+00
0.000000000000000e+00 0.000000000000000e+00 0.000000000000000e+00
0.000000000000000e+00 0.000000000000000e+00 0.000000000000000e+00
0.000000000000000e+00 0.000000000000000e+00 0.000000000000000e+00
0.000000000000000e+00 0.000000000000000e+00 0.000000000000000e+00
0.000000000000000e+00 0.000000000000000e+00 0.000000000000000e+00
0.000000000000000e+00 0.000000000000000e+00 0.000000000000000e+00
0.000000000000000e+00 0.000000000000000e+00 0.000000000000000e+00
0.000000000000000e+00 0.000000000000000e+00 0.000000000000000e+00
0.000000000000000e+00 0.000000000000000e+00 0.000000000000000e+00
0.000000000000000e+00 0.000000000000000e+00 0.000000000000000e+00
0.000000000000000e+00 0.000000000000000e+00 0.000000000000000e+00
0.000000000000000e+00 0.000000000000000e+00 0.000000000000000e+00
0.000000000000000e+00 0.000000000000000e+00 0.000000000000000e+00
0.000000000000000e+00 0.000000000000000e+00 0.000000000000000e+00
0.000000000000000e+00 0.000000000000000e+00 0.000000000000000e+00
0.000000000000000e+00 0.000000000000000e+00 0.000000000000000e+00
0.000000000000000e+00 0.000000000000000e+00 0.000000000000000e+00
0.000000000000000e+00 0.000000000000000e+00 0.000000000000000e+00
0.000000000000000e+00 0.000000000000000e+00 0.000000000000000e+00
0.000000000000000e+00 0.000000000000000e+00 0.000000000000000e+00
0.000000000000000e+00 0.000000000000000e+00 0.000000000000000e+00
0.000000000000000e+00 0.000000000000000e+00 0.000000000000000e+00
0.000000000000000e+00 0.000000000000000e+00 0.000000000000000e+00
0.000000000000000e+00 0.000000000000000e+00 0.000000000000000e+00
0.000000000000000e+00 0.000000000000000e+00 0.000000000000000e+00
0.000000000000000e+00 0.000000000000000e+00 0.000000000000000e+00
0.000000000000000e+00 0.000000000000000e+00 0.000000000000000e+00
0.000000000000000e+00 0.000000000000000e+00 0.000000000000000e+00
0.000000000000000e+00 0.000000000000000e+00 0.000000000000000e+00
0.000000000000000e+00 0.000000000000000e+00 0.000000000000000e+00
0.000000000000000e+00 0.000000000000000e+00 0.000000000000000e+00
0.000000000000000e+00 0.000000000000000e+00 0.000000000000000e+00
0.000000000000000e+00 0.000000000000000e+00 0.000000000000000e+00
0.000000000000000e+00 0.000000000000000e+00 0.000000000000000e+00
0.000000000000000e+00 0.000000000000000e+00 0.000000000000000e+00
0.000000000000000e+00 0.000000000000000e+00 0.000000000000000e+00
0.000000000000000e+00 0.000000000000000e+00 0.000000000000000e+00
0.000000000000000e+00 0.000000000000000e+00 0.000000000000000e+00
0.000000000000000e+00 0.000000000000000e+00 0.000000000000000e+00
0.000000000000000e+00 0.000000000000000e+00 0.000000000000000e+00
0.000000000000000e+00 0.000000000000000e+00 0.000000000000000e+00
0.000000000000000e+00 0.000000000000000e+00 0.000000000000000e+00
0.000000000000000e+00 0.000000000000000e+00 0.000000000000000e+00
0.000000000000000e+00 0.000000000000000e+00 0.000000000000000e+00
0.000000000000000e+00 0.000000000000000e+00 0.000000000000000e+00
0.000000000000000e+00 0.000000000000000e+00 0.000000000000000e+00
0.000000000000000e+00 0.000000000000000e+00 0.000000000000000e+00
0.000000000000000e+00 0.000000000000000e+00 0.000000000000000e+00
0.000000000000000e+00 0.000000000000000e+00 0.000000000000000e+00
0.000000000000000e+00 0.000000000000000e+00 0.000000000000000e+00
0.000000000000000e+00 0.000000000000000e+00 0.000000000000000e+00
0.000000000000000e+00 0.000000000000000e+00 0.000000000000000e+00
0.000000000000000e+00 0.000000000000000e+00 0.000000000000000e+00
0.000000000000000e+00 0.000000000000000e+00 0.000000000000000e+00
0.000000000000000e+00 0.000000000000000e+00 0.000000000000000e+00
0.000000000000000e+00 0.000000000000000e+00 0.000000000000000e+00
0.000000000000000e+00 0.000000000000000e+00 0.000000000000000e+00
0.000000000000000e+00 0.000000000000000e+00 0.000000000000000e+00
0.000000000000000e+00 0.000000000000000e+00 0.000000000000000e+00
0.000000000000000e+00 0.000000000000000e+00 0.000000000000000e+00
0.000000000000000e+00 0.000000000000000e+00 0.000000000000000e+00
0.000000000000000e+00 0.000000000000000e+00 0.000000000000000e+00
0.000000000000000e+00 0.000000000000000e+00 0.000000000000000e+00
0.000000000000000e+00 0.000000000000000e+00 0.000000000000000e+00
0.000000000000000e+00 0.000000000000000e+00 0.000000000000000e+00
0.000000000000000e+00 0.000000000000000e+00 0.000000000000000e+00
0.000000000000000e+00 0.000000000000000e+00 0.000000000000000e+00
0.000000000000000e+00 0.000000000000000e+00 0.000000000000000e+00
0.000000000000000e+00 0.000000000000000e+00 0.000000000000000e+00
0.000000000000000e+00 0.000000000000000e+00 0.000000000000000e+00
0.000000000000000e+00 0.000000000000000e+00 0.000000000000000e+00
0.000000000000000e+00 0.000000000000000e+00 0.000000000000000e+00
0.000000000000000e+00 0.000000000000000e+00 0.000000000000000e+00
0.000000000000000e+00 0.000000000000000e+00 0.000000000000000e+00
0.000000000000000e+00 0.000000000000000e+00 0.000000000000000e+00
0.000000000000000e+00 0.000000000000000e+00 0.000000000000000e+00
0.000000000000000e+00 0.000000000000000e+00 0.000000000000000e+00
0.000000000000000e+00 0.000000000000000e+00 0.000000000000000e+00
0.000000000000000e+00 0.000000000000000e+00 0.000000000000000e+00
0.000000000000000e+00 0.000000000000000e+00 0.000000000000000e+00
0.000000000000000e+00 0.000000000000000e+00 0.000000000000000e+00
0.000000000000000e+00 0.000000000000000e+00 0.000000000000000e+00
0.000000000000000e+00 0.000000000000000e+00 0.000000000000000e+00
0.000000000000000e+00 0.000000000000000e+00 0.000000000000000e+00
0.000000000000000e+00 0.000000000000000e+00 0.000000000000000e+00
0.000000000000000e+00 0.000000000000000e+00 0.000000000000000e+00
0.000000000000000e+00 0.000000000000000e+00 0.000000000000000e+00
0.000000000000000e+00 0.000000000000000e+00 0.000000000000000e+00
0.000000000000000e+00 0.000000000000000e+00 0.000000000000000e+00
0.000000000000000e+00 0.000000000000000e+00 0.000000000000000e+00
0.000000000000000e+00 0.000000000000000e+00 0.000000000000000e+00
0.000000000000000e+00 0.000000000000000e+00 0.000000000000000e+00
0.000000000000000e+00 0.000000000000000e+00 0.000000000000000e+00
0.000000000000000e+00 0.000000000000000e+00 0.000000000000000e+00
0.000000000000000e+00 0.000000000000000e+00 0.000000000000000e+00
0.000000000000000e+00 0.000000000000000e+00 0.000000000000000e+00
0.000000000000000e+00 0.000000000000000e+00 0.000000000000000e+00
0.000000000000000e+00 0.000000000000000e+00 0.000000000000000e+00
0.000000000000000e+00 0.000000000000000e+00 0.000000000000000e+00
0.000000000000000e+00 0.000000000000000e+00 0.000000000000000e+00
0.000000000000000e+00 0.000000000000000e+00 0.000000000000000e+00
0.000000000000000e+00 0.000000000000000e+00 0.000000000000000e+00
0.000000000000000e+00 0.000000000000000e+00 0.000000000000000e+00
0.000000000000000e+00 0.000000000000000e+00 0.000000000000000e+00
0.000000000000000e+00 0.000000000000000e+00 0.000000000000000e+00
0.000000000000000e+00 0.000000000000000e+00 0.000000000000000e+00
0.000000000000000e+00 0.000000000000000e+00 0.000000000000000e+00
0.000000000000000e+00 0.000000000000000e+00 0.000000000000000e+00
0.000000000000000e+00 0.000000000000000e+00 0.000000000000000e+00
0.000000000000000e+00 0.000000000000000e+00 0.000000000000000e+00
0.000000000000000e+00 0.000000000000000e+00 0.000000000000000e+00
0.000000000000000e+00 0.000000000000000e+00 0.000000000000000e+00
0.000000000000000e+00 0.000000000000000e+00 0.000000000000000e+00
0.000000000000000e+00 0.000000000000000e+00 0.000000000000000e+00
0.000000000000000e+00 0.000000000000000e+00 0.000000000000000e+00
0.000000000000000e+00 0.000000000000000e+00 0.000000000000000e+00
0.000000000000000e+00 0.000000000000000e+00 0.000000000000000e+00
0.000000000000000e+00 0.000000000000000e+00 0.000000000000000e+00
0.000000000000000e+00 0.000000000000000e+00 0.000000000000000e+00
0.000000000000000e+00 0.000000000000000e+00 0.000000000000000e+00
0.000000000000000e+00 0.000000000000000e+00 0.000000000000000e+00
0.000000000000000e+00 0.000000000000000e+00 0.000000000000000e+00
0.000000000000000e+00 0.000000000000000e+00 0.000000000000000e+00
0.000000000000000e+00 0.000000000000000e+00 0.000000000000000e+00
0.000000000000000e+00 0.000000000000000e+00 0.000000000000000e+00
0.000000000000000e+00 0.000000000000000e+00 0.000000000000000e+00
0.000000000000000e+00 0.000000000000000e+00 0.000000000000000e+00
0.000000000000000e+00 0.000000000000000e+00 0.000000000000000e+00
0.000000000000000e+00 0.000000000000000e+00 0.000000000000000e+00
0.000000000000000e+00 0.000000000000000e+00 0.000000000000000e+00
0.000000000000000e+00 0.000000000000000e+00 0.000000000000000e+00
0.000000000000000e+00 0.000000000000000e+00 0.000000000000000e+00
0.000000000000000e+00 0.000000000000000e+00 0.000000000000000e+00
0.000000000000000e+00 0.000000000000000e+00 0.000000000000000e+00
0.000000000000000e+00 0.000000000000000e+00 0.000000000000000e+00
0.000000000000000e+00 0.000000000000000e+00 0.000000000000000e+00
0.000000000000000e+00 0.000000000000000e+00 0.000000000000000e+00
0.000000000000000e+00 0.000000000000000e+00 0.000000000000000e+00
0.000000000000000e+00 0.000000000000000e+00 0.000000000000000e+00
0.000000000000000e+00 0.000000000000000e+00 0.000000000000000e+00
0.000000000000000e+00 0.000000000000000e+00 0.000000000000000e+00
0.000000000000000e+00 0.000000000000000e+00 0.000000000000000e+00
0.000000000000000e+00 0.000000000000000e+00 0.000000000000000e+00
0.000000000000000e+00 0.000000000000000e+00 0.000000000000000e+00
0.000000000000000e+00 0.000000000000000e+00 0.000000000000000e+00
0.000000000000000e+00 0.000000000000000e+00 0.000000000000000e+00
0.000000000000000e+00 0.000000000000000e+00 0.000000000000000e+00
0.000000000000000e+00 0.000000000000000e+00 0.000000000000000e+00
0.000000000000000e+00 0.000000000000000e+00 0.000000000000000e+00
0.000000000000000e+00 0.000000000000000e+00 0.000000000000000e+00
0.000000000000000e+00 0.000000000000000e+00 0.000000000000000e+00
0.000000000000000e+00 0.000000000000000e+00 0.000000000000000e+00
0.000000000000000e+00 0.000000000000000e+00 0.000000000000000e+00
0.000000000000000e+00 0.000000000000000e+00 0.000000000000000e+00
0.000000000000000e+00 0.000000000000000e+00 0.000000000000000e+00
0.000000000000000e+00 0.000000000000000e+00 0.000000000000000e+00
0.000000000000000e+00 0.000000000000000e+00 0.000000000000000e+00
0.000000000000000e+00 0.000000000000000e+00 0.000000000000000e+00
0.000000000000000e+00 0.000000000000000e+00 0.000000000000000e+00
0.000000000000000e+00 0.000000000000000e+00 0.000000000000000e+00
0.000000000000000e+00 0.000000000000000e+00 0.000000000000000e+00
0.000000000000000e+00 0.000000000000000e+00 0.000000000000000e+00
0.000000000000000e+00 0.000000000000000e+00 0.000000000000000e+00
0.000000000000000e+00 0.000000000000000e+00 0.000000000000000e+00
0.000000000000000e+00 0.000000000000000e+00 0.000000000000000e+00
0.000000000000000e+00 0.000000000000000e+00 0.000000000000000e+00
0.000000000000000e+00 0.000000000000000e+00 0.000000000000000e+00
0.000000000000000e+00 0.000000000000000e+00 0.000000000000000e+00
0.000000000000000e+00 0.000000000000000e+00 0.000000000000000e+00
0.000000000000000e+00 0.000000000000000e+00 0.000000000000000e+00
0.000000000000000e+00 0.000000000000000e+00 0.000000000000000e+00
0.000000000000000e+00 0.000000000000000e+00 0.000000000000000e+00
0.000000000000000e+00 0.000000000000000e+00 0.000000000000000e+00
0.000000000000000e+00 0.000000000000000e+00 0.000000000000000e+00
0.000000000000000e+00 0.000000000000000e+00 0.000000000000000e+00
0.000000000000000e+00 0.000000000000000e+00 0.000000000000000e+00
0.000000000000000e+00 0.000000000000000e+00 0.000000000000000e+00
0.000000000000000e+00 0.000000000000000e+00 0.000000000000000e+00
0.000000000000000e+00 0.000000000000000e+00 0.000000000000000e+00
0.000000000000000e+00 0.000000000000000e+00 0.000000000000000e+00
0.000000000000000e+00 0.000000000000000e+00 0.000000000000000e+00
0.000000000000000e+00 0.000000000000000e+00 0.000000000000000e+00
0.000000000000000e+00 0.000000000000000e+00 0.000000000000000e+00
0.000000000000000e+00 0.000000000000000e+00 0.000000000000000e+00
0.000000000000000e+00 0.000000000000000e+00 0.000000000000000e+00
0.000000000000000e+00 0.000000000000000e+00 0.000000000000000e+00
0.000000000000000e+00 0.000000000000000e+00 0.000000000000000e+00
0.000000000000000e+00 0.000000000000000e+00 0.000000000000000e+00
0.000000000000000e+00 0.000000000000000e+00 0.000000000000000e+00
0.000000000000000e+00 0.000000000000000e+00 0.000000000000000e+00
0.000000000000000e+00 0.000000000000000e+00 0.000000000000000e+00
0.000000000000000e+00 0.000000000000000e+00 0.000000000000000e+00
0.000000000000000e+00 0.000000000000000e+00 0.000000000000000e+00
0.000000000000000e+00 0.000000000000000e+00 0.000000000000000e+00
0.000000000000000e+00 0.000000000000000e+00 0.000000000000000e+00
0.000000000000000e+00 0.000000000000000e+00 0.000000000000000e+00
0.000000000000000e+00 0.000000000000000e+00 0.000000000000000e+00
0.000000000000000e+00 0.000000000000000e+00 0.000000000000000e+00
0.000000000000000e+00 0.000000000000000e+00 0.000000000000000e+00
0.000000000000000e+00 0.000000000000000e+00 0.000000000000000e+00
0.000000000000000e+00 0.000000000000000e+00 0.000000000000000e+00
0.000000000000000e+00 0.000000000000000e+00 0.000000000000000e+00
0.000000000000000e+00 0.000000000000000e+00 0.000000000000000e+00
0.000000000000000e+00 0.000000000000000e+00 0.000000000000000e+00
0.000000000000000e+00 0.000000000000000e+00 0.000000000000000e+00
0.000000000000000e+00 0.000000000000000e+00 0.000000000000000e+00
0.000000000000000e+00 0.000000000000000e+00 0.000000000000000e+00
0.000000000000000e+00 0.000000000000000e+00 0.000000000000000e+00
0.000000000000000e+00 0.000000000000000e+00 0.000000000000000e+00
0.000000000000000e+00 0.000000000000000e+00 0.000000000000000e+00
0.000000000000000e+00 0.000000000000000e+00 0.000000000000000e+00
0.000000000000000e+00 0.000000000000000e+00 0.000000000000000e+00
0.000000000000000e+00 0.000000000000000e+00 0.000000000000000e+00
0.000000000000000e+00 0.000000000000000e+00 0.000000000000000e+00
0.000000000000000e+00 0.000000000000000e+00 0.000000000000000e+00
0.000000000000000e+00 0.000000000000000e+00 0.000000000000000e+00
0.000000000000000e+00 0.000000000000000e+00 0.000000000000000e+00
0.000000000000000e+00 0.000000000000000e+00 0.000000000000000e+00
0.000000000000000e+00 0.000000000000000e+00 0.000000000000000e+00
0.000000000000000e+00 0.000000000000000e+00 0.000000000000000e+00
0.000000000000000e+00 0.000000000000000e+00 0.000000000000000e+00
0.000000000000000e+00 0.000000000000000e+00 0.000000000000000e+00
0.000000000000000e+00 0.000000000000000e+00 0.000000000000000e+00
0.000000000000000e+00 0.000000000000000e+00 0.000000000000000e+00
0.000000000000000e+00 0.000000000000000e+00 0.000000000000000e+00
0.000000000000000e+00 0.000000000000000e+00 0.000000000000000e+00
0.000000000000000e+00 0.000000000000000e+00 0.000000000000000e+00
0.000000000000000e+00 0.000000000000000e+00 0.000000000000000e+00
0.000000000000000e+00 0.000000000000000e+00 0.000000000000000e+00
0.000000000000000e+00 0.000000000000000e+00 0.000000000000000e+00
0.000000000000000e+00 0.000000000000000e+00 0.000000000000000e+00
0.000000000000000e+00 0.000000000000000e+00 0.000000000000000e+00
0.000000000000000e+00 0.000000000000000e+00 0.000000000000000e+00
0.000000000000000e+00 0.000000000000000e+00 0.000000000000000e+00
0.000000000000000e+00 0.000000000000000e+00 0.000000000000000e+00
0.000000000000000e+00 0.000000000000000e+00 0.000000000000000e+00
0.000000000000000e+00 0.000000000000000e+00 0.000000000000000e+00
0.000000000000000e+00 0.000000000000000e+00 0.000000000000000e+00
0.000000000000000e+00 0.000000000000000e+00 0.000000000000000e+00
0.000000000000000e+00 0.000000000000000e+00 0.000000000000000e+00
0.000000000000000e+00 0.000000000000000e+00 0.000000000000000e+00
0.000000000000000e+00 0.000000000000000e+00 0.000000000000000e+00
0.000000000000000e+00 0.000000000000000e+00 0.000000000000000e+00
0.000000000000000e+00 0.000000000000000e+00 0.000000000000000e+00
0.000000000000000e+00 0.000000000000000e+00 0.000000000000000e+00
0.000000000000000e+00 0.000000000000000e+00 0.000000000000000e+00
0.000000000000000e+00 0.000000000000000e+00 0.000000000000000e+00
0.000000000000000e+00 0.000000000000000e+00 0.000000000000000e+00
0.000000000000000e+00 0.000000000000000e+00 0.000000000000000e+00
0.000000000000000e+00 0.000000000000000e+00 0.000000000000000e+00
0.000000000000000e+00 0.000000000000000e+00 0.000000000000000e+00
0.000000000000000e+00 0.000000000000000e+00 0.000000000000000e+00
0.000000000000000e+00 0.000000000000000e+00 0.000000000000000e+00
0.000000000000000e+00 0.000000000000000e+00 0.000000000000000e+00
0.000000000000000e+00 0.000000000000000e+00 0.000000000000000e+00
0.000000000000000e+00 0.000000000000000e+00 0.000000000000000e+00
0.000000000000000e+00 0.000000000000000e+00 0.000000000000000e+00
0.000000000000000e+00 0.000000000000000e+00 0.000000000000000e+00
0.000000000000000e+00 0.000000000000000e+00 0.000000000000000e+00
0.000000000000000e+00 0.000000000000000e+00 0.000000000000000e+00
0.000000000000000e+00 0.000000000000000e+00 0.000000000000000e+00
0.000000000000000e+00 0.000000000000000e+00 0.000000000000000e+00
0.000000000000000e+00 0.000000000000000e+00 0.000000000000000e+00
0.000000000000000e+00 0.000000000000000e+00 0.000000000000000e+00
0.000000000000000e+00 0.000000000000000e+00 0.000000000000000e+00
0.000000000000000e+00 0.000000000000000e+00 0.000000000000000e+00
0.000000000000000e+00 0.000000000000000e+00 0.000000000000000e+00
0.000000000000000e+00 0.000000000000000e+00 0.000000000000000e+00
0.000000000000000e+00 0.000000000000000e+00 0.000000000000000e+00
0.000000000000000e+00 0.000000000000000e+00 0.000000000000000e+00
0.000000000000000e+00 0.000000000000000e+00 0.000000000000000e+00
0.000000000000000e+00 0.000000000000000e+00 0.000000000000000e+00
0.000000000000000e+00 0.000000000000000e+00 0.000000000000000e+00
0.000000000000000e+00 0.000000000000000e+00 0.000000000000000e+00
0.000000000000000e+00 0.000000000000000e+00 0.000000000000000e+00
0.000000000000000e+00 0.000000000000000e+00 0.000000000000000e+00
0.000000000000000e+00 0.000000000000000e+00 0.000000000000000e+00
0.000000000000000e+00 0.000000000000000e+00 0.000000000000000e+00
0.000000000000000e+00 0.000000000000000e+00 0.000000000000000e+00
0.000000000000000e+00 0.000000000000000e+00 0.000000000000000e+00
0.000000000000000e+00 0.000000000000000e+00 0.000000000000000e+00
0.000000000000000e+00 0.000000000000000e+00 0.000000000000000e+00
0.000000000000000e+00 0.000000000000000e+00 0.000000000000000e+00
0.000000000000000e+00 0.000000000000000e+00 0.000000000000000e+00
0.000000000000000e+00 0.000000000000000e+00 0.000000000000000e+00
0.000000000000000e+00 0.000000000000000e+00 0.000000000000000e+00
0.000000000000000e+00 0.000000000000000e+00 0.000000000000000e+00
0.000000000000000e+00 0.000000000000000e+00 0.000000000000000e+00
0.000000000000000e+00 0.000000000000000e+00 0.000000000000000e+00
0.000000000000000e+00 0.000000000000000e+00 0.000000000000000e+00
0.000000000000000e+00 0.000000000000000e+00 0.000000000000000e+00
0.000000000000000e+00 0.000000000000000e+00 0.000000000000000e+00
0.000000000000000e+00 0.000000000000000e+00 0.000000000000000e+00
0.000000000000000e+00 0.000000000000000e+00 0.000000000000000e+00
0.000000000000000e+00 0.000000000000000e+00 0.000000000000000e+00
0.000000000000000e+00 0.000000000000000e+00 0.000000000000000e+00
0.000000000000000e+00 0.000000000000000e+00 0.000000000000000e+00
0.000000000000000e+00 0.000000000000000e+00 0.000000000000000e+00
0.000000000000000e+00 0.000000000000000e+00 0.000000000000000e+00
0.000000000000000e+00 0.000000000000000e+00 0.000000000000000e+00
0.000000000000000e+00 0.000000000000000e+00 0.000000000000000e+00
0.000000000000000e+00 0.000000000000000e+00 0.000000000000000e+00
0.000000000000000e+00 0.000000000000000e+00 0.000000000000000e+00
0.000000000000000e+00 0.000000000000000e+00 0.000000000000000e+00
0.000000000000000e+00 0.000000000000000e+00 0.000000000000000e+00
0.000000000000000e+00 0.000000000000000e+00 0.000000000000000e+00
0.000000000000000e+00 0.000000000000000e+00 0.000000000000000e+00
0.000000000000000e+00 0.000000000000000e+00 0.000000000000000e+00
0.000000000000000e+00 0.000000000000000e+00 0.000000000000000e+00
0.000000000000000e+00 0.000000000000000e+00 0.000000000000000e+00
0.000000000000000e+00 0.000000000000000e+00 0.000000000000000e+00
0.000000000000000e+00 0.000000000000000e+00 0.000000000000000e+00
0.000000000000000e+00 0.000000000000000e+00 0.000000000000000e+00
0.000000000000000e+00 0.000000000000000e+00 0.000000000000000e+00
0.000000000000000e+00 0.000000000000000e+00 0.000000000000000e+00
0.000000000000000e+00 0.000000000000000e+00 0.000000000000000e+00
0.000000000000000e+00 0.000000000000000e+00 0.000000000000000e+00
0.000000000000000e+00 0.000000000000000e+00 0.000000000000000e+00
0.000000000000000e+00 0.000000000000000e+00 0.000000000000000e+00
0.000000000000000e+00 0.000000000000000e+00 0.000000000000000e+00
0.000000000000000e+00 0.000000000000000e+00 0.000000000000000e+00
0.000000000000000e+00 0.000000000000000e+00 0.000000000000000e+00
0.000000000000000e+00 0.000000000000000e+00 0.000000000000000e+00
0.000000000000000e+00 0.000000000000000e+00 0.000000000000000e+00
0.000000000000000e+00 0.000000000000000e+00 0.000000000000000e+00
0.000000000000000e+00 0.000000000000000e+00 0.000000000000000e+00
0.000000000000000e+00 0.000000000000000e+00 0.000000000000000e+00
0.000000000000000e+00 0.000000000000000e+00 0.000000000000000e+00
0.000000000000000e+00 0.000000000000000e+00 0.000000000000000e+00
0.000000000000000e+00 0.000000000000000e+00 0.000000000000000e+00
0.000000000000000e+00 0.000000000000000e+00 0.000000000000000e+00
0.000000000000000e+00 0.000000000000000e+00 0.000000000000000e+00
0.000000000000000e+00 0.000000000000000e+00 0.000000000000000e+00
0.000000000000000e+00 0.000000000000000e+00 0.000000000000000e+00
0.000000000000000e+00 0.000000000000000e+00 0.000000000000000e+00
0.000000000000000e+00 0.000000000000000e+00 0.000000000000000e+00
0.000000000000000e+00 0.000000000000000e+00 0.000000000000000e+00
0.000000000000000e+00 0.000000000000000e+00 0.000000000000000e+00
0.000000000000000e+00 0.000000000000000e+00 0.000000000000000e+00
0.000000000000000e+00 0.000000000000000e+00 0.000000000000000e+00
0.000000000000000e+00 0.000000000000000e+00 0.000000000000000e+00
0.000000000000000e+00 0.000000000000000e+00 0.000000000000000e+00
0.000000000000000e+00 0.000000000000000e+00 0.000000000000000e+00
0.000000000000000e+00 0.000000000000000e+00 0.000000000000000e+00
0.000000000000000e+00 0.000000000000000e+00 0.000000000000000e+00
0.000000000000000e+00 0.000000000000000e+00 0.000000000000000e+00
0.000000000000000e+00 0.000000000000000e+00 0.000000000000000e+00
0.000000000000000e+00 0.000000000000000e+00 0.000000000000000e+00
0.000000000000000e+00 0.000000000000000e+00 0.000000000000000e+00
0.000000000000000e+00 0.000000000000000e+00 0.000000000000000e+00
0.000000000000000e+00 0.000000000000000e+00 0.000000000000000e+00
0.000000000000000e+00 0.000000000000000e+00 0.000000000000000e+00
0.000000000000000e+00 0.000000000000000e+00 0.000000000000000e+00
0.000000000000000e+00 0.000000000000000e+00 0.000000000000000e+00
0.000000000000000e+00 0.000000000000000e+00 0.000000000000000e+00
0.000000000000000e+00 0.000000000000000e+00 0.000000000000000e+00
0.000000000000000e+00 0.000000000000000e+00 0.000000000000000e+00
0.000000000000000e+00 0.000000000000000e+00 0.000000000000000e+00
0.000000000000000e+00 0.000000000000000e+00 0.000000000000000e+00
0.000000000000000e+00 0.000000000000000e+00 0.000000000000000e+00
0.000000000000000e+00 0.000000000000000e+00 0.000000000000000e+00
0.000000000000000e+00 0.000000000000000e+00 0.000000000000000e+00
0.000000000000000e+00 0.000000000000000e+00 0.000000000000000e+00
0.000000000000000e+00 0.000000000000000e+00 0.000000000000000e+00
0.000000000000000e+00 0.000000000000000e+00 0.000000000000000e+00
0.000000000000000e+00 0.000000000000000e+00 0.000000000000000e+00
0.000000000000000e+00 0.000000000000000e+00 0.000000000000000e+00
0.000000000000000e+00 0.000000000000000e+00 0.000000000000000e+00
0.000000000000000e+00 0.000000000000000e+00 0.000000000000000e+00
0.000000000000000e+00 0.000000000000000e+00 0.000000000000000e+00
0.000000000000000e+00 0.000000000000000e+00 0.000000000000000e+00
0.000000000000000e+00 0.000000000000000e+00 0.000000000000000e+00
0.000000000000000e+00 0.000000000000000e+00 0.000000000000000e+00
0.000000000000000e+00 0.000000000000000e+00 0.000000000000000e+00
0.000000000000000e+00 0.000000000000000e+00 0.000000000000000e+00
0.000000000000000e+00 0.000000000000000e+00 0.000000000000000e+00
0.000000000000000e+00 0.000000000000000e+00 0.000000000000000e+00
0.000000000000000e+00 0.000000000000000e+00 0.000000000000000e+00
0.000000000000000e+00 0.000000000000000e+00 0.000000000000000e+00
0.000000000000000e+00 0.000000000000000e+00 0.000000000000000e+00
0.000000000000000e+00 0.000000000000000e+00 0.000000000000000e+00
0.000000000000000e+00 0.000000000000000e+00 0.000000000000000e+00
0.000000000000000e+00 0.000000000000000e+00 0.000000000000000e+00
0.000000000000000e+00 0.000000000000000e+00 0.000000000000000e+00
0.000000000000000e+00 0.000000000000000e+00 0.000000000000000e+00
0.000000000000000e+00 0.000000000000000e+00 0.000000000000000e+00
0.000000000000000e+00 0.000000000000000e+00 0.000000000000000e+00
0.000000000000000e+00 0.000000000000000e+00 0.000000000000000e+00
0.000000000000000e+00 0.000000000000000e+00 0.000000000000000e+00
0.000000000000000e+00 0.000000000000000e+00 0.000000000000000e+00
0.000000000000000e+00 0.000000000000000e+00 0.000000000000000e+00
0.000000000000000e+00 0.000000000000000e+00 0.000000000000000e+00
0.000000000000000e+00 0.000000000000000e+00 0.000000000000000e+00
0.000000000000000e+00 0.000000000000000e+00 0.000000000000000e+00
0.000000000000000e+00 0.000000000000000e+00 0.000000000000000e+00
0.000000000000000e+00 0.000000000000000e+00 0.000000000000000e+00
0.000000000000000e+00 0.000000000000000e+00 0.000000000000000e+00
0.000000000000000e+00 0.000000000000000e+00 0.000000000000000e+00
0.000000000000000e+00 0.000000000000000e+00 0.000000000000000e+00
0.000000000000000e+00 0.000000000000000e+00 0.000000000000000e+00
0.000000000000000e+00 0.000000000000000e+00 0.000000000000000e+00
0.000000000000000e+00 0.000000000000000e+00 0.000000000000000e+00
0.000000000000000e+00 0.000000000000000e+00 0.000000000000000e+00
0.000000000000000e+00 0.000000000000000e+00 0.000000000000000e+00
0.000000000000000e+00 0.000000000000000e+00 0.000000000000000e+00
0.000000000000000e+00 0.000000000000000e+00 0.000000000000000e+00
0.000000000000000e+00 0.000000000000000e+00 0.000000000000000e+00
0.000000000000000e+00 0.000000000000000e+00 0.000000000000000e+00
0.000000000000000e+00 0.000000000000000e+00 0.000000000000000e+00
0.000000000000000e+00 0.000000000000000e+00 0.000000000000000e+00
0.000000000000000e+00 0.000000000000000e+00 0.000000000000000e+00
0.000000000000000e+00 0.000000000000000e+00 0.000000000000000e+00
0.000000000000000e+00 0.000000000000000e+00 0.000000000000000e+00
0.000000000000000e+00 0.000000000000000e+00 0.000000000000000e+00
0.000000000000000e+00 0.000000000000000e+00 0.000000000000000e+00
0.000000000000000e+00 0.000000000000000e+00 0.000000000000000e+00
0.000000000000000e+00 0.000000000000000e+00 0.000000000000000e+00
0.000000000000000e+00 0.000000000000000e+00 0.000000000000000e+00
0.000000000000000e+00 0.000000000000000e+00 0.000000000000000e+00
0.000000000000000e+00 0.000000000000000e+00 0.000000000000000e+00
0.000000000000000e+00 0.000000000000000e+00 0.000000000000000e+00
0.000000000000000e+00 0.000000000000000e+00 0.000000000000000e+00
0.000000000000000e+00 0.000000000000000e+00 0.000000000000000e+00
0.000000000000000e+00 0.000000000000000e+00 0.000000000000000e+00
0.000000000000000e+00 0.000000000000000e+00 0.000000000000000e+00
0.000000000000000e+00 0.000000000000000e+00 0.000000000000000e+00
0.000000000000000e+00 0.000000000000000e+00 0.000000000000000e+00
0.000000000000000e+00 0.000000000000000e+00 0.000000000000000e+00
0.000000000000000e+00 0.000000000000000e+00 0.000000000000000e+00
0.000000000000000e+00 0.000000000000000e+00 0.000000000000000e+00
0.000000000000000e+00 0.000000000000000e+00 0.000000000000000e+00
0.000000000000000e+00 0.000000000000000e+00 0.000000000000000e+00
0.000000000000000e+00 0.000000000000000e+00 0.000000000000000e+00
0.000000000000000e+00 0.000000000000000e+00 0.000000000000000e+00
0.000000000000000e+00 0.000000000000000e+00 0.000000000000000e+00
0.000000000000000e+00 0.000000000000000e+00 0.000000000000000e+00
0.000000000000000e+00 0.000000000000000e+00 0.000000000000000e+00
0.000000000000000e+00 0.000000000000000e+00 0.000000000000000e+00
0.000000000000000e+00 0.000000000000000e+00 0.000000000000000e+00
0.000000000000000e+00 0.000000000000000e+00 0.000000000000000e+00
0.000000000000000e+00 0.000000000000000e+00 0.000000000000000e+00
0.000000000000000e+00 0.000000000000000e+00 0.000000000000000e+00
0.000000000000000e+00 0.000000000000000e+00 0.000000000000000e+00
0.000000000000000e+00 0.000000000000000e+00 0.000000000000000e+00
0.000000000000000e+00 0.000000000000000e+00 0.000000000000000e+00
0.000000000000000e+00 0.000000000000000e+00 0.000000000000000e+00
0.000000000000000e+00 0.000000000000000e+00 0.000000000000000e+00
0.000000000000000e+00 0.000000000000000e+00 0.000000000000000e+00
0.000000000000000e+00 0.000000000000000e+00 0.000000000000000e+00
0.000000000000000e+00 0.000000000000000e+00 0.000000000000000e+00
0.000000000000000e+00 0.000000000000000e+00 0.000000000000000e+00
0.000000000000000e+00 0.000000000000000e+00 0.000000000000000e+00
0.000000000000000e+00 0.000000000000000e+00 0.000000000000000e+00
0.000000000000000e+00 0.000000000000000e+00 0.000000000000000e+00
0.000000000000000e+00 0.000000000000000e+00 0.000000000000000e+00
0.000000000000000e+00 0.000000000000000e+00 0.000000000000000e+00
0.000000000000000e+00 0.000000000000000e+00 0.000000000000000e+00
0.000000000000000e+00 0.000000000000000e+00 0.000000000000000e+00
0.000000000000000e+00 0.000000000000000e+00 0.000000000000000e+00
0.000000000000000e+00 0.000000000000000e+00 0.000000000000000e+00
0.000000000000000e+00 0.000000000000000e+00 0.000000000000000e+00
0.000000000000000e+00 0.000000000000000e+00 0.000000000000000e+00
0.000000000000000e+00 0.000000000000000e+00 0.000000000000000e+00
0.000000000000000e+00 0.000000000000000e+00 0.000000000000000e+00
0.000000000000000e+00 0.000000000000000e+00 0.000000000000000e+00
0.000000000000000e+00 0.000000000000000e+00 0.000000000000000e+00
0.000000000000000e+00 0.000000000000000e+00 0.000000000000000e+00
0.000000000000000e+00 0.000000000000000e+00 0.000000000000000e+00
0.000000000000000e+00 0.000000000000000e+00 0.000000000000000e+00
0.000000000000000e+00 0.000000000000000e+00 0.000000000000000e+00
0.000000000000000e+00 0.000000000000000e+00 0.000000000000000e+00
0.000000000000000e+00 0.000000000000000e+00 0.000000000000000e+00
0.000000000000000e+00 0.000000000000000e+00 0.000000000000000e+00
0.000000000000000e+00 0.000000000000000e+00 0.000000000000000e+00
0.000000000000000e+00 0.000000000000000e+00 0.000000000000000e+00
0.000000000000000e+00 0.000000000000000e+00 0.000000000000000e+00
0.000000000000000e+00 0.000000000000000e+00 0.000000000000000e+00
0.000000000000000e+00 0.000000000000000e+00 0.000000000000000e+00
0.000000000000000e+00 0.000000000000000e+00 0.000000000000000e+00
0.000000000000000e+00 0.000000000000000e+00 0.000000000000000e+00
0.000000000000000e+00 0.000000000000000e+00 0.000000000000000e+00
0.000000000000000e+00 0.000000000000000e+00 0.000000000000000e+00
0.000000000000000e+00 0.000000000000000e+00 0.000000000000000e+00
0.000000000000000e+00 0.000000000000000e+00 0.000000000000000e+00
0.000000000000000e+00 0.000000000000000e+00 0.000000000000000e+00
0.000000000000000e+00 0.000000000000000e+00 0.000000000000000e+00
0.000000000000000e+00 0.000000000000000e+00 0.000000000000000e+00
0.000000000000000e+00 0.000000000000000e+00 0.000000000000000e+00
0.000000000000000e+00 0.000000000000000e+00 0.000000000000000e+00
0.000000000000000e+00 0.000000000000000e+00 0.000000000000000e+00
0.000000000000000e+00 0.000000000000000e+00 0.000000000000000e+00
0.000000000000000e+00 0.000000000000000e+00 0.000000000000000e+00
0.000000000000000e+00 0.000000000000000e+00 0.000000000000000e+00
0.000000000000000e+00 0.000000000000000e+00 0.000000000000000e+00
0.000000000000000e+00 0.000000000000000e+00 0.000000000000000e+00
0.000000000000000e+00 0.000000000000000e+00 0.000000000000000e+00
0.000000000000000e+00 0.000000000000000e+00 0.000000000000000e+00
0.000000000000000e+00 0.000000000000000e+00 0.000000000000000e+00
0.000000000000000e+00 0.000000000000000e+00 0.000000000000000e+00
0.000000000000000e+00 0.000000000000000e+00 0.000000000000000e+00
0.000000000000000e+00 0.000000000000000e+00 0.000000000000000e+00
0.000000000000000e+00 0.000000000000000e+00 0.000000000000000e+00
0.000000000000000e+00 0.000000000000000e+00 0.000000000000000e+00
0.000000000000000e+00 0.000000000000000e+00 0.000000000000000e+00
0.000000000000000e+00 0.000000000000000e+00 0.000000000000000e+00
0.000000000000000e+00 0.000000000000000e+00 0.000000000000000e+00
0.000000000000000e+00 0.000000000000000e+00 0.000000000000000e+00
0.000000000000000e+00 0.000000000000000e+00 0.000000000000000e+00
0.000000000000000e+00 0.000000000000000e+00 0.000000000000000e+00
0.000000000000000e+00 0.000000000000000e+00 0.000000000000000e+00
0.000000000000000e+00 0.000000000000000e+00 0.000000000000000e+00
0.000000000000000e+00 0.000000000000000e+00 0.000000000000000e+00
0.000000000000000e+00 0.000000000000000e+00 0.000000000000000e+00
0.000000000000000e+00 0.000000000000000e+00 0.000000000000000e+00
0.000000000000000e+00 0.000000000000000e+00 0.000000000000000e+00
0.000000000000000e+00 0.000000000000000e+00 0.000000000000000e+00
0.000000000000000e+00 0.000000000000000e+00 0.000000000000000e+00
0.000000000000000e+00 0.000000000000000e+00 0.000000000000000e+00
0.000000000000000e+00 0.000000000000000e+00 0.000000000000000e+00
0.000000000000000e+00 0.000000000000000e+00 0.000000000000000e+00
0.000000000000000e+00 0.000000000000000e+00 0.000000000000000e+00
0.000000000000000e+00 0.000000000000000e+00 0.000000000000000e+00
0.000000000000000e+00 0.000000000000000e+00 0.000000000000000e+00
0.000000000000000e+00 0.000000000000000e+00 0.000000000000000e+00
0.000000000000000e+00 0.000000000000000e+00 0.000000000000000e+00
0.000000000000000e+00 0.000000000000000e+00 0.000000000000000e+00
0.000000000000000e+00 0.000000000000000e+00 0.000000000000000e+00
0.000000000000000e+00 0.000000000000000e+00 0.000000000000000e+00
0.000000000000000e+00 0.000000000000000e+00 0.000000000000000e+00
0.000000000000000e+00 0.000000000000000e+00 0.000000000000000e+00
0.000000000000000e+00 0.000000000000000e+00 0.000000000000000e+00
0.000000000000000e+00 0.000000000000000e+00 0.000000000000000e+00
0.000000000000000e+00 0.000000000000000e+00 0.000000000000000e+00
0.000000000000000e+00 0.000000000000000e+00 0.000000000000000e+00
0.000000000000000e+00 0.000000000000000e+00 0.000000000000000e+00
0.000000000000000e+00 0.000000000000000e+00 0.000000000000000e+00
0.000000000000000e+00 0.000000000000000e+00 0.000000000000000e+00
0.000000000000000e+00 0.000000000000000e+00 0.000000000000000e+00
0.000000000000000e+00 0.000000000000000e+00 0.000000000000000e+00
0.000000000000000e+00 0.000000000000000e+00 0.000000000000000e+00
0.000000000000000e+00 0.000000000000000e+00 0.000000000000000e+00
0.000000000000000e+00 0.000000000000000e+00 0.000000000000000e+00
0.000000000000000e+00 0.000000000000000e+00 0.000000000000000e+00
0.000000000000000e+00 0.000000000000000e+00 0.000000000000000e+00
0.000000000000000e+00 0.000000000000000e+00 0.000000000000000e+00
0.000000000000000e+00 0.000000000000000e+00 0.000000000000000e+00
0.000000000000000e+00 0.000000000000000e+00 0.000000000000000e+00
0.000000000000000e+00 0.000000000000000e+00 0.000000000000000e+00
0.000000000000000e+00 0.000000000000000e+00 0.000000000000000e+00
0.000000000000000e+00 0.000000000000000e+00 0.000000000000000e+00
0.000000000000000e+00 0.000000000000000e+00 0.000000000000000e+00
0.000000000000000e+00 0.000000000000000e+00 0.000000000000000e+00
0.000000000000000e+00 0.000000000000000e+00 0.000000000000000e+00
0.000000000000000e+00 0.000000000000000e+00 0.000000000000000e+00
0.000000000000000e+00 0.000000000000000e+00 0.000000000000000e+00
0.000000000000000e+00 0.000000000000000e+00 0.000000000000000e+00
0.000000000000000e+00 0.000000000000000e+00 0.000000000000000e+00
0.000000000000000e+00 0.000000000000000e+00 0.000000000000000e+00
0.000000000000000e+00 0.000000000000000e+00 0.000000000000000e+00
0.000000000000000e+00 0.000000000000000e+00 0.000000000000000e+00
0.000000000000000e+00 0.000000000000000e+00 0.000000000000000e+00
0.000000000000000e+00 0.000000000000000e+00 0.000000000000000e+00
0.000000000000000e+00 0.000000000000000e+00 0.000000000000000e+00
0.000000000000000e+00 0.000000000000000e+00 0.000000000000000e+00
0.000000000000000e+00 0.000000000000000e+00 0.000000000000000e+00
0.000000000000000e+00 0.000000000000000e+00 0.000000000000000e+00
0.000000000000000e+00 0.000000000000000e+00 0.000000000000000e+00
0.000000000000000e+00 0.000000000000000e+00 0.000000000000000e+00
0.000000000000000e+00 0.000000000000000e+00 0.000000000000000e+00
0.000000000000000e+00 0.000000000000000e+00 0.000000000000000e+00
0.000000000000000e+00 0.000000000000000e+00 0.000000000000000e+00
0.000000000000000e+00 0.000000000000000e+00 0.000000000000000e+00
0.000000000000000e+00 0.000000000000000e+00 0.000000000000000e+00
0.000000000000000e+00 0.000000000000000e+00 0.000000000000000e+00
0.000000000000000e+00 0.000000000000000e+00 0.000000000000000e+00
0.000000000000000e+00 0.000000000000000e+00 0.000000000000000e+00
0.000000000000000e+00 0.000000000000000e+00 0.000000000000000e+00
0.000000000000000e+00 0.000000000000000e+00 0.000000000000000e+00
0.000000000000000e+00 0.000000000000000e+00 0.000000000000000e+00
0.000000000000000e+00 0.000000000000000e+00 0.000000000000000e+00
0.000000000000000e+00 0.000000000000000e+00 0.000000000000000e+00
0.000000000000000e+00 0.000000000000000e+00 0.000000000000000e+00
0.000000000000000e+00 0.000000000000000e+00 0.000000000000000e+00
0.000000000000000e+00 0.000000000000000e+00 0.000000000000000e+00
0.000000000000000e+00 0.000000000000000e+00 0.000000000000000e+00
0.000000000000000e+00 0.000000000000000e+00 0.000000000000000e+00
0.000000000000000e+00 0.000000000000000e+00 0.000000000000000e+00
0.000000000000000e+00 0.000000000000000e+00 0.000000000000000e+00
0.000000000000000e+00 0.000000000000000e+00 0.000000000000000e+00
0.000000000000000e+00 0.000000000000000e+00 0.000000000000000e+00
0.000000000000000e+00 0.000000000000000e+00 0.000000000000000e+00
0.000000000000000e+00 0.000000000000000e+00 0.000000000000000e+00
0.000000000000000e+00 0.000000000000000e+00 0.000000000000000e+00
0.000000000000000e+00 0.000000000000000e+00 0.000000000000000e+00
0.000000000000000e+00 0.000000000000000e+00 0.000000000000000e+00
0.000000000000000e+00 0.000000000000000e+00 0.000000000000000e+00
0.000000000000000e+00 0.000000000000000e+00 0.000000000000000e+00
0.000000000000000e+00 0.000000000000000e+00 0.000000000000000e+00
0.000000000000000e+00 0.000000000000000e+00 0.000000000000000e+00
0.000000000000000e+00 0.000000000000000e+00 0.000000000000000e+00
0.000000000000000e+00 0.000000000000000e+00 0.000000000000000e+00
0.000000000000000e+00 0.000000000000000e+00 0.000000000000000e+00
0.000000000000000e+00 0.000000000000000e+00 0.000000000000000e+00
0.000000000000000e+00 0.000000000000000e+00 0.000000000000000e+00
0.000000000000000e+00 0.000000000000000e+00 0.000000000000000e+00
0.000000000000000e+00 0.000000000000000e+00 0.000000000000000e+00
0.000000000000000e+00 0.000000000000000e+00 0.000000000000000e+00
0.000000000000000e+00 0.000000000000000e+00 0.000000000000000e+00
0.000000000000000e+00 0.000000000000000e+00 0.000000000000000e+00
0.000000000000000e+00 0.000000000000000e+00 0.000000000000000e+00
0.000000000000000e+00 0.000000000000000e+00 0.000000000000000e+00
0.000000000000000e+00 0.000000000000000e+00 0.000000000000000e+00
0.000000000000000e+00 0.000000000000000e+00 0.000000000000000e+00
0.000000000000000e+00 0.000000000000000e+00 0.000000000000000e+00
0.000000000000000e+00 0.000000000000000e+00 0.000000000000000e+00
0.000000000000000e+00 0.000000000000000e+00 0.000000000000000e+00
0.000000000000000e+00 0.000000000000000e+00 0.000000000000000e+00
0.000000000000000e+00 0.000000000000000e+00 0.000000000000000e+00
0.000000000000000e+00 0.000000000000000e+00 0.000000000000000e+00
0.000000000000000e+00 0.000000000000000e+00 0.000000000000000e+00
0.000000000000000e+00 0.000000000000000e+00 0.000000000000000e+00
0.000000000000000e+00 0.000000000000000e+00 0.000000000000000e+00
0.000000000000000e+00 0.000000000000000e+00 0.000000000000000e+00
0.000000000000000e+00 0.000000000000000e+00 0.000000000000000e+00
0.000000000000000e+00 0.000000000000000e+00 0.000000000000000e+00
0.000000000000000e+00 0.000000000000000e+00 0.000000000000000e+00
0.000000000000000e+00 0.000000000000000e+00 0.000000000000000e+00
0.000000000000000e+00 0.000000000000000e+00 0.000000000000000e+00
0.000000000000000e+00 0.000000000000000e+00 0.000000000000000e+00
0.000000000000000e+00 0.000000000000000e+00 0.000000000000000e+00
0.000000000000000e+00 0.000000000000000e+00 0.000000000000000e+00
0.000000000000000e+00 0.000000000000000e+00 0.000000000000000e+00
0.000000000000000e+00 0.000000000000000e+00 0.000000000000000e+00
0.000000000000000e+00 0.000000000000000e+00 0.000000000000000e+00
0.000000000000000e+00 0.000000000000000e+00 0.000000000000000e+00
0.000000000000000e+00 0.000000000000000e+00 0.000000000000000e+00
0.000000000000000e+00 0.000000000000000e+00 0.000000000000000e+00
0.000000000000000e+00 0.000000000000000e+00 0.000000000000000e+00
0.000000000000000e+00 0.000000000000000e+00 0.000000000000000e+00
0.000000000000000e+00 0.000000000000000e+00 0.000000000000000e+00
0.000000000000000e+00 0.000000000000000e+00 0.000000000000000e+00
0.000000000000000e+00 0.000000000000000e+00 0.000000000000000e+00
0.000000000000000e+00 0.000000000000000e+00 0.000000000000000e+00
0.000000000000000e+00 0.000000000000000e+00 0.000000000000000e+00
0.000000000000000e+00 0.000000000000000e+00 0.000000000000000e+00
0.000000000000000e+00 0.000000000000000e+00 0.000000000000000e+00
0.000000000000000e+00 0.000000000000000e+00 0.000000000000000e+00
0.000000000000000e+00 0.000000000000000e+00 0.000000000000000e+00
0.000000000000000e+00 0.000000000000000e+00 0.000000000000000e+00
0.000000000000000e+00 0.000000000000000e+00 0.000000000000000e+00
0.000000000000000e+00 0.000000000000000e+00 0.000000000000000e+00
0.000000000000000e+00 0.000000000000000e+00 0.000000000000000e+00
0.000000000000000e+00 0.000000000000000e+00 0.000000000000000e+00
0.000000000000000e+00 0.000000000000000e+00 0.000000000000000e+00
0.000000000000000e+00 0.000000000000000e+00 0.000000000000000e+00
0.000000000000000e+00 0.000000000000000e+00 0.000000000000000e+00
0.000000000000000e+00 0.000000000000000e+00 0.000000000000000e+00
0.000000000000000e+00 0.000000000000000e+00 0.000000000000000e+00
0.000000000000000e+00 0.000000000000000e+00 0.000000000000000e+00
0.000000000000000e+00 0.000000000000000e+00 0.000000000000000e+00
0.000000000000000e+00 0.000000000000000e+00 0.000000000000000e+00
0.000000000000000e+00 0.000000000000000e+00 0.000000000000000e+00
0.000000000000000e+00 0.000000000000000e+00 0.000000000000000e+00
0.000000000000000e+00 0.000000000000000e+00 0.000000000000000e+00
0.000000000000000e+00 0.000000000000000e+00 0.000000000000000e+00
0.000000000000000e+00 0.000000000000000e+00 0.000000000000000e+00
0.000000000000000e+00 0.000000000000000e+00 0.000000000000000e+00
0.000000000000000e+00 0.000000000000000e+00 0.000000000000000e+00
0.000000000000000e+00 0.000000000000000e+00 0.000000000000000e+00
0.000000000000000e+00 0.000000000000000e+00 0.000000000000000e+00
0.000000000000000e+00 0.000000000000000e+00 0.000000000000000e+00
0.000000000000000e+00 0.000000000000000e+00 0.000000000000000e+00
0.000000000000000e+00 0.000000000000000e+00 0.000000000000000e+00
0.000000000000000e+00 0.000000000000000e+00 0.000000000000000e+00
0.000000000000000e+00 0.000000000000000e+00 0.000000000000000e+00
0.000000000000000e+00 0.000000000000000e+00 0.000000000000000e+00
0.000000000000000e+00 0.000000000000000e+00 0.000000000000000e+00
0.000000000000000e+00 0.000000000000000e+00 0.000000000000000e+00
0.000000000000000e+00 0.000000000000000e+00 0.000000000000000e+00
0.000000000000000e+00 0.000000000000000e+00 0.000000000000000e+00
0.000000000000000e+00 0.000000000000000e+00 0.000000000000000e+00
0.000000000000000e+00 0.000000000000000e+00 0.000000000000000e+00
0.000000000000000e+00 0.000000000000000e+00 0.000000000000000e+00
0.000000000000000e+00 0.000000000000000e+00 0.000000000000000e+00
0.000000000000000e+00 0.000000000000000e+00 0.000000000000000e+00
0.000000000000000e+00 0.000000000000000e+00 0.000000000000000e+00
0.000000000000000e+00 0.000000000000000e+00 0.000000000000000e+00
0.000000000000000e+00 0.000000000000000e+00 0.000000000000000e+00
0.000000000000000e+00 0.000000000000000e+00 0.000000000000000e+00
0.000000000000000e+00 0.000000000000000e+00 0.000000000000000e+00
0.000000000000000e+00 0.000000000000000e+00 0.000000000000000e+00
0.000000000000000e+00 0.000000000000000e+00 0.000000000000000e+00
0.000000000000000e+00 0.000000000000000e+00 0.000000000000000e+00
0.000000000000000e+00 0.000000000000000e+00 0.000000000000000e+00
0.000000000000000e+00 0.000000000000000e+00 0.000000000000000e+00
0.000000000000000e+00 0.000000000000000e+00 0.000000000000000e+00
0.000000000000000e+00 0.000000000000000e+00 0.000000000000000e+00
0.000000000000000e+00 0.000000000000000e+00 0.000000000000000e+00
0.000000000000000e+00 0.000000000000000e+00 0.000000000000000e+00
0.000000000000000e+00 0.000000000000000e+00 0.000000000000000e+00
0.000000000000000e+00 0.000000000000000e+00 0.000000000000000e+00
0.000000000000000e+00 0.000000000000000e+00 0.000000000000000e+00
0.000000000000000e+00 0.000000000000000e+00 0.000000000000000e+00
0.000000000000000e+00 0.000000000000000e+00 0.000000000000000e+00
0.000000000000000e+00 0.000000000000000e+00 0.000000000000000e+00
0.000000000000000e+00 0.000000000000000e+00 0.000000000000000e+00
0.000000000000000e+00 0.000000000000000e+00 0.000000000000000e+00
0.000000000000000e+00 0.000000000000000e+00 0.000000000000000e+00
0.000000000000000e+00 0.000000000000000e+00 0.000000000000000e+00
0.000000000000000e+00 0.000000000000000e+00 0.000000000000000e+00
0.000000000000000e+00 0.000000000000000e+00 0.000000000000000e+00
0.000000000000000e+00 0.000000000000000e+00 0.000000000000000e+00
0.000000000000000e+00 0.000000000000000e+00 0.000000000000000e+00
0.000000000000000e+00 0.000000000000000e+00 0.000000000000000e+00
0.000000000000000e+00 0.000000000000000e+00 0.000000000000000e+00
0.000000000000000e+00 0.000000000000000e+00 0.000000000000000e+00
0.000000000000000e+00 0.000000000000000e+00 0.000000000000000e+00
0.000000000000000e+00 0.000000000000000e+00 0.000000000000000e+00
0.000000000000000e+00 0.000000000000000e+00 0.000000000000000e+00
0.000000000000000e+00 0.000000000000000e+00 0.000000000000000e+00
0.000000000000000e+00 0.000000000000000e+00 0.000000000000000e+00
0.000000000000000e+00 0.000000000000000e+00 0.000000000000000e+00
0.000000000000000e+00 0.000000000000000e+00 0.000000000000000e+00
0.000000000000000e+00 0.000000000000000e+00 0.000000000000000e+00
0.000000000000000e+00 0.000000000000000e+00 0.000000000000000e+00
0.000000000000000e+00 0.000000000000000e+00 0.000000000000000e+00
0.000000000000000e+00 0.000000000000000e+00 0.000000000000000e+00
0.000000000000000e+00 0.000000000000000e+00 0.000000000000000e+00
0.000000000000000e+00 0.000000000000000e+00 0.000000000000000e+00
0.000000000000000e+00 0.000000000000000e+00 0.000000000000000e+00
0.000000000000000e+00 0.000000000000000e+00 0.000000000000000e+00
0.000000000000000e+00 0.000000000000000e+00 0.000000000000000e+00
0.000000000000000e+00 0.000000000000000e+00 0.000000000000000e+00
0.000000000000000e+00 0.000000000000000e+00 0.000000000000000e+00
0.000000000000000e+00 0.000000000000000e+00 0.000000000000000e+00
0.000000000000000e+00 0.000000000000000e+00 0.000000000000000e+00
0.000000000000000e+00 0.000000000000000e+00 0.000000000000000e+00
0.000000000000000e+00 0.000000000000000e+00 0.000000000000000e+00
0.000000000000000e+00 0.000000000000000e+00 0.000000000000000e+00
0.000000000000000e+00 0.000000000000000e+00 0.000000000000000e+00
0.000000000000000e+00 0.000000000000000e+00 0.000000000000000e+00
0.000000000000000e+00 0.000000000000000e+00 0.000000000000000e+00
0.000000000000000e+00 0.000000000000000e+00 0.000000000000000e+00
0.000000000000000e+00 0.000000000000000e+00 0.000000000000000e+00
0.000000000000000e+00 0.000000000000000e+00 0.000000000000000e+00
0.000000000000000e+00 0.000000000000000e+00 0.000000000000000e+00
0.000000000000000e+00 0.000000000000000e+00 0.000000000000000e+00
0.000000000000000e+00 0.000000000000000e+00 0.000000000000000e+00
0.000000000000000e+00 0.000000000000000e+00 0.000000000000000e+00
0.000000000000000e+00 0.000000000000000e+00 0.000000000000000e+00
0.000000000000000e+00 0.000000000000000e+00 0.000000000000000e+00
0.000000000000000e+00 0.000000000000000e+00 0.000000000000000e+00
0.000000000000000e+00 0.000000000000000e+00 0.000000000000000e+00
0.000000000000000e+00 0.000000000000000e+00 0.000000000000000e+00
0.000000000000000e+00 0.000000000000000e+00 0.000000000000000e+00
0.000000000000000e+00 0.000000000000000e+00 0.000000000000000e+00
0.000000000000000e+00 0.000000000000000e+00 0.000000000000000e+00
0.000000000000000e+00 0.000000000000000e+00 0.000000000000000e+00
0.000000000000000e+00 0.000000000000000e+00 0.000000000000000e+00
0.000000000000000e+00 0.000000000000000e+00 0.000000000000000e+00
0.000000000000000e+00 0.000000000000000e+00 0.000000000000000e+00
0.000000000000000e+00 0.000000000000000e+00 0.000000000000000e+00
0.000000000000000e+00 0.000000000000000e+00 0.000000000000000e+00
0.000000000000000e+00 0.000000000000000e+00 0.000000000000000e+00
0.000000000000000e+00 0.000000000000000e+00 0.000000000000000e+00
0.000000000000000e+00 0.000000000000000e+00 0.000000000000000e+00
0.000000000000000e+00 0.000000000000000e+00 0.000000000000000e+00
0.000000000000000e+00 0.000000000000000e+00 0.000000000000000e+00
0.000000000000000e+00 0.000000000000000e+00 0.000000000000000e+00
0.000000000000000e+00 0.000000000000000e+00 0.000000000000000e+00
0.000000000000000e+00 0.000000000000000e+00 0.000000000000000e+00
0.000000000000000e+00 0.000000000000000e+00 0.000000000000000e+00
0.000000000000000e+00 0.000000000000000e+00 0.000000000000000e+00
0.000000000000000e+00 0.000000000000000e+00 0.000000000000000e+00
0.000000000000000e+00 0.000000000000000e+00 0.000000000000000e+00
0.000000000000000e+00 0.000000000000000e+00 0.000000000000000e+00
0.000000000000000e+00 0.000000000000000e+00 0.000000000000000e+00
0.000000000000000e+00 0.000000000000000e+00 0.000000000000000e+00
0.000000000000000e+00 0.000000000000000e+00 0.000000000000000e+00
0.000000000000000e+00 0.000000000000000e+00 0.000000000000000e+00
0.000000000000000e+00 0.000000000000000e+00 0.000000000000000e+00
0.000000000000000e+00 0.000000000000000e+00 0.000000000000000e+00
0.000000000000000e+00 0.000000000000000e+00 0.000000000000000e+00
0.000000000000000e+00 0.000000000000000e+00 0.000000000000000e+00
0.000000000000000e+00 0.000000000000000e+00 0.000000000000000e+00
0.000000000000000e+00 0.000000000000000e+00 0.000000000000000e+00
0.000000000000000e+00 0.000000000000000e+00 0.000000000000000e+00
0.000000000000000e+00 0.000000000000000e+00 0.000000000000000e+00
0.000000000000000e+00 0.000000000000000e+00 0.000000000000000e+00
0.000000000000000e+00 0.000000000000000e+00 0.000000000000000e+00
0.000000000000000e+00 0.000000000000000e+00 0.000000000000000e+00
0.000000000000000e+00 0.000000000000000e+00 0.000000000000000e+00
0.000000000000000e+00 0.000000000000000e+00 0.000000000000000e+00
0.000000000000000e+00 0.000000000000000e+00 0.000000000000000e+00
0.000000000000000e+00 0.000000000000000e+00 0.000000000000000e+00
0.000000000000000e+00 0.000000000000000e+00 0.000000000000000e+00
0.000000000000000e+00 0.000000000000000e+00 0.000000000000000e+00
0.000000000000000e+00 0.000000000000000e+00 0.000000000000000e+00
0.000000000000000e+00 0.000000000000000e+00 0.000000000000000e+00
0.000000000000000e+00 0.000000000000000e+00 0.000000000000000e+00
0.000000000000000e+00 0.000000000000000e+00 0.000000000000000e+00
0.000000000000000e+00 0.000000000000000e+00 0.000000000000000e+00
0.000000000000000e+00 0.000000000000000e+00 0.000000000000000e+00
0.000000000000000e+00 0.000000000000000e+00 0.000000000000000e+00
0.000000000000000e+00 0.000000000000000e+00 0.000000000000000e+00
0.000000000000000e+00 0.000000000000000e+00 0.000000000000000e+00
0.000000000000000e+00 0.000000000000000e+00 0.000000000000000e+00
0.000000000000000e+00 0.000000000000000e+00 0.000000000000000e+00
0.000000000000000e+00 0.000000000000000e+00 0.000000000000000e+00
0.000000000000000e+00 0.000000000000000e+00 0.000000000000000e+00
0.000000000000000e+00 0.000000000000000e+00 0.000000000000000e+00
0.000000000000000e+00 0.000000000000000e+00 0.000000000000000e+00
0.000000000000000e+00 0.000000000000000e+00 0.000000000000000e+00
0.000000000000000e+00 0.000000000000000e+00 0.000000000000000e+00
0.000000000000000e+00 0.000000000000000e+00 0.000000000000000e+00
0.000000000000000e+00 0.000000000000000e+00 0.000000000000000e+00
0.000000000000000e+00 0.000000000000000e+00 0.000000000000000e+00
0.000000000000000e+00 0.000000000000000e+00 0.000000000000000e+00
0.000000000000000e+00 0.000000000000000e+00 0.000000000000000e+00
0.000000000000000e+00 0.000000000000000e+00 0.000000000000000e+00
0.000000000000000e+00 0.000000000000000e+00 0.000000000000000e+00
0.000000000000000e+00 0.000000000000000e+00 0.000000000000000e+00
0.000000000000000e+00 0.000000000000000e+00 0.000000000000000e+00
0.000000000000000e+00 0.000000000000000e+00 0.000000000000000e+00
0.000000000000000e+00 0.000000000000000e+00 0.000000000000000e+00
0.000000000000000e+00 0.000000000000000e+00 0.000000000000000e+00
0.000000000000000e+00 0.000000000000000e+00 0.000000000000000e+00
0.000000000000000e+00 0.000000000000000e+00 0.000000000000000e+00
0.000000000000000e+00 0.000000000000000e+00 0.000000000000000e+00
0.000000000000000e+00 0.000000000000000e+00 0.000000000000000e+00
0.000000000000000e+00 0.000000000000000e+00 0.000000000000000e+00
0.000000000000000e+00 0.000000000000000e+00 0.000000000000000e+00
0.000000000000000e+00 0.000000000000000e+00 0.000000000000000e+00
0.000000000000000e+00 0.000000000000000e+00 0.000000000000000e+00
0.000000000000000e+00 0.000000000000000e+00 0.000000000000000e+00
0.000000000000000e+00 0.000000000000000e+00 0.000000000000000e+00
0.000000000000000e+00 0.000000000000000e+00 0.000000000000000e+00
0.000000000000000e+00 0.000000000000000e+00 0.000000000000000e+00
0.000000000000000e+00 0.000000000000000e+00 0.000000000000000e+00
0.000000000000000e+00 0.000000000000000e+00 0.000000000000000e+00
0.000000000000000e+00 0.000000000000000e+00 0.000000000000000e+00
0.000000000000000e+00 0.000000000000000e+00 0.000000000000000e+00
0.000000000000000e+00 0.000000000000000e+00 0.000000000000000e+00
0.000000000000000e+00 0.000000000000000e+00 0.000000000000000e+00
0.000000000000000e+00 0.000000000000000e+00 0.000000000000000e+00
0.000000000000000e+00 0.000000000000000e+00 0.000000000000000e+00
0.000000000000000e+00 0.000000000000000e+00 0.000000000000000e+00
0.000000000000000e+00 0.000000000000000e+00 0.000000000000000e+00
0.000000000000000e+00 0.000000000000000e+00 0.000000000000000e+00
0.000000000000000e+00 0.000000000000000e+00 0.000000000000000e+00
0.000000000000000e+00 0.000000000000000e+00 0.000000000000000e+00
0.000000000000000e+00 0.000000000000000e+00 0.000000000000000e+00
0.000000000000000e+00 0.000000000000000e+00 0.000000000000000e+00
0.000000000000000e+00 0.000000000000000e+00 0.000000000000000e+00
0.000000000000000e+00 0.000000000000000e+00 0.000000000000000e+00
0.000000000000000e+00 0.000000000000000e+00 0.000000000000000e+00
0.000000000000000e+00 0.000000000000000e+00 0.000000000000000e+00
0.000000000000000e+00 0.000000000000000e+00 0.000000000000000e+00
0.000000000000000e+00 0.000000000000000e+00 0.000000000000000e+00
0.000000000000000e+00 0.000000000000000e+00 0.000000000000000e+00
0.000000000000000e+00 0.000000000000000e+00 0.000000000000000e+00
0.000000000000000e+00 0.000000000000000e+00 0.000000000000000e+00
0.000000000000000e+00 0.000000000000000e+00 0.000000000000000e+00
0.000000000000000e+00 0.000000000000000e+00 0.000000000000000e+00
0.000000000000000e+00 0.000000000000000e+00 0.000000000000000e+00
0.000000000000000e+00 0.000000000000000e+00 0.000000000000000e+00
0.000000000000000e+00 0.000000000000000e+00 0.000000000000000e+00
0.000000000000000e+00 0.000000000000000e+00 0.000000000000000e+00
0.000000000000000e+00 0.000000000000000e+00 0.000000000000000e+00
0.000000000000000e+00 0.000000000000000e+00 0.000000000000000e+00
0.000000000000000e+00 0.000000000000000e+00 0.000000000000000e+00
0.000000000000000e+00 0.000000000000000e+00 0.000000000000000e+00
0.000000000000000e+00 0.000000000000000e+00 0.000000000000000e+00
0.000000000000000e+00 0.000000000000000e+00 0.000000000000000e+00
0.000000000000000e+00 0.000000000000000e+00 0.000000000000000e+00
0.000000000000000e+00 0.000000000000000e+00 0.000000000000000e+00
0.000000000000000e+00 0.000000000000000e+00 0.000000000000000e+00
0.000000000000000e+00 0.000000000000000e+00 0.000000000000000e+00
0.000000000000000e+00 0.000000000000000e+00 0.000000000000000e+00
0.000000000000000e+00 0.000000000000000e+00 0.000000000000000e+00
0.000000000000000e+00 0.000000000000000e+00 0.000000000000000e+00
0.000000000000000e+00 0.000000000000000e+00 0.000000000000000e+00
0.000000000000000e+00 0.000000000000000e+00 0.000000000000000e+00
0.000000000000000e+00 0.000000000000000e+00 0.000000000000000e+00
0.000000000000000e+00 0.000000000000000e+00 0.000000000000000e+00
0.000000000000000e+00 0.000000000000000e+00 0.000000000000000e+00
0.000000000000000e+00 0.000000000000000e+00 0.000000000000000e+00
0.000000000000000e+00 0.000000000000000e+00 0.000000000000000e+00
0.000000000000000e+00 0.000000000000000e+00 0.000000000000000e+00
0.000000000000000e+00 0.000000000000000e+00 0.000000000000000e+00
0.000000000000000e+00 0.000000000000000e+00 0.000000000000000e+00
0.000000000000000e+00 0.000000000000000e+00 0.000000000000000e+00
0.000000000000000e+00 0.000000000000000e+00 0.000000000000000e+00
0.000000000000000e+00 0.000000000000000e+00 0.000000000000000e+00
0.000000000000000e+00 0.000000000000000e+00 0.000000000000000e+00
0.000000000000000e+00 0.000000000000000e+00 0.000000000000000e+00
0.000000000000000e+00 0.000000000000000e+00 0.000000000000000e+00
0.000000000000000e+00 0.000000000000000e+00 0.000000000000000e+00
0.000000000000000e+00 0.000000000000000e+00 0.000000000000000e+00
0.000000000000000e+00 0.000000000000000e+00 0.000000000000000e+00
0.000000000000000e+00 0.000000000000000e+00 0.000000000000000e+00
0.000000000000000e+00 0.000000000000000e+00 0.000000000000000e+00
0.000000000000000e+00 0.000000000000000e+00 0.000000000000000e+00
0.000000000000000e+00 0.000000000000000e+00 0.000000000000000e+00
0.000000000000000e+00 0.000000000000000e+00 0.000000000000000e+00
0.000000000000000e+00 0.000000000000000e+00 0.000000000000000e+00
0.000000000000000e+00 0.000000000000000e+00 0.000000000000000e+00
0.000000000000000e+00 0.000000000000000e+00 0.000000000000000e+00
0.000000000000000e+00 0.000000000000000e+00 0.000000000000000e+00
0.000000000000000e+00 0.000000000000000e+00 0.000000000000000e+00
0.000000000000000e+00 0.000000000000000e+00 0.000000000000000e+00
0.000000000000000e+00 0.000000000000000e+00 0.000000000000000e+00
0.000000000000000e+00 0.000000000000000e+00 0.000000000000000e+00
0.000000000000000e+00 0.000000000000000e+00 0.000000000000000e+00
0.000000000000000e+00 0.000000000000000e+00 0.000000000000000e+00
0.000000000000000e+00 0.000000000000000e+00 0.000000000000000e+00
0.000000000000000e+00 0.000000000000000e+00 0.000000000000000e+00
0.000000000000000e+00 0.000000000000000e+00 0.000000000000000e+00
0.000000000000000e+00 0.000000000000000e+00 0.000000000000000e+00
0.000000000000000e+00 0.000000000000000e+00 0.000000000000000e+00
0.000000000000000e+00 0.000000000000000e+00 0.000000000000000e+00
0.000000000000000e+00 0.000000000000000e+00 0.000000000000000e+00
0.000000000000000e+00 0.000000000000000e+00 0.000000000000000e+00
0.000000000000000e+00 0.000000000000000e+00 0.000000000000000e+00
0.000000000000000e+00 0.000000000000000e+00 0.000000000000000e+00
0.000000000000000e+00 0.000000000000000e+00 0.000000000000000e+00
0.000000000000000e+00 0.000000000000000e+00 0.000000000000000e+00
0.000000000000000e+00 0.000000000000000e+00 0.000000000000000e+00
0.000000000000000e+00 0.000000000000000e+00 0.000000000000000e+00
0.000000000000000e+00 0.000000000000000e+00 0.000000000000000e+00
0.000000000000000e+00 0.000000000000000e+00 0.000000000000000e+00
0.000000000000000e+00 0.000000000000000e+00 0.000000000000000e+00
0.000000000000000e+00 0.000000000000000e+00 0.000000000000000e+00
0.000000000000000e+00 0.000000000000000e+00 0.000000000000000e+00
0.000000000000000e+00 0.000000000000000e+00 0.000000000000000e+00
0.000000000000000e+00 0.000000000000000e+00 0.000000000000000e+00
0.000000000000000e+00 0.000000000000000e+00 0.000000000000000e+00
0.000000000000000e+00 0.000000000000000e+00 0.000000000000000e+00
0.000000000000000e+00 0.000000000000000e+00 0.000000000000000e+00
0.000000000000000e+00 0.000000000000000e+00 0.000000000000000e+00
0.000000000000000e+00 0.000000000000000e+00 0.000000000000000e+00
0.000000000000000e+00 0.000000000000000e+00 0.000000000000000e+00
0.000000000000000e+00 0.000000000000000e+00 0.000000000000000e+00
0.000000000000000e+00 0.000000000000000e+00 0.000000000000000e+00
0.000000000000000e+00 0.000000000000000e+00 0.000000000000000e+00
0.000000000000000e+00 0.000000000000000e+00 0.000000000000000e+00
0.000000000000000e+00 0.000000000000000e+00 0.000000000000000e+00
0.000000000000000e+00 0.000000000000000e+00 0.000000000000000e+00
0.000000000000000e+00 0.000000000000000e+00 0.000000000000000e+00
0.000000000000000e+00 0.000000000000000e+00 0.000000000000000e+00
0.000000000000000e+00 0.000000000000000e+00 0.000000000000000e+00
0.000000000000000e+00 0.000000000000000e+00 0.000000000000000e+00
0.000000000000000e+00 0.000000000000000e+00 0.000000000000000e+00
0.000000000000000e+00 0.000000000000000e+00 0.000000000000000e+00
0.000000000000000e+00 0.000000000000000e+00 0.000000000000000e+00
0.000000000000000e+00 0.000000000000000e+00 0.000000000000000e+00
0.000000000000000e+00 0.000000000000000e+00 0.000000000000000e+00
0.000000000000000e+00 0.000000000000000e+00 0.000000000000000e+00
0.000000000000000e+00 0.000000000000000e+00 0.000000000000000e+00
0.000000000000000e+00 0.000000000000000e+00 0.000000000000000e+00
0.000000000000000e+00 0.000000000000000e+00 0.000000000000000e+00
0.000000000000000e+00 0.000000000000000e+00 0.000000000000000e+00
0.000000000000000e+00 0.000000000000000e+00 0.000000000000000e+00
0.000000000000000e+00 0.000000000000000e+00 0.000000000000000e+00
0.000000000000000e+00 0.000000000000000e+00 0.000000000000000e+00
0.000000000000000e+00 0.000000000000000e+00 0.000000000000000e+00
0.000000000000000e+00 0.000000000000000e+00 0.000000000000000e+00
0.000000000000000e+00 0.000000000000000e+00 0.000000000000000e+00
0.000000000000000e+00 0.000000000000000e+00 0.000000000000000e+00
0.000000000000000e+00 0.000000000000000e+00 0.000000000000000e+00
0.000000000000000e+00 0.000000000000000e+00 0.000000000000000e+00
0.000000000000000e+00 0.000000000000000e+00 0.000000000000000e+00
0.000000000000000e+00 0.000000000000000e+00 0.000000000000000e+00
0.000000000000000e+00 0.000000000000000e+00 0.000000000000000e+00
0.000000000000000e+00 0.000000000000000e+00 0.000000000000000e+00
0.000000000000000e+00 0.000000000000000e+00 0.000000000000000e+00
0.000000000000000e+00 0.000000000000000e+00 0.000000000000000e+00
0.000000000000000e+00 0.000000000000000e+00 0.000000000000000e+00
0.000000000000000e+00 0.000000000000000e+00 0.000000000000000e+00
0.000000000000000e+00 0.000000000000000e+00 0.000000000000000e+00
0.000000000000000e+00 0.000000000000000e+00 0.000000000000000e+00
0.000000000000000e+00 0.000000000000000e+00 0.000000000000000e+00
0.000000000000000e+00 0.000000000000000e+00 0.000000000000000e+00
0.000000000000000e+00 0.000000000000000e+00 0.000000000000000e+00
0.000000000000000e+00 0.000000000000000e+00 0.000000000000000e+00
0.000000000000000e+00 0.000000000000000e+00 0.000000000000000e+00
0.000000000000000e+00 0.000000000000000e+00 0.000000000000000e+00
0.000000000000000e+00 0.000000000000000e+00 0.000000000000000e+00
0.000000000000000e+00 0.000000000000000e+00 0.000000000000000e+00
0.000000000000000e+00 0.000000000000000e+00 0.000000000000000e+00
0.000000000000000e+00 0.000000000000000e+00 0.000000000000000e+00
0.000000000000000e+00 0.000000000000000e+00 0.000000000000000e+00
0.000000000000000e+00 0.000000000000000e+00 0.000000000000000e+00
0.000000000000000e+00 0.000000000000000e+00 0.000000000000000e+00
0.000000000000000e+00 0.000000000000000e+00 0.000000000000000e+00
0.000000000000000e+00 0.000000000000000e+00 0.000000000000000e+00
0.000000000000000e+00 0.000000000000000e+00 0.000000000000000e+00
0.000000000000000e+00 0.000000000000000e+00 0.000000000000000e+00
0.000000000000000e+00 0.000000000000000e+00 0.000000000000000e+00
0.000000000000000e+00 0.000000000000000e+00 0.000000000000000e+00
0.000000000000000e+00 0.000000000000000e+00 0.000000000000000e+00
0.000000000000000e+00 0.000000000000000e+00 0.000000000000000e+00
0.000000000000000e+00 0.000000000000000e+00 0.000000000000000e+00
0.000000000000000e+00 0.000000000000000e+00 0.000000000000000e+00
0.000000000000000e+00 0.000000000000000e+00 0.000000000000000e+00
0.000000000000000e+00 0.000000000000000e+00 0.000000000000000e+00
0.000000000000000e+00 0.000000000000000e+00 0.000000000000000e+00
0.000000000000000e+00 0.000000000000000e+00 0.000000000000000e+00
0.000000000000000e+00 0.000000000000000e+00 0.000000000000000e+00
0.000000000000000e+00 0.000000000000000e+00 0.000000000000000e+00
0.000000000000000e+00 0.000000000000000e+00 0.000000000000000e+00
0.000000000000000e+00 0.000000000000000e+00 0.000000000000000e+00
0.000000000000000e+00 0.000000000000000e+00 0.000000000000000e+00
0.000000000000000e+00 0.000000000000000e+00 0.000000000000000e+00
0.000000000000000e+00 0.000000000000000e+00 0.000000000000000e+00
0.000000000000000e+00 0.000000000000000e+00 0.000000000000000e+00
0.000000000000000e+00 0.000000000000000e+00 0.000000000000000e+00
0.000000000000000e+00 0.000000000000000e+00 0.000000000000000e+00
0.000000000000000e+00 0.000000000000000e+00 0.000000000000000e+00
0.000000000000000e+00 0.000000000000000e+00 0.000000000000000e+00
0.000000000000000e+00 0.000000000000000e+00 0.000000000000000e+00
0.000000000000000e+00 0.000000000000000e+00 0.000000000000000e+00
0.000000000000000e+00 0.000000000000000e+00 0.000000000000000e+00
0.000000000000000e+00 0.000000000000000e+00 0.000000000000000e+00
0.000000000000000e+00 0.000000000000000e+00 0.000000000000000e+00
0.000000000000000e+00 0.000000000000000e+00 0.000000000000000e+00
0.000000000000000e+00 0.000000000000000e+00 0.000000000000000e+00
0.000000000000000e+00 0.000000000000000e+00 0.000000000000000e+00
0.000000000000000e+00 0.000000000000000e+00 0.000000000000000e+00
0.000000000000000e+00 0.000000000000000e+00 0.000000000000000e+00
0.000000000000000e+00 0.000000000000000e+00 0.000000000000000e+00
0.000000000000000e+00 0.000000000000000e+00 0.000000000000000e+00
0.000000000000000e+00 0.000000000000000e+00 0.000000000000000e+00
0.000000000000000e+00 0.000000000000000e+00 0.000000000000000e+00
0.000000000000000e+00 0.000000000000000e+00 0.000000000000000e+00
0.000000000000000e+00 0.000000000000000e+00 0.000000000000000e+00
0.000000000000000e+00 0.000000000000000e+00 0.000000000000000e+00
0.000000000000000e+00 0.000000000000000e+00 0.000000000000000e+00
0.000000000000000e+00 0.000000000000000e+00 0.000000000000000e+00
0.000000000000000e+00 0.000000000000000e+00 0.000000000000000e+00
0.000000000000000e+00 0.000000000000000e+00 0.000000000000000e+00
0.000000000000000e+00 0.000000000000000e+00 0.000000000000000e+00
0.000000000000000e+00 0.000000000000000e+00 0.000000000000000e+00
0.000000000000000e+00 0.000000000000000e+00 0.000000000000000e+00
0.000000000000000e+00 0.000000000000000e+00 0.000000000000000e+00
0.000000000000000e+00 0.000000000000000e+00 0.000000000000000e+00
0.000000000000000e+00 0.000000000000000e+00 0.000000000000000e+00
0.000000000000000e+00 0.000000000000000e+00 0.000000000000000e+00
0.000000000000000e+00 0.000000000000000e+00 0.000000000000000e+00
0.000000000000000e+00 0.000000000000000e+00 0.000000000000000e+00
0.000000000000000e+00 0.000000000000000e+00 0.000000000000000e+00
0.000000000000000e+00 0.000000000000000e+00 0.000000000000000e+00
0.000000000000000e+00 0.000000000000000e+00 0.000000000000000e+00
0.000000000000000e+00 0.000000000000000e+00 0.000000000000000e+00
0.000000000000000e+00 0.000000000000000e+00 0.000000000000000e+00
0.000000000000000e+00 0.000000000000000e+00 0.000000000000000e+00
0.000000000000000e+00 0.000000000000000e+00 0.000000000000000e+00
0.000000000000000e+00 0.000000000000000e+00 0.000000000000000e+00
0.000000000000000e+00 0.000000000000000e+00 0.000000000000000e+00
0.000000000000000e+00 0.000000000000000e+00 0.000000000000000e+00
0.000000000000000e+00 0.000000000000000e+00 0.000000000000000e+00
0.000000000000000e+00 0.000000000000000e+00 0.000000000000000e+00
0.000000000000000e+00 0.000000000000000e+00 0.000000000000000e+00
0.000000000000000e+00 0.000000000000000e+00 0.000000000000000e+00
0.000000000000000e+00 0.000000000000000e+00 0.000000000000000e+00
0.000000000000000e+00 0.000000000000000e+00 0.000000000000000e+00
0.000000000000000e+00 0.000000000000000e+00 0.000000000000000e+00
0.000000000000000e+00 0.000000000000000e+00 0.000000000000000e+00
0.000000000000000e+00 0.000000000000000e+00 0.000000000000000e+00
0.000000000000000e+00 0.000000000000000e+00 0.000000000000000e+00
0.000000000000000e+00 0.000000000000000e+00 0.000000000000000e+00
0.000000000000000e+00 0.000000000000000e+00 0.000000000000000e+00
0.000000000000000e+00 0.000000000000000e+00 0.000000000000000e+00
0.000000000000000e+00 0.000000000000000e+00 0.000000000000000e+00
0.000000000000000e+00 0.000000000000000e+00 0.000000000000000e+00
0.000000000000000e+00 0.000000000000000e+00 0.000000000000000e+00
0.000000000000000e+00 0.000000000000000e+00 0.000000000000000e+00
0.000000000000000e+00 0.000000000000000e+00 0.000000000000000e+00
0.000000000000000e+00 0.000000000000000e+00 0.000000000000000e+00
0.000000000000000e+00 0.000000000000000e+00 0.000000000000000e+00
0.000000000000000e+00 0.000000000000000e+00 0.000000000000000e+00
0.000000000000000e+00 0.000000000000000e+00 0.000000000000000e+00
0.000000000000000e+00 0.000000000000000e+00 0.000000000000000e+00
0.000000000000000e+00 0.000000000000000e+00 0.000000000000000e+00
0.000000000000000e+00 0.000000000000000e+00 0.000000000000000e+00
0.000000000000000e+00 0.000000000000000e+00 0.000000000000000e+00
0.000000000000000e+00 0.000000000000000e+00 0.000000000000000e+00
0.000000000000000e+00 0.000000000000000e+00 0.000000000000000e+00
0.000000000000000e+00 0.000000000000000e+00 0.000000000000000e+00
0.000000000000000e+00 0.000000000000000e+00 0.000000000000000e+00
0.000000000000000e+00 0.000000000000000e+00 0.000000000000000e+00
0.000000000000000e+00 0.000000000000000e+00 0.000000000000000e+00
0.000000000000000e+00 0.000000000000000e+00 0.000000000000000e+00
0.000000000000000e+00 0.000000000000000e+00 0.000000000000000e+00
0.000000000000000e+00 0.000000000000000e+00 0.000000000000000e+00
0.000000000000000e+00 0.000000000000000e+00 0.000000000000000e+00
0.000000000000000e+00 0.000000000000000e+00 0.000000000000000e+00
0.000000000000000e+00 0.000000000000000e+00 0.000000000000000e+00
0.000000000000000e+00 0.000000000000000e+00 0.000000000000000e+00
0.000000000000000e+00 0.000000000000000e+00 0.000000000000000e+00
0.000000000000000e+00 0.000000000000000e+00 0.000000000000000e+00
0.000000000000000e+00 0.000000000000000e+00 0.000000000000000e+00
0.000000000000000e+00 0.000000000000000e+00 0.000000000000000e+00
0.000000000000000e+00 0.000000000000000e+00 0.000000000000000e+00
0.000000000000000e+00 0.000000000000000e+00 0.000000000000000e+00
0.000000000000000e+00 0.000000000000000e+00 0.000000000000000e+00
0.000000000000000e+00 0.000000000000000e+00 0.000000000000000e+00
0.000000000000000e+00 0.000000000000000e+00 0.000000000000000e+00
0.000000000000000e+00 0.000000000000000e+00 0.000000000000000e+00
0.000000000000000e+00 0.000000000000000e+00 0.000000000000000e+00
0.000000000000000e+00 0.000000000000000e+00 0.000000000000000e+00
0.000000000000000e+00 0.000000000000000e+00 0.000000000000000e+00
0.000000000000000e+00 0.000000000000000e+00 0.000000000000000e+00
0.000000000000000e+00 0.000000000000000e+00 0.000000000000000e+00
0.000000000000000e+00 0.000000000000000e+00 0.000000000000000e+00
0.000000000000000e+00 0.000000000000000e+00 0.000000000000000e+00
0.000000000000000e+00 0.000000000000000e+00 0.000000000000000e+00
0.000000000000000e+00 0.000000000000000e+00 0.000000000000000e+00
0.000000000000000e+00 0.000000000000000e+00 0.000000000000000e+00
0.000000000000000e+00 0.000000000000000e+00 0.000000000000000e+00
0.000000000000000e+00 0.000000000000000e+00 0.000000000000000e+00
0.000000000000000e+00 0.000000000000000e+00 0.000000000000000e+00
0.000000000000000e+00 0.000000000000000e+00 0.000000000000000e+00
0.000000000000000e+00 0.000000000000000e+00 0.000000000000000e+00
0.000000000000000e+00 0.000000000000000e+00 0.000000000000000e+00
0.000000000000000e+00 0.000000000000000e+00 0.000000000000000e+00
0.000000000000000e+00 0.000000000000000e+00 0.000000000000000e+00
0.000000000000000e+00 0.000000000000000e+00 0.000000000000000e+00
0.000000000000000e+00 0.000000000000000e+00 0.000000000000000e+00
0.000000000000000e+00 0.000000000000000e+00 0.000000000000000e+00
0.000000000000000e+00 0.000000000000000e+00 0.000000000000000e+00
0.000000000000000e+00 0.000000000000000e+00 0.000000000000000e+00
0.000000000000000e+00 0.000000000000000e+00 0.000000000000000e+00
0.000000000000000e+00 0.000000000000000e+00 0.000000000000000e+00
0.000000000000000e+00 0.000000000000000e+00 0.000000000000000e+00
0.000000000000000e+00 0.000000000000000e+00 0.000000000000000e+00
0.000000000000000e+00 0.000000000000000e+00 0.000000000000000e+00
0.000000000000000e+00 0.000000000000000e+00 0.000000000000000e+00
0.000000000000000e+00 0.000000000000000e+00 0.000000000000000e+00
0.000000000000000e+00 0.000000000000000e+00 0.000000000000000e+00
0.000000000000000e+00 0.000000000000000e+00 0.000000000000000e+00
0.000000000000000e+00 0.000000000000000e+00 0.000000000000000e+00
0.000000000000000e+00 0.000000000000000e+00 0.000000000000000e+00
0.000000000000000e+00 0.000000000000000e+00 0.000000000000000e+00
0.000000000000000e+00 0.000000000000000e+00 0.000000000000000e+00
0.000000000000000e+00 0.000000000000000e+00 0.000000000000000e+00
0.000000000000000e+00 0.000000000000000e+00 0.000000000000000e+00
0.000000000000000e+00 0.000000000000000e+00 0.000000000000000e+00
0.000000000000000e+00 0.000000000000000e+00 0.000000000000000e+00
0.000000000000000e+00 0.000000000000000e+00 0.000000000000000e+00
0.000000000000000e+00 0.000000000000000e+00 0.000000000000000e+00
0.000000000000000e+00 0.000000000000000e+00 0.000000000000000e+00
0.000000000000000e+00 0.000000000000000e+00 0.000000000000000e+00
0.000000000000000e+00 0.000000000000000e+00 0.000000000000000e+00
0.000000000000000e+00 0.000000000000000e+00 0.000000000000000e+00
0.000000000000000e+00 0.000000000000000e+00 0.000000000000000e+00
0.000000000000000e+00 0.000000000000000e+00 0.000000000000000e+00
0.000000000000000e+00 0.000000000000000e+00 0.000000000000000e+00
0.000000000000000e+00 0.000000000000000e+00 0.000000000000000e+00
0.000000000000000e+00 0.000000000000000e+00 0.000000000000000e+00
0.000000000000000e+00 0.000000000000000e+00 0.000000000000000e+00
0.000000000000000e+00 0.000000000000000e+00 0.000000000000000e+00
0.000000000000000e+00 0.000000000000000e+00 0.000000000000000e+00
0.000000000000000e+00 0.000000000000000e+00 0.000000000000000e+00
0.000000000000000e+00 0.000000000000000e+00 0.000000000000000e+00
0.000000000000000e+00 0.000000000000000e+00 0.000000000000000e+00
0.000000000000000e+00 0.000000000000000e+00 0.000000000000000e+00
0.000000000000000e+00 0.000000000000000e+00 0.000000000000000e+00
0.000000000000000e+00 0.000000000000000e+00 0.000000000000000e+00
0.000000000000000e+00 0.000000000000000e+00 0.000000000000000e+00
0.000000000000000e+00 0.000000000000000e+00 0.000000000000000e+00
0.000000000000000e+00 0.000000000000000e+00 0.000000000000000e+00
0.000000000000000e+00 0.000000000000000e+00 0.000000000000000e+00
0.000000000000000e+00 0.000000000000000e+00 0.000000000000000e+00
0.000000000000000e+00 0.000000000000000e+00 0.000000000000000e+00
0.000000000000000e+00 0.000000000000000e+00 0.000000000000000e+00
0.000000000000000e+00 0.000000000000000e+00 0.000000000000000e+00
0.000000000000000e+00 0.000000000000000e+00 0.000000000000000e+00
0.000000000000000e+00 0.000000000000000e+00 0.000000000000000e+00
0.000000000000000e+00 0.000000000000000e+00 0.000000000000000e+00
0.000000000000000e+00 0.000000000000000e+00 0.000000000000000e+00
0.000000000000000e+00 0.000000000000000e+00 0.000000000000000e+00
0.000000000000000e+00 0.000000000000000e+00 0.000000000000000e+00
0.000000000000000e+00 0.000000000000000e+00 0.000000000000000e+00
0.000000000000000e+00 0.000000000000000e+00 0.000000000000000e+00
0.000000000000000e+00 0.000000000000000e+00 0.000000000000000e+00
0.000000000000000e+00 0.000000000000000e+00 0.000000000000000e+00
0.000000000000000e+00 0.000000000000000e+00 0.000000000000000e+00
0.000000000000000e+00 0.000000000000000e+00 0.000000000000000e+00
0.000000000000000e+00 0.000000000000000e+00 0.000000000000000e+00
0.000000000000000e+00 0.000000000000000e+00 0.000000000000000e+00
0.000000000000000e+00 0.000000000000000e+00 0.000000000000000e+00
0.000000000000000e+00 0.000000000000000e+00 0.000000000000000e+00
0.000000000000000e+00 0.000000000000000e+00 0.000000000000000e+00
0.000000000000000e+00 0.000000000000000e+00 0.000000000000000e+00
0.000000000000000e+00 0.000000000000000e+00 0.000000000000000e+00
0.000000000000000e+00 0.000000000000000e+00 0.000000000000000e+00
0.000000000000000e+00 0.000000000000000e+00 0.000000000000000e+00
0.000000000000000e+00 0.000000000000000e+00 0.000000000000000e+00
0.000000000000000e+00 0.000000000000000e+00 0.000000000000000e+00
0.000000000000000e+00 0.000000000000000e+00 0.000000000000000e+00
0.000000000000000e+00 0.000000000000000e+00 0.000000000000000e+00
0.000000000000000e+00 0.000000000000000e+00 0.000000000000000e+00
0.000000000000000e+00 0.000000000000000e+00 0.000000000000000e+00
0.000000000000000e+00 0.000000000000000e+00 0.000000000000000e+00
0.000000000000000e+00 0.000000000000000e+00 0.000000000000000e+00
0.000000000000000e+00 0.000000000000000e+00 0.000000000000000e+00
0.000000000000000e+00 0.000000000000000e+00 0.000000000000000e+00
0.000000000000000e+00 0.000000000000000e+00 0.000000000000000e+00
0.000000000000000e+00 0.000000000000000e+00 0.000000000000000e+00
0.000000000000000e+00 0.000000000000000e+00 0.000000000000000e+00
0.000000000000000e+00 0.000000000000000e+00 0.000000000000000e+00
0.000000000000000e+00 0.000000000000000e+00 0.000000000000000e+00
0.000000000000000e+00 0.000000000000000e+00 0.000000000000000e+00
0.000000000000000e+00 0.000000000000000e+00 0.000000000000000e+00
0.000000000000000e+00 0.000000000000000e+00 0.000000000000000e+00
0.000000000000000e+00 0.000000000000000e+00 0.000000000000000e+00
0.000000000000000e+00 0.000000000000000e+00 0.000000000000000e+00
0.000000000000000e+00 0.000000000000000e+00 0.000000000000000e+00
0.000000000000000e+00 0.000000000000000e+00 0.000000000000000e+00
0.000000000000000e+00 0.000000000000000e+00 0.000000000000000e+00
0.000000000000000e+00 0.000000000000000e+00 0.000000000000000e+00
0.000000000000000e+00 0.000000000000000e+00 0.000000000000000e+00
0.000000000000000e+00 0.000000000000000e+00 0.000000000000000e+00
0.000000000000000e+00 0.000000000000000e+00 0.000000000000000e+00
0.000000000000000e+00 0.000000000000000e+00 0.000000000000000e+00
0.000000000000000e+00 0.000000000000000e+00 0.000000000000000e+00
0.000000000000000e+00 0.000000000000000e+00 0.000000000000000e+00
0.000000000000000e+00 0.000000000000000e+00 0.000000000000000e+00
0.000000000000000e+00 0.000000000000000e+00 0.000000000000000e+00
0.000000000000000e+00 0.000000000000000e+00 0.000000000000000e+00
0.000000000000000e+00 0.000000000000000e+00 0.000000000000000e+00
0.000000000000000e+00 0.000000000000000e+00 0.000000000000000e+00
0.000000000000000e+00 0.000000000000000e+00 0.000000000000000e+00
0.000000000000000e+00 0.000000000000000e+00 0.000000000000000e+00
0.000000000000000e+00 0.000000000000000e+00 0.000000000000000e+00
0.000000000000000e+00 0.000000000000000e+00 0.000000000000000e+00
0.000000000000000e+00 0.000000000000000e+00 0.000000000000000e+00
0.000000000000000e+00 0.000000000000000e+00 0.000000000000000e+00
0.000000000000000e+00 0.000000000000000e+00 0.000000000000000e+00
0.000000000000000e+00 0.000000000000000e+00 0.000000000000000e+00
0.000000000000000e+00 0.000000000000000e+00 0.000000000000000e+00
0.000000000000000e+00 0.000000000000000e+00 0.000000000000000e+00
0.000000000000000e+00 0.000000000000000e+00 0.000000000000000e+00
0.000000000000000e+00 0.000000000000000e+00 0.000000000000000e+00
0.000000000000000e+00 0.000000000000000e+00 0.000000000000000e+00
0.000000000000000e+00 0.000000000000000e+00 0.000000000000000e+00
0.000000000000000e+00 0.000000000000000e+00 0.000000000000000e+00
0.000000000000000e+00 0.000000000000000e+00 0.000000000000000e+00
0.000000000000000e+00 0.000000000000000e+00 0.000000000000000e+00
0.000000000000000e+00 0.000000000000000e+00 0.000000000000000e+00
0.000000000000000e+00 0.000000000000000e+00 0.000000000000000e+00
0.000000000000000e+00 0.000000000000000e+00 0.000000000000000e+00
0.000000000000000e+00 0.000000000000000e+00 0.000000000000000e+00
0.000000000000000e+00 0.000000000000000e+00 0.000000000000000e+00
0.000000000000000e+00 0.000000000000000e+00 0.000000000000000e+00
0.000000000000000e+00 0.000000000000000e+00 0.000000000000000e+00
0.000000000000000e+00 0.000000000000000e+00 0.000000000000000e+00
0.000000000000000e+00 0.000000000000000e+00 0.000000000000000e+00
0.000000000000000e+00 0.000000000000000e+00 0.000000000000000e+00
0.000000000000000e+00 0.000000000000000e+00 0.000000000000000e+00
0.000000000000000e+00 0.000000000000000e+00 0.000000000000000e+00
0.000000000000000e+00 0.000000000000000e+00 0.000000000000000e+00
0.000000000000000e+00 0.000000000000000e+00 0.000000000000000e+00
0.000000000000000e+00 0.000000000000000e+00 0.000000000000000e+00
0.000000000000000e+00 0.000000000000000e+00 0.000000000000000e+00
0.000000000000000e+00 0.000000000000000e+00 0.000000000000000e+00
0.000000000000000e+00 0.000000000000000e+00 0.000000000000000e+00
0.000000000000000e+00 0.000000000000000e+00 0.000000000000000e+00
0.000000000000000e+00 0.000000000000000e+00 0.000000000000000e+00
0.000000000000000e+00 0.000000000000000e+00 0.000000000000000e+00
0.000000000000000e+00 0.000000000000000e+00 0.000000000000000e+00
0.000000000000000e+00 0.000000000000000e+00 0.000000000000000e+00
0.000000000000000e+00 0.000000000000000e+00 0.000000000000000e+00
0.000000000000000e+00 0.000000000000000e+00 0.000000000000000e+00
0.000000000000000e+00 0.000000000000000e+00 0.000000000000000e+00
0.000000000000000e+00 0.000000000000000e+00 0.000000000000000e+00
0.000000000000000e+00 0.000000000000000e+00 0.000000000000000e+00
0.000000000000000e+00 0.000000000000000e+00 0.000000000000000e+00
0.000000000000000e+00 0.000000000000000e+00 0.000000000000000e+00
0.000000000000000e+00 0.000000000000000e+00 0.000000000000000e+00
0.000000000000000e+00 0.000000000000000e+00 0.000000000000000e+00
0.000000000000000e+00 0.000000000000000e+00 0.000000000000000e+00
0.000000000000000e+00 0.000000000000000e+00 0.000000000000000e+00
0.000000000000000e+00 0.000000000000000e+00 0.000000000000000e+00
0.000000000000000e+00 0.000000000000000e+00 0.000000000000000e+00
0.000000000000000e+00 0.000000000000000e+00 0.000000000000000e+00
0.000000000000000e+00 0.000000000000000e+00 0.000000000000000e+00
0.000000000000000e+00 0.000000000000000e+00 0.000000000000000e+00
0.000000000000000e+00 0.000000000000000e+00 0.000000000000000e+00
0.000000000000000e+00 0.000000000000000e+00 0.000000000000000e+00
0.000000000000000e+00 0.000000000000000e+00 0.000000000000000e+00
0.000000000000000e+00 0.000000000000000e+00 0.000000000000000e+00
0.000000000000000e+00 0.000000000000000e+00 0.000000000000000e+00
0.000000000000000e+00 0.000000000000000e+00 0.000000000000000e+00
0.000000000000000e+00 0.000000000000000e+00 0.000000000000000e+00
0.000000000000000e+00 0.000000000000000e+00 0.000000000000000e+00
0.000000000000000e+00 0.000000000000000e+00 0.000000000000000e+00
0.000000000000000e+00 0.000000000000000e+00 0.000000000000000e+00
0.000000000000000e+00 0.000000000000000e+00 0.000000000000000e+00
0.000000000000000e+00 0.000000000000000e+00 0.000000000000000e+00
0.000000000000000e+00 0.000000000000000e+00 0.000000000000000e+00
0.000000000000000e+00 0.000000000000000e+00 0.000000000000000e+00
0.000000000000000e+00 0.000000000000000e+00 0.000000000000000e+00
0.000000000000000e+00 0.000000000000000e+00 0.000000000000000e+00
0.000000000000000e+00 0.000000000000000e+00 0.000000000000000e+00
0.000000000000000e+00 0.000000000000000e+00 0.000000000000000e+00
0.000000000000000e+00 0.000000000000000e+00 0.000000000000000e+00
0.000000000000000e+00 0.000000000000000e+00 0.000000000000000e+00
0.000000000000000e+00 0.000000000000000e+00 0.000000000000000e+00
0.000000000000000e+00 0.000000000000000e+00 0.000000000000000e+00
0.000000000000000e+00 0.000000000000000e+00 0.000000000000000e+00
0.000000000000000e+00 0.000000000000000e+00 0.000000000000000e+00
0.000000000000000e+00 0.000000000000000e+00 0.000000000000000e+00
0.000000000000000e+00 0.000000000000000e+00 0.000000000000000e+00
0.000000000000000e+00 0.000000000000000e+00 0.000000000000000e+00
0.000000000000000e+00 0.000000000000000e+00 0.000000000000000e+00
0.000000000000000e+00 0.000000000000000e+00 0.000000000000000e+00
0.000000000000000e+00 0.000000000000000e+00 0.000000000000000e+00
0.000000000000000e+00 0.000000000000000e+00 0.000000000000000e+00
0.000000000000000e+00 0.000000000000000e+00 0.000000000000000e+00
0.000000000000000e+00 0.000000000000000e+00 0.000000000000000e+00
0.000000000000000e+00 0.000000000000000e+00 0.000000000000000e+00
0.000000000000000e+00 0.000000000000000e+00 0.000000000000000e+00
0.000000000000000e+00 0.000000000000000e+00 0.000000000000000e+00
0.000000000000000e+00 0.000000000000000e+00 0.000000000000000e+00
0.000000000000000e+00 0.000000000000000e+00 0.000000000000000e+00
0.000000000000000e+00 0.000000000000000e+00 0.000000000000000e+00
0.000000000000000e+00 0.000000000000000e+00 0.000000000000000e+00
0.000000000000000e+00 0.000000000000000e+00 0.000000000000000e+00
0.000000000000000e+00 0.000000000000000e+00 0.000000000000000e+00
0.000000000000000e+00 0.000000000000000e+00 0.000000000000000e+00
0.000000000000000e+00 0.000000000000000e+00 0.000000000000000e+00
0.000000000000000e+00 0.000000000000000e+00 0.000000000000000e+00
0.000000000000000e+00 0.000000000000000e+00 0.000000000000000e+00
0.000000000000000e+00 0.000000000000000e+00 0.000000000000000e+00
0.000000000000000e+00 0.000000000000000e+00 0.000000000000000e+00
0.000000000000000e+00 0.000000000000000e+00 0.000000000000000e+00
0.000000000000000e+00 0.000000000000000e+00 0.000000000000000e+00
0.000000000000000e+00 0.000000000000000e+00 0.000000000000000e+00
0.000000000000000e+00 0.000000000000000e+00 0.000000000000000e+00
0.000000000000000e+00 0.000000000000000e+00 0.000000000000000e+00
0.000000000000000e+00 0.000000000000000e+00 0.000000000000000e+00
0.000000000000000e+00 0.000000000000000e+00 0.000000000000000e+00
0.000000000000000e+00 0.000000000000000e+00 0.000000000000000e+00
0.000000000000000e+00 0.000000000000000e+00 0.000000000000000e+00
0.000000000000000e+00 0.000000000000000e+00 0.000000000000000e+00
0.000000000000000e+00 0.000000000000000e+00 0.000000000000000e+00
0.000000000000000e+00 0.000000000000000e+00 0.000000000000000e+00
0.000000000000000e+00 0.000000000000000e+00 0.000000000000000e+00
0.000000000000000e+00 0.000000000000000e+00 0.000000000000000e+00
0.000000000000000e+00 0.000000000000000e+00 0.000000000000000e+00
0.000000000000000e+00 0.000000000000000e+00 0.000000000000000e+00
0.000000000000000e+00 0.000000000000000e+00 0.000000000000000e+00
0.000000000000000e+00 0.000000000000000e+00 0.000000000000000e+00
0.000000000000000e+00 0.000000000000000e+00 0.000000000000000e+00
0.000000000000000e+00 0.000000000000000e+00 0.000000000000000e+00
0.000000000000000e+00 0.000000000000000e+00 0.000000000000000e+00
0.000000000000000e+00 0.000000000000000e+00 0.000000000000000e+00
0.000000000000000e+00 0.000000000000000e+00 0.000000000000000e+00
0.000000000000000e+00 0.000000000000000e+00 0.000000000000000e+00
0.000000000000000e+00 0.000000000000000e+00 0.000000000000000e+00
0.000000000000000e+00 0.000000000000000e+00 0.000000000000000e+00
0.000000000000000e+00 0.000000000000000e+00 0.000000000000000e+00
0.000000000000000e+00 0.000000000000000e+00 0.000000000000000e+00
0.000000000000000e+00 0.000000000000000e+00 0.000000000000000e+00
0.000000000000000e+00 0.000000000000000e+00 0.000000000000000e+00
0.000000000000000e+00 0.000000000000000e+00 0.000000000000000e+00
0.000000000000000e+00 0.000000000000000e+00 0.000000000000000e+00
0.000000000000000e+00 0.000000000000000e+00 0.000000000000000e+00
0.000000000000000e+00 0.000000000000000e+00 0.000000000000000e+00
0.000000000000000e+00 0.000000000000000e+00 0.000000000000000e+00
0.000000000000000e+00 0.000000000000000e+00 0.000000000000000e+00
0.000000000000000e+00 0.000000000000000e+00 0.000000000000000e+00
0.000000000000000e+00 0.000000000000000e+00 0.000000000000000e+00
0.000000000000000e+00 0.000000000000000e+00 0.000000000000000e+00
0.000000000000000e+00 0.000000000000000e+00 0.000000000000000e+00
0.000000000000000e+00 0.000000000000000e+00 0.000000000000000e+00
0.000000000000000e+00 0.000000000000000e+00 0.000000000000000e+00
0.000000000000000e+00 0.000000000000000e+00 0.000000000000000e+00
0.000000000000000e+00 0.000000000000000e+00 0.000000000000000e+00
0.000000000000000e+00 0.000000000000000e+00 0.000000000000000e+00
0.000000000000000e+00 0.000000000000000e+00 0.000000000000000e+00
0.000000000000000e+00 0.000000000000000e+00 0.000000000000000e+00
0.000000000000000e+00 0.000000000000000e+00 0.000000000000000e+00
0.000000000000000e+00 0.000000000000000e+00 0.000000000000000e+00
0.000000000000000e+00 0.000000000000000e+00 0.000000000000000e+00
0.000000000000000e+00 0.000000000000000e+00 0.000000000000000e+00
0.000000000000000e+00 0.000000000000000e+00 0.000000000000000e+00
0.000000000000000e+00 0.000000000000000e+00 0.000000000000000e+00
0.000000000000000e+00 0.000000000000000e+00 0.000000000000000e+00
0.000000000000000e+00 0.000000000000000e+00 0.000000000000000e+00
0.000000000000000e+00 0.000000000000000e+00 0.000000000000000e+00
0.000000000000000e+00 0.000000000000000e+00 0.000000000000000e+00
0.000000000000000e+00 0.000000000000000e+00 0.000000000000000e+00
0.000000000000000e+00 0.000000000000000e+00 0.000000000000000e+00
0.000000000000000e+00 0.000000000000000e+00 0.000000000000000e+00
0.000000000000000e+00 0.000000000000000e+00 0.000000000000000e+00
0.000000000000000e+00 0.000000000000000e+00 0.000000000000000e+00
0.000000000000000e+00 0.000000000000000e+00 0.000000000000000e+00
0.000000000000000e+00 0.000000000000000e+00 0.000000000000000e+00
0.000000000000000e+00 0.000000000000000e+00 0.000000000000000e+00
0.000000000000000e+00 0.000000000000000e+00 0.000000000000000e+00
0.000000000000000e+00 0.000000000000000e+00 0.000000000000000e+00
0.000000000000000e+00 0.000000000000000e+00 0.000000000000000e+00
0.000000000000000e+00 0.000000000000000e+00 0.000000000000000e+00
0.000000000000000e+00 0.000000000000000e+00 0.000000000000000e+00
0.000000000000000e+00 0.000000000000000e+00 0.000000000000000e+00
0.000000000000000e+00 0.000000000000000e+00 0.000000000000000e+00
0.000000000000000e+00 0.000000000000000e+00 0.000000000000000e+00
0.000000000000000e+00 0.000000000000000e+00 0.000000000000000e+00
0.000000000000000e+00 0.000000000000000e+00 0.000000000000000e+00
0.000000000000000e+00 0.000000000000000e+00 0.000000000000000e+00
0.000000000000000e+00 0.000000000000000e+00 0.000000000000000e+00
0.000000000000000e+00 0.000000000000000e+00 0.000000000000000e+00
0.000000000000000e+00 0.000000000000000e+00 0.000000000000000e+00
0.000000000000000e+00 0.000000000000000e+00 0.000000000000000e+00
0.000000000000000e+00 0.000000000000000e+00 0.000000000000000e+00
0.000000000000000e+00 0.000000000000000e+00 0.000000000000000e+00
0.000000000000000e+00 0.000000000000000e+00 0.000000000000000e+00
0.000000000000000e+00 0.000000000000000e+00 0.000000000000000e+00
0.000000000000000e+00 0.000000000000000e+00 0.000000000000000e+00
0.000000000000000e+00 0.000000000000000e+00 0.000000000000000e+00
0.000000000000000e+00 0.000000000000000e+00 0.000000000000000e+00
0.000000000000000e+00 0.000000000000000e+00 0.000000000000000e+00
0.000000000000000e+00 0.000000000000000e+00 0.000000000000000e+00
0.000000000000000e+00 0.000000000000000e+00 0.000000000000000e+00
0.000000000000000e+00 0.000000000000000e+00 0.000000000000000e+00
0.000000000000000e+00 0.000000000000000e+00 0.000000000000000e+00
0.000000000000000e+00 0.000000000000000e+00 0.000000000000000e+00
0.000000000000000e+00 0.000000000000000e+00 0.000000000000000e+00
0.000000000000000e+00 0.000000000000000e+00 0.000000000000000e+00
0.000000000000000e+00 0.000000000000000e+00 0.000000000000000e+00
0.000000000000000e+00 0.000000000000000e+00 0.000000000000000e+00
0.000000000000000e+00 0.000000000000000e+00 0.000000000000000e+00
0.000000000000000e+00 0.000000000000000e+00 0.000000000000000e+00
0.000000000000000e+00 0.000000000000000e+00 0.000000000000000e+00
0.000000000000000e+00 0.000000000000000e+00 0.000000000000000e+00
0.000000000000000e+00 0.000000000000000e+00 0.000000000000000e+00
0.000000000000000e+00 0.000000000000000e+00 0.000000000000000e+00
0.000000000000000e+00 0.000000000000000e+00 0.000000000000000e+00
0.000000000000000e+00 0.000000000000000e+00 0.000000000000000e+00
0.000000000000000e+00 0.000000000000000e+00 0.000000000000000e+00
0.000000000000000e+00 0.000000000000000e+00 0.000000000000000e+00
0.000000000000000e+00 0.000000000000000e+00 0.000000000000000e+00
0.000000000000000e+00 0.000000000000000e+00 0.000000000000000e+00
0.000000000000000e+00 0.000000000000000e+00 0.000000000000000e+00
0.000000000000000e+00 0.000000000000000e+00 0.000000000000000e+00
0.000000000000000e+00 0.000000000000000e+00 0.000000000000000e+00
0.000000000000000e+00 0.000000000000000e+00 0.000000000000000e+00
0.000000000000000e+00 0.000000000000000e+00 0.000000000000000e+00
0.000000000000000e+00 0.000000000000000e+00 0.000000000000000e+00
0.000000000000000e+00 0.000000000000000e+00 0.000000000000000e+00
0.000000000000000e+00 0.000000000000000e+00 0.000000000000000e+00
0.000000000000000e+00 0.000000000000000e+00 0.000000000000000e+00
0.000000000000000e+00 0.000000000000000e+00 0.000000000000000e+00
0.000000000000000e+00 0.000000000000000e+00 0.000000000000000e+00
0.000000000000000e+00 0.000000000000000e+00 0.000000000000000e+00
0.000000000000000e+00 0.000000000000000e+00 0.000000000000000e+00
0.000000000000000e+00 0.000000000000000e+00 0.000000000000000e+00
0.000000000000000e+00 0.000000000000000e+00 0.000000000000000e+00
0.000000000000000e+00 0.000000000000000e+00 0.000000000000000e+00
0.000000000000000e+00 0.000000000000000e+00 0.000000000000000e+00
0.000000000000000e+00 0.000000000000000e+00 0.000000000000000e+00
0.000000000000000e+00 0.000000000000000e+00 0.000000000000000e+00
0.000000000000000e+00 0.000000000000000e+00 0.000000000000000e+00
0.000000000000000e+00 0.000000000000000e+00 0.000000000000000e+00
0.000000000000000e+00 0.000000000000000e+00 0.000000000000000e+00
0.000000000000000e+00 0.000000000000000e+00 0.000000000000000e+00
0.000000000000000e+00 0.000000000000000e+00 0.000000000000000e+00
0.000000000000000e+00 0.000000000000000e+00 0.000000000000000e+00
0.000000000000000e+00 0.000000000000000e+00 0.000000000000000e+00
0.000000000000000e+00 0.000000000000000e+00 0.000000000000000e+00
0.000000000000000e+00 0.000000000000000e+00 0.000000000000000e+00
0.000000000000000e+00 0.000000000000000e+00 0.000000000000000e+00
0.000000000000000e+00 0.000000000000000e+00 0.000000000000000e+00
0.000000000000000e+00 0.000000000000000e+00 0.000000000000000e+00
0.000000000000000e+00 0.000000000000000e+00 0.000000000000000e+00
0.000000000000000e+00 0.000000000000000e+00 0.000000000000000e+00
0.000000000000000e+00 0.000000000000000e+00 0.000000000000000e+00
0.000000000000000e+00 0.000000000000000e+00 0.000000000000000e+00
0.000000000000000e+00 0.000000000000000e+00 0.000000000000000e+00
0.000000000000000e+00 0.000000000000000e+00 0.000000000000000e+00
0.000000000000000e+00 0.000000000000000e+00 0.000000000000000e+00
0.000000000000000e+00 0.000000000000000e+00 0.000000000000000e+00
0.000000000000000e+00 0.000000000000000e+00 0.000000000000000e+00
0.000000000000000e+00 0.000000000000000e+00 0.000000000000000e+00
0.000000000000000e+00 0.000000000000000e+00 0.000000000000000e+00
0.000000000000000e+00 0.000000000000000e+00 0.000000000000000e+00
0.000000000000000e+00 0.000000000000000e+00 0.000000000000000e+00
0.000000000000000e+00 0.000000000000000e+00 0.000000000000000e+00
0.000000000000000e+00 0.000000000000000e+00 0.000000000000000e+00
0.000000000000000e+00 0.000000000000000e+00 0.000000000000000e+00
0.000000000000000e+00 0.000000000000000e+00 0.000000000000000e+00
0.000000000000000e+00 0.000000000000000e+00 0.000000000000000e+00
0.000000000000000e+00 0.000000000000000e+00 0.000000000000000e+00
0.000000000000000e+00 0.000000000000000e+00 0.000000000000000e+00
0.000000000000000e+00 0.000000000000000e+00 0.000000000000000e+00
0.000000000000000e+00 0.000000000000000e+00 0.000000000000000e+00
0.000000000000000e+00 0.000000000000000e+00 0.000000000000000e+00
0.000000000000000e+00 0.000000000000000e+00 0.000000000000000e+00
0.000000000000000e+00 0.000000000000000e+00 0.000000000000000e+00
0.000000000000000e+00 0.000000000000000e+00 0.000000000000000e+00
0.000000000000000e+00 0.000000000000000e+00 0.000000000000000e+00
0.000000000000000e+00 0.000000000000000e+00 0.000000000000000e+00
0.000000000000000e+00 0.000000000000000e+00 0.000000000000000e+00
0.000000000000000e+00 0.000000000000000e+00 0.000000000000000e+00
0.000000000000000e+00 0.000000000000000e+00 0.000000000000000e+00
0.000000000000000e+00 0.000000000000000e+00 0.000000000000000e+00
0.000000000000000e+00 0.000000000000000e+00 0.000000000000000e+00
0.000000000000000e+00 0.000000000000000e+00 0.000000000000000e+00
0.000000000000000e+00 0.000000000000000e+00 0.000000000000000e+00
0.000000000000000e+00 0.000000000000000e+00 0.000000000000000e+00
0.000000000000000e+00 0.000000000000000e+00 0.000000000000000e+00
0.000000000000000e+00 0.000000000000000e+00 0.000000000000000e+00
0.000000000000000e+00 0.000000000000000e+00 0.000000000000000e+00
0.000000000000000e+00 0.000000000000000e+00 0.000000000000000e+00
0.000000000000000e+00 0.000000000000000e+00 0.000000000000000e+00
0.000000000000000e+00 0.000000000000000e+00 0.000000000000000e+00
0.000000000000000e+00 0.000000000000000e+00 0.000000000000000e+00
0.000000000000000e+00 0.000000000000000e+00 0.000000000000000e+00
0.000000000000000e+00 0.000000000000000e+00 0.000000000000000e+00
0.000000000000000e+00 0.000000000000000e+00 0.000000000000000e+00
0.000000000000000e+00 0.000000000000000e+00 0.000000000000000e+00
0.000000000000000e+00 0.000000000000000e+00 0.000000000000000e+00
0.000000000000000e+00 0.000000000000000e+00 0.000000000000000e+00
0.000000000000000e+00 0.000000000000000e+00 0.000000000000000e+00
0.000000000000000e+00 0.000000000000000e+00 0.000000000000000e+00
0.000000000000000e+00 0.000000000000000e+00 0.000000000000000e+00
0.000000000000000e+00 0.000000000000000e+00 0.000000000000000e+00
0.000000000000000e+00 0.000000000000000e+00 0.000000000000000e+00
0.000000000000000e+00 0.000000000000000e+00 0.000000000000000e+00
0.000000000000000e+00 0.000000000000000e+00 0.000000000000000e+00
0.000000000000000e+00 0.000000000000000e+00 0.000000000000000e+00
0.000000000000000e+00 0.000000000000000e+00 0.000000000000000e+00
0.000000000000000e+00 0.000000000000000e+00 0.000000000000000e+00
0.000000000000000e+00 0.000000000000000e+00 0.000000000000000e+00
0.000000000000000e+00 0.000000000000000e+00 0.000000000000000e+00
0.000000000000000e+00 0.000000000000000e+00 0.000000000000000e+00
0.000000000000000e+00 0.000000000000000e+00 0.000000000000000e+00
0.000000000000000e+00 0.000000000000000e+00 0.000000000000000e+00
0.000000000000000e+00 0.000000000000000e+00 0.000000000000000e+00
0.000000000000000e+00 0.000000000000000e+00 0.000000000000000e+00
0.000000000000000e+00 0.000000000000000e+00 0.000000000000000e+00
0.000000000000000e+00 0.000000000000000e+00 0.000000000000000e+00
0.000000000000000e+00 0.000000000000000e+00 0.000000000000000e+00
0.000000000000000e+00 0.000000000000000e+00 0.000000000000000e+00
0.000000000000000e+00 0.000000000000000e+00 0.000000000000000e+00
0.000000000000000e+00 0.000000000000000e+00 0.000000000000000e+00
0.000000000000000e+00 0.000000000000000e+00 0.000000000000000e+00
0.000000000000000e+00 0.000000000000000e+00 0.000000000000000e+00
0.000000000000000e+00 0.000000000000000e+00 0.000000000000000e+00
0.000000000000000e+00 0.000000000000000e+00 0.000000000000000e+00
0.000000000000000e+00 0.000000000000000e+00 0.000000000000000e+00
0.000000000000000e+00 0.000000000000000e+00 0.000000000000000e+00
0.000000000000000e+00 0.000000000000000e+00 0.000000000000000e+00
0.000000000000000e+00 0.000000000000000e+00 0.000000000000000e+00
0.000000000000000e+00 0.000000000000000e+00 0.000000000000000e+00
0.000000000000000e+00 0.000000000000000e+00 0.000000000000000e+00
0.000000000000000e+00 0.000000000000000e+00 0.000000000000000e+00
0.000000000000000e+00 0.000000000000000e+00 0.000000000000000e+00
0.000000000000000e+00 0.000000000000000e+00 0.000000000000000e+00
0.000000000000000e+00 0.000000000000000e+00 0.000000000000000e+00
0.000000000000000e+00 0.000000000000000e+00 0.000000000000000e+00
0.000000000000000e+00 0.000000000000000e+00 0.000000000000000e+00
0.000000000000000e+00 0.000000000000000e+00 0.000000000000000e+00
0.000000000000000e+00 0.000000000000000e+00 0.000000000000000e+00
0.000000000000000e+00 0.000000000000000e+00 0.000000000000000e+00
0.000000000000000e+00 0.000000000000000e+00 0.000000000000000e+00
0.000000000000000e+00 0.000000000000000e+00 0.000000000000000e+00
0.000000000000000e+00 0.000000000000000e+00 0.000000000000000e+00
0.000000000000000e+00 0.000000000000000e+00 0.000000000000000e+00
0.000000000000000e+00 0.000000000000000e+00 0.000000000000000e+00
-1.846361724106103e+01  6.120956550731038e-22  3.285820930351340e-16
-1.846351456535088e+01  1.090778372219129e-21  3.285802658422010e-16
-1.846372987019677e+01  1.040896044759805e-22  3.285840973505937e-16
-1.846383162885468e+01  6.120286276025762e-22  3.285859083195315e-16
-1.846392403087983e+01  1.041204911007163e-22  3.285875527141809e-16
-1.846401238763533e+01  6.120882515623893e-22  3.285891251060072e-16
-1.846409940303569e+01  1.040884270779956e-22  3.285906736770321e-16
-1.846418617875086e+01  6.119589753629304e-22  3.285922179669791e-16
-1.846427302421177e+01  1.041193788031678e-22  3.285937634705417e-16
-1.846436008432104e+01  6.120817370124132e-22  3.285953127467475e-16
-1.846444732615655e+01  1.041030708964819e-22  3.285968653441899e-16
-1.846453478105473e+01  1.770605909908202e-22  3.285984217300146e-16
-1.846462240615204e+01  1.043925576264799e-21  3.285999811355220e-16
-1.846471016530404e+01  1.040864810539897e-22  3.286015428809435e-16
-1.846479808935001e+01  6.119475126867685e-22  3.286031076470859e-16
-1.846488612377670e+01  1.041174247315843e-22  3.286046742608572e-16
-1.846497430729869e+01  6.120702285957738e-22  3.286062436368190e-16
-1.846506258996980e+01  1.040853581362214e-22  3.286078147124530e-16
-1.846515101442829e+01  6.119409013959772e-22  3.286093883106790e-16
-1.846523953364083e+01  1.040847943431045e-22  3.286109636526708e-16
-1.846532819189152e+01  1.771192984230271e-22  3.286125414404543e-16
-1.846541695584297e+01  1.043900185349160e-21  3.286141211747367e-16
-1.846550582619556e+01  1.040996977179099e-22  3.286157026397686e-16
-1.846559483649774e+01  6.120586018269810e-22  3.286172866455501e-16
-1.846568394280281e+01  1.040833783162503e-22  3.286188724344044e-16
-1.846577319165262e+01  6.120552599753270e-22  3.286204607377665e-16
-1.846586253880262e+01  1.040828092487271e-22  3.286220507488100e-16
-1.846595203099367e+01  6.120519090355450e-22  3.286236433534337e-16
-1.846604162413467e+01  1.040826077974073e-22  3.286252377954419e-16
-1.846613136506389e+01  6.120485488084590e-22  3.286268348032527e-16
-1.846622120976449e+01  1.040816663927572e-22  3.286284337242588e-16
-1.846631120467661e+01  1.771769742726424e-22  3.286300352908658e-16
-1.846640131800240e+01  1.043868727959428e-21  3.286316389361864e-16
-1.846649155154848e+01  1.040808049782063e-22  3.286332447984601e-16
-1.846658193965524e+01  6.120401062101752e-22  3.286348533666777e-16
-1.846667243896117e+01  1.040723529458086e-22  3.286364638773517e-16
-1.846676309642193e+01  6.120367117731304e-22  3.286380772662958e-16
-1.846685386812014e+01  1.040796504860866e-22  3.286396926191493e-16
-1.846694480103190e+01  6.120333070542115e-22  3.286413109236613e-16
-1.846703585124757e+01  1.040790706075739e-22  3.286429312654071e-16
-1.846712706529668e+01  1.771725488628769e-22  3.286445545322908e-16
-1.846721841146040e+01  1.043716607051621e-21  3.286461800523545e-16
-1.846730989160662e+01  1.040781973886755e-22  3.286478081196847e-16
-1.846740154013390e+01  6.120247487586288e-22  3.286494391704660e-16
-1.846749331372926e+01  1.040776129175290e-22  3.286510723364670e-16
-1.846758525939959e+01  6.120213062301471e-22  3.286527086572162e-16
-1.846767733326752e+01  1.040809642440597e-22  3.286543471658582e-16
-1.846776958234632e+01  6.120178523729877e-22  3.286559889018360e-16
-1.846786196277448e+01  1.041079396716260e-22  3.286576328981500e-16
-1.846795452156445e+01  6.120143869495652e-22  3.286592800899162e-16
-1.846804721486298e+01  1.040915985431452e-22  3.286609296665394e-16
-1.846814008922886e+01  1.772300562346725e-22  3.286625824633652e-16
-1.846823311298554e+01  1.043936191202890e-21  3.286642379123816e-16
-1.846832628804406e+01  1.040749586239954e-22  3.286658960985884e-16
-1.846841964882767e+01  6.118796675655291e-22  3.286675576143190e-16
-1.846851315206813e+01  1.040743631689409e-22  3.286692215909711e-16
-1.846860684479532e+01  6.118761605154100e-22  3.286708889634144e-16
-1.846870068316786e+01  1.040698280041502e-22  3.286725589209856e-16
-1.846879471422873e+01  6.118726408303713e-22  3.286742323462466e-16
-1.846888889414149e+01  1.041361667631629e-22  3.286759083763407e-16
-1.846898326949150e+01  1.771939804071130e-22  3.286775878984161e-16
-1.846907780861747e+01  1.043783190747411e-21  3.286792703965051e-16
-1.846917251344635e+01  1.040722620441689e-22  3.286809556946554e-16
-1.846926741843014e+01  6.119897851628579e-22  3.286826446977785e-16
-1.846936248031000e+01  1.040716566876525e-22  3.286843363807758e-16
-1.846945774613328e+01  6.119862186245258e-22  3.286860317304064e-16
-1.846955317208188e+01  1.041025488430822e-22  3.286877299879915e-16
-1.846964880520619e+01  6.121086372939468e-22  3.286894318794630e-16
-1.846974460169069e+01  1.040709311758805e-22  3.286911366982854e-16
-1.846984060858873e+01  6.119790441338124e-22  3.286928452224963e-16
-1.846993678207907e+01  1.040698265743468e-22  3.286945567977868e-16
-1.847003316876936e+01  1.771567847130945e-22  3.286962721023502e-16
-1.847012973701344e+01  1.043875567836895e-21  3.286979906201201e-16
-1.847022648875420e+01  1.040728407591821e-22  3.286997124357448e-16
-1.847032345845919e+01  6.119699958650914e-22  3.287014381931149e-16
-1.847042060287961e+01  1.040604100250789e-22  3.287031669192712e-16
-1.847051796907910e+01  6.118403552606315e-22  3.287048996528465e-16
-1.847061551324993e+01  1.040834130416062e-22  3.287066355829830e-16
-1.847071328245635e+01  6.118366959249140e-22  3.287083754875177e-16
-1.847081123289306e+01  1.040670399284041e-22  3.287101186598908e-16
-1.847090941116334e+01  1.772150283284279e-22  3.287118658825585e-16
-1.847100778563828e+01  1.043595513608393e-21  3.287136164828645e-16
-1.847110635826492e+01  1.040660994262228e-22  3.287153707540117e-16
-1.847120516351696e+01  6.119534730218566e-22  3.287171291311457e-16
-1.847130415815624e+01  1.040654690754941e-22  3.287188908498812e-16
-1.847140338924843e+01  6.119497582869583e-22  3.287206568444266e-16
-1.847150281299756e+01  1.040648359967164e-22  3.287224261474156e-16
-1.847160247646611e+01  6.118200359947524e-22  3.287241997973732e-16
-1.847170233586358e+01  1.040642001483313e-22  3.287259769311967e-16
-1.847180243824550e+01  6.119422800784522e-22  3.287277583788510e-16
-1.847190273982745e+01  1.040793102679659e-22  3.287295433293403e-16
-1.847200328720795e+01  1.771775945655533e-22  3.287313327215116e-16
-1.847210404877247e+01  1.043686468498435e-21  3.287331258826213e-16
-1.847220502646630e+01  1.040625981362933e-22  3.287349228972585e-16
-1.847230625476514e+01  6.119328384035104e-22  3.287367243569204e-16
-1.847240769044237e+01  1.040934493369598e-22  3.287385295493354e-16
-1.847250938055749e+01  6.120550196217322e-22  3.287403392522019e-16
-1.847261128132858e+01  1.040613034367331e-22  3.287421526545525e-16
-1.847271343981559e+01  6.119252075367310e-22  3.287439707426623e-16
-1.847281581222227e+01  1.040606516090035e-22  3.287457925492720e-16
-1.847291844516473e+01  1.771411323090253e-22  3.287476190129520e-16
-1.847302130701447e+01  1.043657150258411e-21  3.287494495132987e-16
-1.847312439972907e+01  1.040596681519670e-22  3.287512842390597e-16
-1.847322775777565e+01  6.119785613822167e-22  3.287531235731465e-16
-1.847333133793120e+01  1.040590086429362e-22  3.287549669597633e-16
-1.847343518725907e+01  6.117856970724869e-22  3.287568150200279e-16
-1.847353926197167e+01  1.040583459883776e-22  3.287586672038428e-16
-1.847364360912351e+01  6.119077753471601e-22  3.287605241323928e-16
-1.847374818493137e+01  1.040576801464301e-22  3.287623852555513e-16
-1.847385303645112e+01  6.118408590797567e-22  3.287642511944677e-16
-1.847395811989733e+01  1.040570110754489e-22  3.287661212947553e-16
-1.847406348186399e+01  1.771349202321247e-22  3.287679963386387e-16
-1.847416909073656e+01  1.043620462725806e-21  3.287698756534833e-16
-1.847427494846521e+01  1.040560013229683e-22  3.287717596366784e-16
-1.847438108950699e+01  6.118939540049369e-22  3.287736485668544e-16
-1.847448747064852e+01  1.040474502302923e-22  3.287755417317533e-16
-1.847459413893150e+01  6.118899611296837e-22  3.287774400133310e-16
-1.847470105057925e+01  1.040546432953094e-22  3.287793426007219e-16
-1.847480825263268e+01  6.118859482848039e-22  3.287812503758670e-16
-1.847491570130977e+01  1.040539591771841e-22  3.287831625801156e-16
-1.847502344319365e+01  1.771297120809801e-22  3.287850799957029e-16
-1.847513144666769e+01  1.043589701289094e-21  3.287870020543575e-16
-1.847523971367868e+01  1.040529265026797e-22  3.287889287884517e-16
-1.847534827867548e+01  6.118128387301557e-22  3.287908608416528e-16
-1.847545709843515e+01  1.040522336607119e-22  3.287927973975747e-16
-1.847556622000623e+01  6.118717425355820e-22  3.287947393379995e-16
-1.847567559959056e+01  1.040594107362051e-22  3.287966858523491e-16
-1.847578528423217e+01  6.118046491739140e-22  3.287986378224274e-16
-1.847589523013934e+01  1.040508372483904e-22  3.288005944897521e-16
-1.847600548434639e+01  6.118635097528475e-22  3.288025565797667e-16
-1.847611600306350e+01  1.040501335952514e-22  3.288045233861315e-16
-1.847622683286427e+01  1.771231830479745e-22  3.288064957431952e-16
-1.847633794212522e+01  1.043677107984685e-21  3.288084731349594e-16
-1.847644933278160e+01  1.040490711901760e-22  3.288104553853136e-16
-1.847656103926709e+01  6.118530972880343e-22  3.288124432944109e-16
-1.847667301835983e+01  1.040168652858826e-22  3.288144361502293e-16
-1.847678531708681e+01  6.118488937256527e-22  3.288164346260605e-16
-1.847689789164412e+01  1.040476415056876e-22  3.288184380157621e-16
-1.847701078906060e+01  6.118446677556737e-22  3.288204472011576e-16
-1.847712396553943e+01  1.040469209375449e-22  3.288224612674753e-16
-1.847723746764100e+01  1.771176996481034e-22  3.288244812055192e-16
-1.847735126372748e+01  1.043518742390418e-21  3.288265063430543e-16
-1.847746535572954e+01  1.040458328117011e-22  3.288285367125749e-16
-1.847757977807215e+01  6.118969873735765e-22  3.288305730099464e-16
-1.847769448751671e+01  1.040451024856699e-22  3.288326144191024e-16
-1.847780953107819e+01  6.119556643501766e-22  3.288346617176355e-16
-1.847792486494875e+01  1.040443681847909e-22  3.288367142516559e-16
-1.847804053614165e+01  6.117623838357755e-22  3.288387727466064e-16
-1.847815650084708e+01  1.040751213938813e-22  3.288408364964919e-16
-1.847827280607488e+01  6.118210135800709e-22  3.288429062789080e-16
-1.847838940800681e+01  1.040428874945672e-22  3.288449813358180e-16
-1.847850635319685e+01  1.769848500908059e-22  3.288470625015266e-16
-1.847862360998787e+01  1.043352104209689e-21  3.288491492604798e-16
-1.847874118029652e+01  1.040417662387088e-22  3.288512415410093e-16
-1.847885909853213e+01  6.118100243364504e-22  3.288533400911698e-16
-1.847897732143917e+01  1.040331408616533e-22  3.288554439387367e-16
-1.847909589601674e+01  6.118055858442893e-22  3.288575541220274e-16
-1.847921477844342e+01  1.040402566525012e-22  3.288596697788160e-16
-1.847933401570756e+01  6.118011225399563e-22  3.288617917389423e-16
-1.847945356399064e+01  1.040394955201457e-22  3.288639192444486e-16
-1.847957346982059e+01  1.771077842463128e-22  3.288660531297877e-16
-1.847969370152924e+01  1.043443859143816e-21  3.288681927752879e-16
-1.847981426102214e+01  1.040383457839109e-22  3.288703383179321e-16
-1.847993518268584e+01  6.117268745463094e-22  3.288724901930781e-16
-1.848005642325894e+01  1.040375738756941e-22  3.288746478457518e-16
-1.848017802971554e+01  6.117853021488033e-22  3.288768120015687e-16
-1.848029995822217e+01  1.040446699510967e-22  3.288789818506429e-16
-1.848042225575691e+01  6.117807242521260e-22  3.288811582749392e-16
-1.848054487848014e+01  1.040360168766891e-22  3.288833405167889e-16
-1.848066787336221e+01  6.117131420351853e-22  3.288855293017944e-16
-1.848079119655783e+01  1.040509761978501e-22  3.288877240287749e-16
-1.848091489457770e+01  1.770977457667078e-22  3.288899253758008e-16
-1.848103893574032e+01  1.043400852428234e-21  3.288921327755385e-16
-1.848116332192498e+01  1.040340454980036e-22  3.288943464173424e-16
-1.848128808749678e+01  6.117644944200539e-22  3.288965668409542e-16
-1.848141318917554e+01  1.040332490002479e-22  3.288987931267204e-16
-1.848153867391457e+01  6.117597971593983e-22  3.289010262610048e-16
-1.848166449786595e+01  1.040324479021035e-22  3.289032654863024e-16
-1.848179070796706e+01  6.117550727302935e-22  3.289055115284300e-16
-1.848191726037732e+01  1.040316421642967e-22  3.289077636819617e-16
-1.848204420156792e+01  1.770916176966143e-22  3.289100227295220e-16
-1.848217149985420e+01  1.043616544706256e-21  3.289122882602669e-16
-1.848229915708957e+01  1.040304247711986e-22  3.289145599945698e-16
-1.848242720762383e+01  6.117431412721097e-22  3.289168387850446e-16
-1.848255560815550e+01  1.040296072610020e-22  3.289191238166058e-16
-1.848268440561950e+01  6.117383199273321e-22  3.289214159714047e-16
-1.848281355614768e+01  1.040602720059211e-22  3.289237143358177e-16
-1.848294310667004e+01  6.117334703723433e-22  3.289260197920180e-16
-1.848307301330788e+01  1.040279578686654e-22  3.289283316871770e-16
-1.848320332298822e+01  6.116656190652962e-22  3.289306507470673e-16
-1.848333399183859e+01  1.040271259083981e-22  3.289329761102818e-16
-1.848346506630505e+01  1.770839072505107e-22  3.289353087159474e-16
-1.848359651468343e+01  1.043445028202571e-21  3.289376481013442e-16
-1.848372833880315e+01  1.040258687782742e-22  3.289399939870735e-16
-1.848386057298292e+01  6.117162714702280e-22  3.289423472780642e-16
-1.848399317391003e+01  1.040171530350532e-22  3.289447070551826e-16
-1.848412618848272e+01  6.116640634890286e-22  3.289470742007909e-16
-1.848425957281312e+01  1.040241752477603e-22  3.289494479058372e-16
-1.848439337380421e+01  6.118322253761816e-22  3.289518290526066e-16
-1.848452754755879e+01  1.040233209569055e-22  3.289542168321611e-16
-1.848466214051150e+01  1.770774109918813e-22  3.289566120793461e-16
-1.848479712093026e+01  1.043280696091638e-21  3.289590142275132e-16
-1.848493249062353e+01  1.040220300057879e-22  3.289614233102497e-16
-1.848506828389113e+01  6.116936309627316e-22  3.289638398676470e-16
-1.848520445740187e+01  1.040211629726068e-22  3.289662632936301e-16
-1.848534105802642e+01  6.115625788891731e-22  3.289686942621852e-16
-1.848547804186737e+01  1.040281618910967e-22  3.289711320165741e-16
-1.848561545579184e+01  6.116833730896685e-22  3.289735774914389e-16
-1.848575325589100e+01  1.040194133771808e-22  3.289760297737867e-16
-1.848589148903817e+01  6.116152300903181e-22  3.289784898502954e-16
-1.848603011131365e+01  1.040342727037289e-22  3.289809567559731e-16
-1.848616916911504e+01  1.770692323784571e-22  3.289834314822640e-16
-1.848630863069960e+01  1.043232366783006e-21  3.289859132541835e-16
-1.848644849784290e+01  1.040171968758162e-22  3.289884024705187e-16
-1.848658880481377e+01  6.116651252654248e-22  3.289908994109082e-16
-1.848672950826267e+01  1.040163009743531e-22  3.289934033653048e-16
-1.848687065502671e+01  6.116126165211496e-22  3.289959152163865e-16
-1.848701220118632e+01  1.040153997018410e-22  3.289984342077446e-16
-1.848715419357778e+01  6.116545254384541e-22  3.290009611699049e-16
-1.848729658827383e+01  1.040144930212691e-22  3.290034952423028e-16
-1.848743943164949e+01  1.770623384289099e-22  3.290060373122134e-16
-1.848758269192631e+01  1.043191628156665e-21  3.290085867614588e-16
-1.848772637087522e+01  1.040288639244144e-22  3.290111437282019e-16
-1.848787050272725e+01  6.115781316378142e-22  3.290137087008741e-16
-1.848801504412379e+01  1.040122024146136e-22  3.290162810217303e-16
-1.848816004187228e+01  6.115097400426252e-22  3.290188614172284e-16
-1.848830545203501e+01  1.040112765130880e-22  3.290214491833589e-16
-1.848845132142167e+01  6.115672432717908e-22  3.290240450986494e-16
-1.848859760608839e+01  1.040418264882859e-22  3.290266484070489e-16
-1.848874435284112e+01  6.116247124882889e-22  3.290292599392165e-16
-1.848889151772838e+01  1.040094079496449e-22  3.290318788870722e-16
-1.848903914709397e+01  1.770536561388242e-22  3.290345061380296e-16
-1.848918720913921e+01  1.043266244587476e-21  3.290371411263165e-16
-1.848933570559934e+01  1.040119268101445e-22  3.290397837819229e-16
-1.848948467069153e+01  6.116108322698195e-22  3.290424348017845e-16
-1.848963406101266e+01  1.040070404430387e-22  3.290450933723432e-16
-1.848978392335240e+01  6.115580010419466e-22  3.290477603764328e-16
-1.848993421375426e+01  1.040218235107245e-22  3.290504349018526e-16
-1.849008497898498e+01  6.115995768845439e-22  3.290531179358806e-16
-1.849023617508881e+01  1.039893807074171e-22  3.290558086705750e-16
-1.849038784836953e+01  1.770490946125759e-22  3.290585078893600e-16
-1.849053996702143e+01  1.042971144334224e-21  3.290612150787192e-16
-1.849069253275765e+01  1.040036655555333e-22  3.290639301167216e-16
-1.849084557975527e+01  6.115853158569223e-22  3.290666538048315e-16
-1.849099906461439e+01  1.040656464425006e-22  3.290693852253121e-16
-1.849115303409036e+01  6.115795511002922e-22  3.290721252611936e-16
-1.849130744420034e+01  1.040095746034910e-22  3.290748732091243e-16
-1.849146234169731e+01  6.115737515457735e-22  3.290776297436416e-16
-1.849161768260202e+01  1.039849764104501e-22  3.290803942656209e-16
-1.849177351365664e+01  6.115679169856200e-22  3.290831674496748e-16
-1.849192979088036e+01  1.040154596104182e-22  3.290859485924752e-16
-1.849208656054560e+01  1.770371155720974e-22  3.290887385297011e-16
-1.849224379082425e+01  1.043042575592097e-21  3.290915365917801e-16
-1.849240148340182e+01  1.039982164412081e-22  3.290943429176294e-16
-1.849255967243555e+01  6.115531760714848e-22  3.290971580481655e-16
-1.849271831449142e+01  1.040286836487472e-22  3.290999813267138e-16
-1.849287745629912e+01  6.115157400359420e-22  3.291028134800170e-16
-1.849303705385726e+01  1.039961898135089e-22  3.291056536486757e-16
-1.849319715389062e+01  6.115412227077185e-22  3.291085028721553e-16
-1.849335771239254e+01  1.039322136096417e-22  3.291113601868963e-16
-1.849351877608219e+01  6.114722385131616e-22  3.291142265281496e-16
-1.849368030094925e+01  1.039941386719537e-22  3.291171010366516e-16
-1.849384233324933e+01  1.769961086824721e-22  3.291199845480610e-16
-1.849400484112335e+01  1.042860350894643e-21  3.291228766537865e-16
-1.849416782623379e+01  1.039847150424443e-22  3.291257771281231e-16
-1.849433132271023e+01  6.115199554865168e-22  3.291286867727000e-16
-1.849449528710335e+01  1.040230156087494e-22  3.291316046705366e-16
-1.849465976610839e+01  6.114508453979117e-22  3.291345318091112e-16
-1.849482471571083e+01  1.039904893530274e-22  3.291374672250563e-16
-1.849499018259653e+01  6.114446500945853e-22  3.291404119580222e-16
-1.849515612275180e+01  1.039894325384168e-22  3.291433650446572e-16
-1.849532258240202e+01  1.770195497862289e-22  3.291463273728791e-16
-1.849548952967069e+01  1.042938772226668e-21  3.291492983779915e-16
-1.849565696620782e+01  1.039878353945218e-22  3.291522781470796e-16
-1.849582492611666e+01  6.114919473724311e-22  3.291552671692230e-16
-1.849599336593551e+01  1.039788940560569e-22  3.291582647882413e-16
-1.849616233233769e+01  6.114384089325441e-22  3.291612717310981e-16
-1.849633178129016e+01  1.040014204302151e-22  3.291642872952907e-16
-1.849650175946534e+01  6.114792549896866e-22  3.291673122598681e-16
-1.849667222282794e+01  1.039845977675820e-22  3.291703458181487e-16
-1.849684321804129e+01  6.114099046796500e-22  3.291733888534609e-16
-1.849701470107355e+01  1.040149789209188e-22  3.291764406633348e-16
-1.849718671811795e+01  1.770094301754985e-22  3.291795018752491e-16
-1.849735923729576e+01  1.043004864123510e-21  3.291825721330611e-16
-1.849753226022152e+01  1.039818550607510e-22  3.291856512115081e-16
-1.849770582098134e+01  6.114566751320422e-22  3.291887399123551e-16
-1.849787987609520e+01  1.039807464761599e-22  3.291918374755084e-16
-1.849805447221348e+01  6.114501367103272e-22  3.291949446279628e-16
-1.849822956529309e+01  1.039796312690045e-22  3.291980606153357e-16
-1.849840520197362e+01  6.114435592468198e-22  3.292011862689115e-16
-1.849858133820937e+01  1.039785094059298e-22  3.292043208343587e-16
-1.849875802018388e+01  1.770323714817597e-22  3.292074650954192e-16
-1.849893521599093e+01  1.042828564219745e-21  3.292106185920722e-16
-1.849911292724772e+01  1.040082853608649e-22  3.292137810990095e-16
-1.849929118801527e+01  6.114269434942025e-22  3.292169534181056e-16
-1.849946995480037e+01  1.040071463676999e-22  3.292201347895095e-16
-1.849964927423757e+01  6.113887570578304e-22  3.292233260444209e-16
-1.849982910227540e+01  1.039745299892954e-22  3.292265262723303e-16
-1.850000948553570e+01  6.114134722717267e-22  3.292297363566351e-16
-1.850019037996558e+01  1.039733777636391e-22  3.292329556473983e-16
-1.850037183218438e+01  6.113437364120154e-22  3.292361847674701e-16
-1.850055379813691e+01  1.039682849607538e-22  3.292394231190675e-16
-1.850073632398582e+01  1.769901594339112e-22  3.292426713817208e-16
-1.850091936678773e+01  1.042765097772472e-21  3.292459287901267e-16
-1.850110296122256e+01  1.039704672105021e-22  3.292491960876499e-16
-1.850128710825100e+01  6.115153874169215e-22  3.292524732639806e-16
-1.850147177540838e+01  1.039692909076390e-22  3.292557596043370e-16
-1.850165699827160e+01  6.113825732015964e-22  3.292590558950782e-16
-1.850184276586540e+01  1.039681076517563e-22  3.292623618296200e-16
-1.850202909171323e+01  6.113755944044402e-22  3.292656776875829e-16
-1.850221594278466e+01  1.039669174102572e-22  3.292690029683488e-16
-1.850240335419474e+01  1.769811085164383e-22  3.292723381502560e-16
-1.850259132710497e+01  1.042711614606741e-21  3.292756834293541e-16
-1.850277983002557e+01  1.039651188782830e-22  3.292790379768743e-16
-1.850296890801079e+01  6.113579673685903e-22  3.292824029001279e-16
-1.850315851756629e+01  1.039639110297725e-22  3.292857771790187e-16
-1.850334870528649e+01  6.113193766126999e-22  3.292891618010530e-16
-1.850353942710729e+01  1.039626960815386e-22  3.292925559082229e-16
-1.850373072962472e+01  6.113436784393035e-22  3.292959603316721e-16
-1.850392256877375e+01  1.039614740009461e-22  3.292993743697310e-16
-1.850411499114583e+01  6.112735380683783e-22  3.293027988014459e-16
-1.850430795268325e+01  1.039917110428105e-22  3.293062327688002e-16
-1.850450149950797e+01  1.769697163331377e-22  3.293096771597431e-16
-1.850469558868226e+01  1.042644299398733e-21  3.293131312091688e-16
-1.850489025486052e+01  1.040213188325900e-22  3.293165955040622e-16
-1.850508549898558e+01  6.111924051457460e-22  3.293200701384226e-16
-1.850528128858805e+01  1.039571400831070e-22  3.293235544498075e-16
-1.850547765921786e+01  6.113109114426328e-22  3.293270490682039e-16
-1.850567459990371e+01  1.039558855053827e-22  3.293305538954062e-16
-1.850587212414085e+01  6.112405827308863e-22  3.293340690027554e-16
-1.850607019890460e+01  1.039546236169377e-22  3.293375940460426e-16
-1.850626885928141e+01  1.769601196924445e-22  3.293411294514791e-16
-1.850646810643609e+01  1.042587593662463e-21  3.293446752586945e-16
-1.850666790887197e+01  1.039212529969316e-22  3.293482310038696e-16
-1.850686831162254e+01  6.112848259902329e-22  3.293517973773056e-16
-1.850706927120402e+01  1.039514366984280e-22  3.293553737237674e-16
-1.850727083418804e+01  6.112300802639807e-22  3.293589607700647e-16
-1.850747295652077e+01  1.039501489669056e-22  3.293625577625601e-16
-1.850767568478394e+01  6.112696810658312e-22  3.293661655321077e-16
-1.850787897491863e+01  1.038859281000903e-22  3.293697833772428e-16
-1.850808287350529e+01  6.111991174981261e-22  3.293734119725055e-16
-1.850828733649141e+01  1.039436182959645e-22  3.293770506163946e-16
-1.850849240999132e+01  1.769165830631220e-22  3.293807001443986e-16
-1.850869806210092e+01  1.042516249850909e-21  3.293843599927027e-16
-1.850890429440275e+01  1.039455829726323e-22  3.293880301445957e-16
-1.850911114090218e+01  6.111169069699593e-22  3.293917111932518e-16
-1.850931855812335e+01  1.039442614305153e-22  3.293954024314101e-16
-1.850952659264493e+01  6.112349599775477e-22  3.293991046376592e-16
-1.850973520041748e+01  1.039743933325270e-22  3.294028171105635e-16
-1.850994442802152e+01  6.112271215824535e-22  3.294065405244661e-16
-1.851015423142131e+01  1.039415955048287e-22  3.294102742820027e-16
-1.851036465672546e+01  1.769064175812411e-22  3.294140190101531e-16
-1.851057566102355e+01  1.042330334816113e-21  3.294177741002016e-16
-1.851078727896916e+01  1.039395759457490e-22  3.294215400865505e-16
-1.851099951150784e+01  6.110814890102573e-22  3.294253170630395e-16
-1.851121232619758e+01  1.039224901229315e-22  3.294291043151526e-16
-1.851142575859933e+01  6.111521426756293e-22  3.294329026285075e-16
-1.851163979774377e+01  1.039368561709218e-22  3.294367116965317e-16
-1.851185445715368e+01  6.110654531945410e-22  3.294405317984040e-16
-1.851206970382162e+01  1.039197552290928e-22  3.294443623816308e-16
-1.851228557331788e+01  6.112461183152060e-22  3.294482040753934e-16
-1.851250205467680e+01  1.039341052643408e-22  3.294520565730881e-16
-1.851271916096208e+01  1.769565492469841e-22  3.294559202626701e-16
-1.851293687132202e+01  1.042380624075937e-21  3.294597946250062e-16
-1.851315518736121e+01  1.039949369848829e-22  3.294636798514241e-16
-1.851337414309932e+01  6.111627783664777e-22  3.294675764304183e-16
-1.851359369510481e+01  1.039306224498847e-22  3.294714836024763e-16
-1.851381388995589e+01  6.111545280547706e-22  3.294754021978116e-16
-1.851403468365758e+01  1.039292154725870e-22  3.294793315147234e-16
-1.851425612280246e+01  6.111462310017601e-22  3.294832723311457e-16
-1.851447816339753e+01  1.039278005300027e-22  3.294872237891365e-16
-1.851470085156726e+01  1.769143281974192e-22  3.294911867754840e-16
-1.851492415546898e+01  1.042317033145374e-21  3.294951608301962e-16
-1.851514807672019e+01  1.039256631082083e-22  3.294991456756737e-16
-1.851537264935934e+01  6.110623713821874e-22  3.295031422687995e-16
-1.851559782997942e+01  1.039242281060396e-22  3.295071495895356e-16
-1.851582366517296e+01  6.111168203921499e-22  3.295111686239732e-16
-1.851605011097559e+01  1.039227850209927e-22  3.295151984619110e-16
-1.851627721398479e+01  6.111083105644202e-22  3.295192400893361e-16
-1.851650493023909e+01  1.039213338191517e-22  3.295232925439701e-16
-1.851673330635102e+01  6.110997529072086e-22  3.295273567595157e-16
-1.851696229835478e+01  1.039198744665250e-22  3.295314319300120e-16
-1.851719195240672e+01  1.768693439526833e-22  3.295355188895660e-16
-1.851742223669318e+01  1.042237092376589e-21  3.295396171259156e-16
-1.851821925865829e+01  1.039158637120684e-22  3.295538010310809e-16
-1.851788472396711e+01  6.110152420395389e-22  3.295478476109075e-16
-1.851811693944563e+01 -1.157111599743576e-26  3.295519800959202e-16
-1.851834981341274e+01  6.463972227477724e-23  3.295561244015107e-16
-1.842410486592367e+01  9.623200544042064e-22  3.278789230689874e-16
-1.842424935071154e+01  9.465179611306932e-15  3.278814944504353e-16
-1.842439348274657e+01  6.127670744177873e-22  3.278840593999701e-16
-1.842453722957636e+01  1.042144122881532e-22  3.278866175639169e-16
-1.842468063770100e+01  1.774026577996541e-22  3.278891696781625e-16
-1.842482367517476e+01  1.045196698912907e-21  3.278917152795069e-16
-1.842496634371926e+01  1.042130465041815e-22  3.278942541943417e-16
-1.842510867768715e+01  6.128167753389021e-22  3.278967872279261e-16
-1.842525063346057e+01  1.042436841887658e-22  3.278993134594873e-16
-1.842539225801653e+01  6.128114676968663e-22  3.279018338811923e-16
-1.842553350715858e+01  1.042112413126989e-22  3.279043475258590e-16
-1.842567442784869e+01  6.127431021704586e-22  3.279068553335483e-16
-1.842581497588291e+01  1.042024599353276e-22  3.279093565983011e-16
-1.842595519820589e+01  6.128009312857159e-22  3.279118519991961e-16
-1.842609505059820e+01  1.042094539815544e-22  3.279143408826738e-16
-1.842623457954092e+01  1.774021236918523e-22  3.279168239324280e-16
-1.842637375301011e+01  1.045273382769291e-21  3.279193007905631e-16
-1.842651257267999e+01  1.042712076662382e-22  3.279217711794806e-16
-1.842665106173260e+01  6.127879067592776e-22  3.279242357550766e-16
-1.842678920976299e+01  1.042072445114820e-22  3.279266942562755e-16
-1.842692703040421e+01  6.129089050281212e-22  3.279291469123623e-16
-1.842706449049581e+01  1.042063682967214e-22  3.279315932201944e-16
-1.842720162584187e+01  6.127145203371636e-22  3.279340336569816e-16
-1.842733842544346e+01  1.042370368781257e-22  3.279364682287195e-16
-1.842747490245207e+01  1.774190581631823e-22  3.279388969606031e-16
-1.842761103589249e+01  1.045107718660506e-21  3.279413196452325e-16
-1.842774682738504e+01  1.042357365252669e-22  3.279437362144295e-16
-1.842788231114837e+01  6.127648607773630e-22  3.279461472656674e-16
-1.842801744347056e+01  1.042033350101852e-22  3.279485521404391e-16
-1.842815227119993e+01  6.126967282115145e-22  3.279509515707880e-16
-1.842828675003603e+01  1.042024777826609e-22  3.279533447474589e-16
-1.842842092682427e+01  6.126917000133501e-22  3.279557325591605e-16
-1.842855475725387e+01  1.041937398480981e-22  3.279581143012012e-16
-1.842868828815609e+01  6.127497744397811e-22  3.279604906535208e-16
-1.842882147521869e+01  1.042007756848612e-22  3.279628608592432e-16
-1.842895436478966e+01  1.773795012156820e-22  3.279652257597837e-16
-1.842908692476082e+01  1.045060601493537e-21  3.279675847893315e-16
-1.842921915669179e+01  1.042625872125275e-22  3.279699380369578e-16
-1.842935109474694e+01  6.127373677300304e-22  3.279722860483432e-16
-1.842948269515488e+01  1.041986709041285e-22  3.279746280612413e-16
-1.842961400471422e+01  6.127324464025490e-22  3.279769648080461e-16
-1.842974497907631e+01  1.042293741977079e-22  3.279792956889722e-16
-1.842987566502187e+01  6.126644722829547e-22  3.279816213843462e-16
-1.843000601819790e+01  1.041654670982154e-22  3.279839411900073e-16
-1.843013608491556e+01  1.773730977600335e-22  3.279862558953984e-16
-1.843026583302122e+01  1.045022963961999e-21  3.279885648830081e-16
-1.843039526403052e+01  1.041957659732001e-22  3.279908682945458e-16
-1.843052440098566e+01  6.127154047148372e-22  3.279931664737476e-16
-1.843065323333238e+01  1.041949447804986e-22  3.279954591610790e-16
-1.843078177456333e+01  6.127105868678849e-22  3.279977466915167e-16
-1.843090999138776e+01  1.041941274378494e-22  3.280000284589860e-16
-1.843103791945260e+01  6.126427180791171e-22  3.280023051508407e-16
-1.843116554762702e+01  1.041933139153296e-22  3.280045764088955e-16
-1.843129288938789e+01  6.127640924880268e-22  3.280068425682648e-16
-1.843141991142285e+01  1.041925041832326e-22  3.280091031275518e-16
-1.843154664890285e+01  1.773733381027804e-22  3.280113585699727e-16
-1.843167310288633e+01  1.044978034241552e-21  3.280136089373491e-16
-1.843179924159400e+01  1.041912966274664e-22  3.280158537651555e-16
-1.843192511018396e+01  6.126891840492175e-22  3.280180937497764e-16
-1.843205066481194e+01  1.041904962425077e-22  3.280203281298902e-16
-1.843217595217392e+01  6.126844882918652e-22  3.280225577430905e-16
-1.843230092785317e+01  1.041896995455061e-22  3.280247818338101e-16
-1.843242563853807e+01  6.125536716656998e-22  3.280270012396933e-16
-1.843255003980132e+01  1.042204420052546e-22  3.280292151008689e-16
-1.843267417786749e+01  1.773908791333954e-22  3.280314242596048e-16
-1.843279802050366e+01  1.044942117913164e-21  3.280336281515353e-16
-1.843292156915298e+01  1.041877237488225e-22  3.280358269190516e-16
-1.843304485785234e+01  6.125420820629952e-22  3.280380209521883e-16
-1.843316784272758e+01  1.041869397335779e-22  3.280402096466466e-16
-1.843329057044062e+01  6.126320874874432e-22  3.280423936836080e-16
-1.843341299654645e+01  1.041703919448232e-22  3.280445724645119e-16
-1.843353516769501e+01  6.126590432465508e-22  3.280467466706357e-16
-1.843365703943726e+01  1.041853823537401e-22  3.280489154946273e-16
-1.843377865841688e+01  6.125914162786475e-22  3.280510798266523e-16
-1.843389998017745e+01  1.042161431301875e-22  3.280532389116634e-16
-1.843402105089689e+01  1.773520446245380e-22  3.280553934878341e-16
-1.843414182722867e+01  1.044773075612123e-21  3.280575428934340e-16
-1.843426234382610e+01  1.041834553113836e-22  3.280596876166623e-16
-1.843438260144019e+01  6.125801110180347e-22  3.280618277023875e-16
-1.843450256725038e+01  1.041669237210292e-22  3.280639626444440e-16
-1.843462227679414e+01  6.126386914656254e-22  3.280660930265643e-16
-1.843474171884431e+01  1.041819291543085e-22  3.280682186482210e-16
-1.843486090676668e+01  6.125080909074136e-22  3.280703396888671e-16
-1.843497980715938e+01  1.041496380033623e-22  3.280724557004011e-16
-1.843509845509428e+01  1.773462056388805e-22  3.280745671667647e-16
-1.843521685152738e+01  1.044738754147758e-21  3.280766741307608e-16
-1.843533496459392e+01  1.041800404465581e-22  3.280787761811044e-16
-1.843545283934281e+01  6.124970112894367e-22  3.280808739105168e-16
-1.843557043185063e+01  1.042108233716849e-22  3.280829665587367e-16
-1.843568778871164e+01  6.125872109498524e-22  3.280850550684364e-16
-1.843580486542452e+01  1.041785444086061e-22  3.280871385807464e-16
-1.843592170857942e+01  6.126143640033337e-22  3.280892179339383e-16
-1.843603827367399e+01  1.041699182583053e-22  3.280912923735902e-16
-1.843615460728538e+01  6.125469396240353e-22  3.280933626336612e-16
-1.843627066491549e+01  1.041770614094913e-22  3.280954280641226e-16
-1.843638649267640e+01  1.773392249032610e-22  3.280974893513662e-16
-1.843650204717404e+01  1.044949974910112e-21  3.280995458865172e-16
-1.843661736300339e+01  1.041128944331995e-22  3.281015979493548e-16
-1.843673244086434e+01  6.125991853508766e-22  3.281036458984780e-16
-1.843684724788409e+01  1.041594599967098e-22  3.281056890195384e-16
-1.843696183063314e+01  6.125948906208256e-22  3.281077282031053e-16
-1.843707614458994e+01  1.041744969020590e-22  3.281097625384084e-16
-1.843719023630569e+01  6.126536763410885e-22  3.281117929161876e-16
-1.843730406126743e+01  1.041737712448128e-22  3.281138185822249e-16
-1.843741766555922e+01  1.773651669203942e-22  3.281158403275076e-16
-1.843753101686457e+01  1.044664868199987e-21  3.281178574321435e-16
-1.843764411650561e+01  1.041726885445141e-22  3.281198702484861e-16
-1.843775699840492e+01  6.125800029535924e-22  3.281218791673848e-16
-1.843786961859671e+01  1.041719705639329e-22  3.281238833247669e-16
-1.843798202363021e+01  6.125757898211469e-22  3.281258837679280e-16
-1.843809416896587e+01  1.041712556091909e-22  3.281278794819511e-16
-1.843820610114479e+01  6.125715944077515e-22  3.281298714619832e-16
-1.843831777562677e+01  1.041626611699313e-22  3.281318588497478e-16
-1.843842923895119e+01  6.125674165625980e-22  3.281338424837714e-16
-1.843854044657089e+01  1.041698346755559e-22  3.281358215580706e-16
-1.843865144456029e+01  1.773297121022280e-22  3.281377968636066e-16
-1.843876220057858e+01  1.044751675509177e-21  3.281397678374187e-16
-1.843887271593340e+01  1.041687767293371e-22  3.281417346753654e-16
-1.843898302452563e+01  6.124939892400681e-22  3.281436977162247e-16
-1.843909308237734e+01  1.041680750769129e-22  3.281456563571650e-16
-1.843920293601003e+01  6.125529303129488e-22  3.281476112802019e-16
-1.843931254087637e+01  1.041673763112874e-22  3.281495618882297e-16
-1.843942194349138e+01  6.126118874412444e-22  3.281515088633074e-16
-1.843953109930696e+01  1.041666804074156e-22  3.281534513995408e-16
-1.843964005438279e+01  1.772900619298259e-22  3.281553903923482e-16
-1.843974877635797e+01  1.044594055921556e-21  3.281573252790227e-16
-1.843985726653561e+01  1.041971703186195e-22  3.281592558900345e-16
-1.843996555880152e+01  6.125386511140921e-22  3.281611831384748e-16
-1.844007360916603e+01  1.041649530038078e-22  3.281631060040817e-16
-1.844018146414264e+01  6.125346084912271e-22  3.281650253776659e-16
-1.844028907917235e+01  1.041642669195045e-22  3.281669405579068e-16
-1.844039650075900e+01  6.125305821115490e-22  3.281688522268817e-16
-1.844050368434855e+01  1.041635835849585e-22  3.281707596832383e-16
-1.844061067643889e+01  6.125265718282140e-22  3.281726637134954e-16
-1.844071743247484e+01  1.041944306024987e-22  3.281745636163287e-16
-1.844082399849729e+01  1.773151732310457e-22  3.281764600784173e-16
-1.844093034214574e+01  1.044556327204855e-21  3.281783524849174e-16
-1.844103646470518e+01  1.041618871165888e-22  3.281802411362815e-16
-1.844114240004906e+01  6.124535611564498e-22  3.281821264236169e-16
-1.844124810418717e+01  1.041612132116040e-22  3.281840075355716e-16
-1.844135362361036e+01  6.125126605049503e-22  3.281858853630632e-16
-1.844145891376436e+01  1.041920688577878e-22  3.281877591526139e-16
-1.844156402113467e+01  6.125717744851370e-22  3.281896296385735e-16
-1.844166890116351e+01  1.041598732934367e-22  3.281914961197161e-16
-1.844177360034208e+01  6.123786900855006e-22  3.281933593825140e-16
-1.844187807410968e+01  1.041592072310738e-22  3.281952186213873e-16
-1.844198236849165e+01  1.773088942876088e-22  3.281970746274616e-16
-1.844208645112568e+01  1.044519410183714e-21  3.281989268381755e-16
-1.844219032329070e+01  1.041582129394879e-22  3.282007754496209e-16
-1.844229401885728e+01  6.124950516608427e-22  3.282026208006585e-16
-1.844239749382586e+01  1.041417902401215e-22  3.282044622889150e-16
-1.844250079468378e+01  6.124911797362941e-22  3.282063007008292e-16
-1.844260387686844e+01  1.041647775046822e-22  3.282081351265033e-16
-1.844270678686984e+01  6.124873224633700e-22  3.282099665611206e-16
-1.844280948012014e+01  1.041562413404486e-22  3.282117940948537e-16
-1.844291200264422e+01  1.773066177805950e-22  3.282136185709390e-16
-1.844301432207919e+01  1.044615882104754e-21  3.282154395834639e-16
-1.844311643970590e+01  1.041552638678664e-22  3.282172568065130e-16
-1.844321838938130e+01  6.124777424415645e-22  3.282190711009953e-16
-1.844332012711621e+01  1.041388526882176e-22  3.282208816557132e-16
-1.844342169939047e+01  6.124739353198948e-22  3.282226892570893e-16
-1.844352306164610e+01  1.041854939439302e-22  3.282244930996498e-16
-1.844362426036636e+01  6.124701422031835e-22  3.282262940741575e-16
-1.844372525098731e+01  1.041218004360203e-22  3.282280913230174e-16
-1.844382607999889e+01  6.124663629483586e-22  3.282298856847084e-16
-1.844392670283336e+01  1.041526836520396e-22  3.282316764060832e-16
-1.844402716551970e+01  1.773056910956928e-22  3.282334642258346e-16
-1.844412743569143e+01  1.044517283058117e-21  3.282352487381430e-16
-1.844422751463297e+01  1.041517257273411e-22  3.282370296692535e-16
-1.844432743620503e+01  6.123939262149420e-22  3.282388078799459e-16
-1.844442715642083e+01  1.041510899706950e-22  3.282405825590864e-16
-1.844452672175751e+01  6.124532426374182e-22  3.282423544930160e-16
-1.844462608766798e+01  1.041425755084068e-22  3.282441227718511e-16
-1.844472530063077e+01  6.123864764492118e-22  3.282458883906802e-16
-1.844482431609446e+01  1.041498252107871e-22  3.282476504918734e-16
-1.844492318007803e+01  1.772929527360416e-22  3.282494098663320e-16
-1.844502186023223e+01  1.044551765036159e-21  3.282511660559156e-16
-1.844512035784060e+01  1.041488824532888e-22  3.282529188912656e-16
-1.844521870676652e+01  6.123772376118856e-22  3.282546691286721e-16
-1.844531686302475e+01  1.041482566699799e-22  3.282564159570584e-16
-1.844541487311051e+01  6.124366106385707e-22  3.282581601624975e-16
-1.844551269246721e+01  1.041791560404963e-22  3.282599009918557e-16
-1.844561036758664e+01  6.123699038282770e-22  3.282616391790282e-16
-1.844570785392671e+01  1.042100571587569e-22  3.282633740751387e-16
-1.844580519796624e+01  6.124293010790702e-22  3.282651064141931e-16
-1.844590235517363e+01  1.041463921132278e-22  3.282668354950314e-16
-1.844599937157219e+01  1.772871185994129e-22  3.282685620040198e-16
-1.844609621481145e+01  1.044517450698123e-21  3.282702855352802e-16
-1.844619288619504e+01  1.041454668778879e-22  3.282720058148624e-16
-1.844628941958876e+01  6.124202330205163e-22  3.282737237033341e-16
-1.844638577102580e+01  1.041448526060121e-22  3.282754384417107e-16
-1.844648198699419e+01  6.122905384787126e-22  3.282771507638394e-16
-1.844657802296898e+01  1.041442403464777e-22  3.282788598119713e-16
-1.844667392543547e+01  6.124130322630355e-22  3.282805665287310e-16
-1.844676964986754e+01  1.041436300743895e-22  3.282822700042042e-16
-1.844686524230110e+01  1.772851868907842e-22  3.282839711855069e-16
-1.844696067040054e+01  1.044363753263358e-21  3.282856695622737e-16
-1.844705593547230e+01  1.041427183377764e-22  3.282873648083337e-16
-1.844715107138981e+01  6.123410536495824e-22  3.282890578884887e-16
-1.844724603420915e+01  1.041421129244919e-22  3.282907478348293e-16
-1.844734087041653e+01  6.122744570322734e-22  3.282924355899020e-16
-1.844743553550572e+01  1.041415094108303e-22  3.282941202436498e-16
-1.844753007596892e+01  6.123969986025057e-22  3.282958026863491e-16
-1.844762444729378e+01  1.041724287411230e-22  3.282974821645906e-16
-1.844771869599010e+01  6.123934661485636e-22  3.282991594118851e-16
-1.844781277753796e+01  1.041403079812430e-22  3.283008337271044e-16
-1.844790673798399e+01  1.772846583407935e-22  3.283025058483907e-16
-1.844800054501979e+01  1.044393583691012e-21  3.283041752129731e-16
-1.844809419995671e+01  1.041078911904123e-22  3.283058419643379e-16
-1.844818773669208e+01  6.123846819304719e-22  3.283075065450644e-16
-1.844828111129134e+01  1.041388164281867e-22  3.283091683003727e-16
-1.844837437026222e+01  6.125072676035918e-22  3.283108279637312e-16
-1.844846746911395e+01  1.041382229090456e-22  3.283124847293926e-16
-1.844856045435112e+01  6.123777015758102e-22  3.283141394874048e-16
-1.844865328149035e+01  1.041691511019512e-22  3.283157914841501e-16
-1.844874599658149e+01  1.772722281122350e-22  3.283174414576580e-16
-1.844883856732857e+01  1.044555936019556e-21  3.283190888972675e-16
-1.844893099506814e+01  1.041367466418721e-22  3.283207337374485e-16
-1.844902331370248e+01  6.123690329250896e-22  3.283223766294249e-16
-1.844911547931864e+01  1.041361590793865e-22  3.283240168660755e-16
-1.844920753843904e+01  6.123655826464343e-22  3.283256551284531e-16
-1.844929944658909e+01  1.041355731605421e-22  3.283272907672778e-16
-1.844939125029048e+01  6.122991034230639e-22  3.283289245157799e-16
-1.844948290507651e+01  1.041349888592396e-22  3.283305556202399e-16
-1.844957445747431e+01  6.123587107000451e-22  3.283321849181899e-16
-1.844966586301346e+01  1.041344061492317e-22  3.283338116037756e-16
-1.844975716776961e+01  1.772667458935183e-22  3.283354364668572e-16
-1.844984833946614e+01  1.044397601905598e-21  3.283370590488221e-16
-1.844993937946415e+01  1.041335350104040e-22  3.283386791273268e-16
-1.845003032168545e+01  6.123501728238407e-22  3.283402975620684e-16
-1.845012112224379e+01  1.041329561634177e-22  3.283419134891763e-16
-1.845021182767445e+01  6.123467733710762e-22  3.283435276416660e-16
-1.845030239353198e+01  1.041244992182714e-22  3.283451394222275e-16
-1.845039286635938e+01  6.122803460515039e-22  3.283467495115942e-16
-1.845048320171485e+01  1.041633211531433e-22  3.283483571036910e-16
-1.845057344568400e+01  1.772650822781285e-22  3.283499630925703e-16
-1.845066356601621e+01  1.044371560668389e-21  3.283515669672160e-16
-1.845075356408502e+01  1.041309418271288e-22  3.283531685051579e-16
-1.845084347383900e+01  6.123349430434103e-22  3.283547686179419e-16
-1.845093325140642e+01  1.041303695140963e-22  3.283563662850651e-16
-1.845102294334835e+01  6.123315816579987e-22  3.283579625001281e-16
-1.845111250523811e+01  1.041297985790134e-22  3.283595563004014e-16
-1.845120198363811e+01  6.123282282950313e-22  3.283611487316393e-16
-1.845129133412944e+01  1.041607464293451e-22  3.283627387788639e-16
-1.845138060327719e+01  6.122618480971651e-22  3.283643274355993e-16
-1.845146974666753e+01  1.041286607336323e-22  3.283659138433861e-16
-1.845155881040823e+01  1.772648569352587e-22  3.283674988437703e-16
-1.845164776227857e+01  1.044277086988266e-21  3.283690819254891e-16
-1.845173660368525e+01  1.041278107633246e-22  3.283706628657374e-16
-1.845182536859088e+01  6.123480693024278e-22  3.283722425758385e-16
-1.845191401316163e+01  1.041272456903098e-22  3.283738200871765e-16
-1.845200258397669e+01  6.123132331277728e-22  3.283753963408860e-16
-1.845209103664801e+01  1.041188026780906e-22  3.283769704261158e-16
-1.845217941775788e+01  6.123729541609467e-22  3.283785433361331e-16
-1.845226768291454e+01  1.040630862097632e-22  3.283801140557746e-16
-1.845235587825800e+01  1.772526558991502e-22  3.283816836349153e-16
-1.845244397158622e+01  1.044440751470289e-21  3.283832513534177e-16
-1.845253196432353e+01  1.041252774116702e-22  3.283848173013919e-16
-1.845261989046222e+01  6.123016708136361e-22  3.283863820245208e-16
-1.845270770618969e+01  1.041247176381884e-22  3.283879448149540e-16
-1.845279545811717e+01  6.121723184116946e-22  3.283895064568759e-16
-1.845288310187253e+01  1.041241589646508e-22  3.283910661958885e-16
-1.845297068406230e+01  6.122951002707673e-22  3.283926248683886e-16
-1.845305816032895e+01  1.041551170940722e-22  3.283941815633000e-16
-1.845314557728564e+01  6.122918244081513e-22  3.283957372734805e-16
-1.845323289057524e+01  1.041230448034670e-22  3.283972910878642e-16
-1.845332014635624e+01  1.772474274641461e-22  3.283988438994956e-16
-1.845340731246914e+01  1.044283911412325e-21  3.284003952487739e-16
-1.845349439036820e+01  1.041222118568139e-22  3.284019448080507e-16
-1.845358141407312e+01  6.122836608372149e-22  3.284034935401089e-16
-1.845366833980456e+01  1.041216577781247e-22  3.284050404237545e-16
-1.845375521420496e+01  6.122804053951219e-22  3.284065864514875e-16
-1.845384199293262e+01  1.041289833845231e-22  3.284081308164993e-16
-1.845392872262975e+01  6.122771554012216e-22  3.284096743025518e-16
-1.845401535896750e+01  1.040575227980913e-22  3.284112160505426e-16
-1.845410194812969e+01  1.772459500652603e-22  3.284127570053624e-16
-1.845418845798183e+01  1.044132897881019e-21  3.284142966550216e-16
-1.845427489001058e+01  1.041354830009248e-22  3.284158347237238e-16
-1.845436127825798e+01  6.122060241667769e-22  3.284173720696052e-16
-1.845444757897551e+01  1.041191756464297e-22  3.284189079321255e-16
-1.845453383882227e+01  6.122658208249153e-22  3.284204430426383e-16
-1.845462001350382e+01  1.041186263789136e-22  3.284219765939241e-16
-1.845470614967229e+01  6.121995649098427e-22  3.284235094739282e-16
-1.845479220303425e+01  1.041495919488879e-22  3.284250409276125e-16
-1.845487822026325e+01  6.122593700503050e-22  3.284265716861532e-16
-1.845496415706228e+01  1.041332870941711e-22  3.284281010467409e-16
-1.845505005965737e+01  1.772695610316418e-22  3.284296297972103e-16
-1.845513589593959e+01  1.044102633377787e-21  3.284311572688318e-16
-1.845522166743110e+01  1.041167098695543e-22  3.284326837594124e-16
-1.845530740820835e+01  6.122513306403514e-22  3.284342096048811e-16
-1.845539307456639e+01  1.041161638632554e-22  3.284357341486921e-16
-1.845547871319041e+01  6.122481217846534e-22  3.284372582262010e-16
-1.845556427982174e+01  1.041077401686749e-22  3.284387809777274e-16
-1.845564982115296e+01  6.122449166041542e-22  3.284403032385367e-16
-1.845573529292490e+01  1.040520474408571e-22  3.284418243576766e-16
-1.845582074138073e+01  1.772338681514041e-22  3.284433450183795e-16
-1.845590613445882e+01  1.044141054645833e-21  3.284448646558404e-16
-1.845599147369953e+01  1.041300141333256e-22  3.284463833589607e-16
-1.845607679321421e+01  6.122054057127627e-22  3.284479017241528e-16
-1.845616204932256e+01  1.040979579434204e-22  3.284494189903262e-16
-1.845624728874770e+01  6.122337247741534e-22  3.284509358880270e-16
-1.845633246725285e+01  1.041446840181142e-22  3.284524517661232e-16
-1.845641763156853e+01  6.121675088751376e-22  3.284539673550685e-16
-1.845650273746194e+01  1.041441414529859e-22  3.284554819515292e-16
-1.845658783167237e+01  6.122903702608953e-22  3.284569962336789e-16
-1.845667286997709e+01  1.041278432008666e-22  3.284585096546215e-16
-1.845675789865662e+01  1.772287862404102e-22  3.284600228449502e-16
-1.845684288568284e+01  1.044174152482032e-21  3.284615351873992e-16
-1.845692783264139e+01  1.041427868782777e-22  3.284630469791061e-16
-1.845701277368041e+01  6.120933376851860e-22  3.284645586073417e-16
-1.845709766516106e+01  1.041107338623725e-22  3.284660693628471e-16
-1.845718255383770e+01  6.122162049191894e-22  3.284675800279390e-16
-1.845726739553032e+01  1.041023152515012e-22  3.284690899509857e-16
-1.845735223698762e+01  6.122130262812780e-22  3.284705997578185e-16
-1.845743703403687e+01  1.040466297485202e-22  3.284721088489209e-16
-1.845752183298832e+01  1.772274050499188e-22  3.284736179588640e-16
-1.845760660184461e+01  1.044149752057643e-21  3.284751264701168e-16
-1.845769134223213e+01  1.041088426354571e-22  3.284766345750441e-16
-1.845777608832683e+01  6.121735751194972e-22  3.284781427127585e-16
-1.845786079652964e+01  1.041083028136463e-22  3.284796502258356e-16
-1.845794551363397e+01  6.122019124438535e-22  3.284811578439488e-16
-1.845803019548466e+01  1.041392741030946e-22  3.284826648631011e-16
-1.845811488888328e+01  6.121987395081992e-22  3.284841720650413e-16
-1.845819954968592e+01  1.041387344319668e-22  3.284856787456731e-16
-1.845828422469591e+01  6.121955672969899e-22  3.284871855823638e-16
-1.845836886978330e+01  1.041066842559717e-22  3.284886919752358e-16
-1.845845353130636e+01  1.771880804969345e-22  3.284901986061138e-16
-1.845853817732197e+01  1.044119987911278e-21  3.284917050134941e-16
-1.845862280949994e+01  1.041058752775412e-22  3.284932111284256e-16
-1.845870746206735e+01  6.120615974813693e-22  3.284947176503049e-16
-1.845879209148469e+01  1.040423155853198e-22  3.284962237124879e-16
-1.845887674459125e+01  6.121844673553500e-22  3.284977302527866e-16
-1.845896137729148e+01  1.041047966898019e-22  3.284992363579866e-16
-1.845904603644435e+01  6.121182759857620e-22  3.285007429135124e-16
-1.845913067796155e+01  1.041042573388659e-22  3.285022492669515e-16
-1.845921534825236e+01  1.772154596456838e-22  3.285037560473720e-16
-1.845930001543266e+01  1.044095646370685e-21  3.285052627405442e-16
-1.845938468122799e+01  1.041192029568567e-22  3.285067695378076e-16
-1.845946937992195e+01  6.121418555219478e-22  3.285082768249028e-16
-1.845955406803651e+01  1.041029085095236e-22  3.285097839954854e-16
-1.845963879247464e+01  6.121701913066509e-22  3.285112917257915e-16
-1.845972350921305e+01  1.041338780068877e-22  3.285127994149702e-16
-1.845980826517502e+01  6.121670163995319e-22  3.285143077390374e-16
-1.845989301635242e+01  1.041648469648477e-22  3.285158159926606e-16
-1.845997780969327e+01  6.121008220135971e-22  3.285173249559313e-16
-1.846006260121892e+01  1.041170429010792e-22  3.285188339232339e-16
-1.846014743743658e+01  1.772104047520890e-22  3.285203437312456e-16
-1.846023228657723e+01  1.043939823371328e-21  3.285218537081169e-16
-1.846031715048888e+01  1.041004774546327e-22  3.285233639396019e-16
-1.846040206357858e+01  6.121558920466146e-22  3.285248751231538e-16
-1.846048698251642e+01  1.040999363909397e-22  3.285263863379873e-16
-1.846057195434796e+01  6.121527092417736e-22  3.285278984674935e-16
-1.846065693522066e+01  1.040993949402467e-22  3.285294108570026e-16
-1.846074197222632e+01  6.122125406857474e-22  3.285309241285762e-16
-1.846082702155642e+01  1.040358365801845e-22  3.285324377314522e-16
-1.846091212990062e+01  1.772090187823909e-22  3.285339523438892e-16
-1.846099726569097e+01  1.044041415603931e-21  3.285354674485663e-16
-1.846108243100249e+01  1.041137933436091e-22  3.285369830246055e-16
-1.846116766047335e+01  6.121100410045564e-22  3.285384998192434e-16
-1.846125291104618e+01  1.040974962069743e-22  3.285400169090156e-16
-1.846133823006669e+01  6.121383533283480e-22  3.285415352785516e-16
-1.846142357401148e+01  1.040969524821500e-22  3.285430540612548e-16
-1.846150899034495e+01  6.120918312250697e-22  3.285445741883741e-16
-1.846159443569790e+01  1.041279156224095e-22  3.285460947917755e-16
-1.846167995771219e+01  6.121319510814236e-22  3.285476166965692e-16
-1.846176551322421e+01  1.041273704067821e-22  3.285491392934051e-16
-1.846185114969475e+01  1.772326721252480e-22  3.285506633048611e-16
-1.846193683651076e+01  1.044011393237790e-21  3.285521882562274e-16
-1.846202257693414e+01  1.041265511527838e-22  3.285537140625100e-16
-1.846210840715018e+01  6.121239240235015e-22  3.285552414553067e-16
-1.846219428614727e+01  1.040944969955436e-22  3.285567698036537e-16
-1.846228026402187e+01  6.119946768787292e-22  3.285582998557440e-16
-1.846236630104759e+01  1.040860722604413e-22  3.285598310198654e-16
-1.846245244988952e+01  6.120544649220990e-22  3.285613641748565e-16
-1.846253867427916e+01  1.040303865792825e-22  3.285628986420696e-16
-1.846262501973558e+01  1.771969677392477e-22  3.285644352678512e-16
-1.846271148682382e+01  1.043923627199257e-21  3.285659740464570e-16
-1.846279808176257e+01  1.041083264384268e-22  3.285675150717811e-16
-1.846288484653768e+01  6.120463645758080e-22  3.285690591734874e-16
-1.846297171888698e+01  1.040920200449546e-22  3.285706051518629e-16
-1.846305864048264e+01  6.121061209403361e-22  3.285721520806667e-16
-1.846314520827998e+01  1.040914672894432e-22  3.285736926413444e-16
-1.846323041174633e+01  6.120615511487429e-22  3.285752089324661e-16
-1.846331146045960e+01  1.040909375901397e-22  3.285766512932332e-16
-1.846338314346461e+01  6.120370295625838e-22  3.285779269076429e-16
-1.846344387089204e+01  1.040747628543116e-22  3.285790076906037e-16
 1.861296504014510e+01  4.847133565700905e-22 -3.312399151907774e-16
 1.861306960332222e+01  9.543920093342469e-22 -3.312417761387177e-16
 1.861285065782364e+01  1.164176481382022e-22 -3.312378796451076e-16
 1.861274707732646e+01  4.845911728517534e-22 -3.312360363295462e-16
 1.861265281124999e+01  1.163869977658261e-22 -3.312343587659424e-16
 1.861256261251079e+01  4.845939328327850e-22 -3.312327535142164e-16
 1.861247380582043e+01  1.163837208108582e-22 -3.312311731623540e-16
 1.861238529991671e+01  4.845965857886509e-22 -3.312295980268045e-16
 1.861229678154999e+01  1.164196390362021e-22 -3.312280227952457e-16
 1.861220810155901e+01  4.846619609461329e-22 -3.312264446312237e-16
 1.861211928330173e+01  1.163889149957577e-22 -3.312248639708336e-16
 1.861203028904417e+01  1.349782732585594e-22 -3.312232802132662e-16
 1.861194115474132e+01  1.035465240690282e-21 -3.312216939254343e-16
 1.861185191131914e+01  1.163898757849906e-22 -3.312201057776293e-16
 1.861176252270468e+01  4.846059036943166e-22 -3.312185150481991e-16
 1.861167303896584e+01  1.163905185509454e-22 -3.312169225232655e-16
 1.861158342076240e+01  4.846085833629491e-22 -3.312153277222905e-16
 1.861149371431348e+01  1.163872426071548e-22 -3.312137312630660e-16
 1.861140387773861e+01  4.846112696177884e-22 -3.312121324833068e-16
 1.861131395542512e+01  1.163604460560936e-22 -3.312105322272658e-16
 1.861122390390843e+01  1.349189079097607e-22 -3.312089296411303e-16
 1.861113375622992e+01  1.035741956395859e-21 -3.312073254255424e-16
 1.861104351247101e+01  1.163927806872665e-22 -3.312057193719039e-16
 1.861095313848878e+01  4.847434660594488e-22 -3.312041109984145e-16
 1.861086267754475e+01  1.163934304910185e-22 -3.312025012128084e-16
 1.861077208532789e+01  4.846207221516191e-22 -3.312008890140996e-16
 1.861068140447089e+01  1.164254453066578e-22 -3.311992752126076e-16
 1.861059059048979e+01  4.848743457766759e-22 -3.311976591206716e-16
 1.861049968586713e+01  1.163886091323289e-22 -3.311960413424447e-16
 1.861040864600525e+01  4.846888870676195e-22 -3.311944211914110e-16
 1.861031751328740e+01  1.164267532323484e-22 -3.311927993246808e-16
 1.861022624272790e+01  1.349857912315902e-22 -3.311911750596896e-16
 1.861013486620580e+01  1.035397529172543e-21 -3.311895489013070e-16
 1.861004338287593e+01  1.163963744659018e-22 -3.311879208581160e-16
 1.860995175784321e+01  4.847584517880917e-22 -3.311862903001457e-16
 1.860986003374394e+01  1.163813511679882e-22 -3.311846579338833e-16
 1.860976816574110e+01  4.847611992113108e-22 -3.311830230752007e-16
 1.860967619600531e+01  1.163663294444611e-22 -3.311813863314985e-16
 1.860958407965026e+01  4.846384960009476e-22 -3.311797470191345e-16
 1.860949185881493e+01  1.163983562221583e-22 -3.311781058497083e-16
 1.860939948828224e+01  1.349892364274835e-22 -3.311764619871488e-16
 1.860930699972824e+01  1.035549449756104e-21 -3.311748160942380e-16
 1.860921439212714e+01  1.163679883532683e-22 -3.311731679736725e-16
 1.860912163041280e+01  4.847081444860975e-22 -3.311715171529568e-16
 1.860902875707797e+01  1.164000202329844e-22 -3.311698643920413e-16
 1.860893572713884e+01  4.846481958106862e-22 -3.311682088524224e-16
 1.860884258264915e+01  1.163967685337170e-22 -3.311665511946868e-16
 1.860874927860646e+01  4.847764464256062e-22 -3.311648906843660e-16
 1.860865585704041e+01  1.164013601167624e-22 -3.311632281900370e-16
 1.860856227293974e+01  4.847165138544538e-22 -3.311615627695733e-16
 1.860846856831903e+01  1.164020330671895e-22 -3.311598951359222e-16
 1.860837469785987e+01  1.350562381049353e-22 -3.311582246097411e-16
 1.860828069314097e+01  1.035707720289930e-21 -3.311565516990678e-16
 1.860818655304078e+01  1.164030463745844e-22 -3.311548763633578e-16
 1.860809224241615e+01  4.846608146771839e-22 -3.311531979750265e-16
 1.860799780367947e+01  1.164037245645034e-22 -3.311515173468550e-16
 1.860790319177971e+01  4.846636429094998e-22 -3.311498335889882e-16
 1.860780844870747e+01  1.163965633712103e-22 -3.311481475185332e-16
 1.860771352939449e+01  4.847919455355555e-22 -3.311464583496597e-16
 1.860761847582512e+01  1.164364539119372e-22 -3.311447667437505e-16
 1.860752324263180e+01  1.349970547026419e-22 -3.311430719699484e-16
 1.860742786136747e+01  1.035860451334901e-21 -3.311413744327294e-16
 1.860733233088099e+01  1.164217989689599e-22 -3.311396744553817e-16
 1.860723661598501e+01  4.847990819926377e-22 -3.311379710471597e-16
 1.860714075907710e+01  1.164068039422148e-22 -3.311362652288013e-16
 1.860704471507455e+01  4.848019535413798e-22 -3.311345560068160e-16
 1.860694852594175e+01  1.164074946297023e-22 -3.311328441986434e-16
 1.860685214659053e+01  4.849303036569014e-22 -3.311311290185689e-16
 1.860675561898334e+01  1.164021225842044e-22 -3.311294111801967e-16
 1.860665889802697e+01  4.847449920775906e-22 -3.311276898978436e-16
 1.860656202569018e+01  1.163775158725747e-22 -3.311259659369991e-16
 1.860646495657071e+01  1.350014643798086e-22 -3.311242385151189e-16
 1.860636772220594e+01  1.035768876296970e-21 -3.311225081407605e-16
 1.860627032142446e+01  1.164060104033623e-22 -3.311207747219267e-16
 1.860617271901424e+01  4.848150016428239e-22 -3.311190377354515e-16
 1.860607495736654e+01  1.163949493369068e-22 -3.311172979944793e-16
 1.860597699137238e+01  4.846924583862131e-22 -3.311155546095460e-16
 1.860587886299053e+01  1.164113378272697e-22 -3.311138082424190e-16
 1.860578052711010e+01  4.848208700990156e-22 -3.311120582633184e-16
 1.860568202568880e+01  1.164120450327210e-22 -3.311103052820992e-16
 1.860558331332215e+01  1.350051379222280e-22 -3.311085486200249e-16
 1.860548442153411e+01  1.035671639673911e-21 -3.311067886300221e-16
 1.860538534914903e+01  1.163817423695814e-22 -3.311050255836848e-16
 1.860528606094443e+01  4.847655314895582e-22 -3.311032585943220e-16
 1.860518659930651e+01  1.163824562443798e-22 -3.311014885790701e-16
 1.860508691911921e+01  4.848312485577734e-22 -3.310997146484455e-16
 1.860498706233538e+01  1.164066996576960e-22 -3.310979376201526e-16
 1.860488698384084e+01  4.848342401537019e-22 -3.310961566046672e-16
 1.860478672558492e+01  1.163995770830447e-22 -3.310943723678056e-16
 1.860468624245899e+01  4.847745053038739e-22 -3.310925841757818e-16
 1.860458557640779e+01  1.164159843325652e-22 -3.310907926905968e-16
 1.860448468202605e+01  1.350410849041722e-22 -3.310889971295362e-16
 1.860438359082940e+01  1.035706825694771e-21 -3.310871981572948e-16
 1.860428230164517e+01  1.164170739108306e-22 -3.310853955260390e-16
 1.860418077924521e+01  4.847193278970262e-22 -3.310835888164893e-16
 1.860407906601249e+01  1.164178040723922e-22 -3.310817787381437e-16
 1.860397711683150e+01  4.848478541221440e-22 -3.310799644013965e-16
 1.860387497364982e+01  1.164185373077276e-22 -3.310781466760279e-16
 1.860377259135047e+01  4.847254337886957e-22 -3.310763246204852e-16
 1.860367001189685e+01  1.163879034338476e-22 -3.310744991044031e-16
 1.860356718986341e+01  1.350292233325414e-22 -3.310726692932401e-16
 1.860346415678250e+01  1.035736212890519e-21 -3.310708355918669e-16
 1.860336091147210e+01  1.164203841426420e-22 -3.310689983238734e-16
 1.860325741871022e+01  4.848586224300931e-22 -3.310671564984981e-16
 1.860315372088323e+01  1.164054431299646e-22 -3.310653110849748e-16
 1.860304977286805e+01  4.848617292410720e-22 -3.310634612456182e-16
 1.860294561662488e+01  1.164218761240781e-22 -3.310616076423848e-16
 1.860284120703827e+01  4.848648497987752e-22 -3.310597495413719e-16
 1.860273658606624e+01  1.164226270773528e-22 -3.310578877084572e-16
 1.860263170859053e+01  4.848052418248961e-22 -3.310560213058617e-16
 1.860252661657324e+01  1.163920100639140e-22 -3.310541510474939e-16
 1.860242126460406e+01  1.350183124970546e-22 -3.310522761504788e-16
 1.860231568421230e+01  1.035772919635263e-21 -3.310503971755980e-16
 1.860220987422384e+01  1.164166763876532e-22 -3.310485142385869e-16
 1.860210379942304e+01  4.848758827345530e-22 -3.310466265043364e-16
 1.860199750219665e+01  1.164095963165309e-22 -3.310447348382834e-16
 1.860189093743749e+01  4.847535796847005e-22 -3.310428384024591e-16
 1.860178414710479e+01  1.164260487098871e-22 -3.310409379108527e-16
 1.860167708609129e+01  4.847567783942123e-22 -3.310390326813048e-16
 1.860156979636329e+01  1.164111326206622e-22 -3.310371232719165e-16
 1.860146223251715e+01  1.350223080473383e-22 -3.310352090554779e-16
 1.860135442609045e+01  1.035803641862116e-21 -3.310332904888468e-16
 1.860124637591450e+01  1.164593531858419e-22 -3.310313676357480e-16
 1.860113804677894e+01  4.848275864217244e-22 -3.310294398167650e-16
 1.860102948108795e+01  1.163973869956943e-22 -3.310275077413955e-16
 1.860092063372337e+01  4.847680929792719e-22 -3.310255706236264e-16
 1.860081154667367e+01  1.164295426800254e-22 -3.310236293330511e-16
 1.860070217482414e+01  4.848968529262543e-22 -3.310216829277645e-16
 1.860059256015891e+01  1.164303293543853e-22 -3.310197321735297e-16
 1.860048265757171e+01  4.848373904986939e-22 -3.310177763361126e-16
 1.860037250904668e+01  1.164311198484443e-22 -3.310158161293473e-16
 1.860026206918419e+01  1.350273080583808e-22 -3.310138507180819e-16
 1.860015136953660e+01  1.035842090928193e-21 -3.310118807668639e-16
 1.860004040894894e+01  1.164009391069911e-22 -3.310099060275850e-16
 1.859992915222261e+01  4.849084180408579e-22 -3.310079260803359e-16
 1.859981764177051e+01  1.164017391301690e-22 -3.310059415826654e-16
 1.859970583249054e+01  4.849117590594094e-22 -3.310039518002167e-16
 1.859959376638695e+01  1.164339173028315e-22 -3.310019574466742e-16
 1.859948139835450e+01  4.847896195959698e-22 -3.309999577357433e-16
 1.859936877039254e+01  1.164660999307467e-22 -3.309979533811732e-16
 1.859925583711004e+01  1.349687510000299e-22 -3.309959435995655e-16
 1.859914263008038e+01  1.035874328740762e-21 -3.309939290553064e-16
 1.859902914815478e+01  1.164359455270394e-22 -3.309919093963061e-16
 1.859891535614052e+01  4.849235849707433e-22 -3.309898843583606e-16
 1.859880129647539e+01  1.164289202725241e-22 -3.309878545468859e-16
 1.859868692406471e+01  4.849270023782697e-22 -3.309858191753982e-16
 1.859857228092479e+01  1.164375866645716e-22 -3.309837789055799e-16
 1.859845732196150e+01  4.849304372677800e-22 -3.309817331067638e-16
 1.859834208919531e+01  1.164384135409239e-22 -3.309796823886570e-16
 1.859822653753422e+01  4.849338898236120e-22 -3.309776259647011e-16
 1.859811070900891e+01  1.164078690710410e-22 -3.309755647042595e-16
 1.859799455822914e+01  1.349740028605175e-22 -3.309734976679474e-16
 1.859787811679564e+01  1.035789236103518e-21 -3.309714254679878e-16
 1.859776138357604e+01  1.164365774885204e-22 -3.309693480118391e-16
 1.859764432338934e+01  4.848170954564411e-22 -3.309672648272868e-16
 1.859752697870043e+01  1.164334974299579e-22 -3.309651765195534e-16
 1.859740930442462e+01  4.849461155286890e-22 -3.309630824058217e-16
 1.859729134260220e+01  1.164421878826303e-22 -3.309609830956663e-16
 1.859717304815783e+01  4.848241437708030e-22 -3.309588779061498e-16
 1.859705446313110e+01  1.164430387521556e-22 -3.309567675507712e-16
 1.859693554215277e+01  1.350377205908228e-22 -3.309546511937168e-16
 1.859681631684145e+01  1.035823163398775e-21 -3.309525293951308e-16
 1.859669678607767e+01  1.164757004940876e-22 -3.309504022701269e-16
 1.859657691469983e+01  4.848330593135872e-22 -3.309482690344969e-16
 1.859645674518735e+01  1.164138085156626e-22 -3.309461304492412e-16
 1.859633623247552e+01  4.849621681337035e-22 -3.309439857792795e-16
 1.859621541862508e+01  1.164382081889587e-22 -3.309418357379512e-16
 1.859609425856627e+01  4.849657878735085e-22 -3.309396795382507e-16
 1.859597279436808e+01  1.164312351893575e-22 -3.309375179454033e-16
 1.859585098096694e+01  4.848439159024771e-22 -3.309353501203602e-16
 1.859572886043977e+01  1.164478002064099e-22 -3.309331768802376e-16
 1.859560638742840e+01  1.350467025753916e-22 -3.309309972850617e-16
 1.859548359357318e+01  1.035991258615877e-21 -3.309288119467728e-16
 1.859536047778308e+01  1.164805016474742e-22 -3.309266210321312e-16
 1.859523700491384e+01  4.848530979572693e-22 -3.309244236527250e-16
 1.859511321747427e+01  1.164186329743559e-22 -3.309222207771666e-16
 1.859498907041404e+01  4.849823203169618e-22 -3.309200114622742e-16
 1.859486460581926e+01  1.164509044435224e-22 -3.309177964212209e-16
 1.859473977865422e+01  4.849860493879332e-22 -3.309155749704212e-16
 1.859461463099986e+01  1.164204232977601e-22 -3.309133478231199e-16
 1.859448911753216e+01  1.350513565003259e-22 -3.309111141427829e-16
 1.859436326990188e+01  1.036027057851781e-21 -3.309088745932565e-16
 1.859423708704555e+01  1.164688480044172e-22 -3.309066289773208e-16
 1.859411053383074e+01  4.849327029712888e-22 -3.309043768219815e-16
 1.859398365279641e+01  1.164540685824441e-22 -3.309021187838954e-16
 1.859385639890531e+01  4.849992633613701e-22 -3.308998541274483e-16
 1.859372881427276e+01  1.164549838775115e-22 -3.308975836695062e-16
 1.859360085386506e+01  4.850030858537766e-22 -3.308953064146106e-16
 1.859347255981015e+01  1.164245241524505e-22 -3.308930232834294e-16
 1.859334388707597e+01  4.849441691388711e-22 -3.308907333843730e-16
 1.859321487778654e+01  1.164882100951643e-22 -3.308884375342549e-16
 1.859308548663622e+01  1.350572030435911e-22 -3.308861348442493e-16
 1.859295574530421e+01  1.036197555250523e-21 -3.308838260299411e-16
 1.859282565275323e+01  1.164503824996561e-22 -3.308815108418545e-16
 1.859269517387737e+01  4.848911095705296e-22 -3.308791887546537e-16
 1.859256435123826e+01  1.164513209144405e-22 -3.308768606326924e-16
 1.859243313982839e+01  4.849734807496010e-22 -3.308745255320729e-16
 1.859230158179401e+01  1.164601099024049e-22 -3.308721843733658e-16
 1.859216963212171e+01  4.850244938531897e-22 -3.308698361607467e-16
 1.859203733296940e+01  1.164453682080551e-22 -3.308674817107678e-16
 1.859190463903736e+01  1.350621214531948e-22 -3.308651202902922e-16
 1.859177158203991e+01  1.036109869386299e-21 -3.308627523548137e-16
 1.859163816096283e+01  1.164311106911105e-22 -3.308603779663495e-16
 1.859150434071525e+01  4.849716808874640e-22 -3.308579964953945e-16
 1.859137016388673e+01  1.164320729257688e-22 -3.308556086502254e-16
 1.859123558549153e+01  4.850384647284971e-22 -3.308532136424716e-16
 1.859110064769514e+01  1.164565774035223e-22 -3.308508122886765e-16
 1.859096530551409e+01  4.850425073374228e-22 -3.308484036964976e-16
 1.859082960112741e+01  1.164497051053760e-22 -3.308459886823588e-16
 1.859069348954415e+01  4.849838073131654e-22 -3.308435664578880e-16
 1.859055701295642e+01  1.164663753947631e-22 -3.308411376835099e-16
 1.859042012609440e+01  1.350683044492336e-22 -3.308387016256305e-16
 1.859028286069284e+01  1.036157435452258e-21 -3.308362588435251e-16
 1.859014521577246e+01  1.164364709715237e-22 -3.308338092429474e-16
 1.859000715626865e+01  4.849313044351650e-22 -3.308313522979210e-16
 1.858986872480127e+01  1.164688472492509e-22 -3.308288887684784e-16
 1.858972987641107e+01  4.850139098311518e-22 -3.308264178138612e-16
 1.858959065329749e+01  1.164698458762082e-22 -3.308239401464469e-16
 1.858945101050074e+01  4.850651562705770e-22 -3.308214550813412e-16
 1.858931099023038e+01  1.165022343379492e-22 -3.308189632269123e-16
 1.858917054723351e+01  1.350735087494114e-22 -3.308164638492629e-16
 1.858902971328806e+01  1.035946398010209e-21 -3.308139575072888e-16
 1.858888848742170e+01  1.164723675025654e-22 -3.308114442625414e-16
 1.858874683460366e+01  4.850129187883644e-22 -3.308089233807386e-16
 1.858860479747278e+01  1.164655400769609e-22 -3.308063956737730e-16
 1.858846233109353e+01  4.850799431941906e-22 -3.308038603524734e-16
 1.858831947769371e+01  1.164744109013517e-22 -3.308013180770512e-16
 1.858817619233399e+01  4.850842226782414e-22 -3.307987681103078e-16
 1.858803251725077e+01  1.164754414069635e-22 -3.307962112682820e-16
 1.858788840750711e+01  4.850885267473103e-22 -3.307936466578261e-16
 1.858774390534937e+01  1.165078634779508e-22 -3.307910750429315e-16
 1.858759896554817e+01  1.350172823214357e-22 -3.307884956892991e-16
 1.858745361991203e+01  1.036247827037805e-21 -3.307859089996899e-16
 1.858730786750684e+01  1.164741204073921e-22 -3.307833152431086e-16
 1.858716167331076e+01  4.850993955297862e-22 -3.307807135811089e-16
 1.858701508001988e+01  1.164712484803493e-22 -3.307781047211795e-16
 1.858686804270874e+01  4.850567071684740e-22 -3.307754880817475e-16
 1.858672060363706e+01  1.164801525256685e-22 -3.307728641669038e-16
 1.858657271790064e+01  4.849826564767458e-22 -3.307702323948292e-16
 1.858642442776099e+01  1.164655226182638e-22 -3.307675933735499e-16
 1.858627568802239e+01  1.350821182873502e-22 -3.307649463682868e-16
 1.858612653050907e+01  1.036164675049999e-21 -3.307622919895723e-16
 1.858597695431123e+01  1.164514355634581e-22 -3.307596300384340e-16
 1.858582692444280e+01  4.850565820061240e-22 -3.307569600916890e-16
 1.858567648360794e+01  1.165152895124009e-22 -3.307542828048662e-16
 1.858552558690889e+01  4.849983123143822e-22 -3.307515974400716e-16
 1.858537427664269e+01  1.164849870475242e-22 -3.307489047089759e-16
 1.858522250791263e+01  4.850656197823596e-22 -3.307462038216727e-16
 1.858507032301464e+01  1.164703843741030e-22 -3.307434954898647e-16
 1.858491767706155e+01  4.850701778290778e-22 -3.307407789235157e-16
 1.858476461235326e+01  1.164871762306651e-22 -3.307380549902208e-16
 1.858461108371781e+01  1.350924966883373e-22 -3.307353227469032e-16
 1.858445712301255e+01  1.036469109944473e-21 -3.307325829077831e-16
 1.858430272935846e+01  1.164888347362340e-22 -3.307298352215663e-16
 1.858414786778436e+01  4.852700231275933e-22 -3.307270792647829e-16
 1.858399258104188e+01  1.165213376616252e-22 -3.307243157445642e-16
 1.858383682425143e+01  4.851177286212621e-22 -3.307215438706840e-16
 1.858368063974248e+01  1.164910684700799e-22 -3.307187644065704e-16
 1.858352398263877e+01  4.851537963014574e-22 -3.307159765099581e-16
 1.858336689527745e+01  1.165235848944515e-22 -3.307131809442180e-16
 1.858320933278658e+01  4.850957214967966e-22 -3.307103769709541e-16
 1.858305133750967e+01  1.164894042906944e-22 -3.307075651975741e-16
 1.858289286428394e+01  1.350996516172337e-22 -3.307047449925609e-16
 1.858273394500885e+01  1.036273038648269e-21 -3.307019167579515e-16
 1.858257457883181e+01  1.164793445808963e-22 -3.306990807099082e-16
 1.858241473080403e+01  4.851703838109347e-22 -3.306962360088042e-16
 1.858225444370726e+01  1.164961893610942e-22 -3.306933835175035e-16
 1.858209367268809e+01  4.851751847494379e-22 -3.306905223933575e-16
 1.858193246010374e+01  1.164659541798704e-22 -3.306876534516061e-16
 1.858177076110893e+01  4.851172305167402e-22 -3.306847757975090e-16
 1.858160861806272e+01  1.164671166137346e-22 -3.306818902982848e-16
 1.858144598582590e+01  1.351056763793307e-22 -3.306789960621542e-16
 1.858128289632531e+01  1.036444951531556e-21 -3.306760936468655e-16
 1.858111934872358e+01  1.164963408765775e-22 -3.306731831644586e-16
 1.858095530809427e+01  4.850666380858361e-22 -3.306702638269206e-16
 1.858079081724351e+01  1.164857482560048e-22 -3.306673365489524e-16
 1.858062583133367e+01  4.851657410294038e-22 -3.306644004356106e-16
 1.858046039275260e+01  1.165026307852766e-22 -3.306614562499517e-16
 1.858029445666223e+01  4.850765171210173e-22 -3.306585032529338e-16
 1.858012806545541e+01  1.164881274444140e-22 -3.306555421036288e-16
 1.857996117430152e+01  4.851442856207059e-22 -3.306525720628851e-16
 1.857979382559335e+01  1.165050239709806e-22 -3.306495938937545e-16
 1.857962597421564e+01  1.350818610209751e-22 -3.306466068079727e-16
 1.857945765211010e+01  1.036503252782668e-21 -3.306436113632261e-16
 1.857928885847868e+01  1.165382307560477e-22 -3.306406074112324e-16
 1.857911955840704e+01  4.852196561239096e-22 -3.306375945275458e-16
 1.857894979473539e+01  1.165080542442973e-22 -3.306345733667594e-16
 1.857877952264091e+01  4.852247403838736e-22 -3.306315431895202e-16
 1.857860878453751e+01  1.164935812921874e-22 -3.306285047067669e-16
 1.857843753561191e+01  4.851670644778653e-22 -3.306254571270337e-16
 1.857826581828336e+01  1.164948124259935e-22 -3.306224012132081e-16
 1.857809358744033e+01  1.351196347557943e-22 -3.306193361248461e-16
 1.857792087506262e+01  1.036552337664225e-21 -3.306162625752635e-16
 1.857774768035286e+01  1.165123700025741e-22 -3.306131803121764e-16
 1.857757396841790e+01  4.852427656103865e-22 -3.306100889108010e-16
 1.857739978212435e+01  1.165136189791635e-22 -3.306069890255637e-16
 1.857722507665903e+01  4.852165862443820e-22 -3.306038799168535e-16
 1.857704989445769e+01  1.165148750858656e-22 -3.306007623994586e-16
 1.857687419071808e+01  4.851276436475954e-22 -3.305976354737041e-16
 1.857669800788075e+01  1.164847420269885e-22 -3.305945001622876e-16
 1.857652130114440e+01  4.851329184085488e-22 -3.305913554654863e-16
 1.857634411295496e+01  1.165134842411578e-22 -3.305882021460494e-16
 1.857616639821365e+01  1.350648647219762e-22 -3.305850395191498e-16
 1.857598819989228e+01  1.036614064654522e-21 -3.305818682902218e-16
 1.857580948431227e+01  1.165114787997079e-22 -3.305786878140449e-16
 1.857563024949916e+01  4.852718264855647e-22 -3.305754981101735e-16
 1.857545052736731e+01  1.164892191699970e-22 -3.305722997367757e-16
 1.857527028409527e+01  4.852772082200099e-22 -3.305690920500399e-16
 1.857508952923340e+01  1.165533105165505e-22 -3.305658753160460e-16
 1.857490825089676e+01  4.852198246940541e-22 -3.305626492913689e-16
 1.857472648057854e+01  1.165546141401654e-22 -3.305594144345276e-16
 1.857454418416453e+01  1.350716151767916e-22 -3.305561702605909e-16
 1.857436136076252e+01  1.036540426766437e-21 -3.305529166221090e-16
 1.857417804252085e+01  1.165212598160509e-22 -3.305496543348651e-16
 1.857399418360138e+01  4.852962863882607e-22 -3.305463824094158e-16
 1.857380982690374e+01  1.165186566687127e-22 -3.305431015000898e-16
 1.857362492764064e+01  4.852704074720268e-22 -3.305398109706166e-16
 1.857343952829264e+01  1.165278357012069e-22 -3.305365115835953e-16
 1.857325358406927e+01  4.851817596688244e-22 -3.305332024947968e-16
 1.857306713745539e+01  1.165291724495485e-22 -3.305298844668028e-16
 1.857288014366395e+01  4.852501411004551e-22 -3.305265566553079e-16
 1.857269264517590e+01  1.165305167276207e-22 -3.305232199269389e-16
 1.857250459691915e+01  1.351429027765634e-22 -3.305198733882638e-16
 1.857231604189289e+01  1.036856941604207e-21 -3.305165178486692e-16
 1.857212694643628e+01  1.165639480858503e-22 -3.305131526624453e-16
 1.857193730860204e+01  4.852014322763835e-22 -3.305097778488031e-16
 1.857174716033719e+01  1.165339105799003e-22 -3.305063939137646e-16
 1.857155646783909e+01  4.853327292735166e-22 -3.305030002650054e-16
 1.857136524067042e+01  1.165195807255056e-22 -3.304995971685032e-16
 1.857117346697818e+01  4.852128480693300e-22 -3.304961843803572e-16
 1.857098117827823e+01  1.165209591062821e-22 -3.304927623590225e-16
 1.857078834047724e+01  1.351500471605941e-22 -3.304893305670619e-16
 1.857059495268997e+01  1.036786300274041e-21 -3.304858889608592e-16
 1.857040104710033e+01  1.165073399302946e-22 -3.304824382000680e-16
 1.857020657787733e+01  4.852272981126598e-22 -3.304789773987331e-16
 1.857001158794521e+01  1.165087374543615e-22 -3.304755073151739e-16
 1.856981603252566e+01  4.853116421236805e-22 -3.304720272086605e-16
 1.856961995412439e+01  1.165415459429373e-22 -3.304685377378108e-16
 1.856942330795183e+01  4.853646171733433e-22 -3.304650381619685e-16
 1.856922613652252e+01  1.165743630144527e-22 -3.304615292956737e-16
 1.856902839504675e+01  4.852449053979690e-22 -3.304580102422450e-16
 1.856883012603654e+01  1.165404553346865e-22 -3.304544818162753e-16
 1.856863128441408e+01  1.351590260165702e-22 -3.304509431759679e-16
 1.856843190222816e+01  1.036855371052566e-21 -3.304473949824380e-16
 1.856823197874217e+01  1.165308254225952e-22 -3.304438370345498e-16
 1.856803147909882e+01  4.853854221568236e-22 -3.304402689583955e-16
 1.856783044623531e+01  1.165793737389719e-22 -3.304366913043261e-16
 1.856762883535916e+01  4.853914407058421e-22 -3.304331034355249e-16
 1.856742668899276e+01  1.165494179512631e-22 -3.304295059585868e-16
 1.856722396234067e+01  4.853346815239074e-22 -3.304258981846865e-16
 1.856702069791544e+01  1.165822807616502e-22 -3.304222808765416e-16
 1.856681685063957e+01  1.351665782790736e-22 -3.304186531401597e-16
 1.856661246353853e+01  1.036913466411039e-21 -3.304150158890653e-16
 1.856640750294302e+01  1.165491500401085e-22 -3.304113683211544e-16
 1.856620196692069e+01  4.854127684013555e-22 -3.304077106113821e-16
 1.856599588743699e+01  1.165388497503446e-22 -3.304040431618479e-16
 1.856578923066867e+01  4.853875306178414e-22 -3.304003654839618e-16
 1.856558200620451e+01  1.165560384710720e-22 -3.303966776354663e-16
 1.856537420217278e+01  4.852995116598030e-22 -3.303929794764185e-16
 1.856516585011910e+01  1.165418282566328e-22 -3.303892716212308e-16
 1.856495691620997e+01  4.854313777486684e-22 -3.303855533733442e-16
 1.856474741003478e+01  1.165590337057697e-22 -3.303818249985039e-16
 1.856453731942968e+01  1.351760658963818e-22 -3.303780862037005e-16
 1.856432666546635e+01  1.036860815517521e-21 -3.303743372418934e-16
 1.856411544740028e+01  1.165927101744416e-22 -3.303705784839708e-16
 1.856390363035442e+01  4.854471203569798e-22 -3.303668088798566e-16
 1.856369125726249e+01  1.165549717467009e-22 -3.303630295002375e-16
 1.856347828332078e+01  4.853278410827376e-22 -3.303592393959706e-16
 1.856326475103833e+01  1.165329452452920e-22 -3.303554393300669e-16
 1.856305061559584e+01  4.854912788723069e-22 -3.303516285615139e-16
 1.856283591950515e+01  1.165501886189718e-22 -3.303478077493132e-16
 1.856262061766100e+01  1.351840429260384e-22 -3.303439762073214e-16
 1.856240474210079e+01  1.036922168833798e-21 -3.303401344410571e-16
 1.856218829207467e+01  1.165682175517941e-22 -3.303362824574049e-16
 1.856197123268473e+01  4.854131800097948e-22 -3.303324196223647e-16
 1.856175360686045e+01  1.165383666491046e-22 -3.303285466947765e-16
 1.856153536977825e+01  4.854825151674444e-22 -3.303246629335139e-16
 1.856131656393737e+01  1.166027569610304e-22 -3.303207689978074e-16
 1.856109714450838e+01  4.855518872423005e-22 -3.303168641465430e-16
 1.856087715399191e+01  1.165729225527796e-22 -3.303129491949929e-16
 1.856065654754271e+01  4.853700016343308e-22 -3.303090232461325e-16
 1.856043536767047e+01  1.166059199169039e-22 -3.303050870631609e-16
 1.856021356923223e+01  1.351940601133869e-22 -3.303011399080618e-16
 1.855999118425776e+01  1.036999211964282e-21 -3.302971823385510e-16
 1.855920378321149e+01  1.165710738633787e-22 -3.302831695366783e-16
 1.855954462844130e+01  4.855122659934183e-22 -3.302892353359443e-16
 1.855932044328782e+01  1.155646789974929e-26 -3.302852456306586e-16
 1.855909564549495e+01  3.714192964850792e-23 -3.302812450970012e-16
 1.865422595184441e+01  9.559376890911503e-22 -3.319742024042980e-16
 1.865407302244684e+01  9.398536525753401e-15 -3.319714808340866e-16
 1.865392047831111e+01  4.840374247440518e-22 -3.319687661488241e-16
 1.865376835095344e+01  1.162078428898079e-22 -3.319660588029634e-16
 1.865361659501194e+01  1.348048678280981e-22 -3.319633581220134e-16
 1.865346524188740e+01  1.034136985667424e-21 -3.319606645616176e-16
 1.865331429041387e+01  1.162094759638007e-22 -3.319579782897072e-16
 1.865316370549867e+01  4.841114064412829e-22 -3.319552984743750e-16
 1.865301352939639e+01  1.162732025263821e-22 -3.319526258746673e-16
 1.865286371716486e+01  4.841159010497172e-22 -3.319499597598424e-16
 1.865271431064834e+01  1.162272951786720e-22 -3.319473009450469e-16
 1.865256526491995e+01  4.840577268811863e-22 -3.319446484400409e-16
 1.865241662183535e+01  1.162361967133815e-22 -3.319420032154616e-16
 1.865226833648511e+01  4.841248212973786e-22 -3.319393642289938e-16
 1.865212045074423e+01  1.162450929237560e-22 -3.319367324510979e-16
 1.865197291941369e+01  1.348038944932648e-22 -3.319341069979907e-16
 1.865182577399113e+01  1.034314751409687e-21 -3.319314882725290e-16
 1.865167901336974e+01  1.162780046753753e-22 -3.319288765457442e-16
 1.865153261345448e+01  4.841358440114143e-22 -3.319262712356584e-16
 1.865138658383803e+01  1.162320709276559e-22 -3.319236724515172e-16
 1.865124091239353e+01  4.841402142593272e-22 -3.319210800070225e-16
 1.865109563012683e+01  1.162487795901050e-22 -3.319184945694473e-16
 1.865095070309416e+01  4.840819132664940e-22 -3.319159153986167e-16
 1.865080614049431e+01  1.162498209746893e-22 -3.319133427634177e-16
 1.865066192993100e+01  1.348171946653768e-22 -3.319107763765686e-16
 1.865051809204400e+01  1.034231307952444e-21 -3.319082165450491e-16
 1.865037462578879e+01  1.162826982387838e-22 -3.319056634355093e-16
 1.865023149621298e+01  4.840300364997150e-22 -3.319031162661943e-16
 1.865008874570305e+01  1.162210763682424e-22 -3.319005758468709e-16
 1.864994632944710e+01  4.841282837969388e-22 -3.318980413932899e-16
 1.864980428943076e+01  1.162377621117841e-22 -3.318955136156235e-16
 1.864966258084512e+01  4.840385574111148e-22 -3.318929917295624e-16
 1.864952124568976e+01  1.162387801350990e-22 -3.318904764970214e-16
 1.864938023916978e+01  4.841680899260577e-22 -3.318879671853853e-16
 1.864923960329001e+01  1.162554561537067e-22 -3.318854643490675e-16
 1.864909929298508e+01  1.348237135672155e-22 -3.318829673619346e-16
 1.864895933986926e+01  1.034281192058280e-21 -3.318804767813792e-16
 1.864881974296858e+01  1.162882929358970e-22 -3.318779924621033e-16
 1.864868046738755e+01  4.841785731833756e-22 -3.318755138291003e-16
 1.864854155559133e+01  1.162423037248221e-22 -3.318730417433107e-16
 1.864840296281796e+01  4.841827304141933e-22 -3.318705753679453e-16
 1.864826473112046e+01  1.162589628605058e-22 -3.318681153607224e-16
 1.864812681575444e+01  4.841242129462447e-22 -3.318656609883796e-16
 1.864798925878098e+01  1.162599537433625e-22 -3.318632130123109e-16
 1.864785201517145e+01  1.348289166738981e-22 -3.318607705984054e-16
 1.864771511659901e+01  1.034321008885992e-21 -3.318583341997734e-16
 1.864757856214100e+01  1.162614310183591e-22 -3.318559041373943e-16
 1.864744232785573e+01  4.841971212148472e-22 -3.318534796718295e-16
 1.864730642351732e+01  1.162937378515936e-22 -3.318510611179580e-16
 1.864717083715860e+01  4.842011882142258e-22 -3.318486481839499e-16
 1.864703559995984e+01  1.162633840265255e-22 -3.318462414836304e-16
 1.864690067814071e+01  4.840799218204611e-22 -3.318438404304068e-16
 1.864676608106339e+01  1.162565213408190e-22 -3.318414450840390e-16
 1.864663179677852e+01  4.842092630862098e-22 -3.318390553081055e-16
 1.864649785649379e+01  1.162966469785547e-22 -3.318366717161795e-16
 1.864636422615187e+01  1.348272906375988e-22 -3.318342935688527e-16
 1.864623090473546e+01  1.034243187875802e-21 -3.318319210324363e-16
 1.864609792411946e+01  1.162980858631907e-22 -3.318295544543135e-16
 1.864596523858695e+01  4.841565894993356e-22 -3.318271931109843e-16
 1.864583289070886e+01  1.162520453140625e-22 -3.318248378625118e-16
 1.864570083582483e+01  4.842232086798694e-22 -3.318224877670336e-16
 1.864556911608849e+01  1.162686587506461e-22 -3.318201436370424e-16
 1.864543768684696e+01  4.841018314434022e-22 -3.318178046861903e-16
 1.864530659026755e+01  1.162696029944667e-22 -3.318154716749771e-16
 1.864517578140750e+01  1.348400801666045e-22 -3.318131438200034e-16
 1.864504529204675e+01  1.034406442274006e-21 -3.318108216771612e-16
 1.864491512135066e+01  1.162710110036371e-22 -3.318085050477742e-16
 1.864478523455593e+01  4.841116022242011e-22 -3.318061935626565e-16
 1.864465567427714e+01  1.162406136276252e-22 -3.318038878740164e-16
 1.864452639588731e+01  4.842094703705570e-22 -3.318015872470215e-16
 1.864439744158216e+01  1.162572075462976e-22 -3.317992923381967e-16
 1.864426876674636e+01  4.842446600661483e-22 -3.317970024125644e-16
 1.864414041358273e+01  1.162659646185755e-22 -3.317947181784700e-16
 1.864401233748186e+01  4.841231764947026e-22 -3.317924389527250e-16
 1.864388458065699e+01  1.162747175107053e-22 -3.317901653398347e-16
 1.864375709821073e+01  1.348459976488328e-22 -3.317878966595419e-16
 1.864362993288663e+01  1.034326404594714e-21 -3.317856336665553e-16
 1.864350305114097e+01  1.162447580703750e-22 -3.317833755640767e-16
 1.864337645100377e+01  4.842580258993009e-22 -3.317811225281694e-16
 1.864325016421687e+01  1.162769992401333e-22 -3.317788751670970e-16
 1.864312415711291e+01  4.842618049036917e-22 -3.317766326852968e-16
 1.864299843917710e+01  1.162779045783249e-22 -3.317743954006661e-16
 1.864287299858564e+01  4.841402378470624e-22 -3.317721630197367e-16
 1.864274786667393e+01  1.162788057651685e-22 -3.317699361549697e-16
 1.864262300948689e+01  1.348507278901408e-22 -3.317677141693461e-16
 1.864249842612998e+01  1.034487935173600e-21 -3.317654970722527e-16
 1.864237414860093e+01  1.162801498348450e-22 -3.317632854174963e-16
 1.864225013128912e+01  4.842748963660445e-22 -3.317610783244750e-16
 1.864212641688768e+01  1.162810407894171e-22 -3.317588767041643e-16
 1.864200296083479e+01  4.842472654133155e-22 -3.317566796651749e-16
 1.864187980541131e+01  1.162819277090640e-22 -3.317544879670958e-16
 1.864175690605940e+01  4.841569505709293e-22 -3.317523008741091e-16
 1.864163430506366e+01  1.162671438978725e-22 -3.317501189901443e-16
 1.864151195787895e+01  4.842232855859755e-22 -3.317479417348685e-16
 1.864138990678848e+01  1.162836895748630e-22 -3.317457696603632e-16
 1.864126810695827e+01  1.348563789437462e-22 -3.317436020854752e-16
 1.864114660120740e+01  1.034656523353546e-21 -3.317414398162053e-16
 1.864102535605184e+01  1.163163346731527e-22 -3.317392820549338e-16
 1.864090436958541e+01  4.842950530356733e-22 -3.317371289770478e-16
 1.864078367362628e+01  1.162858697918535e-22 -3.317349809826397e-16
 1.864066322363499e+01  4.842986648142812e-22 -3.317328374912367e-16
 1.864054306192756e+01  1.162867351018374e-22 -3.317306990546430e-16
 1.864042314398334e+01  4.843022605982211e-22 -3.317285649365269e-16
 1.864030351211260e+01  1.162875965873072e-22 -3.317264359481754e-16
 1.864018412150799e+01  1.348922347620653e-22 -3.317243112524104e-16
 1.864006500408221e+01  1.034440452916670e-21 -3.317221913521444e-16
 1.863994615914707e+01  1.162888817139355e-22 -3.317200764102814e-16
 1.863982755205623e+01  4.843111809513676e-22 -3.317179656410134e-16
 1.863970922557190e+01  1.162897337766765e-22 -3.317158599029201e-16
 1.863959113517467e+01  4.843147217948471e-22 -3.317137583558093e-16
 1.863947332321018e+01  1.162749143496020e-22 -3.317116617587868e-16
 1.863935574516672e+01  4.841929045740088e-22 -3.317095692715571e-16
 1.863923844339326e+01  1.162835928466298e-22 -3.317074818088599e-16
 1.863912137337934e+01  4.842590856192832e-22 -3.317053983747136e-16
 1.863900457748361e+01  1.162922678059197e-22 -3.317033198837758e-16
 1.863888801090667e+01  1.348628645651505e-22 -3.317012454467723e-16
 1.863877170559766e+01  1.034481825033891e-21 -3.316991756181932e-16
 1.863865566088906e+01  1.162621862046144e-22 -3.316971104569534e-16
 1.863853984215642e+01  4.843304668557151e-22 -3.316950493844489e-16
 1.863842429218821e+01  1.162786862852443e-22 -3.316929929996698e-16
 1.863830896649078e+01  4.843339245857497e-22 -3.316909406176826e-16
 1.863819390743161e+01  1.162951830465044e-22 -3.316888930493519e-16
 1.863807907052305e+01  4.843373676211270e-22 -3.316868494021217e-16
 1.863796449813606e+01  1.162960080106723e-22 -3.316848104349527e-16
 1.863785014548436e+01  1.348706337060174e-22 -3.316827753620981e-16
 1.863773604454675e+01  1.034640303306777e-21 -3.316807448934589e-16
 1.863762219466523e+01  1.163285762820458e-22 -3.316787187246419e-16
 1.863750856123034e+01  4.843459117556111e-22 -3.316766964324659e-16
 1.863739518705341e+01  1.162667176860724e-22 -3.316746788233047e-16
 1.863728202764721e+01  4.843493043595010e-22 -3.316726650045160e-16
 1.863716912540201e+01  1.162988681594317e-22 -3.316706557868106e-16
 1.863705643583970e+01  4.842273312643581e-22 -3.316686503812029e-16
 1.863694400134807e+01  1.162840086896036e-22 -3.316666494427846e-16
 1.863683177745468e+01  4.842933710949589e-22 -3.316646523381513e-16
 1.863671980655089e+01  1.163318220955905e-22 -3.316626596186003e-16
 1.863660804386727e+01  1.348758136143457e-22 -3.316606707056391e-16
 1.863649652139361e+01  1.034554603716987e-21 -3.316586859459147e-16
 1.863638523849562e+01  1.162703484001470e-22 -3.316567056055337e-16
 1.863627416057611e+01  4.843017207822208e-22 -3.316547288459953e-16
 1.863616333046028e+01  1.162868155142284e-22 -3.316527564736272e-16
 1.863605270368132e+01  4.843677145477967e-22 -3.316507876992284e-16
 1.863594232263806e+01  1.163032796014869e-22 -3.316488233854062e-16
 1.863583214286852e+01  4.843710175704481e-22 -3.316468625872223e-16
 1.863572220677755e+01  1.163354102835110e-22 -3.316449061672392e-16
 1.863561246989708e+01  4.842489501067307e-22 -3.316429532843366e-16
 1.863550297463708e+01  1.162735200115223e-22 -3.316410046453738e-16
 1.863539367624155e+01  1.348808776928219e-22 -3.316390595678292e-16
 1.863528460671321e+01  1.034593368630998e-21 -3.316371185539455e-16
 1.863517576542912e+01  1.163060359776731e-22 -3.316351816102620e-16
 1.863506711779488e+01  4.843824740972723e-22 -3.316332480538141e-16
 1.863495870665763e+01  1.162754765379742e-22 -3.316313187426905e-16
 1.863485048755216e+01  4.843857181699377e-22 -3.316293928356656e-16
 1.863474250289826e+01  1.162997588376093e-22 -3.316274711433367e-16
 1.863463470822744e+01  4.843262690001131e-22 -3.316255528763806e-16
 1.863452714596721e+01  1.163397085736980e-22 -3.316236386377687e-16
 1.863441977136014e+01  1.348814975929380e-22 -3.316217277967920e-16
 1.863431261641837e+01  1.034624458267509e-21 -3.316198207518658e-16
 1.863420568052134e+01  1.162781834568827e-22 -3.316179177689522e-16
 1.863409892908789e+01  4.843969727270695e-22 -3.316160179573076e-16
 1.863399240496523e+01  1.162946205439481e-22 -3.316141222788817e-16
 1.863388606369359e+01  4.844001603355944e-22 -3.316122297885124e-16
 1.863377994769845e+01  1.163110548909458e-22 -3.316103413487062e-16
 1.863367401251633e+01  4.844033357325626e-22 -3.316084561181018e-16
 1.863356830058078e+01  1.163118158893541e-22 -3.316065748553558e-16
 1.863346276742123e+01  4.844064990405549e-22 -3.316046967191570e-16
 1.863335745547723e+01  1.163439154771550e-22 -3.316028225719033e-16
 1.863325231998542e+01  1.348898070278153e-22 -3.316009515752639e-16
 1.863314739297171e+01  1.034787094199071e-21 -3.315990841794665e-16
 1.863304267381708e+01  1.163137058137531e-22 -3.315972207023494e-16
 1.863293812793622e+01  4.843830133357001e-22 -3.315953602012167e-16
 1.863283379818614e+01  1.163144568317300e-22 -3.315935034823347e-16
 1.863272964010751e+01  4.842921088323259e-22 -3.315916498598852e-16
 1.863262569612716e+01  1.163073695173933e-22 -3.315898000407731e-16
 1.863252192178393e+01  4.843579030163880e-22 -3.315879532353919e-16
 1.863241835951119e+01  1.162846081525706e-22 -3.315861102543833e-16
 1.863231496455334e+01  1.348937155814650e-22 -3.315842702073495e-16
 1.863221176892779e+01  1.034817022520657e-21 -3.315824336484436e-16
 1.863210877202026e+01  1.162857209621815e-22 -3.315806007916655e-16
 1.863200593924232e+01  4.843656283637022e-22 -3.315787707980594e-16
 1.863190331345919e+01  1.163178023623420e-22 -3.315769444219869e-16
 1.863180085019190e+01  4.843060129780071e-22 -3.315751209258469e-16
 1.863169859188609e+01  1.163185384212726e-22 -3.315733011202129e-16
 1.863159649406580e+01  4.844344449113456e-22 -3.315714842155401e-16
 1.863149459916459e+01  1.163506151379320e-22 -3.315696708668536e-16
 1.863139286271877e+01  4.843748072703855e-22 -3.315678603363584e-16
 1.863129132715364e+01  1.163513461738082e-22 -3.315660533829714e-16
 1.863118994770723e+01  1.348984065062383e-22 -3.315642492200388e-16
 1.863108875640791e+01  1.034852943923579e-21 -3.315624484016645e-16
 1.863098775262611e+01  1.163210941509191e-22 -3.315606508825191e-16
 1.863088690177065e+01  4.844450700811787e-22 -3.315588561349595e-16
 1.863078624669986e+01  1.163061466457085e-22 -3.315570648616087e-16
 1.863068574293958e+01  4.843227058570803e-22 -3.315552762728132e-16
 1.863058543291573e+01  1.163147045758491e-22 -3.315534911275393e-16
 1.863048527215638e+01  4.843883953208197e-22 -3.315517086879885e-16
 1.863038530309071e+01  1.163232601403172e-22 -3.315499296093146e-16
 1.863028548094237e+01  1.348987359759622e-22 -3.315481531568190e-16
 1.863018583773288e+01  1.034756446256127e-21 -3.315463799366242e-16
 1.863008637283365e+01  1.162929902255834e-22 -3.315446097995864e-16
 1.862998705164526e+01  4.843958543166684e-22 -3.315428422180787e-16
 1.862988791701283e+01  1.163093759480477e-22 -3.315410779987243e-16
 1.862978892446192e+01  4.844615103744671e-22 -3.315393163517860e-16
 1.862969011640923e+01  1.163571045337848e-22 -3.315375579325967e-16
 1.862959144837389e+01  4.844017769291227e-22 -3.315358020033633e-16
 1.862949296278086e+01  1.163264683092286e-22 -3.315340493231470e-16
 1.862939461513135e+01  4.844674143467941e-22 -3.315322991543201e-16
 1.862929644785963e+01  1.162958294031702e-22 -3.315305521001658e-16
 1.862919841617646e+01  1.349067101366350e-22 -3.315288075298117e-16
 1.862910055208573e+01  1.034853845982832e-21 -3.315270658420262e-16
 1.862900285495841e+01  1.162968846298982e-22 -3.315253273028523e-16
 1.862890529017085e+01  4.844747408940699e-22 -3.315235910215319e-16
 1.862880790056969e+01  1.163132582695722e-22 -3.315218578566594e-16
 1.862871064165698e+01  4.844776552933021e-22 -3.315201269667319e-16
 1.862861355584514e+01  1.163139568658420e-22 -3.315183992667086e-16
 1.862851659863861e+01  4.844805606106248e-22 -3.315166737593415e-16
 1.862841981244459e+01  1.163303264274771e-22 -3.315149513596596e-16
 1.862832315246851e+01  1.349103593781291e-22 -3.315132311772598e-16
 1.862822665070964e+01  1.035069873853480e-21 -3.315115138186063e-16
 1.862813030651731e+01  1.163627137618408e-22 -3.315097992385570e-16
 1.862803408526250e+01  4.844877849956279e-22 -3.315080869096422e-16
 1.862793802977931e+01  1.163163850992436e-22 -3.315063774311489e-16
 1.862784209555343e+01  4.843652722336378e-22 -3.315046702211637e-16
 1.862774632498971e+01  1.163327476462475e-22 -3.315029658314832e-16
 1.862765067357410e+01  4.843681374973230e-22 -3.315012636282720e-16
 1.862755518370581e+01  1.163020877012509e-22 -3.314995642672022e-16
 1.862745981086481e+01  4.844336887567576e-22 -3.314978670106778e-16
 1.862736459745598e+01  1.163027726713404e-22 -3.314961725143271e-16
 1.862726949865690e+01  1.349147522657450e-22 -3.314944801474381e-16
 1.862717454645674e+01  1.034978137687523e-21 -3.314927904128343e-16
 1.862707974018472e+01  1.163664915647919e-22 -3.314911031617640e-16
 1.862698504519165e+01  4.845034913163083e-22 -3.314894179706908e-16
 1.862689050429583e+01  1.163358242968135e-22 -3.314877354910443e-16
 1.862679607296785e+01  4.845063205772858e-22 -3.314860549852606e-16
 1.862670179359429e+01  1.163208287338674e-22 -3.314843771611089e-16
 1.862660762163765e+01  4.844464459912080e-22 -3.314827012291863e-16
 1.862651359948309e+01  1.163685273433916e-22 -3.314810280010982e-16
 1.862641968229630e+01  1.349148530780018e-22 -3.314793566385602e-16
 1.862632590204807e+01  1.035005279314001e-21 -3.314776878003429e-16
 1.862623225805855e+01  1.163695390038599e-22 -3.314760211820632e-16
 1.862613871565146e+01  4.845161623065280e-22 -3.314743565161149e-16
 1.862604531763923e+01  1.163231883665681e-22 -3.314726944021467e-16
 1.862595201946501e+01  4.845189574259261e-22 -3.314710340508908e-16
 1.862585886350541e+01  1.163395329192057e-22 -3.314693762221875e-16
 1.862576580520163e+01  4.844590476516018e-22 -3.314677200748645e-16
 1.862567288692465e+01  1.163402014710877e-22 -3.314660665245508e-16
 1.862558006411250e+01  4.844618280831237e-22 -3.314644146781832e-16
 1.862548737913303e+01  1.163095192326043e-22 -3.314627651919112e-16
 1.862539478712787e+01  1.349225679879038e-22 -3.314611174352155e-16
 1.862530232004664e+01  1.034975316447587e-21 -3.314594717557107e-16
 1.862520997718072e+01  1.163418655322278e-22 -3.314578285240659e-16
 1.862511772383926e+01  4.845314478948303e-22 -3.314561867460737e-16
 1.862502560280753e+01  1.163268535380836e-22 -3.314545473331722e-16
 1.862493356950809e+01  4.845342048816410e-22 -3.314529094962044e-16
 1.862484166628981e+01  1.163353520838344e-22 -3.314512739434683e-16
 1.862474984857172e+01  4.845369553656372e-22 -3.314496399896386e-16
 1.862465815870829e+01  1.163124992685855e-22 -3.314480082391569e-16
 1.862456655180714e+01  1.349260207945064e-22 -3.314463779579617e-16
 1.862447505980665e+01  1.035189871693888e-21 -3.314447497014528e-16
 1.862438368198390e+01  1.163448358333364e-22 -3.314431235809115e-16
 1.862429238361790e+01  4.845124537486433e-22 -3.314414988099944e-16
 1.862420120748131e+01  1.163298165955032e-22 -3.314398762484304e-16
 1.862411010896314e+01  4.844211310488973e-22 -3.314382550554195e-16
 1.862401913040470e+01  1.163147957493436e-22 -3.314366359393985e-16
 1.862392822719916e+01  4.845492556801743e-22 -3.314350182152302e-16
 1.862383744167541e+01  1.163781500780148e-22 -3.314334025914937e-16
 1.862374672921943e+01  4.844892712339235e-22 -3.314317882792913e-16
 1.862365613216163e+01  1.163474511164599e-22 -3.314301759872005e-16
 1.862356560558898e+01  1.349301935055889e-22 -3.314285649293677e-16
 1.862347518140640e+01  1.034971043162306e-21 -3.314269557134992e-16
 1.862338485886502e+01  1.163484262342290e-22 -3.314253483473208e-16
 1.862329460321628e+01  4.844333364344390e-22 -3.314237421485054e-16
 1.862320445720968e+01  1.163804260141492e-22 -3.314221378732832e-16
 1.862311437620123e+01  4.844360337914572e-22 -3.314205347849109e-16
 1.862302440251216e+01  1.163418840458043e-22 -3.314189335921079e-16
 1.862293449149803e+01  4.845641323095226e-22 -3.314173335062096e-16
 1.862284468546937e+01  1.163190162558962e-22 -3.314157352879680e-16
 1.862275493948635e+01  1.349301303647104e-22 -3.314141381517253e-16
 1.862266528543583e+01  1.034996939763060e-21 -3.314125426535098e-16
 1.862257572254037e+01  1.163513347086109e-22 -3.314109488013320e-16
 1.862248621602861e+01  4.845394910343947e-22 -3.314093559130357e-16
 1.862239680862783e+01  1.163363017658077e-22 -3.314077647970508e-16
 1.862230745567573e+01  4.844481103554847e-22 -3.314061746648342e-16
 1.862221819945485e+01  1.163526198196642e-22 -3.314045862255633e-16
 1.862212899530944e+01  4.845134859086412e-22 -3.314029987944322e-16
 1.862203988552292e+01  1.163532607616460e-22 -3.314014129248895e-16
 1.862195082541790e+01  4.845161527374727e-22 -3.313998279842449e-16
 1.862186185728311e+01  1.163539006734411e-22 -3.313982447335506e-16
 1.862177293613517e+01  1.349376664390608e-22 -3.313966622317643e-16
 1.862168409384579e+01  1.035028312806101e-21 -3.313950811389489e-16
 1.862159532960314e+01  1.163235058138696e-22 -3.313935015153686e-16
 1.862150660860273e+01  4.845855075877941e-22 -3.313919226791293e-16
 1.862141797353905e+01  1.163241431300597e-22 -3.313903452833391e-16
 1.862132937972180e+01  4.844627481131690e-22 -3.313887685915582e-16
 1.862124086940855e+01  1.163404561452216e-22 -3.313871934690304e-16
 1.862115239790125e+01  4.845281033588330e-22 -3.313856190755544e-16
 1.862106400745993e+01  1.162627083000005e-22 -3.313840460168002e-16
 1.862097565308238e+01  1.349409898798494e-22 -3.313824736633119e-16
 1.862088736659927e+01  1.035179201312434e-21 -3.313809024679691e-16
 1.862079914718733e+01  1.163577204560608e-22 -3.313793325430611e-16
 1.862071096000598e+01  4.845660642828091e-22 -3.313777631031724e-16
 1.862062284773368e+01  1.163426772255805e-22 -3.313761950612010e-16
 1.862053476564153e+01  4.846000555090570e-22 -3.313746275252870e-16
 1.862044675597376e+01  1.163589870588737e-22 -3.313730613089617e-16
 1.862035877399387e+01  4.846026899594284e-22 -3.313714955204237e-16
 1.862027086194430e+01  1.163909734261614e-22 -3.313699310770644e-16
 1.862018297507951e+01  4.846053215122071e-22 -3.313683669833303e-16
 1.862009515563416e+01  1.163759279691325e-22 -3.313668041567059e-16
 1.862000735856794e+01  1.349450260767452e-22 -3.313652417084654e-16
 1.861991961568764e+01  1.035210146838571e-21 -3.313636802994400e-16
 1.861983192613047e+01  1.163925514973364e-22 -3.313621196789178e-16
 1.861974425501979e+01  4.844864700470215e-22 -3.313605594770878e-16
 1.861965664500455e+01  1.163931816663741e-22 -3.313590003476583e-16
 1.861956905132402e+01  4.846145113030755e-22 -3.313574414509111e-16
 1.861948151617811e+01  1.163467789065723e-22 -3.313558837047380e-16
 1.861939399481177e+01  4.846171316855941e-22 -3.313543261135999e-16
 1.861930652942004e+01  1.162690200364072e-22 -3.313527695954533e-16
 1.861921907493355e+01  1.349448689342356e-22 -3.313512132617890e-16
 1.861913166313746e+01  1.035235342389829e-21 -3.313496575660442e-16
 1.861904429313423e+01  1.163640278218353e-22 -3.313481027770059e-16
 1.861895693002182e+01  4.845923185310333e-22 -3.313465481097424e-16
 1.861886961642076e+01  1.163489778794261e-22 -3.313449942183110e-16
 1.861878230753309e+01  4.845008654163046e-22 -3.313434404709608e-16
 1.861869504554555e+01  1.163966387454488e-22 -3.313418875262010e-16
 1.861860778565299e+01  4.846289001235172e-22 -3.313403346485070e-16
 1.861852057003406e+01  1.163972659986296e-22 -3.313387824964835e-16
 1.861843335388279e+01  4.845687992178298e-22 -3.313372304384292e-16
 1.861834617936752e+01  1.163665369252847e-22 -3.313356790292357e-16
 1.861825900137524e+01  1.349209574781979e-22 -3.313341275884097e-16
 1.861817185165308e+01  1.035266032560845e-21 -3.313325766736634e-16
 1.861808472927190e+01  1.163674765954994e-22 -3.313310261906855e-16
 1.861799759928699e+01  4.846380335743390e-22 -3.313294756664046e-16
 1.861791050427906e+01  1.163367463284402e-22 -3.313279256515215e-16
 1.861782339941301e+01  4.845152149231723e-22 -3.313263755145771e-16
 1.861773632683784e+01  1.163608896157563e-22 -3.313248259664557e-16
 1.861764924170212e+01  4.845805344385733e-22 -3.313232762200955e-16
 1.861756218615333e+01  1.164007114099016e-22 -3.313217269344915e-16
 1.861747511504033e+01  1.349555808629464e-22 -3.313201773775484e-16
 1.861738806007387e+01  1.035228379965397e-21 -3.313186282112312e-16
 1.861730102028982e+01  1.163859717758582e-22 -3.313170791858208e-16
 1.861721396070605e+01  4.846184059691910e-22 -3.313155298285712e-16
 1.861712692387148e+01  1.163552403586746e-22 -3.313139808982391e-16
 1.861703986490955e+01  4.846523689176661e-22 -3.313124315560410e-16
 1.861695282593210e+01  1.164029020260229e-22 -3.313108826171388e-16
 1.861686576205109e+01  4.846549748440138e-22 -3.313093331909289e-16
 1.861677871537521e+01  1.164035279371801e-22 -3.313077841445396e-16
 1.861669164100282e+01  4.845321505476737e-22 -3.313062345355690e-16
 1.861660458102770e+01  1.163727962257460e-22 -3.313046852313105e-16
 1.861651749024982e+01  1.349595722009672e-22 -3.313031353443185e-16
 1.861643040032971e+01  1.035321713758832e-21 -3.313015854852062e-16
 1.861634331024820e+01  1.163737352065207e-22 -3.313000355605618e-16
 1.861625618496927e+01  4.845386665684485e-22 -3.312984850461985e-16
 1.861616906698184e+01  1.164057195421663e-22 -3.312969347015621e-16
 1.861608191135139e+01  4.846667071642097e-22 -3.312953836883657e-16
 1.861599476012477e+01  1.163671482759541e-22 -3.312938327186701e-16
 1.861590756834970e+01  4.846693166161409e-22 -3.312922810062725e-16
 1.861582037806167e+01  1.162815391584358e-22 -3.312907293672054e-16
 1.861573314399033e+01  1.349593979622342e-22 -3.312891769665826e-16
 1.861564589772573e+01  1.035221362055708e-21 -3.312876243119402e-16
 1.861555863815802e+01  1.163922345569102e-22 -3.312860714146272e-16
 1.861547133016132e+01  4.846444870870165e-22 -3.312845176474735e-16
 1.861538401610852e+01  1.163771827546585e-22 -3.312829638230927e-16
 1.861529665091527e+01  4.846784603307383e-22 -3.312814090527302e-16
 1.861520927645789e+01  1.163778107308928e-22 -3.312798541021715e-16
 1.861512184755085e+01  4.846477575291931e-22 -3.312782982394449e-16
 1.861503440591979e+01  1.164097984001510e-22 -3.312767420761239e-16
 1.861494690617831e+01  4.846836949557548e-22 -3.312751849341960e-16
 1.861485938978889e+01  1.163947478359272e-22 -3.312736274279396e-16
 1.861477181068195e+01  1.349668478463781e-22 -3.312720688863128e-16
 1.861468419934565e+01  1.035377544146150e-21 -3.312705096724059e-16
 1.861459655314593e+01  1.163800127014141e-22 -3.312689499689150e-16
 1.861450883480944e+01  4.846902514937277e-22 -3.312673889109429e-16
 1.861442108372311e+01  1.164120031061290e-22 -3.312658272897949e-16
 1.861433325063658e+01  4.845674397913868e-22 -3.312642642073025e-16
 1.861424537163170e+01  1.163655947461549e-22 -3.312627002808933e-16
 1.861415739357378e+01  4.845700710970437e-22 -3.312611345482582e-16
 1.861406934747041e+01  1.163505471537137e-22 -3.312595676787311e-16
 1.861398118455905e+01  1.349701429039178e-22 -3.312579987171767e-16
 1.861389289888017e+01  1.035340122445178e-21 -3.312564275167931e-16
 1.861380447837157e+01  1.163985393682648e-22 -3.312548540451190e-16
 1.861371587293739e+01  4.846707589122818e-22 -3.312532771528964e-16
 1.861362713593693e+01  1.163678161683188e-22 -3.312516980077679e-16
 1.861353831928662e+01  4.845793340520320e-22 -3.312501173767763e-16
 1.861344981463999e+01  1.163841336857553e-22 -3.312485423659718e-16
 1.861336262052424e+01  4.846740854117998e-22 -3.312469906983522e-16
 1.861327949766408e+01  1.163847457354940e-22 -3.312455114031016e-16
 1.861320560957755e+01  4.847097561714971e-22 -3.312441964389518e-16
 1.861314253949309e+01  1.163852379050918e-22 -3.312430740654460e-16
 1.846361724055946e+01  5.163187833972098e-22 -3.285820930401785e-16
 1.846351456597260e+01  9.772320135070935e-22 -3.285802658359477e-16
 1.846372987023551e+01  1.102646710183488e-22 -3.285840973502039e-16
 1.846383162835315e+01  5.163153951340904e-22 -3.285859083245757e-16
 1.846392403091860e+01  1.102640156891421e-22 -3.285875527137910e-16
 1.846401238713378e+01  5.163125383412066e-22 -3.285891251110514e-16
 1.846409940307444e+01  1.102240424156293e-22 -3.285906736766426e-16
 1.846418617824935e+01  5.160577516455847e-22 -3.285922179720237e-16
 1.846427302425052e+01  1.102628377615984e-22 -3.285937634701521e-16
 1.846436008381952e+01  5.163070431469670e-22 -3.285953127517918e-16
 1.846444732619529e+01  1.102464970763076e-22 -3.285968653438003e-16
 1.846453478121339e+01  1.038437494618041e-22 -3.285984217284186e-16
 1.846462240667029e+01  1.041405209853037e-21 -3.285999811303088e-16
 1.846471016534272e+01  1.102298578049163e-22 -3.286015428805546e-16
 1.846479808884850e+01  5.163001205955524e-22 -3.286031075478053e-16
 1.846488612381541e+01  1.102292640657766e-22 -3.286046743126302e-16
 1.846497430679717e+01  5.162973354948563e-22 -3.286062436418639e-16
 1.846506259000850e+01  1.102247305909595e-22 -3.286078147120638e-16
 1.846515101392677e+01  5.162945426494672e-22 -3.286093883157239e-16
 1.846523953367954e+01  1.102595755266159e-22 -3.286109636522816e-16
 1.846532819205018e+01  1.039672429513011e-22 -3.286125414388583e-16
 1.846541695636120e+01  1.041631910753282e-21 -3.286141211695234e-16
 1.846550582623427e+01  1.102429248366192e-22 -3.286157026393795e-16
 1.846559483599623e+01  5.162875280095908e-22 -3.286172866505951e-16
 1.846568394284152e+01  1.102265719378532e-22 -3.286188724340152e-16
 1.846577319115114e+01  5.162847090698292e-22 -3.286204607428114e-16
 1.846586253884133e+01  1.102259692829115e-22 -3.286220507484205e-16
 1.846595203049220e+01  5.162818824639918e-22 -3.286236433584787e-16
 1.846604162417339e+01  1.102209348345509e-22 -3.286252377950524e-16
 1.846613136456243e+01  5.162790480240694e-22 -3.286268348082976e-16
 1.846622120980323e+01  1.101932559348402e-22 -3.286284337238692e-16
 1.846631120483526e+01  1.039641142632974e-22 -3.286300352892698e-16
 1.846640131852059e+01  1.041222487337762e-21 -3.286316389309729e-16
 1.846649155158719e+01  1.102238467166352e-22 -3.286332447980705e-16
 1.846658193915380e+01  5.163979372332654e-22 -3.286348533717226e-16
 1.846667243899992e+01  1.102153606651323e-22 -3.286364638769618e-16
 1.846676309592049e+01  5.162690631734514e-22 -3.286380772713407e-16
 1.846685386815889e+01  1.101911216557938e-22 -3.286396926187598e-16
 1.846694480053050e+01  5.162661912034969e-22 -3.286413109287059e-16
 1.846703585128632e+01  1.102062588537657e-22 -3.286429312650176e-16
 1.846712706545538e+01  1.039615175161273e-22 -3.286445545306938e-16
 1.846721841197862e+01  1.041448457548686e-21 -3.286461800471403e-16
 1.846730989164537e+01  1.101895832337021e-22 -3.286478081192948e-16
 1.846740153963253e+01  5.162589720560869e-22 -3.286494390711935e-16
 1.846749331376803e+01  1.102204662546289e-22 -3.286510723360771e-16
 1.846758525889821e+01  5.162560681927729e-22 -3.286527086622612e-16
 1.846767733330627e+01  1.102159075634959e-22 -3.286543471654684e-16
 1.846776958184495e+01  5.161271485922929e-22 -3.286559889068809e-16
 1.846786196281322e+01  1.101877207632702e-22 -3.286576328977602e-16
 1.846795452106307e+01  5.162502315976225e-22 -3.286592800949611e-16
 1.846804721490173e+01  1.102343477059031e-22 -3.286609296661495e-16
 1.846814008938753e+01  1.039582931511479e-22 -3.286625824617685e-16
 1.846823311350371e+01  1.041416103377753e-21 -3.286642379071674e-16
 1.846832628808284e+01  1.102176552997783e-22 -3.286658960981982e-16
 1.846841964832632e+01  5.162428796663022e-22 -3.286675576193639e-16
 1.846851315210688e+01  1.102170246998646e-22 -3.286692215905809e-16
 1.846860684429397e+01  5.161139178170978e-22 -3.286708889684597e-16
 1.846870068320661e+01  1.102085166836619e-22 -3.286725589205960e-16
 1.846879471372739e+01  5.161109489836116e-22 -3.286742323512916e-16
 1.846888889418026e+01  1.102472571593194e-22 -3.286759083759509e-16
 1.846898326965016e+01  1.039871096905864e-22 -3.286775878968195e-16
 1.846907780913562e+01  1.041515170367297e-21 -3.286792703912906e-16
 1.846917251348511e+01  1.102147995628198e-22 -3.286809556942655e-16
 1.846926741792884e+01  5.162924795447337e-22 -3.286826445985125e-16
 1.846936248034875e+01  1.102141584770415e-22 -3.286843363803859e-16
 1.846945774563196e+01  5.162264708746143e-22 -3.286860317354520e-16
 1.846955317212062e+01  1.102135149416878e-22 -3.286877299876019e-16
 1.846964880470487e+01  5.160974518987357e-22 -3.286894318845082e-16
 1.846974460172942e+01  1.102085623214003e-22 -3.286911366978959e-16
 1.846984060808742e+01  5.162204190030054e-22 -3.286928452275415e-16
 1.846993678211782e+01  1.102437198020575e-22 -3.286945567973966e-16
 1.847003316892799e+01  1.039522674096958e-22 -3.286962721007536e-16
 1.847012973753154e+01  1.041355626358067e-21 -3.286979906149057e-16
 1.847022648879297e+01  1.102112426452640e-22 -3.286997124353548e-16
 1.847032345795790e+01  5.163387828784890e-22 -3.287014380938528e-16
 1.847042060291835e+01  1.101948380506927e-22 -3.287031669188813e-16
 1.847051796857781e+01  5.160837162967334e-22 -3.287048996578921e-16
 1.847061551328868e+01  1.102099297538538e-22 -3.287066355825931e-16
 1.847071328195506e+01  5.162066244928248e-22 -3.287083754925636e-16
 1.847081123293180e+01  1.101935199223453e-22 -3.287101186595009e-16
 1.847090941132198e+01  1.040124752269476e-22 -3.287118658809616e-16
 1.847100778615635e+01  1.041327627259299e-21 -3.287136164776498e-16
 1.847110635830368e+01  1.101767748888797e-22 -3.287153707536214e-16
 1.847120516301572e+01  5.161988490975406e-22 -3.287171291361913e-16
 1.847130415819497e+01  1.102391037966468e-22 -3.287188908494913e-16
 1.847140338874719e+01  5.161957156209553e-22 -3.287206567451677e-16
 1.847150281303630e+01  1.102069352163030e-22 -3.287224261470260e-16
 1.847160247596489e+01  5.160665771162961e-22 -3.287241998024184e-16
 1.847170233590231e+01  1.101905129629637e-22 -3.287259769308069e-16
 1.847180243774429e+01  5.161264122444919e-22 -3.287277583838965e-16
 1.847190273986619e+01  1.102055854843733e-22 -3.287295433289504e-16
 1.847200328736659e+01  1.039459961217100e-22 -3.287313327199147e-16
 1.847210404929049e+01  1.041040689910334e-21 -3.287331258774062e-16
 1.847220502650505e+01  1.102045652732158e-22 -3.287349228968683e-16
 1.847230625426392e+01  5.161814432542675e-22 -3.287367243619663e-16
 1.847240769048112e+01  1.102038812817521e-22 -3.287385295489452e-16
 1.847250938005627e+01  5.163042201171587e-22 -3.287403392572478e-16
 1.847261128136731e+01  1.102031941580915e-22 -3.287421527063132e-16
 1.847271343931440e+01  5.161750064174442e-22 -3.287439707477082e-16
 1.847281581226101e+01  1.101710071803300e-22 -3.287457925488818e-16
 1.847291844532338e+01  1.039430828735458e-22 -3.287476190113547e-16
 1.847302130753245e+01  1.041137431911901e-21 -3.287494495080836e-16
 1.847312439976784e+01  1.102014623557920e-22 -3.287512842386699e-16
 1.847322775727446e+01  5.162298684684330e-22 -3.287531235781924e-16
 1.847333133796995e+01  1.101850158309844e-22 -3.287549669593731e-16
 1.847343518675789e+01  5.161635967606866e-22 -3.287568150250740e-16
 1.847353926201042e+01  1.102000621556605e-22 -3.287586672034530e-16
 1.847364360862235e+01  5.161603019070683e-22 -3.287605241374390e-16
 1.847374818497012e+01  1.101993570144890e-22 -3.287623852551612e-16
 1.847385303594995e+01  5.161569911400915e-22 -3.287642511995142e-16
 1.847395811993606e+01  1.102301440297503e-22 -3.287661212943655e-16
 1.847406348202260e+01  1.039394377437237e-22 -3.287679963370415e-16
 1.847416909125449e+01  1.041100832954600e-21 -3.287698758568591e-16
 1.847427494850396e+01  1.101936421949565e-22 -3.287717596362882e-16
 1.847438108900585e+01  5.161486432413965e-22 -3.287736484676060e-16
 1.847448747068726e+01  1.101889880340301e-22 -3.287755417313631e-16
 1.847459413843037e+01  5.161452751461066e-22 -3.287774400183776e-16
 1.847470105061798e+01  1.101961409227947e-22 -3.287793426003323e-16
 1.847480825213155e+01  5.161418902059109e-22 -3.287812503809136e-16
 1.847491570134851e+01  1.101954164267514e-22 -3.287831625797258e-16
 1.847502344335225e+01  1.039363816986428e-22 -3.287850799941057e-16
 1.847513144718559e+01  1.041196123562480e-21 -3.287870020491417e-16
 1.847523971371742e+01  1.102258171416339e-22 -3.287889287880615e-16
 1.847534827817437e+01  5.161333528048504e-22 -3.287908608466993e-16
 1.847545709847388e+01  1.102250831971442e-22 -3.287927973971849e-16
 1.847556621950512e+01  5.161299072828260e-22 -3.287947393430461e-16
 1.847567559962931e+01  1.101849780798969e-22 -3.287966859041042e-16
 1.847578528373106e+01  5.160634563606673e-22 -3.287986378274739e-16
 1.847589523017806e+01  1.101921102359424e-22 -3.288005944893623e-16
 1.847600548384531e+01  5.161229627140643e-22 -3.288025565848136e-16
 1.847611600310222e+01  1.101756183046924e-22 -3.288045233857416e-16
 1.847622683302286e+01  1.039325505849430e-22 -3.288064957415980e-16
 1.847633794264307e+01  1.041031672471677e-21 -3.288084731297436e-16
 1.847644933282036e+01  1.101902399417035e-22 -3.288104553849231e-16
 1.847656103876600e+01  5.161141795261422e-22 -3.288124432994577e-16
 1.847667301839855e+01  1.101579919579441e-22 -3.288144361498391e-16
 1.847678531658574e+01  5.161106337107185e-22 -3.288164346311077e-16
 1.847689789168287e+01  1.101887258745907e-22 -3.288184380153719e-16
 1.847701078855954e+01  5.161070689938961e-22 -3.288204472062045e-16
 1.847712396557815e+01  1.101564702551766e-22 -3.288224612670854e-16
 1.847723746779960e+01  1.039293330290891e-22 -3.288244812039220e-16
 1.847735126424530e+01  1.040999358204265e-21 -3.288265063378382e-16
 1.847746535576829e+01  1.101710643318094e-22 -3.288285367121848e-16
 1.847757977757112e+01  5.161610573328667e-22 -3.288305730149935e-16
 1.847769448755546e+01  1.101702910111103e-22 -3.288326144187122e-16
 1.847780953057714e+01  5.162204081323687e-22 -3.288346617226827e-16
 1.847792486498749e+01  1.101537676068879e-22 -3.288367142512654e-16
 1.847804053564062e+01  5.160278051172300e-22 -3.288387727516539e-16
 1.847815650088580e+01  1.102159689885038e-22 -3.288408364961021e-16
 1.847827280557388e+01  5.161500989020057e-22 -3.288429062839548e-16
 1.847838940804551e+01  1.102151825741146e-22 -3.288449813354282e-16
 1.847850635335540e+01  1.038623107790270e-22 -3.288470624999290e-16
 1.847862361050565e+01  1.040832818223144e-21 -3.288491492552635e-16
 1.847874118033527e+01  1.101785674682558e-22 -3.288512415406192e-16
 1.847885909803115e+01  5.160778463586467e-22 -3.288533399919367e-16
 1.847897732147792e+01  1.101738340360586e-22 -3.288554439383465e-16
 1.847909589551575e+01  5.162000648521017e-22 -3.288575541270749e-16
 1.847921477848216e+01  1.101809051537015e-22 -3.288596697784254e-16
 1.847933401520661e+01  5.160703374591829e-22 -3.288617917439894e-16
 1.847945356402937e+01  1.101800990979058e-22 -3.288639192440587e-16
 1.847957346997915e+01  1.039205255061698e-22 -3.288660531281898e-16
 1.847969370204698e+01  1.040924655749497e-21 -3.288681927700713e-16
 1.847981426106089e+01  1.101473915755990e-22 -3.288703383175416e-16
 1.847993518218489e+01  5.160608322893904e-22 -3.288724901981256e-16
 1.848005642329768e+01  1.102095537273155e-22 -3.288746478453616e-16
 1.848017802921459e+01  5.160569925431632e-22 -3.288768120066161e-16
 1.848029995826091e+01  1.101693695628722e-22 -3.288789818502527e-16
 1.848042225525598e+01  5.160531309669155e-22 -3.288811582799867e-16
 1.848054487851885e+01  1.101606705276709e-22 -3.288833405163987e-16
 1.848066787286129e+01  5.160492473624972e-22 -3.288855293068419e-16
 1.848079119659655e+01  1.101913281174006e-22 -3.288877240283847e-16
 1.848091489473624e+01  1.039176244669922e-22 -3.288899253742029e-16
 1.848103893625801e+01  1.041007707845439e-21 -3.288921327703217e-16
 1.848116332196373e+01  1.101743274053703e-22 -3.288943464690891e-16
 1.848128808699589e+01  5.160394406767114e-22 -3.288965667417290e-16
 1.848141318921429e+01  1.101734838968428e-22 -3.288987931263298e-16
 1.848153867341367e+01  5.161614314648667e-22 -3.289010262660528e-16
 1.848166449790466e+01  1.101411473750401e-22 -3.289032654859125e-16
 1.848179070746618e+01  5.161574453119666e-22 -3.289055115334778e-16
 1.848191726041602e+01  1.102032701199457e-22 -3.289077636815719e-16
 1.848204420172646e+01  1.039140286307836e-22 -3.289100227279242e-16
 1.848217150037183e+01  1.041097532563571e-21 -3.289122882550498e-16
 1.848229915712831e+01  1.101704929765680e-22 -3.289145599941793e-16
 1.848242720712298e+01  5.160214287348247e-22 -3.289168387900924e-16
 1.848255560819423e+01  1.101617553950144e-22 -3.289191238162152e-16
 1.848268440511864e+01  5.160173618037025e-22 -3.289214159764529e-16
 1.848281355618642e+01  1.101372693620159e-22 -3.289237143354272e-16
 1.848294310616920e+01  5.160132710765235e-22 -3.289260197970662e-16
 1.848307301334659e+01  1.101678804728818e-22 -3.289283316867872e-16
 1.848320332248741e+01  5.160091563604271e-22 -3.289306506478485e-16
 1.848333399187732e+01  1.101355128782569e-22 -3.289329761098914e-16
 1.848346506646358e+01  1.039095042861105e-22 -3.289353087143495e-16
 1.848359651520103e+01  1.040926126057088e-21 -3.289376480961268e-16
 1.848372833884189e+01  1.101617323117568e-22 -3.289399939866830e-16
 1.848386057248212e+01  5.159987633502518e-22 -3.289423472831125e-16
 1.848399317394877e+01  1.101490310333139e-22 -3.289447070547918e-16
 1.848412618798191e+01  5.159630773866179e-22 -3.289470742058390e-16
 1.848425957285184e+01  1.101638745946900e-22 -3.289494479054467e-16
 1.848439337330343e+01  5.161162801354439e-22 -3.289518290576551e-16
 1.848452754759751e+01  1.101629698820078e-22 -3.289542168317706e-16
 1.848466214066999e+01  1.039056924037980e-22 -3.289566120777479e-16
 1.848479712144781e+01  1.040887827099462e-21 -3.289590142222958e-16
 1.848493249066226e+01  1.101930877246806e-22 -3.289614233098592e-16
 1.848506828339039e+01  5.160426352008918e-22 -3.289638398726951e-16
 1.848520445744059e+01  1.101291998037977e-22 -3.289662632932400e-16
 1.848534105752568e+01  5.159753519479128e-22 -3.289686942672341e-16
 1.848547804190610e+01  1.101518897384491e-22 -3.289711320161837e-16
 1.848561545529111e+01  5.159080440428216e-22 -3.289735774964877e-16
 1.848575325592970e+01  1.101588316696960e-22 -3.289760297733965e-16
 1.848589148853745e+01  5.159036794333197e-22 -3.289784898553439e-16
 1.848603011135235e+01  1.101578969368345e-22 -3.289809567555828e-16
 1.848616916927353e+01  1.039008933473515e-22 -3.289834314806658e-16
 1.848630863121710e+01  1.040713673998117e-21 -3.289859134574789e-16
 1.848644849788163e+01  1.101250008210773e-22 -3.289884024701285e-16
 1.848658880431306e+01  5.159556201813361e-22 -3.289908994159570e-16
 1.848672950830139e+01  1.101555355670930e-22 -3.289934033649146e-16
 1.848687065452601e+01  5.159196798135813e-22 -3.289959152214354e-16
 1.848701220122502e+01  1.101545810998092e-22 -3.289984342073541e-16
 1.848715419307709e+01  5.159466789485067e-22 -3.290009611749537e-16
 1.848729658831254e+01  1.101851036121209e-22 -3.290034952419126e-16
 1.848743943180797e+01  1.038968481074924e-22 -3.290060373106151e-16
 1.848758269244376e+01  1.040421174281628e-21 -3.290085867562404e-16
 1.848772637091394e+01  1.101679109341447e-22 -3.290111437278117e-16
 1.848787050222658e+01  5.159353508166128e-22 -3.290137087059229e-16
 1.848801504416253e+01  1.101433245993879e-22 -3.290162810213397e-16
 1.848816004137164e+01  5.159307718127224e-22 -3.290188614222775e-16
 1.848830545207373e+01  1.101187328195362e-22 -3.290214491829683e-16
 1.848845132092102e+01  5.158632020628679e-22 -3.290240451036989e-16
 1.848859760612710e+01  1.101807095505762e-22 -3.290266484066584e-16
 1.848874435234049e+01  5.159215309409504e-22 -3.290292599442657e-16
 1.848889151776706e+01  1.101797168710283e-22 -3.290318788866820e-16
 1.848903914725242e+01  1.038917535030595e-22 -3.290345061364317e-16
 1.848918720965660e+01  1.040621850500611e-21 -3.290371411210978e-16
 1.848933570563806e+01  1.101467358827994e-22 -3.290397837815325e-16
 1.848948467019093e+01  5.159098226116166e-22 -3.290424348068340e-16
 1.848963406105138e+01  1.101378583492985e-22 -3.290450933719527e-16
 1.848978392285181e+01  5.158736094746407e-22 -3.290477602772367e-16
 1.848993421379297e+01  1.101289748836196e-22 -3.290504349014621e-16
 1.849008497848439e+01  5.159003283981162e-22 -3.290531179409304e-16
 1.849023617512751e+01  1.101279554162756e-22 -3.290558086701845e-16
 1.849038784852796e+01  1.038860885241611e-22 -3.290585078877618e-16
 1.849053996753877e+01  1.040578696523801e-21 -3.290612150735002e-16
 1.849069253279637e+01  1.101106749528359e-22 -3.290639301163307e-16
 1.849084557925470e+01  5.158882988462466e-22 -3.290666538098812e-16
 1.849099906465311e+01  1.101096401812117e-22 -3.290693852249217e-16
 1.849115303358980e+01  5.158834361224143e-22 -3.290721252662434e-16
 1.849130744423907e+01  1.101400779995337e-22 -3.290748732087338e-16
 1.849146234119677e+01  5.158155866722531e-22 -3.290776297486914e-16
 1.849161768264073e+01  1.101232911302040e-22 -3.290803942652301e-16
 1.849177351315612e+01  5.158736224407063e-22 -3.290831674547246e-16
 1.849192979091905e+01  1.101537155924409e-22 -3.290859485920850e-16
 1.849208656070403e+01  1.038820478097761e-22 -3.290887385281023e-16
 1.849224379134152e+01  1.040650252753189e-21 -3.290915365865607e-16
 1.849240148344053e+01  1.101363836513316e-22 -3.290943429172389e-16
 1.849255967193505e+01  5.158611880919417e-22 -3.290971580532156e-16
 1.849271831453013e+01  1.101353137565103e-22 -3.290999813263230e-16
 1.849287745579862e+01  5.158246844385175e-22 -3.291028133808314e-16
 1.849303705389598e+01  1.101342374083147e-22 -3.291056536482852e-16
 1.849319715339013e+01  5.158511051152269e-22 -3.291085028772054e-16
 1.849335771243123e+01  1.101016777126746e-22 -3.291113601865061e-16
 1.849351877558172e+01  5.157830645807882e-22 -3.291142264289660e-16
 1.849368030098796e+01  1.101281306363297e-22 -3.291171010362606e-16
 1.849384233340773e+01  1.038764554917629e-22 -3.291199845985788e-16
 1.849400484164058e+01  1.040594062162122e-21 -3.291228766485669e-16
 1.849416782627251e+01  1.101225498190830e-22 -3.291257771277327e-16
 1.849433132220980e+01  5.158331656548073e-22 -3.291286866735193e-16
 1.849449528714207e+01  1.101607887540603e-22 -3.291316046701461e-16
 1.849465976560796e+01  5.157650192700620e-22 -3.291345317099318e-16
 1.849482471574954e+01  1.100967250545945e-22 -3.291374672246657e-16
 1.849499018209611e+01  5.158227440321792e-22 -3.291404119630726e-16
 1.849515612279049e+01  1.100956061847022e-22 -3.291433650442666e-16
 1.849532258256039e+01  1.038717405371937e-22 -3.291463273712805e-16
 1.849548953018784e+01  1.040420788271870e-21 -3.291492983727714e-16
 1.849565696624653e+01  1.101214555662794e-22 -3.291522781466892e-16
 1.849582492561629e+01  5.158095400739519e-22 -3.291552671742735e-16
 1.849599336597421e+01  1.101163852413065e-22 -3.291582647878505e-16
 1.849616233183731e+01  5.157727287519010e-22 -3.291612717361492e-16
 1.849633178132888e+01  1.101388479192214e-22 -3.291642872948998e-16
 1.849650175896498e+01  5.157988337152922e-22 -3.291673122649188e-16
 1.849667222286664e+01  1.101219611783832e-22 -3.291703458177581e-16
 1.849684321754095e+01  5.157934323434238e-22 -3.291733888585116e-16
 1.849701470111225e+01  1.101522778695680e-22 -3.291764406629440e-16
 1.849718671827632e+01  1.038343293784014e-22 -3.291795018736502e-16
 1.849735923781284e+01  1.040361132564508e-21 -3.291825721278408e-16
 1.849753226026022e+01  1.100875837638023e-22 -3.291856512111176e-16
 1.849770582048102e+01  5.157797870115105e-22 -3.291887399174063e-16
 1.849787987613391e+01  1.101178825766134e-22 -3.291918374751175e-16
 1.849805447171316e+01  5.157113270327474e-22 -3.291949446330142e-16
 1.849822956533179e+01  1.101167015478679e-22 -3.291980606149448e-16
 1.849840520147333e+01  5.157687234173730e-22 -3.292011862739630e-16
 1.849858133824808e+01  1.101155134703581e-22 -3.292043208339678e-16
 1.849875802034223e+01  1.038922687427785e-22 -3.292074650938206e-16
 1.849893521650796e+01  1.040310846341921e-21 -3.292106185868516e-16
 1.849911292728642e+01  1.101137180604272e-22 -3.292137810986187e-16
 1.849929118751504e+01  5.157547075930390e-22 -3.292169534231567e-16
 1.849946995483907e+01  1.101439831644443e-22 -3.292201347891186e-16
 1.849964927373733e+01  5.157333073718401e-22 -3.292233260494723e-16
 1.849982910231410e+01  1.101112991811890e-22 -3.292265262719394e-16
 1.850000948503549e+01  5.157433442625833e-22 -3.292297363616869e-16
 1.850019038000429e+01  1.101415492112829e-22 -3.292329556470078e-16
 1.850037183168417e+01  5.156746717489306e-22 -3.292361847725216e-16
 1.850055379817561e+01  1.101009839971293e-22 -3.292394231186770e-16
 1.850073632414414e+01  1.038544948315419e-22 -3.292426713801217e-16
 1.850091936730468e+01  1.040373411356796e-21 -3.292459287849057e-16
 1.850110296126125e+01  1.100991292643507e-22 -3.292491960872591e-16
 1.850128710775081e+01  5.158490087787583e-22 -3.292524731648239e-16
 1.850147177544709e+01  1.100742818539899e-22 -3.292557596039458e-16
 1.850165699777142e+01  5.157172800842707e-22 -3.292590559001303e-16
 1.850184276590410e+01  1.101044977854021e-22 -3.292623618292292e-16
 1.850202909121307e+01  5.157113932853249e-22 -3.292656776926349e-16
 1.850221594282335e+01  1.100717689868009e-22 -3.292690029679580e-16
 1.850240335435305e+01  1.038491839234953e-22 -3.292723381486569e-16
 1.850259132762190e+01  1.040068307304449e-21 -3.292756834241321e-16
 1.850277983006425e+01  1.100973991386778e-22 -3.292790379764834e-16
 1.850296890751068e+01  5.156965244169869e-22 -3.292824028009762e-16
 1.850315851760497e+01  1.100921866218004e-22 -3.292857771786278e-16
 1.850334870478637e+01  5.156747819148026e-22 -3.292891618061051e-16
 1.850353942714600e+01  1.100987668142947e-22 -3.292925559078320e-16
 1.850373072912461e+01  5.156844713293299e-22 -3.292959603367245e-16
 1.850392256881243e+01  1.100974726042438e-22 -3.292993743693400e-16
 1.850411499064574e+01  5.156154587306945e-22 -3.293027988064983e-16
 1.850430795272194e+01  1.100961708065813e-22 -3.293062327684094e-16
 1.850450149966625e+01  1.038424992047205e-22 -3.293096771581436e-16
 1.850469558919907e+01  1.040252890046252e-21 -3.293131312039465e-16
 1.850489025489920e+01  1.101256695329485e-22 -3.293165955036713e-16
 1.850508549848553e+01  5.156630363580766e-22 -3.293200701434753e-16
 1.850528128862674e+01  1.100928828905528e-22 -3.293235544494170e-16
 1.850547765871783e+01  5.156568315058535e-22 -3.293270490732563e-16
 1.850567459994239e+01  1.100915542653293e-22 -3.293305538950157e-16
 1.850587212364082e+01  5.156505901217717e-22 -3.293340690078084e-16
 1.850607019894328e+01  1.100902178978928e-22 -3.293375940456518e-16
 1.850626885943967e+01  1.038368680765581e-22 -3.293411294498799e-16
 1.850646810695285e+01  1.040070457563757e-21 -3.293446752534719e-16
 1.850666790891065e+01  1.100567347461601e-22 -3.293482310034787e-16
 1.850686831112256e+01  5.156348277406976e-22 -3.293517973823587e-16
 1.850706927124269e+01  1.100868428815545e-22 -3.293553737233768e-16
 1.850727083368805e+01  5.155969951959233e-22 -3.293589607751178e-16
 1.850747295655947e+01  1.100854791457342e-22 -3.293625577621693e-16
 1.850767568428398e+01  5.156220525986475e-22 -3.293661655371612e-16
 1.850787897495729e+01  1.100526446739427e-22 -3.293697833768522e-16
 1.850808287300536e+01  5.156156095063698e-22 -3.293734119775585e-16
 1.850828733653007e+01  1.100748623383344e-22 -3.293770506160038e-16
 1.850849241014956e+01  1.038297830563046e-22 -3.293807001427991e-16
 1.850869806261761e+01  1.040125134192919e-21 -3.293843599874797e-16
 1.850890429444143e+01  1.100649127333183e-22 -3.293880301442051e-16
 1.850911114040229e+01  5.155993385466536e-22 -3.293917111983055e-16
 1.850931855816203e+01  1.100792441160498e-22 -3.293954024310193e-16
 1.850952659214505e+01  5.155298419504047e-22 -3.293991046427126e-16
 1.850973520045615e+01  1.100463754752161e-22 -3.294028171101729e-16
 1.850994442752164e+01  5.155861525550876e-22 -3.294065405295199e-16
 1.851015423145996e+01  1.100449601999862e-22 -3.294102742816122e-16
 1.851036465688367e+01  1.038238170820579e-22 -3.294140190085533e-16
 1.851057566154014e+01  1.039813516001783e-21 -3.294177740949786e-16
 1.851078727900782e+01  1.100664170774917e-22 -3.294215400861596e-16
 1.851099951100800e+01  5.154436171086023e-22 -3.294253170680931e-16
 1.851121232623626e+01  1.100571162281209e-22 -3.294291043147614e-16
 1.851142575809948e+01  5.155312517260512e-22 -3.294329026335618e-16
 1.851163979778244e+01  1.100714017843297e-22 -3.294367116961409e-16
 1.851185445665386e+01  5.155559269959843e-22 -3.294405318034579e-16
 1.851206970386027e+01  1.100542198913539e-22 -3.294443623812399e-16
 1.851228557281810e+01  5.156749388498470e-22 -3.294482039762736e-16
 1.851250205471546e+01  1.100370301387593e-22 -3.294520565726972e-16
 1.851271916112026e+01  1.038163139466978e-22 -3.294559202610702e-16
 1.851293687183854e+01  1.039738155845233e-21 -3.294597946197822e-16
 1.851315518739986e+01  1.100977395021156e-22 -3.294636798510332e-16
 1.851337414259956e+01  5.154689622936714e-22 -3.294675764354726e-16
 1.851359369514348e+01  1.100569358072330e-22 -3.294714836020855e-16
 1.851381388945615e+01  5.155249180052498e-22 -3.294754022028660e-16
 1.851403468369623e+01  1.100633101178381e-22 -3.294793315143326e-16
 1.851425612230275e+01  5.155179192228200e-22 -3.294832723362004e-16
 1.851447816343618e+01  1.100460834291743e-22 -3.294872237887454e-16
 1.851470085172542e+01  1.038099984890135e-22 -3.294911867738840e-16
 1.851492415598543e+01  1.039800550265305e-21 -3.294951608249723e-16
 1.851514807675886e+01  1.100595480863392e-22 -3.294991456752833e-16
 1.851537264885964e+01  5.155002486854866e-22 -3.295031422738545e-16
 1.851559783001807e+01  1.100580283876866e-22 -3.295071495891447e-16
 1.851582366467328e+01  5.156189312709594e-22 -3.295111686290286e-16
 1.851605011101426e+01  1.100879550781135e-22 -3.295151984615198e-16
 1.851627721348514e+01  5.154230228772036e-22 -3.295192399902302e-16
 1.851650493027774e+01  1.100549632746300e-22 -3.295232925435789e-16
 1.851673330585140e+01  5.154787137276744e-22 -3.295273567645707e-16
 1.851696229839343e+01  1.100534177883103e-22 -3.295314319296212e-16
 1.851719195256484e+01  1.038020591058207e-22 -3.295355188879661e-16
 1.851742223720952e+01  1.039972431489766e-21 -3.295396171206911e-16
 1.851821925869692e+01  1.100413070981755e-22 -3.295538010306901e-16
 1.851788472346751e+01  5.153975833981227e-22 -3.295478476159631e-16
 1.851811694003271e+01 -1.157106747086330e-26 -3.295519800899800e-16
 1.851834981318778e+01  4.697901554154083e-23 -3.295561244037874e-16
 1.842410486641053e+01  1.095055666981719e-21 -3.278789230641124e-16
 1.842424935050163e+01  9.465179611367856e-15 -3.278814944525373e-16
 1.842439348224364e+01  5.169383585740142e-22 -3.278840594050060e-16
 1.842453722961525e+01  1.103337965596453e-22 -3.278866175635277e-16
 1.842468063786017e+01  1.040965411098769e-22 -3.278891697287953e-16
 1.842482367569452e+01  1.042799435375935e-21 -3.278917152743019e-16
 1.842496634375813e+01  1.103638933822199e-22 -3.278942541939522e-16
 1.842510867718425e+01  5.170532379756841e-22 -3.278967871285100e-16
 1.842525063349946e+01  1.103944776611307e-22 -3.278993134590978e-16
 1.842539225751367e+01  5.168910477775520e-22 -3.279018337817769e-16
 1.842553350719745e+01  1.103462105160623e-22 -3.279043475254695e-16
 1.842567442734583e+01  5.169181352710617e-22 -3.279068553385844e-16
 1.842581497592179e+01  1.103452618944110e-22 -3.279093565979120e-16
 1.842595519770303e+01  5.169137024315780e-22 -3.279118520042325e-16
 1.842609505063706e+01  1.103600888222585e-22 -3.279143408822846e-16
 1.842623457970009e+01  1.040916007037159e-22 -3.279168239308340e-16
 1.842637375352981e+01  1.042623901137054e-21 -3.279193007853577e-16
 1.842651257271885e+01  1.103902227555292e-22 -3.279217711790914e-16
 1.842665106122976e+01  5.169027159009768e-22 -3.279242357601131e-16
 1.842678920980185e+01  1.103577489451733e-22 -3.279266942558866e-16
 1.842692702990137e+01  5.170245224179067e-22 -3.279291469173991e-16
 1.842706449053469e+01  1.103568210145958e-22 -3.279315932198052e-16
 1.842720162533906e+01  5.168309419591934e-22 -3.279340336620184e-16
 1.842733842548235e+01  1.103558976136241e-22 -3.279364682283300e-16
 1.842747490261122e+01  1.040561168411953e-22 -3.279388969590088e-16
 1.842761103641216e+01  1.042584498183219e-21 -3.279413196400272e-16
 1.842774682742392e+01  1.103545209282228e-22 -3.279437362140400e-16
 1.842788231064558e+01  5.168832760091140e-22 -3.279461472707038e-16
 1.842801744350942e+01  1.103536086978744e-22 -3.279485521400499e-16
 1.842815227069714e+01  5.168159341198925e-22 -3.279509515758247e-16
 1.842828675007490e+01  1.103527008751950e-22 -3.279533447992906e-16
 1.842842092632149e+01  5.168747717356623e-22 -3.279557325641969e-16
 1.842855475729275e+01  1.103439125892226e-22 -3.279581143008117e-16
 1.842868828765330e+01  5.168705502865877e-22 -3.279604906585580e-16
 1.842882147525758e+01  1.103508983164329e-22 -3.279628608588537e-16
 1.842895436494877e+01  1.040829532621790e-22 -3.279652257581895e-16
 1.842908692528043e+01  1.042663650109657e-21 -3.279675847841258e-16
 1.842921915673066e+01  1.103810964221273e-22 -3.279699380365686e-16
 1.842935109424421e+01  5.168600849006115e-22 -3.279722860533799e-16
 1.842948269519375e+01  1.103486693076460e-22 -3.279746280608518e-16
 1.842961400421148e+01  5.168559336314483e-22 -3.279769648130833e-16
 1.842974497911516e+01  1.103793233234799e-22 -3.279792956885830e-16
 1.842987566451916e+01  5.168518020644021e-22 -3.279816213893830e-16
 1.843000601823676e+01  1.103153671797683e-22 -3.279839411896178e-16
 1.843013608507465e+01  1.040791958349093e-22 -3.279862558938042e-16
 1.843026583354080e+01  1.042626098903575e-21 -3.279885648778018e-16
 1.843039526406935e+01  1.103455929223181e-22 -3.279908682941566e-16
 1.843052440048297e+01  5.168415585196603e-22 -3.279931664787848e-16
 1.843065323337125e+01  1.103447232613034e-22 -3.279954591606895e-16
 1.843078177406066e+01  5.167744201361581e-22 -3.279977466965538e-16
 1.843090999142661e+01  1.103280891386266e-22 -3.280000284585968e-16
 1.843103791894992e+01  5.168334499320936e-22 -3.280023051558778e-16
 1.843116554766589e+01  1.103351119315363e-22 -3.280045764085059e-16
 1.843129288888520e+01  5.168294238499611e-22 -3.280068425733026e-16
 1.843141991146173e+01  1.103421386154697e-22 -3.280091031271622e-16
 1.843154664906194e+01  1.040747106125416e-22 -3.280113585683783e-16
 1.843167310340585e+01  1.042455126863456e-21 -3.280136089321428e-16
 1.843179924163286e+01  1.103093235664425e-22 -3.280158537647660e-16
 1.843192510968133e+01  5.167563684989852e-22 -3.280180937548138e-16
 1.843205066485080e+01  1.103084761835398e-22 -3.280203281295009e-16
 1.843217595167128e+01  5.168154797037698e-22 -3.280225577481280e-16
 1.843230092789203e+01  1.103391684428340e-22 -3.280247818334205e-16
 1.843242563803545e+01  5.167484656951391e-22 -3.280270012447308e-16
 1.843255003984018e+01  1.103698640960176e-22 -3.280292151004794e-16
 1.843267417802656e+01  1.040711252437979e-22 -3.280314243102245e-16
 1.843279802102314e+01  1.042419297248442e-21 -3.280336281463286e-16
 1.843292156919185e+01  1.103370760309733e-22 -3.280358269186620e-16
 1.843304485734975e+01  5.166756186988503e-22 -3.280380209572257e-16
 1.843316784276643e+01  1.103362457416981e-22 -3.280402096462573e-16
 1.843329056993803e+01  5.167348090986441e-22 -3.280423936886458e-16
 1.843341299658532e+01  1.103196518890042e-22 -3.280445724641226e-16
 1.843353516719243e+01  5.167940161388327e-22 -3.280467465712483e-16
 1.843365703947611e+01  1.103267128346761e-22 -3.280489154942377e-16
 1.843377865791429e+01  5.167901710588747e-22 -3.280510798316901e-16
 1.843389998021632e+01  1.103653115701620e-22 -3.280532389112739e-16
 1.843402105105595e+01  1.040668422511931e-22 -3.280553934862399e-16
 1.843414182774810e+01  1.042502630247810e-21 -3.280575428882268e-16
 1.843426234386495e+01  1.103640895101624e-22 -3.280596876162727e-16
 1.843438260093764e+01  5.167175663287679e-22 -3.280618277074252e-16
 1.843450256728924e+01  1.103159789332392e-22 -3.280639626440548e-16
 1.843462227629161e+01  5.167768488763628e-22 -3.280660930316021e-16
 1.843474171888316e+01  1.103309394287668e-22 -3.280682186478314e-16
 1.843486090626412e+01  5.167100139022614e-22 -3.280703396939054e-16
 1.843497980719823e+01  1.102986035395767e-22 -3.280724557000115e-16
 1.843509845525334e+01  1.040634160442914e-22 -3.280745672173802e-16
 1.843521685204676e+01  1.042468383369029e-21 -3.280766741255535e-16
 1.843533496463279e+01  1.102974064318821e-22 -3.280787761807148e-16
 1.843545283884029e+01  5.166376017682661e-22 -3.280808739155549e-16
 1.843557043188947e+01  1.103596779246731e-22 -3.280829665583471e-16
 1.843568778820912e+01  5.166969572303551e-22 -3.280850550734745e-16
 1.843580486546338e+01  1.103273549091087e-22 -3.280871385803569e-16
 1.843592170807693e+01  5.167563280220984e-22 -3.280892179389767e-16
 1.843603827371282e+01  1.103186848987140e-22 -3.280912923732010e-16
 1.843615460678287e+01  5.167526499684146e-22 -3.280933626386996e-16
 1.843627066495432e+01  1.103257843806415e-22 -3.280954280637334e-16
 1.843638649283544e+01  1.040593198799983e-22 -3.280974893497715e-16
 1.843650204769337e+01  1.042427439785985e-21 -3.280995458813099e-16
 1.843661736304223e+01  1.102930838331954e-22 -3.281015979489653e-16
 1.843673244036184e+01  5.167435244295465e-22 -3.281036459035164e-16
 1.843684724792293e+01  1.103080746194192e-22 -3.281056890191488e-16
 1.843696183013069e+01  5.167399017117953e-22 -3.281077282081438e-16
 1.843707614462878e+01  1.103230685112344e-22 -3.281097625380191e-16
 1.843719023580322e+01  5.167362945130668e-22 -3.281117929212263e-16
 1.843730406130628e+01  1.103223000243545e-22 -3.281138185818357e-16
 1.843741766571825e+01  1.040875712903154e-22 -3.281158403259130e-16
 1.843753101738389e+01  1.042142412403439e-21 -3.281178576357604e-16
 1.843764411654447e+01  1.103211534210802e-22 -3.281198702480965e-16
 1.843775699790247e+01  5.167273435729330e-22 -3.281218791724232e-16
 1.843786961863555e+01  1.103203930639564e-22 -3.281238833765830e-16
 1.843798202312779e+01  5.167237896849083e-22 -3.281258837729667e-16
 1.843809416900471e+01  1.103038708336892e-22 -3.281278794815616e-16
 1.843820610064236e+01  5.167202507433683e-22 -3.281298714670216e-16
 1.843831777566560e+01  1.103109994511397e-22 -3.281318588493587e-16
 1.843842923844875e+01  5.167797862855765e-22 -3.281338424888105e-16
 1.843854044660973e+01  1.103181311114944e-22 -3.281358215576810e-16
 1.843865144471930e+01  1.040507448497702e-22 -3.281377968620120e-16
 1.843876220109783e+01  1.042481550723470e-21 -3.281397678322111e-16
 1.843887271597226e+01  1.102854813184831e-22 -3.281417346749758e-16
 1.843898302402322e+01  5.166449217314029e-22 -3.281436977212638e-16
 1.843909308241618e+01  1.103162676580829e-22 -3.281456563567755e-16
 1.843920293550764e+01  5.167045070885294e-22 -3.281476112852410e-16
 1.843931254091519e+01  1.103155276500170e-22 -3.281495618878405e-16
 1.843942194298899e+01  5.167010481053630e-22 -3.281515087639402e-16
 1.843953109934580e+01  1.103147906726108e-22 -3.281534513991513e-16
 1.843964005454179e+01  1.040489723998611e-22 -3.281553903907532e-16
 1.843974877687720e+01  1.042323999593329e-21 -3.281573252738148e-16
 1.843985726657448e+01  1.103452192869785e-22 -3.281592559418473e-16
 1.843996555829915e+01  5.168185756152772e-22 -3.281611831435141e-16
 1.844007360920488e+01  1.103129613144449e-22 -3.281631060036922e-16
 1.844018146364029e+01  5.166575240064837e-22 -3.281650253827049e-16
 1.844028907921119e+01  1.102964707162579e-22 -3.281669405575172e-16
 1.844039650025664e+01  5.166856557928831e-22 -3.281688522319211e-16
 1.844050368438737e+01  1.102957471534570e-22 -3.281707596828488e-16
 1.844061067593655e+01  5.166822730134178e-22 -3.281726637185348e-16
 1.844071743251367e+01  1.103107902896672e-22 -3.281745636159389e-16
 1.844082399865626e+01  1.040452068113635e-22 -3.281764600768227e-16
 1.844093034266491e+01  1.042160243179450e-21 -3.281783526885122e-16
 1.844103646474404e+01  1.103412417924151e-22 -3.281802411358919e-16
 1.844114239954674e+01  5.166108202308760e-22 -3.281821264286566e-16
 1.844124810422602e+01  1.102932372350077e-22 -3.281840075351821e-16
 1.844135362310806e+01  5.166705384463714e-22 -3.281858853681025e-16
 1.844145891380319e+01  1.103398168195946e-22 -3.281877591522244e-16
 1.844156402063235e+01  5.167302688769123e-22 -3.281896296436129e-16
 1.844166890120235e+01  1.103075817901665e-22 -3.281914961193269e-16
 1.844177359983977e+01  5.165377985334532e-22 -3.281933593875537e-16
 1.844187807414852e+01  1.103384029239598e-22 -3.281952186209978e-16
 1.844198236865065e+01  1.040415224455163e-22 -3.281970746258667e-16
 1.844208645164479e+01  1.042249516071642e-21 -3.281989268329670e-16
 1.844219032332955e+01  1.103058234390546e-22 -3.282007754492314e-16
 1.844229401835501e+01  5.166241588157485e-22 -3.282026208056979e-16
 1.844239749386471e+01  1.102893618032399e-22 -3.282044622885255e-16
 1.844250079418152e+01  5.166524188530577e-22 -3.282063006014725e-16
 1.844260387690726e+01  1.102965473747144e-22 -3.282081351261134e-16
 1.844270678636758e+01  5.166491651418990e-22 -3.282099665661603e-16
 1.844280948015899e+01  1.103037354725911e-22 -3.282117940944642e-16
 1.844291200280319e+01  1.040371939262434e-22 -3.282136185693434e-16
 1.844301432259831e+01  1.042219950729431e-21 -3.282154395782546e-16
 1.844311643974474e+01  1.102711749929403e-22 -3.282172568061231e-16
 1.844321838887905e+01  5.166410841415477e-22 -3.282190711060351e-16
 1.844332012715506e+01  1.102862508453430e-22 -3.282208816553232e-16
 1.844342169888825e+01  5.167639728167162e-22 -3.282226892621290e-16
 1.844352306168494e+01  1.103328539595746e-22 -3.282244930992603e-16
 1.844362425986413e+01  5.166977227913211e-22 -3.282262940791972e-16
 1.844372525102614e+01  1.102691224500347e-22 -3.282280913226279e-16
 1.844382607949667e+01  5.165053867163658e-22 -3.282298856897484e-16
 1.844392670287220e+01  1.102684432689699e-22 -3.282316764056937e-16
 1.844402716567867e+01  1.040350183861804e-22 -3.282334642242393e-16
 1.844412743621048e+01  1.042247530582645e-21 -3.282352487329341e-16
 1.844422751467183e+01  1.102989533396406e-22 -3.282370296688637e-16
 1.844432743570285e+01  5.165605175499853e-22 -3.282388078849856e-16
 1.844442715645965e+01  1.102825180337165e-22 -3.282405825586968e-16
 1.844452672125530e+01  5.166204179123961e-22 -3.282423543936657e-16
 1.844462608770681e+01  1.102818472420503e-22 -3.282441227714616e-16
 1.844472530012858e+01  5.165542335966724e-22 -3.282458883957202e-16
 1.844482431613329e+01  1.102654169824064e-22 -3.282476504914838e-16
 1.844492318023699e+01  1.040321682430560e-22 -3.282494099169312e-16
 1.844502186075128e+01  1.042155980719769e-21 -3.282511660507061e-16
 1.844512035787945e+01  1.102644188669659e-22 -3.282529188908754e-16
 1.844521870626435e+01  5.165464405432371e-22 -3.282546691337125e-16
 1.844531686306360e+01  1.102952795320937e-22 -3.282564159566688e-16
 1.844541487260836e+01  5.166063883839404e-22 -3.282581601675375e-16
 1.844551269250606e+01  1.102946190893826e-22 -3.282599009914658e-16
 1.844561036708449e+01  5.166033002440417e-22 -3.282616391840683e-16
 1.844570785396555e+01  1.103254837130502e-22 -3.282633740747492e-16
 1.844580519746408e+01  5.166632680246782e-22 -3.282651064192334e-16
 1.844590235521247e+01  1.102617822961921e-22 -3.282668354946415e-16
 1.844599937173114e+01  1.040287448814730e-22 -3.282685620024242e-16
 1.844609621533043e+01  1.042121745085113e-21 -3.282702855300709e-16
 1.844619288623390e+01  1.102923250813090e-22 -3.282720058144726e-16
 1.844628941908664e+01  5.165925734323740e-22 -3.282737237083744e-16
 1.844638577106463e+01  1.102759134721769e-22 -3.282754384413207e-16
 1.844648198649207e+01  5.165895314585380e-22 -3.282771506644960e-16
 1.844657802300780e+01  1.102910261577451e-22 -3.282788598115815e-16
 1.844667392493334e+01  5.165234556324001e-22 -3.282805665337714e-16
 1.844676964990638e+01  1.102903798662687e-22 -3.282822700038142e-16
 1.844686524246005e+01  1.040246190451298e-22 -3.282839711839113e-16
 1.844696067091949e+01  1.042094197416638e-21 -3.282856695570637e-16
 1.844705593551116e+01  1.103209358348681e-22 -3.282873648079435e-16
 1.844715107088772e+01  5.165159190022901e-22 -3.282890578935294e-16
 1.844724603424799e+01  1.102730125042009e-22 -3.282907478344391e-16
 1.844734086991444e+01  5.164498785703313e-22 -3.282924355949424e-16
 1.844743553554455e+01  1.102881340372216e-22 -3.282941202432602e-16
 1.844753007546684e+01  5.165729745897078e-22 -3.282958026913894e-16
 1.844762444733263e+01  1.103190178576500e-22 -3.282974821642008e-16
 1.844771869548804e+01  5.165699948719025e-22 -3.282991594169255e-16
 1.844781277757681e+01  1.102553409089990e-22 -3.283008337267146e-16
 1.844790673814293e+01  1.040226773099908e-22 -3.283025058467948e-16
 1.844800054553874e+01  1.042061058802136e-21 -3.283041752077626e-16
 1.844809419999555e+01  1.102543920064511e-22 -3.283058419639479e-16
 1.844818773619003e+01  5.165310647263234e-22 -3.283075065501048e-16
 1.844828111133018e+01  1.102852821097583e-22 -3.283091682999828e-16
 1.844837436976017e+01  5.166857177506869e-22 -3.283108279687718e-16
 1.844846746915279e+01  1.102767735207850e-22 -3.283124847290026e-16
 1.844856045384909e+01  5.166197371747726e-22 -3.283141394924455e-16
 1.844865328152920e+01  1.103155468246838e-22 -3.283157914837599e-16
 1.844874599674044e+01  1.040200074238166e-22 -3.283174414560621e-16
 1.844883856784747e+01  1.041908272918261e-21 -3.283190888920570e-16
 1.844893099510698e+01  1.102515704507197e-22 -3.283207337370585e-16
 1.844902331320046e+01  5.165493848052991e-22 -3.283223766344656e-16
 1.844911547935749e+01  1.102824679193138e-22 -3.283240168656856e-16
 1.844920753793704e+01  5.165464744045102e-22 -3.283256551334937e-16
 1.844929944662793e+01  1.102818474184547e-22 -3.283272907668880e-16
 1.844939124978848e+01  5.165435720915585e-22 -3.283289245208206e-16
 1.844948290511535e+01  1.102812286306079e-22 -3.283305556198500e-16
 1.844957445697231e+01  5.165406777369960e-22 -3.283321849232309e-16
 1.844966586305231e+01  1.102490925262833e-22 -3.283338116033856e-16
 1.844975716792853e+01  1.040167905610419e-22 -3.283354364652613e-16
 1.844984833998500e+01  1.042002171177824e-21 -3.283370590436115e-16
 1.844993937950300e+01  1.102796889729233e-22 -3.283386791269366e-16
 1.845003032118345e+01  5.165019571635170e-22 -3.283402975671094e-16
 1.845012112228264e+01  1.102633166799079e-22 -3.283419134887864e-16
 1.845021182717246e+01  5.165306082860546e-22 -3.283435276467074e-16
 1.845030239357082e+01  1.102705849400152e-22 -3.283451394218377e-16
 1.845039286585739e+01  5.165277481263518e-22 -3.283467495166351e-16
 1.845048320175369e+01  1.103093728856250e-22 -3.283483571033008e-16
 1.845057344584290e+01  1.040128223761062e-22 -3.283499630909743e-16
 1.845066356653506e+01  1.042102261828352e-21 -3.283515669620055e-16
 1.845075356412385e+01  1.102454247820460e-22 -3.283531685047677e-16
 1.845084347333703e+01  5.165206290935263e-22 -3.283547686229832e-16
 1.845093325144524e+01  1.102605777532149e-22 -3.283563662846749e-16
 1.845102294284640e+01  5.165177936765259e-22 -3.283579624008000e-16
 1.845111250527693e+01  1.102757320104369e-22 -3.283595563000116e-16
 1.845120198313617e+01  5.165149650266680e-22 -3.283611486323115e-16
 1.845129133416826e+01  1.102751288081531e-22 -3.283627387784740e-16
 1.845138060277526e+01  5.164491083116577e-22 -3.283643274406410e-16
 1.845146974670636e+01  1.103060442700088e-22 -3.283659138429963e-16
 1.845155881056711e+01  1.040110587343199e-22 -3.283674988421744e-16
 1.845164776279736e+01  1.041944822280479e-21 -3.283690819202783e-16
 1.845173660372408e+01  1.102736268701870e-22 -3.283706628653472e-16
 1.845182536808895e+01  5.164735991675779e-22 -3.283722425808802e-16
 1.845191401320046e+01  1.102730284455172e-22 -3.283738200867867e-16
 1.845200258347478e+01  5.166283832047297e-22 -3.283753963459273e-16
 1.845209103668684e+01  1.102645521540467e-22 -3.283769704257256e-16
 1.845217941725596e+01  5.164995223451082e-22 -3.283785432368092e-16
 1.845226768295336e+01  1.102403189706591e-22 -3.283801140553847e-16
 1.845235587841688e+01  1.040085228175021e-22 -3.283816836333194e-16
 1.845244397210499e+01  1.041919445624165e-21 -3.283832513482069e-16
 1.845253196436236e+01  1.102709439954294e-22 -3.283848173010017e-16
 1.845261988996031e+01  5.164610469387653e-22 -3.283863820295624e-16
 1.845270770622852e+01  1.102545931484747e-22 -3.283879448145638e-16
 1.845279545761527e+01  5.164897891871941e-22 -3.283895064619176e-16
 1.845288310191136e+01  1.102697595355970e-22 -3.283910661954986e-16
 1.845297068356041e+01  5.164239890355658e-22 -3.283926247690670e-16
 1.845305816036777e+01  1.102691690229787e-22 -3.283941815629101e-16
 1.845314557678374e+01  5.164842573906494e-22 -3.283957372785222e-16
 1.845323289061408e+01  1.102528218331156e-22 -3.283972910874740e-16
 1.845332014651510e+01  1.040054548702341e-22 -3.283988439500805e-16
 1.845340731298788e+01  1.042014803024004e-21 -3.284003952435627e-16
 1.845349439040703e+01  1.102676975058519e-22 -3.284019448076605e-16
 1.845358141357126e+01  5.164773712038593e-22 -3.284034934407895e-16
 1.845366833984339e+01  1.102355955813475e-22 -3.284050404233647e-16
 1.845375521370311e+01  5.164746251528342e-22 -3.284065864565291e-16
 1.845384199297144e+01  1.102665249397008e-22 -3.284081308161094e-16
 1.845392872212789e+01  5.164718836975036e-22 -3.284096742032337e-16
 1.845401535900633e+01  1.102344253123061e-22 -3.284112160501524e-16
 1.845410194828853e+01  1.040015962765657e-22 -3.284127570037664e-16
 1.845418845850052e+01  1.041737785150522e-21 -3.284142966498100e-16
 1.845427489004940e+01  1.102808219136723e-22 -3.284158347233340e-16
 1.845436127775613e+01  5.164020202574840e-22 -3.284173720746475e-16
 1.845444757901432e+01  1.102644820927116e-22 -3.284189079317357e-16
 1.845453383832044e+01  5.164623226842856e-22 -3.284204430476804e-16
 1.845462001354263e+01  1.102639004064103e-22 -3.284219765935342e-16
 1.845470614917047e+01  5.163965718084347e-22 -3.284235094789701e-16
 1.845479220307307e+01  1.102633195439977e-22 -3.284250409272223e-16
 1.845487821976142e+01  5.163938533330715e-22 -3.284265716911952e-16
 1.845496415710110e+01  1.102627394731842e-22 -3.284281010463510e-16
 1.845505005981621e+01  1.040314645308314e-22 -3.284296297956145e-16
 1.845513589645826e+01  1.041770617526642e-21 -3.284311572636203e-16
 1.845522166746991e+01  1.102618707811215e-22 -3.284326837590223e-16
 1.845530740770654e+01  5.164500998325090e-22 -3.284342096099234e-16
 1.845539307460521e+01  1.102928060287088e-22 -3.284357341483019e-16
 1.845547871268861e+01  5.164473930783334e-22 -3.284372582312432e-16
 1.845556427986054e+01  1.102449583366612e-22 -3.284387809773375e-16
 1.845564982065115e+01  5.165077158895730e-22 -3.284403032435790e-16
 1.845573529296372e+01  1.101655986348737e-22 -3.284418243572868e-16
 1.845582074153955e+01  1.039974985206858e-22 -3.284433450167836e-16
 1.845590613497743e+01  1.041809093749589e-21 -3.284448646506285e-16
 1.845599147373835e+01  1.102592738606114e-22 -3.284463833585708e-16
 1.845607679271241e+01  5.164064300205617e-22 -3.284479017291954e-16
 1.845616204936136e+01  1.102429420516842e-22 -3.284494189899364e-16
 1.845624728824592e+01  5.164352488213300e-22 -3.284509358930694e-16
 1.845633246729164e+01  1.102581235107818e-22 -3.284524517657333e-16
 1.845641763106677e+01  5.163695322164842e-22 -3.284539673601112e-16
 1.845650273750074e+01  1.102890615065998e-22 -3.284554819511396e-16
 1.845658783117060e+01  5.164928924803604e-22 -3.284569962387212e-16
 1.845667287001592e+01  1.102569751435841e-22 -3.284585096542313e-16
 1.845675789881543e+01  1.039945165509495e-22 -3.284600228433540e-16
 1.845684288620143e+01  1.041779234257940e-21 -3.284615351821873e-16
 1.845692783268022e+01  1.102561150061674e-22 -3.284630469787159e-16
 1.845701277317866e+01  5.162971054736650e-22 -3.284645586123840e-16
 1.845709766519987e+01  1.102240302222788e-22 -3.284660693624569e-16
 1.845718255333595e+01  5.164204703628892e-22 -3.284675800329816e-16
 1.845726739556912e+01  1.102392136171347e-22 -3.284690899505958e-16
 1.845735223648589e+01  5.164808122806067e-22 -3.284705997628612e-16
 1.845743703407569e+01  1.101598626274217e-22 -3.284721088485311e-16
 1.845752183314714e+01  1.039907147235725e-22 -3.284736179572680e-16
 1.845760660236319e+01  1.041754889798373e-21 -3.284751264649046e-16
 1.845769134227092e+01  1.102377835761939e-22 -3.284766345746542e-16
 1.845777608782512e+01  5.163795803343604e-22 -3.284781427178010e-16
 1.845786079656843e+01  1.102529675252145e-22 -3.284796502254457e-16
 1.845794551313226e+01  5.164084142840453e-22 -3.284811578489914e-16
 1.845803019552345e+01  1.102839069636362e-22 -3.284826648627112e-16
 1.845811488838158e+01  5.164057378293717e-22 -3.284841720700843e-16
 1.845819954972471e+01  1.102833354497576e-22 -3.284856787452832e-16
 1.845828422419419e+01  5.164660833708983e-22 -3.284871855874068e-16
 1.845836886982211e+01  1.102512534372703e-22 -3.284886919748456e-16
 1.845845353146517e+01  1.039576104430118e-22 -3.284901986566903e-16
 1.845853817784048e+01  1.041788214814435e-21 -3.284917050082822e-16
 1.845862280953877e+01  1.102503967114355e-22 -3.284932111280351e-16
 1.845870746156565e+01  5.163963739375294e-22 -3.284947176553478e-16
 1.845879209152350e+01  1.102183153923755e-22 -3.284962237120981e-16
 1.845887674408955e+01  5.163936988930807e-22 -3.284977302578296e-16
 1.845896137733029e+01  1.102413769535477e-22 -3.284992363575967e-16
 1.845904603594265e+01  5.163910236885410e-22 -3.285007429185558e-16
 1.845913067800037e+01  1.102171734026577e-22 -3.285022492665617e-16
 1.845921534841114e+01  1.039866967559533e-22 -3.285037560979474e-16
 1.845930001595114e+01  1.041763927634403e-21 -3.285052627353317e-16
 1.845938468126679e+01  1.102478263209471e-22 -3.285067695374174e-16
 1.845946937942028e+01  5.163528242750717e-22 -3.285082768299461e-16
 1.845955406807529e+01  1.102315001052245e-22 -3.285097839950955e-16
 1.845963879197299e+01  5.163816566705372e-22 -3.285112917308348e-16
 1.845972350925186e+01  1.102466831714913e-22 -3.285127994145804e-16
 1.845980826467337e+01  5.163159601068911e-22 -3.285143077440807e-16
 1.845989301639121e+01  1.102461112786597e-22 -3.285158159922707e-16
 1.845997780919163e+01  5.163762992881962e-22 -3.285173249609746e-16
 1.846006260125772e+01  1.102297846319482e-22 -3.285188339750145e-16
 1.846014743759535e+01  1.039837306395183e-22 -3.285203437296494e-16
 1.846023228709570e+01  1.041671188786540e-21 -3.285218537029044e-16
 1.846031715052768e+01  1.102446802990291e-22 -3.285233639392120e-16
 1.846040206307696e+01  5.163695948686209e-22 -3.285248751281974e-16
 1.846048698255519e+01  1.102756158692753e-22 -3.285263863375974e-16
 1.846057195384631e+01  5.163669100890287e-22 -3.285278984725372e-16
 1.846065693525938e+01  1.102277796903231e-22 -3.285294108566133e-16
 1.846074197172465e+01  5.163642232879645e-22 -3.285309241336202e-16
 1.846082702159516e+01  1.102114517905095e-22 -3.285324377310630e-16
 1.846091213005937e+01  1.039799263181293e-22 -3.285339523422929e-16
 1.846099726620937e+01  1.041646801825194e-21 -3.285354674433538e-16
 1.846108243104125e+01  1.102578522863479e-22 -3.285369830242156e-16
 1.846116765997172e+01  5.163259881491646e-22 -3.285384998242870e-16
 1.846125291108490e+01  1.102257691776495e-22 -3.285400169086260e-16
 1.846133822956506e+01  5.163548004984890e-22 -3.285415352835956e-16
 1.846142357405022e+01  1.102409472761468e-22 -3.285430540608653e-16
 1.846150898984332e+01  5.163186251019037e-22 -3.285445741934180e-16
 1.846159443573662e+01  1.102718782872518e-22 -3.285460947913862e-16
 1.846167995721055e+01  5.163494000348267e-22 -3.285476167016131e-16
 1.846176551326292e+01  1.102397935661032e-22 -3.285491392930160e-16
 1.846185114985345e+01  1.039783088518860e-22 -3.285506633032651e-16
 1.846193683702911e+01  1.041616848318364e-21 -3.285521882510152e-16
 1.846202257697286e+01  1.102704333084716e-22 -3.285537140621207e-16
 1.846210840664854e+01  5.163426290003547e-22 -3.285552414603506e-16
 1.846219428618598e+01  1.102068399400322e-22 -3.285567698032644e-16
 1.846228026352026e+01  5.163399130246296e-22 -3.285582998607883e-16
 1.846236630108629e+01  1.102220130913168e-22 -3.285598310194761e-16
 1.846245244938791e+01  5.162741784900873e-22 -3.285613641799004e-16
 1.846253867431788e+01  1.101426650949678e-22 -3.285628986416801e-16
 1.846262501989427e+01  1.039758460532504e-22 -3.285644352662555e-16
 1.846271148734214e+01  1.041529139053762e-21 -3.285659740412442e-16
 1.846279808180131e+01  1.102520627631284e-22 -3.285675150713915e-16
 1.846288484603610e+01  5.162673457654416e-22 -3.285690591785312e-16
 1.846297171892574e+01  1.102357237173792e-22 -3.285706051514734e-16
 1.846305863998106e+01  5.163276116314767e-22 -3.285721519813802e-16
 1.846314520831874e+01  1.102036323320900e-22 -3.285736926409549e-16
 1.846323041124475e+01  5.162933910150624e-22 -3.285752089375107e-16
 1.846331146049837e+01  1.102345773740777e-22 -3.285766512928436e-16
 1.846338314296305e+01  5.163224831379937e-22 -3.285779269126872e-16
 1.846344387093082e+01  1.102183777382719e-22 -3.285790076902135e-16
-1.861296503975164e+01  5.052863229985496e-22  3.312399151948018e-16
-1.861306960387896e+01  1.049792561027098e-21  3.312417761330235e-16
-1.861285065757971e+01  1.426357284430889e-22  3.312378796476024e-16
-1.861274707693312e+01  5.052897234947147e-22  3.312360363335693e-16
-1.861265281100607e+01  1.425738766971290e-22  3.312343587684368e-16
-1.861256261211744e+01  5.052926013639998e-22  3.312327535182392e-16
-1.861247380557650e+01  1.425629040479061e-22  3.312311731129225e-16
-1.861238529952323e+01  5.051699204737362e-22  3.312295980308285e-16
-1.861229678130598e+01  1.426068058289881e-22  3.312280227977414e-16
-1.861220810116552e+01  5.053608560374381e-22  3.312264446352480e-16
-1.861211928305772e+01  1.425762253005742e-22  3.312248639733291e-16
-1.861203028906658e+01  1.080068375416187e-22  3.312232802130368e-16
-1.861194115533455e+01  1.180735047393985e-21  3.312216939193678e-16
-1.861185191107511e+01  1.425774022657702e-22  3.312201057801251e-16
-1.861176252231118e+01  5.054305331171705e-22  3.312185149483678e-16
-1.861167303872181e+01  1.425781896529847e-22  3.312169225257608e-16
-1.861158342036891e+01  5.053078776685453e-22  3.312153276224586e-16
-1.861149371406946e+01  1.425730985295252e-22  3.312137312136334e-16
-1.861140387734514e+01  5.054361296267056e-22  3.312121324873302e-16
-1.861131395518110e+01  1.425797703090582e-22  3.312105322297611e-16
-1.861122390393086e+01  1.080722523606418e-22  3.312089296409005e-16
-1.861113375682319e+01  1.180764480309481e-21  3.312073254194763e-16
-1.861104351222699e+01  1.425809607661768e-22  3.312057193743990e-16
-1.861095313809527e+01  5.053804367971535e-22  3.312041110024383e-16
-1.861086267730071e+01  1.425817567746812e-22  3.312025011633750e-16
-1.861077208493437e+01  5.053205349465035e-22  3.312008890181233e-16
-1.861068140422688e+01  1.426139181486131e-22  3.311992752151025e-16
-1.861059059009627e+01  5.053233663273380e-22  3.311976590208365e-16
-1.861049968562308e+01  1.425747786094826e-22  3.311960412930106e-16
-1.861040864561172e+01  5.053889321170577e-22  3.311944211954346e-16
-1.861031751304336e+01  1.425841564831874e-22  3.311927993271763e-16
-1.861022624275034e+01  1.081383087941632e-22  3.311911750594601e-16
-1.861013486679909e+01  1.180675437077410e-21  3.311895488952412e-16
-1.861004338263186e+01  1.425696811097925e-22  3.311879208606114e-16
-1.860995175744966e+01  5.054587888069513e-22  3.311862903041694e-16
-1.860986003349988e+01  1.425783291334190e-22  3.311846579363788e-16
-1.860976816534755e+01  5.053361962523749e-22  3.311830230792241e-16
-1.860967619576125e+01  1.425242505647349e-22  3.311813863339937e-16
-1.860958407925672e+01  5.053390679778824e-22  3.311797470231578e-16
-1.860949185857088e+01  1.425877907870508e-22  3.311781058522038e-16
-1.860939948830466e+01  1.081097040892169e-22  3.311764619869193e-16
-1.860930700032157e+01  1.180705611421176e-21  3.311748160881725e-16
-1.860921439188307e+01  1.425890121007084e-22  3.311731679761676e-16
-1.860912163001923e+01  5.053462820778352e-22  3.311715171569805e-16
-1.860902875683390e+01  1.425898291975168e-22  3.311698643945368e-16
-1.860893572674529e+01  5.053491820997553e-22  3.311682087525817e-16
-1.860884258240507e+01  1.425828073590068e-22  3.311665511971820e-16
-1.860874927821290e+01  5.052266293676092e-22  3.311648906883894e-16
-1.860865585679634e+01  1.425914705528932e-22  3.311632281925321e-16
-1.860856227254618e+01  5.053550078012012e-22  3.311615627735967e-16
-1.860846856807494e+01  1.425922949160358e-22  3.311598951384174e-16
-1.860837469788232e+01  1.081444897696271e-22  3.311582246095116e-16
-1.860828069373434e+01  1.180868480679832e-21  3.311565516930024e-16
-1.860818655279668e+01  1.425935362158918e-22  3.311548763658533e-16
-1.860809224202256e+01  5.054878037511706e-22  3.311531979790500e-16
-1.860799780343538e+01  1.425943669974030e-22  3.311515173493501e-16
-1.860790319138612e+01  5.053652889971276e-22  3.311498335930115e-16
-1.860780844846339e+01  1.425873588844760e-22  3.311481475210283e-16
-1.860771352900090e+01  5.053682475604577e-22  3.311464583536827e-16
-1.860761847558101e+01  1.425960365981789e-22  3.311447667462453e-16
-1.860752324265424e+01  1.081159655618811e-22  3.311430719697187e-16
-1.860742786196089e+01  1.181150499399275e-21  3.311413746344024e-16
-1.860733233063689e+01  1.426129793869855e-22  3.311396744578764e-16
-1.860723661559138e+01  5.054384204659937e-22  3.311379710511831e-16
-1.860714075883300e+01  1.425981392299251e-22  3.311362651793610e-16
-1.860704471468095e+01  5.055041481884059e-22  3.311345560108390e-16
-1.860694852569766e+01  1.425989853209368e-22  3.311328442011381e-16
-1.860685214619692e+01  5.053816841671134e-22  3.311311290225920e-16
-1.860675561873925e+01  1.425913186570913e-22  3.311294111826915e-16
-1.860665889763336e+01  5.053846985838839e-22  3.311276899018667e-16
-1.860656202544607e+01  1.426006864416066e-22  3.311259659394939e-16
-1.860646495659318e+01  1.081508646915383e-22  3.311242385148891e-16
-1.860636772279940e+01  1.181063678542958e-21  3.311225081346958e-16
-1.860627032118033e+01  1.425980493564584e-22  3.311207747244218e-16
-1.860617271862061e+01  5.055177534747664e-22  3.311190377394746e-16
-1.860607495712243e+01  1.425871462207963e-22  3.311172979969741e-16
-1.860597699097876e+01  5.053953352816586e-22  3.311155546135688e-16
-1.860587886274641e+01  1.426036932314991e-22  3.311138082449141e-16
-1.860578052671646e+01  5.055238725279723e-22  3.311120582673411e-16
-1.860568202544467e+01  1.425888754165265e-22  3.311103052845940e-16
-1.860558331334461e+01  1.082165443517735e-22  3.311085486197955e-16
-1.860548442212761e+01  1.180844929076792e-21  3.311067886239572e-16
-1.860538534890490e+01  1.425431281525412e-22  3.311050255861799e-16
-1.860528606055074e+01  5.054688498613882e-22  3.311032585983451e-16
-1.860518659906240e+01  1.426067400199580e-22  3.311014885815648e-16
-1.860508691872554e+01  5.055346941715650e-22  3.310997146524683e-16
-1.860498706209126e+01  1.425997759720346e-22  3.310979376226470e-16
-1.860488698344716e+01  5.052868611108381e-22  3.310961566086898e-16
-1.860478672534079e+01  1.425928153423432e-22  3.310943723703001e-16
-1.860468624206531e+01  5.054154684385776e-22  3.310925841798045e-16
-1.860458557616365e+01  1.426250698638806e-22  3.310907926930915e-16
-1.860448468204849e+01  1.081574747079861e-22  3.310889971293064e-16
-1.860438359142296e+01  1.180885047230764e-21  3.310871981512302e-16
-1.860428230140102e+01  1.426107199242228e-22  3.310853955285335e-16
-1.860418077885152e+01  5.054233524814135e-22  3.310835888205113e-16
-1.860407906576835e+01  1.426116143709089e-22  3.310817787406386e-16
-1.860397711643782e+01  5.055520088329659e-22  3.310799644054186e-16
-1.860387497340568e+01  1.426125125829628e-22  3.310781466785227e-16
-1.860377259095676e+01  5.054297191766534e-22  3.310763246245079e-16
-1.860367001165269e+01  1.425506741589454e-22  3.310744991068976e-16
-1.860356718988583e+01  1.081291667818647e-22  3.310726692930106e-16
-1.860346415737610e+01  1.180793072008319e-21  3.310708357935657e-16
-1.860336091122793e+01  1.426147749526297e-22  3.310689983263682e-16
-1.860325741831650e+01  5.055004957169148e-22  3.310671565025205e-16
-1.860315372063906e+01  1.426000014178103e-22  3.310653110874695e-16
-1.860304977247435e+01  5.055664764524203e-22  3.310634612496403e-16
-1.860294561638071e+01  1.426166026273817e-22  3.310616076448792e-16
-1.860284120664454e+01  5.053815040789010e-22  3.310597495453942e-16
-1.860273658582206e+01  1.426175225438815e-22  3.310578877109516e-16
-1.860263170819681e+01  5.054475136740440e-22  3.310560213098842e-16
-1.860252661632907e+01  1.426184465872748e-22  3.310541510499884e-16
-1.860242126462651e+01  1.081329904293770e-22  3.310522761502493e-16
-1.860231568480595e+01  1.181085891922035e-21  3.310503971695341e-16
-1.860220987397965e+01  1.426119976006953e-22  3.310485142410813e-16
-1.860210379902929e+01  5.055812343336827e-22  3.310466265083588e-16
-1.860199750195246e+01  1.426129321522441e-22  3.310447347888349e-16
-1.860189093704373e+01  5.054590672803881e-22  3.310428384064816e-16
-1.860178414686061e+01  1.426060280108156e-22  3.310409379133472e-16
-1.860167708569753e+01  5.055878912496677e-22  3.310390325814393e-16
-1.860156979611910e+01  1.426069712068486e-22  3.310371232744110e-16
-1.860146223253959e+01  1.081675627375709e-22  3.310352090552486e-16
-1.860135442668414e+01  1.180995434419022e-21  3.310332904827832e-16
-1.860124637567031e+01  1.426868257633409e-22  3.310313676382422e-16
-1.860113804638516e+01  5.055335550294600e-22  3.310294398207871e-16
-1.860102948084376e+01  1.426250350950039e-22  3.310275077438896e-16
-1.860092063332961e+01  5.054742004875361e-22  3.310255706276481e-16
-1.860081154642945e+01  1.426181508965790e-22  3.310236293355455e-16
-1.860070217443037e+01  5.054776075955862e-22  3.310216829317862e-16
-1.860059255991471e+01  1.426269578203039e-22  3.310197321760238e-16
-1.860048265717793e+01  5.054810311896094e-22  3.310177763401344e-16
-1.860037250880247e+01  1.426279261741981e-22  3.310158161318415e-16
-1.860026206920665e+01  1.081715682905492e-22  3.310138507178527e-16
-1.860015137013035e+01  1.181039273009328e-21  3.310118807608004e-16
-1.860004040870470e+01  1.426293875981955e-22  3.310099060300790e-16
-1.859992915182883e+01  5.054896635749683e-22  3.310079260843577e-16
-1.859981764152630e+01  1.425989939314895e-22  3.310059415851593e-16
-1.859970583209676e+01  5.054931463982825e-22  3.310039518042385e-16
-1.859959376614270e+01  1.426313530511220e-22  3.310019574491684e-16
-1.859948139796070e+01  5.054966465798477e-22  3.309999577397650e-16
-1.859936877014831e+01  1.426323431382797e-22  3.309979533836673e-16
-1.859925583713249e+01  1.081749264947372e-22  3.309959435993360e-16
-1.859914263067417e+01  1.180950531250422e-21  3.309939290492432e-16
-1.859902914791053e+01  1.426338376223686e-22  3.309919093988003e-16
-1.859891535574668e+01  5.056309735686345e-22  3.309898843623823e-16
-1.859880129623113e+01  1.426191527892621e-22  3.309878544974319e-16
-1.859868692367090e+01  5.056345369075772e-22  3.309858190755227e-16
-1.859857228068053e+01  1.426358480130878e-22  3.309837789080739e-16
-1.859845732156768e+01  5.055126173765417e-22  3.309817331107852e-16
-1.859834208895107e+01  1.426368609352299e-22  3.309796823911511e-16
-1.859822653714036e+01  5.056417184631912e-22  3.309776259687225e-16
-1.859811070876466e+01  1.427006303008511e-22  3.309755647067534e-16
-1.859799455825161e+01  1.080536328724099e-22  3.309734976677176e-16
-1.859787811738948e+01  1.180996601551351e-21  3.309714254619246e-16
-1.859776138333176e+01  1.426315722225457e-22  3.309693480143336e-16
-1.859764432299548e+01  5.056508002746839e-22  3.309672648313079e-16
-1.859752697845614e+01  1.426326036042271e-22  3.309651765220475e-16
-1.859740930403078e+01  5.056544662349063e-22  3.309630824098432e-16
-1.859729134235791e+01  1.426257962958841e-22  3.309609830981605e-16
-1.859717304776393e+01  5.055326454005708e-22  3.309588779101712e-16
-1.859705446288682e+01  1.426425268112169e-22  3.309567675532647e-16
-1.859693554217523e+01  1.081551374664685e-22  3.309546511934874e-16
-1.859681631743533e+01  1.181160792568347e-21  3.309525293890682e-16
-1.859669678583337e+01  1.426441006440741e-22  3.309504022726210e-16
-1.859657691430595e+01  5.055419417567586e-22  3.309482690385180e-16
-1.859645674494306e+01  1.426451568513616e-22  3.309461304517351e-16
-1.859633623208162e+01  5.055456950137696e-22  3.309439857833006e-16
-1.859621541838077e+01  1.426383743474932e-22  3.309418357404453e-16
-1.859609425817237e+01  5.055494683882630e-22  3.309396795422719e-16
-1.859597279412379e+01  1.426315974291916e-22  3.309375179478967e-16
-1.859585098057303e+01  5.055532620677867e-22  3.309353501243813e-16
-1.859572886019548e+01  1.426483595846778e-22  3.309331768307781e-16
-1.859560638745087e+01  1.081557273752944e-22  3.309309972848323e-16
-1.859548359416712e+01  1.181209349992066e-21  3.309288121485249e-16
-1.859536047753877e+01  1.426813587365541e-22  3.309266210346250e-16
-1.859523700451991e+01  5.055628363196244e-22  3.309244236567461e-16
-1.859511321722993e+01  1.426196898867450e-22  3.309222207796607e-16
-1.859498907002011e+01  5.056922170536119e-22  3.309200113623860e-16
-1.859486460557496e+01  1.426521622699244e-22  3.309177964237141e-16
-1.859473977826028e+01  5.056961053647694e-22  3.309155749744423e-16
-1.859461463075555e+01  1.426532621323575e-22  3.309133478256134e-16
-1.859448911755462e+01  1.081594545942995e-22  3.309111141425536e-16
-1.859436327049589e+01  1.181375684265930e-21  3.309088745871943e-16
-1.859423708680121e+01  1.426706129503155e-22  3.309066289798146e-16
-1.859411053343676e+01  5.056431608862267e-22  3.309043768260020e-16
-1.859398365255208e+01  1.426481934336494e-22  3.309021187863892e-16
-1.859385639851135e+01  5.055843646954169e-22  3.308998541314688e-16
-1.859372881402842e+01  1.426571595697067e-22  3.308975836720000e-16
-1.859360085347107e+01  5.056511093781084e-22  3.308953064186314e-16
-1.859347255956583e+01  1.426582870264658e-22  3.308930232859229e-16
-1.859334388668198e+01  5.055923563023251e-22  3.308907333883937e-16
-1.859321487754220e+01  1.426594207562299e-22  3.308884375367487e-16
-1.859308548665868e+01  1.081641369532718e-22  3.308861348959771e-16
-1.859295574589825e+01  1.181426969000777e-21  3.308838260238792e-16
-1.859282565250886e+01  1.426532880421789e-22  3.308815107923905e-16
-1.859269517348337e+01  5.056024715392285e-22  3.308791887586745e-16
-1.859256435099387e+01  1.426465923684026e-22  3.308768606351862e-16
-1.859243313943438e+01  5.055908667719301e-22  3.308745255360933e-16
-1.859230158154965e+01  1.426791295578074e-22  3.308721843239007e-16
-1.859216963172770e+01  5.057361914999842e-22  3.308698361647672e-16
-1.859203733272503e+01  1.426489107818335e-22  3.308674817132612e-16
-1.859190463905983e+01  1.081994576084116e-22  3.308651202900628e-16
-1.859177158263402e+01  1.181344586800162e-21  3.308627523487522e-16
-1.859163816071846e+01  1.426663576999733e-22  3.308603779688430e-16
-1.859150434032119e+01  5.056838034673911e-22  3.308579964994153e-16
-1.859137016364235e+01  1.426047724858752e-22  3.308556086527186e-16
-1.859123558509748e+01  5.057507589648434e-22  3.308532136464918e-16
-1.859110064745074e+01  1.426608768829079e-22  3.308508122911700e-16
-1.859096530512002e+01  5.056294441002970e-22  3.308484037005181e-16
-1.859082960088304e+01  1.426542236052503e-22  3.308459886848523e-16
-1.859069348915009e+01  5.056336822099582e-22  3.308435664619081e-16
-1.859055701271204e+01  1.426711141591987e-22  3.308411376860034e-16
-1.859042012611686e+01  1.081730278079113e-22  3.308387016254014e-16
-1.859028286128700e+01  1.181398820348356e-21  3.308362588374638e-16
-1.859014521552806e+01  1.426415424850729e-22  3.308338092454408e-16
-1.859000715587458e+01  5.056443832643593e-22  3.308313523019411e-16
-1.858986872455687e+01  1.426741421767927e-22  3.308288887709719e-16
-1.858972987601699e+01  5.056330145907195e-22  3.308264178178813e-16
-1.858959065305309e+01  1.426753654931374e-22  3.308239401489401e-16
-1.858945101010665e+01  5.056530543350845e-22  3.308214549814344e-16
-1.858931098998597e+01  1.426765958021046e-22  3.308189631774417e-16
-1.858917054725597e+01  1.082085800719196e-22  3.308164638490338e-16
-1.858902971388227e+01  1.181570007905310e-21  3.308139575012282e-16
-1.858888848717728e+01  1.426784544811879e-22  3.308114442650342e-16
-1.858874683420955e+01  5.056640332076154e-22  3.308089233847584e-16
-1.858860479722834e+01  1.426718562786662e-22  3.308063956762662e-16
-1.858846233069940e+01  5.057940086595188e-22  3.308038602525637e-16
-1.858831947744927e+01  1.426809576412677e-22  3.308013180275793e-16
-1.858817619193988e+01  5.056729299892024e-22  3.307987681143273e-16
-1.858803251700632e+01  1.426822200089105e-22  3.307962112707752e-16
-1.858788840711298e+01  5.057401877445391e-22  3.307936466618459e-16
-1.858774390510495e+01  1.427462609173970e-22  3.307910750454243e-16
-1.858759896557066e+01  1.080882803073372e-22  3.307884956890697e-16
-1.858745362050631e+01  1.181501882401360e-21  3.307859089936296e-16
-1.858730786726239e+01  1.426814845131368e-22  3.307833152456015e-16
-1.858716167291660e+01  5.056887468307707e-22  3.307807135851287e-16
-1.858701507977541e+01  1.426788491497530e-22  3.307781047236723e-16
-1.858686804231458e+01  5.056776313455134e-22  3.307754879818324e-16
-1.858672060339260e+01  1.426879911214081e-22  3.307728641693969e-16
-1.858657271750649e+01  5.056979287277209e-22  3.307702323988487e-16
-1.858642442751654e+01  1.426736005115150e-22  3.307675933760427e-16
-1.858627568804487e+01  1.081906967083610e-22  3.307649463680573e-16
-1.858612653110342e+01  1.181424673309991e-21  3.307622919835121e-16
-1.858597695406675e+01  1.426912623452297e-22  3.307596300409272e-16
-1.858582692404862e+01  5.057723305346296e-22  3.307569600957085e-16
-1.858567648336345e+01  1.426925840606901e-22  3.307542828073591e-16
-1.858552558651470e+01  5.057142532798661e-22  3.307515974440908e-16
-1.858537427639819e+01  1.426860664186050e-22  3.307489046594991e-16
-1.858522250751842e+01  5.056562019646786e-22  3.307462038256921e-16
-1.858507032277015e+01  1.426952504166028e-22  3.307434954923575e-16
-1.858491767666734e+01  5.057865070066454e-22  3.307407789275348e-16
-1.858476461210877e+01  1.427122894110802e-22  3.307380549927134e-16
-1.858461108374027e+01  1.081924028031330e-22  3.307353227466741e-16
-1.858445712360696e+01  1.181736583743026e-21  3.307325829017234e-16
-1.858430272911394e+01  1.426986268147620e-22  3.307298352240587e-16
-1.858414786739012e+01  5.058612874074152e-22  3.307270792688023e-16
-1.858399258079736e+01  1.427313803101399e-22  3.307243157470567e-16
-1.858383682385720e+01  5.057248850350999e-22  3.307215438747031e-16
-1.858368063949795e+01  1.427013631349699e-22  3.307187644090632e-16
-1.858352398224453e+01  5.057454565655313e-22  3.307159765139773e-16
-1.858336689503293e+01  1.427027431523039e-22  3.307131809467108e-16
-1.858320933239231e+01  5.057503615297789e-22  3.307103769749733e-16
-1.858305133726513e+01  1.426962835874114e-22  3.307075652000666e-16
-1.858289286430642e+01  1.081667426806806e-22  3.307047449923314e-16
-1.858273394560332e+01  1.181548228408682e-21  3.307019167518923e-16
-1.858257457858727e+01  1.426983804727303e-22  3.306990807124010e-16
-1.858241473040974e+01  5.057627481081677e-22  3.306962360128230e-16
-1.858225444346270e+01  1.427076362178579e-22  3.306933835199964e-16
-1.858209367229379e+01  5.057677528156517e-22  3.306905223973763e-16
-1.858193245985919e+01  1.426776611537419e-22  3.306876534540990e-16
-1.858177076071463e+01  5.058355692158390e-22  3.306847758015276e-16
-1.858160861781817e+01  1.427104767829737e-22  3.306818903007774e-16
-1.858144598584839e+01  1.082029581076223e-22  3.306789960619248e-16
-1.858128289691986e+01  1.181726638443647e-21  3.306760936408065e-16
-1.858111934847901e+01  1.427047807123846e-22  3.306731831669511e-16
-1.858095530769993e+01  5.059110663243745e-22  3.306702638309394e-16
-1.858079081699893e+01  1.427062255895650e-22  3.306673365514448e-16
-1.858062583093934e+01  5.057906332115449e-22  3.306644004396292e-16
-1.858046039250801e+01  1.427312232966959e-22  3.306614562524442e-16
-1.858029445626789e+01  5.059213698844017e-22  3.306585032569520e-16
-1.858012806521081e+01  1.427012920708994e-22  3.306555421061214e-16
-1.857996117390715e+01  5.058009934404226e-22  3.306525720669036e-16
-1.857979382534876e+01  1.427184586001237e-22  3.306495938962467e-16
-1.857962597423813e+01  1.081776337635363e-22  3.306466068077436e-16
-1.857945765270473e+01  1.181793111961021e-21  3.306436113571675e-16
-1.857928885823408e+01  1.427206794750451e-22  3.306406074137242e-16
-1.857911955801267e+01  5.058141117141247e-22  3.306375945315642e-16
-1.857894979449078e+01  1.427064736041067e-22  3.306345733692519e-16
-1.857877952224652e+01  5.057566231358447e-22  3.306315431935387e-16
-1.857860878429289e+01  1.427236704312937e-22  3.306285046572784e-16
-1.857843753521751e+01  5.058247421867691e-22  3.306254571310518e-16
-1.857826581803872e+01  1.427094813647769e-22  3.306224011637192e-16
-1.857809358746283e+01  1.082141370429878e-22  3.306193361246166e-16
-1.857792087565731e+01  1.181974657809285e-21  3.306162625692052e-16
-1.857774768010824e+01  1.427274574764821e-22  3.306131803146686e-16
-1.857757396802344e+01  5.058382020497638e-22  3.306100889148191e-16
-1.857739978187971e+01  1.427289874707056e-22  3.306069890280559e-16
-1.857722507626460e+01  5.058436399086479e-22  3.306038799208713e-16
-1.857704989421304e+01  1.427305261993051e-22  3.306007623499675e-16
-1.857687419032362e+01  5.058491087977958e-22  3.305976354777220e-16
-1.857669800763611e+01  1.427320737040802e-22  3.305945001127958e-16
-1.857652130074993e+01  5.058546088618765e-22  3.305913554695045e-16
-1.857634411271030e+01  1.427257808576656e-22  3.305882021485417e-16
-1.857616639823615e+01  1.081891661549192e-22  3.305850395189206e-16
-1.857598820048706e+01  1.181919456674873e-21  3.305818682841641e-16
-1.857580948406760e+01  1.427281318331786e-22  3.305786878165370e-16
-1.857563024910468e+01  5.059940858230889e-22  3.305754981141909e-16
-1.857545052712263e+01  1.427061621384411e-22  3.305722997392675e-16
-1.857527028370079e+01  5.058741065267806e-22  3.305690920540577e-16
-1.857508952898872e+01  1.427705450657767e-22  3.305658753185379e-16
-1.857490825050226e+01  5.058797488529379e-22  3.305626492953863e-16
-1.857472648033385e+01  1.427407436865766e-22  3.305594144370195e-16
-1.857454418418702e+01  1.082573702061719e-22  3.305561702603619e-16
-1.857436136135734e+01  1.181978696046236e-21  3.305529168240017e-16
-1.857417804227615e+01  1.427353057208647e-22  3.305496543373570e-16
-1.857399418320684e+01  5.058939944406468e-22  3.305463823094573e-16
-1.857380982665904e+01  1.427369248194505e-22  3.305431015025817e-16
-1.857362492724612e+01  5.058997491317624e-22  3.305398109746338e-16
-1.857343952804792e+01  1.427464029313205e-22  3.305365115860871e-16
-1.857325358367474e+01  5.060311349463613e-22  3.305332024988140e-16
-1.857306713721067e+01  1.427480404457927e-22  3.305298844692943e-16
-1.857288014326940e+01  5.059113560859396e-22  3.305265566593254e-16
-1.857269264493117e+01  1.427496871841725e-22  3.305232199294304e-16
-1.857250459694165e+01  1.082327718534858e-22  3.305198733880346e-16
-1.857231604248783e+01  1.182178772377730e-21  3.305165178426121e-16
-1.857212694619155e+01  1.427521746741733e-22  3.305131526649368e-16
-1.857193730820747e+01  5.059260491919389e-22  3.305097778528204e-16
-1.857174716009245e+01  1.427459943678370e-22  3.305063939162562e-16
-1.857155646744448e+01  5.059319840921408e-22  3.305030002690226e-16
-1.857136524042566e+01  1.427398232409862e-22  3.304995971709944e-16
-1.857117346658359e+01  5.060007559397160e-22  3.304961843843744e-16
-1.857098117803347e+01  1.427415117969110e-22  3.304927623095209e-16
-1.857078834049974e+01  1.082384936225979e-22  3.304893305668327e-16
-1.857059495328495e+01  1.182115835092630e-21  3.304858889548032e-16
-1.857040104685558e+01  1.427283611382759e-22  3.304824382025596e-16
-1.857020657748269e+01  5.060786302817869e-22  3.304789774027500e-16
-1.857001158770044e+01  1.427300731876611e-22  3.304755073176650e-16
-1.856981603213102e+01  5.059434041972057e-22  3.304720272126769e-16
-1.856961995387960e+01  1.427317947782842e-22  3.304685377403025e-16
-1.856942330755718e+01  5.059652254283510e-22  3.304650381659850e-16
-1.856922613627773e+01  1.427649295073057e-22  3.304615292461693e-16
-1.856902839465207e+01  5.060341866961141e-22  3.304580102462619e-16
-1.856883012579176e+01  1.427588196978443e-22  3.304544817667702e-16
-1.856863128443658e+01  1.082142804448272e-22  3.304509431757388e-16
-1.856843190282325e+01  1.182194587735305e-21  3.304473949763826e-16
-1.856823197849737e+01  1.427535983169432e-22  3.304438370370410e-16
-1.856803147870412e+01  5.061125322992609e-22  3.304402689624120e-16
-1.856783044599049e+01  1.428024708897176e-22  3.304366913068174e-16
-1.856762883496444e+01  5.059931874473937e-22  3.304331034395414e-16
-1.856742668874795e+01  1.427728411513746e-22  3.304295059610780e-16
-1.856722396194595e+01  5.060623070991140e-22  3.304258981887027e-16
-1.856702069767063e+01  1.427746261214778e-22  3.304222808790329e-16
-1.856681685066207e+01  1.082203271194491e-22  3.304186531399305e-16
-1.856661246413372e+01  1.182260826499432e-21  3.304150158830099e-16
-1.856640750269820e+01  1.427694704704030e-22  3.304113683236452e-16
-1.856620196652594e+01  5.060154203664948e-22  3.304077105113973e-16
-1.856599588719216e+01  1.427634283482347e-22  3.304040431123379e-16
-1.856578923027392e+01  5.060061478619417e-22  3.304003653839752e-16
-1.856558200595966e+01  1.427809512770160e-22  3.303966776379571e-16
-1.856537420177801e+01  5.060283178821360e-22  3.303929794804341e-16
-1.856516584987426e+01  1.427670771037352e-22  3.303892716237217e-16
-1.856495691581517e+01  5.060976349324969e-22  3.303855533773603e-16
-1.856474740978992e+01  1.427532125461329e-22  3.303818250009947e-16
-1.856453731945220e+01  1.082593314160489e-22  3.303780862034714e-16
-1.856432666606162e+01  1.182344038939241e-21  3.303743374438528e-16
-1.856411544715541e+01  1.427873986929377e-22  3.303705784864617e-16
-1.856390362995960e+01  5.060512303418343e-22  3.303668088838725e-16
-1.856369125701760e+01  1.427814112794290e-22  3.303630295027287e-16
-1.856347828292596e+01  5.060578573518657e-22  3.303592393999865e-16
-1.856326475079344e+01  1.427911384810457e-22  3.303554392805524e-16
-1.856305061520100e+01  5.060645204405012e-22  3.303516284615183e-16
-1.856283591926026e+01  1.427773187870221e-22  3.303478077518041e-16
-1.856262061768352e+01  1.082657200314565e-22  3.303439762070923e-16
-1.856240474269613e+01  1.182288360200311e-21  3.303401344350027e-16
-1.856218829182977e+01  1.427958706304362e-22  3.303362824078887e-16
-1.856197123228988e+01  5.061441580905725e-22  3.303324196263803e-16
-1.856175360661554e+01  1.427977814816231e-22  3.303285466972671e-16
-1.856153536938338e+01  5.062137714119966e-22  3.303246629375295e-16
-1.856131656369244e+01  1.428625250861045e-22  3.303207690002979e-16
-1.856109714411350e+01  5.060949546462103e-22  3.303168641505585e-16
-1.856087715374697e+01  1.427859284333222e-22  3.303129491454742e-16
-1.856065654714779e+01  5.062274661017526e-22  3.303090232501477e-16
-1.856043536742553e+01  1.428035762460692e-22  3.303050870656511e-16
-1.856021356925475e+01  1.082423302887022e-22  3.303011399078327e-16
-1.855999118485322e+01  1.182501853962614e-21  3.302971823324971e-16
-1.855920378296654e+01  1.428011365893782e-22  3.302831695391682e-16
-1.855954462804638e+01  5.061191409918071e-22  3.302892352359367e-16
-1.855932044384213e+01  1.155641943461245e-26  3.302852456250237e-16
-1.855909564531912e+01  5.737212918175773e-23  3.302812450987888e-16
-1.865422595228334e+01  1.031484551548969e-21  3.319742023997877e-16
-1.865407302211941e+01  9.398536525847873e-15  3.319714808374510e-16
-1.865392047791884e+01  5.046470041065110e-22  3.319687661528546e-16
-1.865376835071016e+01  1.423614596041745e-22  3.319660588054632e-16
-1.865361659503431e+01  1.079620476148911e-22  3.319633581736440e-16
-1.865346524247888e+01  1.179095157882899e-21  3.319606645555411e-16
-1.865331429017058e+01  1.423947823529940e-22  3.319579782922065e-16
-1.865316370510638e+01  5.047841130873293e-22  3.319552984784052e-16
-1.865301352915309e+01  1.424274302262543e-22  3.319526258771667e-16
-1.865286371677254e+01  5.046635093315567e-22  3.319499597638730e-16
-1.865271431040506e+01  1.423817650757301e-22  3.319473008956843e-16
-1.865256526452764e+01  5.047308164038061e-22  3.319446484440714e-16
-1.865241662159204e+01  1.423830768154998e-22  3.319420031660984e-16
-1.865226833609280e+01  5.047354544880151e-22  3.319393642330241e-16
-1.865212045050092e+01  1.424000435040376e-22  3.319367324535976e-16
-1.865197291943606e+01  1.079753705042151e-22  3.319341069977607e-16
-1.865182577458268e+01  1.179280278706429e-21  3.319314882664531e-16
-1.865167901312645e+01  1.424019888375625e-22  3.319288765482435e-16
-1.865153261306213e+01  5.046842987437914e-22  3.319262712396886e-16
-1.865138658359472e+01  1.423876155050018e-22  3.319236724540165e-16
-1.865124091200118e+01  5.048141510676129e-22  3.319210800110527e-16
-1.865109562988350e+01  1.424045596641203e-22  3.319184945719467e-16
-1.865095070270180e+01  5.046933868827595e-22  3.319159154026469e-16
-1.865080614025096e+01  1.424058353584864e-22  3.319133427659171e-16
-1.865066192995337e+01  1.079719198889020e-22  3.319107763763385e-16
-1.865051809263560e+01  1.179202701613650e-21  3.319082165389732e-16
-1.865037462554545e+01  1.424390618824414e-22  3.319056634380084e-16
-1.865023149582060e+01  5.047046190849577e-22  3.319031162702245e-16
-1.865008874545970e+01  1.424089966591164e-22  3.319005758493703e-16
-1.864994632905472e+01  5.046777472087556e-22  3.318980413973197e-16
-1.864980428918742e+01  1.423945873685413e-22  3.318955136181228e-16
-1.864966258045271e+01  5.047761553069899e-22  3.318929917335923e-16
-1.864952124544639e+01  1.424036659296658e-22  3.318904764995208e-16
-1.864938023877740e+01  5.047179132902463e-22  3.318879670856807e-16
-1.864923960304662e+01  1.424127384433139e-22  3.318854643515672e-16
-1.864909929300746e+01  1.080084669466708e-22  3.318829673617045e-16
-1.864895934046092e+01  1.179259578128523e-21  3.318804767753036e-16
-1.864881974272522e+01  1.424145885443090e-22  3.318779924646026e-16
-1.864868046699513e+01  5.046661882372796e-22  3.318755138331299e-16
-1.864854155534795e+01  1.424001509745742e-22  3.318730417458097e-16
-1.864840296242554e+01  5.047331751729997e-22  3.318705753719749e-16
-1.864826473087709e+01  1.424170341532502e-22  3.318681153632215e-16
-1.864812681536199e+01  5.048001419491550e-22  3.318656609924091e-16
-1.864798925853759e+01  1.424182479830848e-22  3.318632129629405e-16
-1.864785201519384e+01  1.079813077697887e-22  3.318607705981753e-16
-1.864771511719071e+01  1.179304976203834e-21  3.318583344011779e-16
-1.864757856189764e+01  1.424200576424731e-22  3.318559041398930e-16
-1.864744232746326e+01  5.047481767706426e-22  3.318534796758591e-16
-1.864730642327393e+01  1.424525847204558e-22  3.318510611204571e-16
-1.864717083676612e+01  5.047210882962108e-22  3.318486481879794e-16
-1.864703559971645e+01  1.424224500741954e-22  3.318462414861291e-16
-1.864690067774823e+01  5.046939784715332e-22  3.318438404344364e-16
-1.864676608081999e+01  1.424158055098062e-22  3.318414450865380e-16
-1.864663179638606e+01  5.048234912148857e-22  3.318390553121347e-16
-1.864649785625036e+01  1.424561482197683e-22  3.318366717186785e-16
-1.864636422617426e+01  1.079941103734326e-22  3.318342935686226e-16
-1.864623090532724e+01  1.179359128725636e-21  3.318319210263613e-16
-1.864609792387603e+01  1.424265816321423e-22  3.318295544049399e-16
-1.864596523819445e+01  5.047085841957817e-22  3.318271931150135e-16
-1.864583289046545e+01  1.424120847003703e-22  3.318248378650105e-16
-1.864570083543232e+01  5.047753714808751e-22  3.318224877710629e-16
-1.864556911584506e+01  1.423975819581893e-22  3.318201436395414e-16
-1.864543768645445e+01  5.047794806368730e-22  3.318178046902196e-16
-1.864530659002412e+01  1.424300682994737e-22  3.318154716774758e-16
-1.864517578142989e+01  1.080215783738994e-22  3.318131438197733e-16
-1.864504529263858e+01  1.179527705660932e-21  3.318108216710867e-16
-1.864491512110722e+01  1.424317931083415e-22  3.318085050502729e-16
-1.864478523416337e+01  5.047896687612239e-22  3.318061935666857e-16
-1.864465567403371e+01  1.424016056902901e-22  3.318038878765151e-16
-1.864452639549476e+01  5.047937105083140e-22  3.318015872510504e-16
-1.864439744133872e+01  1.424184085826927e-22  3.317992922888201e-16
-1.864426876635380e+01  5.048603951495140e-22  3.317970024165936e-16
-1.864414041333929e+01  1.424273736523312e-22  3.317947181809684e-16
-1.864401233708931e+01  5.048017374085060e-22  3.317924389567537e-16
-1.864388458041353e+01  1.424363335732721e-22  3.317901653423334e-16
-1.864375709823313e+01  1.080263189211425e-22  3.317878966593118e-16
-1.864362993347850e+01  1.179328695591037e-21  3.317856336604811e-16
-1.864350305089751e+01  1.424380145235629e-22  3.317833755665750e-16
-1.864337645061119e+01  5.048116664674794e-22  3.317811225321984e-16
-1.864325016397341e+01  1.424391286879872e-22  3.317788751177182e-16
-1.864312415672032e+01  5.048156058663167e-22  3.317766326893257e-16
-1.864299843893362e+01  1.424402377257507e-22  3.317743954031644e-16
-1.864287299819308e+01  5.048195275097285e-22  3.317721630237653e-16
-1.864274786643047e+01  1.424100092997242e-22  3.317699361574684e-16
-1.864262300950929e+01  1.079987758598099e-22  3.317677141691160e-16
-1.864249842672191e+01  1.179495301064241e-21  3.317654970661787e-16
-1.864237414835744e+01  1.424429881612152e-22  3.317632854199947e-16
-1.864225013089652e+01  5.048292529770990e-22  3.317610783285036e-16
-1.864212641664419e+01  1.424440795790688e-22  3.317588767066627e-16
-1.864200296044218e+01  5.048017791567379e-22  3.317566796692035e-16
-1.864187980516781e+01  1.424451660541460e-22  3.317544879695942e-16
-1.864175690566677e+01  5.048369540913391e-22  3.317523008781377e-16
-1.864163430482018e+01  1.424384142623116e-22  3.317501189926427e-16
-1.864151195748634e+01  5.048407786211728e-22  3.317479416351374e-16
-1.864138990654497e+01  1.424473243367893e-22  3.317457696628616e-16
-1.864126810698068e+01  1.080033016557121e-22  3.317436020852448e-16
-1.864114660179940e+01  1.179669952074866e-21  3.317414398101321e-16
-1.864102535580835e+01  1.424489303716117e-22  3.317392820055514e-16
-1.864090436919278e+01  5.048502651677944e-22  3.317371288773146e-16
-1.864078367338279e+01  1.424499950989391e-22  3.317349809851378e-16
-1.864066322324233e+01  5.048540302431889e-22  3.317328374952652e-16
-1.864054306168407e+01  1.424510551022153e-22  3.317306990052596e-16
-1.864042314359070e+01  5.049204479075119e-22  3.317285649405552e-16
-1.864030351186909e+01  1.424521104204684e-22  3.317264359506735e-16
-1.864018412153038e+01  1.080382572454517e-22  3.317243112521807e-16
-1.864006500467423e+01  1.179458732355223e-21  3.317221913460713e-16
-1.863994615890353e+01  1.424536846984287e-22  3.317200764127794e-16
-1.863982755166356e+01  5.048670776098450e-22  3.317179656450417e-16
-1.863970922532837e+01  1.424547284738547e-22  3.317158599054181e-16
-1.863959113478198e+01  5.049021041768518e-22  3.317137583598376e-16
-1.863947332296665e+01  1.424557676996440e-22  3.317116617612848e-16
-1.863935574477405e+01  5.048744438131755e-22  3.317095692755853e-16
-1.863923844314974e+01  1.424411345244736e-22  3.317074817594742e-16
-1.863912137298667e+01  5.048781029655971e-22  3.317053983787416e-16
-1.863900457724008e+01  1.424578326554197e-22  3.317033198862739e-16
-1.863888801092908e+01  1.080150908379365e-22  3.317012454465422e-16
-1.863877170618975e+01  1.179631249358522e-21  3.316991756121202e-16
-1.863865566064551e+01  1.424593697130709e-22  3.316971104594515e-16
-1.863853984176373e+01  5.048871820768700e-22  3.316950493884771e-16
-1.863842429194466e+01  1.424447206530040e-22  3.316929930021674e-16
-1.863830896609807e+01  5.050161332849668e-22  3.316909406217105e-16
-1.863819390718809e+01  1.424614038202372e-22  3.316888929999645e-16
-1.863807907013033e+01  5.049570495407742e-22  3.316868494061495e-16
-1.863796449789251e+01  1.424310773862602e-22  3.316848103855652e-16
-1.863785014550677e+01  1.079833808349970e-22  3.316827753618684e-16
-1.863773604513887e+01  1.179669027108793e-21  3.316807448873863e-16
-1.863762219442165e+01  1.424952596276108e-22  3.316787187271403e-16
-1.863750856083761e+01  5.050286323354465e-22  3.316766964364938e-16
-1.863739518680984e+01  1.424649222664285e-22  3.316746788258023e-16
-1.863728202725445e+01  5.049068191116113e-22  3.316726650085439e-16
-1.863716912515844e+01  1.424502491851862e-22  3.316706557893083e-16
-1.863705643544695e+01  5.050356925598437e-22  3.316686503852305e-16
-1.863694400110451e+01  1.424512407507654e-22  3.316666494452824e-16
-1.863683177706192e+01  5.049138482648238e-22  3.316646523421789e-16
-1.863671980630730e+01  1.424678973272562e-22  3.316626596210983e-16
-1.863660804388968e+01  1.080188664262314e-22  3.316606707054090e-16
-1.863649652198579e+01  1.179588885964218e-21  3.316586859398424e-16
-1.863638523825202e+01  1.424693710838434e-22  3.316567056080318e-16
-1.863627416018334e+01  5.049225534691045e-22  3.316547288500229e-16
-1.863616333021670e+01  1.424546791913118e-22  3.316527564761253e-16
-1.863605270328852e+01  5.049260106940664e-22  3.316507877032564e-16
-1.863594232239448e+01  1.424713220864862e-22  3.316488233879039e-16
-1.863583214247574e+01  5.049921320684966e-22  3.316468625912500e-16
-1.863572220653395e+01  1.425036308537032e-22  3.316449061697370e-16
-1.863561246950429e+01  5.048075260719994e-22  3.316429532883641e-16
-1.863550297439348e+01  1.424732573496383e-22  3.316410046478714e-16
-1.863539367626394e+01  1.080542616322474e-22  3.316390595675994e-16
-1.863528460730546e+01  1.179633085334234e-21  3.316371185478732e-16
-1.863517576518550e+01  1.424746986426829e-22  3.316351815608698e-16
-1.863506711740205e+01  5.049413966915483e-22  3.316332480578420e-16
-1.863495870641401e+01  1.424599847741860e-22  3.316313187451883e-16
-1.863485048715933e+01  5.049447784542464e-22  3.316293928396932e-16
-1.863474250265466e+01  1.424687720261150e-22  3.316274711458345e-16
-1.863463470783461e+01  5.050108273929882e-22  3.316255527766261e-16
-1.863452714572357e+01  1.425088959914341e-22  3.316236386402668e-16
-1.863441977138253e+01  1.080300145027685e-22  3.316217277965622e-16
-1.863431261701063e+01  1.179793895637558e-21  3.316198207457941e-16
-1.863420568027770e+01  1.424789716021258e-22  3.316179177714500e-16
-1.863409892869506e+01  5.049565106949885e-22  3.316160179613349e-16
-1.863399240472159e+01  1.424799110074220e-22  3.316141222813795e-16
-1.863388606330072e+01  5.050851974586169e-22  3.316122297925397e-16
-1.863377994745482e+01  1.424808468030085e-22  3.316103413512040e-16
-1.863367401212347e+01  5.050885084525753e-22  3.316084561221291e-16
-1.863356830033714e+01  1.424817790247801e-22  3.316065748059607e-16
-1.863346276702837e+01  5.048410758371688e-22  3.316046967231843e-16
-1.863335745523358e+01  1.424827077085606e-22  3.316028225744010e-16
-1.863325232000781e+01  1.080379088167642e-22  3.316009515750341e-16
-1.863314739356406e+01  1.179836394133396e-21  3.315990843809680e-16
-1.863304267357341e+01  1.424840941789933e-22  3.315972206529536e-16
-1.863293812754333e+01  5.049432890786953e-22  3.315953601014566e-16
-1.863283379794250e+01  1.424850141747528e-22  3.315935034848321e-16
-1.863272963971464e+01  5.049778854255341e-22  3.315916498639122e-16
-1.863262569588350e+01  1.424702596647954e-22  3.315898000432705e-16
-1.863252192139105e+01  5.049811278575863e-22  3.315879532394189e-16
-1.863241835926752e+01  1.424555015774356e-22  3.315861102568807e-16
-1.863231496457574e+01  1.080332036905875e-22  3.315842702071198e-16
-1.863221176952014e+01  1.179870517600166e-21  3.315824336423723e-16
-1.863210877177657e+01  1.424882075221540e-22  3.315806007941632e-16
-1.863200593884942e+01  5.049264965645591e-22  3.315787706982964e-16
-1.863190331321551e+01  1.424734410009400e-22  3.315769443725889e-16
-1.863180084979897e+01  5.049923834649551e-22  3.315751209298739e-16
-1.863169859164241e+01  1.424900141150843e-22  3.315733011227106e-16
-1.863159649367288e+01  5.050582596998982e-22  3.315714842195670e-16
-1.863149459892091e+01  1.425222558532311e-22  3.315696708174553e-16
-1.863139286232586e+01  5.051241253927337e-22  3.315678603403851e-16
-1.863129132690994e+01  1.425544948059237e-22  3.315660533854692e-16
-1.863118994772962e+01  1.080683041193915e-22  3.315642492198091e-16
-1.863108875700033e+01  1.179911474216974e-21  3.315624483955932e-16
-1.863098775238240e+01  1.424931448796069e-22  3.315606508850165e-16
-1.863088690137771e+01  5.050379933437167e-22  3.315588561389865e-16
-1.863078624645618e+01  1.424940323652751e-22  3.315570648641062e-16
-1.863068574254664e+01  5.051351656180096e-22  3.315552762768402e-16
-1.863058543267205e+01  1.424949167976795e-22  3.315534911300367e-16
-1.863048527176344e+01  5.050129184780904e-22  3.315517086920154e-16
-1.863038530284700e+01  1.424957982129800e-22  3.315499296118124e-16
-1.863028548096475e+01  1.080438211612157e-22  3.315481531565896e-16
-1.863018583832533e+01  1.179819024823034e-21  3.315463799305535e-16
-1.863008637258993e+01  1.424971147577421e-22  3.315446097501858e-16
-1.862998705125228e+01  5.049580055809774e-22  3.315428422221056e-16
-1.862988791676911e+01  1.424823163688193e-22  3.315410780012217e-16
-1.862978892406894e+01  5.050237875506947e-22  3.315393163558127e-16
-1.862969011616551e+01  1.425302049589144e-22  3.315375579350938e-16
-1.862959144798090e+01  5.050268698549784e-22  3.315358020073900e-16
-1.862949296253713e+01  1.424997282145056e-22  3.315340493256440e-16
-1.862939461473836e+01  5.050926327422489e-22  3.315322991583471e-16
-1.862929644761588e+01  1.424379028591940e-22  3.315305521026635e-16
-1.862919841619885e+01  1.080514471008616e-22  3.315288075295823e-16
-1.862910055267820e+01  1.179921290340064e-21  3.315270658359561e-16
-1.862900285471467e+01  1.424705409860307e-22  3.315253272534497e-16
-1.862890528977783e+01  5.050689254116205e-22  3.315235910255586e-16
-1.862880790032596e+01  1.424870723238677e-22  3.315218578072565e-16
-1.862871064126396e+01  5.051660016350416e-22  3.315201269707586e-16
-1.862861355560140e+01  1.424957646426593e-22  3.315183992173053e-16
-1.862851659824559e+01  5.051690310163130e-22  3.315166737633681e-16
-1.862841981220083e+01  1.425044544028774e-22  3.315149513621570e-16
-1.862832315249089e+01  1.080465333158222e-22  3.315132311770305e-16
-1.862822665130215e+01  1.180141236171025e-21  3.315115138125363e-16
-1.862813030627356e+01  1.425684224554304e-22  3.315097992410540e-16
-1.862803408486947e+01  5.050511773606404e-22  3.315080869136691e-16
-1.862793802953554e+01  1.424909027797602e-22  3.315063774336463e-16
-1.862784209516039e+01  5.050541738865930e-22  3.315046702251903e-16
-1.862774632474595e+01  1.425074203918026e-22  3.315029658339806e-16
-1.862765067318105e+01  5.049944675231489e-22  3.315012636322983e-16
-1.862755518346204e+01  1.425082621539153e-22  3.314995642177971e-16
-1.862745981047176e+01  5.050601404398304e-22  3.314978670147045e-16
-1.862736459721219e+01  1.425091014672848e-22  3.314961725168245e-16
-1.862726949867928e+01  1.080813988516065e-22  3.314944801472083e-16
-1.862717454704931e+01  1.180054216777107e-21  3.314927904067642e-16
-1.862707973994094e+01  1.425417034871631e-22  3.314911031642610e-16
-1.862698504479861e+01  5.050988979646546e-22  3.314894179747171e-16
-1.862689050405205e+01  1.424955154122983e-22  3.314877354935417e-16
-1.862679607257479e+01  5.050704996585999e-22  3.314860549892873e-16
-1.862670179335051e+01  1.425041833407691e-22  3.314843771636064e-16
-1.862660762124459e+01  5.051361368911331e-22  3.314827012332127e-16
-1.862651359923928e+01  1.425441971891353e-22  3.314810280035956e-16
-1.862641968231869e+01  1.080567297572658e-22  3.314793566383308e-16
-1.862632590264066e+01  1.180210556087010e-21  3.314776877942732e-16
-1.862623225781477e+01  1.425140880300066e-22  3.314760211845603e-16
-1.862613871525838e+01  5.050807591059896e-22  3.314743565201412e-16
-1.862604531739546e+01  1.424992369770627e-22  3.314726943527390e-16
-1.862595201907192e+01  5.050836728602400e-22  3.314710340549171e-16
-1.862585886326162e+01  1.425157323397750e-22  3.314693762246842e-16
-1.862576580480853e+01  5.050865790779536e-22  3.314677200788912e-16
-1.862567288668085e+01  1.425165513147072e-22  3.314660665270476e-16
-1.862558006371940e+01  5.050894778960323e-22  3.314644145783988e-16
-1.862548737888921e+01  1.425173682210483e-22  3.314627651944080e-16
-1.862539478715027e+01  1.080641482020578e-22  3.314611174349857e-16
-1.862530232063929e+01  1.180059788726156e-21  3.314594719572646e-16
-1.862520997693692e+01  1.425185897868077e-22  3.314578284746568e-16
-1.862511772344615e+01  5.050966934692650e-22  3.314561867500997e-16
-1.862502560256371e+01  1.425037269171312e-22  3.314545473356689e-16
-1.862493356911496e+01  5.052249660250880e-22  3.314529095002307e-16
-1.862484166604599e+01  1.425123742324549e-22  3.314512739459654e-16
-1.862474984817860e+01  5.051651343290447e-22  3.314496399936645e-16
-1.862465815846446e+01  1.425210197440538e-22  3.314480082416540e-16
-1.862456655182953e+01  1.080590761757934e-22  3.314463779577326e-16
-1.862447506039933e+01  1.180403452770537e-21  3.314447496953834e-16
-1.862438368174006e+01  1.425379034860728e-22  3.314431235834085e-16
-1.862429238322477e+01  5.051095740198852e-22  3.314414988140200e-16
-1.862420120723749e+01  1.425073567473255e-22  3.314398762509275e-16
-1.862411010857000e+01  5.052378203665246e-22  3.314382550594451e-16
-1.862401913016086e+01  1.424924831634602e-22  3.314366359418956e-16
-1.862392822680603e+01  5.050525558567234e-22  3.314350182192559e-16
-1.862383744143157e+01  1.425559844396310e-22  3.314334025939904e-16
-1.862374672882629e+01  5.051180895345670e-22  3.314317882833170e-16
-1.862365613191778e+01  1.425254321181065e-22  3.314301759896976e-16
-1.862356560561139e+01  1.080937689651358e-22  3.314285649291379e-16
-1.862347518199912e+01  1.180189110287601e-21  3.314269557074305e-16
-1.862338485862118e+01  1.425266266357351e-22  3.314253483498176e-16
-1.862329460282312e+01  5.051251453428011e-22  3.314237421525313e-16
-1.862320445696584e+01  1.425274210066260e-22  3.314221378757799e-16
-1.862311437580805e+01  5.051279579131868e-22  3.314205347889368e-16
-1.862302440226832e+01  1.425282138457526e-22  3.314189335946046e-16
-1.862293449110487e+01  5.051934682762421e-22  3.314173335102352e-16
-1.862284468522551e+01  1.425290051943109e-22  3.314157352904650e-16
-1.862275493950876e+01  1.080689657239042e-22  3.314141381514955e-16
-1.862266528602859e+01  1.180093233131522e-21  3.314125426474407e-16
-1.862257572229652e+01  1.425301895119658e-22  3.314109488038291e-16
-1.862248621563543e+01  5.051064086796541e-22  3.314093559170613e-16
-1.862239680838398e+01  1.425153012666687e-22  3.314077647995475e-16
-1.862230745528253e+01  5.051405503086739e-22  3.314061746688599e-16
-1.862221819921099e+01  1.425317637708467e-22  3.314045862280600e-16
-1.862212899491625e+01  5.050806305240828e-22  3.314029986946358e-16
-1.862203988527906e+01  1.425325489236974e-22  3.314014129273864e-16
-1.862195082502470e+01  5.051461156117639e-22  3.313998279882702e-16
-1.862186185703922e+01  1.425333328145713e-22  3.313982446841359e-16
-1.862177293615759e+01  1.080997555980993e-22  3.313966622315349e-16
-1.862168409443859e+01  1.180129004363661e-21  3.313950811328804e-16
-1.862159532935928e+01  1.425345063776281e-22  3.313935015178650e-16
-1.862150660820951e+01  5.052784594786193e-22  3.313919225793309e-16
-1.862141797329517e+01  1.425352872993166e-22  3.313903452858359e-16
-1.862132937932859e+01  5.051558132951811e-22  3.313887685955835e-16
-1.862124086916468e+01  1.425203905004225e-22  3.313871934715271e-16
-1.862115239750803e+01  5.051585750724553e-22  3.313856190795794e-16
-1.862106400721604e+01  1.424741390740885e-22  3.313840460192966e-16
-1.862097565310479e+01  1.080710645641252e-22  3.313824736630825e-16
-1.862088736719211e+01  1.180220756996260e-21  3.313809024619006e-16
-1.862079914694343e+01  1.425380120418619e-22  3.313793324936445e-16
-1.862071095961275e+01  5.051654635927251e-22  3.313777631071974e-16
-1.862062284748981e+01  1.425387882941810e-22  3.313761950636977e-16
-1.862053476524829e+01  5.051682130357318e-22  3.313746275293124e-16
-1.862044675572988e+01  1.425395636281793e-22  3.313730613114581e-16
-1.862035877360064e+01  5.051709593015884e-22  3.313714955244491e-16
-1.862027086170040e+01  1.425716922423212e-22  3.313699310276471e-16
-1.862018297468626e+01  5.052991195046557e-22  3.313683669873553e-16
-1.862009515539025e+01  1.425411117173666e-22  3.313668041592027e-16
-1.862000735859036e+01  1.080742970592752e-22  3.313652417082356e-16
-1.861991961628053e+01  1.180318747366743e-21  3.313636802933715e-16
-1.861983192588655e+01  1.425736252812096e-22  3.313621196814142e-16
-1.861974425462653e+01  5.050551298167781e-22  3.313605594811131e-16
-1.861965664476064e+01  1.425430424498285e-22  3.313590002982401e-16
-1.861956905093076e+01  5.051832823852898e-22  3.313574414549365e-16
-1.861948151593420e+01  1.425281360641466e-22  3.313558837072344e-16
-1.861939399441850e+01  5.052487239933475e-22  3.313543261176252e-16
-1.861930652917611e+01  1.425445839682029e-22  3.313527695979501e-16
-1.861921907495597e+01  1.080807702182788e-22  3.313512132615595e-16
-1.861913166373036e+01  1.180347474656165e-21  3.313496575599761e-16
-1.861904429289033e+01  1.425457385543373e-22  3.313481027795020e-16
-1.861895692962853e+01  5.051928339359110e-22  3.313465480099355e-16
-1.861886961617685e+01  1.425308298688659e-22  3.313449942208071e-16
-1.861878230713980e+01  5.051955587190372e-22  3.313434404749857e-16
-1.861869504530165e+01  1.425786319055451e-22  3.313418875286971e-16
-1.861860778525971e+01  5.051355703886803e-22  3.313403346525320e-16
-1.861852056979014e+01  1.425794002516188e-22  3.313387824989796e-16
-1.861843335348951e+01  5.052637155672562e-22  3.313372304424542e-16
-1.861834617912358e+01  1.425488122018469e-22  3.313356790317321e-16
-1.861825900139766e+01  1.080801334499907e-22  3.313341275881803e-16
-1.861817185224607e+01  1.180382466763149e-21  3.313325766675956e-16
-1.861808472902795e+01  1.425499632962810e-22  3.313310261931820e-16
-1.861799759889368e+01  5.053332284495202e-22  3.313294756704293e-16
-1.861791050403512e+01  1.425507303574274e-22  3.313279256540179e-16
-1.861782339901972e+01  5.052105211425473e-22  3.313263755186019e-16
-1.861773632659390e+01  1.425436580532458e-22  3.313248259689521e-16
-1.861764924130881e+01  5.052759519746461e-22  3.313232762241202e-16
-1.861756218590937e+01  1.425522638881974e-22  3.313217269369879e-16
-1.861747511506276e+01  1.080827501392625e-22  3.313201773773190e-16
-1.861738806066685e+01  1.180411040979511e-21  3.313186282051633e-16
-1.861730102004587e+01  1.425690922215530e-22  3.313170791883173e-16
-1.861721396031271e+01  5.051886732629214e-22  3.313155298325962e-16
-1.861712692362755e+01  1.425541801848536e-22  3.313139809007352e-16
-1.861703986451621e+01  5.052227468122856e-22  3.313124315600659e-16
-1.861695282568813e+01  1.425863040340972e-22  3.313108826196349e-16
-1.861686576165775e+01  5.051627484393647e-22  3.313093331949535e-16
-1.861677871513125e+01  1.425870707362758e-22  3.313077841470357e-16
-1.861669164060946e+01  5.052281801456428e-22  3.313062345395936e-16
-1.861660458078373e+01  1.425564798343944e-22  3.313046851818868e-16
-1.861651749027222e+01  1.080859467079947e-22  3.313031353440891e-16
-1.861643040092274e+01  1.180445952966468e-21  3.313015854791391e-16
-1.861634331000423e+01  1.425576300842656e-22  3.313000355630578e-16
-1.861625618457592e+01  5.052349744880086e-22  3.312984850502232e-16
-1.861616906673787e+01  1.426211134425967e-22  3.312969347040582e-16
-1.861608191095801e+01  5.053631264697688e-22  3.312953836923904e-16
-1.861599475988081e+01  1.425434854224576e-22  3.312938327211662e-16
-1.861590756795636e+01  5.053031305915594e-22  3.312922810102968e-16
-1.861582037781769e+01  1.425599322788761e-22  3.312907293697015e-16
-1.861573314401273e+01  1.080924068855267e-22  3.312891769663532e-16
-1.861564589831881e+01  1.180474551734528e-21  3.312876243058730e-16
-1.861555863791406e+01  1.425767639279943e-22  3.312860714171229e-16
-1.861547132976795e+01  5.052472202305993e-22  3.312845176514978e-16
-1.861538401586455e+01  1.425461738814577e-22  3.312829637736668e-16
-1.861529665052189e+01  5.052499456381367e-22  3.312814090567546e-16
-1.861520927621392e+01  1.425626225947732e-22  3.312798541046676e-16
-1.861512184715749e+01  5.052409132904289e-22  3.312782981396247e-16
-1.861503440567583e+01  1.425947516628166e-22  3.312767420786196e-16
-1.861494690578492e+01  5.053181210598451e-22  3.312751849382204e-16
-1.861485938954491e+01  1.425798426143899e-22  3.312736274304354e-16
-1.861477181070438e+01  1.080917736012585e-22  3.312720688860834e-16
-1.861468419993878e+01  1.180509609271444e-21  3.312705096663387e-16
-1.861459655290197e+01  1.425966796544839e-22  3.312689499714107e-16
-1.861450883441605e+01  5.053876761980655e-22  3.312673889149673e-16
-1.861442108347915e+01  1.425660924708651e-22  3.312658272403673e-16
-1.861433325024318e+01  5.051395370959904e-22  3.312642642113268e-16
-1.861424537138774e+01  1.425511860064773e-22  3.312627002833888e-16
-1.861415739318039e+01  5.052050002621376e-22  3.312611345522823e-16
-1.861406934722640e+01  1.425676409018973e-22  3.312595676812272e-16
-1.861398118458151e+01  1.080944125353318e-22  3.312579987169470e-16
-1.861389289947330e+01  1.180538454465686e-21  3.312564275107263e-16
-1.861380447812760e+01  1.425688069119485e-22  3.312548540476144e-16
-1.861371587254398e+01  5.052432483957178e-22  3.312532771569205e-16
-1.861362713569305e+01  1.425695876063705e-22  3.312516980102627e-16
-1.861353831889331e+01  5.052773790192618e-22  3.312501173807989e-16
-1.861344981439610e+01  1.425703682038547e-22  3.312485423684666e-16
-1.861336262013090e+01  5.052703199232110e-22  3.312469905985252e-16
-1.861327949742018e+01  1.425711179637561e-22  3.312455114055964e-16
-1.861320560918414e+01  5.053452917790343e-22  3.312441964429755e-16
-1.861314253924906e+01  1.425560403419367e-22  3.312430740679420e-16
VECTORS SF_force double
0.000000000000000e+00 0.000000000000000e+00 0.000000000000000e+00
0.000000000000000e+00 0.000000000000000e+00 0.000000000000000e+00
0.000000000000000e+00 0.000000000000000e+00 0.000000000000000e+00
0.000000000000000e+00 0.000000000000000e+00 0.000000000000000e+00
0.000000000000000e+00 0.000000000000000e+00 0.000000000000000e+00
0.000000000000000e+00 0.000000000000000e+00 0.000000000000000e+00
0.000000000000000e+00 0.000000000000000e+00 0.000000000000000e+00
0.000000000000000e+00 0.000000000000000e+00 0.000000000000000e+00
0.000000000000000e+00 0.000000000000000e+00 0.000000000000000e+00
0.000000000000000e+00 0.000000000000000e+00 0.000000000000000e+00
0.000000000000000e+00 0.000000000000000e+00 0.000000000000000e+00
0.000000000000000e+00 0.000000000000000e+00 0.000000000000000e+00
0.000000000000000e+00 0.000000000000000e+00 0.000000000000000e+00
0.000000000000000e+00 0.000000000000000e+00 0.000000000000000e+00
0.000000000000000e+00 0.000000000000000e+00 0.000000000000000e+00
0.000000000000000e+00 0.000000000000000e+00 0.000000000000000e+00
0.000000000000000e+00 0.000000000000000e+00 0.000000000000000e+00
0.000000000000000e+00 0.000000000000000e+00 0.000000000000000e+00
0.000000000000000e+00 0.000000000000000e+00 0.000000000000000e+00
0.000000000000000e+00 0.000000000000000e+00 0.000000000000000e+00
0.000000000000000e+00 0.000000000000000e+00 0.000000000000000e+00
0.000000000000000e+00 0.000000000000000e+00 0.000000000000000e+00
0.000000000000000e+00 0.000000000000000e+00 0.000000000000000e+00
0.000000000000000e+00 0.000000000000000e+00 0.000000000000000e+00
0.000000000000000e+00 0.000000000000000e+00 0.000000000000000e+00
0.000000000000000e+00 0.000000000000000e+00 0.000000000000000e+00
0.000000000000000e+00 0.000000000000000e+00 0.000000000000000e+00
0.000000000000000e+00 0.000000000000000e+00 0.000000000000000e+00
0.000000000000000e+00 0.000000000000000e+00 0.000000000000000e+00
0.000000000000000e+00 0.000000000000000e+00 0.000000000000000e+00
0.000000000000000e+00 0.000000000000000e+00 0.000000000000000e+00
0.000000000000000e+00 0.000000000000000e+00 0.000000000000000e+00
0.000000000000000e+00 0.000000000000000e+00 0.000000000000000e+00
0.000000000000000e+00 0.000000000000000e+00 0.000000000000000e+00
0.000000000000000e+00 0.000000000000000e+00 0.000000000000000e+00
0.000000000000000e+00 0.000000000000000e+00 0.000000000000000e+00
0.000000000000000e+00 0.000000000000000e+00 0.000000000000000e+00
0.000000000000000e+00 0.000000000000000e+00 0.000000000000000e+00
0.000000000000000e+00 0.000000000000000e+00 0.000000000000000e+00
0.000000000000000e+00 0.000000000000000e+00 0.000000000000000e+00
0.000000000000000e+00 0.000000000000000e+00 0.000000000000000e+00
0.000000000000000e+00 0.000000000000000e+00 0.000000000000000e+00
0.000000000000000e+00 0.000000000000000e+00 0.000000000000000e+00
0.000000000000000e+00 0.000000000000000e+00 0.000000000000000e+00
0.000000000000000e+00 0.000000000000000e+00 0.000000000000000e+00
0.000000000000000e+00 0.000000000000000e+00 0.000000000000000e+00
0.000000000000000e+00 0.000000000000000e+00 0.000000000000000e+00
0.000000000000000e+00 0.000000000000000e+00 0.000000000000000e+00
0.000000000000000e+00 0.000000000000000e+00 0.000000000000000e+00
0.000000000000000e+00 0.000000000000000e+00 0.000000000000000e+00
0.000000000000000e+00 0.000000000000000e+00 0.000000000000000e+00
0.000000000000000e+00 0.000000000000000e+00 0.000000000000000e+00
0.000000000000000e+00 0.000000000000000e+00 0.000000000000000e+00
0.000000000000000e+00 0.000000000000000e+00 0.000000000000000e+00
0.000000000000000e+00 0.000000000000000e+00 0.000000000000000e+00
0.000000000000000e+00 0.000000000000000e+00 0.000000000000000e+00
0.000000000000000e+00 0.000000000000000e+00 0.000000000000000e+00
0.000000000000000e+00 0.000000000000000e+00 0.000000000000000e+00
0.000000000000000e+00 0.000000000000000e+00 0.000000000000000e+00
0.000000000000000e+00 0.000000000000000e+00 0.000000000000000e+00
0.000000000000000e+00 0.000000000000000e+00 0.000000000000000e+00
0.000000000000000e+00 0.000000000000000e+00 0.000000000000000e+00
0.000000000000000e+00 0.000000000000000e+00 0.000000000000000e+00
0.000000000000000e+00 0.000000000000000e+00 0.000000000000000e+00
0.000000000000000e+00 0.000000000000000e+00 0.000000000000000e+00
0.000000000000000e+00 0.000000000000000e+00 0.000000000000000e+00
0.000000000000000e+00 0.000000000000000e+00 0.000000000000000e+00
0.000000000000000e+00 0.000000000000000e+00 0.000000000000000e+00
0.000000000000000e+00 0.000000000000000e+00 0.000000000000000e+00
0.000000000000000e+00 0.000000000000000e+00 0.000000000000000e+00
0.000000000000000e+00 0.000000000000000e+00 0.000000000000000e+00
0.000000000000000e+00 0.000000000000000e+00 0.000000000000000e+00
0.000000000000000e+00 0.000000000000000e+00 0.000000000000000e+00
0.000000000000000e+00 0.000000000000000e+00 0.000000000000000e+00
0.000000000000000e+00 0.000000000000000e+00 0.000000000000000e+00
0.000000000000000e+00 0.000000000000000e+00 0.000000000000000e+00
0.000000000000000e+00 0.000000000000000e+00 0.000000000000000e+00
0.000000000000000e+00 0.000000000000000e+00 0.000000000000000e+00
0.000000000000000e+00 0.000000000000000e+00 0.000000000000000e+00
0.000000000000000e+00 0.000000000000000e+00 0.000000000000000e+00
0.000000000000000e+00 0.000000000000000e+00 0.000000000000000e+00
0.000000000000000e+00 0.000000000000000e+00 0.000000000000000e+00
0.000000000000000e+00 0.000000000000000e+00 0.000000000000000e+00
0.000000000000000e+00 0.000000000000000e+00 0.000000000000000e+00
0.000000000000000e+00 0.000000000000000e+00 0.000000000000000e+00
0.000000000000000e+00 0.000000000000000e+00 0.000000000000000e+00
0.000000000000000e+00 0.000000000000000e+00 0.000000000000000e+00
0.000000000000000e+00 0.000000000000000e+00 0.000000000000000e+00
0.000000000000000e+00 0.000000000000000e+00 0.000000000000000e+00
0.000000000000000e+00 0.000000000000000e+00 0.000000000000000e+00
0.000000000000000e+00 0.000000000000000e+00 0.000000000000000e+00
0.000000000000000e+00 0.000000000000000e+00 0.000000000000000e+00
0.000000000000000e+00 0.000000000000000e+00 0.000000000000000e+00
0.000000000000000e+00 0.000000000000000e+00 0.000000000000000e+00
0.000000000000000e+00 0.000000000000000e+00 0.000000000000000e+00
0.000000000000000e+00 0.000000000000000e+00 0.000000000000000e+00
0.000000000000000e+00 0.000000000000000e+00 0.000000000000000e+00
0.000000000000000e+00 0.000000000000000e+00 0.000000000000000e+00
0.000000000000000e+00 0.000000000000000e+00 0.000000000000000e+00
0.000000000000000e+00 0.000000000000000e+00 0.000000000000000e+00
0.000000000000000e+00 0.000000000000000e+00 0.000000000000000e+00
0.000000000000000e+00 0.000000000000000e+00 0.000000000000000e+00
0.000000000000000e+00 0.000000000000000e+00 0.000000000000000e+00
0.000000000000000e+00 0.000000000000000e+00 0.000000000000000e+00
0.000000000000000e+00 0.000000000000000e+00 0.000000000000000e+00
0.000000000000000e+00 0.000000000000000e+00 0.000000000000000e+00
0.000000000000000e+00 0.000000000000000e+00 0.000000000000000e+00
0.000000000000000e+00 0.000000000000000e+00 0.000000000000000e+00
0.000000000000000e+00 0.000000000000000e+00 0.000000000000000e+00
0.000000000000000e+00 0.000000000000000e+00 0.000000000000000e+00
0.000000000000000e+00 0.000000000000000e+00 0.000000000000000e+00
0.000000000000000e+00 0.000000000000000e+00 0.000000000000000e+00
0.000000000000000e+00 0.000000000000000e+00 0.000000000000000e+00
0.000000000000000e+00 0.000000000000000e+00 0.000000000000000e+00
0.000000000000000e+00 0.000000000000000e+00 0.000000000000000e+00
0.000000000000000e+00 0.000000000000000e+00 0.000000000000000e+00
0.000000000000000e+00 0.000000000000000e+00 0.000000000000000e+00
0.000000000000000e+00 0.000000000000000e+00 0.000000000000000e+00
0.000000000000000e+00 0.000000000000000e+00 0.000000000000000e+00
0.000000000000000e+00 0.000000000000000e+00 0.000000000000000e+00
0.000000000000000e+00 0.000000000000000e+00 0.000000000000000e+00
0.000000000000000e+00 0.000000000000000e+00 0.000000000000000e+00
0.000000000000000e+00 0.000000000000000e+00 0.000000000000000e+00
0.000000000000000e+00 0.000000000000000e+00 0.000000000000000e+00
0.000000000000000e+00 0.000000000000000e+00 0.000000000000000e+00
0.000000000000000e+00 0.000000000000000e+00 0.000000000000000e+00
0.000000000000000e+00 0.000000000000000e+00 0.000000000000000e+00
0.000000000000000e+00 0.000000000000000e+00 0.000000000000000e+00
0.000000000000000e+00 0.000000000000000e+00 0.000000000000000e+00
0.000000000000000e+00 0.000000000000000e+00 0.000000000000000e+00
0.000000000000000e+00 0.000000000000000e+00 0.000000000000000e+00
0.000000000000000e+00 0.000000000000000e+00 0.000000000000000e+00
0.000000000000000e+00 0.000000000000000e+00 0.000000000000000e+00
0.000000000000000e+00 0.000000000000000e+00 0.000000000000000e+00
0.000000000000000e+00 0.000000000000000e+00 0.000000000000000e+00
0.000000000000000e+00 0.000000000000000e+00 0.000000000000000e+00
0.000000000000000e+00 0.000000000000000e+00 0.000000000000000e+00
0.000000000000000e+00 0.000000000000000e+00 0.000000000000000e+00
0.000000000000000e+00 0.000000000000000e+00 0.000000000000000e+00
0.000000000000000e+00 0.000000000000000e+00 0.000000000000000e+00
0.000000000000000e+00 0.000000000000000e+00 0.000000000000000e+00
0.000000000000000e+00 0.000000000000000e+00 0.000000000000000e+00
0.000000000000000e+00 0.000000000000000e+00 0.000000000000000e+00
0.000000000000000e+00 0.000000000000000e+00 0.000000000000000e+00
0.000000000000000e+00 0.000000000000000e+00 0.000000000000000e+00
0.000000000000000e+00 0.000000000000000e+00 0.000000000000000e+00
0.000000000000000e+00 0.000000000000000e+00 0.000000000000000e+00
0.000000000000000e+00 0.000000000000000e+00 0.000000000000000e+00
0.000000000000000e+00 0.000000000000000e+00 0.000000000000000e+00
0.000000000000000e+00 0.000000000000000e+00 0.000000000000000e+00
0.000000000000000e+00 0.000000000000000e+00 0.000000000000000e+00
0.000000000000000e+00 0.000000000000000e+00 0.000000000000000e+00
0.000000000000000e+00 0.000000000000000e+00 0.000000000000000e+00
0.000000000000000e+00 0.000000000000000e+00 0.000000000000000e+00
0.000000000000000e+00 0.000000000000000e+00 0.000000000000000e+00
0.000000000000000e+00 0.000000000000000e+00 0.000000000000000e+00
0.000000000000000e+00 0.000000000000000e+00 0.000000000000000e+00
0.000000000000000e+00 0.000000000000000e+00 0.000000000000000e+00
0.000000000000000e+00 0.000000000000000e+00 0.000000000000000e+00
0.000000000000000e+00 0.000000000000000e+00 0.000000000000000e+00
0.000000000000000e+00 0.000000000000000e+00 0.000000000000000e+00
0.000000000000000e+00 0.000000000000000e+00 0.000000000000000e+00
0.000000000000000e+00 0.000000000000000e+00 0.000000000000000e+00
0.000000000000000e+00 0.000000000000000e+00 0.000000000000000e+00
0.000000000000000e+00 0.000000000000000e+00 0.000000000000000e+00
0.000000000000000e+00 0.000000000000000e+00 0.000000000000000e+00
0.000000000000000e+00 0.000000000000000e+00 0.000000000000000e+00
0.000000000000000e+00 0.000000000000000e+00 0.000000000000000e+00
0.000000000000000e+00 0.000000000000000e+00 0.000000000000000e+00
0.000000000000000e+00 0.000000000000000e+00 0.000000000000000e+00
0.000000000000000e+00 0.000000000000000e+00 0.000000000000000e+00
0.000000000000000e+00 0.000000000000000e+00 0.000000000000000e+00
0.000000000000000e+00 0.000000000000000e+00 0.000000000000000e+00
0.000000000000000e+00 0.000000000000000e+00 0.000000000000000e+00
0.000000000000000e+00 0.000000000000000e+00 0.000000000000000e+00
0.000000000000000e+00 0.000000000000000e+00 0.000000000000000e+00
0.000000000000000e+00 0.000000000000000e+00 0.000000000000000e+00
0.000000000000000e+00 0.000000000000000e+00 0.000000000000000e+00
0.000000000000000e+00 0.000000000000000e+00 0.000000000000000e+00
0.000000000000000e+00 0.000000000000000e+00 0.000000000000000e+00
0.000000000000000e+00 0.000000000000000e+00 0.000000000000000e+00
0.000000000000000e+00 0.000000000000000e+00 0.000000000000000e+00
0.000000000000000e+00 0.000000000000000e+00 0.000000000000000e+00
0.000000000000000e+00 0.000000000000000e+00 0.000000000000000e+00
0.000000000000000e+00 0.000000000000000e+00 0.000000000000000e+00
0.000000000000000e+00 0.000000000000000e+00 0.000000000000000e+00
0.000000000000000e+00 0.000000000000000e+00 0.000000000000000e+00
0.000000000000000e+00 0.000000000000000e+00 0.000000000000000e+00
0.000000000000000e+00 0.000000000000000e+00 0.000000000000000e+00
0.000000000000000e+00 0.000000000000000e+00 0.000000000000000e+00
0.000000000000000e+00 0.000000000000000e+00 0.000000000000000e+00
0.000000000000000e+00 0.000000000000000e+00 0.000000000000000e+00
0.000000000000000e+00 0.000000000000000e+00 0.000000000000000e+00
0.000000000000000e+00 0.000000000000000e+00 0.000000000000000e+00
0.000000000000000e+00 0.000000000000000e+00 0.000000000000000e+00
0.000000000000000e+00 0.000000000000000e+00 0.000000000000000e+00
0.000000000000000e+00 0.000000000000000e+00 0.000000000000000e+00
0.000000000000000e+00 0.000000000000000e+00 0.000000000000000e+00
0.000000000000000e+00 0.000000000000000e+00 0.000000000000000e+00
0.000000000000000e+00 0.000000000000000e+00 0.000000000000000e+00
0.000000000000000e+00 0.000000000000000e+00 0.000000000000000e+00
0.000000000000000e+00 0.000000000000000e+00 0.000000000000000e+00
0.000000000000000e+00 0.000000000000000e+00 0.000000000000000e+00
0.000000000000000e+00 0.000000000000000e+00 0.000000000000000e+00
0.000000000000000e+00 0.000000000000000e+00 0.000000000000000e+00
0.000000000000000e+00 0.000000000000000e+00 0.000000000000000e+00
0.000000000000000e+00 0.000000000000000e+00 0.000000000000000e+00
0.000000000000000e+00 0.000000000000000e+00 0.000000000000000e+00
0.000000000000000e+00 0.000000000000000e+00 0.000000000000000e+00
0.000000000000000e+00 0.000000000000000e+00 0.000000000000000e+00
0.000000000000000e+00 0.000000000000000e+00 0.000000000000000e+00
0.000000000000000e+00 0.000000000000000e+00 0.000000000000000e+00
0.000000000000000e+00 0.000000000000000e+00 0.000000000000000e+00
0.000000000000000e+00 0.000000000000000e+00 0.000000000000000e+00
0.000000000000000e+00 0.000000000000000e+00 0.000000000000000e+00
0.000000000000000e+00 0.000000000000000e+00 0.000000000000000e+00
0.000000000000000e+00 0.000000000000000e+00 0.000000000000000e+00
0.000000000000000e+00 0.000000000000000e+00 0.000000000000000e+00
0.000000000000000e+00 0.000000000000000e+00 0.000000000000000e+00
0.000000000000000e+00 0.000000000000000e+00 0.000000000000000e+00
0.000000000000000e+00 0.000000000000000e+00 0.000000000000000e+00
0.000000000000000e+00 0.000000000000000e+00 0.000000000000000e+00
0.000000000000000e+00 0.000000000000000e+00 0.000000000000000e+00
0.000000000000000e+00 0.000000000000000e+00 0.000000000000000e+00
0.000000000000000e+00 0.000000000000000e+00 0.000000000000000e+00
0.000000000000000e+00 0.000000000000000e+00 0.000000000000000e+00
0.000000000000000e+00 0.000000000000000e+00 0.000000000000000e+00
0.000000000000000e+00 0.000000000000000e+00 0.000000000000000e+00
0.000000000000000e+00 0.000000000000000e+00 0.000000000000000e+00
0.000000000000000e+00 0.000000000000000e+00 0.000000000000000e+00
0.000000000000000e+00 0.000000000000000e+00 0.000000000000000e+00
0.000000000000000e+00 0.000000000000000e+00 0.000000000000000e+00
0.000000000000000e+00 0.000000000000000e+00 0.000000000000000e+00
0.000000000000000e+00 0.000000000000000e+00 0.000000000000000e+00
0.000000000000000e+00 0.000000000000000e+00 0.000000000000000e+00
0.000000000000000e+00 0.000000000000000e+00 0.000000000000000e+00
0.000000000000000e+00 0.000000000000000e+00 0.000000000000000e+00
0.000000000000000e+00 0.000000000000000e+00 0.000000000000000e+00
0.000000000000000e+00 0.000000000000000e+00 0.000000000000000e+00
0.000000000000000e+00 0.000000000000000e+00 0.000000000000000e+00
0.000000000000000e+00 0.000000000000000e+00 0.000000000000000e+00
0.000000000000000e+00 0.000000000000000e+00 0.000000000000000e+00
0.000000000000000e+00 0.000000000000000e+00 0.000000000000000e+00
0.000000000000000e+00 0.000000000000000e+00 0.000000000000000e+00
0.000000000000000e+00 0.000000000000000e+00 0.000000000000000e+00
0.000000000000000e+00 0.000000000000000e+00 0.000000000000000e+00
0.000000000000000e+00 0.000000000000000e+00 0.000000000000000e+00
0.000000000000000e+00 0.000000000000000e+00 0.000000000000000e+00
0.000000000000000e+00 0.000000000000000e+00 0.000000000000000e+00
0.000000000000000e+00 0.000000000000000e+00 0.000000000000000e+00
0.000000000000000e+00 0.000000000000000e+00 0.000000000000000e+00
0.000000000000000e+00 0.000000000000000e+00 0.000000000000000e+00
0.000000000000000e+00 0.000000000000000e+00 0.000000000000000e+00
0.000000000000000e+00 0.000000000000000e+00 0.000000000000000e+00
0.000000000000000e+00 0.000000000000000e+00 0.000000000000000e+00
0.000000000000000e+00 0.000000000000000e+00 0.000000000000000e+00
0.000000000000000e+00 0.000000000000000e+00 0.000000000000000e+00
0.000000000000000e+00 0.000000000000000e+00 0.000000000000000e+00
0.000000000000000e+00 0.000000000000000e+00 0.000000000000000e+00
0.000000000000000e+00 0.000000000000000e+00 0.000000000000000e+00
0.000000000000000e+00 0.000000000000000e+00 0.000000000000000e+00
0.000000000000000e+00 0.000000000000000e+00 0.000000000000000e+00
0.000000000000000e+00 0.000000000000000e+00 0.000000000000000e+00
0.000000000000000e+00 0.000000000000000e+00 0.000000000000000e+00
0.000000000000000e+00 0.000000000000000e+00 0.000000000000000e+00
0.000000000000000e+00 0.000000000000000e+00 0.000000000000000e+00
0.000000000000000e+00 0.000000000000000e+00 0.000000000000000e+00
0.000000000000000e+00 0.000000000000000e+00 0.000000000000000e+00
0.000000000000000e+00 0.000000000000000e+00 0.000000000000000e+00
0.000000000000000e+00 0.000000000000000e+00 0.000000000000000e+00
0.000000000000000e+00 0.000000000000000e+00 0.000000000000000e+00
0.000000000000000e+00 0.000000000000000e+00 0.000000000000000e+00
0.000000000000000e+00 0.000000000000000e+00 0.000000000000000e+00
0.000000000000000e+00 0.000000000000000e+00 0.000000000000000e+00
0.000000000000000e+00 0.000000000000000e+00 0.000000000000000e+00
0.000000000000000e+00 0.000000000000000e+00 0.000000000000000e+00
0.000000000000000e+00 0.000000000000000e+00 0.000000000000000e+00
0.000000000000000e+00 0.000000000000000e+00 0.000000000000000e+00
0.000000000000000e+00 0.000000000000000e+00 0.000000000000000e+00
0.000000000000000e+00 0.000000000000000e+00 0.000000000000000e+00
0.000000000000000e+00 0.000000000000000e+00 0.000000000000000e+00
0.000000000000000e+00 0.000000000000000e+00 0.000000000000000e+00
0.000000000000000e+00 0.000000000000000e+00 0.000000000000000e+00
0.000000000000000e+00 0.000000000000000e+00 0.000000000000000e+00
0.000000000000000e+00 0.000000000000000e+00 0.000000000000000e+00
0.000000000000000e+00 0.000000000000000e+00 0.000000000000000e+00
0.000000000000000e+00 0.000000000000000e+00 0.000000000000000e+00
0.000000000000000e+00 0.000000000000000e+00 0.000000000000000e+00
0.000000000000000e+00 0.000000000000000e+00 0.000000000000000e+00
0.000000000000000e+00 0.000000000000000e+00 0.000000000000000e+00
0.000000000000000e+00 0.000000000000000e+00 0.000000000000000e+00
0.000000000000000e+00 0.000000000000000e+00 0.000000000000000e+00
0.000000000000000e+00 0.000000000000000e+00 0.000000000000000e+00
0.000000000000000e+00 0.000000000000000e+00 0.000000000000000e+00
0.000000000000000e+00 0.000000000000000e+00 0.000000000000000e+00
0.000000000000000e+00 0.000000000000000e+00 0.000000000000000e+00
0.000000000000000e+00 0.000000000000000e+00 0.000000000000000e+00
0.000000000000000e+00 0.000000000000000e+00 0.000000000000000e+00
0.000000000000000e+00 0.000000000000000e+00 0.000000000000000e+00
0.000000000000000e+00 0.000000000000000e+00 0.000000000000000e+00
0.000000000000000e+00 0.000000000000000e+00 0.000000000000000e+00
0.000000000000000e+00 0.000000000000000e+00 0.000000000000000e+00
0.000000000000000e+00 0.000000000000000e+00 0.000000000000000e+00
0.000000000000000e+00 0.000000000000000e+00 0.000000000000000e+00
0.000000000000000e+00 0.000000000000000e+00 0.000000000000000e+00
0.000000000000000e+00 0.000000000000000e+00 0.000000000000000e+00
0.000000000000000e+00 0.000000000000000e+00 0.000000000000000e+00
0.000000000000000e+00 0.000000000000000e+00 0.000000000000000e+00
0.000000000000000e+00 0.000000000000000e+00 0.000000000000000e+00
0.000000000000000e+00 0.000000000000000e+00 0.000000000000000e+00
0.000000000000000e+00 0.000000000000000e+00 0.000000000000000e+00
0.000000000000000e+00 0.000000000000000e+00 0.000000000000000e+00
0.000000000000000e+00 0.000000000000000e+00 0.000000000000000e+00
0.000000000000000e+00 0.000000000000000e+00 0.000000000000000e+00
0.000000000000000e+00 0.000000000000000e+00 0.000000000000000e+00
0.000000000000000e+00 0.000000000000000e+00 0.000000000000000e+00
0.000000000000000e+00 0.000000000000000e+00 0.000000000000000e+00
0.000000000000000e+00 0.000000000000000e+00 0.000000000000000e+00
0.000000000000000e+00 0.000000000000000e+00 0.000000000000000e+00
0.000000000000000e+00 0.000000000000000e+00 0.000000000000000e+00
0.000000000000000e+00 0.000000000000000e+00 0.000000000000000e+00
0.000000000000000e+00 0.000000000000000e+00 0.000000000000000e+00
0.000000000000000e+00 0.000000000000000e+00 0.000000000000000e+00
0.000000000000000e+00 0.000000000000000e+00 0.000000000000000e+00
0.000000000000000e+00 0.000000000000000e+00 0.000000000000000e+00
0.000000000000000e+00 0.000000000000000e+00 0.000000000000000e+00
0.000000000000000e+00 0.000000000000000e+00 0.000000000000000e+00
0.000000000000000e+00 0.000000000000000e+00 0.000000000000000e+00
0.000000000000000e+00 0.000000000000000e+00 0.000000000000000e+00
0.000000000000000e+00 0.000000000000000e+00 0.000000000000000e+00
0.000000000000000e+00 0.000000000000000e+00 0.000000000000000e+00
0.000000000000000e+00 0.000000000000000e+00 0.000000000000000e+00
0.000000000000000e+00 0.000000000000000e+00 0.000000000000000e+00
0.000000000000000e+00 0.000000000000000e+00 0.000000000000000e+00
0.000000000000000e+00 0.000000000000000e+00 0.000000000000000e+00
0.000000000000000e+00 0.000000000000000e+00 0.000000000000000e+00
0.000000000000000e+00 0.000000000000000e+00 0.000000000000000e+00
0.000000000000000e+00 0.000000000000000e+00 0.000000000000000e+00
0.000000000000000e+00 0.000000000000000e+00 0.000000000000000e+00
0.000000000000000e+00 0.000000000000000e+00 0.000000000000000e+00
0.000000000000000e+00 0.000000000000000e+00 0.000000000000000e+00
0.000000000000000e+00 0.000000000000000e+00 0.000000000000000e+00
0.000000000000000e+00 0.000000000000000e+00 0.000000000000000e+00
0.000000000000000e+00 0.000000000000000e+00 0.000000000000000e+00
0.000000000000000e+00 0.000000000000000e+00 0.000000000000000e+00
0.000000000000000e+00 0.000000000000000e+00 0.000000000000000e+00
0.000000000000000e+00 0.000000000000000e+00 0.000000000000000e+00
0.000000000000000e+00 0.000000000000000e+00 0.000000000000000e+00
0.000000000000000e+00 0.000000000000000e+00 0.000000000000000e+00
0.000000000000000e+00 0.000000000000000e+00 0.000000000000000e+00
0.000000000000000e+00 0.000000000000000e+00 0.000000000000000e+00
0.000000000000000e+00 0.000000000000000e+00 0.000000000000000e+00
0.000000000000000e+00 0.000000000000000e+00 0.000000000000000e+00
0.000000000000000e+00 0.000000000000000e+00 0.000000000000000e+00
0.000000000000000e+00 0.000000000000000e+00 0.000000000000000e+00
0.000000000000000e+00 0.000000000000000e+00 0.000000000000000e+00
0.000000000000000e+00 0.000000000000000e+00 0.000000000000000e+00
0.000000000000000e+00 0.000000000000000e+00 0.000000000000000e+00
0.000000000000000e+00 0.000000000000000e+00 0.000000000000000e+00
0.000000000000000e+00 0.000000000000000e+00 0.000000000000000e+00
0.000000000000000e+00 0.000000000000000e+00 0.000000000000000e+00
0.000000000000000e+00 0.000000000000000e+00 0.000000000000000e+00
0.000000000000000e+00 0.000000000000000e+00 0.000000000000000e+00
0.000000000000000e+00 0.000000000000000e+00 0.000000000000000e+00
0.000000000000000e+00 0.000000000000000e+00 0.000000000000000e+00
0.000000000000000e+00 0.000000000000000e+00 0.000000000000000e+00
0.000000000000000e+00 0.000000000000000e+00 0.000000000000000e+00
0.000000000000000e+00 0.000000000000000e+00 0.000000000000000e+00
0.000000000000000e+00 0.000000000000000e+00 0.000000000000000e+00
0.000000000000000e+00 0.000000000000000e+00 0.000000000000000e+00
0.000000000000000e+00 0.000000000000000e+00 0.000000000000000e+00
0.000000000000000e+00 0.000000000000000e+00 0.000000000000000e+00
0.000000000000000e+00 0.000000000000000e+00 0.000000000000000e+00
0.000000000000000e+00 0.000000000000000e+00 0.000000000000000e+00
0.000000000000000e+00 0.000000000000000e+00 0.000000000000000e+00
0.000000000000000e+00 0.000000000000000e+00 0.000000000000000e+00
0.000000000000000e+00 0.000000000000000e+00 0.000000000000000e+00
0.000000000000000e+00 0.000000000000000e+00 0.000000000000000e+00
0.000000000000000e+00 0.000000000000000e+00 0.000000000000000e+00
0.000000000000000e+00 0.000000000000000e+00 0.000000000000000e+00
0.000000000000000e+00 0.000000000000000e+00 0.000000000000000e+00
0.000000000000000e+00 0.000000000000000e+00 0.000000000000000e+00
0.000000000000000e+00 0.000000000000000e+00 0.000000000000000e+00
0.000000000000000e+00 0.000000000000000e+00 0.000000000000000e+00
0.000000000000000e+00 0.000000000000000e+00 0.000000000000000e+00
0.000000000000000e+00 0.000000000000000e+00 0.000000000000000e+00
0.000000000000000e+00 0.000000000000000e+00 0.000000000000000e+00
0.000000000000000e+00 0.000000000000000e+00 0.000000000000000e+00
0.000000000000000e+00 0.000000000000000e+00 0.000000000000000e+00
0.000000000000000e+00 0.000000000000000e+00 0.000000000000000e+00
0.000000000000000e+00 0.000000000000000e+00 0.000000000000000e+00
0.000000000000000e+00 0.000000000000000e+00 0.000000000000000e+00
0.000000000000000e+00 0.000000000000000e+00 0.000000000000000e+00
0.000000000000000e+00 0.000000000000000e+00 0.000000000000000e+00
0.000000000000000e+00 0.000000000000000e+00 0.000000000000000e+00
0.000000000000000e+00 0.000000000000000e+00 0.000000000000000e+00
0.000000000000000e+00 0.000000000000000e+00 0.000000000000000e+00
0.000000000000000e+00 0.000000000000000e+00 0.000000000000000e+00
0.000000000000000e+00 0.000000000000000e+00 0.000000000000000e+00
0.000000000000000e+00 0.000000000000000e+00 0.000000000000000e+00
0.000000000000000e+00 0.000000000000000e+00 0.000000000000000e+00
0.000000000000000e+00 0.000000000000000e+00 0.000000000000000e+00
0.000000000000000e+00 0.000000000000000e+00 0.000000000000000e+00
0.000000000000000e+00 0.000000000000000e+00 0.000000000000000e+00
0.000000000000000e+00 0.000000000000000e+00 0.000000000000000e+00
0.000000000000000e+00 0.000000000000000e+00 0.000000000000000e+00
0.000000000000000e+00 0.000000000000000e+00 0.000000000000000e+00
0.000000000000000e+00 0.000000000000000e+00 0.000000000000000e+00
0.000000000000000e+00 0.000000000000000e+00 0.000000000000000e+00
0.000000000000000e+00 0.000000000000000e+00 0.000000000000000e+00
0.000000000000000e+00 0.000000000000000e+00 0.000000000000000e+00
0.000000000000000e+00 0.000000000000000e+00 0.000000000000000e+00
0.000000000000000e+00 0.000000000000000e+00 0.000000000000000e+00
0.000000000000000e+00 0.000000000000000e+00 0.000000000000000e+00
0.000000000000000e+00 0.000000000000000e+00 0.000000000000000e+00
0.000000000000000e+00 0.000000000000000e+00 0.000000000000000e+00
0.000000000000000e+00 0.000000000000000e+00 0.000000000000000e+00
0.000000000000000e+00 0.000000000000000e+00 0.000000000000000e+00
0.000000000000000e+00 0.000000000000000e+00 0.000000000000000e+00
0.000000000000000e+00 0.000000000000000e+00 0.000000000000000e+00
0.000000000000000e+00 0.000000000000000e+00 0.000000000000000e+00
0.000000000000000e+00 0.000000000000000e+00 0.000000000000000e+00
0.000000000000000e+00 0.000000000000000e+00 0.000000000000000e+00
0.000000000000000e+00 0.000000000000000e+00 0.000000000000000e+00
0.000000000000000e+00 0.000000000000000e+00 0.000000000000000e+00
0.000000000000000e+00 0.000000000000000e+00 0.000000000000000e+00
0.000000000000000e+00 0.000000000000000e+00 0.000000000000000e+00
0.000000000000000e+00 0.000000000000000e+00 0.000000000000000e+00
0.000000000000000e+00 0.000000000000000e+00 0.000000000000000e+00
0.000000000000000e+00 0.000000000000000e+00 0.000000000000000e+00
0.000000000000000e+00 0.000000000000000e+00 0.000000000000000e+00
0.000000000000000e+00 0.000000000000000e+00 0.000000000000000e+00
0.000000000000000e+00 0.000000000000000e+00 0.000000000000000e+00
0.000000000000000e+00 0.000000000000000e+00 0.000000000000000e+00
0.000000000000000e+00 0.000000000000000e+00 0.000000000000000e+00
0.000000000000000e+00 0.000000000000000e+00 0.000000000000000e+00
0.000000000000000e+00 0.000000000000000e+00 0.000000000000000e+00
0.000000000000000e+00 0.000000000000000e+00 0.000000000000000e+00
0.000000000000000e+00 0.000000000000000e+00 0.000000000000000e+00
0.000000000000000e+00 0.000000000000000e+00 0.000000000000000e+00
0.000000000000000e+00 0.000000000000000e+00 0.000000000000000e+00
0.000000000000000e+00 0.000000000000000e+00 0.000000000000000e+00
0.000000000000000e+00 0.000000000000000e+00 0.000000000000000e+00
0.000000000000000e+00 0.000000000000000e+00 0.000000000000000e+00
0.000000000000000e+00 0.000000000000000e+00 0.000000000000000e+00
0.000000000000000e+00 0.000000000000000e+00 0.000000000000000e+00
0.000000000000000e+00 0.000000000000000e+00 0.000000000000000e+00
0.000000000000000e+00 0.000000000000000e+00 0.000000000000000e+00
0.000000000000000e+00 0.000000000000000e+00 0.000000000000000e+00
0.000000000000000e+00 0.000000000000000e+00 0.000000000000000e+00
0.000000000000000e+00 0.000000000000000e+00 0.000000000000000e+00
0.000000000000000e+00 0.000000000000000e+00 0.000000000000000e+00
0.000000000000000e+00 0.000000000000000e+00 0.000000000000000e+00
0.000000000000000e+00 0.000000000000000e+00 0.000000000000000e+00
0.000000000000000e+00 0.000000000000000e+00 0.000000000000000e+00
0.000000000000000e+00 0.000000000000000e+00 0.000000000000000e+00
0.000000000000000e+00 0.000000000000000e+00 0.000000000000000e+00
0.000000000000000e+00 0.000000000000000e+00 0.000000000000000e+00
0.000000000000000e+00 0.000000000000000e+00 0.000000000000000e+00
0.000000000000000e+00 0.000000000000000e+00 0.000000000000000e+00
0.000000000000000e+00 0.000000000000000e+00 0.000000000000000e+00
0.000000000000000e+00 0.000000000000000e+00 0.000000000000000e+00
0.000000000000000e+00 0.000000000000000e+00 0.000000000000000e+00
0.000000000000000e+00 0.000000000000000e+00 0.000000000000000e+00
0.000000000000000e+00 0.000000000000000e+00 0.000000000000000e+00
0.000000000000000e+00 0.000000000000000e+00 0.000000000000000e+00
0.000000000000000e+00 0.000000000000000e+00 0.000000000000000e+00
0.000000000000000e+00 0.000000000000000e+00 0.000000000000000e+00
0.000000000000000e+00 0.000000000000000e+00 0.000000000000000e+00
0.000000000000000e+00 0.000000000000000e+00 0.000000000000000e+00
0.000000000000000e+00 0.000000000000000e+00 0.000000000000000e+00
0.000000000000000e+00 0.000000000000000e+00 0.000000000000000e+00
0.000000000000000e+00 0.000000000000000e+00 0.000000000000000e+00
0.000000000000000e+00 0.000000000000000e+00 0.000000000000000e+00
0.000000000000000e+00 0.000000000000000e+00 0.000000000000000e+00
0.000000000000000e+00 0.000000000000000e+00 0.000000000000000e+00
0.000000000000000e+00 0.000000000000000e+00 0.000000000000000e+00
0.000000000000000e+00 0.000000000000000e+00 0.000000000000000e+00
0.000000000000000e+00 0.000000000000000e+00 0.000000000000000e+00
0.000000000000000e+00 0.000000000000000e+00 0.000000000000000e+00
0.000000000000000e+00 0.000000000000000e+00 0.000000000000000e+00
0.000000000000000e+00 0.000000000000000e+00 0.000000000000000e+00
0.000000000000000e+00 0.000000000000000e+00 0.000000000000000e+00
0.000000000000000e+00 0.000000000000000e+00 0.000000000000000e+00
0.000000000000000e+00 0.000000000000000e+00 0.000000000000000e+00
0.000000000000000e+00 0.000000000000000e+00 0.000000000000000e+00
0.000000000000000e+00 0.000000000000000e+00 0.000000000000000e+00
0.000000000000000e+00 0.000000000000000e+00 0.000000000000000e+00
0.000000000000000e+00 0.000000000000000e+00 0.000000000000000e+00
0.000000000000000e+00 0.000000000000000e+00 0.000000000000000e+00
0.000000000000000e+00 0.000000000000000e+00 0.000000000000000e+00
0.000000000000000e+00 0.000000000000000e+00 0.000000000000000e+00
0.000000000000000e+00 0.000000000000000e+00 0.000000000000000e+00
0.000000000000000e+00 0.000000000000000e+00 0.000000000000000e+00
0.000000000000000e+00 0.000000000000000e+00 0.000000000000000e+00
0.000000000000000e+00 0.000000000000000e+00 0.000000000000000e+00
0.000000000000000e+00 0.000000000000000e+00 0.000000000000000e+00
0.000000000000000e+00 0.000000000000000e+00 0.000000000000000e+00
0.000000000000000e+00 0.000000000000000e+00 0.000000000000000e+00
0.000000000000000e+00 0.000000000000000e+00 0.000000000000000e+00
0.000000000000000e+00 0.000000000000000e+00 0.000000000000000e+00
0.000000000000000e+00 0.000000000000000e+00 0.000000000000000e+00
0.000000000000000e+00 0.000000000000000e+00 0.000000000000000e+00
0.000000000000000e+00 0.000000000000000e+00 0.000000000000000e+00
0.000000000000000e+00 0.000000000000000e+00 0.000000000000000e+00
0.000000000000000e+00 0.000000000000000e+00 0.000000000000000e+00
0.000000000000000e+00 0.000000000000000e+00 0.000000000000000e+00
0.000000000000000e+00 0.000000000000000e+00 0.000000000000000e+00
0.000000000000000e+00 0.000000000000000e+00 0.000000000000000e+00
0.000000000000000e+00 0.000000000000000e+00 0.000000000000000e+00
0.000000000000000e+00 0.000000000000000e+00 0.000000000000000e+00
0.000000000000000e+00 0.000000000000000e+00 0.000000000000000e+00
0.000000000000000e+00 0.000000000000000e+00 0.000000000000000e+00
0.000000000000000e+00 0.000000000000000e+00 0.000000000000000e+00
0.000000000000000e+00 0.000000000000000e+00 0.000000000000000e+00
0.000000000000000e+00 0.000000000000000e+00 0.000000000000000e+00
0.000000000000000e+00 0.000000000000000e+00 0.000000000000000e+00
0.000000000000000e+00 0.000000000000000e+00 0.000000000000000e+00
0.000000000000000e+00 0.000000000000000e+00 0.000000000000000e+00
0.000000000000000e+00 0.000000000000000e+00 0.000000000000000e+00
0.000000000000000e+00 0.000000000000000e+00 0.000000000000000e+00
0.000000000000000e+00 0.000000000000000e+00 0.000000000000000e+00
0.000000000000000e+00 0.000000000000000e+00 0.000000000000000e+00
0.000000000000000e+00 0.000000000000000e+00 0.000000000000000e+00
0.000000000000000e+00 0.000000000000000e+00 0.000000000000000e+00
0.000000000000000e+00 0.000000000000000e+00 0.000000000000000e+00
0.000000000000000e+00 0.000000000000000e+00 0.000000000000000e+00
0.000000000000000e+00 0.000000000000000e+00 0.000000000000000e+00
0.000000000000000e+00 0.000000000000000e+00 0.000000000000000e+00
0.000000000000000e+00 0.000000000000000e+00 0.000000000000000e+00
0.000000000000000e+00 0.000000000000000e+00 0.000000000000000e+00
0.000000000000000e+00 0.000000000000000e+00 0.000000000000000e+00
0.000000000000000e+00 0.000000000000000e+00 0.000000000000000e+00
0.000000000000000e+00 0.000000000000000e+00 0.000000000000000e+00
0.000000000000000e+00 0.000000000000000e+00 0.000000000000000e+00
0.000000000000000e+00 0.000000000000000e+00 0.000000000000000e+00
0.000000000000000e+00 0.000000000000000e+00 0.000000000000000e+00
0.000000000000000e+00 0.000000000000000e+00 0.000000000000000e+00
0.000000000000000e+00 0.000000000000000e+00 0.000000000000000e+00
0.000000000000000e+00 0.000000000000000e+00 0.000000000000000e+00
0.000000000000000e+00 0.000000000000000e+00 0.000000000000000e+00
0.000000000000000e+00 0.000000000000000e+00 0.000000000000000e+00
0.000000000000000e+00 0.000000000000000e+00 0.000000000000000e+00
0.000000000000000e+00 0.000000000000000e+00 0.000000000000000e+00
0.000000000000000e+00 0.000000000000000e+00 0.000000000000000e+00
0.000000000000000e+00 0.000000000000000e+00 0.000000000000000e+00
0.000000000000000e+00 0.000000000000000e+00 0.000000000000000e+00
0.000000000000000e+00 0.000000000000000e+00 0.000000000000000e+00
0.000000000000000e+00 0.000000000000000e+00 0.000000000000000e+00
0.000000000000000e+00 0.000000000000000e+00 0.000000000000000e+00
0.000000000000000e+00 0.000000000000000e+00 0.000000000000000e+00
0.000000000000000e+00 0.000000000000000e+00 0.000000000000000e+00
0.000000000000000e+00 0.000000000000000e+00 0.000000000000000e+00
0.000000000000000e+00 0.000000000000000e+00 0.000000000000000e+00
0.000000000000000e+00 0.000000000000000e+00 0.000000000000000e+00
0.000000000000000e+00 0.000000000000000e+00 0.000000000000000e+00
0.000000000000000e+00 0.000000000000000e+00 0.000000000000000e+00
0.000000000000000e+00 0.000000000000000e+00 0.000000000000000e+00
0.000000000000000e+00 0.000000000000000e+00 0.000000000000000e+00
0.000000000000000e+00 0.000000000000000e+00 0.000000000000000e+00
0.000000000000000e+00 0.000000000000000e+00 0.000000000000000e+00
0.000000000000000e+00 0.000000000000000e+00 0.000000000000000e+00
0.000000000000000e+00 0.000000000000000e+00 0.000000000000000e+00
0.000000000000000e+00 0.000000000000000e+00 0.000000000000000e+00
0.000000000000000e+00 0.000000000000000e+00 0.000000000000000e+00
0.000000000000000e+00 0.000000000000000e+00 0.000000000000000e+00
0.000000000000000e+00 0.000000000000000e+00 0.000000000000000e+00
0.000000000000000e+00 0.000000000000000e+00 0.000000000000000e+00
0.000000000000000e+00 0.000000000000000e+00 0.000000000000000e+00
0.000000000000000e+00 0.000000000000000e+00 0.000000000000000e+00
0.000000000000000e+00 0.000000000000000e+00 0.000000000000000e+00
0.000000000000000e+00 0.000000000000000e+00 0.000000000000000e+00
0.000000000000000e+00 0.000000000000000e+00 0.000000000000000e+00
0.000000000000000e+00 0.000000000000000e+00 0.000000000000000e+00
0.000000000000000e+00 0.000000000000000e+00 0.000000000000000e+00
0.000000000000000e+00 0.000000000000000e+00 0.000000000000000e+00
0.000000000000000e+00 0.000000000000000e+00 0.000000000000000e+00
0.000000000000000e+00 0.000000000000000e+00 0.000000000000000e+00
0.000000000000000e+00 0.000000000000000e+00 0.000000000000000e+00
0.000000000000000e+00 0.000000000000000e+00 0.000000000000000e+00
0.000000000000000e+00 0.000000000000000e+00 0.000000000000000e+00
0.000000000000000e+00 0.000000000000000e+00 0.000000000000000e+00
0.000000000000000e+00 0.000000000000000e+00 0.000000000000000e+00
0.000000000000000e+00 0.000000000000000e+00 0.000000000000000e+00
0.000000000000000e+00 0.000000000000000e+00 0.000000000000000e+00
0.000000000000000e+00 0.000000000000000e+00 0.000000000000000e+00
0.000000000000000e+00 0.000000000000000e+00 0.000000000000000e+00
0.000000000000000e+00 0.000000000000000e+00 0.000000000000000e+00
0.000000000000000e+00 0.000000000000000e+00 0.000000000000000e+00
0.000000000000000e+00 0.000000000000000e+00 0.000000000000000e+00
0.000000000000000e+00 0.000000000000000e+00 0.000000000000000e+00
0.000000000000000e+00 0.000000000000000e+00 0.000000000000000e+00
0.000000000000000e+00 0.000000000000000e+00 0.000000000000000e+00
0.000000000000000e+00 0.000000000000000e+00 0.000000000000000e+00
0.000000000000000e+00 0.000000000000000e+00 0.000000000000000e+00
0.000000000000000e+00 0.000000000000000e+00 0.000000000000000e+00
0.000000000000000e+00 0.000000000000000e+00 0.000000000000000e+00
0.000000000000000e+00 0.000000000000000e+00 0.000000000000000e+00
0.000000000000000e+00 0.000000000000000e+00 0.000000000000000e+00
0.000000000000000e+00 0.000000000000000e+00 0.000000000000000e+00
0.000000000000000e+00 0.000000000000000e+00 0.000000000000000e+00
0.000000000000000e+00 0.000000000000000e+00 0.000000000000000e+00
0.000000000000000e+00 0.000000000000000e+00 0.000000000000000e+00
0.000000000000000e+00 0.000000000000000e+00 0.000000000000000e+00
0.000000000000000e+00 0.000000000000000e+00 0.000000000000000e+00
0.000000000000000e+00 0.000000000000000e+00 0.000000000000000e+00
0.000000000000000e+00 0.000000000000000e+00 0.000000000000000e+00
0.000000000000000e+00 0.000000000000000e+00 0.000000000000000e+00
0.000000000000000e+00 0.000000000000000e+00 0.000000000000000e+00
0.000000000000000e+00 0.000000000000000e+00 0.000000000000000e+00
0.000000000000000e+00 0.000000000000000e+00 0.000000000000000e+00
0.000000000000000e+00 0.000000000000000e+00 0.000000000000000e+00
0.000000000000000e+00 0.000000000000000e+00 0.000000000000000e+00
0.000000000000000e+00 0.000000000000000e+00 0.000000000000000e+00
0.000000000000000e+00 0.000000000000000e+00 0.000000000000000e+00
0.000000000000000e+00 0.000000000000000e+00 0.000000000000000e+00
0.000000000000000e+00 0.000000000000000e+00 0.000000000000000e+00
0.000000000000000e+00 0.000000000000000e+00 0.000000000000000e+00
0.000000000000000e+00 0.000000000000000e+00 0.000000000000000e+00
0.000000000000000e+00 0.000000000000000e+00 0.000000000000000e+00
0.000000000000000e+00 0.000000000000000e+00 0.000000000000000e+00
0.000000000000000e+00 0.000000000000000e+00 0.000000000000000e+00
0.000000000000000e+00 0.000000000000000e+00 0.000000000000000e+00
0.000000000000000e+00 0.000000000000000e+00 0.000000000000000e+00
0.000000000000000e+00 0.000000000000000e+00 0.000000000000000e+00
0.000000000000000e+00 0.000000000000000e+00 0.000000000000000e+00
0.000000000000000e+00 0.000000000000000e+00 0.000000000000000e+00
0.000000000000000e+00 0.000000000000000e+00 0.000000000000000e+00
0.000000000000000e+00 0.000000000000000e+00 0.000000000000000e+00
0.000000000000000e+00 0.000000000000000e+00 0.000000000000000e+00
0.000000000000000e+00 0.000000000000000e+00 0.000000000000000e+00
0.000000000000000e+00 0.000000000000000e+00 0.000000000000000e+00
0.000000000000000e+00 0.000000000000000e+00 0.000000000000000e+00
0.000000000000000e+00 0.000000000000000e+00 0.000000000000000e+00
0.000000000000000e+00 0.000000000000000e+00 0.000000000000000e+00
0.000000000000000e+00 0.000000000000000e+00 0.000000000000000e+00
0.000000000000000e+00 0.000000000000000e+00 0.000000000000000e+00
0.000000000000000e+00 0.000000000000000e+00 0.000000000000000e+00
0.000000000000000e+00 0.000000000000000e+00 0.000000000000000e+00
0.000000000000000e+00 0.000000000000000e+00 0.000000000000000e+00
0.000000000000000e+00 0.000000000000000e+00 0.000000000000000e+00
0.000000000000000e+00 0.000000000000000e+00 0.000000000000000e+00
0.000000000000000e+00 0.000000000000000e+00 0.000000000000000e+00
0.000000000000000e+00 0.000000000000000e+00 0.000000000000000e+00
0.000000000000000e+00 0.000000000000000e+00 0.000000000000000e+00
0.000000000000000e+00 0.000000000000000e+00 0.000000000000000e+00
0.000000000000000e+00 0.000000000000000e+00 0.000000000000000e+00
0.000000000000000e+00 0.000000000000000e+00 0.000000000000000e+00
0.000000000000000e+00 0.000000000000000e+00 0.000000000000000e+00
0.000000000000000e+00 0.000000000000000e+00 0.000000000000000e+00
0.000000000000000e+00 0.000000000000000e+00 0.000000000000000e+00
0.000000000000000e+00 0.000000000000000e+00 0.000000000000000e+00
0.000000000000000e+00 0.000000000000000e+00 0.000000000000000e+00
0.000000000000000e+00 0.000000000000000e+00 0.000000000000000e+00
0.000000000000000e+00 0.000000000000000e+00 0.000000000000000e+00
0.000000000000000e+00 0.000000000000000e+00 0.000000000000000e+00
0.000000000000000e+00 0.000000000000000e+00 0.000000000000000e+00
0.000000000000000e+00 0.000000000000000e+00 0.000000000000000e+00
0.000000000000000e+00 0.000000000000000e+00 0.000000000000000e+00
0.000000000000000e+00 0.000000000000000e+00 0.000000000000000e+00
0.000000000000000e+00 0.000000000000000e+00 0.000000000000000e+00
0.000000000000000e+00 0.000000000000000e+00 0.000000000000000e+00
0.000000000000000e+00 0.000000000000000e+00 0.000000000000000e+00
0.000000000000000e+00 0.000000000000000e+00 0.000000000000000e+00
0.000000000000000e+00 0.000000000000000e+00 0.000000000000000e+00
0.000000000000000e+00 0.000000000000000e+00 0.000000000000000e+00
0.000000000000000e+00 0.000000000000000e+00 0.000000000000000e+00
0.000000000000000e+00 0.000000000000000e+00 0.000000000000000e+00
0.000000000000000e+00 0.000000000000000e+00 0.000000000000000e+00
0.000000000000000e+00 0.000000000000000e+00 0.000000000000000e+00
0.000000000000000e+00 0.000000000000000e+00 0.000000000000000e+00
0.000000000000000e+00 0.000000000000000e+00 0.000000000000000e+00
0.000000000000000e+00 0.000000000000000e+00 0.000000000000000e+00
0.000000000000000e+00 0.000000000000000e+00 0.000000000000000e+00
0.000000000000000e+00 0.000000000000000e+00 0.000000000000000e+00
0.000000000000000e+00 0.000000000000000e+00 0.000000000000000e+00
0.000000000000000e+00 0.000000000000000e+00 0.000000000000000e+00
0.000000000000000e+00 0.000000000000000e+00 0.000000000000000e+00
0.000000000000000e+00 0.000000000000000e+00 0.000000000000000e+00
0.000000000000000e+00 0.000000000000000e+00 0.000000000000000e+00
0.000000000000000e+00 0.000000000000000e+00 0.000000000000000e+00
0.000000000000000e+00 0.000000000000000e+00 0.000000000000000e+00
0.000000000000000e+00 0.000000000000000e+00 0.000000000000000e+00
0.000000000000000e+00 0.000000000000000e+00 0.000000000000000e+00
0.000000000000000e+00 0.000000000000000e+00 0.000000000000000e+00
0.000000000000000e+00 0.000000000000000e+00 0.000000000000000e+00
0.000000000000000e+00 0.000000000000000e+00 0.000000000000000e+00
0.000000000000000e+00 0.000000000000000e+00 0.000000000000000e+00
0.000000000000000e+00 0.000000000000000e+00 0.000000000000000e+00
0.000000000000000e+00 0.000000000000000e+00 0.000000000000000e+00
0.000000000000000e+00 0.000000000000000e+00 0.000000000000000e+00
0.000000000000000e+00 0.000000000000000e+00 0.000000000000000e+00
0.000000000000000e+00 0.000000000000000e+00 0.000000000000000e+00
0.000000000000000e+00 0.000000000000000e+00 0.000000000000000e+00
0.000000000000000e+00 0.000000000000000e+00 0.000000000000000e+00
0.000000000000000e+00 0.000000000000000e+00 0.000000000000000e+00
0.000000000000000e+00 0.000000000000000e+00 0.000000000000000e+00
0.000000000000000e+00 0.000000000000000e+00 0.000000000000000e+00
0.000000000000000e+00 0.000000000000000e+00 0.000000000000000e+00
0.000000000000000e+00 0.000000000000000e+00 0.000000000000000e+00
0.000000000000000e+00 0.000000000000000e+00 0.000000000000000e+00
0.000000000000000e+00 0.000000000000000e+00 0.000000000000000e+00
0.000000000000000e+00 0.000000000000000e+00 0.000000000000000e+00
0.000000000000000e+00 0.000000000000000e+00 0.000000000000000e+00
0.000000000000000e+00 0.000000000000000e+00 0.000000000000000e+00
0.000000000000000e+00 0.000000000000000e+00 0.000000000000000e+00
0.000000000000000e+00 0.000000000000000e+00 0.000000000000000e+00
0.000000000000000e+00 0.000000000000000e+00 0.000000000000000e+00
0.000000000000000e+00 0.000000000000000e+00 0.000000000000000e+00
0.000000000000000e+00 0.000000000000000e+00 0.000000000000000e+00
0.000000000000000e+00 0.000000000000000e+00 0.000000000000000e+00
0.000000000000000e+00 0.000000000000000e+00 0.000000000000000e+00
0.000000000000000e+00 0.000000000000000e+00 0.000000000000000e+00
0.000000000000000e+00 0.000000000000000e+00 0.000000000000000e+00
0.000000000000000e+00 0.000000000000000e+00 0.000000000000000e+00
0.000000000000000e+00 0.000000000000000e+00 0.000000000000000e+00
0.000000000000000e+00 0.000000000000000e+00 0.000000000000000e+00
0.000000000000000e+00 0.000000000000000e+00 0.000000000000000e+00
0.000000000000000e+00 0.000000000000000e+00 0.000000000000000e+00
0.000000000000000e+00 0.000000000000000e+00 0.000000000000000e+00
0.000000000000000e+00 0.000000000000000e+00 0.000000000000000e+00
0.000000000000000e+00 0.000000000000000e+00 0.000000000000000e+00
0.000000000000000e+00 0.000000000000000e+00 0.000000000000000e+00
0.000000000000000e+00 0.000000000000000e+00 0.000000000000000e+00
0.000000000000000e+00 0.000000000000000e+00 0.000000000000000e+00
0.000000000000000e+00 0.000000000000000e+00 0.000000000000000e+00
0.000000000000000e+00 0.000000000000000e+00 0.000000000000000e+00
0.000000000000000e+00 0.000000000000000e+00 0.000000000000000e+00
0.000000000000000e+00 0.000000000000000e+00 0.000000000000000e+00
0.000000000000000e+00 0.000000000000000e+00 0.000000000000000e+00
0.000000000000000e+00 0.000000000000000e+00 0.000000000000000e+00
0.000000000000000e+00 0.000000000000000e+00 0.000000000000000e+00
0.000000000000000e+00 0.000000000000000e+00 0.000000000000000e+00
0.000000000000000e+00 0.000000000000000e+00 0.000000000000000e+00
0.000000000000000e+00 0.000000000000000e+00 0.000000000000000e+00
0.000000000000000e+00 0.000000000000000e+00 0.000000000000000e+00
0.000000000000000e+00 0.000000000000000e+00 0.000000000000000e+00
0.000000000000000e+00 0.000000000000000e+00 0.000000000000000e+00
0.000000000000000e+00 0.000000000000000e+00 0.000000000000000e+00
0.000000000000000e+00 0.000000000000000e+00 0.000000000000000e+00
0.000000000000000e+00 0.000000000000000e+00 0.000000000000000e+00
0.000000000000000e+00 0.000000000000000e+00 0.000000000000000e+00
0.000000000000000e+00 0.000000000000000e+00 0.000000000000000e+00
0.000000000000000e+00 0.000000000000000e+00 0.000000000000000e+00
0.000000000000000e+00 0.000000000000000e+00 0.000000000000000e+00
0.000000000000000e+00 0.000000000000000e+00 0.000000000000000e+00
0.000000000000000e+00 0.000000000000000e+00 0.000000000000000e+00
0.000000000000000e+00 0.000000000000000e+00 0.000000000000000e+00
0.000000000000000e+00 0.000000000000000e+00 0.000000000000000e+00
0.000000000000000e+00 0.000000000000000e+00 0.000000000000000e+00
0.000000000000000e+00 0.000000000000000e+00 0.000000000000000e+00
0.000000000000000e+00 0.000000000000000e+00 0.000000000000000e+00
0.000000000000000e+00 0.000000000000000e+00 0.000000000000000e+00
0.000000000000000e+00 0.000000000000000e+00 0.000000000000000e+00
0.000000000000000e+00 0.000000000000000e+00 0.000000000000000e+00
0.000000000000000e+00 0.000000000000000e+00 0.000000000000000e+00
0.000000000000000e+00 0.000000000000000e+00 0.000000000000000e+00
0.000000000000000e+00 0.000000000000000e+00 0.000000000000000e+00
0.000000000000000e+00 0.000000000000000e+00 0.000000000000000e+00
0.000000000000000e+00 0.000000000000000e+00 0.000000000000000e+00
0.000000000000000e+00 0.000000000000000e+00 0.000000000000000e+00
0.000000000000000e+00 0.000000000000000e+00 0.000000000000000e+00
0.000000000000000e+00 0.000000000000000e+00 0.000000000000000e+00
0.000000000000000e+00 0.000000000000000e+00 0.000000000000000e+00
0.000000000000000e+00 0.000000000000000e+00 0.000000000000000e+00
0.000000000000000e+00 0.000000000000000e+00 0.000000000000000e+00
0.000000000000000e+00 0.000000000000000e+00 0.000000000000000e+00
0.000000000000000e+00 0.000000000000000e+00 0.000000000000000e+00
0.000000000000000e+00 0.000000000000000e+00 0.000000000000000e+00
0.000000000000000e+00 0.000000000000000e+00 0.000000000000000e+00
0.000000000000000e+00 0.000000000000000e+00 0.000000000000000e+00
0.000000000000000e+00 0.000000000000000e+00 0.000000000000000e+00
0.000000000000000e+00 0.000000000000000e+00 0.000000000000000e+00
0.000000000000000e+00 0.000000000000000e+00 0.000000000000000e+00
0.000000000000000e+00 0.000000000000000e+00 0.000000000000000e+00
0.000000000000000e+00 0.000000000000000e+00 0.000000000000000e+00
0.000000000000000e+00 0.000000000000000e+00 0.000000000000000e+00
0.000000000000000e+00 0.000000000000000e+00 0.000000000000000e+00
0.000000000000000e+00 0.000000000000000e+00 0.000000000000000e+00
0.000000000000000e+00 0.000000000000000e+00 0.000000000000000e+00
0.000000000000000e+00 0.000000000000000e+00 0.000000000000000e+00
0.000000000000000e+00 0.000000000000000e+00 0.000000000000000e+00
0.000000000000000e+00 0.000000000000000e+00 0.000000000000000e+00
0.000000000000000e+00 0.000000000000000e+00 0.000000000000000e+00
0.000000000000000e+00 0.000000000000000e+00 0.000000000000000e+00
0.000000000000000e+00 0.000000000000000e+00 0.000000000000000e+00
0.000000000000000e+00 0.000000000000000e+00 0.000000000000000e+00
0.000000000000000e+00 0.000000000000000e+00 0.000000000000000e+00
0.000000000000000e+00 0.000000000000000e+00 0.000000000000000e+00
0.000000000000000e+00 0.000000000000000e+00 0.000000000000000e+00
0.000000000000000e+00 0.000000000000000e+00 0.000000000000000e+00
0.000000000000000e+00 0.000000000000000e+00 0.000000000000000e+00
0.000000000000000e+00 0.000000000000000e+00 0.000000000000000e+00
0.000000000000000e+00 0.000000000000000e+00 0.000000000000000e+00
0.000000000000000e+00 0.000000000000000e+00 0.000000000000000e+00
0.000000000000000e+00 0.000000000000000e+00 0.000000000000000e+00
0.000000000000000e+00 0.000000000000000e+00 0.000000000000000e+00
0.000000000000000e+00 0.000000000000000e+00 0.000000000000000e+00
0.000000000000000e+00 0.000000000000000e+00 0.000000000000000e+00
0.000000000000000e+00 0.000000000000000e+00 0.000000000000000e+00
0.000000000000000e+00 0.000000000000000e+00 0.000000000000000e+00
0.000000000000000e+00 0.000000000000000e+00 0.000000000000000e+00
0.000000000000000e+00 0.000000000000000e+00 0.000000000000000e+00
0.000000000000000e+00 0.000000000000000e+00 0.000000000000000e+00
0.000000000000000e+00 0.000000000000000e+00 0.000000000000000e+00
0.000000000000000e+00 0.000000000000000e+00 0.000000000000000e+00
0.000000000000000e+00 0.000000000000000e+00 0.000000000000000e+00
0.000000000000000e+00 0.000000000000000e+00 0.000000000000000e+00
0.000000000000000e+00 0.000000000000000e+00 0.000000000000000e+00
0.000000000000000e+00 0.000000000000000e+00 0.000000000000000e+00
0.000000000000000e+00 0.000000000000000e+00 0.000000000000000e+00
0.000000000000000e+00 0.000000000000000e+00 0.000000000000000e+00
0.000000000000000e+00 0.000000000000000e+00 0.000000000000000e+00
0.000000000000000e+00 0.000000000000000e+00 0.000000000000000e+00
0.000000000000000e+00 0.000000000000000e+00 0.000000000000000e+00
0.000000000000000e+00 0.000000000000000e+00 0.000000000000000e+00
0.000000000000000e+00 0.000000000000000e+00 0.000000000000000e+00
0.000000000000000e+00 0.000000000000000e+00 0.000000000000000e+00
0.000000000000000e+00 0.000000000000000e+00 0.000000000000000e+00
0.000000000000000e+00 0.000000000000000e+00 0.000000000000000e+00
0.000000000000000e+00 0.000000000000000e+00 0.000000000000000e+00
0.000000000000000e+00 0.000000000000000e+00 0.000000000000000e+00
0.000000000000000e+00 0.000000000000000e+00 0.000000000000000e+00
0.000000000000000e+00 0.000000000000000e+00 0.000000000000000e+00
0.000000000000000e+00 0.000000000000000e+00 0.000000000000000e+00
0.000000000000000e+00 0.000000000000000e+00 0.000000000000000e+00
0.000000000000000e+00 0.000000000000000e+00 0.000000000000000e+00
0.000000000000000e+00 0.000000000000000e+00 0.000000000000000e+00
0.000000000000000e+00 0.000000000000000e+00 0.000000000000000e+00
0.000000000000000e+00 0.000000000000000e+00 0.000000000000000e+00
0.000000000000000e+00 0.000000000000000e+00 0.000000000000000e+00
0.000000000000000e+00 0.000000000000000e+00 0.000000000000000e+00
0.000000000000000e+00 0.000000000000000e+00 0.000000000000000e+00
0.000000000000000e+00 0.000000000000000e+00 0.000000000000000e+00
0.000000000000000e+00 0.000000000000000e+00 0.000000000000000e+00
0.000000000000000e+00 0.000000000000000e+00 0.000000000000000e+00
0.000000000000000e+00 0.000000000000000e+00 0.000000000000000e+00
0.000000000000000e+00 0.000000000000000e+00 0.000000000000000e+00
0.000000000000000e+00 0.000000000000000e+00 0.000000000000000e+00
0.000000000000000e+00 0.000000000000000e+00 0.000000000000000e+00
0.000000000000000e+00 0.000000000000000e+00 0.000000000000000e+00
0.000000000000000e+00 0.000000000000000e+00 0.000000000000000e+00
0.000000000000000e+00 0.000000000000000e+00 0.000000000000000e+00
0.000000000000000e+00 0.000000000000000e+00 0.000000000000000e+00
0.000000000000000e+00 0.000000000000000e+00 0.000000000000000e+00
0.000000000000000e+00 0.000000000000000e+00 0.000000000000000e+00
0.000000000000000e+00 0.000000000000000e+00 0.000000000000000e+00
0.000000000000000e+00 0.000000000000000e+00 0.000000000000000e+00
0.000000000000000e+00 0.000000000000000e+00 0.000000000000000e+00
0.000000000000000e+00 0.000000000000000e+00 0.000000000000000e+00
0.000000000000000e+00 0.000000000000000e+00 0.000000000000000e+00
0.000000000000000e+00 0.000000000000000e+00 0.000000000000000e+00
0.000000000000000e+00 0.000000000000000e+00 0.000000000000000e+00
0.000000000000000e+00 0.000000000000000e+00 0.000000000000000e+00
0.000000000000000e+00 0.000000000000000e+00 0.000000000000000e+00
0.000000000000000e+00 0.000000000000000e+00 0.000000000000000e+00
0.000000000000000e+00 0.000000000000000e+00 0.000000000000000e+00
0.000000000000000e+00 0.000000000000000e+00 0.000000000000000e+00
0.000000000000000e+00 0.000000000000000e+00 0.000000000000000e+00
0.000000000000000e+00 0.000000000000000e+00 0.000000000000000e+00
0.000000000000000e+00 0.000000000000000e+00 0.000000000000000e+00
0.000000000000000e+00 0.000000000000000e+00 0.000000000000000e+00
0.000000000000000e+00 0.000000000000000e+00 0.000000000000000e+00
0.000000000000000e+00 0.000000000000000e+00 0.000000000000000e+00
0.000000000000000e+00 0.000000000000000e+00 0.000000000000000e+00
0.000000000000000e+00 0.000000000000000e+00 0.000000000000000e+00
0.000000000000000e+00 0.000000000000000e+00 0.000000000000000e+00
0.000000000000000e+00 0.000000000000000e+00 0.000000000000000e+00
0.000000000000000e+00 0.000000000000000e+00 0.000000000000000e+00
0.000000000000000e+00 0.000000000000000e+00 0.000000000000000e+00
0.000000000000000e+00 0.000000000000000e+00 0.000000000000000e+00
0.000000000000000e+00 0.000000000000000e+00 0.000000000000000e+00
0.000000000000000e+00 0.000000000000000e+00 0.000000000000000e+00
0.000000000000000e+00 0.000000000000000e+00 0.000000000000000e+00
0.000000000000000e+00 0.000000000000000e+00 0.000000000000000e+00
0.000000000000000e+00 0.000000000000000e+00 0.000000000000000e+00
0.000000000000000e+00 0.000000000000000e+00 0.000000000000000e+00
0.000000000000000e+00 0.000000000000000e+00 0.000000000000000e+00
0.000000000000000e+00 0.000000000000000e+00 0.000000000000000e+00
0.000000000000000e+00 0.000000000000000e+00 0.000000000000000e+00
0.000000000000000e+00 0.000000000000000e+00 0.000000000000000e+00
0.000000000000000e+00 0.000000000000000e+00 0.000000000000000e+00
0.000000000000000e+00 0.000000000000000e+00 0.000000000000000e+00
0.000000000000000e+00 0.000000000000000e+00 0.000000000000000e+00
0.000000000000000e+00 0.000000000000000e+00 0.000000000000000e+00
0.000000000000000e+00 0.000000000000000e+00 0.000000000000000e+00
0.000000000000000e+00 0.000000000000000e+00 0.000000000000000e+00
0.000000000000000e+00 0.000000000000000e+00 0.000000000000000e+00
0.000000000000000e+00 0.000000000000000e+00 0.000000000000000e+00
0.000000000000000e+00 0.000000000000000e+00 0.000000000000000e+00
0.000000000000000e+00 0.000000000000000e+00 0.000000000000000e+00
0.000000000000000e+00 0.000000000000000e+00 0.000000000000000e+00
0.000000000000000e+00 0.000000000000000e+00 0.000000000000000e+00
0.000000000000000e+00 0.000000000000000e+00 0.000000000000000e+00
0.000000000000000e+00 0.000000000000000e+00 0.000000000000000e+00
0.000000000000000e+00 0.000000000000000e+00 0.000000000000000e+00
0.000000000000000e+00 0.000000000000000e+00 0.000000000000000e+00
0.000000000000000e+00 0.000000000000000e+00 0.000000000000000e+00
0.000000000000000e+00 0.000000000000000e+00 0.000000000000000e+00
0.000000000000000e+00 0.000000000000000e+00 0.000000000000000e+00
0.000000000000000e+00 0.000000000000000e+00 0.000000000000000e+00
0.000000000000000e+00 0.000000000000000e+00 0.000000000000000e+00
0.000000000000000e+00 0.000000000000000e+00 0.000000000000000e+00
0.000000000000000e+00 0.000000000000000e+00 0.000000000000000e+00
0.000000000000000e+00 0.000000000000000e+00 0.000000000000000e+00
0.000000000000000e+00 0.000000000000000e+00 0.000000000000000e+00
0.000000000000000e+00 0.000000000000000e+00 0.000000000000000e+00
0.000000000000000e+00 0.000000000000000e+00 0.000000000000000e+00
0.000000000000000e+00 0.000000000000000e+00 0.000000000000000e+00
0.000000000000000e+00 0.000000000000000e+00 0.000000000000000e+00
0.000000000000000e+00 0.000000000000000e+00 0.000000000000000e+00
0.000000000000000e+00 0.000000000000000e+00 0.000000000000000e+00
0.000000000000000e+00 0.000000000000000e+00 0.000000000000000e+00
0.000000000000000e+00 0.000000000000000e+00 0.000000000000000e+00
0.000000000000000e+00 0.000000000000000e+00 0.000000000000000e+00
0.000000000000000e+00 0.000000000000000e+00 0.000000000000000e+00
0.000000000000000e+00 0.000000000000000e+00 0.000000000000000e+00
0.000000000000000e+00 0.000000000000000e+00 0.000000000000000e+00
0.000000000000000e+00 0.000000000000000e+00 0.000000000000000e+00
0.000000000000000e+00 0.000000000000000e+00 0.000000000000000e+00
0.000000000000000e+00 0.000000000000000e+00 0.000000000000000e+00
0.000000000000000e+00 0.000000000000000e+00 0.000000000000000e+00
0.000000000000000e+00 0.000000000000000e+00 0.000000000000000e+00
0.000000000000000e+00 0.000000000000000e+00 0.000000000000000e+00
0.000000000000000e+00 0.000000000000000e+00 0.000000000000000e+00
0.000000000000000e+00 0.000000000000000e+00 0.000000000000000e+00
0.000000000000000e+00 0.000000000000000e+00 0.000000000000000e+00
0.000000000000000e+00 0.000000000000000e+00 0.000000000000000e+00
0.000000000000000e+00 0.000000000000000e+00 0.000000000000000e+00
0.000000000000000e+00 0.000000000000000e+00 0.000000000000000e+00
0.000000000000000e+00 0.000000000000000e+00 0.000000000000000e+00
0.000000000000000e+00 0.000000000000000e+00 0.000000000000000e+00
0.000000000000000e+00 0.000000000000000e+00 0.000000000000000e+00
0.000000000000000e+00 0.000000000000000e+00 0.000000000000000e+00
0.000000000000000e+00 0.000000000000000e+00 0.000000000000000e+00
0.000000000000000e+00 0.000000000000000e+00 0.000000000000000e+00
0.000000000000000e+00 0.000000000000000e+00 0.000000000000000e+00
0.000000000000000e+00 0.000000000000000e+00 0.000000000000000e+00
0.000000000000000e+00 0.000000000000000e+00 0.000000000000000e+00
0.000000000000000e+00 0.000000000000000e+00 0.000000000000000e+00
0.000000000000000e+00 0.000000000000000e+00 0.000000000000000e+00
0.000000000000000e+00 0.000000000000000e+00 0.000000000000000e+00
0.000000000000000e+00 0.000000000000000e+00 0.000000000000000e+00
0.000000000000000e+00 0.000000000000000e+00 0.000000000000000e+00
0.000000000000000e+00 0.000000000000000e+00 0.000000000000000e+00
0.000000000000000e+00 0.000000000000000e+00 0.000000000000000e+00
0.000000000000000e+00 0.000000000000000e+00 0.000000000000000e+00
0.000000000000000e+00 0.000000000000000e+00 0.000000000000000e+00
0.000000000000000e+00 0.000000000000000e+00 0.000000000000000e+00
0.000000000000000e+00 0.000000000000000e+00 0.000000000000000e+00
0.000000000000000e+00 0.000000000000000e+00 0.000000000000000e+00
0.000000000000000e+00 0.000000000000000e+00 0.000000000000000e+00
0.000000000000000e+00 0.000000000000000e+00 0.000000000000000e+00
0.000000000000000e+00 0.000000000000000e+00 0.000000000000000e+00
0.000000000000000e+00 0.000000000000000e+00 0.000000000000000e+00
0.000000000000000e+00 0.000000000000000e+00 0.000000000000000e+00
0.000000000000000e+00 0.000000000000000e+00 0.000000000000000e+00
0.000000000000000e+00 0.000000000000000e+00 0.000000000000000e+00
0.000000000000000e+00 0.000000000000000e+00 0.000000000000000e+00
0.000000000000000e+00 0.000000000000000e+00 0.000000000000000e+00
0.000000000000000e+00 0.000000000000000e+00 0.000000000000000e+00
0.000000000000000e+00 0.000000000000000e+00 0.000000000000000e+00
0.000000000000000e+00 0.000000000000000e+00 0.000000000000000e+00
0.000000000000000e+00 0.000000000000000e+00 0.000000000000000e+00
0.000000000000000e+00 0.000000000000000e+00 0.000000000000000e+00
0.000000000000000e+00 0.000000000000000e+00 0.000000000000000e+00
0.000000000000000e+00 0.000000000000000e+00 0.000000000000000e+00
0.000000000000000e+00 0.000000000000000e+00 0.000000000000000e+00
0.000000000000000e+00 0.000000000000000e+00 0.000000000000000e+00
0.000000000000000e+00 0.000000000000000e+00 0.000000000000000e+00
0.000000000000000e+00 0.000000000000000e+00 0.000000000000000e+00
0.000000000000000e+00 0.000000000000000e+00 0.000000000000000e+00
0.000000000000000e+00 0.000000000000000e+00 0.000000000000000e+00
0.000000000000000e+00 0.000000000000000e+00 0.000000000000000e+00
0.000000000000000e+00 0.000000000000000e+00 0.000000000000000e+00
0.000000000000000e+00 0.000000000000000e+00 0.000000000000000e+00
0.000000000000000e+00 0.000000000000000e+00 0.000000000000000e+00
0.000000000000000e+00 0.000000000000000e+00 0.000000000000000e+00
0.000000000000000e+00 0.000000000000000e+00 0.000000000000000e+00
0.000000000000000e+00 0.000000000000000e+00 0.000000000000000e+00
0.000000000000000e+00 0.000000000000000e+00 0.000000000000000e+00
0.000000000000000e+00 0.000000000000000e+00 0.000000000000000e+00
0.000000000000000e+00 0.000000000000000e+00 0.000000000000000e+00
0.000000000000000e+00 0.000000000000000e+00 0.000000000000000e+00
0.000000000000000e+00 0.000000000000000e+00 0.000000000000000e+00
0.000000000000000e+00 0.000000000000000e+00 0.000000000000000e+00
0.000000000000000e+00 0.000000000000000e+00 0.000000000000000e+00
0.000000000000000e+00 0.000000000000000e+00 0.000000000000000e+00
0.000000000000000e+00 0.000000000000000e+00 0.000000000000000e+00
0.000000000000000e+00 0.000000000000000e+00 0.000000000000000e+00
0.000000000000000e+00 0.000000000000000e+00 0.000000000000000e+00
0.000000000000000e+00 0.000000000000000e+00 0.000000000000000e+00
0.000000000000000e+00 0.000000000000000e+00 0.000000000000000e+00
0.000000000000000e+00 0.000000000000000e+00 0.000000000000000e+00
0.000000000000000e+00 0.000000000000000e+00 0.000000000000000e+00
0.000000000000000e+00 0.000000000000000e+00 0.000000000000000e+00
0.000000000000000e+00 0.000000000000000e+00 0.000000000000000e+00
0.000000000000000e+00 0.000000000000000e+00 0.000000000000000e+00
0.000000000000000e+00 0.000000000000000e+00 0.000000000000000e+00
0.000000000000000e+00 0.000000000000000e+00 0.000000000000000e+00
0.000000000000000e+00 0.000000000000000e+00 0.000000000000000e+00
0.000000000000000e+00 0.000000000000000e+00 0.000000000000000e+00
0.000000000000000e+00 0.000000000000000e+00 0.000000000000000e+00
0.000000000000000e+00 0.000000000000000e+00 0.000000000000000e+00
0.000000000000000e+00 0.000000000000000e+00 0.000000000000000e+00
0.000000000000000e+00 0.000000000000000e+00 0.000000000000000e+00
0.000000000000000e+00 0.000000000000000e+00 0.000000000000000e+00
0.000000000000000e+00 0.000000000000000e+00 0.000000000000000e+00
0.000000000000000e+00 0.000000000000000e+00 0.000000000000000e+00
0.000000000000000e+00 0.000000000000000e+00 0.000000000000000e+00
0.000000000000000e+00 0.000000000000000e+00 0.000000000000000e+00
0.000000000000000e+00 0.000000000000000e+00 0.000000000000000e+00
0.000000000000000e+00 0.000000000000000e+00 0.000000000000000e+00
0.000000000000000e+00 0.000000000000000e+00 0.000000000000000e+00
0.000000000000000e+00 0.000000000000000e+00 0.000000000000000e+00
0.000000000000000e+00 0.000000000000000e+00 0.000000000000000e+00
0.000000000000000e+00 0.000000000000000e+00 0.000000000000000e+00
0.000000000000000e+00 0.000000000000000e+00 0.000000000000000e+00
0.000000000000000e+00 0.000000000000000e+00 0.000000000000000e+00
0.000000000000000e+00 0.000000000000000e+00 0.000000000000000e+00
0.000000000000000e+00 0.000000000000000e+00 0.000000000000000e+00
0.000000000000000e+00 0.000000000000000e+00 0.000000000000000e+00
0.000000000000000e+00 0.000000000000000e+00 0.000000000000000e+00
0.000000000000000e+00 0.000000000000000e+00 0.000000000000000e+00
0.000000000000000e+00 0.000000000000000e+00 0.000000000000000e+00
0.000000000000000e+00 0.000000000000000e+00 0.000000000000000e+00
0.000000000000000e+00 0.000000000000000e+00 0.000000000000000e+00
0.000000000000000e+00 0.000000000000000e+00 0.000000000000000e+00
0.000000000000000e+00 0.000000000000000e+00 0.000000000000000e+00
0.000000000000000e+00 0.000000000000000e+00 0.000000000000000e+00
0.000000000000000e+00 0.000000000000000e+00 0.000000000000000e+00
0.000000000000000e+00 0.000000000000000e+00 0.000000000000000e+00
0.000000000000000e+00 0.000000000000000e+00 0.000000000000000e+00
0.000000000000000e+00 0.000000000000000e+00 0.000000000000000e+00
0.000000000000000e+00 0.000000000000000e+00 0.000000000000000e+00
0.000000000000000e+00 0.000000000000000e+00 0.000000000000000e+00
0.000000000000000e+00 0.000000000000000e+00 0.000000000000000e+00
0.000000000000000e+00 0.000000000000000e+00 0.000000000000000e+00
0.000000000000000e+00 0.000000000000000e+00 0.000000000000000e+00
0.000000000000000e+00 0.000000000000000e+00 0.000000000000000e+00
0.000000000000000e+00 0.000000000000000e+00 0.000000000000000e+00
0.000000000000000e+00 0.000000000000000e+00 0.000000000000000e+00
0.000000000000000e+00 0.000000000000000e+00 0.000000000000000e+00
0.000000000000000e+00 0.000000000000000e+00 0.000000000000000e+00
0.000000000000000e+00 0.000000000000000e+00 0.000000000000000e+00
0.000000000000000e+00 0.000000000000000e+00 0.000000000000000e+00
0.000000000000000e+00 0.000000000000000e+00 0.000000000000000e+00
0.000000000000000e+00 0.000000000000000e+00 0.000000000000000e+00
0.000000000000000e+00 0.000000000000000e+00 0.000000000000000e+00
0.000000000000000e+00 0.000000000000000e+00 0.000000000000000e+00
0.000000000000000e+00 0.000000000000000e+00 0.000000000000000e+00
0.000000000000000e+00 0.000000000000000e+00 0.000000000000000e+00
0.000000000000000e+00 0.000000000000000e+00 0.000000000000000e+00
0.000000000000000e+00 0.000000000000000e+00 0.000000000000000e+00
0.000000000000000e+00 0.000000000000000e+00 0.000000000000000e+00
0.000000000000000e+00 0.000000000000000e+00 0.000000000000000e+00
0.000000000000000e+00 0.000000000000000e+00 0.000000000000000e+00
0.000000000000000e+00 0.000000000000000e+00 0.000000000000000e+00
0.000000000000000e+00 0.000000000000000e+00 0.000000000000000e+00
0.000000000000000e+00 0.000000000000000e+00 0.000000000000000e+00
0.000000000000000e+00 0.000000000000000e+00 0.000000000000000e+00
0.000000000000000e+00 0.000000000000000e+00 0.000000000000000e+00
0.000000000000000e+00 0.000000000000000e+00 0.000000000000000e+00
0.000000000000000e+00 0.000000000000000e+00 0.000000000000000e+00
0.000000000000000e+00 0.000000000000000e+00 0.000000000000000e+00
0.000000000000000e+00 0.000000000000000e+00 0.000000000000000e+00
0.000000000000000e+00 0.000000000000000e+00 0.000000000000000e+00
0.000000000000000e+00 0.000000000000000e+00 0.000000000000000e+00
0.000000000000000e+00 0.000000000000000e+00 0.000000000000000e+00
0.000000000000000e+00 0.000000000000000e+00 0.000000000000000e+00
0.000000000000000e+00 0.000000000000000e+00 0.000000000000000e+00
0.000000000000000e+00 0.000000000000000e+00 0.000000000000000e+00
0.000000000000000e+00 0.000000000000000e+00 0.000000000000000e+00
0.000000000000000e+00 0.000000000000000e+00 0.000000000000000e+00
0.000000000000000e+00 0.000000000000000e+00 0.000000000000000e+00
0.000000000000000e+00 0.000000000000000e+00 0.000000000000000e+00
0.000000000000000e+00 0.000000000000000e+00 0.000000000000000e+00
0.000000000000000e+00 0.000000000000000e+00 0.000000000000000e+00
0.000000000000000e+00 0.000000000000000e+00 0.000000000000000e+00
0.000000000000000e+00 0.000000000000000e+00 0.000000000000000e+00
0.000000000000000e+00 0.000000000000000e+00 0.000000000000000e+00
0.000000000000000e+00 0.000000000000000e+00 0.000000000000000e+00
0.000000000000000e+00 0.000000000000000e+00 0.000000000000000e+00
0.000000000000000e+00 0.000000000000000e+00 0.000000000000000e+00
0.000000000000000e+00 0.000000000000000e+00 0.000000000000000e+00
0.000000000000000e+00 0.000000000000000e+00 0.000000000000000e+00
0.000000000000000e+00 0.000000000000000e+00 0.000000000000000e+00
0.000000000000000e+00 0.000000000000000e+00 0.000000000000000e+00
0.000000000000000e+00 0.000000000000000e+00 0.000000000000000e+00
0.000000000000000e+00 0.000000000000000e+00 0.000000000000000e+00
0.000000000000000e+00 0.000000000000000e+00 0.000000000000000e+00
0.000000000000000e+00 0.000000000000000e+00 0.000000000000000e+00
0.000000000000000e+00 0.000000000000000e+00 0.000000000000000e+00
0.000000000000000e+00 0.000000000000000e+00 0.000000000000000e+00
0.000000000000000e+00 0.000000000000000e+00 0.000000000000000e+00
0.000000000000000e+00 0.000000000000000e+00 0.000000000000000e+00
0.000000000000000e+00 0.000000000000000e+00 0.000000000000000e+00
0.000000000000000e+00 0.000000000000000e+00 0.000000000000000e+00
0.000000000000000e+00 0.000000000000000e+00 0.000000000000000e+00
0.000000000000000e+00 0.000000000000000e+00 0.000000000000000e+00
0.000000000000000e+00 0.000000000000000e+00 0.000000000000000e+00
0.000000000000000e+00 0.000000000000000e+00 0.000000000000000e+00
0.000000000000000e+00 0.000000000000000e+00 0.000000000000000e+00
0.000000000000000e+00 0.000000000000000e+00 0.000000000000000e+00
0.000000000000000e+00 0.000000000000000e+00 0.000000000000000e+00
0.000000000000000e+00 0.000000000000000e+00 0.000000000000000e+00
0.000000000000000e+00 0.000000000000000e+00 0.000000000000000e+00
0.000000000000000e+00 0.000000000000000e+00 0.000000000000000e+00
0.000000000000000e+00 0.000000000000000e+00 0.000000000000000e+00
0.000000000000000e+00 0.000000000000000e+00 0.000000000000000e+00
0.000000000000000e+00 0.000000000000000e+00 0.000000000000000e+00
0.000000000000000e+00 0.000000000000000e+00 0.000000000000000e+00
0.000000000000000e+00 0.000000000000000e+00 0.000000000000000e+00
0.000000000000000e+00 0.000000000000000e+00 0.000000000000000e+00
0.000000000000000e+00 0.000000000000000e+00 0.000000000000000e+00
0.000000000000000e+00 0.000000000000000e+00 0.000000000000000e+00
0.000000000000000e+00 0.000000000000000e+00 0.000000000000000e+00
0.000000000000000e+00 0.000000000000000e+00 0.000000000000000e+00
0.000000000000000e+00 0.000000000000000e+00 0.000000000000000e+00
0.000000000000000e+00 0.000000000000000e+00 0.000000000000000e+00
0.000000000000000e+00 0.000000000000000e+00 0.000000000000000e+00
0.000000000000000e+00 0.000000000000000e+00 0.000000000000000e+00
0.000000000000000e+00 0.000000000000000e+00 0.000000000000000e+00
0.000000000000000e+00 0.000000000000000e+00 0.000000000000000e+00
0.000000000000000e+00 0.000000000000000e+00 0.000000000000000e+00
0.000000000000000e+00 0.000000000000000e+00 0.000000000000000e+00
0.000000000000000e+00 0.000000000000000e+00 0.000000000000000e+00
0.000000000000000e+00 0.000000000000000e+00 0.000000000000000e+00
0.000000000000000e+00 0.000000000000000e+00 0.000000000000000e+00
0.000000000000000e+00 0.000000000000000e+00 0.000000000000000e+00
0.000000000000000e+00 0.000000000000000e+00 0.000000000000000e+00
0.000000000000000e+00 0.000000000000000e+00 0.000000000000000e+00
0.000000000000000e+00 0.000000000000000e+00 0.000000000000000e+00
0.000000000000000e+00 0.000000000000000e+00 0.000000000000000e+00
0.000000000000000e+00 0.000000000000000e+00 0.000000000000000e+00
0.000000000000000e+00 0.000000000000000e+00 0.000000000000000e+00
0.000000000000000e+00 0.000000000000000e+00 0.000000000000000e+00
0.000000000000000e+00 0.000000000000000e+00 0.000000000000000e+00
0.000000000000000e+00 0.000000000000000e+00 0.000000000000000e+00
0.000000000000000e+00 0.000000000000000e+00 0.000000000000000e+00
0.000000000000000e+00 0.000000000000000e+00 0.000000000000000e+00
0.000000000000000e+00 0.000000000000000e+00 0.000000000000000e+00
0.000000000000000e+00 0.000000000000000e+00 0.000000000000000e+00
0.000000000000000e+00 0.000000000000000e+00 0.000000000000000e+00
0.000000000000000e+00 0.000000000000000e+00 0.000000000000000e+00
0.000000000000000e+00 0.000000000000000e+00 0.000000000000000e+00
0.000000000000000e+00 0.000000000000000e+00 0.000000000000000e+00
0.000000000000000e+00 0.000000000000000e+00 0.000000000000000e+00
0.000000000000000e+00 0.000000000000000e+00 0.000000000000000e+00
0.000000000000000e+00 0.000000000000000e+00 0.000000000000000e+00
0.000000000000000e+00 0.000000000000000e+00 0.000000000000000e+00
0.000000000000000e+00 0.000000000000000e+00 0.000000000000000e+00
0.000000000000000e+00 0.000000000000000e+00 0.000000000000000e+00
0.000000000000000e+00 0.000000000000000e+00 0.000000000000000e+00
0.000000000000000e+00 0.000000000000000e+00 0.000000000000000e+00
0.000000000000000e+00 0.000000000000000e+00 0.000000000000000e+00
0.000000000000000e+00 0.000000000000000e+00 0.000000000000000e+00
0.000000000000000e+00 0.000000000000000e+00 0.000000000000000e+00
0.000000000000000e+00 0.000000000000000e+00 0.000000000000000e+00
0.000000000000000e+00 0.000000000000000e+00 0.000000000000000e+00
0.000000000000000e+00 0.000000000000000e+00 0.000000000000000e+00
0.000000000000000e+00 0.000000000000000e+00 0.000000000000000e+00
0.000000000000000e+00 0.000000000000000e+00 0.000000000000000e+00
0.000000000000000e+00 0.000000000000000e+00 0.000000000000000e+00
0.000000000000000e+00 0.000000000000000e+00 0.000000000000000e+00
0.000000000000000e+00 0.000000000000000e+00 0.000000000000000e+00
0.000000000000000e+00 0.000000000000000e+00 0.000000000000000e+00
0.000000000000000e+00 0.000000000000000e+00 0.000000000000000e+00
0.000000000000000e+00 0.000000000000000e+00 0.000000000000000e+00
0.000000000000000e+00 0.000000000000000e+00 0.000000000000000e+00
0.000000000000000e+00 0.000000000000000e+00 0.000000000000000e+00
0.000000000000000e+00 0.000000000000000e+00 0.000000000000000e+00
0.000000000000000e+00 0.000000000000000e+00 0.000000000000000e+00
0.000000000000000e+00 0.000000000000000e+00 0.000000000000000e+00
0.000000000000000e+00 0.000000000000000e+00 0.000000000000000e+00
0.000000000000000e+00 0.000000000000000e+00 0.000000000000000e+00
0.000000000000000e+00 0.000000000000000e+00 0.000000000000000e+00
0.000000000000000e+00 0.000000000000000e+00 0.000000000000000e+00
0.000000000000000e+00 0.000000000000000e+00 0.000000000000000e+00
0.000000000000000e+00 0.000000000000000e+00 0.000000000000000e+00
0.000000000000000e+00 0.000000000000000e+00 0.000000000000000e+00
0.000000000000000e+00 0.000000000000000e+00 0.000000000000000e+00
0.000000000000000e+00 0.000000000000000e+00 0.000000000000000e+00
0.000000000000000e+00 0.000000000000000e+00 0.000000000000000e+00
0.000000000000000e+00 0.000000000000000e+00 0.000000000000000e+00
0.000000000000000e+00 0.000000000000000e+00 0.000000000000000e+00
0.000000000000000e+00 0.000000000000000e+00 0.000000000000000e+00
0.000000000000000e+00 0.000000000000000e+00 0.000000000000000e+00
0.000000000000000e+00 0.000000000000000e+00 0.000000000000000e+00
0.000000000000000e+00 0.000000000000000e+00 0.000000000000000e+00
0.000000000000000e+00 0.000000000000000e+00 0.000000000000000e+00
0.000000000000000e+00 0.000000000000000e+00 0.000000000000000e+00
0.000000000000000e+00 0.000000000000000e+00 0.000000000000000e+00
0.000000000000000e+00 0.000000000000000e+00 0.000000000000000e+00
0.000000000000000e+00 0.000000000000000e+00 0.000000000000000e+00
0.000000000000000e+00 0.000000000000000e+00 0.000000000000000e+00
0.000000000000000e+00 0.000000000000000e+00 0.000000000000000e+00
0.000000000000000e+00 0.000000000000000e+00 0.000000000000000e+00
0.000000000000000e+00 0.000000000000000e+00 0.000000000000000e+00
0.000000000000000e+00 0.000000000000000e+00 0.000000000000000e+00
0.000000000000000e+00 0.000000000000000e+00 0.000000000000000e+00
0.000000000000000e+00 0.000000000000000e+00 0.000000000000000e+00
0.000000000000000e+00 0.000000000000000e+00 0.000000000000000e+00
0.000000000000000e+00 0.000000000000000e+00 0.000000000000000e+00
0.000000000000000e+00 0.000000000000000e+00 0.000000000000000e+00
0.000000000000000e+00 0.000000000000000e+00 0.000000000000000e+00
0.000000000000000e+00 0.000000000000000e+00 0.000000000000000e+00
0.000000000000000e+00 0.000000000000000e+00 0.000000000000000e+00
0.000000000000000e+00 0.000000000000000e+00 0.000000000000000e+00
0.000000000000000e+00 0.000000000000000e+00 0.000000000000000e+00
0.000000000000000e+00 0.000000000000000e+00 0.000000000000000e+00
0.000000000000000e+00 0.000000000000000e+00 0.000000000000000e+00
0.000000000000000e+00 0.000000000000000e+00 0.000000000000000e+00
0.000000000000000e+00 0.000000000000000e+00 0.000000000000000e+00
0.000000000000000e+00 0.000000000000000e+00 0.000000000000000e+00
0.000000000000000e+00 0.000000000000000e+00 0.000000000000000e+00
0.000000000000000e+00 0.000000000000000e+00 0.000000000000000e+00
0.000000000000000e+00 0.000000000000000e+00 0.000000000000000e+00
0.000000000000000e+00 0.000000000000000e+00 0.000000000000000e+00
0.000000000000000e+00 0.000000000000000e+00 0.000000000000000e+00
0.000000000000000e+00 0.000000000000000e+00 0.000000000000000e+00
0.000000000000000e+00 0.000000000000000e+00 0.000000000000000e+00
0.000000000000000e+00 0.000000000000000e+00 0.000000000000000e+00
0.000000000000000e+00 0.000000000000000e+00 0.000000000000000e+00
0.000000000000000e+00 0.000000000000000e+00 0.000000000000000e+00
0.000000000000000e+00 0.000000000000000e+00 0.000000000000000e+00
0.000000000000000e+00 0.000000000000000e+00 0.000000000000000e+00
0.000000000000000e+00 0.000000000000000e+00 0.000000000000000e+00
0.000000000000000e+00 0.000000000000000e+00 0.000000000000000e+00
0.000000000000000e+00 0.000000000000000e+00 0.000000000000000e+00
0.000000000000000e+00 0.000000000000000e+00 0.000000000000000e+00
0.000000000000000e+00 0.000000000000000e+00 0.000000000000000e+00
0.000000000000000e+00 0.000000000000000e+00 0.000000000000000e+00
0.000000000000000e+00 0.000000000000000e+00 0.000000000000000e+00
0.000000000000000e+00 0.000000000000000e+00 0.000000000000000e+00
0.000000000000000e+00 0.000000000000000e+00 0.000000000000000e+00
0.000000000000000e+00 0.000000000000000e+00 0.000000000000000e+00
0.000000000000000e+00 0.000000000000000e+00 0.000000000000000e+00
0.000000000000000e+00 0.000000000000000e+00 0.000000000000000e+00
0.000000000000000e+00 0.000000000000000e+00 0.000000000000000e+00
0.000000000000000e+00 0.000000000000000e+00 0.000000000000000e+00
0.000000000000000e+00 0.000000000000000e+00 0.000000000000000e+00
0.000000000000000e+00 0.000000000000000e+00 0.000000000000000e+00
0.000000000000000e+00 0.000000000000000e+00 0.000000000000000e+00
0.000000000000000e+00 0.000000000000000e+00 0.000000000000000e+00
0.000000000000000e+00 0.000000000000000e+00 0.000000000000000e+00
0.000000000000000e+00 0.000000000000000e+00 0.000000000000000e+00
0.000000000000000e+00 0.000000000000000e+00 0.000000000000000e+00
0.000000000000000e+00 0.000000000000000e+00 0.000000000000000e+00
0.000000000000000e+00 0.000000000000000e+00 0.000000000000000e+00
0.000000000000000e+00 0.000000000000000e+00 0.000000000000000e+00
0.000000000000000e+00 0.000000000000000e+00 0.000000000000000e+00
0.000000000000000e+00 0.000000000000000e+00 0.000000000000000e+00
0.000000000000000e+00 0.000000000000000e+00 0.000000000000000e+00
0.000000000000000e+00 0.000000000000000e+00 0.000000000000000e+00
0.000000000000000e+00 0.000000000000000e+00 0.000000000000000e+00
0.000000000000000e+00 0.000000000000000e+00 0.000000000000000e+00
0.000000000000000e+00 0.000000000000000e+00 0.000000000000000e+00
0.000000000000000e+00 0.000000000000000e+00 0.000000000000000e+00
0.000000000000000e+00 0.000000000000000e+00 0.000000000000000e+00
0.000000000000000e+00 0.000000000000000e+00 0.000000000000000e+00
0.000000000000000e+00 0.000000000000000e+00 0.000000000000000e+00
0.000000000000000e+00 0.000000000000000e+00 0.000000000000000e+00
0.000000000000000e+00 0.000000000000000e+00 0.000000000000000e+00
0.000000000000000e+00 0.000000000000000e+00 0.000000000000000e+00
0.000000000000000e+00 0.000000000000000e+00 0.000000000000000e+00
0.000000000000000e+00 0.000000000000000e+00 0.000000000000000e+00
0.000000000000000e+00 0.000000000000000e+00 0.000000000000000e+00
0.000000000000000e+00 0.000000000000000e+00 0.000000000000000e+00
0.000000000000000e+00 0.000000000000000e+00 0.000000000000000e+00
0.000000000000000e+00 0.000000000000000e+00 0.000000000000000e+00
0.000000000000000e+00 0.000000000000000e+00 0.000000000000000e+00
0.000000000000000e+00 0.000000000000000e+00 0.000000000000000e+00
0.000000000000000e+00 0.000000000000000e+00 0.000000000000000e+00
0.000000000000000e+00 0.000000000000000e+00 0.000000000000000e+00
0.000000000000000e+00 0.000000000000000e+00 0.000000000000000e+00
0.000000000000000e+00 0.000000000000000e+00 0.000000000000000e+00
0.000000000000000e+00 0.000000000000000e+00 0.000000000000000e+00
0.000000000000000e+00 0.000000000000000e+00 0.000000000000000e+00
0.000000000000000e+00 0.000000000000000e+00 0.000000000000000e+00
0.000000000000000e+00 0.000000000000000e+00 0.000000000000000e+00
0.000000000000000e+00 0.000000000000000e+00 0.000000000000000e+00
0.000000000000000e+00 0.000000000000000e+00 0.000000000000000e+00
0.000000000000000e+00 0.000000000000000e+00 0.000000000000000e+00
0.000000000000000e+00 0.000000000000000e+00 0.000000000000000e+00
0.000000000000000e+00 0.000000000000000e+00 0.000000000000000e+00
0.000000000000000e+00 0.000000000000000e+00 0.000000000000000e+00
0.000000000000000e+00 0.000000000000000e+00 0.000000000000000e+00
0.000000000000000e+00 0.000000000000000e+00 0.000000000000000e+00
0.000000000000000e+00 0.000000000000000e+00 0.000000000000000e+00
0.000000000000000e+00 0.000000000000000e+00 0.000000000000000e+00
0.000000000000000e+00 0.000000000000000e+00 0.000000000000000e+00
0.000000000000000e+00 0.000000000000000e+00 0.000000000000000e+00
0.000000000000000e+00 0.000000000000000e+00 0.000000000000000e+00
0.000000000000000e+00 0.000000000000000e+00 0.000000000000000e+00
0.000000000000000e+00 0.000000000000000e+00 0.000000000000000e+00
0.000000000000000e+00 0.000000000000000e+00 0.000000000000000e+00
0.000000000000000e+00 0.000000000000000e+00 0.000000000000000e+00
0.000000000000000e+00 0.000000000000000e+00 0.000000000000000e+00
0.000000000000000e+00 0.000000000000000e+00 0.000000000000000e+00
0.000000000000000e+00 0.000000000000000e+00 0.000000000000000e+00
0.000000000000000e+00 0.000000000000000e+00 0.000000000000000e+00
0.000000000000000e+00 0.000000000000000e+00 0.000000000000000e+00
0.000000000000000e+00 0.000000000000000e+00 0.000000000000000e+00
0.000000000000000e+00 0.000000000000000e+00 0.000000000000000e+00
0.000000000000000e+00 0.000000000000000e+00 0.000000000000000e+00
0.000000000000000e+00 0.000000000000000e+00 0.000000000000000e+00
0.000000000000000e+00 0.000000000000000e+00 0.000000000000000e+00
0.000000000000000e+00 0.000000000000000e+00 0.000000000000000e+00
0.000000000000000e+00 0.000000000000000e+00 0.000000000000000e+00
0.000000000000000e+00 0.000000000000000e+00 0.000000000000000e+00
0.000000000000000e+00 0.000000000000000e+00 0.000000000000000e+00
0.000000000000000e+00 0.000000000000000e+00 0.000000000000000e+00
0.000000000000000e+00 0.000000000000000e+00 0.000000000000000e+00
0.000000000000000e+00 0.000000000000000e+00 0.000000000000000e+00
0.000000000000000e+00 0.000000000000000e+00 0.000000000000000e+00
0.000000000000000e+00 0.000000000000000e+00 0.000000000000000e+00
0.000000000000000e+00 0.000000000000000e+00 0.000000000000000e+00
0.000000000000000e+00 0.000000000000000e+00 0.000000000000000e+00
0.000000000000000e+00 0.000000000000000e+00 0.000000000000000e+00
0.000000000000000e+00 0.000000000000000e+00 0.000000000000000e+00
0.000000000000000e+00 0.000000000000000e+00 0.000000000000000e+00
0.000000000000000e+00 0.000000000000000e+00 0.000000000000000e+00
0.000000000000000e+00 0.000000000000000e+00 0.000000000000000e+00
0.000000000000000e+00 0.000000000000000e+00 0.000000000000000e+00
0.000000000000000e+00 0.000000000000000e+00 0.000000000000000e+00
0.000000000000000e+00 0.000000000000000e+00 0.000000000000000e+00
0.000000000000000e+00 0.000000000000000e+00 0.000000000000000e+00
0.000000000000000e+00 0.000000000000000e+00 0.000000000000000e+00
0.000000000000000e+00 0.000000000000000e+00 0.000000000000000e+00
0.000000000000000e+00 0.000000000000000e+00 0.000000000000000e+00
0.000000000000000e+00 0.000000000000000e+00 0.000000000000000e+00
0.000000000000000e+00 0.000000000000000e+00 0.000000000000000e+00
0.000000000000000e+00 0.000000000000000e+00 0.000000000000000e+00
0.000000000000000e+00 0.000000000000000e+00 0.000000000000000e+00
0.000000000000000e+00 0.000000000000000e+00 0.000000000000000e+00
0.000000000000000e+00 0.000000000000000e+00 0.000000000000000e+00
0.000000000000000e+00 0.000000000000000e+00 0.000000000000000e+00
0.000000000000000e+00 0.000000000000000e+00 0.000000000000000e+00
0.000000000000000e+00 0.000000000000000e+00 0.000000000000000e+00
0.000000000000000e+00 0.000000000000000e+00 0.000000000000000e+00
0.000000000000000e+00 0.000000000000000e+00 0.000000000000000e+00
0.000000000000000e+00 0.000000000000000e+00 0.000000000000000e+00
0.000000000000000e+00 0.000000000000000e+00 0.000000000000000e+00
0.000000000000000e+00 0.000000000000000e+00 0.000000000000000e+00
0.000000000000000e+00 0.000000000000000e+00 0.000000000000000e+00
0.000000000000000e+00 0.000000000000000e+00 0.000000000000000e+00
0.000000000000000e+00 0.000000000000000e+00 0.000000000000000e+00
0.000000000000000e+00 0.000000000000000e+00 0.000000000000000e+00
0.000000000000000e+00 0.000000000000000e+00 0.000000000000000e+00
0.000000000000000e+00 0.000000000000000e+00 0.000000000000000e+00
0.000000000000000e+00 0.000000000000000e+00 0.000000000000000e+00
0.000000000000000e+00 0.000000000000000e+00 0.000000000000000e+00
0.000000000000000e+00 0.000000000000000e+00 0.000000000000000e+00
0.000000000000000e+00 0.000000000000000e+00 0.000000000000000e+00
0.000000000000000e+00 0.000000000000000e+00 0.000000000000000e+00
0.000000000000000e+00 0.000000000000000e+00 0.000000000000000e+00
0.000000000000000e+00 0.000000000000000e+00 0.000000000000000e+00
0.000000000000000e+00 0.000000000000000e+00 0.000000000000000e+00
0.000000000000000e+00 0.000000000000000e+00 0.000000000000000e+00
0.000000000000000e+00 0.000000000000000e+00 0.000000000000000e+00
0.000000000000000e+00 0.000000000000000e+00 0.000000000000000e+00
0.000000000000000e+00 0.000000000000000e+00 0.000000000000000e+00
0.000000000000000e+00 0.000000000000000e+00 0.000000000000000e+00
0.000000000000000e+00 0.000000000000000e+00 0.000000000000000e+00
0.000000000000000e+00 0.000000000000000e+00 0.000000000000000e+00
0.000000000000000e+00 0.000000000000000e+00 0.000000000000000e+00
0.000000000000000e+00 0.000000000000000e+00 0.000000000000000e+00
0.000000000000000e+00 0.000000000000000e+00 0.000000000000000e+00
0.000000000000000e+00 0.000000000000000e+00 0.000000000000000e+00
0.000000000000000e+00 0.000000000000000e+00 0.000000000000000e+00
0.000000000000000e+00 0.000000000000000e+00 0.000000000000000e+00
0.000000000000000e+00 0.000000000000000e+00 0.000000000000000e+00
0.000000000000000e+00 0.000000000000000e+00 0.000000000000000e+00
0.000000000000000e+00 0.000000000000000e+00 0.000000000000000e+00
0.000000000000000e+00 0.000000000000000e+00 0.000000000000000e+00
0.000000000000000e+00 0.000000000000000e+00 0.000000000000000e+00
0.000000000000000e+00 0.000000000000000e+00 0.000000000000000e+00
0.000000000000000e+00 0.000000000000000e+00 0.000000000000000e+00
0.000000000000000e+00 0.000000000000000e+00 0.000000000000000e+00
0.000000000000000e+00 0.000000000000000e+00 0.000000000000000e+00
0.000000000000000e+00 0.000000000000000e+00 0.000000000000000e+00
0.000000000000000e+00 0.000000000000000e+00 0.000000000000000e+00
0.000000000000000e+00 0.000000000000000e+00 0.000000000000000e+00
0.000000000000000e+00 0.000000000000000e+00 0.000000000000000e+00
0.000000000000000e+00 0.000000000000000e+00 0.000000000000000e+00
0.000000000000000e+00 0.000000000000000e+00 0.000000000000000e+00
0.000000000000000e+00 0.000000000000000e+00 0.000000000000000e+00
0.000000000000000e+00 0.000000000000000e+00 0.000000000000000e+00
0.000000000000000e+00 0.000000000000000e+00 0.000000000000000e+00
0.000000000000000e+00 0.000000000000000e+00 0.000000000000000e+00
0.000000000000000e+00 0.000000000000000e+00 0.000000000000000e+00
0.000000000000000e+00 0.000000000000000e+00 0.000000000000000e+00
0.000000000000000e+00 0.000000000000000e+00 0.000000000000000e+00
0.000000000000000e+00 0.000000000000000e+00 0.000000000000000e+00
0.000000000000000e+00 0.000000000000000e+00 0.000000000000000e+00
0.000000000000000e+00 0.000000000000000e+00 0.000000000000000e+00
0.000000000000000e+00 0.000000000000000e+00 0.000000000000000e+00
0.000000000000000e+00 0.000000000000000e+00 0.000000000000000e+00
0.000000000000000e+00 0.000000000000000e+00 0.000000000000000e+00
0.000000000000000e+00 0.000000000000000e+00 0.000000000000000e+00
0.000000000000000e+00 0.000000000000000e+00 0.000000000000000e+00
0.000000000000000e+00 0.000000000000000e+00 0.000000000000000e+00
0.000000000000000e+00 0.000000000000000e+00 0.000000000000000e+00
0.000000000000000e+00 0.000000000000000e+00 0.000000000000000e+00
0.000000000000000e+00 0.000000000000000e+00 0.000000000000000e+00
0.000000000000000e+00 0.000000000000000e+00 0.000000000000000e+00
0.000000000000000e+00 0.000000000000000e+00 0.000000000000000e+00
0.000000000000000e+00 0.000000000000000e+00 0.000000000000000e+00
0.000000000000000e+00 0.000000000000000e+00 0.000000000000000e+00
0.000000000000000e+00 0.000000000000000e+00 0.000000000000000e+00
0.000000000000000e+00 0.000000000000000e+00 0.000000000000000e+00
0.000000000000000e+00 0.000000000000000e+00 0.000000000000000e+00
0.000000000000000e+00 0.000000000000000e+00 0.000000000000000e+00
0.000000000000000e+00 0.000000000000000e+00 0.000000000000000e+00
0.000000000000000e+00 0.000000000000000e+00 0.000000000000000e+00
0.000000000000000e+00 0.000000000000000e+00 0.000000000000000e+00
0.000000000000000e+00 0.000000000000000e+00 0.000000000000000e+00
0.000000000000000e+00 0.000000000000000e+00 0.000000000000000e+00
0.000000000000000e+00 0.000000000000000e+00 0.000000000000000e+00
0.000000000000000e+00 0.000000000000000e+00 0.000000000000000e+00
0.000000000000000e+00 0.000000000000000e+00 0.000000000000000e+00
0.000000000000000e+00 0.000000000000000e+00 0.000000000000000e+00
0.000000000000000e+00 0.000000000000000e+00 0.000000000000000e+00
0.000000000000000e+00 0.000000000000000e+00 0.000000000000000e+00
0.000000000000000e+00 0.000000000000000e+00 0.000000000000000e+00
0.000000000000000e+00 0.000000000000000e+00 0.000000000000000e+00
0.000000000000000e+00 0.000000000000000e+00 0.000000000000000e+00
0.000000000000000e+00 0.000000000000000e+00 0.000000000000000e+00
0.000000000000000e+00 0.000000000000000e+00 0.000000000000000e+00
0.000000000000000e+00 0.000000000000000e+00 0.000000000000000e+00
0.000000000000000e+00 0.000000000000000e+00 0.000000000000000e+00
0.000000000000000e+00 0.000000000000000e+00 0.000000000000000e+00
0.000000000000000e+00 0.000000000000000e+00 0.000000000000000e+00
0.000000000000000e+00 0.000000000000000e+00 0.000000000000000e+00
0.000000000000000e+00 0.000000000000000e+00 0.000000000000000e+00
0.000000000000000e+00 0.000000000000000e+00 0.000000000000000e+00
0.000000000000000e+00 0.000000000000000e+00 0.000000000000000e+00
0.000000000000000e+00 0.000000000000000e+00 0.000000000000000e+00
0.000000000000000e+00 0.000000000000000e+00 0.000000000000000e+00
0.000000000000000e+00 0.000000000000000e+00 0.000000000000000e+00
0.000000000000000e+00 0.000000000000000e+00 0.000000000000000e+00
0.000000000000000e+00 0.000000000000000e+00 0.000000000000000e+00
0.000000000000000e+00 0.000000000000000e+00 0.000000000000000e+00
0.000000000000000e+00 0.000000000000000e+00 0.000000000000000e+00
0.000000000000000e+00 0.000000000000000e+00 0.000000000000000e+00
0.000000000000000e+00 0.000000000000000e+00 0.000000000000000e+00
0.000000000000000e+00 0.000000000000000e+00 0.000000000000000e+00
0.000000000000000e+00 0.000000000000000e+00 0.000000000000000e+00
0.000000000000000e+00 0.000000000000000e+00 0.000000000000000e+00
0.000000000000000e+00 0.000000000000000e+00 0.000000000000000e+00
0.000000000000000e+00 0.000000000000000e+00 0.000000000000000e+00
0.000000000000000e+00 0.000000000000000e+00 0.000000000000000e+00
0.000000000000000e+00 0.000000000000000e+00 0.000000000000000e+00
0.000000000000000e+00 0.000000000000000e+00 0.000000000000000e+00
0.000000000000000e+00 0.000000000000000e+00 0.000000000000000e+00
0.000000000000000e+00 0.000000000000000e+00 0.000000000000000e+00
0.000000000000000e+00 0.000000000000000e+00 0.000000000000000e+00
0.000000000000000e+00 0.000000000000000e+00 0.000000000000000e+00
0.000000000000000e+00 0.000000000000000e+00 0.000000000000000e+00
0.000000000000000e+00 0.000000000000000e+00 0.000000000000000e+00
0.000000000000000e+00 0.000000000000000e+00 0.000000000000000e+00
0.000000000000000e+00 0.000000000000000e+00 0.000000000000000e+00
0.000000000000000e+00 0.000000000000000e+00 0.000000000000000e+00
0.000000000000000e+00 0.000000000000000e+00 0.000000000000000e+00
0.000000000000000e+00 0.000000000000000e+00 0.000000000000000e+00
0.000000000000000e+00 0.000000000000000e+00 0.000000000000000e+00
0.000000000000000e+00 0.000000000000000e+00 0.000000000000000e+00
0.000000000000000e+00 0.000000000000000e+00 0.000000000000000e+00
0.000000000000000e+00 0.000000000000000e+00 0.000000000000000e+00
0.000000000000000e+00 0.000000000000000e+00 0.000000000000000e+00
0.000000000000000e+00 0.000000000000000e+00 0.000000000000000e+00
0.000000000000000e+00 0.000000000000000e+00 0.000000000000000e+00
0.000000000000000e+00 0.000000000000000e+00 0.000000000000000e+00
0.000000000000000e+00 0.000000000000000e+00 0.000000000000000e+00
0.000000000000000e+00 0.000000000000000e+00 0.000000000000000e+00
0.000000000000000e+00 0.000000000000000e+00 0.000000000000000e+00
0.000000000000000e+00 0.000000000000000e+00 0.000000000000000e+00
0.000000000000000e+00 0.000000000000000e+00 0.000000000000000e+00
0.000000000000000e+00 0.000000000000000e+00 0.000000000000000e+00
0.000000000000000e+00 0.000000000000000e+00 0.000000000000000e+00
0.000000000000000e+00 0.000000000000000e+00 0.000000000000000e+00
0.000000000000000e+00 0.000000000000000e+00 0.000000000000000e+00
0.000000000000000e+00 0.000000000000000e+00 0.000000000000000e+00
0.000000000000000e+00 0.000000000000000e+00 0.000000000000000e+00
0.000000000000000e+00 0.000000000000000e+00 0.000000000000000e+00
0.000000000000000e+00 0.000000000000000e+00 0.000000000000000e+00
0.000000000000000e+00 0.000000000000000e+00 0.000000000000000e+00
0.000000000000000e+00 0.000000000000000e+00 0.000000000000000e+00
0.000000000000000e+00 0.000000000000000e+00 0.000000000000000e+00
0.000000000000000e+00 0.000000000000000e+00 0.000000000000000e+00
0.000000000000000e+00 0.000000000000000e+00 0.000000000000000e+00
0.000000000000000e+00 0.000000000000000e+00 0.000000000000000e+00
0.000000000000000e+00 0.000000000000000e+00 0.000000000000000e+00
0.000000000000000e+00 0.000000000000000e+00 0.000000000000000e+00
0.000000000000000e+00 0.000000000000000e+00 0.000000000000000e+00
0.000000000000000e+00 0.000000000000000e+00 0.000000000000000e+00
0.000000000000000e+00 0.000000000000000e+00 0.000000000000000e+00
0.000000000000000e+00 0.000000000000000e+00 0.000000000000000e+00
0.000000000000000e+00 0.000000000000000e+00 0.000000000000000e+00
0.000000000000000e+00 0.000000000000000e+00 0.000000000000000e+00
0.000000000000000e+00 0.000000000000000e+00 0.000000000000000e+00
0.000000000000000e+00 0.000000000000000e+00 0.000000000000000e+00
0.000000000000000e+00 0.000000000000000e+00 0.000000000000000e+00
0.000000000000000e+00 0.000000000000000e+00 0.000000000000000e+00
0.000000000000000e+00 0.000000000000000e+00 0.000000000000000e+00
0.000000000000000e+00 0.000000000000000e+00 0.000000000000000e+00
0.000000000000000e+00 0.000000000000000e+00 0.000000000000000e+00
0.000000000000000e+00 0.000000000000000e+00 0.000000000000000e+00
0.000000000000000e+00 0.000000000000000e+00 0.000000000000000e+00
0.000000000000000e+00 0.000000000000000e+00 0.000000000000000e+00
0.000000000000000e+00 0.000000000000000e+00 0.000000000000000e+00
0.000000000000000e+00 0.000000000000000e+00 0.000000000000000e+00
0.000000000000000e+00 0.000000000000000e+00 0.000000000000000e+00
0.000000000000000e+00 0.000000000000000e+00 0.000000000000000e+00
0.000000000000000e+00 0.000000000000000e+00 0.000000000000000e+00
0.000000000000000e+00 0.000000000000000e+00 0.000000000000000e+00
0.000000000000000e+00 0.000000000000000e+00 0.000000000000000e+00
0.000000000000000e+00 0.000000000000000e+00 0.000000000000000e+00
0.000000000000000e+00 0.000000000000000e+00 0.000000000000000e+00
0.000000000000000e+00 0.000000000000000e+00 0.000000000000000e+00
0.000000000000000e+00 0.000000000000000e+00 0.000000000000000e+00
0.000000000000000e+00 0.000000000000000e+00 0.000000000000000e+00
0.000000000000000e+00 0.000000000000000e+00 0.000000000000000e+00
0.000000000000000e+00 0.000000000000000e+00 0.000000000000000e+00
0.000000000000000e+00 0.000000000000000e+00 0.000000000000000e+00
0.000000000000000e+00 0.000000000000000e+00 0.000000000000000e+00
0.000000000000000e+00 0.000000000000000e+00 0.000000000000000e+00
0.000000000000000e+00 0.000000000000000e+00 0.000000000000000e+00
0.000000000000000e+00 0.000000000000000e+00 0.000000000000000e+00
0.000000000000000e+00 0.000000000000000e+00 0.000000000000000e+00
0.000000000000000e+00 0.000000000000000e+00 0.000000000000000e+00
0.000000000000000e+00 0.000000000000000e+00 0.000000000000000e+00
0.000000000000000e+00 0.000000000000000e+00 0.000000000000000e+00
0.000000000000000e+00 0.000000000000000e+00 0.000000000000000e+00
0.000000000000000e+00 0.000000000000000e+00 0.000000000000000e+00
0.000000000000000e+00 0.000000000000000e+00 0.000000000000000e+00
0.000000000000000e+00 0.000000000000000e+00 0.000000000000000e+00
0.000000000000000e+00 0.000000000000000e+00 0.000000000000000e+00
0.000000000000000e+00 0.000000000000000e+00 0.000000000000000e+00
0.000000000000000e+00 0.000000000000000e+00 0.000000000000000e+00
0.000000000000000e+00 0.000000000000000e+00 0.000000000000000e+00
0.000000000000000e+00 0.000000000000000e+00 0.000000000000000e+00
0.000000000000000e+00 0.000000000000000e+00 0.000000000000000e+00
0.000000000000000e+00 0.000000000000000e+00 0.000000000000000e+00
0.000000000000000e+00 0.000000000000000e+00 0.000000000000000e+00
0.000000000000000e+00 0.000000000000000e+00 0.000000000000000e+00
0.000000000000000e+00 0.000000000000000e+00 0.000000000000000e+00
0.000000000000000e+00 0.000000000000000e+00 0.000000000000000e+00
0.000000000000000e+00 0.000000000000000e+00 0.000000000000000e+00
0.000000000000000e+00 0.000000000000000e+00 0.000000000000000e+00
0.000000000000000e+00 0.000000000000000e+00 0.000000000000000e+00
0.000000000000000e+00 0.000000000000000e+00 0.000000000000000e+00
0.000000000000000e+00 0.000000000000000e+00 0.000000000000000e+00
0.000000000000000e+00 0.000000000000000e+00 0.000000000000000e+00
0.000000000000000e+00 0.000000000000000e+00 0.000000000000000e+00
0.000000000000000e+00 0.000000000000000e+00 0.000000000000000e+00
0.000000000000000e+00 0.000000000000000e+00 0.000000000000000e+00
0.000000000000000e+00 0.000000000000000e+00 0.000000000000000e+00
0.000000000000000e+00 0.000000000000000e+00 0.000000000000000e+00
0.000000000000000e+00 0.000000000000000e+00 0.000000000000000e+00
0.000000000000000e+00 0.000000000000000e+00 0.000000000000000e+00
0.000000000000000e+00 0.000000000000000e+00 0.000000000000000e+00
0.000000000000000e+00 0.000000000000000e+00 0.000000000000000e+00
0.000000000000000e+00 0.000000000000000e+00 0.000000000000000e+00
0.000000000000000e+00 0.000000000000000e+00 0.000000000000000e+00
0.000000000000000e+00 0.000000000000000e+00 0.000000000000000e+00
0.000000000000000e+00 0.000000000000000e+00 0.000000000000000e+00
0.000000000000000e+00 0.000000000000000e+00 0.000000000000000e+00
0.000000000000000e+00 0.000000000000000e+00 0.000000000000000e+00
0.000000000000000e+00 0.000000000000000e+00 0.000000000000000e+00
0.000000000000000e+00 0.000000000000000e+00 0.000000000000000e+00
0.000000000000000e+00 0.000000000000000e+00 0.000000000000000e+00
0.000000000000000e+00 0.000000000000000e+00 0.000000000000000e+00
0.000000000000000e+00 0.000000000000000e+00 0.000000000000000e+00
0.000000000000000e+00 0.000000000000000e+00 0.000000000000000e+00
0.000000000000000e+00 0.000000000000000e+00 0.000000000000000e+00
0.000000000000000e+00 0.000000000000000e+00 0.000000000000000e+00
0.000000000000000e+00 0.000000000000000e+00 0.000000000000000e+00
0.000000000000000e+00 0.000000000000000e+00 0.000000000000000e+00
0.000000000000000e+00 0.000000000000000e+00 0.000000000000000e+00
0.000000000000000e+00 0.000000000000000e+00 0.000000000000000e+00
0.000000000000000e+00 0.000000000000000e+00 0.000000000000000e+00
0.000000000000000e+00 0.000000000000000e+00 0.000000000000000e+00
0.000000000000000e+00 0.000000000000000e+00 0.000000000000000e+00
0.000000000000000e+00 0.000000000000000e+00 0.000000000000000e+00
0.000000000000000e+00 0.000000000000000e+00 0.000000000000000e+00
0.000000000000000e+00 0.000000000000000e+00 0.000000000000000e+00
0.000000000000000e+00 0.000000000000000e+00 0.000000000000000e+00
0.000000000000000e+00 0.000000000000000e+00 0.000000000000000e+00
0.000000000000000e+00 0.000000000000000e+00 0.000000000000000e+00
0.000000000000000e+00 0.000000000000000e+00 0.000000000000000e+00
0.000000000000000e+00 0.000000000000000e+00 0.000000000000000e+00
0.000000000000000e+00 0.000000000000000e+00 0.000000000000000e+00
0.000000000000000e+00 0.000000000000000e+00 0.000000000000000e+00
0.000000000000000e+00 0.000000000000000e+00 0.000000000000000e+00
0.000000000000000e+00 0.000000000000000e+00 0.000000000000000e+00
0.000000000000000e+00 0.000000000000000e+00 0.000000000000000e+00
0.000000000000000e+00 0.000000000000000e+00 0.000000000000000e+00
0.000000000000000e+00 0.000000000000000e+00 0.000000000000000e+00
0.000000000000000e+00 0.000000000000000e+00 0.000000000000000e+00
0.000000000000000e+00 0.000000000000000e+00 0.000000000000000e+00
0.000000000000000e+00 0.000000000000000e+00 0.000000000000000e+00
0.000000000000000e+00 0.000000000000000e+00 0.000000000000000e+00
0.000000000000000e+00 0.000000000000000e+00 0.000000000000000e+00
0.000000000000000e+00 0.000000000000000e+00 0.000000000000000e+00
0.000000000000000e+00 0.000000000000000e+00 0.000000000000000e+00
0.000000000000000e+00 0.000000000000000e+00 0.000000000000000e+00
0.000000000000000e+00 0.000000000000000e+00 0.000000000000000e+00
0.000000000000000e+00 0.000000000000000e+00 0.000000000000000e+00
0.000000000000000e+00 0.000000000000000e+00 0.000000000000000e+00
0.000000000000000e+00 0.000000000000000e+00 0.000000000000000e+00
0.000000000000000e+00 0.000000000000000e+00 0.000000000000000e+00
0.000000000000000e+00 0.000000000000000e+00 0.000000000000000e+00
0.000000000000000e+00 0.000000000000000e+00 0.000000000000000e+00
0.000000000000000e+00 0.000000000000000e+00 0.000000000000000e+00
0.000000000000000e+00 0.000000000000000e+00 0.000000000000000e+00
0.000000000000000e+00 0.000000000000000e+00 0.000000000000000e+00
0.000000000000000e+00 0.000000000000000e+00 0.000000000000000e+00
0.000000000000000e+00 0.000000000000000e+00 0.000000000000000e+00
0.000000000000000e+00 0.000000000000000e+00 0.000000000000000e+00
0.000000000000000e+00 0.000000000000000e+00 0.000000000000000e+00
0.000000000000000e+00 0.000000000000000e+00 0.000000000000000e+00
0.000000000000000e+00 0.000000000000000e+00 0.000000000000000e+00
0.000000000000000e+00 0.000000000000000e+00 0.000000000000000e+00
0.000000000000000e+00 0.000000000000000e+00 0.000000000000000e+00
0.000000000000000e+00 0.000000000000000e+00 0.000000000000000e+00
0.000000000000000e+00 0.000000000000000e+00 0.000000000000000e+00
0.000000000000000e+00 0.000000000000000e+00 0.000000000000000e+00
0.000000000000000e+00 0.000000000000000e+00 0.000000000000000e+00
0.000000000000000e+00 0.000000000000000e+00 0.000000000000000e+00
0.000000000000000e+00 0.000000000000000e+00 0.000000000000000e+00
0.000000000000000e+00 0.000000000000000e+00 0.000000000000000e+00
0.000000000000000e+00 0.000000000000000e+00 0.000000000000000e+00
0.000000000000000e+00 0.000000000000000e+00 0.000000000000000e+00
0.000000000000000e+00 0.000000000000000e+00 0.000000000000000e+00
0.000000000000000e+00 0.000000000000000e+00 0.000000000000000e+00
0.000000000000000e+00 0.000000000000000e+00 0.000000000000000e+00
0.000000000000000e+00 0.000000000000000e+00 0.000000000000000e+00
0.000000000000000e+00 0.000000000000000e+00 0.000000000000000e+00
0.000000000000000e+00 0.000000000000000e+00 0.000000000000000e+00
0.000000000000000e+00 0.000000000000000e+00 0.000000000000000e+00
0.000000000000000e+00 0.000000000000000e+00 0.000000000000000e+00
0.000000000000000e+00 0.000000000000000e+00 0.000000000000000e+00
0.000000000000000e+00 0.000000000000000e+00 0.000000000000000e+00
0.000000000000000e+00 0.000000000000000e+00 0.000000000000000e+00
0.000000000000000e+00 0.000000000000000e+00 0.000000000000000e+00
0.000000000000000e+00 0.000000000000000e+00 0.000000000000000e+00
0.000000000000000e+00 0.000000000000000e+00 0.000000000000000e+00
0.000000000000000e+00 0.000000000000000e+00 0.000000000000000e+00
0.000000000000000e+00 0.000000000000000e+00 0.000000000000000e+00
0.000000000000000e+00 0.000000000000000e+00 0.000000000000000e+00
0.000000000000000e+00 0.000000000000000e+00 0.000000000000000e+00
0.000000000000000e+00 0.000000000000000e+00 0.000000000000000e+00
0.000000000000000e+00 0.000000000000000e+00 0.000000000000000e+00
0.000000000000000e+00 0.000000000000000e+00 0.000000000000000e+00
0.000000000000000e+00 0.000000000000000e+00 0.000000000000000e+00
0.000000000000000e+00 0.000000000000000e+00 0.000000000000000e+00
0.000000000000000e+00 0.000000000000000e+00 0.000000000000000e+00
0.000000000000000e+00 0.000000000000000e+00 0.000000000000000e+00
0.000000000000000e+00 0.000000000000000e+00 0.000000000000000e+00
0.000000000000000e+00 0.000000000000000e+00 0.000000000000000e+00
0.000000000000000e+00 0.000000000000000e+00 0.000000000000000e+00
0.000000000000000e+00 0.000000000000000e+00 0.000000000000000e+00
0.000000000000000e+00 0.000000000000000e+00 0.000000000000000e+00
0.000000000000000e+00 0.000000000000000e+00 0.000000000000000e+00
0.000000000000000e+00 0.000000000000000e+00 0.000000000000000e+00
0.000000000000000e+00 0.000000000000000e+00 0.000000000000000e+00
0.000000000000000e+00 0.000000000000000e+00 0.000000000000000e+00
0.000000000000000e+00 0.000000000000000e+00 0.000000000000000e+00
0.000000000000000e+00 0.000000000000000e+00 0.000000000000000e+00
0.000000000000000e+00 0.000000000000000e+00 0.000000000000000e+00
0.000000000000000e+00 0.000000000000000e+00 0.000000000000000e+00
0.000000000000000e+00 0.000000000000000e+00 0.000000000000000e+00
0.000000000000000e+00 0.000000000000000e+00 0.000000000000000e+00
0.000000000000000e+00 0.000000000000000e+00 0.000000000000000e+00
0.000000000000000e+00 0.000000000000000e+00 0.000000000000000e+00
0.000000000000000e+00 0.000000000000000e+00 0.000000000000000e+00
0.000000000000000e+00 0.000000000000000e+00 0.000000000000000e+00
0.000000000000000e+00 0.000000000000000e+00 0.000000000000000e+00
0.000000000000000e+00 0.000000000000000e+00 0.000000000000000e+00
0.000000000000000e+00 0.000000000000000e+00 0.000000000000000e+00
0.000000000000000e+00 0.000000000000000e+00 0.000000000000000e+00
0.000000000000000e+00 0.000000000000000e+00 0.000000000000000e+00
0.000000000000000e+00 0.000000000000000e+00 0.000000000000000e+00
0.000000000000000e+00 0.000000000000000e+00 0.000000000000000e+00
0.000000000000000e+00 0.000000000000000e+00 0.000000000000000e+00
0.000000000000000e+00 0.000000000000000e+00 0.000000000000000e+00
0.000000000000000e+00 0.000000000000000e+00 0.000000000000000e+00
0.000000000000000e+00 0.000000000000000e+00 0.000000000000000e+00
0.000000000000000e+00 0.000000000000000e+00 0.000000000000000e+00
0.000000000000000e+00 0.000000000000000e+00 0.000000000000000e+00
0.000000000000000e+00 0.000000000000000e+00 0.000000000000000e+00
0.000000000000000e+00 0.000000000000000e+00 0.000000000000000e+00
0.000000000000000e+00 0.000000000000000e+00 0.000000000000000e+00
0.000000000000000e+00 0.000000000000000e+00 0.000000000000000e+00
0.000000000000000e+00 0.000000000000000e+00 0.000000000000000e+00
0.000000000000000e+00 0.000000000000000e+00 0.000000000000000e+00
0.000000000000000e+00 0.000000000000000e+00 0.000000000000000e+00
0.000000000000000e+00 0.000000000000000e+00 0.000000000000000e+00
0.000000000000000e+00 0.000000000000000e+00 0.000000000000000e+00
0.000000000000000e+00 0.000000000000000e+00 0.000000000000000e+00
0.000000000000000e+00 0.000000000000000e+00 0.000000000000000e+00
0.000000000000000e+00 0.000000000000000e+00 0.000000000000000e+00
0.000000000000000e+00 0.000000000000000e+00 0.000000000000000e+00
0.000000000000000e+00 0.000000000000000e+00 0.000000000000000e+00
0.000000000000000e+00 0.000000000000000e+00 0.000000000000000e+00
0.000000000000000e+00 0.000000000000000e+00 0.000000000000000e+00
0.000000000000000e+00 0.000000000000000e+00 0.000000000000000e+00
0.000000000000000e+00 0.000000000000000e+00 0.000000000000000e+00
0.000000000000000e+00 0.000000000000000e+00 0.000000000000000e+00
0.000000000000000e+00 0.000000000000000e+00 0.000000000000000e+00
0.000000000000000e+00 0.000000000000000e+00 0.000000000000000e+00
0.000000000000000e+00 0.000000000000000e+00 0.000000000000000e+00
0.000000000000000e+00 0.000000000000000e+00 0.000000000000000e+00
0.000000000000000e+00 0.000000000000000e+00 0.000000000000000e+00
0.000000000000000e+00 0.000000000000000e+00 0.000000000000000e+00
0.000000000000000e+00 0.000000000000000e+00 0.000000000000000e+00
0.000000000000000e+00 0.000000000000000e+00 0.000000000000000e+00
0.000000000000000e+00 0.000000000000000e+00 0.000000000000000e+00
0.000000000000000e+00 0.000000000000000e+00 0.000000000000000e+00
0.000000000000000e+00 0.000000000000000e+00 0.000000000000000e+00
0.000000000000000e+00 0.000000000000000e+00 0.000000000000000e+00
0.000000000000000e+00 0.000000000000000e+00 0.000000000000000e+00
0.000000000000000e+00 0.000000000000000e+00 0.000000000000000e+00
0.000000000000000e+00 0.000000000000000e+00 0.000000000000000e+00
0.000000000000000e+00 0.000000000000000e+00 0.000000000000000e+00
0.000000000000000e+00 0.000000000000000e+00 0.000000000000000e+00
0.000000000000000e+00 0.000000000000000e+00 0.000000000000000e+00
0.000000000000000e+00 0.000000000000000e+00 0.000000000000000e+00
0.000000000000000e+00 0.000000000000000e+00 0.000000000000000e+00
0.000000000000000e+00 0.000000000000000e+00 0.000000000000000e+00
0.000000000000000e+00 0.000000000000000e+00 0.000000000000000e+00
0.000000000000000e+00 0.000000000000000e+00 0.000000000000000e+00
0.000000000000000e+00 0.000000000000000e+00 0.000000000000000e+00
0.000000000000000e+00 0.000000000000000e+00 0.000000000000000e+00
0.000000000000000e+00 0.000000000000000e+00 0.000000000000000e+00
0.000000000000000e+00 0.000000000000000e+00 0.000000000000000e+00
0.000000000000000e+00 0.000000000000000e+00 0.000000000000000e+00
0.000000000000000e+00 0.000000000000000e+00 0.000000000000000e+00
0.000000000000000e+00 0.000000000000000e+00 0.000000000000000e+00
0.000000000000000e+00 0.000000000000000e+00 0.000000000000000e+00
0.000000000000000e+00 0.000000000000000e+00 0.000000000000000e+00
0.000000000000000e+00 0.000000000000000e+00 0.000000000000000e+00
0.000000000000000e+00 0.000000000000000e+00 0.000000000000000e+00
0.000000000000000e+00 0.000000000000000e+00 0.000000000000000e+00
0.000000000000000e+00 0.000000000000000e+00 0.000000000000000e+00
0.000000000000000e+00 0.000000000000000e+00 0.000000000000000e+00
0.000000000000000e+00 0.000000000000000e+00 0.000000000000000e+00
0.000000000000000e+00 0.000000000000000e+00 0.000000000000000e+00
0.000000000000000e+00 0.000000000000000e+00 0.000000000000000e+00
0.000000000000000e+00 0.000000000000000e+00 0.000000000000000e+00
0.000000000000000e+00 0.000000000000000e+00 0.000000000000000e+00
0.000000000000000e+00 0.000000000000000e+00 0.000000000000000e+00
0.000000000000000e+00 0.000000000000000e+00 0.000000000000000e+00
0.000000000000000e+00 0.000000000000000e+00 0.000000000000000e+00
0.000000000000000e+00 0.000000000000000e+00 0.000000000000000e+00
0.000000000000000e+00 0.000000000000000e+00 0.000000000000000e+00
0.000000000000000e+00 0.000000000000000e+00 0.000000000000000e+00
0.000000000000000e+00 0.000000000000000e+00 0.000000000000000e+00
0.000000000000000e+00 0.000000000000000e+00 0.000000000000000e+00
0.000000000000000e+00 0.000000000000000e+00 0.000000000000000e+00
0.000000000000000e+00 0.000000000000000e+00 0.000000000000000e+00
0.000000000000000e+00 0.000000000000000e+00 0.000000000000000e+00
0.000000000000000e+00 0.000000000000000e+00 0.000000000000000e+00
0.000000000000000e+00 0.000000000000000e+00 0.000000000000000e+00
0.000000000000000e+00 0.000000000000000e+00 0.000000000000000e+00
0.000000000000000e+00 0.000000000000000e+00 0.000000000000000e+00
0.000000000000000e+00 0.000000000000000e+00 0.000000000000000e+00
0.000000000000000e+00 0.000000000000000e+00 0.000000000000000e+00
0.000000000000000e+00 0.000000000000000e+00 0.000000000000000e+00
0.000000000000000e+00 0.000000000000000e+00 0.000000000000000e+00
0.000000000000000e+00 0.000000000000000e+00 0.000000000000000e+00
0.000000000000000e+00 0.000000000000000e+00 0.000000000000000e+00
0.000000000000000e+00 0.000000000000000e+00 0.000000000000000e+00
0.000000000000000e+00 0.000000000000000e+00 0.000000000000000e+00
0.000000000000000e+00 0.000000000000000e+00 0.000000000000000e+00
0.000000000000000e+00 0.000000000000000e+00 0.000000000000000e+00
0.000000000000000e+00 0.000000000000000e+00 0.000000000000000e+00
0.000000000000000e+00 0.000000000000000e+00 0.000000000000000e+00
0.000000000000000e+00 0.000000000000000e+00 0.000000000000000e+00
0.000000000000000e+00 0.000000000000000e+00 0.000000000000000e+00
0.000000000000000e+00 0.000000000000000e+00 0.000000000000000e+00
0.000000000000000e+00 0.000000000000000e+00 0.000000000000000e+00
0.000000000000000e+00 0.000000000000000e+00 0.000000000000000e+00
0.000000000000000e+00 0.000000000000000e+00 0.000000000000000e+00
0.000000000000000e+00 0.000000000000000e+00 0.000000000000000e+00
0.000000000000000e+00 0.000000000000000e+00 0.000000000000000e+00
0.000000000000000e+00 0.000000000000000e+00 0.000000000000000e+00
0.000000000000000e+00 0.000000000000000e+00 0.000000000000000e+00
0.000000000000000e+00 0.000000000000000e+00 0.000000000000000e+00
0.000000000000000e+00 0.000000000000000e+00 0.000000000000000e+00
0.000000000000000e+00 0.000000000000000e+00 0.000000000000000e+00
0.000000000000000e+00 0.000000000000000e+00 0.000000000000000e+00
0.000000000000000e+00 0.000000000000000e+00 0.000000000000000e+00
0.000000000000000e+00 0.000000000000000e+00 0.000000000000000e+00
0.000000000000000e+00 0.000000000000000e+00 0.000000000000000e+00
0.000000000000000e+00 0.000000000000000e+00 0.000000000000000e+00
0.000000000000000e+00 0.000000000000000e+00 0.000000000000000e+00
0.000000000000000e+00 0.000000000000000e+00 0.000000000000000e+00
0.000000000000000e+00 0.000000000000000e+00 0.000000000000000e+00
0.000000000000000e+00 0.000000000000000e+00 0.000000000000000e+00
0.000000000000000e+00 0.000000000000000e+00 0.000000000000000e+00
0.000000000000000e+00 0.000000000000000e+00 0.000000000000000e+00
0.000000000000000e+00 0.000000000000000e+00 0.000000000000000e+00
0.000000000000000e+00 0.000000000000000e+00 0.000000000000000e+00
0.000000000000000e+00 0.000000000000000e+00 0.000000000000000e+00
0.000000000000000e+00 0.000000000000000e+00 0.000000000000000e+00
0.000000000000000e+00 0.000000000000000e+00 0.000000000000000e+00
0.000000000000000e+00 0.000000000000000e+00 0.000000000000000e+00
0.000000000000000e+00 0.000000000000000e+00 0.000000000000000e+00
0.000000000000000e+00 0.000000000000000e+00 0.000000000000000e+00
0.000000000000000e+00 0.000000000000000e+00 0.000000000000000e+00
0.000000000000000e+00 0.000000000000000e+00 0.000000000000000e+00
0.000000000000000e+00 0.000000000000000e+00 0.000000000000000e+00
0.000000000000000e+00 0.000000000000000e+00 0.000000000000000e+00
0.000000000000000e+00 0.000000000000000e+00 0.000000000000000e+00
0.000000000000000e+00 0.000000000000000e+00 0.000000000000000e+00
0.000000000000000e+00 0.000000000000000e+00 0.000000000000000e+00
0.000000000000000e+00 0.000000000000000e+00 0.000000000000000e+00
0.000000000000000e+00 0.000000000000000e+00 0.000000000000000e+00
0.000000000000000e+00 0.000000000000000e+00 0.000000000000000e+00
0.000000000000000e+00 0.000000000000000e+00 0.000000000000000e+00
0.000000000000000e+00 0.000000000000000e+00 0.000000000000000e+00
0.000000000000000e+00 0.000000000000000e+00 0.000000000000000e+00
0.000000000000000e+00 0.000000000000000e+00 0.000000000000000e+00
0.000000000000000e+00 0.000000000000000e+00 0.000000000000000e+00
0.000000000000000e+00 0.000000000000000e+00 0.000000000000000e+00
0.000000000000000e+00 0.000000000000000e+00 0.000000000000000e+00
0.000000000000000e+00 0.000000000000000e+00 0.000000000000000e+00
0.000000000000000e+00 0.000000000000000e+00 0.000000000000000e+00
0.000000000000000e+00 0.000000000000000e+00 0.000000000000000e+00
0.000000000000000e+00 0.000000000000000e+00 0.000000000000000e+00
0.000000000000000e+00 0.000000000000000e+00 0.000000000000000e+00
0.000000000000000e+00 0.000000000000000e+00 0.000000000000000e+00
0.000000000000000e+00 0.000000000000000e+00 0.000000000000000e+00
0.000000000000000e+00 0.000000000000000e+00 0.000000000000000e+00
0.000000000000000e+00 0.000000000000000e+00 0.000000000000000e+00
0.000000000000000e+00 0.000000000000000e+00 0.000000000000000e+00
0.000000000000000e+00 0.000000000000000e+00 0.000000000000000e+00
0.000000000000000e+00 0.000000000000000e+00 0.000000000000000e+00
0.000000000000000e+00 0.000000000000000e+00 0.000000000000000e+00
0.000000000000000e+00 0.000000000000000e+00 0.000000000000000e+00
0.000000000000000e+00 0.000000000000000e+00 0.000000000000000e+00
0.000000000000000e+00 0.000000000000000e+00 0.000000000000000e+00
0.000000000000000e+00 0.000000000000000e+00 0.000000000000000e+00
0.000000000000000e+00 0.000000000000000e+00 0.000000000000000e+00
0.000000000000000e+00 0.000000000000000e+00 0.000000000000000e+00
0.000000000000000e+00 0.000000000000000e+00 0.000000000000000e+00
0.000000000000000e+00 0.000000000000000e+00 0.000000000000000e+00
0.000000000000000e+00 0.000000000000000e+00 0.000000000000000e+00
0.000000000000000e+00 0.000000000000000e+00 0.000000000000000e+00
0.000000000000000e+00 0.000000000000000e+00 0.000000000000000e+00
0.000000000000000e+00 0.000000000000000e+00 0.000000000000000e+00
0.000000000000000e+00 0.000000000000000e+00 0.000000000000000e+00
0.000000000000000e+00 0.000000000000000e+00 0.000000000000000e+00
0.000000000000000e+00 0.000000000000000e+00 0.000000000000000e+00
0.000000000000000e+00 0.000000000000000e+00 0.000000000000000e+00
0.000000000000000e+00 0.000000000000000e+00 0.000000000000000e+00
0.000000000000000e+00 0.000000000000000e+00 0.000000000000000e+00
0.000000000000000e+00 0.000000000000000e+00 0.000000000000000e+00
0.000000000000000e+00 0.000000000000000e+00 0.000000000000000e+00
0.000000000000000e+00 0.000000000000000e+00 0.000000000000000e+00
0.000000000000000e+00 0.000000000000000e+00 0.000000000000000e+00
0.000000000000000e+00 0.000000000000000e+00 0.000000000000000e+00
0.000000000000000e+00 0.000000000000000e+00 0.000000000000000e+00
0.000000000000000e+00 0.000000000000000e+00 0.000000000000000e+00
0.000000000000000e+00 0.000000000000000e+00 0.000000000000000e+00
0.000000000000000e+00 0.000000000000000e+00 0.000000000000000e+00
0.000000000000000e+00 0.000000000000000e+00 0.000000000000000e+00
0.000000000000000e+00 0.000000000000000e+00 0.000000000000000e+00
0.000000000000000e+00 0.000000000000000e+00 0.000000000000000e+00
0.000000000000000e+00 0.000000000000000e+00 0.000000000000000e+00
0.000000000000000e+00 0.000000000000000e+00 0.000000000000000e+00
0.000000000000000e+00 0.000000000000000e+00 0.000000000000000e+00
0.000000000000000e+00 0.000000000000000e+00 0.000000000000000e+00
0.000000000000000e+00 0.000000000000000e+00 0.000000000000000e+00
0.000000000000000e+00 0.000000000000000e+00 0.000000000000000e+00
0.000000000000000e+00 0.000000000000000e+00 0.000000000000000e+00
0.000000000000000e+00 0.000000000000000e+00 0.000000000000000e+00
0.000000000000000e+00 0.000000000000000e+00 0.000000000000000e+00
0.000000000000000e+00 0.000000000000000e+00 0.000000000000000e+00
0.000000000000000e+00 0.000000000000000e+00 0.000000000000000e+00
0.000000000000000e+00 0.000000000000000e+00 0.000000000000000e+00
0.000000000000000e+00 0.000000000000000e+00 0.000000000000000e+00
0.000000000000000e+00 0.000000000000000e+00 0.000000000000000e+00
0.000000000000000e+00 0.000000000000000e+00 0.000000000000000e+00
0.000000000000000e+00 0.000000000000000e+00 0.000000000000000e+00
0.000000000000000e+00 0.000000000000000e+00 0.000000000000000e+00
0.000000000000000e+00 0.000000000000000e+00 0.000000000000000e+00
0.000000000000000e+00 0.000000000000000e+00 0.000000000000000e+00
0.000000000000000e+00 0.000000000000000e+00 0.000000000000000e+00
0.000000000000000e+00 0.000000000000000e+00 0.000000000000000e+00
0.000000000000000e+00 0.000000000000000e+00 0.000000000000000e+00
0.000000000000000e+00 0.000000000000000e+00 0.000000000000000e+00
0.000000000000000e+00 0.000000000000000e+00 0.000000000000000e+00
0.000000000000000e+00 0.000000000000000e+00 0.000000000000000e+00
0.000000000000000e+00 0.000000000000000e+00 0.000000000000000e+00
0.000000000000000e+00 0.000000000000000e+00 0.000000000000000e+00
0.000000000000000e+00 0.000000000000000e+00 0.000000000000000e+00
0.000000000000000e+00 0.000000000000000e+00 0.000000000000000e+00
0.000000000000000e+00 0.000000000000000e+00 0.000000000000000e+00
0.000000000000000e+00 0.000000000000000e+00 0.000000000000000e+00
0.000000000000000e+00 0.000000000000000e+00 0.000000000000000e+00
0.000000000000000e+00 0.000000000000000e+00 0.000000000000000e+00
0.000000000000000e+00 0.000000000000000e+00 0.000000000000000e+00
0.000000000000000e+00 0.000000000000000e+00 0.000000000000000e+00
0.000000000000000e+00 0.000000000000000e+00 0.000000000000000e+00
0.000000000000000e+00 0.000000000000000e+00 0.000000000000000e+00
0.000000000000000e+00 0.000000000000000e+00 0.000000000000000e+00
0.000000000000000e+00 0.000000000000000e+00 0.000000000000000e+00
0.000000000000000e+00 0.000000000000000e+00 0.000000000000000e+00
0.000000000000000e+00 0.000000000000000e+00 0.000000000000000e+00
0.000000000000000e+00 0.000000000000000e+00 0.000000000000000e+00
0.000000000000000e+00 0.000000000000000e+00 0.000000000000000e+00
0.000000000000000e+00 0.000000000000000e+00 0.000000000000000e+00
0.000000000000000e+00 0.000000000000000e+00 0.000000000000000e+00
0.000000000000000e+00 0.000000000000000e+00 0.000000000000000e+00
0.000000000000000e+00 0.000000000000000e+00 0.000000000000000e+00
0.000000000000000e+00 0.000000000000000e+00 0.000000000000000e+00
0.000000000000000e+00 0.000000000000000e+00 0.000000000000000e+00
0.000000000000000e+00 0.000000000000000e+00 0.000000000000000e+00
0.000000000000000e+00 0.000000000000000e+00 0.000000000000000e+00
0.000000000000000e+00 0.000000000000000e+00 0.000000000000000e+00
0.000000000000000e+00 0.000000000000000e+00 0.000000000000000e+00
0.000000000000000e+00 0.000000000000000e+00 0.000000000000000e+00
0.000000000000000e+00 0.000000000000000e+00 0.000000000000000e+00
0.000000000000000e+00 0.000000000000000e+00 0.000000000000000e+00
0.000000000000000e+00 0.000000000000000e+00 0.000000000000000e+00
0.000000000000000e+00 0.000000000000000e+00 0.000000000000000e+00
0.000000000000000e+00 0.000000000000000e+00 0.000000000000000e+00
0.000000000000000e+00 0.000000000000000e+00 0.000000000000000e+00
0.000000000000000e+00 0.000000000000000e+00 0.000000000000000e+00
0.000000000000000e+00 0.000000000000000e+00 0.000000000000000e+00
0.000000000000000e+00 0.000000000000000e+00 0.000000000000000e+00
0.000000000000000e+00 0.000000000000000e+00 0.000000000000000e+00
0.000000000000000e+00 0.000000000000000e+00 0.000000000000000e+00
0.000000000000000e+00 0.000000000000000e+00 0.000000000000000e+00
0.000000000000000e+00 0.000000000000000e+00 0.000000000000000e+00
0.000000000000000e+00 0.000000000000000e+00 0.000000000000000e+00
0.000000000000000e+00 0.000000000000000e+00 0.000000000000000e+00
0.000000000000000e+00 0.000000000000000e+00 0.000000000000000e+00
0.000000000000000e+00 0.000000000000000e+00 0.000000000000000e+00
0.000000000000000e+00 0.000000000000000e+00 0.000000000000000e+00
0.000000000000000e+00 0.000000000000000e+00 0.000000000000000e+00
0.000000000000000e+00 0.000000000000000e+00 0.000000000000000e+00
0.000000000000000e+00 0.000000000000000e+00 0.000000000000000e+00
0.000000000000000e+00 0.000000000000000e+00 0.000000000000000e+00
0.000000000000000e+00 0.000000000000000e+00 0.000000000000000e+00
0.000000000000000e+00 0.000000000000000e+00 0.000000000000000e+00
0.000000000000000e+00 0.000000000000000e+00 0.000000000000000e+00
0.000000000000000e+00 0.000000000000000e+00 0.000000000000000e+00
0.000000000000000e+00 0.000000000000000e+00 0.000000000000000e+00
0.000000000000000e+00 0.000000000000000e+00 0.000000000000000e+00
0.000000000000000e+00 0.000000000000000e+00 0.000000000000000e+00
0.000000000000000e+00 0.000000000000000e+00 0.000000000000000e+00
0.000000000000000e+00 0.000000000000000e+00 0.000000000000000e+00
0.000000000000000e+00 0.000000000000000e+00 0.000000000000000e+00
0.000000000000000e+00 0.000000000000000e+00 0.000000000000000e+00
0.000000000000000e+00 0.000000000000000e+00 0.000000000000000e+00
0.000000000000000e+00 0.000000000000000e+00 0.000000000000000e+00
0.000000000000000e+00 0.000000000000000e+00 0.000000000000000e+00
0.000000000000000e+00 0.000000000000000e+00 0.000000000000000e+00
0.000000000000000e+00 0.000000000000000e+00 0.000000000000000e+00
0.000000000000000e+00 0.000000000000000e+00 0.000000000000000e+00
0.000000000000000e+00 0.000000000000000e+00 0.000000000000000e+00
0.000000000000000e+00 0.000000000000000e+00 0.000000000000000e+00
0.000000000000000e+00 0.000000000000000e+00 0.000000000000000e+00
0.000000000000000e+00 0.000000000000000e+00 0.000000000000000e+00
0.000000000000000e+00 0.000000000000000e+00 0.000000000000000e+00
0.000000000000000e+00 0.000000000000000e+00 0.000000000000000e+00
0.000000000000000e+00 0.000000000000000e+00 0.000000000000000e+00
0.000000000000000e+00 0.000000000000000e+00 0.000000000000000e+00
0.000000000000000e+00 0.000000000000000e+00 0.000000000000000e+00
0.000000000000000e+00 0.000000000000000e+00 0.000000000000000e+00
0.000000000000000e+00 0.000000000000000e+00 0.000000000000000e+00
0.000000000000000e+00 0.000000000000000e+00 0.000000000000000e+00
0.000000000000000e+00 0.000000000000000e+00 0.000000000000000e+00
0.000000000000000e+00 0.000000000000000e+00 0.000000000000000e+00
0.000000000000000e+00 0.000000000000000e+00 0.000000000000000e+00
0.000000000000000e+00 0.000000000000000e+00 0.000000000000000e+00
0.000000000000000e+00 0.000000000000000e+00 0.000000000000000e+00
0.000000000000000e+00 0.000000000000000e+00 0.000000000000000e+00
0.000000000000000e+00 0.000000000000000e+00 0.000000000000000e+00
0.000000000000000e+00 0.000000000000000e+00 0.000000000000000e+00
0.000000000000000e+00 0.000000000000000e+00 0.000000000000000e+00
0.000000000000000e+00 0.000000000000000e+00 0.000000000000000e+00
0.000000000000000e+00 0.000000000000000e+00 0.000000000000000e+00
0.000000000000000e+00 0.000000000000000e+00 0.000000000000000e+00
0.000000000000000e+00 0.000000000000000e+00 0.000000000000000e+00
0.000000000000000e+00 0.000000000000000e+00 0.000000000000000e+00
0.000000000000000e+00 0.000000000000000e+00 0.000000000000000e+00
0.000000000000000e+00 0.000000000000000e+00 0.000000000000000e+00
0.000000000000000e+00 0.000000000000000e+00 0.000000000000000e+00
0.000000000000000e+00 0.000000000000000e+00 0.000000000000000e+00
0.000000000000000e+00 0.000000000000000e+00 0.000000000000000e+00
0.000000000000000e+00 0.000000000000000e+00 0.000000000000000e+00
0.000000000000000e+00 0.000000000000000e+00 0.000000000000000e+00
0.000000000000000e+00 0.000000000000000e+00 0.000000000000000e+00
0.000000000000000e+00 0.000000000000000e+00 0.000000000000000e+00
0.000000000000000e+00 0.000000000000000e+00 0.000000000000000e+00
0.000000000000000e+00 0.000000000000000e+00 0.000000000000000e+00
0.000000000000000e+00 0.000000000000000e+00 0.000000000000000e+00
0.000000000000000e+00 0.000000000000000e+00 0.000000000000000e+00
0.000000000000000e+00 0.000000000000000e+00 0.000000000000000e+00
0.000000000000000e+00 0.000000000000000e+00 0.000000000000000e+00
0.000000000000000e+00 0.000000000000000e+00 0.000000000000000e+00
0.000000000000000e+00 0.000000000000000e+00 0.000000000000000e+00
0.000000000000000e+00 0.000000000000000e+00 0.000000000000000e+00
0.000000000000000e+00 0.000000000000000e+00 0.000000000000000e+00
0.000000000000000e+00 0.000000000000000e+00 0.000000000000000e+00
0.000000000000000e+00 0.000000000000000e+00 0.000000000000000e+00
0.000000000000000e+00 0.000000000000000e+00 0.000000000000000e+00
0.000000000000000e+00 0.000000000000000e+00 0.000000000000000e+00
0.000000000000000e+00 0.000000000000000e+00 0.000000000000000e+00
0.000000000000000e+00 0.000000000000000e+00 0.000000000000000e+00
0.000000000000000e+00 0.000000000000000e+00 0.000000000000000e+00
0.000000000000000e+00 0.000000000000000e+00 0.000000000000000e+00
0.000000000000000e+00 0.000000000000000e+00 0.000000000000000e+00
0.000000000000000e+00 0.000000000000000e+00 0.000000000000000e+00
0.000000000000000e+00 0.000000000000000e+00 0.000000000000000e+00
0.000000000000000e+00 0.000000000000000e+00 0.000000000000000e+00
0.000000000000000e+00 0.000000000000000e+00 0.000000000000000e+00
0.000000000000000e+00 0.000000000000000e+00 0.000000000000000e+00
0.000000000000000e+00 0.000000000000000e+00 0.000000000000000e+00
0.000000000000000e+00 0.000000000000000e+00 0.000000000000000e+00
0.000000000000000e+00 0.000000000000000e+00 0.000000000000000e+00
0.000000000000000e+00 0.000000000000000e+00 0.000000000000000e+00
0.000000000000000e+00 0.000000000000000e+00 0.000000000000000e+00
0.000000000000000e+00 0.000000000000000e+00 0.000000000000000e+00
0.000000000000000e+00 0.000000000000000e+00 0.000000000000000e+00
0.000000000000000e+00 0.000000000000000e+00 0.000000000000000e+00
0.000000000000000e+00 0.000000000000000e+00 0.000000000000000e+00
0.000000000000000e+00 0.000000000000000e+00 0.000000000000000e+00
0.000000000000000e+00 0.000000000000000e+00 0.000000000000000e+00
0.000000000000000e+00 0.000000000000000e+00 0.000000000000000e+00
0.000000000000000e+00 0.000000000000000e+00 0.000000000000000e+00
0.000000000000000e+00 0.000000000000000e+00 0.000000000000000e+00
0.000000000000000e+00 0.000000000000000e+00 0.000000000000000e+00
0.000000000000000e+00 0.000000000000000e+00 0.000000000000000e+00
0.000000000000000e+00 0.000000000000000e+00 0.000000000000000e+00
0.000000000000000e+00 0.000000000000000e+00 0.000000000000000e+00
0.000000000000000e+00 0.000000000000000e+00 0.000000000000000e+00
0.000000000000000e+00 0.000000000000000e+00 0.000000000000000e+00
0.000000000000000e+00 0.000000000000000e+00 0.000000000000000e+00
0.000000000000000e+00 0.000000000000000e+00 0.000000000000000e+00
0.000000000000000e+00 0.000000000000000e+00 0.000000000000000e+00
0.000000000000000e+00 0.000000000000000e+00 0.000000000000000e+00
0.000000000000000e+00 0.000000000000000e+00 0.000000000000000e+00
0.000000000000000e+00 0.000000000000000e+00 0.000000000000000e+00
0.000000000000000e+00 0.000000000000000e+00 0.000000000000000e+00
0.000000000000000e+00 0.000000000000000e+00 0.000000000000000e+00
0.000000000000000e+00 0.000000000000000e+00 0.000000000000000e+00
0.000000000000000e+00 0.000000000000000e+00 0.000000000000000e+00
0.000000000000000e+00 0.000000000000000e+00 0.000000000000000e+00
0.000000000000000e+00 0.000000000000000e+00 0.000000000000000e+00
0.000000000000000e+00 0.000000000000000e+00 0.000000000000000e+00
0.000000000000000e+00 0.000000000000000e+00 0.000000000000000e+00
0.000000000000000e+00 0.000000000000000e+00 0.000000000000000e+00
0.000000000000000e+00 0.000000000000000e+00 0.000000000000000e+00
0.000000000000000e+00 0.000000000000000e+00 0.000000000000000e+00
0.000000000000000e+00 0.000000000000000e+00 0.000000000000000e+00
0.000000000000000e+00 0.000000000000000e+00 0.000000000000000e+00
0.000000000000000e+00 0.000000000000000e+00 0.000000000000000e+00
0.000000000000000e+00 0.000000000000000e+00 0.000000000000000e+00
0.000000000000000e+00 0.000000000000000e+00 0.000000000000000e+00
0.000000000000000e+00 0.000000000000000e+00 0.000000000000000e+00
0.000000000000000e+00 0.000000000000000e+00 0.000000000000000e+00
0.000000000000000e+00 0.000000000000000e+00 0.000000000000000e+00
0.000000000000000e+00 0.000000000000000e+00 0.000000000000000e+00
0.000000000000000e+00 0.000000000000000e+00 0.000000000000000e+00
0.000000000000000e+00 0.000000000000000e+00 0.000000000000000e+00
0.000000000000000e+00 0.000000000000000e+00 0.000000000000000e+00
0.000000000000000e+00 0.000000000000000e+00 0.000000000000000e+00
0.000000000000000e+00 0.000000000000000e+00 0.000000000000000e+00
0.000000000000000e+00 0.000000000000000e+00 0.000000000000000e+00
0.000000000000000e+00 0.000000000000000e+00 0.000000000000000e+00
0.000000000000000e+00 0.000000000000000e+00 0.000000000000000e+00
0.000000000000000e+00 0.000000000000000e+00 0.000000000000000e+00
0.000000000000000e+00 0.000000000000000e+00 0.000000000000000e+00
0.000000000000000e+00 0.000000000000000e+00 0.000000000000000e+00
0.000000000000000e+00 0.000000000000000e+00 0.000000000000000e+00
0.000000000000000e+00 0.000000000000000e+00 0.000000000000000e+00
0.000000000000000e+00 0.000000000000000e+00 0.000000000000000e+00
0.000000000000000e+00 0.000000000000000e+00 0.000000000000000e+00
0.000000000000000e+00 0.000000000000000e+00 0.000000000000000e+00
0.000000000000000e+00 0.000000000000000e+00 0.000000000000000e+00
0.000000000000000e+00 0.000000000000000e+00 0.000000000000000e+00
0.000000000000000e+00 0.000000000000000e+00 0.000000000000000e+00
0.000000000000000e+00 0.000000000000000e+00 0.000000000000000e+00
0.000000000000000e+00 0.000000000000000e+00 0.000000000000000e+00
0.000000000000000e+00 0.000000000000000e+00 0.000000000000000e+00
0.000000000000000e+00 0.000000000000000e+00 0.000000000000000e+00
0.000000000000000e+00 0.000000000000000e+00 0.000000000000000e+00
0.000000000000000e+00 0.000000000000000e+00 0.000000000000000e+00
0.000000000000000e+00 0.000000000000000e+00 0.000000000000000e+00
0.000000000000000e+00 0.000000000000000e+00 0.000000000000000e+00
0.000000000000000e+00 0.000000000000000e+00 0.000000000000000e+00
0.000000000000000e+00 0.000000000000000e+00 0.000000000000000e+00
0.000000000000000e+00 0.000000000000000e+00 0.000000000000000e+00
0.000000000000000e+00 0.000000000000000e+00 0.000000000000000e+00
0.000000000000000e+00 0.000000000000000e+00 0.000000000000000e+00
0.000000000000000e+00 0.000000000000000e+00 0.000000000000000e+00
0.000000000000000e+00 0.000000000000000e+00 0.000000000000000e+00
0.000000000000000e+00 0.000000000000000e+00 0.000000000000000e+00
0.000000000000000e+00 0.000000000000000e+00 0.000000000000000e+00
0.000000000000000e+00 0.000000000000000e+00 0.000000000000000e+00
0.000000000000000e+00 0.000000000000000e+00 0.000000000000000e+00
0.000000000000000e+00 0.000000000000000e+00 0.000000000000000e+00
0.000000000000000e+00 0.000000000000000e+00 0.000000000000000e+00
0.000000000000000e+00 0.000000000000000e+00 0.000000000000000e+00
0.000000000000000e+00 0.000000000000000e+00 0.000000000000000e+00
0.000000000000000e+00 0.000000000000000e+00 0.000000000000000e+00
0.000000000000000e+00 0.000000000000000e+00 0.000000000000000e+00
0.000000000000000e+00 0.000000000000000e+00 0.000000000000000e+00
0.000000000000000e+00 0.000000000000000e+00 0.000000000000000e+00
0.000000000000000e+00 0.000000000000000e+00 0.000000000000000e+00
0.000000000000000e+00 0.000000000000000e+00 0.000000000000000e+00
0.000000000000000e+00 0.000000000000000e+00 0.000000000000000e+00
0.000000000000000e+00 0.000000000000000e+00 0.000000000000000e+00
0.000000000000000e+00 0.000000000000000e+00 0.000000000000000e+00
0.000000000000000e+00 0.000000000000000e+00 0.000000000000000e+00
0.000000000000000e+00 0.000000000000000e+00 0.000000000000000e+00
0.000000000000000e+00 0.000000000000000e+00 0.000000000000000e+00
0.000000000000000e+00 0.000000000000000e+00 0.000000000000000e+00
0.000000000000000e+00 0.000000000000000e+00 0.000000000000000e+00
0.000000000000000e+00 0.000000000000000e+00 0.000000000000000e+00
0.000000000000000e+00 0.000000000000000e+00 0.000000000000000e+00
0.000000000000000e+00 0.000000000000000e+00 0.000000000000000e+00
0.000000000000000e+00 0.000000000000000e+00 0.000000000000000e+00
0.000000000000000e+00 0.000000000000000e+00 0.000000000000000e+00
0.000000000000000e+00 0.000000000000000e+00 0.000000000000000e+00
0.000000000000000e+00 0.000000000000000e+00 0.000000000000000e+00
0.000000000000000e+00 0.000000000000000e+00 0.000000000000000e+00
0.000000000000000e+00 0.000000000000000e+00 0.000000000000000e+00
0.000000000000000e+00 0.000000000000000e+00 0.000000000000000e+00
0.000000000000000e+00 0.000000000000000e+00 0.000000000000000e+00
0.000000000000000e+00 0.000000000000000e+00 0.000000000000000e+00
0.000000000000000e+00 0.000000000000000e+00 0.000000000000000e+00
0.000000000000000e+00 0.000000000000000e+00 0.000000000000000e+00
0.000000000000000e+00 0.000000000000000e+00 0.000000000000000e+00
0.000000000000000e+00 0.000000000000000e+00 0.000000000000000e+00
0.000000000000000e+00 0.000000000000000e+00 0.000000000000000e+00
0.000000000000000e+00 0.000000000000000e+00 0.000000000000000e+00
0.000000000000000e+00 0.000000000000000e+00 0.000000000000000e+00
0.000000000000000e+00 0.000000000000000e+00 0.000000000000000e+00
0.000000000000000e+00 0.000000000000000e+00 0.000000000000000e+00
0.000000000000000e+00 0.000000000000000e+00 0.000000000000000e+00
0.000000000000000e+00 0.000000000000000e+00 0.000000000000000e+00
0.000000000000000e+00 0.000000000000000e+00 0.000000000000000e+00
0.000000000000000e+00 0.000000000000000e+00 0.000000000000000e+00
0.000000000000000e+00 0.000000000000000e+00 0.000000000000000e+00
0.000000000000000e+00 0.000000000000000e+00 0.000000000000000e+00
0.000000000000000e+00 0.000000000000000e+00 0.000000000000000e+00
0.000000000000000e+00 0.000000000000000e+00 0.000000000000000e+00
0.000000000000000e+00 0.000000000000000e+00 0.000000000000000e+00
0.000000000000000e+00 0.000000000000000e+00 0.000000000000000e+00
0.000000000000000e+00 0.000000000000000e+00 0.000000000000000e+00
0.000000000000000e+00 0.000000000000000e+00 0.000000000000000e+00
0.000000000000000e+00 0.000000000000000e+00 0.000000000000000e+00
0.000000000000000e+00 0.000000000000000e+00 0.000000000000000e+00
0.000000000000000e+00 0.000000000000000e+00 0.000000000000000e+00
0.000000000000000e+00 0.000000000000000e+00 0.000000000000000e+00
0.000000000000000e+00 0.000000000000000e+00 0.000000000000000e+00
0.000000000000000e+00 0.000000000000000e+00 0.000000000000000e+00
0.000000000000000e+00 0.000000000000000e+00 0.000000000000000e+00
0.000000000000000e+00 0.000000000000000e+00 0.000000000000000e+00
0.000000000000000e+00 0.000000000000000e+00 0.000000000000000e+00
0.000000000000000e+00 0.000000000000000e+00 0.000000000000000e+00
0.000000000000000e+00 0.000000000000000e+00 0.000000000000000e+00
0.000000000000000e+00 0.000000000000000e+00 0.000000000000000e+00
0.000000000000000e+00 0.000000000000000e+00 0.000000000000000e+00
0.000000000000000e+00 0.000000000000000e+00 0.000000000000000e+00
0.000000000000000e+00 0.000000000000000e+00 0.000000000000000e+00
0.000000000000000e+00 0.000000000000000e+00 0.000000000000000e+00
0.000000000000000e+00 0.000000000000000e+00 0.000000000000000e+00
0.000000000000000e+00 0.000000000000000e+00 0.000000000000000e+00
0.000000000000000e+00 0.000000000000000e+00 0.000000000000000e+00
0.000000000000000e+00 0.000000000000000e+00 0.000000000000000e+00
0.000000000000000e+00 0.000000000000000e+00 0.000000000000000e+00
0.000000000000000e+00 0.000000000000000e+00 0.000000000000000e+00
0.000000000000000e+00 0.000000000000000e+00 0.000000000000000e+00
0.000000000000000e+00 0.000000000000000e+00 0.000000000000000e+00
0.000000000000000e+00 0.000000000000000e+00 0.000000000000000e+00
0.000000000000000e+00 0.000000000000000e+00 0.000000000000000e+00
0.000000000000000e+00 0.000000000000000e+00 0.000000000000000e+00
0.000000000000000e+00 0.000000000000000e+00 0.000000000000000e+00
0.000000000000000e+00 0.000000000000000e+00 0.000000000000000e+00
0.000000000000000e+00 0.000000000000000e+00 0.000000000000000e+00
0.000000000000000e+00 0.000000000000000e+00 0.000000000000000e+00
0.000000000000000e+00 0.000000000000000e+00 0.000000000000000e+00
0.000000000000000e+00 0.000000000000000e+00 0.000000000000000e+00
0.000000000000000e+00 0.000000000000000e+00 0.000000000000000e+00
0.000000000000000e+00 0.000000000000000e+00 0.000000000000000e+00
0.000000000000000e+00 0.000000000000000e+00 0.000000000000000e+00
0.000000000000000e+00 0.000000000000000e+00 0.000000000000000e+00
0.000000000000000e+00 0.000000000000000e+00 0.000000000000000e+00
0.000000000000000e+00 0.000000000000000e+00 0.000000000000000e+00
0.000000000000000e+00 0.000000000000000e+00 0.000000000000000e+00
0.000000000000000e+00 0.000000000000000e+00 0.000000000000000e+00
0.000000000000000e+00 0.000000000000000e+00 0.000000000000000e+00
0.000000000000000e+00 0.000000000000000e+00 0.000000000000000e+00
0.000000000000000e+00 0.000000000000000e+00 0.000000000000000e+00
0.000000000000000e+00 0.000000000000000e+00 0.000000000000000e+00
0.000000000000000e+00 0.000000000000000e+00 0.000000000000000e+00
0.000000000000000e+00 0.000000000000000e+00 0.000000000000000e+00
0.000000000000000e+00 0.000000000000000e+00 0.000000000000000e+00
0.000000000000000e+00 0.000000000000000e+00 0.000000000000000e+00
0.000000000000000e+00 0.000000000000000e+00 0.000000000000000e+00
0.000000000000000e+00 0.000000000000000e+00 0.000000000000000e+00
0.000000000000000e+00 0.000000000000000e+00 0.000000000000000e+00
0.000000000000000e+00 0.000000000000000e+00 0.000000000000000e+00
0.000000000000000e+00 0.000000000000000e+00 0.000000000000000e+00
0.000000000000000e+00 0.000000000000000e+00 0.000000000000000e+00
0.000000000000000e+00 0.000000000000000e+00 0.000000000000000e+00
0.000000000000000e+00 0.000000000000000e+00 0.000000000000000e+00
0.000000000000000e+00 0.000000000000000e+00 0.000000000000000e+00
0.000000000000000e+00 0.000000000000000e+00 0.000000000000000e+00
0.000000000000000e+00 0.000000000000000e+00 0.000000000000000e+00
0.000000000000000e+00 0.000000000000000e+00 0.000000000000000e+00
0.000000000000000e+00 0.000000000000000e+00 0.000000000000000e+00
0.000000000000000e+00 0.000000000000000e+00 0.000000000000000e+00
0.000000000000000e+00 0.000000000000000e+00 0.000000000000000e+00
0.000000000000000e+00 0.000000000000000e+00 0.000000000000000e+00
0.000000000000000e+00 0.000000000000000e+00 0.000000000000000e+00
0.000000000000000e+00 0.000000000000000e+00 0.000000000000000e+00
0.000000000000000e+00 0.000000000000000e+00 0.000000000000000e+00
0.000000000000000e+00 0.000000000000000e+00 0.000000000000000e+00
0.000000000000000e+00 0.000000000000000e+00 0.000000000000000e+00
0.000000000000000e+00 0.000000000000000e+00 0.000000000000000e+00
0.000000000000000e+00 0.000000000000000e+00 0.000000000000000e+00
0.000000000000000e+00 0.000000000000000e+00 0.000000000000000e+00
0.000000000000000e+00 0.000000000000000e+00 0.000000000000000e+00
0.000000000000000e+00 0.000000000000000e+00 0.000000000000000e+00
0.000000000000000e+00 0.000000000000000e+00 0.000000000000000e+00
0.000000000000000e+00 0.000000000000000e+00 0.000000000000000e+00
0.000000000000000e+00 0.000000000000000e+00 0.000000000000000e+00
0.000000000000000e+00 0.000000000000000e+00 0.000000000000000e+00
0.000000000000000e+00 0.000000000000000e+00 0.000000000000000e+00
0.000000000000000e+00 0.000000000000000e+00 0.000000000000000e+00
0.000000000000000e+00 0.000000000000000e+00 0.000000000000000e+00
0.000000000000000e+00 0.000000000000000e+00 0.000000000000000e+00
0.000000000000000e+00 0.000000000000000e+00 0.000000000000000e+00
0.000000000000000e+00 0.000000000000000e+00 0.000000000000000e+00
0.000000000000000e+00 0.000000000000000e+00 0.000000000000000e+00
0.000000000000000e+00 0.000000000000000e+00 0.000000000000000e+00
0.000000000000000e+00 0.000000000000000e+00 0.000000000000000e+00
0.000000000000000e+00 0.000000000000000e+00 0.000000000000000e+00
0.000000000000000e+00 0.000000000000000e+00 0.000000000000000e+00
0.000000000000000e+00 0.000000000000000e+00 0.000000000000000e+00
0.000000000000000e+00 0.000000000000000e+00 0.000000000000000e+00
0.000000000000000e+00 0.000000000000000e+00 0.000000000000000e+00
0.000000000000000e+00 0.000000000000000e+00 0.000000000000000e+00
0.000000000000000e+00 0.000000000000000e+00 0.000000000000000e+00
0.000000000000000e+00 0.000000000000000e+00 0.000000000000000e+00
0.000000000000000e+00 0.000000000000000e+00 0.000000000000000e+00
0.000000000000000e+00 0.000000000000000e+00 0.000000000000000e+00
0.000000000000000e+00 0.000000000000000e+00 0.000000000000000e+00
0.000000000000000e+00 0.000000000000000e+00 0.000000000000000e+00
0.000000000000000e+00 0.000000000000000e+00 0.000000000000000e+00
0.000000000000000e+00 0.000000000000000e+00 0.000000000000000e+00
0.000000000000000e+00 0.000000000000000e+00 0.000000000000000e+00
0.000000000000000e+00 0.000000000000000e+00 0.000000000000000e+00
0.000000000000000e+00 0.000000000000000e+00 0.000000000000000e+00
0.000000000000000e+00 0.000000000000000e+00 0.000000000000000e+00
0.000000000000000e+00 0.000000000000000e+00 0.000000000000000e+00
0.000000000000000e+00 0.000000000000000e+00 0.000000000000000e+00
0.000000000000000e+00 0.000000000000000e+00 0.000000000000000e+00
0.000000000000000e+00 0.000000000000000e+00 0.000000000000000e+00
0.000000000000000e+00 0.000000000000000e+00 0.000000000000000e+00
0.000000000000000e+00 0.000000000000000e+00 0.000000000000000e+00
0.000000000000000e+00 0.000000000000000e+00 0.000000000000000e+00
0.000000000000000e+00 0.000000000000000e+00 0.000000000000000e+00
0.000000000000000e+00 0.000000000000000e+00 0.000000000000000e+00
0.000000000000000e+00 0.000000000000000e+00 0.000000000000000e+00
0.000000000000000e+00 0.000000000000000e+00 0.000000000000000e+00
0.000000000000000e+00 0.000000000000000e+00 0.000000000000000e+00
0.000000000000000e+00 0.000000000000000e+00 0.000000000000000e+00
0.000000000000000e+00 0.000000000000000e+00 0.000000000000000e+00
0.000000000000000e+00 0.000000000000000e+00 0.000000000000000e+00
0.000000000000000e+00 0.000000000000000e+00 0.000000000000000e+00
0.000000000000000e+00 0.000000000000000e+00 0.000000000000000e+00
0.000000000000000e+00 0.000000000000000e+00 0.000000000000000e+00
0.000000000000000e+00 0.000000000000000e+00 0.000000000000000e+00
0.000000000000000e+00 0.000000000000000e+00 0.000000000000000e+00
0.000000000000000e+00 0.000000000000000e+00 0.000000000000000e+00
0.000000000000000e+00 0.000000000000000e+00 0.000000000000000e+00
0.000000000000000e+00 0.000000000000000e+00 0.000000000000000e+00
0.000000000000000e+00 0.000000000000000e+00 0.000000000000000e+00
0.000000000000000e+00 0.000000000000000e+00 0.000000000000000e+00
0.000000000000000e+00 0.000000000000000e+00 0.000000000000000e+00
0.000000000000000e+00 0.000000000000000e+00 0.000000000000000e+00
0.000000000000000e+00 0.000000000000000e+00 0.000000000000000e+00
0.000000000000000e+00 0.000000000000000e+00 0.000000000000000e+00
0.000000000000000e+00 0.000000000000000e+00 0.000000000000000e+00
0.000000000000000e+00 0.000000000000000e+00 0.000000000000000e+00
0.000000000000000e+00 0.000000000000000e+00 0.000000000000000e+00
0.000000000000000e+00 0.000000000000000e+00 0.000000000000000e+00
0.000000000000000e+00 0.000000000000000e+00 0.000000000000000e+00
0.000000000000000e+00 0.000000000000000e+00 0.000000000000000e+00
0.000000000000000e+00 0.000000000000000e+00 0.000000000000000e+00
0.000000000000000e+00 0.000000000000000e+00 0.000000000000000e+00
0.000000000000000e+00 0.000000000000000e+00 0.000000000000000e+00
0.000000000000000e+00 0.000000000000000e+00 0.000000000000000e+00
0.000000000000000e+00 0.000000000000000e+00 0.000000000000000e+00
0.000000000000000e+00 0.000000000000000e+00 0.000000000000000e+00
0.000000000000000e+00 0.000000000000000e+00 0.000000000000000e+00
0.000000000000000e+00 0.000000000000000e+00 0.000000000000000e+00
0.000000000000000e+00 0.000000000000000e+00 0.000000000000000e+00
0.000000000000000e+00 0.000000000000000e+00 0.000000000000000e+00
0.000000000000000e+00 0.000000000000000e+00 0.000000000000000e+00
0.000000000000000e+00 0.000000000000000e+00 0.000000000000000e+00
0.000000000000000e+00 0.000000000000000e+00 0.000000000000000e+00
0.000000000000000e+00 0.000000000000000e+00 0.000000000000000e+00
0.000000000000000e+00 0.000000000000000e+00 0.000000000000000e+00
0.000000000000000e+00 0.000000000000000e+00 0.000000000000000e+00
0.000000000000000e+00 0.000000000000000e+00 0.000000000000000e+00
0.000000000000000e+00 0.000000000000000e+00 0.000000000000000e+00
0.000000000000000e+00 0.000000000000000e+00 0.000000000000000e+00
0.000000000000000e+00 0.000000000000000e+00 0.000000000000000e+00
0.000000000000000e+00 0.000000000000000e+00 0.000000000000000e+00
0.000000000000000e+00 0.000000000000000e+00 0.000000000000000e+00
0.000000000000000e+00 0.000000000000000e+00 0.000000000000000e+00
0.000000000000000e+00 0.000000000000000e+00 0.000000000000000e+00
0.000000000000000e+00 0.000000000000000e+00 0.000000000000000e+00
0.000000000000000e+00 0.000000000000000e+00 0.000000000000000e+00
0.000000000000000e+00 0.000000000000000e+00 0.000000000000000e+00
0.000000000000000e+00 0.000000000000000e+00 0.000000000000000e+00
0.000000000000000e+00 0.000000000000000e+00 0.000000000000000e+00
0.000000000000000e+00 0.000000000000000e+00 0.000000000000000e+00
0.000000000000000e+00 0.000000000000000e+00 0.000000000000000e+00
0.000000000000000e+00 0.000000000000000e+00 0.000000000000000e+00
0.000000000000000e+00 0.000000000000000e+00 0.000000000000000e+00
0.000000000000000e+00 0.000000000000000e+00 0.000000000000000e+00
0.000000000000000e+00 0.000000000000000e+00 0.000000000000000e+00
0.000000000000000e+00 0.000000000000000e+00 0.000000000000000e+00
0.000000000000000e+00 0.000000000000000e+00 0.000000000000000e+00
0.000000000000000e+00 0.000000000000000e+00 0.000000000000000e+00
0.000000000000000e+00 0.000000000000000e+00 0.000000000000000e+00
0.000000000000000e+00 0.000000000000000e+00 0.000000000000000e+00
0.000000000000000e+00 0.000000000000000e+00 0.000000000000000e+00
0.000000000000000e+00 0.000000000000000e+00 0.000000000000000e+00
0.000000000000000e+00 0.000000000000000e+00 0.000000000000000e+00
0.000000000000000e+00 0.000000000000000e+00 0.000000000000000e+00
0.000000000000000e+00 0.000000000000000e+00 0.000000000000000e+00
0.000000000000000e+00 0.000000000000000e+00 0.000000000000000e+00
0.000000000000000e+00 0.000000000000000e+00 0.000000000000000e+00
0.000000000000000e+00 0.000000000000000e+00 0.000000000000000e+00
0.000000000000000e+00 0.000000000000000e+00 0.000000000000000e+00
0.000000000000000e+00 0.000000000000000e+00 0.000000000000000e+00
0.000000000000000e+00 0.000000000000000e+00 0.000000000000000e+00
0.000000000000000e+00 0.000000000000000e+00 0.000000000000000e+00
0.000000000000000e+00 0.000000000000000e+00 0.000000000000000e+00
0.000000000000000e+00 0.000000000000000e+00 0.000000000000000e+00
0.000000000000000e+00 0.000000000000000e+00 0.000000000000000e+00
0.000000000000000e+00 0.000000000000000e+00 0.000000000000000e+00
0.000000000000000e+00 0.000000000000000e+00 0.000000000000000e+00
0.000000000000000e+00 0.000000000000000e+00 0.000000000000000e+00
0.000000000000000e+00 0.000000000000000e+00 0.000000000000000e+00
0.000000000000000e+00 0.000000000000000e+00 0.000000000000000e+00
0.000000000000000e+00 0.000000000000000e+00 0.000000000000000e+00
0.000000000000000e+00 0.000000000000000e+00 0.000000000000000e+00
0.000000000000000e+00 0.000000000000000e+00 0.000000000000000e+00
0.000000000000000e+00 0.000000000000000e+00 0.000000000000000e+00
0.000000000000000e+00 0.000000000000000e+00 0.000000000000000e+00
0.000000000000000e+00 0.000000000000000e+00 0.000000000000000e+00
0.000000000000000e+00 0.000000000000000e+00 0.000000000000000e+00
0.000000000000000e+00 0.000000000000000e+00 0.000000000000000e+00
0.000000000000000e+00 0.000000000000000e+00 0.000000000000000e+00
0.000000000000000e+00 0.000000000000000e+00 0.000000000000000e+00
0.000000000000000e+00 0.000000000000000e+00 0.000000000000000e+00
0.000000000000000e+00 0.000000000000000e+00 0.000000000000000e+00
0.000000000000000e+00 0.000000000000000e+00 0.000000000000000e+00
0.000000000000000e+00 0.000000000000000e+00 0.000000000000000e+00
0.000000000000000e+00 0.000000000000000e+00 0.000000000000000e+00
0.000000000000000e+00 0.000000000000000e+00 0.000000000000000e+00
0.000000000000000e+00 0.000000000000000e+00 0.000000000000000e+00
0.000000000000000e+00 0.000000000000000e+00 0.000000000000000e+00
0.000000000000000e+00 0.000000000000000e+00 0.000000000000000e+00
0.000000000000000e+00 0.000000000000000e+00 0.000000000000000e+00
0.000000000000000e+00 0.000000000000000e+00 0.000000000000000e+00
0.000000000000000e+00 0.000000000000000e+00 0.000000000000000e+00
0.000000000000000e+00 0.000000000000000e+00 0.000000000000000e+00
0.000000000000000e+00 0.000000000000000e+00 0.000000000000000e+00
0.000000000000000e+00 0.000000000000000e+00 0.000000000000000e+00
0.000000000000000e+00 0.000000000000000e+00 0.000000000000000e+00
0.000000000000000e+00 0.000000000000000e+00 0.000000000000000e+00
0.000000000000000e+00 0.000000000000000e+00 0.000000000000000e+00
0.000000000000000e+00 0.000000000000000e+00 0.000000000000000e+00
0.000000000000000e+00 0.000000000000000e+00 0.000000000000000e+00
0.000000000000000e+00 0.000000000000000e+00 0.000000000000000e+00
0.000000000000000e+00 0.000000000000000e+00 0.000000000000000e+00
0.000000000000000e+00 0.000000000000000e+00 0.000000000000000e+00
0.000000000000000e+00 0.000000000000000e+00 0.000000000000000e+00
0.000000000000000e+00 0.000000000000000e+00 0.000000000000000e+00
0.000000000000000e+00 0.000000000000000e+00 0.000000000000000e+00
0.000000000000000e+00 0.000000000000000e+00 0.000000000000000e+00
0.000000000000000e+00 0.000000000000000e+00 0.000000000000000e+00
0.000000000000000e+00 0.000000000000000e+00 0.000000000000000e+00
0.000000000000000e+00 0.000000000000000e+00 0.000000000000000e+00
0.000000000000000e+00 0.000000000000000e+00 0.000000000000000e+00
0.000000000000000e+00 0.000000000000000e+00 0.000000000000000e+00
0.000000000000000e+00 0.000000000000000e+00 0.000000000000000e+00
0.000000000000000e+00 0.000000000000000e+00 0.000000000000000e+00
0.000000000000000e+00 0.000000000000000e+00 0.000000000000000e+00
0.000000000000000e+00 0.000000000000000e+00 0.000000000000000e+00
0.000000000000000e+00 0.000000000000000e+00 0.000000000000000e+00
0.000000000000000e+00 0.000000000000000e+00 0.000000000000000e+00
0.000000000000000e+00 0.000000000000000e+00 0.000000000000000e+00
0.000000000000000e+00 0.000000000000000e+00 0.000000000000000e+00
0.000000000000000e+00 0.000000000000000e+00 0.000000000000000e+00
0.000000000000000e+00 0.000000000000000e+00 0.000000000000000e+00
0.000000000000000e+00 0.000000000000000e+00 0.000000000000000e+00
0.000000000000000e+00 0.000000000000000e+00 0.000000000000000e+00
0.000000000000000e+00 0.000000000000000e+00 0.000000000000000e+00
0.000000000000000e+00 0.000000000000000e+00 0.000000000000000e+00
0.000000000000000e+00 0.000000000000000e+00 0.000000000000000e+00
0.000000000000000e+00 0.000000000000000e+00 0.000000000000000e+00
0.000000000000000e+00 0.000000000000000e+00 0.000000000000000e+00
0.000000000000000e+00 0.000000000000000e+00 0.000000000000000e+00
0.000000000000000e+00 0.000000000000000e+00 0.000000000000000e+00
0.000000000000000e+00 0.000000000000000e+00 0.000000000000000e+00
0.000000000000000e+00 0.000000000000000e+00 0.000000000000000e+00
0.000000000000000e+00 0.000000000000000e+00 0.000000000000000e+00
0.000000000000000e+00 0.000000000000000e+00 0.000000000000000e+00
0.000000000000000e+00 0.000000000000000e+00 0.000000000000000e+00
0.000000000000000e+00 0.000000000000000e+00 0.000000000000000e+00
0.000000000000000e+00 0.000000000000000e+00 0.000000000000000e+00
0.000000000000000e+00 0.000000000000000e+00 0.000000000000000e+00
0.000000000000000e+00 0.000000000000000e+00 0.000000000000000e+00
0.000000000000000e+00 0.000000000000000e+00 0.000000000000000e+00
0.000000000000000e+00 0.000000000000000e+00 0.000000000000000e+00
0.000000000000000e+00 0.000000000000000e+00 0.000000000000000e+00
0.000000000000000e+00 0.000000000000000e+00 0.000000000000000e+00
0.000000000000000e+00 0.000000000000000e+00 0.000000000000000e+00
0.000000000000000e+00 0.000000000000000e+00 0.000000000000000e+00
0.000000000000000e+00 0.000000000000000e+00 0.000000000000000e+00
0.000000000000000e+00 0.000000000000000e+00 0.000000000000000e+00
0.000000000000000e+00 0.000000000000000e+00 0.000000000000000e+00
0.000000000000000e+00 0.000000000000000e+00 0.000000000000000e+00
0.000000000000000e+00 0.000000000000000e+00 0.000000000000000e+00
0.000000000000000e+00 0.000000000000000e+00 0.000000000000000e+00
0.000000000000000e+00 0.000000000000000e+00 0.000000000000000e+00
0.000000000000000e+00 0.000000000000000e+00 0.000000000000000e+00
0.000000000000000e+00 0.000000000000000e+00 0.000000000000000e+00
0.000000000000000e+00 0.000000000000000e+00 0.000000000000000e+00
0.000000000000000e+00 0.000000000000000e+00 0.000000000000000e+00
0.000000000000000e+00 0.000000000000000e+00 0.000000000000000e+00
0.000000000000000e+00 0.000000000000000e+00 0.000000000000000e+00
0.000000000000000e+00 0.000000000000000e+00 0.000000000000000e+00
0.000000000000000e+00 0.000000000000000e+00 0.000000000000000e+00
0.000000000000000e+00 0.000000000000000e+00 0.000000000000000e+00
0.000000000000000e+00 0.000000000000000e+00 0.000000000000000e+00
0.000000000000000e+00 0.000000000000000e+00 0.000000000000000e+00
0.000000000000000e+00 0.000000000000000e+00 0.000000000000000e+00
0.000000000000000e+00 0.000000000000000e+00 0.000000000000000e+00
0.000000000000000e+00 0.000000000000000e+00 0.000000000000000e+00
0.000000000000000e+00 0.000000000000000e+00 0.000000000000000e+00
0.000000000000000e+00 0.000000000000000e+00 0.000000000000000e+00
0.000000000000000e+00 0.000000000000000e+00 0.000000000000000e+00
0.000000000000000e+00 0.000000000000000e+00 0.000000000000000e+00
0.000000000000000e+00 0.000000000000000e+00 0.000000000000000e+00
0.000000000000000e+00 0.000000000000000e+00 0.000000000000000e+00
0.000000000000000e+00 0.000000000000000e+00 0.000000000000000e+00
0.000000000000000e+00 0.000000000000000e+00 0.000000000000000e+00
0.000000000000000e+00 0.000000000000000e+00 0.000000000000000e+00
0.000000000000000e+00 0.000000000000000e+00 0.000000000000000e+00
0.000000000000000e+00 0.000000000000000e+00 0.000000000000000e+00
0.000000000000000e+00 0.000000000000000e+00 0.000000000000000e+00
0.000000000000000e+00 0.000000000000000e+00 0.000000000000000e+00
0.000000000000000e+00 0.000000000000000e+00 0.000000000000000e+00
0.000000000000000e+00 0.000000000000000e+00 0.000000000000000e+00
0.000000000000000e+00 0.000000000000000e+00 0.000000000000000e+00
0.000000000000000e+00 0.000000000000000e+00 0.000000000000000e+00
0.000000000000000e+00 0.000000000000000e+00 0.000000000000000e+00
0.000000000000000e+00 0.000000000000000e+00 0.000000000000000e+00
0.000000000000000e+00 0.000000000000000e+00 0.000000000000000e+00
0.000000000000000e+00 0.000000000000000e+00 0.000000000000000e+00
0.000000000000000e+00 0.000000000000000e+00 0.000000000000000e+00
0.000000000000000e+00 0.000000000000000e+00 0.000000000000000e+00
0.000000000000000e+00 0.000000000000000e+00 0.000000000000000e+00
0.000000000000000e+00 0.000000000000000e+00 0.000000000000000e+00
0.000000000000000e+00 0.000000000000000e+00 0.000000000000000e+00
0.000000000000000e+00 0.000000000000000e+00 0.000000000000000e+00
0.000000000000000e+00 0.000000000000000e+00 0.000000000000000e+00
0.000000000000000e+00 0.000000000000000e+00 0.000000000000000e+00
0.000000000000000e+00 0.000000000000000e+00 0.000000000000000e+00
0.000000000000000e+00 0.000000000000000e+00 0.000000000000000e+00
0.000000000000000e+00 0.000000000000000e+00 0.000000000000000e+00
0.000000000000000e+00 0.000000000000000e+00 0.000000000000000e+00
0.000000000000000e+00 0.000000000000000e+00 0.000000000000000e+00
0.000000000000000e+00 0.000000000000000e+00 0.000000000000000e+00
0.000000000000000e+00 0.000000000000000e+00 0.000000000000000e+00
0.000000000000000e+00 0.000000000000000e+00 0.000000000000000e+00
0.000000000000000e+00 0.000000000000000e+00 0.000000000000000e+00
0.000000000000000e+00 0.000000000000000e+00 0.000000000000000e+00
0.000000000000000e+00 0.000000000000000e+00 0.000000000000000e+00
0.000000000000000e+00 0.000000000000000e+00 0.000000000000000e+00
0.000000000000000e+00 0.000000000000000e+00 0.000000000000000e+00
0.000000000000000e+00 0.000000000000000e+00 0.000000000000000e+00
0.000000000000000e+00 0.000000000000000e+00 0.000000000000000e+00
0.000000000000000e+00 0.000000000000000e+00 0.000000000000000e+00
0.000000000000000e+00 0.000000000000000e+00 0.000000000000000e+00
0.000000000000000e+00 0.000000000000000e+00 0.000000000000000e+00
0.000000000000000e+00 0.000000000000000e+00 0.000000000000000e+00
0.000000000000000e+00 0.000000000000000e+00 0.000000000000000e+00
0.000000000000000e+00 0.000000000000000e+00 0.000000000000000e+00
0.000000000000000e+00 0.000000000000000e+00 0.000000000000000e+00
0.000000000000000e+00 0.000000000000000e+00 0.000000000000000e+00
0.000000000000000e+00 0.000000000000000e+00 0.000000000000000e+00
0.000000000000000e+00 0.000000000000000e+00 0.000000000000000e+00
0.000000000000000e+00 0.000000000000000e+00 0.000000000000000e+00
0.000000000000000e+00 0.000000000000000e+00 0.000000000000000e+00
0.000000000000000e+00 0.000000000000000e+00 0.000000000000000e+00
0.000000000000000e+00 0.000000000000000e+00 0.000000000000000e+00
0.000000000000000e+00 0.000000000000000e+00 0.000000000000000e+00
0.000000000000000e+00 0.000000000000000e+00 0.000000000000000e+00
0.000000000000000e+00 0.000000000000000e+00 0.000000000000000e+00
0.000000000000000e+00 0.000000000000000e+00 0.000000000000000e+00
0.000000000000000e+00 0.000000000000000e+00 0.000000000000000e+00
0.000000000000000e+00 0.000000000000000e+00 0.000000000000000e+00
0.000000000000000e+00 0.000000000000000e+00 0.000000000000000e+00
0.000000000000000e+00 0.000000000000000e+00 0.000000000000000e+00
0.000000000000000e+00 0.000000000000000e+00 0.000000000000000e+00
0.000000000000000e+00 0.000000000000000e+00 0.000000000000000e+00
0.000000000000000e+00 0.000000000000000e+00 0.000000000000000e+00
0.000000000000000e+00 0.000000000000000e+00 0.000000000000000e+00
0.000000000000000e+00 0.000000000000000e+00 0.000000000000000e+00
0.000000000000000e+00 0.000000000000000e+00 0.000000000000000e+00
0.000000000000000e+00 0.000000000000000e+00 0.000000000000000e+00
0.000000000000000e+00 0.000000000000000e+00 0.000000000000000e+00
0.000000000000000e+00 0.000000000000000e+00 0.000000000000000e+00
0.000000000000000e+00 0.000000000000000e+00 0.000000000000000e+00
0.000000000000000e+00 0.000000000000000e+00 0.000000000000000e+00
0.000000000000000e+00 0.000000000000000e+00 0.000000000000000e+00
0.000000000000000e+00 0.000000000000000e+00 0.000000000000000e+00
0.000000000000000e+00 0.000000000000000e+00 0.000000000000000e+00
0.000000000000000e+00 0.000000000000000e+00 0.000000000000000e+00
0.000000000000000e+00 0.000000000000000e+00 0.000000000000000e+00
0.000000000000000e+00 0.000000000000000e+00 0.000000000000000e+00
0.000000000000000e+00 0.000000000000000e+00 0.000000000000000e+00
0.000000000000000e+00 0.000000000000000e+00 0.000000000000000e+00
0.000000000000000e+00 0.000000000000000e+00 0.000000000000000e+00
0.000000000000000e+00 0.000000000000000e+00 0.000000000000000e+00
0.000000000000000e+00 0.000000000000000e+00 0.000000000000000e+00
0.000000000000000e+00 0.000000000000000e+00 0.000000000000000e+00
0.000000000000000e+00 0.000000000000000e+00 0.000000000000000e+00
0.000000000000000e+00 0.000000000000000e+00 0.000000000000000e+00
0.000000000000000e+00 0.000000000000000e+00 0.000000000000000e+00
0.000000000000000e+00 0.000000000000000e+00 0.000000000000000e+00
0.000000000000000e+00 0.000000000000000e+00 0.000000000000000e+00
0.000000000000000e+00 0.000000000000000e+00 0.000000000000000e+00
0.000000000000000e+00 0.000000000000000e+00 0.000000000000000e+00
0.000000000000000e+00 0.000000000000000e+00 0.000000000000000e+00
0.000000000000000e+00 0.000000000000000e+00 0.000000000000000e+00
0.000000000000000e+00 0.000000000000000e+00 0.000000000000000e+00
0.000000000000000e+00 0.000000000000000e+00 0.000000000000000e+00
0.000000000000000e+00 0.000000000000000e+00 0.000000000000000e+00
0.000000000000000e+00 0.000000000000000e+00 0.000000000000000e+00
0.000000000000000e+00 0.000000000000000e+00 0.000000000000000e+00
0.000000000000000e+00 0.000000000000000e+00 0.000000000000000e+00
0.000000000000000e+00 0.000000000000000e+00 0.000000000000000e+00
0.000000000000000e+00 0.000000000000000e+00 0.000000000000000e+00
0.000000000000000e+00 0.000000000000000e+00 0.000000000000000e+00
0.000000000000000e+00 0.000000000000000e+00 0.000000000000000e+00
0.000000000000000e+00 0.000000000000000e+00 0.000000000000000e+00
0.000000000000000e+00 0.000000000000000e+00 0.000000000000000e+00
0.000000000000000e+00 0.000000000000000e+00 0.000000000000000e+00
0.000000000000000e+00 0.000000000000000e+00 0.000000000000000e+00
0.000000000000000e+00 0.000000000000000e+00 0.000000000000000e+00
0.000000000000000e+00 0.000000000000000e+00 0.000000000000000e+00
0.000000000000000e+00 0.000000000000000e+00 0.000000000000000e+00
0.000000000000000e+00 0.000000000000000e+00 0.000000000000000e+00
0.000000000000000e+00 0.000000000000000e+00 0.000000000000000e+00
0.000000000000000e+00 0.000000000000000e+00 0.000000000000000e+00
0.000000000000000e+00 0.000000000000000e+00 0.000000000000000e+00
0.000000000000000e+00 0.000000000000000e+00 0.000000000000000e+00
0.000000000000000e+00 0.000000000000000e+00 0.000000000000000e+00
0.000000000000000e+00 0.000000000000000e+00 0.000000000000000e+00
0.000000000000000e+00 0.000000000000000e+00 0.000000000000000e+00
0.000000000000000e+00 0.000000000000000e+00 0.000000000000000e+00
0.000000000000000e+00 0.000000000000000e+00 0.000000000000000e+00
0.000000000000000e+00 0.000000000000000e+00 0.000000000000000e+00
0.000000000000000e+00 0.000000000000000e+00 0.000000000000000e+00
0.000000000000000e+00 0.000000000000000e+00 0.000000000000000e+00
0.000000000000000e+00 0.000000000000000e+00 0.000000000000000e+00
0.000000000000000e+00 0.000000000000000e+00 0.000000000000000e+00
0.000000000000000e+00 0.000000000000000e+00 0.000000000000000e+00
0.000000000000000e+00 0.000000000000000e+00 0.000000000000000e+00
0.000000000000000e+00 0.000000000000000e+00 0.000000000000000e+00
0.000000000000000e+00 0.000000000000000e+00 0.000000000000000e+00
0.000000000000000e+00 0.000000000000000e+00 0.000000000000000e+00
0.000000000000000e+00 0.000000000000000e+00 0.000000000000000e+00
0.000000000000000e+00 0.000000000000000e+00 0.000000000000000e+00
0.000000000000000e+00 0.000000000000000e+00 0.000000000000000e+00
0.000000000000000e+00 0.000000000000000e+00 0.000000000000000e+00
0.000000000000000e+00 0.000000000000000e+00 0.000000000000000e+00
0.000000000000000e+00 0.000000000000000e+00 0.000000000000000e+00
0.000000000000000e+00 0.000000000000000e+00 0.000000000000000e+00
0.000000000000000e+00 0.000000000000000e+00 0.000000000000000e+00
0.000000000000000e+00 0.000000000000000e+00 0.000000000000000e+00
0.000000000000000e+00 0.000000000000000e+00 0.000000000000000e+00
0.000000000000000e+00 0.000000000000000e+00 0.000000000000000e+00
0.000000000000000e+00 0.000000000000000e+00 0.000000000000000e+00
0.000000000000000e+00 0.000000000000000e+00 0.000000000000000e+00
0.000000000000000e+00 0.000000000000000e+00 0.000000000000000e+00
0.000000000000000e+00 0.000000000000000e+00 0.000000000000000e+00
0.000000000000000e+00 0.000000000000000e+00 0.000000000000000e+00
0.000000000000000e+00 0.000000000000000e+00 0.000000000000000e+00
0.000000000000000e+00 0.000000000000000e+00 0.000000000000000e+00
0.000000000000000e+00 0.000000000000000e+00 0.000000000000000e+00
0.000000000000000e+00 0.000000000000000e+00 0.000000000000000e+00
0.000000000000000e+00 0.000000000000000e+00 0.000000000000000e+00
0.000000000000000e+00 0.000000000000000e+00 0.000000000000000e+00
0.000000000000000e+00 0.000000000000000e+00 0.000000000000000e+00
0.000000000000000e+00 0.000000000000000e+00 0.000000000000000e+00
0.000000000000000e+00 0.000000000000000e+00 0.000000000000000e+00
0.000000000000000e+00 0.000000000000000e+00 0.000000000000000e+00
0.000000000000000e+00 0.000000000000000e+00 0.000000000000000e+00
0.000000000000000e+00 0.000000000000000e+00 0.000000000000000e+00
0.000000000000000e+00 0.000000000000000e+00 0.000000000000000e+00
0.000000000000000e+00 0.000000000000000e+00 0.000000000000000e+00
0.000000000000000e+00 0.000000000000000e+00 0.000000000000000e+00
0.000000000000000e+00 0.000000000000000e+00 0.000000000000000e+00
0.000000000000000e+00 0.000000000000000e+00 0.000000000000000e+00
0.000000000000000e+00 0.000000000000000e+00 0.000000000000000e+00
0.000000000000000e+00 0.000000000000000e+00 0.000000000000000e+00
0.000000000000000e+00 0.000000000000000e+00 0.000000000000000e+00
0.000000000000000e+00 0.000000000000000e+00 0.000000000000000e+00
0.000000000000000e+00 0.000000000000000e+00 0.000000000000000e+00
0.000000000000000e+00 0.000000000000000e+00 0.000000000000000e+00
0.000000000000000e+00 0.000000000000000e+00 0.000000000000000e+00
0.000000000000000e+00 0.000000000000000e+00 0.000000000000000e+00
0.000000000000000e+00 0.000000000000000e+00 0.000000000000000e+00
0.000000000000000e+00 0.000000000000000e+00 0.000000000000000e+00
0.000000000000000e+00 0.000000000000000e+00 0.000000000000000e+00
0.000000000000000e+00 0.000000000000000e+00 0.000000000000000e+00
0.000000000000000e+00 0.000000000000000e+00 0.000000000000000e+00
0.000000000000000e+00 0.000000000000000e+00 0.000000000000000e+00
0.000000000000000e+00 0.000000000000000e+00 0.000000000000000e+00
0.000000000000000e+00 0.000000000000000e+00 0.000000000000000e+00
0.000000000000000e+00 0.000000000000000e+00 0.000000000000000e+00
0.000000000000000e+00 0.000000000000000e+00 0.000000000000000e+00
0.000000000000000e+00 0.000000000000000e+00 0.000000000000000e+00
0.000000000000000e+00 0.000000000000000e+00 0.000000000000000e+00
0.000000000000000e+00 0.000000000000000e+00 0.000000000000000e+00
0.000000000000000e+00 0.000000000000000e+00 0.000000000000000e+00
0.000000000000000e+00 0.000000000000000e+00 0.000000000000000e+00
0.000000000000000e+00 0.000000000000000e+00 0.000000000000000e+00
0.000000000000000e+00 0.000000000000000e+00 0.000000000000000e+00
0.000000000000000e+00 0.000000000000000e+00 0.000000000000000e+00
0.000000000000000e+00 0.000000000000000e+00 0.000000000000000e+00
0.000000000000000e+00 0.000000000000000e+00 0.000000000000000e+00
0.000000000000000e+00 0.000000000000000e+00 0.000000000000000e+00
0.000000000000000e+00 0.000000000000000e+00 0.000000000000000e+00
0.000000000000000e+00 0.000000000000000e+00 0.000000000000000e+00
0.000000000000000e+00 0.000000000000000e+00 0.000000000000000e+00
0.000000000000000e+00 0.000000000000000e+00 0.000000000000000e+00
0.000000000000000e+00 0.000000000000000e+00 0.000000000000000e+00
0.000000000000000e+00 0.000000000000000e+00 0.000000000000000e+00
0.000000000000000e+00 0.000000000000000e+00 0.000000000000000e+00
0.000000000000000e+00 0.000000000000000e+00 0.000000000000000e+00
0.000000000000000e+00 0.000000000000000e+00 0.000000000000000e+00
0.000000000000000e+00 0.000000000000000e+00 0.000000000000000e+00
0.000000000000000e+00 0.000000000000000e+00 0.000000000000000e+00
0.000000000000000e+00 0.000000000000000e+00 0.000000000000000e+00
0.000000000000000e+00 0.000000000000000e+00 0.000000000000000e+00
0.000000000000000e+00 0.000000000000000e+00 0.000000000000000e+00
0.000000000000000e+00 0.000000000000000e+00 0.000000000000000e+00
0.000000000000000e+00 0.000000000000000e+00 0.000000000000000e+00
0.000000000000000e+00 0.000000000000000e+00 0.000000000000000e+00
0.000000000000000e+00 0.000000000000000e+00 0.000000000000000e+00
0.000000000000000e+00 0.000000000000000e+00 0.000000000000000e+00
0.000000000000000e+00 0.000000000000000e+00 0.000000000000000e+00
0.000000000000000e+00 0.000000000000000e+00 0.000000000000000e+00
0.000000000000000e+00 0.000000000000000e+00 0.000000000000000e+00
0.000000000000000e+00 0.000000000000000e+00 0.000000000000000e+00
0.000000000000000e+00 0.000000000000000e+00 0.000000000000000e+00
0.000000000000000e+00 0.000000000000000e+00 0.000000000000000e+00
0.000000000000000e+00 0.000000000000000e+00 0.000000000000000e+00
0.000000000000000e+00 0.000000000000000e+00 0.000000000000000e+00
0.000000000000000e+00 0.000000000000000e+00 0.000000000000000e+00
0.000000000000000e+00 0.000000000000000e+00 0.000000000000000e+00
0.000000000000000e+00 0.000000000000000e+00 0.000000000000000e+00
0.000000000000000e+00 0.000000000000000e+00 0.000000000000000e+00
0.000000000000000e+00 0.000000000000000e+00 0.000000000000000e+00
0.000000000000000e+00 0.000000000000000e+00 0.000000000000000e+00
0.000000000000000e+00 0.000000000000000e+00 0.000000000000000e+00
0.000000000000000e+00 0.000000000000000e+00 0.000000000000000e+00
0.000000000000000e+00 0.000000000000000e+00 0.000000000000000e+00
0.000000000000000e+00 0.000000000000000e+00 0.000000000000000e+00
0.000000000000000e+00 0.000000000000000e+00 0.000000000000000e+00
0.000000000000000e+00 0.000000000000000e+00 0.000000000000000e+00
0.000000000000000e+00 0.000000000000000e+00 0.000000000000000e+00
0.000000000000000e+00 0.000000000000000e+00 0.000000000000000e+00
0.000000000000000e+00 0.000000000000000e+00 0.000000000000000e+00
0.000000000000000e+00 0.000000000000000e+00 0.000000000000000e+00
0.000000000000000e+00 0.000000000000000e+00 0.000000000000000e+00
0.000000000000000e+00 0.000000000000000e+00 0.000000000000000e+00
0.000000000000000e+00 0.000000000000000e+00 0.000000000000000e+00
0.000000000000000e+00 0.000000000000000e+00 0.000000000000000e+00
0.000000000000000e+00 0.000000000000000e+00 0.000000000000000e+00
0.000000000000000e+00 0.000000000000000e+00 0.000000000000000e+00
0.000000000000000e+00 0.000000000000000e+00 0.000000000000000e+00
0.000000000000000e+00 0.000000000000000e+00 0.000000000000000e+00
0.000000000000000e+00 0.000000000000000e+00 0.000000000000000e+00
0.000000000000000e+00 0.000000000000000e+00 0.000000000000000e+00
0.000000000000000e+00 0.000000000000000e+00 0.000000000000000e+00
0.000000000000000e+00 0.000000000000000e+00 0.000000000000000e+00
0.000000000000000e+00 0.000000000000000e+00 0.000000000000000e+00
0.000000000000000e+00 0.000000000000000e+00 0.000000000000000e+00
0.000000000000000e+00 0.000000000000000e+00 0.000000000000000e+00
0.000000000000000e+00 0.000000000000000e+00 0.000000000000000e+00
0.000000000000000e+00 0.000000000000000e+00 0.000000000000000e+00
0.000000000000000e+00 0.000000000000000e+00 0.000000000000000e+00
0.000000000000000e+00 0.000000000000000e+00 0.000000000000000e+00
0.000000000000000e+00 0.000000000000000e+00 0.000000000000000e+00
0.000000000000000e+00 0.000000000000000e+00 0.000000000000000e+00
0.000000000000000e+00 0.000000000000000e+00 0.000000000000000e+00
0.000000000000000e+00 0.000000000000000e+00 0.000000000000000e+00
0.000000000000000e+00 0.000000000000000e+00 0.000000000000000e+00
0.000000000000000e+00 0.000000000000000e+00 0.000000000000000e+00
0.000000000000000e+00 0.000000000000000e+00 0.000000000000000e+00
0.000000000000000e+00 0.000000000000000e+00 0.000000000000000e+00
0.000000000000000e+00 0.000000000000000e+00 0.000000000000000e+00
0.000000000000000e+00 0.000000000000000e+00 0.000000000000000e+00
0.000000000000000e+00 0.000000000000000e+00 0.000000000000000e+00
0.000000000000000e+00 0.000000000000000e+00 0.000000000000000e+00
0.000000000000000e+00 0.000000000000000e+00 0.000000000000000e+00
0.000000000000000e+00 0.000000000000000e+00 0.000000000000000e+00
0.000000000000000e+00 0.000000000000000e+00 0.000000000000000e+00
0.000000000000000e+00 0.000000000000000e+00 0.000000000000000e+00
0.000000000000000e+00 0.000000000000000e+00 0.000000000000000e+00
0.000000000000000e+00 0.000000000000000e+00 0.000000000000000e+00
0.000000000000000e+00 0.000000000000000e+00 0.000000000000000e+00
0.000000000000000e+00 0.000000000000000e+00 0.000000000000000e+00
0.000000000000000e+00 0.000000000000000e+00 0.000000000000000e+00
0.000000000000000e+00 0.000000000000000e+00 0.000000000000000e+00
0.000000000000000e+00 0.000000000000000e+00 0.000000000000000e+00
0.000000000000000e+00 0.000000000000000e+00 0.000000000000000e+00
0.000000000000000e+00 0.000000000000000e+00 0.000000000000000e+00
0.000000000000000e+00 0.000000000000000e+00 0.000000000000000e+00
0.000000000000000e+00 0.000000000000000e+00 0.000000000000000e+00
0.000000000000000e+00 0.000000000000000e+00 0.000000000000000e+00
0.000000000000000e+00 0.000000000000000e+00 0.000000000000000e+00
0.000000000000000e+00 0.000000000000000e+00 0.000000000000000e+00
0.000000000000000e+00 0.000000000000000e+00 0.000000000000000e+00
0.000000000000000e+00 0.000000000000000e+00 0.000000000000000e+00
0.000000000000000e+00 0.000000000000000e+00 0.000000000000000e+00
0.000000000000000e+00 0.000000000000000e+00 0.000000000000000e+00
0.000000000000000e+00 0.000000000000000e+00 0.000000000000000e+00
0.000000000000000e+00 0.000000000000000e+00 0.000000000000000e+00
0.000000000000000e+00 0.000000000000000e+00 0.000000000000000e+00
0.000000000000000e+00 0.000000000000000e+00 0.000000000000000e+00
0.000000000000000e+00 0.000000000000000e+00 0.000000000000000e+00
0.000000000000000e+00 0.000000000000000e+00 0.000000000000000e+00
0.000000000000000e+00 0.000000000000000e+00 0.000000000000000e+00
0.000000000000000e+00 0.000000000000000e+00 0.000000000000000e+00
0.000000000000000e+00 0.000000000000000e+00 0.000000000000000e+00
0.000000000000000e+00 0.000000000000000e+00 0.000000000000000e+00
0.000000000000000e+00 0.000000000000000e+00 0.000000000000000e+00
0.000000000000000e+00 0.000000000000000e+00 0.000000000000000e+00
0.000000000000000e+00 0.000000000000000e+00 0.000000000000000e+00
0.000000000000000e+00 0.000000000000000e+00 0.000000000000000e+00
0.000000000000000e+00 0.000000000000000e+00 0.000000000000000e+00
0.000000000000000e+00 0.000000000000000e+00 0.000000000000000e+00
0.000000000000000e+00 0.000000000000000e+00 0.000000000000000e+00
0.000000000000000e+00 0.000000000000000e+00 0.000000000000000e+00
0.000000000000000e+00 0.000000000000000e+00 0.000000000000000e+00
0.000000000000000e+00 0.000000000000000e+00 0.000000000000000e+00
0.000000000000000e+00 0.000000000000000e+00 0.000000000000000e+00
0.000000000000000e+00 0.000000000000000e+00 0.000000000000000e+00
0.000000000000000e+00 0.000000000000000e+00 0.000000000000000e+00
0.000000000000000e+00 0.000000000000000e+00 0.000000000000000e+00
0.000000000000000e+00 0.000000000000000e+00 0.000000000000000e+00
0.000000000000000e+00 0.000000000000000e+00 0.000000000000000e+00
0.000000000000000e+00 0.000000000000000e+00 0.000000000000000e+00
0.000000000000000e+00 0.000000000000000e+00 0.000000000000000e+00
0.000000000000000e+00 0.000000000000000e+00 0.000000000000000e+00
0.000000000000000e+00 0.000000000000000e+00 0.000000000000000e+00
0.000000000000000e+00 0.000000000000000e+00 0.000000000000000e+00
0.000000000000000e+00 0.000000000000000e+00 0.000000000000000e+00
0.000000000000000e+00 0.000000000000000e+00 0.000000000000000e+00
0.000000000000000e+00 0.000000000000000e+00 0.000000000000000e+00
0.000000000000000e+00 0.000000000000000e+00 0.000000000000000e+00
0.000000000000000e+00 0.000000000000000e+00 0.000000000000000e+00
0.000000000000000e+00 0.000000000000000e+00 0.000000000000000e+00
0.000000000000000e+00 0.000000000000000e+00 0.000000000000000e+00
0.000000000000000e+00 0.000000000000000e+00 0.000000000000000e+00
0.000000000000000e+00 0.000000000000000e+00 0.000000000000000e+00
0.000000000000000e+00 0.000000000000000e+00 0.000000000000000e+00
0.000000000000000e+00 0.000000000000000e+00 0.000000000000000e+00
0.000000000000000e+00 0.000000000000000e+00 0.000000000000000e+00
0.000000000000000e+00 0.000000000000000e+00 0.000000000000000e+00
0.000000000000000e+00 0.000000000000000e+00 0.000000000000000e+00
0.000000000000000e+00 0.000000000000000e+00 0.000000000000000e+00
0.000000000000000e+00 0.000000000000000e+00 0.000000000000000e+00
0.000000000000000e+00 0.000000000000000e+00 0.000000000000000e+00
0.000000000000000e+00 0.000000000000000e+00 0.000000000000000e+00
0.000000000000000e+00 0.000000000000000e+00 0.000000000000000e+00
0.000000000000000e+00 0.000000000000000e+00 0.000000000000000e+00
0.000000000000000e+00 0.000000000000000e+00 0.000000000000000e+00
0.000000000000000e+00 0.000000000000000e+00 0.000000000000000e+00
0.000000000000000e+00 0.000000000000000e+00 0.000000000000000e+00
0.000000000000000e+00 0.000000000000000e+00 0.000000000000000e+00
0.000000000000000e+00 0.000000000000000e+00 0.000000000000000e+00
0.000000000000000e+00 0.000000000000000e+00 0.000000000000000e+00
0.000000000000000e+00 0.000000000000000e+00 0.000000000000000e+00
0.000000000000000e+00 0.000000000000000e+00 0.000000000000000e+00
0.000000000000000e+00 0.000000000000000e+00 0.000000000000000e+00
0.000000000000000e+00 0.000000000000000e+00 0.000000000000000e+00
0.000000000000000e+00 0.000000000000000e+00 0.000000000000000e+00
0.000000000000000e+00 0.000000000000000e+00 0.000000000000000e+00
0.000000000000000e+00 0.000000000000000e+00 0.000000000000000e+00
0.000000000000000e+00 0.000000000000000e+00 0.000000000000000e+00
0.000000000000000e+00 0.000000000000000e+00 0.000000000000000e+00
0.000000000000000e+00 0.000000000000000e+00 0.000000000000000e+00
0.000000000000000e+00 0.000000000000000e+00 0.000000000000000e+00
0.000000000000000e+00 0.000000000000000e+00 0.000000000000000e+00
0.000000000000000e+00 0.000000000000000e+00 0.000000000000000e+00
0.000000000000000e+00 0.000000000000000e+00 0.000000000000000e+00
0.000000000000000e+00 0.000000000000000e+00 0.000000000000000e+00
0.000000000000000e+00 0.000000000000000e+00 0.000000000000000e+00
0.000000000000000e+00 0.000000000000000e+00 0.000000000000000e+00
0.000000000000000e+00 0.000000000000000e+00 0.000000000000000e+00
0.000000000000000e+00 0.000000000000000e+00 0.000000000000000e+00
0.000000000000000e+00 0.000000000000000e+00 0.000000000000000e+00
0.000000000000000e+00 0.000000000000000e+00 0.000000000000000e+00
0.000000000000000e+00 0.000000000000000e+00 0.000000000000000e+00
0.000000000000000e+00 0.000000000000000e+00 0.000000000000000e+00
0.000000000000000e+00 0.000000000000000e+00 0.000000000000000e+00
0.000000000000000e+00 0.000000000000000e+00 0.000000000000000e+00
0.000000000000000e+00 0.000000000000000e+00 0.000000000000000e+00
0.000000000000000e+00 0.000000000000000e+00 0.000000000000000e+00
0.000000000000000e+00 0.000000000000000e+00 0.000000000000000e+00
0.000000000000000e+00 0.000000000000000e+00 0.000000000000000e+00
0.000000000000000e+00 0.000000000000000e+00 0.000000000000000e+00
0.000000000000000e+00 0.000000000000000e+00 0.000000000000000e+00
0.000000000000000e+00 0.000000000000000e+00 0.000000000000000e+00
0.000000000000000e+00 0.000000000000000e+00 0.000000000000000e+00
0.000000000000000e+00 0.000000000000000e+00 0.000000000000000e+00
0.000000000000000e+00 0.000000000000000e+00 0.000000000000000e+00
0.000000000000000e+00 0.000000000000000e+00 0.000000000000000e+00
0.000000000000000e+00 0.000000000000000e+00 0.000000000000000e+00
0.000000000000000e+00 0.000000000000000e+00 0.000000000000000e+00
0.000000000000000e+00 0.000000000000000e+00 0.000000000000000e+00
0.000000000000000e+00 0.000000000000000e+00 0.000000000000000e+00
0.000000000000000e+00 0.000000000000000e+00 0.000000000000000e+00
0.000000000000000e+00 0.000000000000000e+00 0.000000000000000e+00
0.000000000000000e+00 0.000000000000000e+00 0.000000000000000e+00
0.000000000000000e+00 0.000000000000000e+00 0.000000000000000e+00
0.000000000000000e+00 0.000000000000000e+00 0.000000000000000e+00
0.000000000000000e+00 0.000000000000000e+00 0.000000000000000e+00
0.000000000000000e+00 0.000000000000000e+00 0.000000000000000e+00
0.000000000000000e+00 0.000000000000000e+00 0.000000000000000e+00
0.000000000000000e+00 0.000000000000000e+00 0.000000000000000e+00
0.000000000000000e+00 0.000000000000000e+00 0.000000000000000e+00
0.000000000000000e+00 0.000000000000000e+00 0.000000000000000e+00
0.000000000000000e+00 0.000000000000000e+00 0.000000000000000e+00
0.000000000000000e+00 0.000000000000000e+00 0.000000000000000e+00
0.000000000000000e+00 0.000000000000000e+00 0.000000000000000e+00
0.000000000000000e+00 0.000000000000000e+00 0.000000000000000e+00
0.000000000000000e+00 0.000000000000000e+00 0.000000000000000e+00
0.000000000000000e+00 0.000000000000000e+00 0.000000000000000e+00
0.000000000000000e+00 0.000000000000000e+00 0.000000000000000e+00
0.000000000000000e+00 0.000000000000000e+00 0.000000000000000e+00
0.000000000000000e+00 0.000000000000000e+00 0.000000000000000e+00
0.000000000000000e+00 0.000000000000000e+00 0.000000000000000e+00
0.000000000000000e+00 0.000000000000000e+00 0.000000000000000e+00
0.000000000000000e+00 0.000000000000000e+00 0.000000000000000e+00
0.000000000000000e+00 0.000000000000000e+00 0.000000000000000e+00
0.000000000000000e+00 0.000000000000000e+00 0.000000000000000e+00
0.000000000000000e+00 0.000000000000000e+00 0.000000000000000e+00
0.000000000000000e+00 0.000000000000000e+00 0.000000000000000e+00
0.000000000000000e+00 0.000000000000000e+00 0.000000000000000e+00
0.000000000000000e+00 0.000000000000000e+00 0.000000000000000e+00
0.000000000000000e+00 0.000000000000000e+00 0.000000000000000e+00
0.000000000000000e+00 0.000000000000000e+00 0.000000000000000e+00
0.000000000000000e+00 0.000000000000000e+00 0.000000000000000e+00
0.000000000000000e+00 0.000000000000000e+00 0.000000000000000e+00
0.000000000000000e+00 0.000000000000000e+00 0.000000000000000e+00
0.000000000000000e+00 0.000000000000000e+00 0.000000000000000e+00
0.000000000000000e+00 0.000000000000000e+00 0.000000000000000e+00
0.000000000000000e+00 0.000000000000000e+00 0.000000000000000e+00
0.000000000000000e+00 0.000000000000000e+00 0.000000000000000e+00
0.000000000000000e+00 0.000000000000000e+00 0.000000000000000e+00
0.000000000000000e+00 0.000000000000000e+00 0.000000000000000e+00
0.000000000000000e+00 0.000000000000000e+00 0.000000000000000e+00
0.000000000000000e+00 0.000000000000000e+00 0.000000000000000e+00
0.000000000000000e+00 0.000000000000000e+00 0.000000000000000e+00
0.000000000000000e+00 0.000000000000000e+00 0.000000000000000e+00
0.000000000000000e+00 0.000000000000000e+00 0.000000000000000e+00
0.000000000000000e+00 0.000000000000000e+00 0.000000000000000e+00
0.000000000000000e+00 0.000000000000000e+00 0.000000000000000e+00
0.000000000000000e+00 0.000000000000000e+00 0.000000000000000e+00
0.000000000000000e+00 0.000000000000000e+00 0.000000000000000e+00
0.000000000000000e+00 0.000000000000000e+00 0.000000000000000e+00
0.000000000000000e+00 0.000000000000000e+00 0.000000000000000e+00
0.000000000000000e+00 0.000000000000000e+00 0.000000000000000e+00
0.000000000000000e+00 0.000000000000000e+00 0.000000000000000e+00
0.000000000000000e+00 0.000000000000000e+00 0.000000000000000e+00
0.000000000000000e+00 0.000000000000000e+00 0.000000000000000e+00
0.000000000000000e+00 0.000000000000000e+00 0.000000000000000e+00
0.000000000000000e+00 0.000000000000000e+00 0.000000000000000e+00
0.000000000000000e+00 0.000000000000000e+00 0.000000000000000e+00
0.000000000000000e+00 0.000000000000000e+00 0.000000000000000e+00
0.000000000000000e+00 0.000000000000000e+00 0.000000000000000e+00
0.000000000000000e+00 0.000000000000000e+00 0.000000000000000e+00
0.000000000000000e+00 0.000000000000000e+00 0.000000000000000e+00
0.000000000000000e+00 0.000000000000000e+00 0.000000000000000e+00
0.000000000000000e+00 0.000000000000000e+00 0.000000000000000e+00
0.000000000000000e+00 0.000000000000000e+00 0.000000000000000e+00
0.000000000000000e+00 0.000000000000000e+00 0.000000000000000e+00
0.000000000000000e+00 0.000000000000000e+00 0.000000000000000e+00
0.000000000000000e+00 0.000000000000000e+00 0.000000000000000e+00
0.000000000000000e+00 0.000000000000000e+00 0.000000000000000e+00
0.000000000000000e+00 0.000000000000000e+00 0.000000000000000e+00
0.000000000000000e+00 0.000000000000000e+00 0.000000000000000e+00
0.000000000000000e+00 0.000000000000000e+00 0.000000000000000e+00
0.000000000000000e+00 0.000000000000000e+00 0.000000000000000e+00
0.000000000000000e+00 0.000000000000000e+00 0.000000000000000e+00
0.000000000000000e+00 0.000000000000000e+00 0.000000000000000e+00
0.000000000000000e+00 0.000000000000000e+00 0.000000000000000e+00
0.000000000000000e+00 0.000000000000000e+00 0.000000000000000e+00
0.000000000000000e+00 0.000000000000000e+00 0.000000000000000e+00
0.000000000000000e+00 0.000000000000000e+00 0.000000000000000e+00
0.000000000000000e+00 0.000000000000000e+00 0.000000000000000e+00
0.000000000000000e+00 0.000000000000000e+00 0.000000000000000e+00
0.000000000000000e+00 0.000000000000000e+00 0.000000000000000e+00
0.000000000000000e+00 0.000000000000000e+00 0.000000000000000e+00
0.000000000000000e+00 0.000000000000000e+00 0.000000000000000e+00
0.000000000000000e+00 0.000000000000000e+00 0.000000000000000e+00
0.000000000000000e+00 0.000000000000000e+00 0.000000000000000e+00
0.000000000000000e+00 0.000000000000000e+00 0.000000000000000e+00
0.000000000000000e+00 0.000000000000000e+00 0.000000000000000e+00
0.000000000000000e+00 0.000000000000000e+00 0.000000000000000e+00
0.000000000000000e+00 0.000000000000000e+00 0.000000000000000e+00
0.000000000000000e+00 0.000000000000000e+00 0.000000000000000e+00
0.000000000000000e+00 0.000000000000000e+00 0.000000000000000e+00
0.000000000000000e+00 0.000000000000000e+00 0.000000000000000e+00
0.000000000000000e+00 0.000000000000000e+00 0.000000000000000e+00
0.000000000000000e+00 0.000000000000000e+00 0.000000000000000e+00
0.000000000000000e+00 0.000000000000000e+00 0.000000000000000e+00
0.000000000000000e+00 0.000000000000000e+00 0.000000000000000e+00
0.000000000000000e+00 0.000000000000000e+00 0.000000000000000e+00
0.000000000000000e+00 0.000000000000000e+00 0.000000000000000e+00
0.000000000000000e+00 0.000000000000000e+00 0.000000000000000e+00
0.000000000000000e+00 0.000000000000000e+00 0.000000000000000e+00
0.000000000000000e+00 0.000000000000000e+00 0.000000000000000e+00
0.000000000000000e+00 0.000000000000000e+00 0.000000000000000e+00
0.000000000000000e+00 0.000000000000000e+00 0.000000000000000e+00
0.000000000000000e+00 0.000000000000000e+00 0.000000000000000e+00
0.000000000000000e+00 0.000000000000000e+00 0.000000000000000e+00
0.000000000000000e+00 0.000000000000000e+00 0.000000000000000e+00
0.000000000000000e+00 0.000000000000000e+00 0.000000000000000e+00
0.000000000000000e+00 0.000000000000000e+00 0.000000000000000e+00
0.000000000000000e+00 0.000000000000000e+00 0.000000000000000e+00
0.000000000000000e+00 0.000000000000000e+00 0.000000000000000e+00
0.000000000000000e+00 0.000000000000000e+00 0.000000000000000e+00
0.000000000000000e+00 0.000000000000000e+00 0.000000000000000e+00
0.000000000000000e+00 0.000000000000000e+00 0.000000000000000e+00
0.000000000000000e+00 0.000000000000000e+00 0.000000000000000e+00
0.000000000000000e+00 0.000000000000000e+00 0.000000000000000e+00
0.000000000000000e+00 0.000000000000000e+00 0.000000000000000e+00
0.000000000000000e+00 0.000000000000000e+00 0.000000000000000e+00
0.000000000000000e+00 0.000000000000000e+00 0.000000000000000e+00
0.000000000000000e+00 0.000000000000000e+00 0.000000000000000e+00
0.000000000000000e+00 0.000000000000000e+00 0.000000000000000e+00
0.000000000000000e+00 0.000000000000000e+00 0.000000000000000e+00
0.000000000000000e+00 0.000000000000000e+00 0.000000000000000e+00
0.000000000000000e+00 0.000000000000000e+00 0.000000000000000e+00
0.000000000000000e+00 0.000000000000000e+00 0.000000000000000e+00
0.000000000000000e+00 0.000000000000000e+00 0.000000000000000e+00
0.000000000000000e+00 0.000000000000000e+00 0.000000000000000e+00
0.000000000000000e+00 0.000000000000000e+00 0.000000000000000e+00
0.000000000000000e+00 0.000000000000000e+00 0.000000000000000e+00
0.000000000000000e+00 0.000000000000000e+00 0.000000000000000e+00
0.000000000000000e+00 0.000000000000000e+00 0.000000000000000e+00
0.000000000000000e+00 0.000000000000000e+00 0.000000000000000e+00
0.000000000000000e+00 0.000000000000000e+00 0.000000000000000e+00
0.000000000000000e+00 0.000000000000000e+00 0.000000000000000e+00
0.000000000000000e+00 0.000000000000000e+00 0.000000000000000e+00
0.000000000000000e+00 0.000000000000000e+00 0.000000000000000e+00
0.000000000000000e+00 0.000000000000000e+00 0.000000000000000e+00
0.000000000000000e+00 0.000000000000000e+00 0.000000000000000e+00
0.000000000000000e+00 0.000000000000000e+00 0.000000000000000e+00
0.000000000000000e+00 0.000000000000000e+00 0.000000000000000e+00
0.000000000000000e+00 0.000000000000000e+00 0.000000000000000e+00
0.000000000000000e+00 0.000000000000000e+00 0.000000000000000e+00
0.000000000000000e+00 0.000000000000000e+00 0.000000000000000e+00
0.000000000000000e+00 0.000000000000000e+00 0.000000000000000e+00
0.000000000000000e+00 0.000000000000000e+00 0.000000000000000e+00
0.000000000000000e+00 0.000000000000000e+00 0.000000000000000e+00
0.000000000000000e+00 0.000000000000000e+00 0.000000000000000e+00
0.000000000000000e+00 0.000000000000000e+00 0.000000000000000e+00
0.000000000000000e+00 0.000000000000000e+00 0.000000000000000e+00
0.000000000000000e+00 0.000000000000000e+00 0.000000000000000e+00
0.000000000000000e+00 0.000000000000000e+00 0.000000000000000e+00
0.000000000000000e+00 0.000000000000000e+00 0.000000000000000e+00
0.000000000000000e+00 0.000000000000000e+00 0.000000000000000e+00
0.000000000000000e+00 0.000000000000000e+00 0.000000000000000e+00
0.000000000000000e+00 0.000000000000000e+00 0.000000000000000e+00
0.000000000000000e+00 0.000000000000000e+00 0.000000000000000e+00
0.000000000000000e+00 0.000000000000000e+00 0.000000000000000e+00
0.000000000000000e+00 0.000000000000000e+00 0.000000000000000e+00
0.000000000000000e+00 0.000000000000000e+00 0.000000000000000e+00
0.000000000000000e+00 0.000000000000000e+00 0.000000000000000e+00
0.000000000000000e+00 0.000000000000000e+00 0.000000000000000e+00
0.000000000000000e+00 0.000000000000000e+00 0.000000000000000e+00
0.000000000000000e+00 0.000000000000000e+00 0.000000000000000e+00
0.000000000000000e+00 0.000000000000000e+00 0.000000000000000e+00
0.000000000000000e+00 0.000000000000000e+00 0.000000000000000e+00
0.000000000000000e+00 0.000000000000000e+00 0.000000000000000e+00
0.000000000000000e+00 0.000000000000000e+00 0.000000000000000e+00
0.000000000000000e+00 0.000000000000000e+00 0.000000000000000e+00
0.000000000000000e+00 0.000000000000000e+00 0.000000000000000e+00
0.000000000000000e+00 0.000000000000000e+00 0.000000000000000e+00
0.000000000000000e+00 0.000000000000000e+00 0.000000000000000e+00
0.000000000000000e+00 0.000000000000000e+00 0.000000000000000e+00
0.000000000000000e+00 0.000000000000000e+00 0.000000000000000e+00
0.000000000000000e+00 0.000000000000000e+00 0.000000000000000e+00
0.000000000000000e+00 0.000000000000000e+00 0.000000000000000e+00
0.000000000000000e+00 0.000000000000000e+00 0.000000000000000e+00
0.000000000000000e+00 0.000000000000000e+00 0.000000000000000e+00
0.000000000000000e+00 0.000000000000000e+00 0.000000000000000e+00
0.000000000000000e+00 0.000000000000000e+00 0.000000000000000e+00
0.000000000000000e+00 0.000000000000000e+00 0.000000000000000e+00
0.000000000000000e+00 0.000000000000000e+00 0.000000000000000e+00
0.000000000000000e+00 0.000000000000000e+00 0.000000000000000e+00
0.000000000000000e+00 0.000000000000000e+00 0.000000000000000e+00
0.000000000000000e+00 0.000000000000000e+00 0.000000000000000e+00
0.000000000000000e+00 0.000000000000000e+00 0.000000000000000e+00
0.000000000000000e+00 0.000000000000000e+00 0.000000000000000e+00
0.000000000000000e+00 0.000000000000000e+00 0.000000000000000e+00
0.000000000000000e+00 0.000000000000000e+00 0.000000000000000e+00
0.000000000000000e+00 0.000000000000000e+00 0.000000000000000e+00
0.000000000000000e+00 0.000000000000000e+00 0.000000000000000e+00
0.000000000000000e+00 0.000000000000000e+00 0.000000000000000e+00
0.000000000000000e+00 0.000000000000000e+00 0.000000000000000e+00
0.000000000000000e+00 0.000000000000000e+00 0.000000000000000e+00
0.000000000000000e+00 0.000000000000000e+00 0.000000000000000e+00
0.000000000000000e+00 0.000000000000000e+00 0.000000000000000e+00
0.000000000000000e+00 0.000000000000000e+00 0.000000000000000e+00
0.000000000000000e+00 0.000000000000000e+00 0.000000000000000e+00
0.000000000000000e+00 0.000000000000000e+00 0.000000000000000e+00
0.000000000000000e+00 0.000000000000000e+00 0.000000000000000e+00
0.000000000000000e+00 0.000000000000000e+00 0.000000000000000e+00
0.000000000000000e+00 0.000000000000000e+00 0.000000000000000e+00
0.000000000000000e+00 0.000000000000000e+00 0.000000000000000e+00
0.000000000000000e+00 0.000000000000000e+00 0.000000000000000e+00
0.000000000000000e+00 0.000000000000000e+00 0.000000000000000e+00
0.000000000000000e+00 0.000000000000000e+00 0.000000000000000e+00
0.000000000000000e+00 0.000000000000000e+00 0.000000000000000e+00
0.000000000000000e+00 0.000000000000000e+00 0.000000000000000e+00
0.000000000000000e+00 0.000000000000000e+00 0.000000000000000e+00
0.000000000000000e+00 0.000000000000000e+00 0.000000000000000e+00
0.000000000000000e+00 0.000000000000000e+00 0.000000000000000e+00
0.000000000000000e+00 0.000000000000000e+00 0.000000000000000e+00
0.000000000000000e+00 0.000000000000000e+00 0.000000000000000e+00
0.000000000000000e+00 0.000000000000000e+00 0.000000000000000e+00
0.000000000000000e+00 0.000000000000000e+00 0.000000000000000e+00
0.000000000000000e+00 0.000000000000000e+00 0.000000000000000e+00
0.000000000000000e+00 0.000000000000000e+00 0.000000000000000e+00
0.000000000000000e+00 0.000000000000000e+00 0.000000000000000e+00
0.000000000000000e+00 0.000000000000000e+00 0.000000000000000e+00
0.000000000000000e+00 0.000000000000000e+00 0.000000000000000e+00
0.000000000000000e+00 0.000000000000000e+00 0.000000000000000e+00
0.000000000000000e+00 0.000000000000000e+00 0.000000000000000e+00
0.000000000000000e+00 0.000000000000000e+00 0.000000000000000e+00
0.000000000000000e+00 0.000000000000000e+00 0.000000000000000e+00
0.000000000000000e+00 0.000000000000000e+00 0.000000000000000e+00
0.000000000000000e+00 0.000000000000000e+00 0.000000000000000e+00
0.000000000000000e+00 0.000000000000000e+00 0.000000000000000e+00
0.000000000000000e+00 0.000000000000000e+00 0.000000000000000e+00
0.000000000000000e+00 0.000000000000000e+00 0.000000000000000e+00
0.000000000000000e+00 0.000000000000000e+00 0.000000000000000e+00
0.000000000000000e+00 0.000000000000000e+00 0.000000000000000e+00
0.000000000000000e+00 0.000000000000000e+00 0.000000000000000e+00
0.000000000000000e+00 0.000000000000000e+00 0.000000000000000e+00
0.000000000000000e+00 0.000000000000000e+00 0.000000000000000e+00
0.000000000000000e+00 0.000000000000000e+00 0.000000000000000e+00
0.000000000000000e+00 0.000000000000000e+00 0.000000000000000e+00
0.000000000000000e+00 0.000000000000000e+00 0.000000000000000e+00
0.000000000000000e+00 0.000000000000000e+00 0.000000000000000e+00
0.000000000000000e+00 0.000000000000000e+00 0.000000000000000e+00
0.000000000000000e+00 0.000000000000000e+00 0.000000000000000e+00
0.000000000000000e+00 0.000000000000000e+00 0.000000000000000e+00
0.000000000000000e+00 0.000000000000000e+00 0.000000000000000e+00
0.000000000000000e+00 0.000000000000000e+00 0.000000000000000e+00
0.000000000000000e+00 0.000000000000000e+00 0.000000000000000e+00
0.000000000000000e+00 0.000000000000000e+00 0.000000000000000e+00
0.000000000000000e+00 0.000000000000000e+00 0.000000000000000e+00
0.000000000000000e+00 0.000000000000000e+00 0.000000000000000e+00
0.000000000000000e+00 0.000000000000000e+00 0.000000000000000e+00
0.000000000000000e+00 0.000000000000000e+00 0.000000000000000e+00
0.000000000000000e+00 0.000000000000000e+00 0.000000000000000e+00
0.000000000000000e+00 0.000000000000000e+00 0.000000000000000e+00
0.000000000000000e+00 0.000000000000000e+00 0.000000000000000e+00
0.000000000000000e+00 0.000000000000000e+00 0.000000000000000e+00
0.000000000000000e+00 0.000000000000000e+00 0.000000000000000e+00
0.000000000000000e+00 0.000000000000000e+00 0.000000000000000e+00
0.000000000000000e+00 0.000000000000000e+00 0.000000000000000e+00
0.000000000000000e+00 0.000000000000000e+00 0.000000000000000e+00
0.000000000000000e+00 0.000000000000000e+00 0.000000000000000e+00
0.000000000000000e+00 0.000000000000000e+00 0.000000000000000e+00
0.000000000000000e+00 0.000000000000000e+00 0.000000000000000e+00
-1.099999999999996e-01  0.000000000000000e+00  1.957581212749620e-18
-1.099999999999996e-01  0.000000000000000e+00  1.957581212749620e-18
-1.099999999999996e-01  0.000000000000000e+00  1.957581212749620e-18
-1.099999999999996e-01  0.000000000000000e+00  1.957581212749620e-18
-1.099999999999996e-01  0.000000000000000e+00  1.957581212749620e-18
-1.099999999999996e-01  0.000000000000000e+00  1.957581212749620e-18
-1.099999999999996e-01  0.000000000000000e+00  1.957581212749620e-18
-1.099999999999996e-01  0.000000000000000e+00  1.957581212749620e-18
-1.099999999999996e-01  0.000000000000000e+00  1.957581212749620e-18
-1.099999999999996e-01  0.000000000000000e+00  1.957581212749620e-18
-1.099999999999996e-01  0.000000000000000e+00  1.957581212749620e-18
-1.099999999999996e-01  0.000000000000000e+00  1.957581212749620e-18
-1.099999999999996e-01  0.000000000000000e+00  1.957581212749620e-18
-1.099999999999996e-01  0.000000000000000e+00  1.957581212749620e-18
-1.099999999999996e-01  0.000000000000000e+00  1.957581212749620e-18
-1.099999999999996e-01  0.000000000000000e+00  1.957581212749620e-18
-1.099999999999996e-01  0.000000000000000e+00  1.957581212749620e-18
-1.099999999999996e-01  0.000000000000000e+00  1.957581212749620e-18
-1.099999999999996e-01  0.000000000000000e+00  1.957581212749620e-18
-1.099999999999996e-01  0.000000000000000e+00  1.957581212749620e-18
-1.099999999999996e-01  0.000000000000000e+00  1.957581212749620e-18
-1.099999999999996e-01  0.000000000000000e+00  1.957581212749620e-18
-1.099999999999996e-01  0.000000000000000e+00  1.957581212749620e-18
-1.099999999999996e-01  0.000000000000000e+00  1.957581212749620e-18
-1.099999999999996e-01  0.000000000000000e+00  1.957581212749620e-18
-1.099999999999996e-01  0.000000000000000e+00  1.957581212749620e-18
-1.099999999999996e-01  0.000000000000000e+00  1.957581212749620e-18
-1.099999999999996e-01  0.000000000000000e+00  1.957581212749620e-18
-1.099999999999996e-01  0.000000000000000e+00  1.957581212749620e-18
-1.099999999999996e-01  0.000000000000000e+00  1.957581212749620e-18
-1.099999999999996e-01  0.000000000000000e+00  1.957581212749620e-18
-1.099999999999996e-01  0.000000000000000e+00  1.957581212749620e-18
-1.099999999999996e-01  0.000000000000000e+00  1.957581212749620e-18
-1.099999999999996e-01  0.000000000000000e+00  1.957581212749620e-18
-1.099999999999996e-01  0.000000000000000e+00  1.957581212749620e-18
-1.099999999999996e-01  0.000000000000000e+00  1.957581212749620e-18
-1.099999999999996e-01  0.000000000000000e+00  1.957581212749620e-18
-1.099999999999996e-01  0.000000000000000e+00  1.957581212749620e-18
-1.099999999999996e-01  0.000000000000000e+00  1.957581212749620e-18
-1.099999999999996e-01  0.000000000000000e+00  1.957581212749620e-18
-1.099999999999996e-01  0.000000000000000e+00  1.957581212749620e-18
-1.099999999999996e-01  0.000000000000000e+00  1.957581212749620e-18
-1.099999999999996e-01  0.000000000000000e+00  1.957581212749620e-18
-1.099999999999996e-01  0.000000000000000e+00  1.957581212749620e-18
-1.099999999999996e-01  0.000000000000000e+00  1.957581212749620e-18
-1.099999999999996e-01  0.000000000000000e+00  1.957581212749620e-18
-1.099999999999996e-01  0.000000000000000e+00  1.957581212749620e-18
-1.099999999999996e-01  0.000000000000000e+00  1.957581212749620e-18
-1.099999999999996e-01  0.000000000000000e+00  1.957581212749620e-18
-1.099999999999996e-01  0.000000000000000e+00  1.957581212749620e-18
-1.099999999999996e-01  0.000000000000000e+00  1.957581212749620e-18
-1.099999999999996e-01  0.000000000000000e+00  1.957581212749620e-18
-1.099999999999996e-01  0.000000000000000e+00  1.957581212749620e-18
-1.099999999999996e-01  0.000000000000000e+00  1.957581212749620e-18
-1.099999999999996e-01  0.000000000000000e+00  1.957581212749620e-18
-1.099999999999996e-01  0.000000000000000e+00  1.957581212749620e-18
-1.099999999999996e-01  0.000000000000000e+00  1.957581212749620e-18
-1.099999999999996e-01  0.000000000000000e+00  1.957581212749620e-18
-1.099999999999996e-01  0.000000000000000e+00  1.957581212749620e-18
-1.099999999999996e-01  0.000000000000000e+00  1.957581212749620e-18
-1.099999999999996e-01  0.000000000000000e+00  1.957581212749620e-18
-1.099999999999996e-01  0.000000000000000e+00  1.957581212749620e-18
-1.099999999999996e-01  0.000000000000000e+00  1.957581212749620e-18
-1.099999999999996e-01  0.000000000000000e+00  1.957581212749620e-18
-1.099999999999996e-01  0.000000000000000e+00  1.957581212749620e-18
-1.099999999999996e-01  0.000000000000000e+00  1.957581212749620e-18
-1.099999999999996e-01  0.000000000000000e+00  1.957581212749620e-18
-1.099999999999996e-01  0.000000000000000e+00  1.957581212749620e-18
-1.099999999999996e-01  0.000000000000000e+00  1.957581212749620e-18
-1.099999999999996e-01  0.000000000000000e+00  1.957581212749620e-18
-1.099999999999996e-01  0.000000000000000e+00  1.957581212749620e-18
-1.099999999999996e-01  0.000000000000000e+00  1.957581212749620e-18
-1.099999999999996e-01  0.000000000000000e+00  1.957581212749620e-18
-1.099999999999996e-01  0.000000000000000e+00  1.957581212749620e-18
-1.099999999999996e-01  0.000000000000000e+00  1.957581212749620e-18
-1.099999999999996e-01  0.000000000000000e+00  1.957581212749620e-18
-1.099999999999996e-01  0.000000000000000e+00  1.957581212749620e-18
-1.099999999999996e-01  0.000000000000000e+00  1.957581212749620e-18
-1.099999999999996e-01  0.000000000000000e+00  1.957581212749620e-18
-1.099999999999996e-01  0.000000000000000e+00  1.957581212749620e-18
-1.099999999999996e-01  0.000000000000000e+00  1.957581212749620e-18
-1.099999999999996e-01  0.000000000000000e+00  1.957581212749620e-18
-1.099999999999996e-01  0.000000000000000e+00  1.957581212749620e-18
-1.099999999999996e-01  0.000000000000000e+00  1.957581212749620e-18
-1.099999999999996e-01  0.000000000000000e+00  1.957581212749620e-18
-1.099999999999996e-01  0.000000000000000e+00  1.957581212749620e-18
-1.099999999999996e-01  0.000000000000000e+00  1.957581212749620e-18
-1.099999999999996e-01  0.000000000000000e+00  1.957581212749620e-18
-1.099999999999996e-01  0.000000000000000e+00  1.957581212749620e-18
-1.099999999999996e-01  0.000000000000000e+00  1.957581212749620e-18
-1.099999999999996e-01  0.000000000000000e+00  1.957581212749620e-18
-1.099999999999996e-01  0.000000000000000e+00  1.957581212749620e-18
-1.099999999999996e-01  0.000000000000000e+00  1.957581212749620e-18
-1.099999999999996e-01  0.000000000000000e+00  1.957581212749620e-18
-1.099999999999996e-01  0.000000000000000e+00  1.957581212749620e-18
-1.099999999999996e-01  0.000000000000000e+00  1.957581212749620e-18
-1.099999999999996e-01  0.000000000000000e+00  1.957581212749620e-18
-1.099999999999996e-01  0.000000000000000e+00  1.957581212749620e-18
-1.099999999999996e-01  0.000000000000000e+00  1.957581212749620e-18
-1.099999999999996e-01  0.000000000000000e+00  1.957581212749620e-18
-1.099999999999996e-01  0.000000000000000e+00  1.957581212749620e-18
-1.099999999999996e-01  0.000000000000000e+00  1.957581212749620e-18
-1.099999999999996e-01  0.000000000000000e+00  1.957581212749620e-18
-1.099999999999996e-01  0.000000000000000e+00  1.957581212749620e-18
-1.099999999999996e-01  0.000000000000000e+00  1.957581212749620e-18
-1.099999999999996e-01  0.000000000000000e+00  1.957581212749620e-18
-1.099999999999996e-01  0.000000000000000e+00  1.957581212749620e-18
-1.099999999999996e-01  0.000000000000000e+00  1.957581212749620e-18
-1.099999999999996e-01  0.000000000000000e+00  1.957581212749620e-18
-1.099999999999996e-01  0.000000000000000e+00  1.957581212749620e-18
-1.099999999999996e-01  0.000000000000000e+00  1.957581212749620e-18
-1.099999999999996e-01  0.000000000000000e+00  1.957581212749620e-18
-1.099999999999996e-01  0.000000000000000e+00  1.957581212749620e-18
-1.099999999999996e-01  0.000000000000000e+00  1.957581212749620e-18
-1.099999999999996e-01  0.000000000000000e+00  1.957581212749620e-18
-1.099999999999996e-01  0.000000000000000e+00  1.957581212749620e-18
-1.099999999999996e-01  0.000000000000000e+00  1.957581212749620e-18
-1.099999999999996e-01  0.000000000000000e+00  1.957581212749620e-18
-1.099999999999996e-01  0.000000000000000e+00  1.957581212749620e-18
-1.099999999999996e-01  0.000000000000000e+00  1.957581212749620e-18
-1.099999999999996e-01  0.000000000000000e+00  1.957581212749620e-18
-1.099999999999996e-01  0.000000000000000e+00  1.957581212749620e-18
-1.099999999999996e-01  0.000000000000000e+00  1.957581212749620e-18
-1.099999999999996e-01  0.000000000000000e+00  1.957581212749620e-18
-1.099999999999996e-01  0.000000000000000e+00  1.957581212749620e-18
-1.099999999999996e-01  0.000000000000000e+00  1.957581212749620e-18
-1.099999999999996e-01  0.000000000000000e+00  1.957581212749620e-18
-1.099999999999996e-01  0.000000000000000e+00  1.957581212749620e-18
-1.099999999999996e-01  0.000000000000000e+00  1.957581212749620e-18
-1.099999999999996e-01  0.000000000000000e+00  1.957581212749620e-18
-1.099999999999996e-01  0.000000000000000e+00  1.957581212749620e-18
-1.099999999999996e-01  0.000000000000000e+00  1.957581212749620e-18
-1.099999999999996e-01  0.000000000000000e+00  1.957581212749620e-18
-1.099999999999996e-01  0.000000000000000e+00  1.957581212749620e-18
-1.099999999999996e-01  0.000000000000000e+00  1.957581212749620e-18
-1.099999999999996e-01  0.000000000000000e+00  1.957581212749620e-18
-1.099999999999996e-01  0.000000000000000e+00  1.957581212749620e-18
-1.099999999999996e-01  0.000000000000000e+00  1.957581212749620e-18
-1.099999999999996e-01  0.000000000000000e+00  1.957581212749620e-18
-1.099999999999996e-01  0.000000000000000e+00  1.957581212749620e-18
-1.099999999999996e-01  0.000000000000000e+00  1.957581212749620e-18
-1.099999999999996e-01  0.000000000000000e+00  1.957581212749620e-18
-1.099999999999996e-01  0.000000000000000e+00  1.957581212749620e-18
-1.099999999999996e-01  0.000000000000000e+00  1.957581212749620e-18
-1.099999999999996e-01  0.000000000000000e+00  1.957581212749620e-18
-1.099999999999996e-01  0.000000000000000e+00  1.957581212749620e-18
-1.099999999999996e-01  0.000000000000000e+00  1.957581212749620e-18
-1.099999999999996e-01  0.000000000000000e+00  1.957581212749620e-18
-1.099999999999996e-01  0.000000000000000e+00  1.957581212749620e-18
-1.099999999999996e-01  0.000000000000000e+00  1.957581212749620e-18
-1.099999999999996e-01  0.000000000000000e+00  1.957581212749620e-18
-1.099999999999996e-01  0.000000000000000e+00  1.957581212749620e-18
-1.099999999999996e-01  0.000000000000000e+00  1.957581212749620e-18
-1.099999999999996e-01  0.000000000000000e+00  1.957581212749620e-18
-1.099999999999996e-01  0.000000000000000e+00  1.957581212749620e-18
-1.099999999999996e-01  0.000000000000000e+00  1.957581212749620e-18
-1.099999999999996e-01  0.000000000000000e+00  1.957581212749620e-18
-1.099999999999996e-01  0.000000000000000e+00  1.957581212749620e-18
-1.099999999999996e-01  0.000000000000000e+00  1.957581212749620e-18
-1.099999999999996e-01  0.000000000000000e+00  1.957581212749620e-18
-1.099999999999996e-01  0.000000000000000e+00  1.957581212749620e-18
-1.099999999999996e-01  0.000000000000000e+00  1.957581212749620e-18
-1.099999999999996e-01  0.000000000000000e+00  1.957581212749620e-18
-1.099999999999996e-01  0.000000000000000e+00  1.957581212749620e-18
-1.099999999999996e-01  0.000000000000000e+00  1.957581212749620e-18
-1.099999999999996e-01  0.000000000000000e+00  1.957581212749620e-18
-1.099999999999996e-01  0.000000000000000e+00  1.957581212749620e-18
-1.099999999999996e-01  0.000000000000000e+00  1.957581212749620e-18
-1.099999999999996e-01  0.000000000000000e+00  1.957581212749620e-18
-1.099999999999996e-01  0.000000000000000e+00  1.957581212749620e-18
-1.099999999999996e-01  0.000000000000000e+00  1.957581212749620e-18
-1.099999999999996e-01  0.000000000000000e+00  1.957581212749620e-18
-1.099999999999996e-01  0.000000000000000e+00  1.957581212749620e-18
-1.099999999999996e-01  0.000000000000000e+00  1.957581212749620e-18
-1.099999999999996e-01  0.000000000000000e+00  1.957581212749620e-18
-1.099999999999996e-01  0.000000000000000e+00  1.957581212749620e-18
-1.099999999999996e-01  0.000000000000000e+00  1.957581212749620e-18
-1.099999999999996e-01  0.000000000000000e+00  1.957581212749620e-18
-1.099999999999996e-01  0.000000000000000e+00  1.957581212749620e-18
-1.099999999999996e-01  0.000000000000000e+00  1.957581212749620e-18
-1.099999999999996e-01  0.000000000000000e+00  1.957581212749620e-18
-1.099999999999996e-01  0.000000000000000e+00  1.957581212749620e-18
-1.099999999999996e-01  0.000000000000000e+00  1.957581212749620e-18
-1.099999999999996e-01  0.000000000000000e+00  1.957581212749620e-18
-1.099999999999996e-01  0.000000000000000e+00  1.957581212749620e-18
-1.099999999999996e-01  0.000000000000000e+00  1.957581212749620e-18
-1.099999999999996e-01  0.000000000000000e+00  1.957581212749620e-18
-1.099999999999996e-01  0.000000000000000e+00  1.957581212749620e-18
-1.099999999999996e-01  0.000000000000000e+00  1.957581212749620e-18
-1.099999999999996e-01  0.000000000000000e+00  1.957581212749620e-18
-1.099999999999996e-01  0.000000000000000e+00  1.957581212749620e-18
-1.099999999999996e-01  0.000000000000000e+00  1.957581212749620e-18
-1.099999999999996e-01  0.000000000000000e+00  1.957581212749620e-18
-1.099999999999996e-01  0.000000000000000e+00  1.957581212749620e-18
-1.099999999999996e-01  0.000000000000000e+00  1.957581212749620e-18
-1.099999999999996e-01  0.000000000000000e+00  1.957581212749620e-18
-1.099999999999996e-01  0.000000000000000e+00  1.957581212749620e-18
-1.099999999999996e-01  0.000000000000000e+00  1.957581212749620e-18
-1.099999999999996e-01  0.000000000000000e+00  1.957581212749620e-18
-1.099999999999996e-01  0.000000000000000e+00  1.957581212749620e-18
-1.099999999999996e-01  0.000000000000000e+00  1.957581212749620e-18
-1.099999999999996e-01  0.000000000000000e+00  1.957581212749620e-18
-1.099999999999996e-01  0.000000000000000e+00  1.957581212749620e-18
-1.099999999999996e-01  0.000000000000000e+00  1.957581212749620e-18
-1.099999999999996e-01  0.000000000000000e+00  1.957581212749620e-18
-1.099999999999996e-01  0.000000000000000e+00  1.957581212749620e-18
-1.099999999999996e-01  0.000000000000000e+00  1.957581212749620e-18
-1.099999999999996e-01  0.000000000000000e+00  1.957581212749620e-18
-1.099999999999996e-01  0.000000000000000e+00  1.957581212749620e-18
-1.099999999999996e-01  0.000000000000000e+00  1.957581212749620e-18
-1.099999999999996e-01  0.000000000000000e+00  1.957581212749620e-18
-1.099999999999996e-01  0.000000000000000e+00  1.957581212749620e-18
-1.099999999999996e-01  0.000000000000000e+00  1.957581212749620e-18
-1.099999999999996e-01  0.000000000000000e+00  1.957581212749620e-18
-1.099999999999996e-01  0.000000000000000e+00  1.957581212749620e-18
-1.099999999999996e-01  0.000000000000000e+00  1.957581212749620e-18
-1.099999999999996e-01  0.000000000000000e+00  1.957581212749620e-18
-1.099999999999996e-01  0.000000000000000e+00  1.957581212749620e-18
-1.099999999999996e-01  0.000000000000000e+00  1.957581212749620e-18
-1.099999999999996e-01  0.000000000000000e+00  1.957581212749620e-18
-1.099999999999996e-01  0.000000000000000e+00  1.957581212749620e-18
-1.099999999999996e-01  0.000000000000000e+00  1.957581212749620e-18
-1.099999999999996e-01  0.000000000000000e+00  1.957581212749620e-18
-1.099999999999996e-01  0.000000000000000e+00  1.957581212749620e-18
-1.099999999999996e-01  0.000000000000000e+00  1.957581212749620e-18
-1.099999999999996e-01  0.000000000000000e+00  1.957581212749620e-18
-1.099999999999996e-01  0.000000000000000e+00  1.957581212749620e-18
-1.099999999999996e-01  0.000000000000000e+00  1.957581212749620e-18
-1.099999999999996e-01  0.000000000000000e+00  1.957581212749620e-18
-1.099999999999996e-01  0.000000000000000e+00  1.957581212749620e-18
-1.099999999999996e-01  0.000000000000000e+00  1.957581212749620e-18
-1.099999999999996e-01  0.000000000000000e+00  1.957581212749620e-18
-1.099999999999996e-01  0.000000000000000e+00  1.957581212749620e-18
-1.099999999999996e-01  0.000000000000000e+00  1.957581212749620e-18
-1.099999999999996e-01  0.000000000000000e+00  1.957581212749620e-18
-1.099999999999996e-01  0.000000000000000e+00  1.957581212749620e-18
-1.099999999999996e-01  0.000000000000000e+00  1.957581212749620e-18
-1.099999999999996e-01  0.000000000000000e+00  1.957581212749620e-18
-1.099999999999996e-01  0.000000000000000e+00  1.957581212749620e-18
-1.099999999999996e-01  0.000000000000000e+00  1.957581212749620e-18
-1.099999999999996e-01  0.000000000000000e+00  1.957581212749620e-18
-1.099999999999996e-01  0.000000000000000e+00  1.957581212749620e-18
-1.099999999999996e-01  0.000000000000000e+00  1.957581212749620e-18
-1.099999999999996e-01  0.000000000000000e+00  1.957581212749620e-18
-1.099999999999996e-01  0.000000000000000e+00  1.957581212749620e-18
-1.099999999999996e-01  0.000000000000000e+00  1.957581212749620e-18
-1.099999999999996e-01  0.000000000000000e+00  1.957581212749620e-18
-1.099999999999996e-01  0.000000000000000e+00  1.957581212749620e-18
-1.099999999999996e-01  0.000000000000000e+00  1.957581212749620e-18
-1.099999999999996e-01  0.000000000000000e+00  1.957581212749620e-18
-1.099999999999996e-01  0.000000000000000e+00  1.957581212749620e-18
-1.099999999999996e-01  0.000000000000000e+00  1.957581212749620e-18
-1.099999999999996e-01  0.000000000000000e+00  1.957581212749620e-18
-1.099999999999996e-01  0.000000000000000e+00  1.957581212749620e-18
-1.099999999999996e-01  0.000000000000000e+00  1.957581212749620e-18
-1.099999999999996e-01  0.000000000000000e+00  1.957581212749620e-18
-1.099999999999996e-01  0.000000000000000e+00  1.957581212749620e-18
-1.099999999999996e-01  0.000000000000000e+00  1.957581212749620e-18
-1.099999999999996e-01  0.000000000000000e+00  1.957581212749620e-18
-1.099999999999996e-01  0.000000000000000e+00  1.957581212749620e-18
-1.099999999999996e-01  0.000000000000000e+00  1.957581212749620e-18
-1.099999999999996e-01  0.000000000000000e+00  1.957581212749620e-18
-1.099999999999996e-01  0.000000000000000e+00  1.957581212749620e-18
-1.099999999999996e-01  0.000000000000000e+00  1.957581212749620e-18
-1.099999999999996e-01  0.000000000000000e+00  1.957581212749620e-18
-1.099999999999996e-01  0.000000000000000e+00  1.957581212749620e-18
-1.099999999999996e-01  0.000000000000000e+00  1.957581212749620e-18
-1.099999999999996e-01  0.000000000000000e+00  1.957581212749620e-18
-1.099999999999996e-01  0.000000000000000e+00  1.957581212749620e-18
-1.099999999999996e-01  0.000000000000000e+00  1.957581212749620e-18
-1.099999999999996e-01  0.000000000000000e+00  1.957581212749620e-18
-1.099999999999996e-01  0.000000000000000e+00  1.957581212749620e-18
-1.099999999999996e-01  0.000000000000000e+00  1.957581212749620e-18
-1.099999999999996e-01  0.000000000000000e+00  1.957581212749620e-18
-1.099999999999996e-01  0.000000000000000e+00  1.957581212749620e-18
-1.099999999999996e-01  0.000000000000000e+00  1.957581212749620e-18
-1.099999999999996e-01  0.000000000000000e+00  1.957581212749620e-18
-1.099999999999996e-01  0.000000000000000e+00  1.957581212749620e-18
-1.099999999999996e-01  0.000000000000000e+00  1.957581212749620e-18
-1.099999999999996e-01  0.000000000000000e+00  1.957581212749620e-18
-1.099999999999996e-01  0.000000000000000e+00  1.957581212749620e-18
-1.099999999999996e-01  0.000000000000000e+00  1.957581212749620e-18
-1.099999999999996e-01  0.000000000000000e+00  1.957581212749620e-18
-1.099999999999996e-01  0.000000000000000e+00  1.957581212749620e-18
-1.099999999999996e-01  0.000000000000000e+00  1.957581212749620e-18
-1.099999999999996e-01  0.000000000000000e+00  1.957581212749620e-18
-1.099999999999996e-01  0.000000000000000e+00  1.957581212749620e-18
-1.099999999999996e-01  0.000000000000000e+00  1.957581212749620e-18
-1.099999999999996e-01  0.000000000000000e+00  1.957581212749620e-18
-1.099999999999996e-01  0.000000000000000e+00  1.957581212749620e-18
-1.099999999999996e-01  0.000000000000000e+00  1.957581212749620e-18
-1.099999999999996e-01  0.000000000000000e+00  1.957581212749620e-18
-1.099999999999996e-01  0.000000000000000e+00  1.957581212749620e-18
-1.099999999999996e-01  0.000000000000000e+00  1.957581212749620e-18
-1.099999999999996e-01  0.000000000000000e+00  1.957581212749620e-18
-1.099999999999996e-01  0.000000000000000e+00  1.957581212749620e-18
-1.099999999999996e-01  0.000000000000000e+00  1.957581212749620e-18
-1.099999999999996e-01  0.000000000000000e+00  1.957581212749620e-18
-1.099999999999996e-01  0.000000000000000e+00  1.957581212749620e-18
-1.099999999999996e-01  0.000000000000000e+00  1.957581212749620e-18
-1.099999999999996e-01  0.000000000000000e+00  1.957581212749620e-18
-1.099999999999996e-01  0.000000000000000e+00  1.957581212749620e-18
-1.099999999999996e-01  0.000000000000000e+00  1.957581212749620e-18
-1.099999999999996e-01  0.000000000000000e+00  1.957581212749620e-18
-1.099999999999996e-01  0.000000000000000e+00  1.957581212749620e-18
-1.099999999999996e-01  0.000000000000000e+00  1.957581212749620e-18
-1.099999999999996e-01  0.000000000000000e+00  1.957581212749620e-18
-1.099999999999996e-01  0.000000000000000e+00  1.957581212749620e-18
-1.099999999999996e-01  0.000000000000000e+00  1.957581212749620e-18
-1.099999999999996e-01  0.000000000000000e+00  1.957581212749620e-18
-1.099999999999996e-01  0.000000000000000e+00  1.957581212749620e-18
-1.099999999999996e-01  0.000000000000000e+00  1.957581212749620e-18
-1.099999999999996e-01  0.000000000000000e+00  1.957581212749620e-18
-1.099999999999996e-01  0.000000000000000e+00  1.957581212749620e-18
-1.099999999999996e-01  0.000000000000000e+00  1.957581212749620e-18
-1.099999999999996e-01  0.000000000000000e+00  1.957581212749620e-18
-1.099999999999996e-01  0.000000000000000e+00  1.957581212749620e-18
-1.099999999999996e-01  0.000000000000000e+00  1.957581212749620e-18
-1.099999999999996e-01  0.000000000000000e+00  1.957581212749620e-18
-1.099999999999996e-01  0.000000000000000e+00  1.957581212749620e-18
-1.099999999999996e-01  0.000000000000000e+00  1.957581212749620e-18
-1.099999999999996e-01  0.000000000000000e+00  1.957581212749620e-18
-1.099999999999996e-01  0.000000000000000e+00  1.957581212749620e-18
-1.099999999999996e-01  0.000000000000000e+00  1.957581212749620e-18
-1.099999999999996e-01  0.000000000000000e+00  1.957581212749620e-18
-1.099999999999996e-01  0.000000000000000e+00  1.957581212749620e-18
-1.099999999999996e-01  0.000000000000000e+00  1.957581212749620e-18
-1.099999999999996e-01  0.000000000000000e+00  1.957581212749620e-18
-1.099999999999996e-01  0.000000000000000e+00  1.957581212749620e-18
-1.099999999999996e-01  0.000000000000000e+00  1.957581212749620e-18
-1.099999999999996e-01  0.000000000000000e+00  1.957581212749620e-18
-1.099999999999996e-01  0.000000000000000e+00  1.957581212749620e-18
-1.099999999999996e-01  0.000000000000000e+00  1.957581212749620e-18
-1.099999999999996e-01  0.000000000000000e+00  1.957581212749620e-18
-1.099999999999996e-01  0.000000000000000e+00  1.957581212749620e-18
-1.099999999999996e-01  0.000000000000000e+00  1.957581212749620e-18
-1.099999999999996e-01  0.000000000000000e+00  1.957581212749620e-18
-1.099999999999996e-01  0.000000000000000e+00  1.957581212749620e-18
-1.099999999999996e-01  0.000000000000000e+00  1.957581212749620e-18
-1.099999999999996e-01  0.000000000000000e+00  1.957581212749620e-18
-1.099999999999996e-01  0.000000000000000e+00  1.957581212749620e-18
-1.099999999999996e-01  0.000000000000000e+00  1.957581212749620e-18
-1.099999999999996e-01  0.000000000000000e+00  1.957581212749620e-18
-1.099999999999996e-01  0.000000000000000e+00  1.957581212749620e-18
-1.099999999999996e-01  0.000000000000000e+00  1.957581212749620e-18
-1.099999999999996e-01  0.000000000000000e+00  1.957581212749620e-18
-1.099999999999996e-01  0.000000000000000e+00  1.957581212749620e-18
-1.099999999999996e-01  0.000000000000000e+00  1.957581212749620e-18
-1.099999999999996e-01  0.000000000000000e+00  1.957581212749620e-18
-1.099999999999996e-01  0.000000000000000e+00  1.957581212749620e-18
-1.099999999999996e-01  0.000000000000000e+00  1.957581212749620e-18
-1.099999999999996e-01  0.000000000000000e+00  1.957581212749620e-18
-1.099999999999996e-01  0.000000000000000e+00  1.957581212749620e-18
-1.099999999999996e-01  0.000000000000000e+00  1.957581212749620e-18
-1.099999999999996e-01  0.000000000000000e+00  1.957581212749620e-18
-1.099999999999996e-01  0.000000000000000e+00  1.957581212749620e-18
-1.099999999999996e-01  0.000000000000000e+00  1.957581212749620e-18
-1.099999999999996e-01  0.000000000000000e+00  1.957581212749620e-18
-1.099999999999996e-01  0.000000000000000e+00  1.957581212749620e-18
-1.099999999999996e-01  0.000000000000000e+00  1.957581212749620e-18
-1.099999999999996e-01  0.000000000000000e+00  1.957581212749620e-18
-1.099999999999996e-01  0.000000000000000e+00  1.957581212749620e-18
-1.099999999999996e-01  0.000000000000000e+00  1.957581212749620e-18
-1.099999999999996e-01  0.000000000000000e+00  1.957581212749620e-18
-1.099999999999996e-01  0.000000000000000e+00  1.957581212749620e-18
-1.099999999999996e-01  0.000000000000000e+00  1.957581212749620e-18
-1.099999999999996e-01  0.000000000000000e+00  1.957581212749620e-18
-1.099999999999996e-01  0.000000000000000e+00  1.957581212749620e-18
-1.099999999999996e-01  0.000000000000000e+00  1.957581212749620e-18
-1.099999999999996e-01  0.000000000000000e+00  1.957581212749620e-18
-1.099999999999996e-01  0.000000000000000e+00  1.957581212749620e-18
-1.099999999999996e-01  0.000000000000000e+00  1.957581212749620e-18
-1.099999999999996e-01  0.000000000000000e+00  1.957581212749620e-18
-1.099999999999996e-01  0.000000000000000e+00  1.957581212749620e-18
-1.099999999999996e-01  0.000000000000000e+00  1.957581212749620e-18
-1.099999999999996e-01  0.000000000000000e+00  1.957581212749620e-18
-1.099999999999996e-01  0.000000000000000e+00  1.957581212749620e-18
-1.099999999999996e-01  0.000000000000000e+00  1.957581212749620e-18
-1.099999999999996e-01  0.000000000000000e+00  1.957581212749620e-18
-1.099999999999996e-01  0.000000000000000e+00  1.957581212749620e-18
-1.099999999999996e-01  0.000000000000000e+00  1.957581212749620e-18
-1.099999999999996e-01  0.000000000000000e+00  1.957581212749620e-18
-1.099999999999996e-01  0.000000000000000e+00  1.957581212749620e-18
-1.099999999999996e-01  0.000000000000000e+00  1.957581212749620e-18
-1.099999999999996e-01  0.000000000000000e+00  1.957581212749620e-18
-1.099999999999996e-01  0.000000000000000e+00  1.957581212749620e-18
-1.099999999999996e-01  0.000000000000000e+00  1.957581212749620e-18
-1.099999999999996e-01  0.000000000000000e+00  1.957581212749620e-18
-1.099999999999996e-01  0.000000000000000e+00  1.957581212749620e-18
-1.099999999999996e-01  0.000000000000000e+00  1.957581212749620e-18
-1.099999999999996e-01  0.000000000000000e+00  1.957581212749620e-18
-1.099999999999996e-01  0.000000000000000e+00  1.957581212749620e-18
-1.099999999999996e-01  0.000000000000000e+00  1.957581212749620e-18
-1.099999999999996e-01  0.000000000000000e+00  1.957581212749620e-18
-1.099999999999996e-01  0.000000000000000e+00  1.957581212749620e-18
-1.099999999999996e-01  0.000000000000000e+00  1.957581212749620e-18
-1.099999999999996e-01  0.000000000000000e+00  1.957581212749620e-18
-1.099999999999996e-01  0.000000000000000e+00  1.957581212749620e-18
-1.099999999999996e-01  0.000000000000000e+00  1.957581212749620e-18
-1.099999999999996e-01  0.000000000000000e+00  1.957581212749620e-18
-1.099999999999996e-01  0.000000000000000e+00  1.957581212749620e-18
-1.099999999999996e-01  0.000000000000000e+00  1.957581212749620e-18
-1.099999999999996e-01  0.000000000000000e+00  1.957581212749620e-18
-1.099999999999996e-01  0.000000000000000e+00  1.957581212749620e-18
-1.099999999999996e-01  0.000000000000000e+00  1.957581212749620e-18
-1.099999999999996e-01  0.000000000000000e+00  1.957581212749620e-18
-1.099999999999996e-01  0.000000000000000e+00  1.957581212749620e-18
-1.099999999999996e-01  0.000000000000000e+00  1.957581212749620e-18
-1.099999999999996e-01  0.000000000000000e+00  1.957581212749620e-18
-1.099999999999996e-01  0.000000000000000e+00  1.957581212749620e-18
-1.099999999999996e-01  0.000000000000000e+00  1.957581212749620e-18
-1.099999999999996e-01  0.000000000000000e+00  1.957581212749620e-18
-1.099999999999996e-01  0.000000000000000e+00  1.957581212749620e-18
-1.099999999999996e-01  0.000000000000000e+00  1.957581212749620e-18
-1.099999999999996e-01  0.000000000000000e+00  1.957581212749620e-18
-1.099999999999996e-01  0.000000000000000e+00  1.957581212749620e-18
-1.099999999999996e-01  0.000000000000000e+00  1.957581212749620e-18
-1.099999999999996e-01  0.000000000000000e+00  1.957581212749620e-18
-1.099999999999996e-01  0.000000000000000e+00  1.957581212749620e-18
-1.099999999999996e-01  0.000000000000000e+00  1.957581212749620e-18
-1.099999999999996e-01  0.000000000000000e+00  1.957581212749620e-18
-1.099999999999996e-01  0.000000000000000e+00  1.957581212749620e-18
-1.099999999999996e-01  0.000000000000000e+00  1.957581212749620e-18
-1.099999999999996e-01  0.000000000000000e+00  1.957581212749620e-18
-1.099999999999996e-01  0.000000000000000e+00  1.957581212749620e-18
-1.099999999999996e-01  0.000000000000000e+00  1.957581212749620e-18
-1.099999999999996e-01  0.000000000000000e+00  1.957581212749620e-18
-1.099999999999996e-01  0.000000000000000e+00  1.957581212749620e-18
-1.099999999999996e-01  0.000000000000000e+00  1.957581212749620e-18
-1.099999999999996e-01  0.000000000000000e+00  1.957581212749620e-18
-1.099999999999996e-01  0.000000000000000e+00  1.957581212749620e-18
-1.099999999999996e-01  0.000000000000000e+00  1.957581212749620e-18
-1.099999999999996e-01  0.000000000000000e+00  1.957581212749620e-18
-1.099999999999996e-01  0.000000000000000e+00  1.957581212749620e-18
-1.099999999999996e-01  0.000000000000000e+00  1.957581212749620e-18
-1.099999999999996e-01  0.000000000000000e+00  1.957581212749620e-18
-1.099999999999996e-01  0.000000000000000e+00  1.957581212749620e-18
-1.099999999999996e-01  0.000000000000000e+00  1.957581212749620e-18
-1.099999999999996e-01  0.000000000000000e+00  1.957581212749620e-18
-1.099999999999996e-01  0.000000000000000e+00  1.957581212749620e-18
-1.099999999999996e-01  0.000000000000000e+00  1.957581212749620e-18
-1.099999999999996e-01  0.000000000000000e+00  1.957581212749620e-18
-1.099999999999996e-01  0.000000000000000e+00  1.957581212749620e-18
-1.099999999999996e-01  0.000000000000000e+00  1.957581212749620e-18
-1.099999999999996e-01  0.000000000000000e+00  1.957581212749620e-18
-1.099999999999996e-01  0.000000000000000e+00  1.957581212749620e-18
-1.099999999999996e-01  0.000000000000000e+00  1.957581212749620e-18
-1.099999999999996e-01  0.000000000000000e+00  1.957581212749620e-18
-1.099999999999996e-01  0.000000000000000e+00  1.957581212749620e-18
-1.099999999999996e-01  0.000000000000000e+00  1.957581212749620e-18
-1.099999999999996e-01  0.000000000000000e+00  1.957581212749620e-18
-1.099999999999996e-01  0.000000000000000e+00  1.957581212749620e-18
-1.099999999999996e-01  0.000000000000000e+00  1.957581212749620e-18
-1.099999999999996e-01  0.000000000000000e+00  1.957581212749620e-18
-1.099999999999996e-01  0.000000000000000e+00  1.957581212749620e-18
-1.099999999999996e-01  0.000000000000000e+00  1.957581212749620e-18
-1.099999999999996e-01  0.000000000000000e+00  1.957581212749620e-18
-1.099999999999996e-01  0.000000000000000e+00  1.957581212749620e-18
-1.099999999999996e-01  0.000000000000000e+00  1.957581212749620e-18
-1.099999999999996e-01  0.000000000000000e+00  1.957581212749620e-18
-1.099999999999996e-01  0.000000000000000e+00  1.957581212749620e-18
-1.099999999999996e-01  0.000000000000000e+00  1.957581212749620e-18
-1.099999999999996e-01  0.000000000000000e+00  1.957581212749620e-18
-1.099999999999996e-01  0.000000000000000e+00  1.957581212749620e-18
-1.099999999999996e-01  0.000000000000000e+00  1.957581212749620e-18
-1.099999999999996e-01  0.000000000000000e+00  1.957581212749620e-18
-1.099999999999996e-01  0.000000000000000e+00  1.957581212749620e-18
-1.099999999999996e-01  0.000000000000000e+00  1.957581212749620e-18
-1.099999999999996e-01  0.000000000000000e+00  1.957581212749620e-18
-1.099999999999996e-01  0.000000000000000e+00  1.957581212749620e-18
-1.099999999999996e-01  0.000000000000000e+00  1.957581212749620e-18
-1.099999999999996e-01  0.000000000000000e+00  1.957581212749620e-18
-1.099999999999996e-01  0.000000000000000e+00  1.957581212749620e-18
-1.099999999999996e-01  0.000000000000000e+00  1.957581212749620e-18
-1.099999999999996e-01  0.000000000000000e+00  1.957581212749620e-18
-1.099999999999996e-01  0.000000000000000e+00  1.957581212749620e-18
-1.099999999999996e-01  0.000000000000000e+00  1.957581212749620e-18
-1.099999999999996e-01  0.000000000000000e+00  1.957581212749620e-18
-1.099999999999996e-01  0.000000000000000e+00  1.957581212749620e-18
-1.099999999999996e-01  0.000000000000000e+00  1.957581212749620e-18
-1.099999999999996e-01  0.000000000000000e+00  1.957581212749620e-18
-1.099999999999996e-01  0.000000000000000e+00  1.957581212749620e-18
-1.099999999999996e-01  0.000000000000000e+00  1.957581212749620e-18
-1.099999999999996e-01  0.000000000000000e+00  1.957581212749620e-18
-1.099999999999996e-01  0.000000000000000e+00  1.957581212749620e-18
-1.099999999999996e-01  0.000000000000000e+00  1.957581212749620e-18
-1.099999999999996e-01  0.000000000000000e+00  1.957581212749620e-18
-1.099999999999996e-01  0.000000000000000e+00  1.957581212749620e-18
-1.099999999999996e-01  0.000000000000000e+00  1.957581212749620e-18
-1.099999999999996e-01  0.000000000000000e+00  1.957581212749620e-18
-1.099999999999996e-01  0.000000000000000e+00  1.957581212749620e-18
-1.099999999999996e-01  0.000000000000000e+00  1.957581212749620e-18
-1.099999999999996e-01  0.000000000000000e+00  1.957581212749620e-18
-1.099999999999996e-01  0.000000000000000e+00  1.957581212749620e-18
-1.099999999999996e-01  0.000000000000000e+00  1.957581212749620e-18
-1.099999999999996e-01  0.000000000000000e+00  1.957581212749620e-18
-1.099999999999996e-01  0.000000000000000e+00  1.957581212749620e-18
-1.099999999999996e-01  0.000000000000000e+00  1.957581212749620e-18
-1.099999999999996e-01  0.000000000000000e+00  1.957581212749620e-18
-1.099999999999996e-01  0.000000000000000e+00  1.957581212749620e-18
-1.099999999999996e-01  0.000000000000000e+00  1.957581212749620e-18
-1.099999999999996e-01  0.000000000000000e+00  1.957581212749620e-18
-1.099999999999996e-01  0.000000000000000e+00  1.957581212749620e-18
-1.099999999999996e-01  0.000000000000000e+00  1.957581212749620e-18
-1.099999999999996e-01  0.000000000000000e+00  1.957581212749620e-18
-1.099999999999996e-01  0.000000000000000e+00  1.957581212749620e-18
-1.099999999999996e-01  0.000000000000000e+00  1.957581212749620e-18
-1.099999999999996e-01  0.000000000000000e+00  1.957581212749620e-18
-1.099999999999996e-01  0.000000000000000e+00  1.957581212749620e-18
-1.099999999999996e-01  0.000000000000000e+00  1.957581212749620e-18
-1.099999999999996e-01  0.000000000000000e+00  1.957581212749620e-18
-1.099999999999996e-01  0.000000000000000e+00  1.957581212749620e-18
-1.099999999999996e-01  0.000000000000000e+00  1.957581212749620e-18
-1.099999999999996e-01  0.000000000000000e+00  1.957581212749620e-18
-1.099999999999996e-01  0.000000000000000e+00  1.957581212749620e-18
-1.099999999999996e-01  0.000000000000000e+00  1.957581212749620e-18
-1.099999999999996e-01  0.000000000000000e+00  1.957581212749620e-18
-1.099999999999996e-01  0.000000000000000e+00  1.957581212749620e-18
-1.099999999999996e-01  0.000000000000000e+00  1.957581212749620e-18
-1.099999999999996e-01  0.000000000000000e+00  1.957581212749620e-18
-1.099999999999996e-01  0.000000000000000e+00  1.957581212749620e-18
-1.099999999999996e-01  0.000000000000000e+00  1.957581212749620e-18
-1.099999999999996e-01  0.000000000000000e+00  1.957581212749620e-18
-1.099999999999996e-01  0.000000000000000e+00  1.957581212749620e-18
-1.099999999999996e-01  0.000000000000000e+00  1.957581212749620e-18
-1.099999999999996e-01  0.000000000000000e+00  1.957581212749620e-18
-1.099999999999996e-01  0.000000000000000e+00  1.957581212749620e-18
-1.099999999999996e-01  0.000000000000000e+00  1.957581212749620e-18
-1.099999999999996e-01  0.000000000000000e+00  1.957581212749620e-18
-1.099999999999996e-01  0.000000000000000e+00  1.957581212749620e-18
-1.099999999999996e-01  0.000000000000000e+00  1.957581212749620e-18
-1.099999999999996e-01  0.000000000000000e+00  1.957581212749620e-18
-1.099999999999996e-01  0.000000000000000e+00  1.957581212749620e-18
-1.099999999999996e-01  0.000000000000000e+00  1.957581212749620e-18
-1.099999999999996e-01  0.000000000000000e+00  1.957581212749620e-18
-1.099999999999996e-01  0.000000000000000e+00  1.957581212749620e-18
-1.099999999999996e-01  0.000000000000000e+00  1.957581212749620e-18
-1.099999999999996e-01  0.000000000000000e+00  1.957581212749620e-18
-1.099999999999996e-01  0.000000000000000e+00  1.957581212749620e-18
-1.099999999999996e-01  0.000000000000000e+00  1.957581212749620e-18
-1.099999999999996e-01  0.000000000000000e+00  1.957581212749620e-18
-1.099999999999996e-01  0.000000000000000e+00  1.957581212749620e-18
-1.099999999999996e-01  0.000000000000000e+00  1.957581212749620e-18
-1.099999999999996e-01  0.000000000000000e+00  1.957581212749620e-18
-1.099999999999996e-01  0.000000000000000e+00  1.957581212749620e-18
-1.099999999999996e-01  0.000000000000000e+00  1.957581212749620e-18
-1.099999999999996e-01  0.000000000000000e+00  1.957581212749620e-18
-1.099999999999996e-01  0.000000000000000e+00  1.957581212749620e-18
-1.099999999999996e-01  0.000000000000000e+00  1.957581212749620e-18
-1.099999999999996e-01  0.000000000000000e+00  1.957581212749620e-18
-1.099999999999996e-01  0.000000000000000e+00  1.957581212749620e-18
-1.099999999999996e-01  0.000000000000000e+00  1.957581212749620e-18
-1.099999999999996e-01  0.000000000000000e+00  1.957581212749620e-18
-1.099999999999996e-01  0.000000000000000e+00  1.957581212749620e-18
-1.099999999999996e-01  0.000000000000000e+00  1.957581212749620e-18
-1.099999999999996e-01  0.000000000000000e+00  1.957581212749620e-18
-1.099999999999996e-01  0.000000000000000e+00  1.957581212749620e-18
-1.099999999999996e-01  0.000000000000000e+00  1.957581212749620e-18
-1.099999999999996e-01  0.000000000000000e+00  1.957581212749620e-18
-1.099999999999996e-01  0.000000000000000e+00  1.957581212749620e-18
-1.099999999999996e-01  0.000000000000000e+00  1.957581212749620e-18
-1.099999999999996e-01  0.000000000000000e+00  1.957581212749620e-18
-1.099999999999996e-01  0.000000000000000e+00  1.957581212749620e-18
-1.099999999999996e-01  0.000000000000000e+00  1.957581212749620e-18
-1.099999999999996e-01  0.000000000000000e+00  1.957581212749620e-18
-1.099999999999996e-01  0.000000000000000e+00  1.957581212749620e-18
-1.099999999999996e-01  0.000000000000000e+00  1.957581212749620e-18
-1.099999999999996e-01  0.000000000000000e+00  1.957581212749620e-18
-1.099999999999996e-01  0.000000000000000e+00  1.957581212749620e-18
-1.099999999999996e-01  0.000000000000000e+00  1.957581212749620e-18
-1.099999999999996e-01  0.000000000000000e+00  1.957581212749620e-18
-1.099999999999996e-01  0.000000000000000e+00  1.957581212749620e-18
-1.099999999999996e-01  0.000000000000000e+00  1.957581212749620e-18
-1.099999999999996e-01  0.000000000000000e+00  1.957581212749620e-18
-1.099999999999996e-01  0.000000000000000e+00  1.957581212749620e-18
-1.099999999999996e-01  0.000000000000000e+00  1.957581212749620e-18
-1.099999999999996e-01  0.000000000000000e+00  1.957581212749620e-18
-1.099999999999996e-01  0.000000000000000e+00  1.957581212749620e-18
-1.099999999999996e-01  0.000000000000000e+00  1.957581212749620e-18
-1.099999999999996e-01  0.000000000000000e+00  1.957581212749620e-18
-1.099999999999996e-01  0.000000000000000e+00  1.957581212749620e-18
-1.099999999999996e-01  0.000000000000000e+00  1.957581212749620e-18
-1.099999999999996e-01  0.000000000000000e+00  1.957581212749620e-18
-1.099999999999996e-01  0.000000000000000e+00  1.957581212749620e-18
-1.099999999999996e-01  0.000000000000000e+00  1.957581212749620e-18
-1.099999999999996e-01  0.000000000000000e+00  1.957581212749620e-18
-1.099999999999996e-01  0.000000000000000e+00  1.957581212749620e-18
-1.099999999999996e-01  0.000000000000000e+00  1.957581212749620e-18
-1.099999999999996e-01  0.000000000000000e+00  1.957581212749620e-18
-1.099999999999996e-01  0.000000000000000e+00  1.957581212749620e-18
-1.099999999999996e-01  0.000000000000000e+00  1.957581212749620e-18
-1.099999999999996e-01  0.000000000000000e+00  1.957581212749620e-18
-1.099999999999996e-01  0.000000000000000e+00  1.957581212749620e-18
-1.099999999999996e-01  0.000000000000000e+00  1.957581212749620e-18
-1.099999999999996e-01  0.000000000000000e+00  1.957581212749620e-18
-1.099999999999996e-01  0.000000000000000e+00  1.957581212749620e-18
-1.099999999999996e-01  0.000000000000000e+00  1.957581212749620e-18
-1.099999999999996e-01  0.000000000000000e+00  1.957581212749620e-18
-1.099999999999996e-01  0.000000000000000e+00  1.957581212749620e-18
-1.099999999999996e-01  0.000000000000000e+00  1.957581212749620e-18
-1.099999999999996e-01  0.000000000000000e+00  1.957581212749620e-18
-1.099999999999996e-01  0.000000000000000e+00  1.957581212749620e-18
-1.099999999999996e-01  0.000000000000000e+00  1.957581212749620e-18
-1.099999999999996e-01  0.000000000000000e+00  1.957581212749620e-18
-1.099999999999996e-01  0.000000000000000e+00  1.957581212749620e-18
-1.099999999999996e-01  0.000000000000000e+00  1.957581212749620e-18
-1.099999999999996e-01  0.000000000000000e+00  1.957581212749620e-18
-1.099999999999996e-01  0.000000000000000e+00  1.957581212749620e-18
-1.099999999999996e-01  0.000000000000000e+00  1.957581212749620e-18
-1.099999999999996e-01  0.000000000000000e+00  1.957581212749620e-18
-1.099999999999996e-01  0.000000000000000e+00  1.957581212749620e-18
-1.099999999999996e-01  0.000000000000000e+00  1.957581212749620e-18
-1.099999999999996e-01  0.000000000000000e+00  1.957581212749620e-18
-1.099999999999996e-01  0.000000000000000e+00  1.957581212749620e-18
-1.099999999999996e-01  0.000000000000000e+00  1.957581212749620e-18
-1.099999999999996e-01  0.000000000000000e+00  1.957581212749620e-18
-1.099999999999996e-01  0.000000000000000e+00  1.957581212749620e-18
-1.099999999999996e-01  0.000000000000000e+00  1.957581212749620e-18
-1.099999999999996e-01  0.000000000000000e+00  1.957581212749620e-18
-1.099999999999996e-01  0.000000000000000e+00  1.957581212749620e-18
-1.099999999999996e-01  0.000000000000000e+00  1.957581212749620e-18
-1.099999999999996e-01  0.000000000000000e+00  1.957581212749620e-18
-1.099999999999996e-01  0.000000000000000e+00  1.957581212749620e-18
-1.099999999999996e-01  0.000000000000000e+00  1.957581212749620e-18
-1.099999999999996e-01  0.000000000000000e+00  1.957581212749620e-18
-1.099999999999996e-01  0.000000000000000e+00  1.957581212749620e-18
-1.099999999999996e-01  0.000000000000000e+00  1.957581212749620e-18
-1.099999999999996e-01  0.000000000000000e+00  1.957581212749620e-18
-1.099999999999996e-01  0.000000000000000e+00  1.957581212749620e-18
-1.099999999999996e-01  0.000000000000000e+00  1.957581212749620e-18
-1.099999999999996e-01  0.000000000000000e+00  1.957581212749620e-18
-1.099999999999996e-01  0.000000000000000e+00  1.957581212749620e-18
-1.099999999999996e-01  0.000000000000000e+00  1.957581212749620e-18
-1.099999999999996e-01  0.000000000000000e+00  1.957581212749620e-18
-1.099999999999996e-01  0.000000000000000e+00  1.957581212749620e-18
-1.099999999999996e-01  0.000000000000000e+00  1.957581212749620e-18
-1.099999999999996e-01  0.000000000000000e+00  1.957581212749620e-18
-1.099999999999996e-01  0.000000000000000e+00  1.957581212749620e-18
-1.099999999999996e-01  0.000000000000000e+00  1.957581212749620e-18
-1.099999999999996e-01  0.000000000000000e+00  1.957581212749620e-18
-1.099999999999996e-01  0.000000000000000e+00  1.957581212749620e-18
-1.099999999999996e-01  0.000000000000000e+00  1.957581212749620e-18
-1.099999999999996e-01  0.000000000000000e+00  1.957581212749620e-18
-1.099999999999996e-01  0.000000000000000e+00  1.957581212749620e-18
-1.099999999999996e-01  0.000000000000000e+00  1.957581212749620e-18
-1.099999999999996e-01  0.000000000000000e+00  1.957581212749620e-18
-1.099999999999996e-01  0.000000000000000e+00  1.957581212749620e-18
-1.099999999999996e-01  0.000000000000000e+00  1.957581212749620e-18
-1.099999999999996e-01  0.000000000000000e+00  1.957581212749620e-18
-1.099999999999996e-01  0.000000000000000e+00  1.957581212749620e-18
-1.099999999999996e-01  0.000000000000000e+00  1.957581212749620e-18
-1.099999999999996e-01  0.000000000000000e+00  1.957581212749620e-18
-1.099999999999996e-01  0.000000000000000e+00  1.957581212749620e-18
-1.099999999999996e-01  0.000000000000000e+00  1.957581212749620e-18
-1.099999999999996e-01  0.000000000000000e+00  1.957581212749620e-18
-1.099999999999996e-01  0.000000000000000e+00  1.957581212749620e-18
-1.099999999999996e-01  0.000000000000000e+00  1.957581212749620e-18
-1.099999999999996e-01  0.000000000000000e+00  1.957581212749620e-18
-1.099999999999996e-01  0.000000000000000e+00  1.957581212749620e-18
-1.099999999999996e-01  0.000000000000000e+00  1.957581212749620e-18
-1.099999999999996e-01  0.000000000000000e+00  1.957581212749620e-18
-1.099999999999996e-01  0.000000000000000e+00  1.957581212749620e-18
-1.099999999999996e-01  0.000000000000000e+00  1.957581212749620e-18
-1.099999999999996e-01  0.000000000000000e+00  1.957581212749620e-18
-1.099999999999996e-01  0.000000000000000e+00  1.957581212749620e-18
-1.099999999999996e-01  0.000000000000000e+00  1.957581212749620e-18
-1.099999999999996e-01  0.000000000000000e+00  1.957581212749620e-18
-1.099999999999996e-01  0.000000000000000e+00  1.957581212749620e-18
-1.099999999999996e-01  0.000000000000000e+00  1.957581212749620e-18
-1.099999999999996e-01  0.000000000000000e+00  1.957581212749620e-18
-1.099999999999996e-01  0.000000000000000e+00  1.957581212749620e-18
-1.099999999999996e-01  0.000000000000000e+00  1.957581212749620e-18
-1.099999999999996e-01  0.000000000000000e+00  1.957581212749620e-18
-1.099999999999996e-01  0.000000000000000e+00  1.957581212749620e-18
-1.099999999999996e-01  0.000000000000000e+00  1.957581212749620e-18
-1.099999999999996e-01  0.000000000000000e+00  1.957581212749620e-18
-1.099999999999996e-01  0.000000000000000e+00  1.957581212749620e-18
-1.099999999999996e-01  0.000000000000000e+00  1.957581212749620e-18
-1.099999999999996e-01  0.000000000000000e+00  1.957581212749620e-18
-1.099999999999996e-01  0.000000000000000e+00  1.957581212749620e-18
-1.099999999999996e-01  0.000000000000000e+00  1.957581212749620e-18
-1.099999999999996e-01  0.000000000000000e+00  1.957581212749620e-18
-1.099999999999996e-01  0.000000000000000e+00  1.957581212749620e-18
-1.099999999999996e-01  0.000000000000000e+00  1.957581212749620e-18
-1.099999999999996e-01  0.000000000000000e+00  1.957581212749620e-18
-1.099999999999996e-01  0.000000000000000e+00  1.957581212749620e-18
-1.099999999999996e-01  0.000000000000000e+00  1.957581212749620e-18
-1.099999999999996e-01  0.000000000000000e+00  1.957581212749620e-18
-1.099999999999996e-01  0.000000000000000e+00  1.957581212749620e-18
-1.099999999999996e-01  0.000000000000000e+00  1.957581212749620e-18
-1.099999999999996e-01  0.000000000000000e+00  1.957581212749620e-18
-1.099999999999996e-01  0.000000000000000e+00  1.957581212749620e-18
-1.099999999999996e-01  0.000000000000000e+00  1.957581212749620e-18
-1.099999999999996e-01  0.000000000000000e+00  1.957581212749620e-18
-1.099999999999996e-01  0.000000000000000e+00  1.957581212749620e-18
-1.099999999999996e-01  0.000000000000000e+00  1.957581212749620e-18
-1.099999999999996e-01  0.000000000000000e+00  1.957581212749620e-18
-1.099999999999996e-01  0.000000000000000e+00  1.957581212749620e-18
-1.099999999999996e-01  0.000000000000000e+00  1.957581212749620e-18
-1.099999999999996e-01  0.000000000000000e+00  1.957581212749620e-18
-1.099999999999996e-01  0.000000000000000e+00  1.957581212749620e-18
-1.099999999999996e-01  0.000000000000000e+00  1.957581212749620e-18
-1.099999999999996e-01  0.000000000000000e+00  1.957581212749620e-18
-1.099999999999996e-01  0.000000000000000e+00  1.957581212749620e-18
-1.099999999999996e-01  0.000000000000000e+00  1.957581212749620e-18
-1.099999999999996e-01  0.000000000000000e+00  1.957581212749620e-18
-1.099999999999996e-01  0.000000000000000e+00  1.957581212749620e-18
-1.099999999999996e-01  0.000000000000000e+00  1.957581212749620e-18
-1.099999999999996e-01  0.000000000000000e+00  1.957581212749620e-18
-1.099999999999996e-01  0.000000000000000e+00  1.957581212749620e-18
-1.099999999999996e-01  0.000000000000000e+00  1.957581212749620e-18
-1.099999999999996e-01  0.000000000000000e+00  1.957581212749620e-18
-1.099999999999996e-01  0.000000000000000e+00  1.957581212749620e-18
-1.099999999999996e-01  0.000000000000000e+00  1.957581212749620e-18
-1.099999999999996e-01  0.000000000000000e+00  1.957581212749620e-18
-1.099999999999996e-01  0.000000000000000e+00  1.957581212749620e-18
-1.099999999999996e-01  0.000000000000000e+00  1.957581212749620e-18
-1.099999999999996e-01  0.000000000000000e+00  1.957581212749620e-18
-1.099999999999996e-01  0.000000000000000e+00  1.957581212749620e-18
-1.099999999999996e-01  0.000000000000000e+00  1.957581212749620e-18
-1.099999999999996e-01  0.000000000000000e+00  1.957581212749620e-18
-1.099999999999996e-01  0.000000000000000e+00  1.957581212749620e-18
-1.099999999999996e-01  0.000000000000000e+00  1.957581212749620e-18
-1.099999999999996e-01  0.000000000000000e+00  1.957581212749620e-18
-1.099999999999996e-01  0.000000000000000e+00  1.957581212749620e-18
-1.099999999999996e-01  0.000000000000000e+00  1.957581212749620e-18
-1.099999999999996e-01  0.000000000000000e+00  1.957581212749620e-18
-1.099999999999996e-01  0.000000000000000e+00  1.957581212749620e-18
-1.099999999999996e-01  0.000000000000000e+00  1.957581212749620e-18
-1.099999999999996e-01  0.000000000000000e+00  1.957581212749620e-18
-1.099999999999996e-01  0.000000000000000e+00  1.957581212749620e-18
-1.099999999999996e-01  0.000000000000000e+00  1.957581212749620e-18
-1.099999999999996e-01  0.000000000000000e+00  1.957581212749620e-18
-1.099999999999996e-01  0.000000000000000e+00  1.957581212749620e-18
-1.099999999999996e-01  0.000000000000000e+00  1.957581212749620e-18
-1.099999999999996e-01  0.000000000000000e+00  1.957581212749620e-18
-1.099999999999996e-01  0.000000000000000e+00  1.957581212749620e-18
-1.099999999999996e-01  0.000000000000000e+00  1.957581212749620e-18
-1.099999999999996e-01  0.000000000000000e+00  1.957581212749620e-18
-1.099999999999996e-01  0.000000000000000e+00  1.957581212749620e-18
-1.099999999999996e-01  0.000000000000000e+00  1.957581212749620e-18
-1.099999999999996e-01  0.000000000000000e+00  1.957581212749620e-18
-1.099999999999996e-01  0.000000000000000e+00  1.957581212749620e-18
-1.099999999999996e-01  0.000000000000000e+00  1.957581212749620e-18
-1.099999999999996e-01  0.000000000000000e+00  1.957581212749620e-18
-1.099999999999996e-01  0.000000000000000e+00  1.957581212749620e-18
-1.099999999999996e-01  0.000000000000000e+00  1.957581212749620e-18
-1.099999999999996e-01  0.000000000000000e+00  1.957581212749620e-18
-1.099999999999996e-01  0.000000000000000e+00  1.957581212749620e-18
-1.099999999999996e-01  0.000000000000000e+00  1.957581212749620e-18
-1.099999999999996e-01  0.000000000000000e+00  1.957581212749620e-18
-1.099999999999996e-01  0.000000000000000e+00  1.957581212749620e-18
-1.099999999999996e-01  0.000000000000000e+00  1.957581212749620e-18
-1.099999999999996e-01  0.000000000000000e+00  1.957581212749620e-18
-1.099999999999996e-01  0.000000000000000e+00  1.957581212749620e-18
-1.099999999999996e-01  0.000000000000000e+00  1.957581212749620e-18
-1.099999999999996e-01  0.000000000000000e+00  1.957581212749620e-18
-1.099999999999996e-01  0.000000000000000e+00  1.957581212749620e-18
-1.099999999999996e-01  0.000000000000000e+00  1.957581212749620e-18
-1.099999999999996e-01  0.000000000000000e+00  1.957581212749620e-18
-1.099999999999996e-01  0.000000000000000e+00  1.957581212749620e-18
-1.099999999999996e-01  0.000000000000000e+00  1.957581212749620e-18
-1.099999999999996e-01  0.000000000000000e+00  1.957581212749620e-18
-1.099999999999996e-01  0.000000000000000e+00  1.957581212749620e-18
-1.099999999999996e-01  0.000000000000000e+00  1.957581212749620e-18
-1.099999999999996e-01  0.000000000000000e+00  1.957581212749620e-18
-1.099999999999996e-01  0.000000000000000e+00  1.957581212749620e-18
-1.099999999999996e-01  0.000000000000000e+00  1.957581212749620e-18
-1.099999999999996e-01  0.000000000000000e+00  1.957581212749620e-18
-1.099999999999996e-01  0.000000000000000e+00  1.957581212749620e-18
-1.099999999999996e-01  0.000000000000000e+00  1.957581212749620e-18
-1.099999999999996e-01  0.000000000000000e+00  1.957581212749620e-18
-1.099999999999996e-01  0.000000000000000e+00  1.957581212749620e-18
-1.099999999999996e-01  0.000000000000000e+00  1.957581212749620e-18
 1.099999999999996e-01  0.000000000000000e+00 -1.957581212749620e-18
 1.099999999999996e-01  0.000000000000000e+00 -1.957581212749620e-18
 1.099999999999996e-01  0.000000000000000e+00 -1.957581212749620e-18
 1.099999999999996e-01  0.000000000000000e+00 -1.957581212749620e-18
 1.099999999999996e-01  0.000000000000000e+00 -1.957581212749620e-18
 1.099999999999996e-01  0.000000000000000e+00 -1.957581212749620e-18
 1.099999999999996e-01  0.000000000000000e+00 -1.957581212749620e-18
 1.099999999999996e-01  0.000000000000000e+00 -1.957581212749620e-18
 1.099999999999996e-01  0.000000000000000e+00 -1.957581212749620e-18
 1.099999999999996e-01  0.000000000000000e+00 -1.957581212749620e-18
 1.099999999999996e-01  0.000000000000000e+00 -1.957581212749620e-18
 1.099999999999996e-01  0.000000000000000e+00 -1.957581212749620e-18
 1.099999999999996e-01  0.000000000000000e+00 -1.957581212749620e-18
 1.099999999999996e-01  0.000000000000000e+00 -1.957581212749620e-18
 1.099999999999996e-01  0.000000000000000e+00 -1.957581212749620e-18
 1.099999999999996e-01  0.000000000000000e+00 -1.957581212749620e-18
 1.099999999999996e-01  0.000000000000000e+00 -1.957581212749620e-18
 1.099999999999996e-01  0.000000000000000e+00 -1.957581212749620e-18
 1.099999999999996e-01  0.000000000000000e+00 -1.957581212749620e-18
 1.099999999999996e-01  0.000000000000000e+00 -1.957581212749620e-18
 1.099999999999996e-01  0.000000000000000e+00 -1.957581212749620e-18
 1.099999999999996e-01  0.000000000000000e+00 -1.957581212749620e-18
 1.099999999999996e-01  0.000000000000000e+00 -1.957581212749620e-18
 1.099999999999996e-01  0.000000000000000e+00 -1.957581212749620e-18
 1.099999999999996e-01  0.000000000000000e+00 -1.957581212749620e-18
 1.099999999999996e-01  0.000000000000000e+00 -1.957581212749620e-18
 1.099999999999996e-01  0.000000000000000e+00 -1.957581212749620e-18
 1.099999999999996e-01  0.000000000000000e+00 -1.957581212749620e-18
 1.099999999999996e-01  0.000000000000000e+00 -1.957581212749620e-18
 1.099999999999996e-01  0.000000000000000e+00 -1.957581212749620e-18
 1.099999999999996e-01  0.000000000000000e+00 -1.957581212749620e-18
 1.099999999999996e-01  0.000000000000000e+00 -1.957581212749620e-18
 1.099999999999996e-01  0.000000000000000e+00 -1.957581212749620e-18
 1.099999999999996e-01  0.000000000000000e+00 -1.957581212749620e-18
 1.099999999999996e-01  0.000000000000000e+00 -1.957581212749620e-18
 1.099999999999996e-01  0.000000000000000e+00 -1.957581212749620e-18
 1.099999999999996e-01  0.000000000000000e+00 -1.957581212749620e-18
 1.099999999999996e-01  0.000000000000000e+00 -1.957581212749620e-18
 1.099999999999996e-01  0.000000000000000e+00 -1.957581212749620e-18
 1.099999999999996e-01  0.000000000000000e+00 -1.957581212749620e-18
 1.099999999999996e-01  0.000000000000000e+00 -1.957581212749620e-18
 1.099999999999996e-01  0.000000000000000e+00 -1.957581212749620e-18
 1.099999999999996e-01  0.000000000000000e+00 -1.957581212749620e-18
 1.099999999999996e-01  0.000000000000000e+00 -1.957581212749620e-18
 1.099999999999996e-01  0.000000000000000e+00 -1.957581212749620e-18
 1.099999999999996e-01  0.000000000000000e+00 -1.957581212749620e-18
 1.099999999999996e-01  0.000000000000000e+00 -1.957581212749620e-18
 1.099999999999996e-01  0.000000000000000e+00 -1.957581212749620e-18
 1.099999999999996e-01  0.000000000000000e+00 -1.957581212749620e-18
 1.099999999999996e-01  0.000000000000000e+00 -1.957581212749620e-18
 1.099999999999996e-01  0.000000000000000e+00 -1.957581212749620e-18
 1.099999999999996e-01  0.000000000000000e+00 -1.957581212749620e-18
 1.099999999999996e-01  0.000000000000000e+00 -1.957581212749620e-18
 1.099999999999996e-01  0.000000000000000e+00 -1.957581212749620e-18
 1.099999999999996e-01  0.000000000000000e+00 -1.957581212749620e-18
 1.099999999999996e-01  0.000000000000000e+00 -1.957581212749620e-18
 1.099999999999996e-01  0.000000000000000e+00 -1.957581212749620e-18
 1.099999999999996e-01  0.000000000000000e+00 -1.957581212749620e-18
 1.099999999999996e-01  0.000000000000000e+00 -1.957581212749620e-18
 1.099999999999996e-01  0.000000000000000e+00 -1.957581212749620e-18
 1.099999999999996e-01  0.000000000000000e+00 -1.957581212749620e-18
 1.099999999999996e-01  0.000000000000000e+00 -1.957581212749620e-18
 1.099999999999996e-01  0.000000000000000e+00 -1.957581212749620e-18
 1.099999999999996e-01  0.000000000000000e+00 -1.957581212749620e-18
 1.099999999999996e-01  0.000000000000000e+00 -1.957581212749620e-18
 1.099999999999996e-01  0.000000000000000e+00 -1.957581212749620e-18
 1.099999999999996e-01  0.000000000000000e+00 -1.957581212749620e-18
 1.099999999999996e-01  0.000000000000000e+00 -1.957581212749620e-18
 1.099999999999996e-01  0.000000000000000e+00 -1.957581212749620e-18
 1.099999999999996e-01  0.000000000000000e+00 -1.957581212749620e-18
 1.099999999999996e-01  0.000000000000000e+00 -1.957581212749620e-18
 1.099999999999996e-01  0.000000000000000e+00 -1.957581212749620e-18
 1.099999999999996e-01  0.000000000000000e+00 -1.957581212749620e-18
 1.099999999999996e-01  0.000000000000000e+00 -1.957581212749620e-18
 1.099999999999996e-01  0.000000000000000e+00 -1.957581212749620e-18
 1.099999999999996e-01  0.000000000000000e+00 -1.957581212749620e-18
 1.099999999999996e-01  0.000000000000000e+00 -1.957581212749620e-18
 1.099999999999996e-01  0.000000000000000e+00 -1.957581212749620e-18
 1.099999999999996e-01  0.000000000000000e+00 -1.957581212749620e-18
 1.099999999999996e-01  0.000000000000000e+00 -1.957581212749620e-18
 1.099999999999996e-01  0.000000000000000e+00 -1.957581212749620e-18
 1.099999999999996e-01  0.000000000000000e+00 -1.957581212749620e-18
 1.099999999999996e-01  0.000000000000000e+00 -1.957581212749620e-18
 1.099999999999996e-01  0.000000000000000e+00 -1.957581212749620e-18
 1.099999999999996e-01  0.000000000000000e+00 -1.957581212749620e-18
 1.099999999999996e-01  0.000000000000000e+00 -1.957581212749620e-18
 1.099999999999996e-01  0.000000000000000e+00 -1.957581212749620e-18
 1.099999999999996e-01  0.000000000000000e+00 -1.957581212749620e-18
 1.099999999999996e-01  0.000000000000000e+00 -1.957581212749620e-18
 1.099999999999996e-01  0.000000000000000e+00 -1.957581212749620e-18
 1.099999999999996e-01  0.000000000000000e+00 -1.957581212749620e-18
 1.099999999999996e-01  0.000000000000000e+00 -1.957581212749620e-18
 1.099999999999996e-01  0.000000000000000e+00 -1.957581212749620e-18
 1.099999999999996e-01  0.000000000000000e+00 -1.957581212749620e-18
 1.099999999999996e-01  0.000000000000000e+00 -1.957581212749620e-18
 1.099999999999996e-01  0.000000000000000e+00 -1.957581212749620e-18
 1.099999999999996e-01  0.000000000000000e+00 -1.957581212749620e-18
 1.099999999999996e-01  0.000000000000000e+00 -1.957581212749620e-18
 1.099999999999996e-01  0.000000000000000e+00 -1.957581212749620e-18
 1.099999999999996e-01  0.000000000000000e+00 -1.957581212749620e-18
 1.099999999999996e-01  0.000000000000000e+00 -1.957581212749620e-18
 1.099999999999996e-01  0.000000000000000e+00 -1.957581212749620e-18
 1.099999999999996e-01  0.000000000000000e+00 -1.957581212749620e-18
 1.099999999999996e-01  0.000000000000000e+00 -1.957581212749620e-18
 1.099999999999996e-01  0.000000000000000e+00 -1.957581212749620e-18
 1.099999999999996e-01  0.000000000000000e+00 -1.957581212749620e-18
 1.099999999999996e-01  0.000000000000000e+00 -1.957581212749620e-18
 1.099999999999996e-01  0.000000000000000e+00 -1.957581212749620e-18
 1.099999999999996e-01  0.000000000000000e+00 -1.957581212749620e-18
 1.099999999999996e-01  0.000000000000000e+00 -1.957581212749620e-18
 1.099999999999996e-01  0.000000000000000e+00 -1.957581212749620e-18
 1.099999999999996e-01  0.000000000000000e+00 -1.957581212749620e-18
 1.099999999999996e-01  0.000000000000000e+00 -1.957581212749620e-18
 1.099999999999996e-01  0.000000000000000e+00 -1.957581212749620e-18
 1.099999999999996e-01  0.000000000000000e+00 -1.957581212749620e-18
 1.099999999999996e-01  0.000000000000000e+00 -1.957581212749620e-18
 1.099999999999996e-01  0.000000000000000e+00 -1.957581212749620e-18
 1.099999999999996e-01  0.000000000000000e+00 -1.957581212749620e-18
 1.099999999999996e-01  0.000000000000000e+00 -1.957581212749620e-18
 1.099999999999996e-01  0.000000000000000e+00 -1.957581212749620e-18
 1.099999999999996e-01  0.000000000000000e+00 -1.957581212749620e-18
 1.099999999999996e-01  0.000000000000000e+00 -1.957581212749620e-18
 1.099999999999996e-01  0.000000000000000e+00 -1.957581212749620e-18
 1.099999999999996e-01  0.000000000000000e+00 -1.957581212749620e-18
 1.099999999999996e-01  0.000000000000000e+00 -1.957581212749620e-18
 1.099999999999996e-01  0.000000000000000e+00 -1.957581212749620e-18
 1.099999999999996e-01  0.000000000000000e+00 -1.957581212749620e-18
 1.099999999999996e-01  0.000000000000000e+00 -1.957581212749620e-18
 1.099999999999996e-01  0.000000000000000e+00 -1.957581212749620e-18
 1.099999999999996e-01  0.000000000000000e+00 -1.957581212749620e-18
 1.099999999999996e-01  0.000000000000000e+00 -1.957581212749620e-18
 1.099999999999996e-01  0.000000000000000e+00 -1.957581212749620e-18
 1.099999999999996e-01  0.000000000000000e+00 -1.957581212749620e-18
 1.099999999999996e-01  0.000000000000000e+00 -1.957581212749620e-18
 1.099999999999996e-01  0.000000000000000e+00 -1.957581212749620e-18
 1.099999999999996e-01  0.000000000000000e+00 -1.957581212749620e-18
 1.099999999999996e-01  0.000000000000000e+00 -1.957581212749620e-18
 1.099999999999996e-01  0.000000000000000e+00 -1.957581212749620e-18
 1.099999999999996e-01  0.000000000000000e+00 -1.957581212749620e-18
 1.099999999999996e-01  0.000000000000000e+00 -1.957581212749620e-18
 1.099999999999996e-01  0.000000000000000e+00 -1.957581212749620e-18
 1.099999999999996e-01  0.000000000000000e+00 -1.957581212749620e-18
 1.099999999999996e-01  0.000000000000000e+00 -1.957581212749620e-18
 1.099999999999996e-01  0.000000000000000e+00 -1.957581212749620e-18
 1.099999999999996e-01  0.000000000000000e+00 -1.957581212749620e-18
 1.099999999999996e-01  0.000000000000000e+00 -1.957581212749620e-18
 1.099999999999996e-01  0.000000000000000e+00 -1.957581212749620e-18
 1.099999999999996e-01  0.000000000000000e+00 -1.957581212749620e-18
 1.099999999999996e-01  0.000000000000000e+00 -1.957581212749620e-18
 1.099999999999996e-01  0.000000000000000e+00 -1.957581212749620e-18
 1.099999999999996e-01  0.000000000000000e+00 -1.957581212749620e-18
 1.099999999999996e-01  0.000000000000000e+00 -1.957581212749620e-18
 1.099999999999996e-01  0.000000000000000e+00 -1.957581212749620e-18
 1.099999999999996e-01  0.000000000000000e+00 -1.957581212749620e-18
 1.099999999999996e-01  0.000000000000000e+00 -1.957581212749620e-18
 1.099999999999996e-01  0.000000000000000e+00 -1.957581212749620e-18
 1.099999999999996e-01  0.000000000000000e+00 -1.957581212749620e-18
 1.099999999999996e-01  0.000000000000000e+00 -1.957581212749620e-18
 1.099999999999996e-01  0.000000000000000e+00 -1.957581212749620e-18
 1.099999999999996e-01  0.000000000000000e+00 -1.957581212749620e-18
 1.099999999999996e-01  0.000000000000000e+00 -1.957581212749620e-18
 1.099999999999996e-01  0.000000000000000e+00 -1.957581212749620e-18
 1.099999999999996e-01  0.000000000000000e+00 -1.957581212749620e-18
 1.099999999999996e-01  0.000000000000000e+00 -1.957581212749620e-18
 1.099999999999996e-01  0.000000000000000e+00 -1.957581212749620e-18
 1.099999999999996e-01  0.000000000000000e+00 -1.957581212749620e-18
 1.099999999999996e-01  0.000000000000000e+00 -1.957581212749620e-18
 1.099999999999996e-01  0.000000000000000e+00 -1.957581212749620e-18
 1.099999999999996e-01  0.000000000000000e+00 -1.957581212749620e-18
 1.099999999999996e-01  0.000000000000000e+00 -1.957581212749620e-18
 1.099999999999996e-01  0.000000000000000e+00 -1.957581212749620e-18
 1.099999999999996e-01  0.000000000000000e+00 -1.957581212749620e-18
 1.099999999999996e-01  0.000000000000000e+00 -1.957581212749620e-18
 1.099999999999996e-01  0.000000000000000e+00 -1.957581212749620e-18
 1.099999999999996e-01  0.000000000000000e+00 -1.957581212749620e-18
 1.099999999999996e-01  0.000000000000000e+00 -1.957581212749620e-18
 1.099999999999996e-01  0.000000000000000e+00 -1.957581212749620e-18
 1.099999999999996e-01  0.000000000000000e+00 -1.957581212749620e-18
 1.099999999999996e-01  0.000000000000000e+00 -1.957581212749620e-18
 1.099999999999996e-01  0.000000000000000e+00 -1.957581212749620e-18
 1.099999999999996e-01  0.000000000000000e+00 -1.957581212749620e-18
 1.099999999999996e-01  0.000000000000000e+00 -1.957581212749620e-18
 1.099999999999996e-01  0.000000000000000e+00 -1.957581212749620e-18
 1.099999999999996e-01  0.000000000000000e+00 -1.957581212749620e-18
 1.099999999999996e-01  0.000000000000000e+00 -1.957581212749620e-18
 1.099999999999996e-01  0.000000000000000e+00 -1.957581212749620e-18
 1.099999999999996e-01  0.000000000000000e+00 -1.957581212749620e-18
 1.099999999999996e-01  0.000000000000000e+00 -1.957581212749620e-18
 1.099999999999996e-01  0.000000000000000e+00 -1.957581212749620e-18
 1.099999999999996e-01  0.000000000000000e+00 -1.957581212749620e-18
 1.099999999999996e-01  0.000000000000000e+00 -1.957581212749620e-18
 1.099999999999996e-01  0.000000000000000e+00 -1.957581212749620e-18
 1.099999999999996e-01  0.000000000000000e+00 -1.957581212749620e-18
 1.099999999999996e-01  0.000000000000000e+00 -1.957581212749620e-18
 1.099999999999996e-01  0.000000000000000e+00 -1.957581212749620e-18
 1.099999999999996e-01  0.000000000000000e+00 -1.957581212749620e-18
 1.099999999999996e-01  0.000000000000000e+00 -1.957581212749620e-18
 1.099999999999996e-01  0.000000000000000e+00 -1.957581212749620e-18
 1.099999999999996e-01  0.000000000000000e+00 -1.957581212749620e-18
 1.099999999999996e-01  0.000000000000000e+00 -1.957581212749620e-18
 1.099999999999996e-01  0.000000000000000e+00 -1.957581212749620e-18
 1.099999999999996e-01  0.000000000000000e+00 -1.957581212749620e-18
 1.099999999999996e-01  0.000000000000000e+00 -1.957581212749620e-18
 1.099999999999996e-01  0.000000000000000e+00 -1.957581212749620e-18
 1.099999999999996e-01  0.000000000000000e+00 -1.957581212749620e-18
 1.099999999999996e-01  0.000000000000000e+00 -1.957581212749620e-18
 1.099999999999996e-01  0.000000000000000e+00 -1.957581212749620e-18
 1.099999999999996e-01  0.000000000000000e+00 -1.957581212749620e-18
 1.099999999999996e-01  0.000000000000000e+00 -1.957581212749620e-18
 1.099999999999996e-01  0.000000000000000e+00 -1.957581212749620e-18
 1.099999999999996e-01  0.000000000000000e+00 -1.957581212749620e-18
 1.099999999999996e-01  0.000000000000000e+00 -1.957581212749620e-18
 1.099999999999996e-01  0.000000000000000e+00 -1.957581212749620e-18
 1.099999999999996e-01  0.000000000000000e+00 -1.957581212749620e-18
 1.099999999999996e-01  0.000000000000000e+00 -1.957581212749620e-18
 1.099999999999996e-01  0.000000000000000e+00 -1.957581212749620e-18
 1.099999999999996e-01  0.000000000000000e+00 -1.957581212749620e-18
 1.099999999999996e-01  0.000000000000000e+00 -1.957581212749620e-18
 1.099999999999996e-01  0.000000000000000e+00 -1.957581212749620e-18
 1.099999999999996e-01  0.000000000000000e+00 -1.957581212749620e-18
 1.099999999999996e-01  0.000000000000000e+00 -1.957581212749620e-18
 1.099999999999996e-01  0.000000000000000e+00 -1.957581212749620e-18
 1.099999999999996e-01  0.000000000000000e+00 -1.957581212749620e-18
 1.099999999999996e-01  0.000000000000000e+00 -1.957581212749620e-18
 1.099999999999996e-01  0.000000000000000e+00 -1.957581212749620e-18
 1.099999999999996e-01  0.000000000000000e+00 -1.957581212749620e-18
 1.099999999999996e-01  0.000000000000000e+00 -1.957581212749620e-18
 1.099999999999996e-01  0.000000000000000e+00 -1.957581212749620e-18
 1.099999999999996e-01  0.000000000000000e+00 -1.957581212749620e-18
 1.099999999999996e-01  0.000000000000000e+00 -1.957581212749620e-18
 1.099999999999996e-01  0.000000000000000e+00 -1.957581212749620e-18
 1.099999999999996e-01  0.000000000000000e+00 -1.957581212749620e-18
 1.099999999999996e-01  0.000000000000000e+00 -1.957581212749620e-18
 1.099999999999996e-01  0.000000000000000e+00 -1.957581212749620e-18
 1.099999999999996e-01  0.000000000000000e+00 -1.957581212749620e-18
 1.099999999999996e-01  0.000000000000000e+00 -1.957581212749620e-18
 1.099999999999996e-01  0.000000000000000e+00 -1.957581212749620e-18
 1.099999999999996e-01  0.000000000000000e+00 -1.957581212749620e-18
 1.099999999999996e-01  0.000000000000000e+00 -1.957581212749620e-18
 1.099999999999996e-01  0.000000000000000e+00 -1.957581212749620e-18
 1.099999999999996e-01  0.000000000000000e+00 -1.957581212749620e-18
 1.099999999999996e-01  0.000000000000000e+00 -1.957581212749620e-18
 1.099999999999996e-01  0.000000000000000e+00 -1.957581212749620e-18
 1.099999999999996e-01  0.000000000000000e+00 -1.957581212749620e-18
 1.099999999999996e-01  0.000000000000000e+00 -1.957581212749620e-18
 1.099999999999996e-01  0.000000000000000e+00 -1.957581212749620e-18
 1.099999999999996e-01  0.000000000000000e+00 -1.957581212749620e-18
 1.099999999999996e-01  0.000000000000000e+00 -1.957581212749620e-18
 1.099999999999996e-01  0.000000000000000e+00 -1.957581212749620e-18
 1.099999999999996e-01  0.000000000000000e+00 -1.957581212749620e-18
 1.099999999999996e-01  0.000000000000000e+00 -1.957581212749620e-18
 1.099999999999996e-01  0.000000000000000e+00 -1.957581212749620e-18
 1.099999999999996e-01  0.000000000000000e+00 -1.957581212749620e-18
 1.099999999999996e-01  0.000000000000000e+00 -1.957581212749620e-18
 1.099999999999996e-01  0.000000000000000e+00 -1.957581212749620e-18
 1.099999999999996e-01  0.000000000000000e+00 -1.957581212749620e-18
 1.099999999999996e-01  0.000000000000000e+00 -1.957581212749620e-18
 1.099999999999996e-01  0.000000000000000e+00 -1.957581212749620e-18
 1.099999999999996e-01  0.000000000000000e+00 -1.957581212749620e-18
 1.099999999999996e-01  0.000000000000000e+00 -1.957581212749620e-18
 1.099999999999996e-01  0.000000000000000e+00 -1.957581212749620e-18
 1.099999999999996e-01  0.000000000000000e+00 -1.957581212749620e-18
 1.099999999999996e-01  0.000000000000000e+00 -1.957581212749620e-18
 1.099999999999996e-01  0.000000000000000e+00 -1.957581212749620e-18
 1.099999999999996e-01  0.000000000000000e+00 -1.957581212749620e-18
 1.099999999999996e-01  0.000000000000000e+00 -1.957581212749620e-18
 1.099999999999996e-01  0.000000000000000e+00 -1.957581212749620e-18
 1.099999999999996e-01  0.000000000000000e+00 -1.957581212749620e-18
 1.099999999999996e-01  0.000000000000000e+00 -1.957581212749620e-18
 1.099999999999996e-01  0.000000000000000e+00 -1.957581212749620e-18
 1.099999999999996e-01  0.000000000000000e+00 -1.957581212749620e-18
 1.099999999999996e-01  0.000000000000000e+00 -1.957581212749620e-18
 1.099999999999996e-01  0.000000000000000e+00 -1.957581212749620e-18
 1.099999999999996e-01  0.000000000000000e+00 -1.957581212749620e-18
 1.099999999999996e-01  0.000000000000000e+00 -1.957581212749620e-18
 1.099999999999996e-01  0.000000000000000e+00 -1.957581212749620e-18
 1.099999999999996e-01  0.000000000000000e+00 -1.957581212749620e-18
 1.099999999999996e-01  0.000000000000000e+00 -1.957581212749620e-18
 1.099999999999996e-01  0.000000000000000e+00 -1.957581212749620e-18
 1.099999999999996e-01  0.000000000000000e+00 -1.957581212749620e-18
 1.099999999999996e-01  0.000000000000000e+00 -1.957581212749620e-18
 1.099999999999996e-01  0.000000000000000e+00 -1.957581212749620e-18
 1.099999999999996e-01  0.000000000000000e+00 -1.957581212749620e-18
 1.099999999999996e-01  0.000000000000000e+00 -1.957581212749620e-18
 1.099999999999996e-01  0.000000000000000e+00 -1.957581212749620e-18
 1.099999999999996e-01  0.000000000000000e+00 -1.957581212749620e-18
 1.099999999999996e-01  0.000000000000000e+00 -1.957581212749620e-18
 1.099999999999996e-01  0.000000000000000e+00 -1.957581212749620e-18
 1.099999999999996e-01  0.000000000000000e+00 -1.957581212749620e-18
 1.099999999999996e-01  0.000000000000000e+00 -1.957581212749620e-18
 1.099999999999996e-01  0.000000000000000e+00 -1.957581212749620e-18
 1.099999999999996e-01  0.000000000000000e+00 -1.957581212749620e-18
 1.099999999999996e-01  0.000000000000000e+00 -1.957581212749620e-18
 1.099999999999996e-01  0.000000000000000e+00 -1.957581212749620e-18
 1.099999999999996e-01  0.000000000000000e+00 -1.957581212749620e-18
 1.099999999999996e-01  0.000000000000000e+00 -1.957581212749620e-18
 1.099999999999996e-01  0.000000000000000e+00 -1.957581212749620e-18
 1.099999999999996e-01  0.000000000000000e+00 -1.957581212749620e-18
 1.099999999999996e-01  0.000000000000000e+00 -1.957581212749620e-18
 1.099999999999996e-01  0.000000000000000e+00 -1.957581212749620e-18
 1.099999999999996e-01  0.000000000000000e+00 -1.957581212749620e-18
 1.099999999999996e-01  0.000000000000000e+00 -1.957581212749620e-18
 1.099999999999996e-01  0.000000000000000e+00 -1.957581212749620e-18
 1.099999999999996e-01  0.000000000000000e+00 -1.957581212749620e-18
 1.099999999999996e-01  0.000000000000000e+00 -1.957581212749620e-18
 1.099999999999996e-01  0.000000000000000e+00 -1.957581212749620e-18
 1.099999999999996e-01  0.000000000000000e+00 -1.957581212749620e-18
 1.099999999999996e-01  0.000000000000000e+00 -1.957581212749620e-18
 1.099999999999996e-01  0.000000000000000e+00 -1.957581212749620e-18
 1.099999999999996e-01  0.000000000000000e+00 -1.957581212749620e-18
 1.099999999999996e-01  0.000000000000000e+00 -1.957581212749620e-18
 1.099999999999996e-01  0.000000000000000e+00 -1.957581212749620e-18
 1.099999999999996e-01  0.000000000000000e+00 -1.957581212749620e-18
 1.099999999999996e-01  0.000000000000000e+00 -1.957581212749620e-18
 1.099999999999996e-01  0.000000000000000e+00 -1.957581212749620e-18
 1.099999999999996e-01  0.000000000000000e+00 -1.957581212749620e-18
 1.099999999999996e-01  0.000000000000000e+00 -1.957581212749620e-18
 1.099999999999996e-01  0.000000000000000e+00 -1.957581212749620e-18
 1.099999999999996e-01  0.000000000000000e+00 -1.957581212749620e-18
 1.099999999999996e-01  0.000000000000000e+00 -1.957581212749620e-18
 1.099999999999996e-01  0.000000000000000e+00 -1.957581212749620e-18
 1.099999999999996e-01  0.000000000000000e+00 -1.957581212749620e-18
 1.099999999999996e-01  0.000000000000000e+00 -1.957581212749620e-18
 1.099999999999996e-01  0.000000000000000e+00 -1.957581212749620e-18
 1.099999999999996e-01  0.000000000000000e+00 -1.957581212749620e-18
 1.099999999999996e-01  0.000000000000000e+00 -1.957581212749620e-18
 1.099999999999996e-01  0.000000000000000e+00 -1.957581212749620e-18
 1.099999999999996e-01  0.000000000000000e+00 -1.957581212749620e-18
 1.099999999999996e-01  0.000000000000000e+00 -1.957581212749620e-18
 1.099999999999996e-01  0.000000000000000e+00 -1.957581212749620e-18
 1.099999999999996e-01  0.000000000000000e+00 -1.957581212749620e-18
 1.099999999999996e-01  0.000000000000000e+00 -1.957581212749620e-18
 1.099999999999996e-01  0.000000000000000e+00 -1.957581212749620e-18
 1.099999999999996e-01  0.000000000000000e+00 -1.957581212749620e-18
 1.099999999999996e-01  0.000000000000000e+00 -1.957581212749620e-18
 1.099999999999996e-01  0.000000000000000e+00 -1.957581212749620e-18
 1.099999999999996e-01  0.000000000000000e+00 -1.957581212749620e-18
 1.099999999999996e-01  0.000000000000000e+00 -1.957581212749620e-18
 1.099999999999996e-01  0.000000000000000e+00 -1.957581212749620e-18
 1.099999999999996e-01  0.000000000000000e+00 -1.957581212749620e-18
 1.099999999999996e-01  0.000000000000000e+00 -1.957581212749620e-18
 1.099999999999996e-01  0.000000000000000e+00 -1.957581212749620e-18
 1.099999999999996e-01  0.000000000000000e+00 -1.957581212749620e-18
 1.099999999999996e-01  0.000000000000000e+00 -1.957581212749620e-18
 1.099999999999996e-01  0.000000000000000e+00 -1.957581212749620e-18
 1.099999999999996e-01  0.000000000000000e+00 -1.957581212749620e-18
 1.099999999999996e-01  0.000000000000000e+00 -1.957581212749620e-18
 1.099999999999996e-01  0.000000000000000e+00 -1.957581212749620e-18
 1.099999999999996e-01  0.000000000000000e+00 -1.957581212749620e-18
 1.099999999999996e-01  0.000000000000000e+00 -1.957581212749620e-18
 1.099999999999996e-01  0.000000000000000e+00 -1.957581212749620e-18
 1.099999999999996e-01  0.000000000000000e+00 -1.957581212749620e-18
 1.099999999999996e-01  0.000000000000000e+00 -1.957581212749620e-18
 1.099999999999996e-01  0.000000000000000e+00 -1.957581212749620e-18
 1.099999999999996e-01  0.000000000000000e+00 -1.957581212749620e-18
 1.099999999999996e-01  0.000000000000000e+00 -1.957581212749620e-18
 1.099999999999996e-01  0.000000000000000e+00 -1.957581212749620e-18
 1.099999999999996e-01  0.000000000000000e+00 -1.957581212749620e-18
 1.099999999999996e-01  0.000000000000000e+00 -1.957581212749620e-18
 1.099999999999996e-01  0.000000000000000e+00 -1.957581212749620e-18
 1.099999999999996e-01  0.000000000000000e+00 -1.957581212749620e-18
 1.099999999999996e-01  0.000000000000000e+00 -1.957581212749620e-18
 1.099999999999996e-01  0.000000000000000e+00 -1.957581212749620e-18
 1.099999999999996e-01  0.000000000000000e+00 -1.957581212749620e-18
 1.099999999999996e-01  0.000000000000000e+00 -1.957581212749620e-18
 1.099999999999996e-01  0.000000000000000e+00 -1.957581212749620e-18
 1.099999999999996e-01  0.000000000000000e+00 -1.957581212749620e-18
 1.099999999999996e-01  0.000000000000000e+00 -1.957581212749620e-18
 1.099999999999996e-01  0.000000000000000e+00 -1.957581212749620e-18
 1.099999999999996e-01  0.000000000000000e+00 -1.957581212749620e-18
 1.099999999999996e-01  0.000000000000000e+00 -1.957581212749620e-18
 1.099999999999996e-01  0.000000000000000e+00 -1.957581212749620e-18
 1.099999999999996e-01  0.000000000000000e+00 -1.957581212749620e-18
 1.099999999999996e-01  0.000000000000000e+00 -1.957581212749620e-18
 1.099999999999996e-01  0.000000000000000e+00 -1.957581212749620e-18
 1.099999999999996e-01  0.000000000000000e+00 -1.957581212749620e-18
 1.099999999999996e-01  0.000000000000000e+00 -1.957581212749620e-18
 1.099999999999996e-01  0.000000000000000e+00 -1.957581212749620e-18
 1.099999999999996e-01  0.000000000000000e+00 -1.957581212749620e-18
 1.099999999999996e-01  0.000000000000000e+00 -1.957581212749620e-18
 1.099999999999996e-01  0.000000000000000e+00 -1.957581212749620e-18
 1.099999999999996e-01  0.000000000000000e+00 -1.957581212749620e-18
 1.099999999999996e-01  0.000000000000000e+00 -1.957581212749620e-18
 1.099999999999996e-01  0.000000000000000e+00 -1.957581212749620e-18
 1.099999999999996e-01  0.000000000000000e+00 -1.957581212749620e-18
 1.099999999999996e-01  0.000000000000000e+00 -1.957581212749620e-18
 1.099999999999996e-01  0.000000000000000e+00 -1.957581212749620e-18
 1.099999999999996e-01  0.000000000000000e+00 -1.957581212749620e-18
 1.099999999999996e-01  0.000000000000000e+00 -1.957581212749620e-18
 1.099999999999996e-01  0.000000000000000e+00 -1.957581212749620e-18
 1.099999999999996e-01  0.000000000000000e+00 -1.957581212749620e-18
 1.099999999999996e-01  0.000000000000000e+00 -1.957581212749620e-18
 1.099999999999996e-01  0.000000000000000e+00 -1.957581212749620e-18
 1.099999999999996e-01  0.000000000000000e+00 -1.957581212749620e-18
 1.099999999999996e-01  0.000000000000000e+00 -1.957581212749620e-18
 1.099999999999996e-01  0.000000000000000e+00 -1.957581212749620e-18
 1.099999999999996e-01  0.000000000000000e+00 -1.957581212749620e-18
 1.099999999999996e-01  0.000000000000000e+00 -1.957581212749620e-18
 1.099999999999996e-01  0.000000000000000e+00 -1.957581212749620e-18
 1.099999999999996e-01  0.000000000000000e+00 -1.957581212749620e-18
 1.099999999999996e-01  0.000000000000000e+00 -1.957581212749620e-18
 1.099999999999996e-01  0.000000000000000e+00 -1.957581212749620e-18
 1.099999999999996e-01  0.000000000000000e+00 -1.957581212749620e-18
 1.099999999999996e-01  0.000000000000000e+00 -1.957581212749620e-18
 1.099999999999996e-01  0.000000000000000e+00 -1.957581212749620e-18
 1.099999999999996e-01  0.000000000000000e+00 -1.957581212749620e-18
 1.099999999999996e-01  0.000000000000000e+00 -1.957581212749620e-18
 1.099999999999996e-01  0.000000000000000e+00 -1.957581212749620e-18
 1.099999999999996e-01  0.000000000000000e+00 -1.957581212749620e-18
 1.099999999999996e-01  0.000000000000000e+00 -1.957581212749620e-18
 1.099999999999996e-01  0.000000000000000e+00 -1.957581212749620e-18
 1.099999999999996e-01  0.000000000000000e+00 -1.957581212749620e-18
 1.099999999999996e-01  0.000000000000000e+00 -1.957581212749620e-18
 1.099999999999996e-01  0.000000000000000e+00 -1.957581212749620e-18
 1.099999999999996e-01  0.000000000000000e+00 -1.957581212749620e-18
 1.099999999999996e-01  0.000000000000000e+00 -1.957581212749620e-18
 1.099999999999996e-01  0.000000000000000e+00 -1.957581212749620e-18
 1.099999999999996e-01  0.000000000000000e+00 -1.957581212749620e-18
 1.099999999999996e-01  0.000000000000000e+00 -1.957581212749620e-18
 1.099999999999996e-01  0.000000000000000e+00 -1.957581212749620e-18
 1.099999999999996e-01  0.000000000000000e+00 -1.957581212749620e-18
 1.099999999999996e-01  0.000000000000000e+00 -1.957581212749620e-18
 1.099999999999996e-01  0.000000000000000e+00 -1.957581212749620e-18
 1.099999999999996e-01  0.000000000000000e+00 -1.957581212749620e-18
 1.099999999999996e-01  0.000000000000000e+00 -1.957581212749620e-18
 1.099999999999996e-01  0.000000000000000e+00 -1.957581212749620e-18
 1.099999999999996e-01  0.000000000000000e+00 -1.957581212749620e-18
 1.099999999999996e-01  0.000000000000000e+00 -1.957581212749620e-18
 1.099999999999996e-01  0.000000000000000e+00 -1.957581212749620e-18
 1.099999999999996e-01  0.000000000000000e+00 -1.957581212749620e-18
 1.099999999999996e-01  0.000000000000000e+00 -1.957581212749620e-18
 1.099999999999996e-01  0.000000000000000e+00 -1.957581212749620e-18
 1.099999999999996e-01  0.000000000000000e+00 -1.957581212749620e-18
 1.099999999999996e-01  0.000000000000000e+00 -1.957581212749620e-18
 1.099999999999996e-01  0.000000000000000e+00 -1.957581212749620e-18
 1.099999999999996e-01  0.000000000000000e+00 -1.957581212749620e-18
 1.099999999999996e-01  0.000000000000000e+00 -1.957581212749620e-18
 1.099999999999996e-01  0.000000000000000e+00 -1.957581212749620e-18
 1.099999999999996e-01  0.000000000000000e+00 -1.957581212749620e-18
 1.099999999999996e-01  0.000000000000000e+00 -1.957581212749620e-18
 1.099999999999996e-01  0.000000000000000e+00 -1.957581212749620e-18
 1.099999999999996e-01  0.000000000000000e+00 -1.957581212749620e-18
 1.099999999999996e-01  0.000000000000000e+00 -1.957581212749620e-18
 1.099999999999996e-01  0.000000000000000e+00 -1.957581212749620e-18
 1.099999999999996e-01  0.000000000000000e+00 -1.957581212749620e-18
 1.099999999999996e-01  0.000000000000000e+00 -1.957581212749620e-18
 1.099999999999996e-01  0.000000000000000e+00 -1.957581212749620e-18
 1.099999999999996e-01  0.000000000000000e+00 -1.957581212749620e-18
 1.099999999999996e-01  0.000000000000000e+00 -1.957581212749620e-18
 1.099999999999996e-01  0.000000000000000e+00 -1.957581212749620e-18
 1.099999999999996e-01  0.000000000000000e+00 -1.957581212749620e-18
 1.099999999999996e-01  0.000000000000000e+00 -1.957581212749620e-18
 1.099999999999996e-01  0.000000000000000e+00 -1.957581212749620e-18
 1.099999999999996e-01  0.000000000000000e+00 -1.957581212749620e-18
 1.099999999999996e-01  0.000000000000000e+00 -1.957581212749620e-18
 1.099999999999996e-01  0.000000000000000e+00 -1.957581212749620e-18
 1.099999999999996e-01  0.000000000000000e+00 -1.957581212749620e-18
 1.099999999999996e-01  0.000000000000000e+00 -1.957581212749620e-18
 1.099999999999996e-01  0.000000000000000e+00 -1.957581212749620e-18
 1.099999999999996e-01  0.000000000000000e+00 -1.957581212749620e-18
 1.099999999999996e-01  0.000000000000000e+00 -1.957581212749620e-18
 1.099999999999996e-01  0.000000000000000e+00 -1.957581212749620e-18
 1.099999999999996e-01  0.000000000000000e+00 -1.957581212749620e-18
 1.099999999999996e-01  0.000000000000000e+00 -1.957581212749620e-18
 1.099999999999996e-01  0.000000000000000e+00 -1.957581212749620e-18
 1.099999999999996e-01  0.000000000000000e+00 -1.957581212749620e-18
 1.099999999999996e-01  0.000000000000000e+00 -1.957581212749620e-18
 1.099999999999996e-01  0.000000000000000e+00 -1.957581212749620e-18
 1.099999999999996e-01  0.000000000000000e+00 -1.957581212749620e-18
 1.099999999999996e-01  0.000000000000000e+00 -1.957581212749620e-18
 1.099999999999996e-01  0.000000000000000e+00 -1.957581212749620e-18
 1.099999999999996e-01  0.000000000000000e+00 -1.957581212749620e-18
 1.099999999999996e-01  0.000000000000000e+00 -1.957581212749620e-18
 1.099999999999996e-01  0.000000000000000e+00 -1.957581212749620e-18
 1.099999999999996e-01  0.000000000000000e+00 -1.957581212749620e-18
 1.099999999999996e-01  0.000000000000000e+00 -1.957581212749620e-18
 1.099999999999996e-01  0.000000000000000e+00 -1.957581212749620e-18
 1.099999999999996e-01  0.000000000000000e+00 -1.957581212749620e-18
 1.099999999999996e-01  0.000000000000000e+00 -1.957581212749620e-18
 1.099999999999996e-01  0.000000000000000e+00 -1.957581212749620e-18
 1.099999999999996e-01  0.000000000000000e+00 -1.957581212749620e-18
 1.099999999999996e-01  0.000000000000000e+00 -1.957581212749620e-18
 1.099999999999996e-01  0.000000000000000e+00 -1.957581212749620e-18
 1.099999999999996e-01  0.000000000000000e+00 -1.957581212749620e-18
 1.099999999999996e-01  0.000000000000000e+00 -1.957581212749620e-18
 1.099999999999996e-01  0.000000000000000e+00 -1.957581212749620e-18
 1.099999999999996e-01  0.000000000000000e+00 -1.957581212749620e-18
 1.099999999999996e-01  0.000000000000000e+00 -1.957581212749620e-18
 1.099999999999996e-01  0.000000000000000e+00 -1.957581212749620e-18
 1.099999999999996e-01  0.000000000000000e+00 -1.957581212749620e-18
 1.099999999999996e-01  0.000000000000000e+00 -1.957581212749620e-18
 1.099999999999996e-01  0.000000000000000e+00 -1.957581212749620e-18
 1.099999999999996e-01  0.000000000000000e+00 -1.957581212749620e-18
 1.099999999999996e-01  0.000000000000000e+00 -1.957581212749620e-18
 1.099999999999996e-01  0.000000000000000e+00 -1.957581212749620e-18
 1.099999999999996e-01  0.000000000000000e+00 -1.957581212749620e-18
 1.099999999999996e-01  0.000000000000000e+00 -1.957581212749620e-18
 1.099999999999996e-01  0.000000000000000e+00 -1.957581212749620e-18
 1.099999999999996e-01  0.000000000000000e+00 -1.957581212749620e-18
 1.099999999999996e-01  0.000000000000000e+00 -1.957581212749620e-18
 1.099999999999996e-01  0.000000000000000e+00 -1.957581212749620e-18
 1.099999999999996e-01  0.000000000000000e+00 -1.957581212749620e-18
 1.099999999999996e-01  0.000000000000000e+00 -1.957581212749620e-18
 1.099999999999996e-01  0.000000000000000e+00 -1.957581212749620e-18
 1.099999999999996e-01  0.000000000000000e+00 -1.957581212749620e-18
 1.099999999999996e-01  0.000000000000000e+00 -1.957581212749620e-18
 1.099999999999996e-01  0.000000000000000e+00 -1.957581212749620e-18
 1.099999999999996e-01  0.000000000000000e+00 -1.957581212749620e-18
 1.099999999999996e-01  0.000000000000000e+00 -1.957581212749620e-18
 1.099999999999996e-01  0.000000000000000e+00 -1.957581212749620e-18
 1.099999999999996e-01  0.000000000000000e+00 -1.957581212749620e-18
 1.099999999999996e-01  0.000000000000000e+00 -1.957581212749620e-18
 1.099999999999996e-01  0.000000000000000e+00 -1.957581212749620e-18
 1.099999999999996e-01  0.000000000000000e+00 -1.957581212749620e-18
 1.099999999999996e-01  0.000000000000000e+00 -1.957581212749620e-18
 1.099999999999996e-01  0.000000000000000e+00 -1.957581212749620e-18
 1.099999999999996e-01  0.000000000000000e+00 -1.957581212749620e-18
 1.099999999999996e-01  0.000000000000000e+00 -1.957581212749620e-18
 1.099999999999996e-01  0.000000000000000e+00 -1.957581212749620e-18
 1.099999999999996e-01  0.000000000000000e+00 -1.957581212749620e-18
 1.099999999999996e-01  0.000000000000000e+00 -1.957581212749620e-18
 1.099999999999996e-01  0.000000000000000e+00 -1.957581212749620e-18
 1.099999999999996e-01  0.000000000000000e+00 -1.957581212749620e-18
 1.099999999999996e-01  0.000000000000000e+00 -1.957581212749620e-18
 1.099999999999996e-01  0.000000000000000e+00 -1.957581212749620e-18
 1.099999999999996e-01  0.000000000000000e+00 -1.957581212749620e-18
 1.099999999999996e-01  0.000000000000000e+00 -1.957581212749620e-18
 1.099999999999996e-01  0.000000000000000e+00 -1.957581212749620e-18
 1.099999999999996e-01  0.000000000000000e+00 -1.957581212749620e-18
 1.099999999999996e-01  0.000000000000000e+00 -1.957581212749620e-18
 1.099999999999996e-01  0.000000000000000e+00 -1.957581212749620e-18
 1.099999999999996e-01  0.000000000000000e+00 -1.957581212749620e-18
 1.099999999999996e-01  0.000000000000000e+00 -1.957581212749620e-18
 1.099999999999996e-01  0.000000000000000e+00 -1.957581212749620e-18
 1.099999999999996e-01  0.000000000000000e+00 -1.957581212749620e-18
 1.099999999999996e-01  0.000000000000000e+00 -1.957581212749620e-18
 1.099999999999996e-01  0.000000000000000e+00 -1.957581212749620e-18
 1.099999999999996e-01  0.000000000000000e+00 -1.957581212749620e-18
 1.099999999999996e-01  0.000000000000000e+00 -1.957581212749620e-18
 1.099999999999996e-01  0.000000000000000e+00 -1.957581212749620e-18
 1.099999999999996e-01  0.000000000000000e+00 -1.957581212749620e-18
 1.099999999999996e-01  0.000000000000000e+00 -1.957581212749620e-18
 1.099999999999996e-01  0.000000000000000e+00 -1.957581212749620e-18
 1.099999999999996e-01  0.000000000000000e+00 -1.957581212749620e-18
 1.099999999999996e-01  0.000000000000000e+00 -1.957581212749620e-18
 1.099999999999996e-01  0.000000000000000e+00 -1.957581212749620e-18
 1.099999999999996e-01  0.000000000000000e+00 -1.957581212749620e-18
 1.099999999999996e-01  0.000000000000000e+00 -1.957581212749620e-18
 1.099999999999996e-01  0.000000000000000e+00 -1.957581212749620e-18
 1.099999999999996e-01  0.000000000000000e+00 -1.957581212749620e-18
 1.099999999999996e-01  0.000000000000000e+00 -1.957581212749620e-18
 1.099999999999996e-01  0.000000000000000e+00 -1.957581212749620e-18
 1.099999999999996e-01  0.000000000000000e+00 -1.957581212749620e-18
 1.099999999999996e-01  0.000000000000000e+00 -1.957581212749620e-18
 1.099999999999996e-01  0.000000000000000e+00 -1.957581212749620e-18
 1.099999999999996e-01  0.000000000000000e+00 -1.957581212749620e-18
 1.099999999999996e-01  0.000000000000000e+00 -1.957581212749620e-18
 1.099999999999996e-01  0.000000000000000e+00 -1.957581212749620e-18
 1.099999999999996e-01  0.000000000000000e+00 -1.957581212749620e-18
 1.099999999999996e-01  0.000000000000000e+00 -1.957581212749620e-18
 1.099999999999996e-01  0.000000000000000e+00 -1.957581212749620e-18
 1.099999999999996e-01  0.000000000000000e+00 -1.957581212749620e-18
 1.099999999999996e-01  0.000000000000000e+00 -1.957581212749620e-18
 1.099999999999996e-01  0.000000000000000e+00 -1.957581212749620e-18
 1.099999999999996e-01  0.000000000000000e+00 -1.957581212749620e-18
 1.099999999999996e-01  0.000000000000000e+00 -1.957581212749620e-18
 1.099999999999996e-01  0.000000000000000e+00 -1.957581212749620e-18
 1.099999999999996e-01  0.000000000000000e+00 -1.957581212749620e-18
 1.099999999999996e-01  0.000000000000000e+00 -1.957581212749620e-18
 1.099999999999996e-01  0.000000000000000e+00 -1.957581212749620e-18
 1.099999999999996e-01  0.000000000000000e+00 -1.957581212749620e-18
 1.099999999999996e-01  0.000000000000000e+00 -1.957581212749620e-18
 1.099999999999996e-01  0.000000000000000e+00 -1.957581212749620e-18
 1.099999999999996e-01  0.000000000000000e+00 -1.957581212749620e-18
 1.099999999999996e-01  0.000000000000000e+00 -1.957581212749620e-18
 1.099999999999996e-01  0.000000000000000e+00 -1.957581212749620e-18
 1.099999999999996e-01  0.000000000000000e+00 -1.957581212749620e-18
 1.099999999999996e-01  0.000000000000000e+00 -1.957581212749620e-18
 1.099999999999996e-01  0.000000000000000e+00 -1.957581212749620e-18
 1.099999999999996e-01  0.000000000000000e+00 -1.957581212749620e-18
 1.099999999999996e-01  0.000000000000000e+00 -1.957581212749620e-18
 1.099999999999996e-01  0.000000000000000e+00 -1.957581212749620e-18
 1.099999999999996e-01  0.000000000000000e+00 -1.957581212749620e-18
 1.099999999999996e-01  0.000000000000000e+00 -1.957581212749620e-18
 1.099999999999996e-01  0.000000000000000e+00 -1.957581212749620e-18
 1.099999999999996e-01  0.000000000000000e+00 -1.957581212749620e-18
 1.099999999999996e-01  0.000000000000000e+00 -1.957581212749620e-18
 1.099999999999996e-01  0.000000000000000e+00 -1.957581212749620e-18
 1.099999999999996e-01  0.000000000000000e+00 -1.957581212749620e-18
 1.099999999999996e-01  0.000000000000000e+00 -1.957581212749620e-18
 1.099999999999996e-01  0.000000000000000e+00 -1.957581212749620e-18
 1.099999999999996e-01  0.000000000000000e+00 -1.957581212749620e-18
 1.099999999999996e-01  0.000000000000000e+00 -1.957581212749620e-18
 1.099999999999996e-01  0.000000000000000e+00 -1.957581212749620e-18
 1.099999999999996e-01  0.000000000000000e+00 -1.957581212749620e-18
 1.099999999999996e-01  0.000000000000000e+00 -1.957581212749620e-18
 1.099999999999996e-01  0.000000000000000e+00 -1.957581212749620e-18
 1.099999999999996e-01  0.000000000000000e+00 -1.957581212749620e-18
 1.099999999999996e-01  0.000000000000000e+00 -1.957581212749620e-18
 1.099999999999996e-01  0.000000000000000e+00 -1.957581212749620e-18
 1.099999999999996e-01  0.000000000000000e+00 -1.957581212749620e-18
 1.099999999999996e-01  0.000000000000000e+00 -1.957581212749620e-18
 1.099999999999996e-01  0.000000000000000e+00 -1.957581212749620e-18
 1.099999999999996e-01  0.000000000000000e+00 -1.957581212749620e-18
 1.099999999999996e-01  0.000000000000000e+00 -1.957581212749620e-18
 1.099999999999996e-01  0.000000000000000e+00 -1.957581212749620e-18
 1.099999999999996e-01  0.000000000000000e+00 -1.957581212749620e-18
 1.099999999999996e-01  0.000000000000000e+00 -1.957581212749620e-18
 1.099999999999996e-01  0.000000000000000e+00 -1.957581212749620e-18
 1.099999999999996e-01  0.000000000000000e+00 -1.957581212749620e-18
 1.099999999999996e-01  0.000000000000000e+00 -1.957581212749620e-18
 1.099999999999996e-01  0.000000000000000e+00 -1.957581212749620e-18
 1.099999999999996e-01  0.000000000000000e+00 -1.957581212749620e-18
 1.099999999999996e-01  0.000000000000000e+00 -1.957581212749620e-18
 1.099999999999996e-01  0.000000000000000e+00 -1.957581212749620e-18
 1.099999999999996e-01  0.000000000000000e+00 -1.957581212749620e-18
 1.099999999999996e-01  0.000000000000000e+00 -1.957581212749620e-18
 1.099999999999996e-01  0.000000000000000e+00 -1.957581212749620e-18
 1.099999999999996e-01  0.000000000000000e+00 -1.957581212749620e-18
 1.099999999999996e-01  0.000000000000000e+00 -1.957581212749620e-18
 1.099999999999996e-01  0.000000000000000e+00 -1.957581212749620e-18
 1.099999999999996e-01  0.000000000000000e+00 -1.957581212749620e-18
 1.099999999999996e-01  0.000000000000000e+00 -1.957581212749620e-18
 1.099999999999996e-01  0.000000000000000e+00 -1.957581212749620e-18
 1.099999999999996e-01  0.000000000000000e+00 -1.957581212749620e-18
 1.099999999999996e-01  0.000000000000000e+00 -1.957581212749620e-18
 1.099999999999996e-01  0.000000000000000e+00 -1.957581212749620e-18
 1.099999999999996e-01  0.000000000000000e+00 -1.957581212749620e-18
 1.099999999999996e-01  0.000000000000000e+00 -1.957581212749620e-18
 1.099999999999996e-01  0.000000000000000e+00 -1.957581212749620e-18
 1.099999999999996e-01  0.000000000000000e+00 -1.957581212749620e-18
 1.099999999999996e-01  0.000000000000000e+00 -1.957581212749620e-18
 1.099999999999996e-01  0.000000000000000e+00 -1.957581212749620e-18
 1.099999999999996e-01  0.000000000000000e+00 -1.957581212749620e-18
 1.099999999999996e-01  0.000000000000000e+00 -1.957581212749620e-18
 1.099999999999996e-01  0.000000000000000e+00 -1.957581212749620e-18
 1.099999999999996e-01  0.000000000000000e+00 -1.957581212749620e-18
 1.099999999999996e-01  0.000000000000000e+00 -1.957581212749620e-18
 1.099999999999996e-01  0.000000000000000e+00 -1.957581212749620e-18
 1.099999999999996e-01  0.000000000000000e+00 -1.957581212749620e-18
 1.099999999999996e-01  0.000000000000000e+00 -1.957581212749620e-18
 1.099999999999996e-01  0.000000000000000e+00 -1.957581212749620e-18
 1.099999999999996e-01  0.000000000000000e+00 -1.957581212749620e-18
 1.099999999999996e-01  0.000000000000000e+00 -1.957581212749620e-18
 1.099999999999996e-01  0.000000000000000e+00 -1.957581212749620e-18
 1.099999999999996e-01  0.000000000000000e+00 -1.957581212749620e-18
 1.099999999999996e-01  0.000000000000000e+00 -1.957581212749620e-18
 1.099999999999996e-01  0.000000000000000e+00 -1.957581212749620e-18
 1.099999999999996e-01  0.000000000000000e+00 -1.957581212749620e-18
 1.099999999999996e-01  0.000000000000000e+00 -1.957581212749620e-18
 1.099999999999996e-01  0.000000000000000e+00 -1.957581212749620e-18
 1.099999999999996e-01  0.000000000000000e+00 -1.957581212749620e-18
 1.099999999999996e-01  0.000000000000000e+00 -1.957581212749620e-18
 1.099999999999996e-01  0.000000000000000e+00 -1.957581212749620e-18
 1.099999999999996e-01  0.000000000000000e+00 -1.957581212749620e-18
 1.099999999999996e-01  0.000000000000000e+00 -1.957581212749620e-18
 1.099999999999996e-01  0.000000000000000e+00 -1.957581212749620e-18
 1.099999999999996e-01  0.000000000000000e+00 -1.957581212749620e-18
 1.099999999999996e-01  0.000000000000000e+00 -1.957581212749620e-18
 1.099999999999996e-01  0.000000000000000e+00 -1.957581212749620e-18
 1.099999999999996e-01  0.000000000000000e+00 -1.957581212749620e-18
 1.099999999999996e-01  0.000000000000000e+00 -1.957581212749620e-18
 1.099999999999996e-01  0.000000000000000e+00 -1.957581212749620e-18
 1.099999999999996e-01  0.000000000000000e+00 -1.957581212749620e-18
 1.099999999999996e-01  0.000000000000000e+00 -1.957581212749620e-18
 1.099999999999996e-01  0.000000000000000e+00 -1.957581212749620e-18
 1.099999999999996e-01  0.000000000000000e+00 -1.957581212749620e-18
 1.099999999999996e-01  0.000000000000000e+00 -1.957581212749620e-18
 1.099999999999996e-01  0.000000000000000e+00 -1.957581212749620e-18
 1.099999999999996e-01  0.000000000000000e+00 -1.957581212749620e-18
 1.099999999999996e-01  0.000000000000000e+00 -1.957581212749620e-18
 1.099999999999996e-01  0.000000000000000e+00 -1.957581212749620e-18
 1.099999999999996e-01  0.000000000000000e+00 -1.957581212749620e-18
 1.099999999999996e-01  0.000000000000000e+00 -1.957581212749620e-18
 1.099999999999996e-01  0.000000000000000e+00 -1.957581212749620e-18
 1.099999999999996e-01  0.000000000000000e+00 -1.957581212749620e-18
 1.099999999999996e-01  0.000000000000000e+00 -1.957581212749620e-18
 1.099999999999996e-01  0.000000000000000e+00 -1.957581212749620e-18
 1.099999999999996e-01  0.000000000000000e+00 -1.957581212749620e-18
 1.099999999999996e-01  0.000000000000000e+00 -1.957581212749620e-18
 1.099999999999996e-01  0.000000000000000e+00 -1.957581212749620e-18
 1.099999999999996e-01  0.000000000000000e+00 -1.957581212749620e-18
 1.099999999999996e-01  0.000000000000000e+00 -1.957581212749620e-18
 1.099999999999996e-01  0.000000000000000e+00 -1.957581212749620e-18
 1.099999999999996e-01  0.000000000000000e+00 -1.957581212749620e-18
 1.099999999999996e-01  0.000000000000000e+00 -1.957581212749620e-18
 1.099999999999996e-01  0.000000000000000e+00 -1.957581212749620e-18
 1.099999999999996e-01  0.000000000000000e+00 -1.957581212749620e-18
 1.099999999999996e-01  0.000000000000000e+00 -1.957581212749620e-18
 1.099999999999996e-01  0.000000000000000e+00 -1.957581212749620e-18
 1.099999999999996e-01  0.000000000000000e+00 -1.957581212749620e-18
 1.099999999999996e-01  0.000000000000000e+00 -1.957581212749620e-18
 1.099999999999996e-01  0.000000000000000e+00 -1.957581212749620e-18
 1.099999999999996e-01  0.000000000000000e+00 -1.957581212749620e-18
 1.099999999999996e-01  0.000000000000000e+00 -1.957581212749620e-18
 1.099999999999996e-01  0.000000000000000e+00 -1.957581212749620e-18
 1.099999999999996e-01  0.000000000000000e+00 -1.957581212749620e-18
 1.099999999999996e-01  0.000000000000000e+00 -1.957581212749620e-18
 1.099999999999996e-01  0.000000000000000e+00 -1.957581212749620e-18
 1.099999999999996e-01  0.000000000000000e+00 -1.957581212749620e-18
 1.099999999999996e-01  0.000000000000000e+00 -1.957581212749620e-18
 1.099999999999996e-01  0.000000000000000e+00 -1.957581212749620e-18
 1.099999999999996e-01  0.000000000000000e+00 -1.957581212749620e-18
 1.099999999999996e-01  0.000000000000000e+00 -1.957581212749620e-18
 1.099999999999996e-01  0.000000000000000e+00 -1.957581212749620e-18
 1.099999999999996e-01  0.000000000000000e+00 -1.957581212749620e-18
 1.099999999999996e-01  0.000000000000000e+00 -1.957581212749620e-18
 1.099999999999996e-01  0.000000000000000e+00 -1.957581212749620e-18
 1.099999999999996e-01  0.000000000000000e+00 -1.957581212749620e-18
 1.099999999999996e-01  0.000000000000000e+00 -1.957581212749620e-18
 1.099999999999996e-01  0.000000000000000e+00 -1.957581212749620e-18
 1.099999999999996e-01  0.000000000000000e+00 -1.957581212749620e-18
 1.099999999999996e-01  0.000000000000000e+00 -1.957581212749620e-18
 1.099999999999996e-01  0.000000000000000e+00 -1.957581212749620e-18
 1.099999999999996e-01  0.000000000000000e+00 -1.957581212749620e-18
 1.099999999999996e-01  0.000000000000000e+00 -1.957581212749620e-18
 1.099999999999996e-01  0.000000000000000e+00 -1.957581212749620e-18
 1.099999999999996e-01  0.000000000000000e+00 -1.957581212749620e-18
 1.099999999999996e-01  0.000000000000000e+00 -1.957581212749620e-18
 1.099999999999996e-01  0.000000000000000e+00 -1.957581212749620e-18
 1.099999999999996e-01  0.000000000000000e+00 -1.957581212749620e-18
 1.099999999999996e-01  0.000000000000000e+00 -1.957581212749620e-18
 1.099999999999996e-01  0.000000000000000e+00 -1.957581212749620e-18
 1.099999999999996e-01  0.000000000000000e+00 -1.957581212749620e-18
 1.099999999999996e-01  0.000000000000000e+00 -1.957581212749620e-18
 1.099999999999996e-01  0.000000000000000e+00 -1.957581212749620e-18
 1.099999999999996e-01  0.000000000000000e+00 -1.957581212749620e-18
 1.099999999999996e-01  0.000000000000000e+00 -1.957581212749620e-18
 1.099999999999996e-01  0.000000000000000e+00 -1.957581212749620e-18
 1.099999999999996e-01  0.000000000000000e+00 -1.957581212749620e-18
 1.099999999999996e-01  0.000000000000000e+00 -1.957581212749620e-18
 1.099999999999996e-01  0.000000000000000e+00 -1.957581212749620e-18
 1.099999999999996e-01  0.000000000000000e+00 -1.957581212749620e-18
 1.099999999999996e-01  0.000000000000000e+00 -1.957581212749620e-18
 1.099999999999996e-01  0.000000000000000e+00 -1.957581212749620e-18
 1.099999999999996e-01  0.000000000000000e+00 -1.957581212749620e-18
 1.099999999999996e-01  0.000000000000000e+00 -1.957581212749620e-18
 1.099999999999996e-01  0.000000000000000e+00 -1.957581212749620e-18
 1.099999999999996e-01  0.000000000000000e+00 -1.957581212749620e-18
 1.099999999999996e-01  0.000000000000000e+00 -1.957581212749620e-18
 1.099999999999996e-01  0.000000000000000e+00 -1.957581212749620e-18
 1.099999999999996e-01  0.000000000000000e+00 -1.957581212749620e-18
 1.099999999999996e-01  0.000000000000000e+00 -1.957581212749620e-18
 1.099999999999996e-01  0.000000000000000e+00 -1.957581212749620e-18
 1.099999999999996e-01  0.000000000000000e+00 -1.957581212749620e-18
 1.099999999999996e-01  0.000000000000000e+00 -1.957581212749620e-18
 1.099999999999996e-01  0.000000000000000e+00 -1.957581212749620e-18
 1.099999999999996e-01  0.000000000000000e+00 -1.957581212749620e-18
 1.099999999999996e-01  0.000000000000000e+00 -1.957581212749620e-18
 1.099999999999996e-01  0.000000000000000e+00 -1.957581212749620e-18
 1.099999999999996e-01  0.000000000000000e+00 -1.957581212749620e-18
 1.099999999999996e-01  0.000000000000000e+00 -1.957581212749620e-18
 1.099999999999996e-01  0.000000000000000e+00 -1.957581212749620e-18
 1.099999999999996e-01  0.000000000000000e+00 -1.957581212749620e-18
 1.099999999999996e-01  0.000000000000000e+00 -1.957581212749620e-18
 1.099999999999996e-01  0.000000000000000e+00 -1.957581212749620e-18
 1.099999999999996e-01  0.000000000000000e+00 -1.957581212749620e-18
 1.099999999999996e-01  0.000000000000000e+00 -1.957581212749620e-18
 1.099999999999996e-01  0.000000000000000e+00 -1.957581212749620e-18
 1.099999999999996e-01  0.000000000000000e+00 -1.957581212749620e-18
 1.099999999999996e-01  0.000000000000000e+00 -1.957581212749620e-18
 1.099999999999996e-01  0.000000000000000e+00 -1.957581212749620e-18
 1.099999999999996e-01  0.000000000000000e+00 -1.957581212749620e-18
 1.099999999999996e-01  0.000000000000000e+00 -1.957581212749620e-18
 1.099999999999996e-01  0.000000000000000e+00 -1.957581212749620e-18
 1.099999999999996e-01  0.000000000000000e+00 -1.957581212749620e-18
 1.099999999999996e-01  0.000000000000000e+00 -1.957581212749620e-18
 1.099999999999996e-01  0.000000000000000e+00 -1.957581212749620e-18
 1.099999999999996e-01  0.000000000000000e+00 -1.957581212749620e-18
 1.099999999999996e-01  0.000000000000000e+00 -1.957581212749620e-18
 1.099999999999996e-01  0.000000000000000e+00 -1.957581212749620e-18
 1.099999999999996e-01  0.000000000000000e+00 -1.957581212749620e-18
 1.099999999999996e-01  0.000000000000000e+00 -1.957581212749620e-18
 1.099999999999996e-01  0.000000000000000e+00 -1.957581212749620e-18
 1.099999999999998e-01  0.000000000000000e+00 -1.957581212749623e-18
 1.099999999999998e-01  0.000000000000000e+00 -1.957581212749623e-18
 1.099999999999998e-01  0.000000000000000e+00 -1.957581212749623e-18
 1.099999999999998e-01  0.000000000000000e+00 -1.957581212749623e-18
 1.099999999999998e-01  0.000000000000000e+00 -1.957581212749623e-18
 1.099999999999998e-01  0.000000000000000e+00 -1.957581212749623e-18
 1.099999999999998e-01  0.000000000000000e+00 -1.957581212749623e-18
 1.099999999999998e-01  0.000000000000000e+00 -1.957581212749623e-18
 1.099999999999998e-01  0.000000000000000e+00 -1.957581212749623e-18
 1.099999999999998e-01  0.000000000000000e+00 -1.957581212749623e-18
 1.099999999999998e-01  0.000000000000000e+00 -1.957581212749623e-18
 1.099999999999998e-01  0.000000000000000e+00 -1.957581212749623e-18
 1.099999999999998e-01  0.000000000000000e+00 -1.957581212749623e-18
 1.099999999999998e-01  0.000000000000000e+00 -1.957581212749623e-18
 1.099999999999998e-01  0.000000000000000e+00 -1.957581212749623e-18
 1.099999999999998e-01  0.000000000000000e+00 -1.957581212749623e-18
 1.099999999999998e-01  0.000000000000000e+00 -1.957581212749623e-18
 1.099999999999998e-01  0.000000000000000e+00 -1.957581212749623e-18
 1.099999999999998e-01  0.000000000000000e+00 -1.957581212749623e-18
 1.099999999999998e-01  0.000000000000000e+00 -1.957581212749623e-18
 1.099999999999998e-01  0.000000000000000e+00 -1.957581212749623e-18
 1.099999999999998e-01  0.000000000000000e+00 -1.957581212749623e-18
 1.099999999999998e-01  0.000000000000000e+00 -1.957581212749623e-18
 1.099999999999998e-01  0.000000000000000e+00 -1.957581212749623e-18
 1.099999999999998e-01  0.000000000000000e+00 -1.957581212749623e-18
 1.099999999999998e-01  0.000000000000000e+00 -1.957581212749623e-18
 1.099999999999998e-01  0.000000000000000e+00 -1.957581212749623e-18
 1.099999999999998e-01  0.000000000000000e+00 -1.957581212749623e-18
 1.099999999999998e-01  0.000000000000000e+00 -1.957581212749623e-18
 1.099999999999998e-01  0.000000000000000e+00 -1.957581212749623e-18
 1.099999999999998e-01  0.000000000000000e+00 -1.957581212749623e-18
 1.099999999999998e-01  0.000000000000000e+00 -1.957581212749623e-18
 1.099999999999998e-01  0.000000000000000e+00 -1.957581212749623e-18
 1.099999999999998e-01  0.000000000000000e+00 -1.957581212749623e-18
 1.099999999999998e-01  0.000000000000000e+00 -1.957581212749623e-18
 1.099999999999998e-01  0.000000000000000e+00 -1.957581212749623e-18
 1.099999999999998e-01  0.000000000000000e+00 -1.957581212749623e-18
 1.099999999999998e-01  0.000000000000000e+00 -1.957581212749623e-18
 1.099999999999998e-01  0.000000000000000e+00 -1.957581212749623e-18
 1.099999999999998e-01  0.000000000000000e+00 -1.957581212749623e-18
 1.099999999999998e-01  0.000000000000000e+00 -1.957581212749623e-18
 1.099999999999998e-01  0.000000000000000e+00 -1.957581212749623e-18
 1.099999999999998e-01  0.000000000000000e+00 -1.957581212749623e-18
 1.099999999999998e-01  0.000000000000000e+00 -1.957581212749623e-18
 1.099999999999998e-01  0.000000000000000e+00 -1.957581212749623e-18
 1.099999999999998e-01  0.000000000000000e+00 -1.957581212749623e-18
 1.099999999999998e-01  0.000000000000000e+00 -1.957581212749623e-18
 1.099999999999998e-01  0.000000000000000e+00 -1.957581212749623e-18
 1.099999999999998e-01  0.000000000000000e+00 -1.957581212749623e-18
 1.099999999999998e-01  0.000000000000000e+00 -1.957581212749623e-18
 1.099999999999998e-01  0.000000000000000e+00 -1.957581212749623e-18
 1.099999999999998e-01  0.000000000000000e+00 -1.957581212749623e-18
 1.099999999999998e-01  0.000000000000000e+00 -1.957581212749623e-18
 1.099999999999998e-01  0.000000000000000e+00 -1.957581212749623e-18
 1.099999999999998e-01  0.000000000000000e+00 -1.957581212749623e-18
 1.099999999999998e-01  0.000000000000000e+00 -1.957581212749623e-18
 1.099999999999998e-01  0.000000000000000e+00 -1.957581212749623e-18
 1.099999999999998e-01  0.000000000000000e+00 -1.957581212749623e-18
 1.099999999999998e-01  0.000000000000000e+00 -1.957581212749623e-18
 1.099999999999998e-01  0.000000000000000e+00 -1.957581212749623e-18
 1.099999999999998e-01  0.000000000000000e+00 -1.957581212749623e-18
 1.099999999999998e-01  0.000000000000000e+00 -1.957581212749623e-18
 1.099999999999998e-01  0.000000000000000e+00 -1.957581212749623e-18
 1.099999999999998e-01  0.000000000000000e+00 -1.957581212749623e-18
 1.099999999999998e-01  0.000000000000000e+00 -1.957581212749623e-18
 1.099999999999998e-01  0.000000000000000e+00 -1.957581212749623e-18
 1.099999999999998e-01  0.000000000000000e+00 -1.957581212749623e-18
 1.099999999999998e-01  0.000000000000000e+00 -1.957581212749623e-18
 1.099999999999998e-01  0.000000000000000e+00 -1.957581212749623e-18
 1.099999999999998e-01  0.000000000000000e+00 -1.957581212749623e-18
 1.099999999999998e-01  0.000000000000000e+00 -1.957581212749623e-18
 1.099999999999998e-01  0.000000000000000e+00 -1.957581212749623e-18
 1.099999999999998e-01  0.000000000000000e+00 -1.957581212749623e-18
 1.099999999999998e-01  0.000000000000000e+00 -1.957581212749623e-18
 1.099999999999998e-01  0.000000000000000e+00 -1.957581212749623e-18
 1.099999999999998e-01  0.000000000000000e+00 -1.957581212749623e-18
 1.099999999999998e-01  0.000000000000000e+00 -1.957581212749623e-18
 1.099999999999998e-01  0.000000000000000e+00 -1.957581212749623e-18
 1.099999999999998e-01  0.000000000000000e+00 -1.957581212749623e-18
 1.099999999999998e-01  0.000000000000000e+00 -1.957581212749623e-18
 1.099999999999998e-01  0.000000000000000e+00 -1.957581212749623e-18
 1.099999999999998e-01  0.000000000000000e+00 -1.957581212749623e-18
 1.099999999999998e-01  0.000000000000000e+00 -1.957581212749623e-18
 1.099999999999998e-01  0.000000000000000e+00 -1.957581212749623e-18
 1.099999999999998e-01  0.000000000000000e+00 -1.957581212749623e-18
 1.099999999999998e-01  0.000000000000000e+00 -1.957581212749623e-18
 1.099999999999998e-01  0.000000000000000e+00 -1.957581212749623e-18
 1.099999999999998e-01  0.000000000000000e+00 -1.957581212749623e-18
 1.099999999999998e-01  0.000000000000000e+00 -1.957581212749623e-18
 1.099999999999998e-01  0.000000000000000e+00 -1.957581212749623e-18
 1.099999999999998e-01  0.000000000000000e+00 -1.957581212749623e-18
 1.099999999999998e-01  0.000000000000000e+00 -1.957581212749623e-18
 1.099999999999998e-01  0.000000000000000e+00 -1.957581212749623e-18
 1.099999999999998e-01  0.000000000000000e+00 -1.957581212749623e-18
 1.099999999999998e-01  0.000000000000000e+00 -1.957581212749623e-18
 1.099999999999998e-01  0.000000000000000e+00 -1.957581212749623e-18
 1.099999999999998e-01  0.000000000000000e+00 -1.957581212749623e-18
 1.099999999999998e-01  0.000000000000000e+00 -1.957581212749623e-18
 1.099999999999998e-01  0.000000000000000e+00 -1.957581212749623e-18
 1.099999999999998e-01  0.000000000000000e+00 -1.957581212749623e-18
 1.099999999999998e-01  0.000000000000000e+00 -1.957581212749623e-18
 1.099999999999998e-01  0.000000000000000e+00 -1.957581212749623e-18
 1.099999999999998e-01  0.000000000000000e+00 -1.957581212749623e-18
 1.099999999999998e-01  0.000000000000000e+00 -1.957581212749623e-18
 1.099999999999998e-01  0.000000000000000e+00 -1.957581212749623e-18
 1.099999999999998e-01  0.000000000000000e+00 -1.957581212749623e-18
 1.099999999999998e-01  0.000000000000000e+00 -1.957581212749623e-18
 1.099999999999998e-01  0.000000000000000e+00 -1.957581212749623e-18
 1.099999999999998e-01  0.000000000000000e+00 -1.957581212749623e-18
 1.099999999999998e-01  0.000000000000000e+00 -1.957581212749623e-18
 1.099999999999998e-01  0.000000000000000e+00 -1.957581212749623e-18
 1.099999999999998e-01  0.000000000000000e+00 -1.957581212749623e-18
 1.099999999999998e-01  0.000000000000000e+00 -1.957581212749623e-18
 1.099999999999998e-01  0.000000000000000e+00 -1.957581212749623e-18
 1.099999999999998e-01  0.000000000000000e+00 -1.957581212749623e-18
 1.099999999999998e-01  0.000000000000000e+00 -1.957581212749623e-18
 1.099999999999998e-01  0.000000000000000e+00 -1.957581212749623e-18
 1.099999999999998e-01  0.000000000000000e+00 -1.957581212749623e-18
 1.099999999999998e-01  0.000000000000000e+00 -1.957581212749623e-18
 1.099999999999998e-01  0.000000000000000e+00 -1.957581212749623e-18
 1.099999999999998e-01  0.000000000000000e+00 -1.957581212749623e-18
 1.099999999999998e-01  0.000000000000000e+00 -1.957581212749623e-18
 1.099999999999998e-01  0.000000000000000e+00 -1.957581212749623e-18
 1.099999999999998e-01  0.000000000000000e+00 -1.957581212749623e-18
 1.099999999999998e-01  0.000000000000000e+00 -1.957581212749623e-18
 1.099999999999998e-01  0.000000000000000e+00 -1.957581212749623e-18
 1.099999999999998e-01  0.000000000000000e+00 -1.957581212749623e-18
 1.099999999999998e-01  0.000000000000000e+00 -1.957581212749623e-18
 1.099999999999998e-01  0.000000000000000e+00 -1.957581212749623e-18
 1.099999999999998e-01  0.000000000000000e+00 -1.957581212749623e-18
 1.099999999999998e-01  0.000000000000000e+00 -1.957581212749623e-18
 1.099999999999998e-01  0.000000000000000e+00 -1.957581212749623e-18
 1.099999999999998e-01  0.000000000000000e+00 -1.957581212749623e-18
 1.099999999999998e-01  0.000000000000000e+00 -1.957581212749623e-18
 1.099999999999998e-01  0.000000000000000e+00 -1.957581212749623e-18
 1.099999999999998e-01  0.000000000000000e+00 -1.957581212749623e-18
 1.099999999999998e-01  0.000000000000000e+00 -1.957581212749623e-18
 1.099999999999998e-01  0.000000000000000e+00 -1.957581212749623e-18
 1.099999999999998e-01  0.000000000000000e+00 -1.957581212749623e-18
 1.099999999999998e-01  0.000000000000000e+00 -1.957581212749623e-18
 1.099999999999998e-01  0.000000000000000e+00 -1.957581212749623e-18
 1.099999999999998e-01  0.000000000000000e+00 -1.957581212749623e-18
 1.099999999999998e-01  0.000000000000000e+00 -1.957581212749623e-18
 1.099999999999998e-01  0.000000000000000e+00 -1.957581212749623e-18
 1.099999999999998e-01  0.000000000000000e+00 -1.957581212749623e-18
 1.099999999999998e-01  0.000000000000000e+00 -1.957581212749623e-18
 1.099999999999998e-01  0.000000000000000e+00 -1.957581212749623e-18
 1.099999999999998e-01  0.000000000000000e+00 -1.957581212749623e-18
 1.099999999999998e-01  0.000000000000000e+00 -1.957581212749623e-18
 1.099999999999998e-01  0.000000000000000e+00 -1.957581212749623e-18
 1.099999999999998e-01  0.000000000000000e+00 -1.957581212749623e-18
 1.099999999999998e-01  0.000000000000000e+00 -1.957581212749623e-18
 1.099999999999998e-01  0.000000000000000e+00 -1.957581212749623e-18
 1.099999999999998e-01  0.000000000000000e+00 -1.957581212749623e-18
 1.099999999999998e-01  0.000000000000000e+00 -1.957581212749623e-18
 1.099999999999998e-01  0.000000000000000e+00 -1.957581212749623e-18
 1.099999999999998e-01  0.000000000000000e+00 -1.957581212749623e-18
 1.099999999999998e-01  0.000000000000000e+00 -1.957581212749623e-18
 1.099999999999998e-01  0.000000000000000e+00 -1.957581212749623e-18
 1.099999999999998e-01  0.000000000000000e+00 -1.957581212749623e-18
 1.099999999999998e-01  0.000000000000000e+00 -1.957581212749623e-18
 1.099999999999998e-01  0.000000000000000e+00 -1.957581212749623e-18
 1.099999999999998e-01  0.000000000000000e+00 -1.957581212749623e-18
 1.099999999999998e-01  0.000000000000000e+00 -1.957581212749623e-18
 1.099999999999998e-01  0.000000000000000e+00 -1.957581212749623e-18
 1.099999999999998e-01  0.000000000000000e+00 -1.957581212749623e-18
 1.099999999999998e-01  0.000000000000000e+00 -1.957581212749623e-18
 1.099999999999998e-01  0.000000000000000e+00 -1.957581212749623e-18
 1.099999999999998e-01  0.000000000000000e+00 -1.957581212749623e-18
 1.099999999999998e-01  0.000000000000000e+00 -1.957581212749623e-18
 1.099999999999998e-01  0.000000000000000e+00 -1.957581212749623e-18
 1.099999999999998e-01  0.000000000000000e+00 -1.957581212749623e-18
 1.099999999999998e-01  0.000000000000000e+00 -1.957581212749623e-18
 1.099999999999998e-01  0.000000000000000e+00 -1.957581212749623e-18
 1.099999999999998e-01  0.000000000000000e+00 -1.957581212749623e-18
 1.099999999999998e-01  0.000000000000000e+00 -1.957581212749623e-18
 1.099999999999998e-01  0.000000000000000e+00 -1.957581212749623e-18
 1.099999999999998e-01  0.000000000000000e+00 -1.957581212749623e-18
 1.099999999999998e-01  0.000000000000000e+00 -1.957581212749623e-18
 1.099999999999998e-01  0.000000000000000e+00 -1.957581212749623e-18
 1.099999999999998e-01  0.000000000000000e+00 -1.957581212749623e-18
 1.099999999999998e-01  0.000000000000000e+00 -1.957581212749623e-18
 1.099999999999998e-01  0.000000000000000e+00 -1.957581212749623e-18
 1.099999999999998e-01  0.000000000000000e+00 -1.957581212749623e-18
 1.099999999999998e-01  0.000000000000000e+00 -1.957581212749623e-18
 1.099999999999998e-01  0.000000000000000e+00 -1.957581212749623e-18
 1.099999999999998e-01  0.000000000000000e+00 -1.957581212749623e-18
 1.099999999999998e-01  0.000000000000000e+00 -1.957581212749623e-18
 1.099999999999998e-01  0.000000000000000e+00 -1.957581212749623e-18
 1.099999999999998e-01  0.000000000000000e+00 -1.957581212749623e-18
 1.099999999999998e-01  0.000000000000000e+00 -1.957581212749623e-18
 1.099999999999998e-01  0.000000000000000e+00 -1.957581212749623e-18
 1.099999999999998e-01  0.000000000000000e+00 -1.957581212749623e-18
 1.099999999999998e-01  0.000000000000000e+00 -1.957581212749623e-18
 1.099999999999998e-01  0.000000000000000e+00 -1.957581212749623e-18
 1.099999999999998e-01  0.000000000000000e+00 -1.957581212749623e-18
 1.099999999999998e-01  0.000000000000000e+00 -1.957581212749623e-18
 1.099999999999998e-01  0.000000000000000e+00 -1.957581212749623e-18
 1.099999999999998e-01  0.000000000000000e+00 -1.957581212749623e-18
 1.099999999999998e-01  0.000000000000000e+00 -1.957581212749623e-18
 1.099999999999998e-01  0.000000000000000e+00 -1.957581212749623e-18
 1.099999999999998e-01  0.000000000000000e+00 -1.957581212749623e-18
 1.099999999999998e-01  0.000000000000000e+00 -1.957581212749623e-18
 1.099999999999998e-01  0.000000000000000e+00 -1.957581212749623e-18
 1.099999999999998e-01  0.000000000000000e+00 -1.957581212749623e-18
 1.099999999999998e-01  0.000000000000000e+00 -1.957581212749623e-18
 1.099999999999998e-01  0.000000000000000e+00 -1.957581212749623e-18
 1.099999999999998e-01  0.000000000000000e+00 -1.957581212749623e-18
 1.099999999999998e-01  0.000000000000000e+00 -1.957581212749623e-18
 1.099999999999998e-01  0.000000000000000e+00 -1.957581212749623e-18
 1.099999999999998e-01  0.000000000000000e+00 -1.957581212749623e-18
 1.099999999999998e-01  0.000000000000000e+00 -1.957581212749623e-18
 1.099999999999998e-01  0.000000000000000e+00 -1.957581212749623e-18
 1.099999999999998e-01  0.000000000000000e+00 -1.957581212749623e-18
 1.099999999999998e-01  0.000000000000000e+00 -1.957581212749623e-18
 1.099999999999998e-01  0.000000000000000e+00 -1.957581212749623e-18
 1.099999999999998e-01  0.000000000000000e+00 -1.957581212749623e-18
 1.099999999999998e-01  0.000000000000000e+00 -1.957581212749623e-18
 1.099999999999998e-01  0.000000000000000e+00 -1.957581212749623e-18
 1.099999999999998e-01  0.000000000000000e+00 -1.957581212749623e-18
 1.099999999999998e-01  0.000000000000000e+00 -1.957581212749623e-18
 1.099999999999998e-01  0.000000000000000e+00 -1.957581212749623e-18
 1.099999999999998e-01  0.000000000000000e+00 -1.957581212749623e-18
 1.099999999999998e-01  0.000000000000000e+00 -1.957581212749623e-18
 1.099999999999998e-01  0.000000000000000e+00 -1.957581212749623e-18
 1.099999999999998e-01  0.000000000000000e+00 -1.957581212749623e-18
 1.099999999999998e-01  0.000000000000000e+00 -1.957581212749623e-18
 1.099999999999998e-01  0.000000000000000e+00 -1.957581212749623e-18
 1.099999999999998e-01  0.000000000000000e+00 -1.957581212749623e-18
 1.099999999999998e-01  0.000000000000000e+00 -1.957581212749623e-18
 1.099999999999998e-01  0.000000000000000e+00 -1.957581212749623e-18
 1.099999999999998e-01  0.000000000000000e+00 -1.957581212749623e-18
 1.099999999999998e-01  0.000000000000000e+00 -1.957581212749623e-18
 1.099999999999998e-01  0.000000000000000e+00 -1.957581212749623e-18
 1.099999999999998e-01  0.000000000000000e+00 -1.957581212749623e-18
 1.099999999999998e-01  0.000000000000000e+00 -1.957581212749623e-18
 1.099999999999998e-01  0.000000000000000e+00 -1.957581212749623e-18
 1.099999999999998e-01  0.000000000000000e+00 -1.957581212749623e-18
 1.099999999999998e-01  0.000000000000000e+00 -1.957581212749623e-18
 1.099999999999998e-01  0.000000000000000e+00 -1.957581212749623e-18
 1.099999999999998e-01  0.000000000000000e+00 -1.957581212749623e-18
 1.099999999999998e-01  0.000000000000000e+00 -1.957581212749623e-18
 1.099999999999998e-01  0.000000000000000e+00 -1.957581212749623e-18
 1.099999999999998e-01  0.000000000000000e+00 -1.957581212749623e-18
 1.099999999999998e-01  0.000000000000000e+00 -1.957581212749623e-18
 1.099999999999998e-01  0.000000000000000e+00 -1.957581212749623e-18
 1.099999999999998e-01  0.000000000000000e+00 -1.957581212749623e-18
 1.099999999999998e-01  0.000000000000000e+00 -1.957581212749623e-18
 1.099999999999998e-01  0.000000000000000e+00 -1.957581212749623e-18
 1.099999999999998e-01  0.000000000000000e+00 -1.957581212749623e-18
 1.099999999999998e-01  0.000000000000000e+00 -1.957581212749623e-18
 1.099999999999998e-01  0.000000000000000e+00 -1.957581212749623e-18
 1.099999999999998e-01  0.000000000000000e+00 -1.957581212749623e-18
 1.099999999999998e-01  0.000000000000000e+00 -1.957581212749623e-18
 1.099999999999998e-01  0.000000000000000e+00 -1.957581212749623e-18
 1.099999999999998e-01  0.000000000000000e+00 -1.957581212749623e-18
 1.099999999999998e-01  0.000000000000000e+00 -1.957581212749623e-18
 1.099999999999998e-01  0.000000000000000e+00 -1.957581212749623e-18
 1.099999999999998e-01  0.000000000000000e+00 -1.957581212749623e-18
 1.099999999999998e-01  0.000000000000000e+00 -1.957581212749623e-18
 1.099999999999998e-01  0.000000000000000e+00 -1.957581212749623e-18
 1.099999999999998e-01  0.000000000000000e+00 -1.957581212749623e-18
 1.099999999999998e-01  0.000000000000000e+00 -1.957581212749623e-18
 1.099999999999998e-01  0.000000000000000e+00 -1.957581212749623e-18
 1.099999999999998e-01  0.000000000000000e+00 -1.957581212749623e-18
 1.099999999999998e-01  0.000000000000000e+00 -1.957581212749623e-18
 1.099999999999998e-01  0.000000000000000e+00 -1.957581212749623e-18
 1.099999999999998e-01  0.000000000000000e+00 -1.957581212749623e-18
 1.099999999999998e-01  0.000000000000000e+00 -1.957581212749623e-18
 1.099999999999998e-01  0.000000000000000e+00 -1.957581212749623e-18
 1.099999999999998e-01  0.000000000000000e+00 -1.957581212749623e-18
 1.099999999999998e-01  0.000000000000000e+00 -1.957581212749623e-18
 1.099999999999998e-01  0.000000000000000e+00 -1.957581212749623e-18
 1.099999999999998e-01  0.000000000000000e+00 -1.957581212749623e-18
 1.099999999999998e-01  0.000000000000000e+00 -1.957581212749623e-18
 1.099999999999998e-01  0.000000000000000e+00 -1.957581212749623e-18
 1.099999999999998e-01  0.000000000000000e+00 -1.957581212749623e-18
 1.099999999999998e-01  0.000000000000000e+00 -1.957581212749623e-18
 1.099999999999998e-01  0.000000000000000e+00 -1.957581212749623e-18
 1.099999999999998e-01  0.000000000000000e+00 -1.957581212749623e-18
 1.099999999999998e-01  0.000000000000000e+00 -1.957581212749623e-18
 1.099999999999998e-01  0.000000000000000e+00 -1.957581212749623e-18
 1.099999999999998e-01  0.000000000000000e+00 -1.957581212749623e-18
 1.099999999999998e-01  0.000000000000000e+00 -1.957581212749623e-18
 1.099999999999998e-01  0.000000000000000e+00 -1.957581212749623e-18
 1.099999999999998e-01  0.000000000000000e+00 -1.957581212749623e-18
 1.099999999999998e-01  0.000000000000000e+00 -1.957581212749623e-18
 1.099999999999998e-01  0.000000000000000e+00 -1.957581212749623e-18
 1.099999999999998e-01  0.000000000000000e+00 -1.957581212749623e-18
 1.099999999999998e-01  0.000000000000000e+00 -1.957581212749623e-18
 1.099999999999998e-01  0.000000000000000e+00 -1.957581212749623e-18
 1.099999999999998e-01  0.000000000000000e+00 -1.957581212749623e-18
 1.099999999999998e-01  0.000000000000000e+00 -1.957581212749623e-18
 1.099999999999998e-01  0.000000000000000e+00 -1.957581212749623e-18
 1.099999999999998e-01  0.000000000000000e+00 -1.957581212749623e-18
 1.099999999999998e-01  0.000000000000000e+00 -1.957581212749623e-18
 1.099999999999998e-01  0.000000000000000e+00 -1.957581212749623e-18
 1.099999999999998e-01  0.000000000000000e+00 -1.957581212749623e-18
 1.099999999999998e-01  0.000000000000000e+00 -1.957581212749623e-18
 1.099999999999998e-01  0.000000000000000e+00 -1.957581212749623e-18
 1.099999999999998e-01  0.000000000000000e+00 -1.957581212749623e-18
 1.099999999999998e-01  0.000000000000000e+00 -1.957581212749623e-18
 1.099999999999998e-01  0.000000000000000e+00 -1.957581212749623e-18
 1.099999999999998e-01  0.000000000000000e+00 -1.957581212749623e-18
 1.099999999999998e-01  0.000000000000000e+00 -1.957581212749623e-18
 1.099999999999998e-01  0.000000000000000e+00 -1.957581212749623e-18
 1.099999999999998e-01  0.000000000000000e+00 -1.957581212749623e-18
 1.099999999999998e-01  0.000000000000000e+00 -1.957581212749623e-18
 1.099999999999998e-01  0.000000000000000e+00 -1.957581212749623e-18
 1.099999999999998e-01  0.000000000000000e+00 -1.957581212749623e-18
 1.099999999999998e-01  0.000000000000000e+00 -1.957581212749623e-18
 1.099999999999998e-01  0.000000000000000e+00 -1.957581212749623e-18
 1.099999999999998e-01  0.000000000000000e+00 -1.957581212749623e-18
 1.099999999999998e-01  0.000000000000000e+00 -1.957581212749623e-18
 1.099999999999998e-01  0.000000000000000e+00 -1.957581212749623e-18
 1.099999999999998e-01  0.000000000000000e+00 -1.957581212749623e-18
 1.099999999999998e-01  0.000000000000000e+00 -1.957581212749623e-18
 1.099999999999998e-01  0.000000000000000e+00 -1.957581212749623e-18
 1.099999999999998e-01  0.000000000000000e+00 -1.957581212749623e-18
 1.099999999999998e-01  0.000000000000000e+00 -1.957581212749623e-18
 1.099999999999998e-01  0.000000000000000e+00 -1.957581212749623e-18
 1.099999999999998e-01  0.000000000000000e+00 -1.957581212749623e-18
 1.099999999999998e-01  0.000000000000000e+00 -1.957581212749623e-18
 1.099999999999998e-01  0.000000000000000e+00 -1.957581212749623e-18
 1.099999999999998e-01  0.000000000000000e+00 -1.957581212749623e-18
 1.099999999999998e-01  0.000000000000000e+00 -1.957581212749623e-18
 1.099999999999998e-01  0.000000000000000e+00 -1.957581212749623e-18
 1.099999999999998e-01  0.000000000000000e+00 -1.957581212749623e-18
 1.099999999999998e-01  0.000000000000000e+00 -1.957581212749623e-18
 1.099999999999998e-01  0.000000000000000e+00 -1.957581212749623e-18
 1.099999999999998e-01  0.000000000000000e+00 -1.957581212749623e-18
 1.099999999999998e-01  0.000000000000000e+00 -1.957581212749623e-18
 1.099999999999998e-01  0.000000000000000e+00 -1.957581212749623e-18
 1.099999999999998e-01  0.000000000000000e+00 -1.957581212749623e-18
 1.099999999999998e-01  0.000000000000000e+00 -1.957581212749623e-18
 1.099999999999998e-01  0.000000000000000e+00 -1.957581212749623e-18
 1.099999999999998e-01  0.000000000000000e+00 -1.957581212749623e-18
 1.099999999999998e-01  0.000000000000000e+00 -1.957581212749623e-18
 1.099999999999998e-01  0.000000000000000e+00 -1.957581212749623e-18
 1.099999999999998e-01  0.000000000000000e+00 -1.957581212749623e-18
 1.099999999999998e-01  0.000000000000000e+00 -1.957581212749623e-18
 1.099999999999998e-01  0.000000000000000e+00 -1.957581212749623e-18
 1.099999999999998e-01  0.000000000000000e+00 -1.957581212749623e-18
 1.099999999999998e-01  0.000000000000000e+00 -1.957581212749623e-18
 1.099999999999998e-01  0.000000000000000e+00 -1.957581212749623e-18
 1.099999999999998e-01  0.000000000000000e+00 -1.957581212749623e-18
 1.099999999999998e-01  0.000000000000000e+00 -1.957581212749623e-18
 1.099999999999998e-01  0.000000000000000e+00 -1.957581212749623e-18
 1.099999999999998e-01  0.000000000000000e+00 -1.957581212749623e-18
 1.099999999999998e-01  0.000000000000000e+00 -1.957581212749623e-18
 1.099999999999998e-01  0.000000000000000e+00 -1.957581212749623e-18
 1.099999999999998e-01  0.000000000000000e+00 -1.957581212749623e-18
 1.099999999999998e-01  0.000000000000000e+00 -1.957581212749623e-18
 1.099999999999998e-01  0.000000000000000e+00 -1.957581212749623e-18
 1.099999999999998e-01  0.000000000000000e+00 -1.957581212749623e-18
 1.099999999999998e-01  0.000000000000000e+00 -1.957581212749623e-18
 1.099999999999998e-01  0.000000000000000e+00 -1.957581212749623e-18
 1.099999999999998e-01  0.000000000000000e+00 -1.957581212749623e-18
 1.099999999999998e-01  0.000000000000000e+00 -1.957581212749623e-18
 1.099999999999998e-01  0.000000000000000e+00 -1.957581212749623e-18
 1.099999999999998e-01  0.000000000000000e+00 -1.957581212749623e-18
 1.099999999999998e-01  0.000000000000000e+00 -1.957581212749623e-18
 1.099999999999998e-01  0.000000000000000e+00 -1.957581212749623e-18
 1.099999999999998e-01  0.000000000000000e+00 -1.957581212749623e-18
 1.099999999999998e-01  0.000000000000000e+00 -1.957581212749623e-18
 1.099999999999998e-01  0.000000000000000e+00 -1.957581212749623e-18
 1.099999999999998e-01  0.000000000000000e+00 -1.957581212749623e-18
 1.099999999999998e-01  0.000000000000000e+00 -1.957581212749623e-18
 1.099999999999998e-01  0.000000000000000e+00 -1.957581212749623e-18
 1.099999999999998e-01  0.000000000000000e+00 -1.957581212749623e-18
 1.099999999999998e-01  0.000000000000000e+00 -1.957581212749623e-18
 1.099999999999998e-01  0.000000000000000e+00 -1.957581212749623e-18
 1.099999999999998e-01  0.000000000000000e+00 -1.957581212749623e-18
 1.099999999999998e-01  0.000000000000000e+00 -1.957581212749623e-18
 1.099999999999998e-01  0.000000000000000e+00 -1.957581212749623e-18
 1.099999999999998e-01  0.000000000000000e+00 -1.957581212749623e-18
 1.099999999999998e-01  0.000000000000000e+00 -1.957581212749623e-18
 1.099999999999998e-01  0.000000000000000e+00 -1.957581212749623e-18
 1.099999999999998e-01  0.000000000000000e+00 -1.957581212749623e-18
 1.099999999999998e-01  0.000000000000000e+00 -1.957581212749623e-18
 1.099999999999998e-01  0.000000000000000e+00 -1.957581212749623e-18
 1.099999999999998e-01  0.000000000000000e+00 -1.957581212749623e-18
 1.099999999999998e-01  0.000000000000000e+00 -1.957581212749623e-18
 1.099999999999998e-01  0.000000000000000e+00 -1.957581212749623e-18
 1.099999999999998e-01  0.000000000000000e+00 -1.957581212749623e-18
 1.099999999999998e-01  0.000000000000000e+00 -1.957581212749623e-18
 1.099999999999998e-01  0.000000000000000e+00 -1.957581212749623e-18
 1.099999999999998e-01  0.000000000000000e+00 -1.957581212749623e-18
 1.099999999999998e-01  0.000000000000000e+00 -1.957581212749623e-18
 1.099999999999998e-01  0.000000000000000e+00 -1.957581212749623e-18
 1.099999999999998e-01  0.000000000000000e+00 -1.957581212749623e-18
 1.099999999999998e-01  0.000000000000000e+00 -1.957581212749623e-18
 1.099999999999998e-01  0.000000000000000e+00 -1.957581212749623e-18
 1.099999999999998e-01  0.000000000000000e+00 -1.957581212749623e-18
 1.099999999999998e-01  0.000000000000000e+00 -1.957581212749623e-18
 1.099999999999998e-01  0.000000000000000e+00 -1.957581212749623e-18
 1.099999999999998e-01  0.000000000000000e+00 -1.957581212749623e-18
 1.099999999999998e-01  0.000000000000000e+00 -1.957581212749623e-18
 1.099999999999998e-01  0.000000000000000e+00 -1.957581212749623e-18
 1.099999999999998e-01  0.000000000000000e+00 -1.957581212749623e-18
 1.099999999999998e-01  0.000000000000000e+00 -1.957581212749623e-18
 1.099999999999998e-01  0.000000000000000e+00 -1.957581212749623e-18
 1.099999999999998e-01  0.000000000000000e+00 -1.957581212749623e-18
 1.099999999999998e-01  0.000000000000000e+00 -1.957581212749623e-18
 1.099999999999998e-01  0.000000000000000e+00 -1.957581212749623e-18
 1.099999999999998e-01  0.000000000000000e+00 -1.957581212749623e-18
 1.099999999999998e-01  0.000000000000000e+00 -1.957581212749623e-18
 1.099999999999998e-01  0.000000000000000e+00 -1.957581212749623e-18
 1.099999999999998e-01  0.000000000000000e+00 -1.957581212749623e-18
 1.099999999999998e-01  0.000000000000000e+00 -1.957581212749623e-18
 1.099999999999998e-01  0.000000000000000e+00 -1.957581212749623e-18
 1.099999999999998e-01  0.000000000000000e+00 -1.957581212749623e-18
 1.099999999999998e-01  0.000000000000000e+00 -1.957581212749623e-18
 1.099999999999998e-01  0.000000000000000e+00 -1.957581212749623e-18
 1.099999999999998e-01  0.000000000000000e+00 -1.957581212749623e-18
 1.099999999999998e-01  0.000000000000000e+00 -1.957581212749623e-18
 1.099999999999998e-01  0.000000000000000e+00 -1.957581212749623e-18
 1.099999999999998e-01  0.000000000000000e+00 -1.957581212749623e-18
 1.099999999999998e-01  0.000000000000000e+00 -1.957581212749623e-18
 1.099999999999998e-01  0.000000000000000e+00 -1.957581212749623e-18
 1.099999999999998e-01  0.000000000000000e+00 -1.957581212749623e-18
 1.099999999999998e-01  0.000000000000000e+00 -1.957581212749623e-18
 1.099999999999998e-01  0.000000000000000e+00 -1.957581212749623e-18
 1.099999999999998e-01  0.000000000000000e+00 -1.957581212749623e-18
 1.099999999999998e-01  0.000000000000000e+00 -1.957581212749623e-18
 1.099999999999998e-01  0.000000000000000e+00 -1.957581212749623e-18
 1.099999999999998e-01  0.000000000000000e+00 -1.957581212749623e-18
 1.099999999999998e-01  0.000000000000000e+00 -1.957581212749623e-18
 1.099999999999998e-01  0.000000000000000e+00 -1.957581212749623e-18
 1.099999999999998e-01  0.000000000000000e+00 -1.957581212749623e-18
 1.099999999999998e-01  0.000000000000000e+00 -1.957581212749623e-18
 1.099999999999998e-01  0.000000000000000e+00 -1.957581212749623e-18
 1.099999999999998e-01  0.000000000000000e+00 -1.957581212749623e-18
 1.099999999999998e-01  0.000000000000000e+00 -1.957581212749623e-18
 1.099999999999998e-01  0.000000000000000e+00 -1.957581212749623e-18
 1.099999999999998e-01  0.000000000000000e+00 -1.957581212749623e-18
 1.099999999999998e-01  0.000000000000000e+00 -1.957581212749623e-18
 1.099999999999998e-01  0.000000000000000e+00 -1.957581212749623e-18
 1.099999999999998e-01  0.000000000000000e+00 -1.957581212749623e-18
 1.099999999999998e-01  0.000000000000000e+00 -1.957581212749623e-18
 1.099999999999998e-01  0.000000000000000e+00 -1.957581212749623e-18
 1.099999999999998e-01  0.000000000000000e+00 -1.957581212749623e-18
 1.099999999999998e-01  0.000000000000000e+00 -1.957581212749623e-18
 1.099999999999998e-01  0.000000000000000e+00 -1.957581212749623e-18
 1.099999999999998e-01  0.000000000000000e+00 -1.957581212749623e-18
 1.099999999999998e-01  0.000000000000000e+00 -1.957581212749623e-18
 1.099999999999998e-01  0.000000000000000e+00 -1.957581212749623e-18
 1.099999999999998e-01  0.000000000000000e+00 -1.957581212749623e-18
 1.099999999999998e-01  0.000000000000000e+00 -1.957581212749623e-18
 1.099999999999998e-01  0.000000000000000e+00 -1.957581212749623e-18
 1.099999999999998e-01  0.000000000000000e+00 -1.957581212749623e-18
 1.099999999999998e-01  0.000000000000000e+00 -1.957581212749623e-18
 1.099999999999998e-01  0.000000000000000e+00 -1.957581212749623e-18
 1.099999999999998e-01  0.000000000000000e+00 -1.957581212749623e-18
 1.099999999999998e-01  0.000000000000000e+00 -1.957581212749623e-18
 1.099999999999998e-01  0.000000000000000e+00 -1.957581212749623e-18
 1.099999999999998e-01  0.000000000000000e+00 -1.957581212749623e-18
 1.099999999999998e-01  0.000000000000000e+00 -1.957581212749623e-18
 1.099999999999998e-01  0.000000000000000e+00 -1.957581212749623e-18
 1.099999999999998e-01  0.000000000000000e+00 -1.957581212749623e-18
 1.099999999999998e-01  0.000000000000000e+00 -1.957581212749623e-18
 1.099999999999998e-01  0.000000000000000e+00 -1.957581212749623e-18
 1.099999999999998e-01  0.000000000000000e+00 -1.957581212749623e-18
 1.099999999999998e-01  0.000000000000000e+00 -1.957581212749623e-18
 1.099999999999998e-01  0.000000000000000e+00 -1.957581212749623e-18
 1.099999999999998e-01  0.000000000000000e+00 -1.957581212749623e-18
 1.099999999999998e-01  0.000000000000000e+00 -1.957581212749623e-18
 1.099999999999998e-01  0.000000000000000e+00 -1.957581212749623e-18
 1.099999999999998e-01  0.000000000000000e+00 -1.957581212749623e-18
 1.099999999999998e-01  0.000000000000000e+00 -1.957581212749623e-18
 1.099999999999998e-01  0.000000000000000e+00 -1.957581212749623e-18
 1.099999999999998e-01  0.000000000000000e+00 -1.957581212749623e-18
 1.099999999999998e-01  0.000000000000000e+00 -1.957581212749623e-18
 1.099999999999998e-01  0.000000000000000e+00 -1.957581212749623e-18
 1.099999999999998e-01  0.000000000000000e+00 -1.957581212749623e-18
 1.099999999999998e-01  0.000000000000000e+00 -1.957581212749623e-18
 1.099999999999998e-01  0.000000000000000e+00 -1.957581212749623e-18
 1.099999999999998e-01  0.000000000000000e+00 -1.957581212749623e-18
 1.099999999999998e-01  0.000000000000000e+00 -1.957581212749623e-18
 1.099999999999998e-01  0.000000000000000e+00 -1.957581212749623e-18
 1.099999999999998e-01  0.000000000000000e+00 -1.957581212749623e-18
 1.099999999999998e-01  0.000000000000000e+00 -1.957581212749623e-18
 1.099999999999998e-01  0.000000000000000e+00 -1.957581212749623e-18
 1.099999999999998e-01  0.000000000000000e+00 -1.957581212749623e-18
 1.099999999999998e-01  0.000000000000000e+00 -1.957581212749623e-18
 1.099999999999998e-01  0.000000000000000e+00 -1.957581212749623e-18
 1.099999999999998e-01  0.000000000000000e+00 -1.957581212749623e-18
 1.099999999999998e-01  0.000000000000000e+00 -1.957581212749623e-18
 1.099999999999998e-01  0.000000000000000e+00 -1.957581212749623e-18
 1.099999999999998e-01  0.000000000000000e+00 -1.957581212749623e-18
 1.099999999999998e-01  0.000000000000000e+00 -1.957581212749623e-18
 1.099999999999998e-01  0.000000000000000e+00 -1.957581212749623e-18
 1.099999999999998e-01  0.000000000000000e+00 -1.957581212749623e-18
 1.099999999999998e-01  0.000000000000000e+00 -1.957581212749623e-18
 1.099999999999998e-01  0.000000000000000e+00 -1.957581212749623e-18
 1.099999999999998e-01  0.000000000000000e+00 -1.957581212749623e-18
 1.099999999999998e-01  0.000000000000000e+00 -1.957581212749623e-18
 1.099999999999998e-01  0.000000000000000e+00 -1.957581212749623e-18
 1.099999999999998e-01  0.000000000000000e+00 -1.957581212749623e-18
 1.099999999999998e-01  0.000000000000000e+00 -1.957581212749623e-18
 1.099999999999998e-01  0.000000000000000e+00 -1.957581212749623e-18
 1.099999999999998e-01  0.000000000000000e+00 -1.957581212749623e-18
 1.099999999999998e-01  0.000000000000000e+00 -1.957581212749623e-18
 1.099999999999998e-01  0.000000000000000e+00 -1.957581212749623e-18
 1.099999999999998e-01  0.000000000000000e+00 -1.957581212749623e-18
 1.099999999999998e-01  0.000000000000000e+00 -1.957581212749623e-18
 1.099999999999998e-01  0.000000000000000e+00 -1.957581212749623e-18
 1.099999999999998e-01  0.000000000000000e+00 -1.957581212749623e-18
 1.099999999999998e-01  0.000000000000000e+00 -1.957581212749623e-18
 1.099999999999998e-01  0.000000000000000e+00 -1.957581212749623e-18
 1.099999999999998e-01  0.000000000000000e+00 -1.957581212749623e-18
 1.099999999999998e-01  0.000000000000000e+00 -1.957581212749623e-18
 1.099999999999998e-01  0.000000000000000e+00 -1.957581212749623e-18
 1.099999999999998e-01  0.000000000000000e+00 -1.957581212749623e-18
 1.099999999999998e-01  0.000000000000000e+00 -1.957581212749623e-18
 1.099999999999998e-01  0.000000000000000e+00 -1.957581212749623e-18
 1.099999999999998e-01  0.000000000000000e+00 -1.957581212749623e-18
 1.099999999999998e-01  0.000000000000000e+00 -1.957581212749623e-18
 1.099999999999998e-01  0.000000000000000e+00 -1.957581212749623e-18
 1.099999999999998e-01  0.000000000000000e+00 -1.957581212749623e-18
 1.099999999999998e-01  0.000000000000000e+00 -1.957581212749623e-18
 1.099999999999998e-01  0.000000000000000e+00 -1.957581212749623e-18
 1.099999999999998e-01  0.000000000000000e+00 -1.957581212749623e-18
 1.099999999999998e-01  0.000000000000000e+00 -1.957581212749623e-18
 1.099999999999998e-01  0.000000000000000e+00 -1.957581212749623e-18
 1.099999999999998e-01  0.000000000000000e+00 -1.957581212749623e-18
 1.099999999999998e-01  0.000000000000000e+00 -1.957581212749623e-18
 1.099999999999998e-01  0.000000000000000e+00 -1.957581212749623e-18
 1.099999999999998e-01  0.000000000000000e+00 -1.957581212749623e-18
 1.099999999999998e-01  0.000000000000000e+00 -1.957581212749623e-18
 1.099999999999998e-01  0.000000000000000e+00 -1.957581212749623e-18
 1.099999999999998e-01  0.000000000000000e+00 -1.957581212749623e-18
 1.099999999999998e-01  0.000000000000000e+00 -1.957581212749623e-18
 1.099999999999998e-01  0.000000000000000e+00 -1.957581212749623e-18
 1.099999999999998e-01  0.000000000000000e+00 -1.957581212749623e-18
 1.099999999999998e-01  0.000000000000000e+00 -1.957581212749623e-18
 1.099999999999998e-01  0.000000000000000e+00 -1.957581212749623e-18
 1.099999999999998e-01  0.000000000000000e+00 -1.957581212749623e-18
 1.099999999999998e-01  0.000000000000000e+00 -1.957581212749623e-18
 1.099999999999998e-01  0.000000000000000e+00 -1.957581212749623e-18
 1.099999999999998e-01  0.000000000000000e+00 -1.957581212749623e-18
 1.099999999999998e-01  0.000000000000000e+00 -1.957581212749623e-18
 1.099999999999998e-01  0.000000000000000e+00 -1.957581212749623e-18
 1.099999999999998e-01  0.000000000000000e+00 -1.957581212749623e-18
 1.099999999999998e-01  0.000000000000000e+00 -1.957581212749623e-18
 1.099999999999998e-01  0.000000000000000e+00 -1.957581212749623e-18
 1.099999999999998e-01  0.000000000000000e+00 -1.957581212749623e-18
 1.099999999999998e-01  0.000000000000000e+00 -1.957581212749623e-18
 1.099999999999998e-01  0.000000000000000e+00 -1.957581212749623e-18
 1.099999999999998e-01  0.000000000000000e+00 -1.957581212749623e-18
 1.099999999999998e-01  0.000000000000000e+00 -1.957581212749623e-18
 1.099999999999998e-01  0.000000000000000e+00 -1.957581212749623e-18
 1.099999999999998e-01  0.000000000000000e+00 -1.957581212749623e-18
 1.099999999999998e-01  0.000000000000000e+00 -1.957581212749623e-18
 1.099999999999998e-01  0.000000000000000e+00 -1.957581212749623e-18
 1.099999999999998e-01  0.000000000000000e+00 -1.957581212749623e-18
 1.099999999999998e-01  0.000000000000000e+00 -1.957581212749623e-18
 1.099999999999998e-01  0.000000000000000e+00 -1.957581212749623e-18
 1.099999999999998e-01  0.000000000000000e+00 -1.957581212749623e-18
 1.099999999999998e-01  0.000000000000000e+00 -1.957581212749623e-18
 1.099999999999998e-01  0.000000000000000e+00 -1.957581212749623e-18
 1.099999999999998e-01  0.000000000000000e+00 -1.957581212749623e-18
 1.099999999999998e-01  0.000000000000000e+00 -1.957581212749623e-18
 1.099999999999998e-01  0.000000000000000e+00 -1.957581212749623e-18
 1.099999999999998e-01  0.000000000000000e+00 -1.957581212749623e-18
 1.099999999999998e-01  0.000000000000000e+00 -1.957581212749623e-18
 1.099999999999998e-01  0.000000000000000e+00 -1.957581212749623e-18
 1.099999999999998e-01  0.000000000000000e+00 -1.957581212749623e-18
 1.099999999999998e-01  0.000000000000000e+00 -1.957581212749623e-18
 1.099999999999998e-01  0.000000000000000e+00 -1.957581212749623e-18
 1.099999999999998e-01  0.000000000000000e+00 -1.957581212749623e-18
 1.099999999999998e-01  0.000000000000000e+00 -1.957581212749623e-18
 1.099999999999998e-01  0.000000000000000e+00 -1.957581212749623e-18
 1.099999999999998e-01  0.000000000000000e+00 -1.957581212749623e-18
 1.099999999999998e-01  0.000000000000000e+00 -1.957581212749623e-18
 1.099999999999998e-01  0.000000000000000e+00 -1.957581212749623e-18
 1.099999999999998e-01  0.000000000000000e+00 -1.957581212749623e-18
 1.099999999999998e-01  0.000000000000000e+00 -1.957581212749623e-18
 1.099999999999998e-01  0.000000000000000e+00 -1.957581212749623e-18
 1.099999999999998e-01  0.000000000000000e+00 -1.957581212749623e-18
 1.099999999999998e-01  0.000000000000000e+00 -1.957581212749623e-18
 1.099999999999998e-01  0.000000000000000e+00 -1.957581212749623e-18
 1.099999999999998e-01  0.000000000000000e+00 -1.957581212749623e-18
 1.099999999999998e-01  0.000000000000000e+00 -1.957581212749623e-18
 1.099999999999998e-01  0.000000000000000e+00 -1.957581212749623e-18
 1.099999999999998e-01  0.000000000000000e+00 -1.957581212749623e-18
 1.099999999999998e-01  0.000000000000000e+00 -1.957581212749623e-18
 1.099999999999998e-01  0.000000000000000e+00 -1.957581212749623e-18
 1.099999999999998e-01  0.000000000000000e+00 -1.957581212749623e-18
 1.099999999999998e-01  0.000000000000000e+00 -1.957581212749623e-18
 1.099999999999998e-01  0.000000000000000e+00 -1.957581212749623e-18
 1.099999999999998e-01  0.000000000000000e+00 -1.957581212749623e-18
 1.099999999999998e-01  0.000000000000000e+00 -1.957581212749623e-18
 1.099999999999998e-01  0.000000000000000e+00 -1.957581212749623e-18
 1.099999999999998e-01  0.000000000000000e+00 -1.957581212749623e-18
 1.099999999999998e-01  0.000000000000000e+00 -1.957581212749623e-18
 1.099999999999998e-01  0.000000000000000e+00 -1.957581212749623e-18
 1.099999999999998e-01  0.000000000000000e+00 -1.957581212749623e-18
 1.099999999999998e-01  0.000000000000000e+00 -1.957581212749623e-18
 1.099999999999998e-01  0.000000000000000e+00 -1.957581212749623e-18
 1.099999999999998e-01  0.000000000000000e+00 -1.957581212749623e-18
 1.099999999999998e-01  0.000000000000000e+00 -1.957581212749623e-18
 1.099999999999998e-01  0.000000000000000e+00 -1.957581212749623e-18
 1.099999999999998e-01  0.000000000000000e+00 -1.957581212749623e-18
 1.099999999999998e-01  0.000000000000000e+00 -1.957581212749623e-18
 1.099999999999998e-01  0.000000000000000e+00 -1.957581212749623e-18
 1.099999999999998e-01  0.000000000000000e+00 -1.957581212749623e-18
 1.099999999999998e-01  0.000000000000000e+00 -1.957581212749623e-18
 1.099999999999998e-01  0.000000000000000e+00 -1.957581212749623e-18
 1.099999999999998e-01  0.000000000000000e+00 -1.957581212749623e-18
 1.099999999999998e-01  0.000000000000000e+00 -1.957581212749623e-18
 1.099999999999998e-01  0.000000000000000e+00 -1.957581212749623e-18
 1.099999999999998e-01  0.000000000000000e+00 -1.957581212749623e-18
 1.099999999999998e-01  0.000000000000000e+00 -1.957581212749623e-18
 1.099999999999998e-01  0.000000000000000e+00 -1.957581212749623e-18
 1.099999999999998e-01  0.000000000000000e+00 -1.957581212749623e-18
 1.099999999999998e-01  0.000000000000000e+00 -1.957581212749623e-18
 1.099999999999998e-01  0.000000000000000e+00 -1.957581212749623e-18
 1.099999999999998e-01  0.000000000000000e+00 -1.957581212749623e-18
 1.099999999999998e-01  0.000000000000000e+00 -1.957581212749623e-18
 1.099999999999998e-01  0.000000000000000e+00 -1.957581212749623e-18
 1.099999999999998e-01  0.000000000000000e+00 -1.957581212749623e-18
 1.099999999999998e-01  0.000000000000000e+00 -1.957581212749623e-18
 1.099999999999998e-01  0.000000000000000e+00 -1.957581212749623e-18
 1.099999999999998e-01  0.000000000000000e+00 -1.957581212749623e-18
 1.099999999999998e-01  0.000000000000000e+00 -1.957581212749623e-18
 1.099999999999998e-01  0.000000000000000e+00 -1.957581212749623e-18
 1.099999999999998e-01  0.000000000000000e+00 -1.957581212749623e-18
 1.099999999999998e-01  0.000000000000000e+00 -1.957581212749623e-18
 1.099999999999998e-01  0.000000000000000e+00 -1.957581212749623e-18
 1.099999999999998e-01  0.000000000000000e+00 -1.957581212749623e-18
 1.099999999999998e-01  0.000000000000000e+00 -1.957581212749623e-18
 1.099999999999998e-01  0.000000000000000e+00 -1.957581212749623e-18
 1.099999999999998e-01  0.000000000000000e+00 -1.957581212749623e-18
 1.099999999999998e-01  0.000000000000000e+00 -1.957581212749623e-18
 1.099999999999998e-01  0.000000000000000e+00 -1.957581212749623e-18
 1.099999999999998e-01  0.000000000000000e+00 -1.957581212749623e-18
 1.099999999999998e-01  0.000000000000000e+00 -1.957581212749623e-18
 1.099999999999998e-01  0.000000000000000e+00 -1.957581212749623e-18
 1.099999999999998e-01  0.000000000000000e+00 -1.957581212749623e-18
 1.099999999999998e-01  0.000000000000000e+00 -1.957581212749623e-18
 1.099999999999998e-01  0.000000000000000e+00 -1.957581212749623e-18
 1.099999999999998e-01  0.000000000000000e+00 -1.957581212749623e-18
 1.099999999999998e-01  0.000000000000000e+00 -1.957581212749623e-18
 1.099999999999998e-01  0.000000000000000e+00 -1.957581212749623e-18
 1.099999999999998e-01  0.000000000000000e+00 -1.957581212749623e-18
 1.099999999999998e-01  0.000000000000000e+00 -1.957581212749623e-18
 1.099999999999998e-01  0.000000000000000e+00 -1.957581212749623e-18
 1.099999999999998e-01  0.000000000000000e+00 -1.957581212749623e-18
 1.099999999999998e-01  0.000000000000000e+00 -1.957581212749623e-18
 1.099999999999998e-01  0.000000000000000e+00 -1.957581212749623e-18
 1.099999999999998e-01  0.000000000000000e+00 -1.957581212749623e-18
 1.099999999999998e-01  0.000000000000000e+00 -1.957581212749623e-18
 1.099999999999998e-01  0.000000000000000e+00 -1.957581212749623e-18
 1.099999999999998e-01  0.000000000000000e+00 -1.957581212749623e-18
 1.099999999999998e-01  0.000000000000000e+00 -1.957581212749623e-18
 1.099999999999998e-01  0.000000000000000e+00 -1.957581212749623e-18
 1.099999999999998e-01  0.000000000000000e+00 -1.957581212749623e-18
 1.099999999999998e-01  0.000000000000000e+00 -1.957581212749623e-18
 1.099999999999998e-01  0.000000000000000e+00 -1.957581212749623e-18
 1.099999999999998e-01  0.000000000000000e+00 -1.957581212749623e-18
 1.099999999999998e-01  0.000000000000000e+00 -1.957581212749623e-18
 1.099999999999998e-01  0.000000000000000e+00 -1.957581212749623e-18
 1.099999999999998e-01  0.000000000000000e+00 -1.957581212749623e-18
 1.099999999999998e-01  0.000000000000000e+00 -1.957581212749623e-18
 1.099999999999998e-01  0.000000000000000e+00 -1.957581212749623e-18
 1.099999999999998e-01  0.000000000000000e+00 -1.957581212749623e-18
 1.099999999999998e-01  0.000000000000000e+00 -1.957581212749623e-18
 1.099999999999998e-01  0.000000000000000e+00 -1.957581212749623e-18
 1.099999999999998e-01  0.000000000000000e+00 -1.957581212749623e-18
 1.099999999999998e-01  0.000000000000000e+00 -1.957581212749623e-18
 1.099999999999998e-01  0.000000000000000e+00 -1.957581212749623e-18
 1.099999999999998e-01  0.000000000000000e+00 -1.957581212749623e-18
 1.099999999999998e-01  0.000000000000000e+00 -1.957581212749623e-18
 1.099999999999998e-01  0.000000000000000e+00 -1.957581212749623e-18
 1.099999999999998e-01  0.000000000000000e+00 -1.957581212749623e-18
 1.099999999999998e-01  0.000000000000000e+00 -1.957581212749623e-18
 1.099999999999998e-01  0.000000000000000e+00 -1.957581212749623e-18
 1.099999999999998e-01  0.000000000000000e+00 -1.957581212749623e-18
 1.099999999999998e-01  0.000000000000000e+00 -1.957581212749623e-18
 1.099999999999998e-01  0.000000000000000e+00 -1.957581212749623e-18
 1.099999999999998e-01  0.000000000000000e+00 -1.957581212749623e-18
 1.099999999999998e-01  0.000000000000000e+00 -1.957581212749623e-18
 1.099999999999998e-01  0.000000000000000e+00 -1.957581212749623e-18
 1.099999999999998e-01  0.000000000000000e+00 -1.957581212749623e-18
 1.099999999999998e-01  0.000000000000000e+00 -1.957581212749623e-18
 1.099999999999998e-01  0.000000000000000e+00 -1.957581212749623e-18
 1.099999999999998e-01  0.000000000000000e+00 -1.957581212749623e-18
 1.099999999999998e-01  0.000000000000000e+00 -1.957581212749623e-18
 1.099999999999998e-01  0.000000000000000e+00 -1.957581212749623e-18
 1.099999999999998e-01  0.000000000000000e+00 -1.957581212749623e-18
 1.099999999999998e-01  0.000000000000000e+00 -1.957581212749623e-18
 1.099999999999998e-01  0.000000000000000e+00 -1.957581212749623e-18
 1.099999999999998e-01  0.000000000000000e+00 -1.957581212749623e-18
 1.099999999999998e-01  0.000000000000000e+00 -1.957581212749623e-18
 1.099999999999998e-01  0.000000000000000e+00 -1.957581212749623e-18
 1.099999999999998e-01  0.000000000000000e+00 -1.957581212749623e-18
 1.099999999999998e-01  0.000000000000000e+00 -1.957581212749623e-18
 1.099999999999998e-01  0.000000000000000e+00 -1.957581212749623e-18
 1.099999999999998e-01  0.000000000000000e+00 -1.957581212749623e-18
 1.099999999999998e-01  0.000000000000000e+00 -1.957581212749623e-18
 1.099999999999998e-01  0.000000000000000e+00 -1.957581212749623e-18
 1.099999999999998e-01  0.000000000000000e+00 -1.957581212749623e-18
 1.099999999999998e-01  0.000000000000000e+00 -1.957581212749623e-18
 1.099999999999998e-01  0.000000000000000e+00 -1.957581212749623e-18
 1.099999999999998e-01  0.000000000000000e+00 -1.957581212749623e-18
 1.099999999999998e-01  0.000000000000000e+00 -1.957581212749623e-18
 1.099999999999998e-01  0.000000000000000e+00 -1.957581212749623e-18
 1.099999999999998e-01  0.000000000000000e+00 -1.957581212749623e-18
 1.099999999999998e-01  0.000000000000000e+00 -1.957581212749623e-18
 1.099999999999998e-01  0.000000000000000e+00 -1.957581212749623e-18
 1.099999999999998e-01  0.000000000000000e+00 -1.957581212749623e-18
 1.099999999999998e-01  0.000000000000000e+00 -1.957581212749623e-18
 1.099999999999998e-01  0.000000000000000e+00 -1.957581212749623e-18
 1.099999999999998e-01  0.000000000000000e+00 -1.957581212749623e-18
 1.099999999999998e-01  0.000000000000000e+00 -1.957581212749623e-18
 1.099999999999998e-01  0.000000000000000e+00 -1.957581212749623e-18
 1.099999999999998e-01  0.000000000000000e+00 -1.957581212749623e-18
 1.099999999999998e-01  0.000000000000000e+00 -1.957581212749623e-18
 1.099999999999998e-01  0.000000000000000e+00 -1.957581212749623e-18
 1.099999999999998e-01  0.000000000000000e+00 -1.957581212749623e-18
 1.099999999999998e-01  0.000000000000000e+00 -1.957581212749623e-18
 1.099999999999998e-01  0.000000000000000e+00 -1.957581212749623e-18
 1.099999999999998e-01  0.000000000000000e+00 -1.957581212749623e-18
 1.099999999999998e-01  0.000000000000000e+00 -1.957581212749623e-18
 1.099999999999998e-01  0.000000000000000e+00 -1.957581212749623e-18
 1.099999999999998e-01  0.000000000000000e+00 -1.957581212749623e-18
 1.099999999999998e-01  0.000000000000000e+00 -1.957581212749623e-18
 1.099999999999998e-01  0.000000000000000e+00 -1.957581212749623e-18
 1.099999999999998e-01  0.000000000000000e+00 -1.957581212749623e-18
 1.099999999999998e-01  0.000000000000000e+00 -1.957581212749623e-18
 1.099999999999998e-01  0.000000000000000e+00 -1.957581212749623e-18
 1.099999999999998e-01  0.000000000000000e+00 -1.957581212749623e-18
 1.099999999999998e-01  0.000000000000000e+00 -1.957581212749623e-18
 1.099999999999998e-01  0.000000000000000e+00 -1.957581212749623e-18
 1.099999999999998e-01  0.000000000000000e+00 -1.957581212749623e-18
 1.099999999999998e-01  0.000000000000000e+00 -1.957581212749623e-18
 1.099999999999998e-01  0.000000000000000e+00 -1.957581212749623e-18
 1.099999999999998e-01  0.000000000000000e+00 -1.957581212749623e-18
 1.099999999999998e-01  0.000000000000000e+00 -1.957581212749623e-18
 1.099999999999998e-01  0.000000000000000e+00 -1.957581212749623e-18
 1.099999999999998e-01  0.000000000000000e+00 -1.957581212749623e-18
 1.099999999999998e-01  0.000000000000000e+00 -1.957581212749623e-18
 1.099999999999998e-01  0.000000000000000e+00 -1.957581212749623e-18
 1.099999999999998e-01  0.000000000000000e+00 -1.957581212749623e-18
 1.099999999999998e-01  0.000000000000000e+00 -1.957581212749623e-18
 1.099999999999998e-01  0.000000000000000e+00 -1.957581212749623e-18
 1.099999999999998e-01  0.000000000000000e+00 -1.957581212749623e-18
 1.099999999999998e-01  0.000000000000000e+00 -1.957581212749623e-18
 1.099999999999998e-01  0.000000000000000e+00 -1.957581212749623e-18
 1.099999999999998e-01  0.000000000000000e+00 -1.957581212749623e-18
 1.099999999999998e-01  0.000000000000000e+00 -1.957581212749623e-18
 1.099999999999998e-01  0.000000000000000e+00 -1.957581212749623e-18
 1.099999999999998e-01  0.000000000000000e+00 -1.957581212749623e-18
 1.099999999999998e-01  0.000000000000000e+00 -1.957581212749623e-18
 1.099999999999998e-01  0.000000000000000e+00 -1.957581212749623e-18
 1.099999999999998e-01  0.000000000000000e+00 -1.957581212749623e-18
 1.099999999999998e-01  0.000000000000000e+00 -1.957581212749623e-18
 1.099999999999998e-01  0.000000000000000e+00 -1.957581212749623e-18
 1.099999999999998e-01  0.000000000000000e+00 -1.957581212749623e-18
 1.099999999999998e-01  0.000000000000000e+00 -1.957581212749623e-18
 1.099999999999998e-01  0.000000000000000e+00 -1.957581212749623e-18
 1.099999999999998e-01  0.000000000000000e+00 -1.957581212749623e-18
 1.099999999999998e-01  0.000000000000000e+00 -1.957581212749623e-18
 1.099999999999998e-01  0.000000000000000e+00 -1.957581212749623e-18
 1.099999999999998e-01  0.000000000000000e+00 -1.957581212749623e-18
 1.099999999999998e-01  0.000000000000000e+00 -1.957581212749623e-18
 1.099999999999998e-01  0.000000000000000e+00 -1.957581212749623e-18
 1.099999999999998e-01  0.000000000000000e+00 -1.957581212749623e-18
 1.099999999999998e-01  0.000000000000000e+00 -1.957581212749623e-18
 1.099999999999998e-01  0.000000000000000e+00 -1.957581212749623e-18
 1.099999999999998e-01  0.000000000000000e+00 -1.957581212749623e-18
 1.099999999999998e-01  0.000000000000000e+00 -1.957581212749623e-18
 1.099999999999998e-01  0.000000000000000e+00 -1.957581212749623e-18
-1.099999999999998e-01  0.000000000000000e+00  1.957581212749623e-18
-1.099999999999998e-01  0.000000000000000e+00  1.957581212749623e-18
-1.099999999999998e-01  0.000000000000000e+00  1.957581212749623e-18
-1.099999999999998e-01  0.000000000000000e+00  1.957581212749623e-18
-1.099999999999998e-01  0.000000000000000e+00  1.957581212749623e-18
-1.099999999999998e-01  0.000000000000000e+00  1.957581212749623e-18
-1.099999999999998e-01  0.000000000000000e+00  1.957581212749623e-18
-1.099999999999998e-01  0.000000000000000e+00  1.957581212749623e-18
-1.099999999999998e-01  0.000000000000000e+00  1.957581212749623e-18
-1.099999999999998e-01  0.000000000000000e+00  1.957581212749623e-18
-1.099999999999998e-01  0.000000000000000e+00  1.957581212749623e-18
-1.099999999999998e-01  0.000000000000000e+00  1.957581212749623e-18
-1.099999999999998e-01  0.000000000000000e+00  1.957581212749623e-18
-1.099999999999998e-01  0.000000000000000e+00  1.957581212749623e-18
-1.099999999999998e-01  0.000000000000000e+00  1.957581212749623e-18
-1.099999999999998e-01  0.000000000000000e+00  1.957581212749623e-18
-1.099999999999998e-01  0.000000000000000e+00  1.957581212749623e-18
-1.099999999999998e-01  0.000000000000000e+00  1.957581212749623e-18
-1.099999999999998e-01  0.000000000000000e+00  1.957581212749623e-18
-1.099999999999998e-01  0.000000000000000e+00  1.957581212749623e-18
-1.099999999999998e-01  0.000000000000000e+00  1.957581212749623e-18
-1.099999999999998e-01  0.000000000000000e+00  1.957581212749623e-18
-1.099999999999998e-01  0.000000000000000e+00  1.957581212749623e-18
-1.099999999999998e-01  0.000000000000000e+00  1.957581212749623e-18
-1.099999999999998e-01  0.000000000000000e+00  1.957581212749623e-18
-1.099999999999998e-01  0.000000000000000e+00  1.957581212749623e-18
-1.099999999999998e-01  0.000000000000000e+00  1.957581212749623e-18
-1.099999999999998e-01  0.000000000000000e+00  1.957581212749623e-18
-1.099999999999998e-01  0.000000000000000e+00  1.957581212749623e-18
-1.099999999999998e-01  0.000000000000000e+00  1.957581212749623e-18
-1.099999999999998e-01  0.000000000000000e+00  1.957581212749623e-18
-1.099999999999998e-01  0.000000000000000e+00  1.957581212749623e-18
-1.099999999999998e-01  0.000000000000000e+00  1.957581212749623e-18
-1.099999999999998e-01  0.000000000000000e+00  1.957581212749623e-18
-1.099999999999998e-01  0.000000000000000e+00  1.957581212749623e-18
-1.099999999999998e-01  0.000000000000000e+00  1.957581212749623e-18
-1.099999999999998e-01  0.000000000000000e+00  1.957581212749623e-18
-1.099999999999998e-01  0.000000000000000e+00  1.957581212749623e-18
-1.099999999999998e-01  0.000000000000000e+00  1.957581212749623e-18
-1.099999999999998e-01  0.000000000000000e+00  1.957581212749623e-18
-1.099999999999998e-01  0.000000000000000e+00  1.957581212749623e-18
-1.099999999999998e-01  0.000000000000000e+00  1.957581212749623e-18
-1.099999999999998e-01  0.000000000000000e+00  1.957581212749623e-18
-1.099999999999998e-01  0.000000000000000e+00  1.957581212749623e-18
-1.099999999999998e-01  0.000000000000000e+00  1.957581212749623e-18
-1.099999999999998e-01  0.000000000000000e+00  1.957581212749623e-18
-1.099999999999998e-01  0.000000000000000e+00  1.957581212749623e-18
-1.099999999999998e-01  0.000000000000000e+00  1.957581212749623e-18
-1.099999999999998e-01  0.000000000000000e+00  1.957581212749623e-18
-1.099999999999998e-01  0.000000000000000e+00  1.957581212749623e-18
-1.099999999999998e-01  0.000000000000000e+00  1.957581212749623e-18
-1.099999999999998e-01  0.000000000000000e+00  1.957581212749623e-18
-1.099999999999998e-01  0.000000000000000e+00  1.957581212749623e-18
-1.099999999999998e-01  0.000000000000000e+00  1.957581212749623e-18
-1.099999999999998e-01  0.000000000000000e+00  1.957581212749623e-18
-1.099999999999998e-01  0.000000000000000e+00  1.957581212749623e-18
-1.099999999999998e-01  0.000000000000000e+00  1.957581212749623e-18
-1.099999999999998e-01  0.000000000000000e+00  1.957581212749623e-18
-1.099999999999998e-01  0.000000000000000e+00  1.957581212749623e-18
-1.099999999999998e-01  0.000000000000000e+00  1.957581212749623e-18
-1.099999999999998e-01  0.000000000000000e+00  1.957581212749623e-18
-1.099999999999998e-01  0.000000000000000e+00  1.957581212749623e-18
-1.099999999999998e-01  0.000000000000000e+00  1.957581212749623e-18
-1.099999999999998e-01  0.000000000000000e+00  1.957581212749623e-18
-1.099999999999998e-01  0.000000000000000e+00  1.957581212749623e-18
-1.099999999999998e-01  0.000000000000000e+00  1.957581212749623e-18
-1.099999999999998e-01  0.000000000000000e+00  1.957581212749623e-18
-1.099999999999998e-01  0.000000000000000e+00  1.957581212749623e-18
-1.099999999999998e-01  0.000000000000000e+00  1.957581212749623e-18
-1.099999999999998e-01  0.000000000000000e+00  1.957581212749623e-18
-1.099999999999998e-01  0.000000000000000e+00  1.957581212749623e-18
-1.099999999999998e-01  0.000000000000000e+00  1.957581212749623e-18
-1.099999999999998e-01  0.000000000000000e+00  1.957581212749623e-18
-1.099999999999998e-01  0.000000000000000e+00  1.957581212749623e-18
-1.099999999999998e-01  0.000000000000000e+00  1.957581212749623e-18
-1.099999999999998e-01  0.000000000000000e+00  1.957581212749623e-18
-1.099999999999998e-01  0.000000000000000e+00  1.957581212749623e-18
-1.099999999999998e-01  0.000000000000000e+00  1.957581212749623e-18
-1.099999999999998e-01  0.000000000000000e+00  1.957581212749623e-18
-1.099999999999998e-01  0.000000000000000e+00  1.957581212749623e-18
-1.099999999999998e-01  0.000000000000000e+00  1.957581212749623e-18
-1.099999999999998e-01  0.000000000000000e+00  1.957581212749623e-18
-1.099999999999998e-01  0.000000000000000e+00  1.957581212749623e-18
-1.099999999999998e-01  0.000000000000000e+00  1.957581212749623e-18
-1.099999999999998e-01  0.000000000000000e+00  1.957581212749623e-18
-1.099999999999998e-01  0.000000000000000e+00  1.957581212749623e-18
-1.099999999999998e-01  0.000000000000000e+00  1.957581212749623e-18
-1.099999999999998e-01  0.000000000000000e+00  1.957581212749623e-18
-1.099999999999998e-01  0.000000000000000e+00  1.957581212749623e-18
-1.099999999999998e-01  0.000000000000000e+00  1.957581212749623e-18
-1.099999999999998e-01  0.000000000000000e+00  1.957581212749623e-18
-1.099999999999998e-01  0.000000000000000e+00  1.957581212749623e-18
-1.099999999999998e-01  0.000000000000000e+00  1.957581212749623e-18
-1.099999999999998e-01  0.000000000000000e+00  1.957581212749623e-18
-1.099999999999998e-01  0.000000000000000e+00  1.957581212749623e-18
-1.099999999999998e-01  0.000000000000000e+00  1.957581212749623e-18
-1.099999999999998e-01  0.000000000000000e+00  1.957581212749623e-18
-1.099999999999998e-01  0.000000000000000e+00  1.957581212749623e-18
-1.099999999999998e-01  0.000000000000000e+00  1.957581212749623e-18
-1.099999999999998e-01  0.000000000000000e+00  1.957581212749623e-18
-1.099999999999998e-01  0.000000000000000e+00  1.957581212749623e-18
-1.099999999999998e-01  0.000000000000000e+00  1.957581212749623e-18
-1.099999999999998e-01  0.000000000000000e+00  1.957581212749623e-18
-1.099999999999998e-01  0.000000000000000e+00  1.957581212749623e-18
-1.099999999999998e-01  0.000000000000000e+00  1.957581212749623e-18
-1.099999999999998e-01  0.000000000000000e+00  1.957581212749623e-18
-1.099999999999998e-01  0.000000000000000e+00  1.957581212749623e-18
-1.099999999999998e-01  0.000000000000000e+00  1.957581212749623e-18
-1.099999999999998e-01  0.000000000000000e+00  1.957581212749623e-18
-1.099999999999998e-01  0.000000000000000e+00  1.957581212749623e-18
-1.099999999999998e-01  0.000000000000000e+00  1.957581212749623e-18
-1.099999999999998e-01  0.000000000000000e+00  1.957581212749623e-18
-1.099999999999998e-01  0.000000000000000e+00  1.957581212749623e-18
-1.099999999999998e-01  0.000000000000000e+00  1.957581212749623e-18
-1.099999999999998e-01  0.000000000000000e+00  1.957581212749623e-18
-1.099999999999998e-01  0.000000000000000e+00  1.957581212749623e-18
-1.099999999999998e-01  0.000000000000000e+00  1.957581212749623e-18
-1.099999999999998e-01  0.000000000000000e+00  1.957581212749623e-18
-1.099999999999998e-01  0.000000000000000e+00  1.957581212749623e-18
-1.099999999999998e-01  0.000000000000000e+00  1.957581212749623e-18
-1.099999999999998e-01  0.000000000000000e+00  1.957581212749623e-18
-1.099999999999998e-01  0.000000000000000e+00  1.957581212749623e-18
-1.099999999999998e-01  0.000000000000000e+00  1.957581212749623e-18
-1.099999999999998e-01  0.000000000000000e+00  1.957581212749623e-18
-1.099999999999998e-01  0.000000000000000e+00  1.957581212749623e-18
-1.099999999999998e-01  0.000000000000000e+00  1.957581212749623e-18
-1.099999999999998e-01  0.000000000000000e+00  1.957581212749623e-18
-1.099999999999998e-01  0.000000000000000e+00  1.957581212749623e-18
-1.099999999999998e-01  0.000000000000000e+00  1.957581212749623e-18
-1.099999999999998e-01  0.000000000000000e+00  1.957581212749623e-18
-1.099999999999998e-01  0.000000000000000e+00  1.957581212749623e-18
-1.099999999999998e-01  0.000000000000000e+00  1.957581212749623e-18
-1.099999999999998e-01  0.000000000000000e+00  1.957581212749623e-18
-1.099999999999998e-01  0.000000000000000e+00  1.957581212749623e-18
-1.099999999999998e-01  0.000000000000000e+00  1.957581212749623e-18
-1.099999999999998e-01  0.000000000000000e+00  1.957581212749623e-18
-1.099999999999998e-01  0.000000000000000e+00  1.957581212749623e-18
-1.099999999999998e-01  0.000000000000000e+00  1.957581212749623e-18
-1.099999999999998e-01  0.000000000000000e+00  1.957581212749623e-18
-1.099999999999998e-01  0.000000000000000e+00  1.957581212749623e-18
-1.099999999999998e-01  0.000000000000000e+00  1.957581212749623e-18
-1.099999999999998e-01  0.000000000000000e+00  1.957581212749623e-18
-1.099999999999998e-01  0.000000000000000e+00  1.957581212749623e-18
-1.099999999999998e-01  0.000000000000000e+00  1.957581212749623e-18
-1.099999999999998e-01  0.000000000000000e+00  1.957581212749623e-18
-1.099999999999998e-01  0.000000000000000e+00  1.957581212749623e-18
-1.099999999999998e-01  0.000000000000000e+00  1.957581212749623e-18
-1.099999999999998e-01  0.000000000000000e+00  1.957581212749623e-18
-1.099999999999998e-01  0.000000000000000e+00  1.957581212749623e-18
-1.099999999999998e-01  0.000000000000000e+00  1.957581212749623e-18
-1.099999999999998e-01  0.000000000000000e+00  1.957581212749623e-18
-1.099999999999998e-01  0.000000000000000e+00  1.957581212749623e-18
-1.099999999999998e-01  0.000000000000000e+00  1.957581212749623e-18
-1.099999999999998e-01  0.000000000000000e+00  1.957581212749623e-18
-1.099999999999998e-01  0.000000000000000e+00  1.957581212749623e-18
-1.099999999999998e-01  0.000000000000000e+00  1.957581212749623e-18
-1.099999999999998e-01  0.000000000000000e+00  1.957581212749623e-18
-1.099999999999998e-01  0.000000000000000e+00  1.957581212749623e-18
-1.099999999999998e-01  0.000000000000000e+00  1.957581212749623e-18
-1.099999999999998e-01  0.000000000000000e+00  1.957581212749623e-18
-1.099999999999998e-01  0.000000000000000e+00  1.957581212749623e-18
-1.099999999999998e-01  0.000000000000000e+00  1.957581212749623e-18
-1.099999999999998e-01  0.000000000000000e+00  1.957581212749623e-18
-1.099999999999998e-01  0.000000000000000e+00  1.957581212749623e-18
-1.099999999999998e-01  0.000000000000000e+00  1.957581212749623e-18
-1.099999999999998e-01  0.000000000000000e+00  1.957581212749623e-18
-1.099999999999998e-01  0.000000000000000e+00  1.957581212749623e-18
-1.099999999999998e-01  0.000000000000000e+00  1.957581212749623e-18
-1.099999999999998e-01  0.000000000000000e+00  1.957581212749623e-18
-1.099999999999998e-01  0.000000000000000e+00  1.957581212749623e-18
-1.099999999999998e-01  0.000000000000000e+00  1.957581212749623e-18
-1.099999999999998e-01  0.000000000000000e+00  1.957581212749623e-18
-1.099999999999998e-01  0.000000000000000e+00  1.957581212749623e-18
-1.099999999999998e-01  0.000000000000000e+00  1.957581212749623e-18
-1.099999999999998e-01  0.000000000000000e+00  1.957581212749623e-18
-1.099999999999998e-01  0.000000000000000e+00  1.957581212749623e-18
-1.099999999999998e-01  0.000000000000000e+00  1.957581212749623e-18
-1.099999999999998e-01  0.000000000000000e+00  1.957581212749623e-18
-1.099999999999998e-01  0.000000000000000e+00  1.957581212749623e-18
-1.099999999999998e-01  0.000000000000000e+00  1.957581212749623e-18
-1.099999999999998e-01  0.000000000000000e+00  1.957581212749623e-18
-1.099999999999998e-01  0.000000000000000e+00  1.957581212749623e-18
-1.099999999999998e-01  0.000000000000000e+00  1.957581212749623e-18
-1.099999999999998e-01  0.000000000000000e+00  1.957581212749623e-18
-1.099999999999998e-01  0.000000000000000e+00  1.957581212749623e-18
-1.099999999999998e-01  0.000000000000000e+00  1.957581212749623e-18
-1.099999999999998e-01  0.000000000000000e+00  1.957581212749623e-18
-1.099999999999998e-01  0.000000000000000e+00  1.957581212749623e-18
-1.099999999999998e-01  0.000000000000000e+00  1.957581212749623e-18
-1.099999999999998e-01  0.000000000000000e+00  1.957581212749623e-18
-1.099999999999998e-01  0.000000000000000e+00  1.957581212749623e-18
-1.099999999999998e-01  0.000000000000000e+00  1.957581212749623e-18
-1.099999999999998e-01  0.000000000000000e+00  1.957581212749623e-18
-1.099999999999998e-01  0.000000000000000e+00  1.957581212749623e-18
-1.099999999999998e-01  0.000000000000000e+00  1.957581212749623e-18
-1.099999999999998e-01  0.000000000000000e+00  1.957581212749623e-18
-1.099999999999998e-01  0.000000000000000e+00  1.957581212749623e-18
-1.099999999999998e-01  0.000000000000000e+00  1.957581212749623e-18
-1.099999999999998e-01  0.000000000000000e+00  1.957581212749623e-18
-1.099999999999998e-01  0.000000000000000e+00  1.957581212749623e-18
-1.099999999999998e-01  0.000000000000000e+00  1.957581212749623e-18
-1.099999999999998e-01  0.000000000000000e+00  1.957581212749623e-18
-1.099999999999998e-01  0.000000000000000e+00  1.957581212749623e-18
-1.099999999999998e-01  0.000000000000000e+00  1.957581212749623e-18
-1.099999999999998e-01  0.000000000000000e+00  1.957581212749623e-18
-1.099999999999998e-01  0.000000000000000e+00  1.957581212749623e-18
-1.099999999999998e-01  0.000000000000000e+00  1.957581212749623e-18
-1.099999999999998e-01  0.000000000000000e+00  1.957581212749623e-18
-1.099999999999998e-01  0.000000000000000e+00  1.957581212749623e-18
-1.099999999999998e-01  0.000000000000000e+00  1.957581212749623e-18
-1.099999999999998e-01  0.000000000000000e+00  1.957581212749623e-18
-1.099999999999998e-01  0.000000000000000e+00  1.957581212749623e-18
-1.099999999999998e-01  0.000000000000000e+00  1.957581212749623e-18
-1.099999999999998e-01  0.000000000000000e+00  1.957581212749623e-18
-1.099999999999998e-01  0.000000000000000e+00  1.957581212749623e-18
-1.099999999999998e-01  0.000000000000000e+00  1.957581212749623e-18
-1.099999999999998e-01  0.000000000000000e+00  1.957581212749623e-18
-1.099999999999998e-01  0.000000000000000e+00  1.957581212749623e-18
-1.099999999999998e-01  0.000000000000000e+00  1.957581212749623e-18
-1.099999999999998e-01  0.000000000000000e+00  1.957581212749623e-18
-1.099999999999998e-01  0.000000000000000e+00  1.957581212749623e-18
-1.099999999999998e-01  0.000000000000000e+00  1.957581212749623e-18
-1.099999999999998e-01  0.000000000000000e+00  1.957581212749623e-18
-1.099999999999998e-01  0.000000000000000e+00  1.957581212749623e-18
-1.099999999999998e-01  0.000000000000000e+00  1.957581212749623e-18
-1.099999999999998e-01  0.000000000000000e+00  1.957581212749623e-18
-1.099999999999998e-01  0.000000000000000e+00  1.957581212749623e-18
-1.099999999999998e-01  0.000000000000000e+00  1.957581212749623e-18
-1.099999999999998e-01  0.000000000000000e+00  1.957581212749623e-18
-1.099999999999998e-01  0.000000000000000e+00  1.957581212749623e-18
-1.099999999999998e-01  0.000000000000000e+00  1.957581212749623e-18
-1.099999999999998e-01  0.000000000000000e+00  1.957581212749623e-18
-1.099999999999998e-01  0.000000000000000e+00  1.957581212749623e-18
-1.099999999999998e-01  0.000000000000000e+00  1.957581212749623e-18
-1.099999999999998e-01  0.000000000000000e+00  1.957581212749623e-18
-1.099999999999998e-01  0.000000000000000e+00  1.957581212749623e-18
-1.099999999999998e-01  0.000000000000000e+00  1.957581212749623e-18
-1.099999999999998e-01  0.000000000000000e+00  1.957581212749623e-18
-1.099999999999998e-01  0.000000000000000e+00  1.957581212749623e-18
-1.099999999999998e-01  0.000000000000000e+00  1.957581212749623e-18
-1.099999999999998e-01  0.000000000000000e+00  1.957581212749623e-18
-1.099999999999998e-01  0.000000000000000e+00  1.957581212749623e-18
-1.099999999999998e-01  0.000000000000000e+00  1.957581212749623e-18
-1.099999999999998e-01  0.000000000000000e+00  1.957581212749623e-18
-1.099999999999998e-01  0.000000000000000e+00  1.957581212749623e-18
-1.099999999999998e-01  0.000000000000000e+00  1.957581212749623e-18
-1.099999999999998e-01  0.000000000000000e+00  1.957581212749623e-18
-1.099999999999998e-01  0.000000000000000e+00  1.957581212749623e-18
-1.099999999999998e-01  0.000000000000000e+00  1.957581212749623e-18
-1.099999999999998e-01  0.000000000000000e+00  1.957581212749623e-18
-1.099999999999998e-01  0.000000000000000e+00  1.957581212749623e-18
-1.099999999999998e-01  0.000000000000000e+00  1.957581212749623e-18
-1.099999999999998e-01  0.000000000000000e+00  1.957581212749623e-18
-1.099999999999998e-01  0.000000000000000e+00  1.957581212749623e-18
-1.099999999999998e-01  0.000000000000000e+00  1.957581212749623e-18
-1.099999999999998e-01  0.000000000000000e+00  1.957581212749623e-18
-1.099999999999998e-01  0.000000000000000e+00  1.957581212749623e-18
-1.099999999999998e-01  0.000000000000000e+00  1.957581212749623e-18
-1.099999999999998e-01  0.000000000000000e+00  1.957581212749623e-18
-1.099999999999998e-01  0.000000000000000e+00  1.957581212749623e-18
-1.099999999999998e-01  0.000000000000000e+00  1.957581212749623e-18
-1.099999999999998e-01  0.000000000000000e+00  1.957581212749623e-18
-1.099999999999998e-01  0.000000000000000e+00  1.957581212749623e-18
-1.099999999999998e-01  0.000000000000000e+00  1.957581212749623e-18
-1.099999999999998e-01  0.000000000000000e+00  1.957581212749623e-18
-1.099999999999998e-01  0.000000000000000e+00  1.957581212749623e-18
-1.099999999999998e-01  0.000000000000000e+00  1.957581212749623e-18
-1.099999999999998e-01  0.000000000000000e+00  1.957581212749623e-18
-1.099999999999998e-01  0.000000000000000e+00  1.957581212749623e-18
-1.099999999999998e-01  0.000000000000000e+00  1.957581212749623e-18
-1.099999999999998e-01  0.000000000000000e+00  1.957581212749623e-18
-1.099999999999998e-01  0.000000000000000e+00  1.957581212749623e-18
-1.099999999999998e-01  0.000000000000000e+00  1.957581212749623e-18
-1.099999999999998e-01  0.000000000000000e+00  1.957581212749623e-18
-1.099999999999998e-01  0.000000000000000e+00  1.957581212749623e-18
-1.099999999999998e-01  0.000000000000000e+00  1.957581212749623e-18
-1.099999999999998e-01  0.000000000000000e+00  1.957581212749623e-18
-1.099999999999998e-01  0.000000000000000e+00  1.957581212749623e-18
-1.099999999999998e-01  0.000000000000000e+00  1.957581212749623e-18
-1.099999999999998e-01  0.000000000000000e+00  1.957581212749623e-18
-1.099999999999998e-01  0.000000000000000e+00  1.957581212749623e-18
-1.099999999999998e-01  0.000000000000000e+00  1.957581212749623e-18
-1.099999999999998e-01  0.000000000000000e+00  1.957581212749623e-18
-1.099999999999998e-01  0.000000000000000e+00  1.957581212749623e-18
-1.099999999999998e-01  0.000000000000000e+00  1.957581212749623e-18
-1.099999999999998e-01  0.000000000000000e+00  1.957581212749623e-18
-1.099999999999998e-01  0.000000000000000e+00  1.957581212749623e-18
-1.099999999999998e-01  0.000000000000000e+00  1.957581212749623e-18
-1.099999999999998e-01  0.000000000000000e+00  1.957581212749623e-18
-1.099999999999998e-01  0.000000000000000e+00  1.957581212749623e-18
-1.099999999999998e-01  0.000000000000000e+00  1.957581212749623e-18
-1.099999999999998e-01  0.000000000000000e+00  1.957581212749623e-18
-1.099999999999998e-01  0.000000000000000e+00  1.957581212749623e-18
-1.099999999999998e-01  0.000000000000000e+00  1.957581212749623e-18
-1.099999999999998e-01  0.000000000000000e+00  1.957581212749623e-18
-1.099999999999998e-01  0.000000000000000e+00  1.957581212749623e-18
-1.099999999999998e-01  0.000000000000000e+00  1.957581212749623e-18
-1.099999999999998e-01  0.000000000000000e+00  1.957581212749623e-18
-1.099999999999998e-01  0.000000000000000e+00  1.957581212749623e-18
-1.099999999999998e-01  0.000000000000000e+00  1.957581212749623e-18
-1.099999999999998e-01  0.000000000000000e+00  1.957581212749623e-18
-1.099999999999998e-01  0.000000000000000e+00  1.957581212749623e-18
-1.099999999999998e-01  0.000000000000000e+00  1.957581212749623e-18
-1.099999999999998e-01  0.000000000000000e+00  1.957581212749623e-18
-1.099999999999998e-01  0.000000000000000e+00  1.957581212749623e-18
-1.099999999999998e-01  0.000000000000000e+00  1.957581212749623e-18
-1.099999999999998e-01  0.000000000000000e+00  1.957581212749623e-18
-1.099999999999998e-01  0.000000000000000e+00  1.957581212749623e-18
-1.099999999999998e-01  0.000000000000000e+00  1.957581212749623e-18
-1.099999999999998e-01  0.000000000000000e+00  1.957581212749623e-18
-1.099999999999998e-01  0.000000000000000e+00  1.957581212749623e-18
-1.099999999999998e-01  0.000000000000000e+00  1.957581212749623e-18
-1.099999999999998e-01  0.000000000000000e+00  1.957581212749623e-18
-1.099999999999998e-01  0.000000000000000e+00  1.957581212749623e-18
-1.099999999999998e-01  0.000000000000000e+00  1.957581212749623e-18
-1.099999999999998e-01  0.000000000000000e+00  1.957581212749623e-18
-1.099999999999998e-01  0.000000000000000e+00  1.957581212749623e-18
-1.099999999999998e-01  0.000000000000000e+00  1.957581212749623e-18
-1.099999999999998e-01  0.000000000000000e+00  1.957581212749623e-18
-1.099999999999998e-01  0.000000000000000e+00  1.957581212749623e-18
-1.099999999999998e-01  0.000000000000000e+00  1.957581212749623e-18
-1.099999999999998e-01  0.000000000000000e+00  1.957581212749623e-18
-1.099999999999998e-01  0.000000000000000e+00  1.957581212749623e-18
-1.099999999999998e-01  0.000000000000000e+00  1.957581212749623e-18
-1.099999999999998e-01  0.000000000000000e+00  1.957581212749623e-18
-1.099999999999998e-01  0.000000000000000e+00  1.957581212749623e-18
-1.099999999999998e-01  0.000000000000000e+00  1.957581212749623e-18
-1.099999999999998e-01  0.000000000000000e+00  1.957581212749623e-18
-1.099999999999998e-01  0.000000000000000e+00  1.957581212749623e-18
-1.099999999999998e-01  0.000000000000000e+00  1.957581212749623e-18
-1.099999999999998e-01  0.000000000000000e+00  1.957581212749623e-18
-1.099999999999998e-01  0.000000000000000e+00  1.957581212749623e-18
-1.099999999999998e-01  0.000000000000000e+00  1.957581212749623e-18
-1.099999999999998e-01  0.000000000000000e+00  1.957581212749623e-18
-1.099999999999998e-01  0.000000000000000e+00  1.957581212749623e-18
-1.099999999999998e-01  0.000000000000000e+00  1.957581212749623e-18
-1.099999999999998e-01  0.000000000000000e+00  1.957581212749623e-18
-1.099999999999998e-01  0.000000000000000e+00  1.957581212749623e-18
-1.099999999999998e-01  0.000000000000000e+00  1.957581212749623e-18
-1.099999999999998e-01  0.000000000000000e+00  1.957581212749623e-18
-1.099999999999998e-01  0.000000000000000e+00  1.957581212749623e-18
-1.099999999999998e-01  0.000000000000000e+00  1.957581212749623e-18
-1.099999999999998e-01  0.000000000000000e+00  1.957581212749623e-18
-1.099999999999998e-01  0.000000000000000e+00  1.957581212749623e-18
-1.099999999999998e-01  0.000000000000000e+00  1.957581212749623e-18
-1.099999999999998e-01  0.000000000000000e+00  1.957581212749623e-18
-1.099999999999998e-01  0.000000000000000e+00  1.957581212749623e-18
-1.099999999999998e-01  0.000000000000000e+00  1.957581212749623e-18
-1.099999999999998e-01  0.000000000000000e+00  1.957581212749623e-18
-1.099999999999998e-01  0.000000000000000e+00  1.957581212749623e-18
-1.099999999999998e-01  0.000000000000000e+00  1.957581212749623e-18
-1.099999999999998e-01  0.000000000000000e+00  1.957581212749623e-18
-1.099999999999998e-01  0.000000000000000e+00  1.957581212749623e-18
-1.099999999999998e-01  0.000000000000000e+00  1.957581212749623e-18
-1.099999999999998e-01  0.000000000000000e+00  1.957581212749623e-18
-1.099999999999998e-01  0.000000000000000e+00  1.957581212749623e-18
-1.099999999999998e-01  0.000000000000000e+00  1.957581212749623e-18
-1.099999999999998e-01  0.000000000000000e+00  1.957581212749623e-18
-1.099999999999998e-01  0.000000000000000e+00  1.957581212749623e-18
-1.099999999999998e-01  0.000000000000000e+00  1.957581212749623e-18
-1.099999999999998e-01  0.000000000000000e+00  1.957581212749623e-18
-1.099999999999998e-01  0.000000000000000e+00  1.957581212749623e-18
-1.099999999999998e-01  0.000000000000000e+00  1.957581212749623e-18
-1.099999999999998e-01  0.000000000000000e+00  1.957581212749623e-18
-1.099999999999998e-01  0.000000000000000e+00  1.957581212749623e-18
-1.099999999999998e-01  0.000000000000000e+00  1.957581212749623e-18
-1.099999999999998e-01  0.000000000000000e+00  1.957581212749623e-18
-1.099999999999998e-01  0.000000000000000e+00  1.957581212749623e-18
-1.099999999999998e-01  0.000000000000000e+00  1.957581212749623e-18
-1.099999999999998e-01  0.000000000000000e+00  1.957581212749623e-18
-1.099999999999998e-01  0.000000000000000e+00  1.957581212749623e-18
-1.099999999999998e-01  0.000000000000000e+00  1.957581212749623e-18
-1.099999999999998e-01  0.000000000000000e+00  1.957581212749623e-18
-1.099999999999998e-01  0.000000000000000e+00  1.957581212749623e-18
-1.099999999999998e-01  0.000000000000000e+00  1.957581212749623e-18
-1.099999999999998e-01  0.000000000000000e+00  1.957581212749623e-18
-1.099999999999998e-01  0.000000000000000e+00  1.957581212749623e-18
-1.099999999999998e-01  0.000000000000000e+00  1.957581212749623e-18
-1.099999999999998e-01  0.000000000000000e+00  1.957581212749623e-18
-1.099999999999998e-01  0.000000000000000e+00  1.957581212749623e-18
-1.099999999999998e-01  0.000000000000000e+00  1.957581212749623e-18
-1.099999999999998e-01  0.000000000000000e+00  1.957581212749623e-18
-1.099999999999998e-01  0.000000000000000e+00  1.957581212749623e-18
-1.099999999999998e-01  0.000000000000000e+00  1.957581212749623e-18
-1.099999999999998e-01  0.000000000000000e+00  1.957581212749623e-18
-1.099999999999998e-01  0.000000000000000e+00  1.957581212749623e-18
-1.099999999999998e-01  0.000000000000000e+00  1.957581212749623e-18
-1.099999999999998e-01  0.000000000000000e+00  1.957581212749623e-18
-1.099999999999998e-01  0.000000000000000e+00  1.957581212749623e-18
-1.099999999999998e-01  0.000000000000000e+00  1.957581212749623e-18
-1.099999999999998e-01  0.000000000000000e+00  1.957581212749623e-18
-1.099999999999998e-01  0.000000000000000e+00  1.957581212749623e-18
-1.099999999999998e-01  0.000000000000000e+00  1.957581212749623e-18
-1.099999999999998e-01  0.000000000000000e+00  1.957581212749623e-18
-1.099999999999998e-01  0.000000000000000e+00  1.957581212749623e-18
-1.099999999999998e-01  0.000000000000000e+00  1.957581212749623e-18
-1.099999999999998e-01  0.000000000000000e+00  1.957581212749623e-18
-1.099999999999998e-01  0.000000000000000e+00  1.957581212749623e-18
-1.099999999999998e-01  0.000000000000000e+00  1.957581212749623e-18
-1.099999999999998e-01  0.000000000000000e+00  1.957581212749623e-18
-1.099999999999998e-01  0.000000000000000e+00  1.957581212749623e-18
-1.099999999999998e-01  0.000000000000000e+00  1.957581212749623e-18
-1.099999999999998e-01  0.000000000000000e+00  1.957581212749623e-18
-1.099999999999998e-01  0.000000000000000e+00  1.957581212749623e-18
-1.099999999999998e-01  0.000000000000000e+00  1.957581212749623e-18
-1.099999999999998e-01  0.000000000000000e+00  1.957581212749623e-18
-1.099999999999998e-01  0.000000000000000e+00  1.957581212749623e-18
-1.099999999999998e-01  0.000000000000000e+00  1.957581212749623e-18
-1.099999999999998e-01  0.000000000000000e+00  1.957581212749623e-18
-1.099999999999998e-01  0.000000000000000e+00  1.957581212749623e-18
-1.099999999999998e-01  0.000000000000000e+00  1.957581212749623e-18
-1.099999999999998e-01  0.000000000000000e+00  1.957581212749623e-18
-1.099999999999998e-01  0.000000000000000e+00  1.957581212749623e-18
-1.099999999999998e-01  0.000000000000000e+00  1.957581212749623e-18
-1.099999999999998e-01  0.000000000000000e+00  1.957581212749623e-18
-1.099999999999998e-01  0.000000000000000e+00  1.957581212749623e-18
-1.099999999999998e-01  0.000000000000000e+00  1.957581212749623e-18
-1.099999999999998e-01  0.000000000000000e+00  1.957581212749623e-18
-1.099999999999998e-01  0.000000000000000e+00  1.957581212749623e-18
-1.099999999999998e-01  0.000000000000000e+00  1.957581212749623e-18
-1.099999999999998e-01  0.000000000000000e+00  1.957581212749623e-18
-1.099999999999998e-01  0.000000000000000e+00  1.957581212749623e-18
-1.099999999999998e-01  0.000000000000000e+00  1.957581212749623e-18
-1.099999999999998e-01  0.000000000000000e+00  1.957581212749623e-18
-1.099999999999998e-01  0.000000000000000e+00  1.957581212749623e-18
-1.099999999999998e-01  0.000000000000000e+00  1.957581212749623e-18
-1.099999999999998e-01  0.000000000000000e+00  1.957581212749623e-18
-1.099999999999998e-01  0.000000000000000e+00  1.957581212749623e-18
-1.099999999999998e-01  0.000000000000000e+00  1.957581212749623e-18
-1.099999999999998e-01  0.000000000000000e+00  1.957581212749623e-18
-1.099999999999998e-01  0.000000000000000e+00  1.957581212749623e-18
-1.099999999999998e-01  0.000000000000000e+00  1.957581212749623e-18
-1.099999999999998e-01  0.000000000000000e+00  1.957581212749623e-18
-1.099999999999998e-01  0.000000000000000e+00  1.957581212749623e-18
-1.099999999999998e-01  0.000000000000000e+00  1.957581212749623e-18
-1.099999999999998e-01  0.000000000000000e+00  1.957581212749623e-18
-1.099999999999998e-01  0.000000000000000e+00  1.957581212749623e-18
-1.099999999999998e-01  0.000000000000000e+00  1.957581212749623e-18
-1.099999999999998e-01  0.000000000000000e+00  1.957581212749623e-18
-1.099999999999998e-01  0.000000000000000e+00  1.957581212749623e-18
-1.099999999999998e-01  0.000000000000000e+00  1.957581212749623e-18
-1.099999999999998e-01  0.000000000000000e+00  1.957581212749623e-18
-1.099999999999998e-01  0.000000000000000e+00  1.957581212749623e-18
-1.099999999999998e-01  0.000000000000000e+00  1.957581212749623e-18
-1.099999999999998e-01  0.000000000000000e+00  1.957581212749623e-18
-1.099999999999998e-01  0.000000000000000e+00  1.957581212749623e-18
-1.099999999999998e-01  0.000000000000000e+00  1.957581212749623e-18
-1.099999999999998e-01  0.000000000000000e+00  1.957581212749623e-18
-1.099999999999998e-01  0.000000000000000e+00  1.957581212749623e-18
-1.099999999999998e-01  0.000000000000000e+00  1.957581212749623e-18
-1.099999999999998e-01  0.000000000000000e+00  1.957581212749623e-18
-1.099999999999998e-01  0.000000000000000e+00  1.957581212749623e-18
-1.099999999999998e-01  0.000000000000000e+00  1.957581212749623e-18
-1.099999999999998e-01  0.000000000000000e+00  1.957581212749623e-18
-1.099999999999998e-01  0.000000000000000e+00  1.957581212749623e-18
-1.099999999999998e-01  0.000000000000000e+00  1.957581212749623e-18
-1.099999999999998e-01  0.000000000000000e+00  1.957581212749623e-18
-1.099999999999998e-01  0.000000000000000e+00  1.957581212749623e-18
-1.099999999999998e-01  0.000000000000000e+00  1.957581212749623e-18
-1.099999999999998e-01  0.000000000000000e+00  1.957581212749623e-18
-1.099999999999998e-01  0.000000000000000e+00  1.957581212749623e-18
-1.099999999999998e-01  0.000000000000000e+00  1.957581212749623e-18
-1.099999999999998e-01  0.000000000000000e+00  1.957581212749623e-18
-1.099999999999998e-01  0.000000000000000e+00  1.957581212749623e-18
-1.099999999999998e-01  0.000000000000000e+00  1.957581212749623e-18
-1.099999999999998e-01  0.000000000000000e+00  1.957581212749623e-18
-1.099999999999998e-01  0.000000000000000e+00  1.957581212749623e-18
-1.099999999999998e-01  0.000000000000000e+00  1.957581212749623e-18
-1.099999999999998e-01  0.000000000000000e+00  1.957581212749623e-18
-1.099999999999998e-01  0.000000000000000e+00  1.957581212749623e-18
-1.099999999999998e-01  0.000000000000000e+00  1.957581212749623e-18
-1.099999999999998e-01  0.000000000000000e+00  1.957581212749623e-18
-1.099999999999998e-01  0.000000000000000e+00  1.957581212749623e-18
-1.099999999999998e-01  0.000000000000000e+00  1.957581212749623e-18
-1.099999999999998e-01  0.000000000000000e+00  1.957581212749623e-18
-1.099999999999998e-01  0.000000000000000e+00  1.957581212749623e-18
-1.099999999999998e-01  0.000000000000000e+00  1.957581212749623e-18
-1.099999999999998e-01  0.000000000000000e+00  1.957581212749623e-18
-1.099999999999998e-01  0.000000000000000e+00  1.957581212749623e-18
-1.099999999999998e-01  0.000000000000000e+00  1.957581212749623e-18
-1.099999999999998e-01  0.000000000000000e+00  1.957581212749623e-18
-1.099999999999998e-01  0.000000000000000e+00  1.957581212749623e-18
-1.099999999999998e-01  0.000000000000000e+00  1.957581212749623e-18
-1.099999999999998e-01  0.000000000000000e+00  1.957581212749623e-18
-1.099999999999998e-01  0.000000000000000e+00  1.957581212749623e-18
-1.099999999999998e-01  0.000000000000000e+00  1.957581212749623e-18
-1.099999999999998e-01  0.000000000000000e+00  1.957581212749623e-18
-1.099999999999998e-01  0.000000000000000e+00  1.957581212749623e-18
-1.099999999999998e-01  0.000000000000000e+00  1.957581212749623e-18
-1.099999999999998e-01  0.000000000000000e+00  1.957581212749623e-18
-1.099999999999998e-01  0.000000000000000e+00  1.957581212749623e-18
-1.099999999999998e-01  0.000000000000000e+00  1.957581212749623e-18
-1.099999999999998e-01  0.000000000000000e+00  1.957581212749623e-18
-1.099999999999998e-01  0.000000000000000e+00  1.957581212749623e-18
-1.099999999999998e-01  0.000000000000000e+00  1.957581212749623e-18
-1.099999999999998e-01  0.000000000000000e+00  1.957581212749623e-18
-1.099999999999998e-01  0.000000000000000e+00  1.957581212749623e-18
-1.099999999999998e-01  0.000000000000000e+00  1.957581212749623e-18
-1.099999999999998e-01  0.000000000000000e+00  1.957581212749623e-18
-1.099999999999998e-01  0.000000000000000e+00  1.957581212749623e-18
-1.099999999999998e-01  0.000000000000000e+00  1.957581212749623e-18
-1.099999999999998e-01  0.000000000000000e+00  1.957581212749623e-18
-1.099999999999998e-01  0.000000000000000e+00  1.957581212749623e-18
-1.099999999999998e-01  0.000000000000000e+00  1.957581212749623e-18
-1.099999999999998e-01  0.000000000000000e+00  1.957581212749623e-18
-1.099999999999998e-01  0.000000000000000e+00  1.957581212749623e-18
-1.099999999999998e-01  0.000000000000000e+00  1.957581212749623e-18
-1.099999999999998e-01  0.000000000000000e+00  1.957581212749623e-18
-1.099999999999998e-01  0.000000000000000e+00  1.957581212749623e-18
-1.099999999999998e-01  0.000000000000000e+00  1.957581212749623e-18
-1.099999999999998e-01  0.000000000000000e+00  1.957581212749623e-18
-1.099999999999998e-01  0.000000000000000e+00  1.957581212749623e-18
-1.099999999999998e-01  0.000000000000000e+00  1.957581212749623e-18
-1.099999999999998e-01  0.000000000000000e+00  1.957581212749623e-18
-1.099999999999998e-01  0.000000000000000e+00  1.957581212749623e-18
-1.099999999999998e-01  0.000000000000000e+00  1.957581212749623e-18
-1.099999999999998e-01  0.000000000000000e+00  1.957581212749623e-18
-1.099999999999998e-01  0.000000000000000e+00  1.957581212749623e-18
-1.099999999999998e-01  0.000000000000000e+00  1.957581212749623e-18
-1.099999999999998e-01  0.000000000000000e+00  1.957581212749623e-18
-1.099999999999998e-01  0.000000000000000e+00  1.957581212749623e-18
-1.099999999999998e-01  0.000000000000000e+00  1.957581212749623e-18
-1.099999999999998e-01  0.000000000000000e+00  1.957581212749623e-18
-1.099999999999998e-01  0.000000000000000e+00  1.957581212749623e-18
-1.099999999999998e-01  0.000000000000000e+00  1.957581212749623e-18
-1.099999999999998e-01  0.000000000000000e+00  1.957581212749623e-18
-1.099999999999998e-01  0.000000000000000e+00  1.957581212749623e-18
-1.099999999999998e-01  0.000000000000000e+00  1.957581212749623e-18
-1.099999999999998e-01  0.000000000000000e+00  1.957581212749623e-18
-1.099999999999998e-01  0.000000000000000e+00  1.957581212749623e-18
-1.099999999999998e-01  0.000000000000000e+00  1.957581212749623e-18
-1.099999999999998e-01  0.000000000000000e+00  1.957581212749623e-18
-1.099999999999998e-01  0.000000000000000e+00  1.957581212749623e-18
-1.099999999999998e-01  0.000000000000000e+00  1.957581212749623e-18
-1.099999999999998e-01  0.000000000000000e+00  1.957581212749623e-18
-1.099999999999998e-01  0.000000000000000e+00  1.957581212749623e-18
-1.099999999999998e-01  0.000000000000000e+00  1.957581212749623e-18
-1.099999999999998e-01  0.000000000000000e+00  1.957581212749623e-18
-1.099999999999998e-01  0.000000000000000e+00  1.957581212749623e-18
-1.099999999999998e-01  0.000000000000000e+00  1.957581212749623e-18
-1.099999999999998e-01  0.000000000000000e+00  1.957581212749623e-18
-1.099999999999998e-01  0.000000000000000e+00  1.957581212749623e-18
-1.099999999999998e-01  0.000000000000000e+00  1.957581212749623e-18
-1.099999999999998e-01  0.000000000000000e+00  1.957581212749623e-18
-1.099999999999998e-01  0.000000000000000e+00  1.957581212749623e-18
-1.099999999999998e-01  0.000000000000000e+00  1.957581212749623e-18
-1.099999999999998e-01  0.000000000000000e+00  1.957581212749623e-18
-1.099999999999998e-01  0.000000000000000e+00  1.957581212749623e-18
-1.099999999999998e-01  0.000000000000000e+00  1.957581212749623e-18
-1.099999999999998e-01  0.000000000000000e+00  1.957581212749623e-18
-1.099999999999998e-01  0.000000000000000e+00  1.957581212749623e-18
-1.099999999999998e-01  0.000000000000000e+00  1.957581212749623e-18
-1.099999999999998e-01  0.000000000000000e+00  1.957581212749623e-18
-1.099999999999998e-01  0.000000000000000e+00  1.957581212749623e-18
-1.099999999999998e-01  0.000000000000000e+00  1.957581212749623e-18
-1.099999999999998e-01  0.000000000000000e+00  1.957581212749623e-18
-1.099999999999998e-01  0.000000000000000e+00  1.957581212749623e-18
-1.099999999999998e-01  0.000000000000000e+00  1.957581212749623e-18
-1.099999999999998e-01  0.000000000000000e+00  1.957581212749623e-18
-1.099999999999998e-01  0.000000000000000e+00  1.957581212749623e-18
-1.099999999999998e-01  0.000000000000000e+00  1.957581212749623e-18
-1.099999999999998e-01  0.000000000000000e+00  1.957581212749623e-18
-1.099999999999998e-01  0.000000000000000e+00  1.957581212749623e-18
-1.099999999999998e-01  0.000000000000000e+00  1.957581212749623e-18
-1.099999999999998e-01  0.000000000000000e+00  1.957581212749623e-18
-1.099999999999998e-01  0.000000000000000e+00  1.957581212749623e-18
-1.099999999999998e-01  0.000000000000000e+00  1.957581212749623e-18
-1.099999999999998e-01  0.000000000000000e+00  1.957581212749623e-18
-1.099999999999998e-01  0.000000000000000e+00  1.957581212749623e-18
-1.099999999999998e-01  0.000000000000000e+00  1.957581212749623e-18
-1.099999999999998e-01  0.000000000000000e+00  1.957581212749623e-18
-1.099999999999998e-01  0.000000000000000e+00  1.957581212749623e-18
-1.099999999999998e-01  0.000000000000000e+00  1.957581212749623e-18
-1.099999999999998e-01  0.000000000000000e+00  1.957581212749623e-18
-1.099999999999998e-01  0.000000000000000e+00  1.957581212749623e-18
-1.099999999999998e-01  0.000000000000000e+00  1.957581212749623e-18
-1.099999999999998e-01  0.000000000000000e+00  1.957581212749623e-18
-1.099999999999998e-01  0.000000000000000e+00  1.957581212749623e-18
-1.099999999999998e-01  0.000000000000000e+00  1.957581212749623e-18
-1.099999999999998e-01  0.000000000000000e+00  1.957581212749623e-18
-1.099999999999998e-01  0.000000000000000e+00  1.957581212749623e-18
-1.099999999999998e-01  0.000000000000000e+00  1.957581212749623e-18
-1.099999999999998e-01  0.000000000000000e+00  1.957581212749623e-18
-1.099999999999998e-01  0.000000000000000e+00  1.957581212749623e-18
-1.099999999999998e-01  0.000000000000000e+00  1.957581212749623e-18
-1.099999999999998e-01  0.000000000000000e+00  1.957581212749623e-18
-1.099999999999998e-01  0.000000000000000e+00  1.957581212749623e-18
-1.099999999999998e-01  0.000000000000000e+00  1.957581212749623e-18
-1.099999999999998e-01  0.000000000000000e+00  1.957581212749623e-18
-1.099999999999998e-01  0.000000000000000e+00  1.957581212749623e-18
-1.099999999999998e-01  0.000000000000000e+00  1.957581212749623e-18
-1.099999999999998e-01  0.000000000000000e+00  1.957581212749623e-18
-1.099999999999998e-01  0.000000000000000e+00  1.957581212749623e-18
-1.099999999999998e-01  0.000000000000000e+00  1.957581212749623e-18
-1.099999999999998e-01  0.000000000000000e+00  1.957581212749623e-18
-1.099999999999998e-01  0.000000000000000e+00  1.957581212749623e-18
-1.099999999999998e-01  0.000000000000000e+00  1.957581212749623e-18
-1.099999999999998e-01  0.000000000000000e+00  1.957581212749623e-18
-1.099999999999998e-01  0.000000000000000e+00  1.957581212749623e-18
-1.099999999999998e-01  0.000000000000000e+00  1.957581212749623e-18
-1.099999999999998e-01  0.000000000000000e+00  1.957581212749623e-18
-1.099999999999998e-01  0.000000000000000e+00  1.957581212749623e-18
-1.099999999999998e-01  0.000000000000000e+00  1.957581212749623e-18
-1.099999999999998e-01  0.000000000000000e+00  1.957581212749623e-18
-1.099999999999998e-01  0.000000000000000e+00  1.957581212749623e-18
-1.099999999999998e-01  0.000000000000000e+00  1.957581212749623e-18
-1.099999999999998e-01  0.000000000000000e+00  1.957581212749623e-18
-1.099999999999998e-01  0.000000000000000e+00  1.957581212749623e-18
-1.099999999999998e-01  0.000000000000000e+00  1.957581212749623e-18
-1.099999999999998e-01  0.000000000000000e+00  1.957581212749623e-18
-1.099999999999998e-01  0.000000000000000e+00  1.957581212749623e-18
-1.099999999999998e-01  0.000000000000000e+00  1.957581212749623e-18
-1.099999999999998e-01  0.000000000000000e+00  1.957581212749623e-18
-1.099999999999998e-01  0.000000000000000e+00  1.957581212749623e-18
-1.099999999999998e-01  0.000000000000000e+00  1.957581212749623e-18
-1.099999999999998e-01  0.000000000000000e+00  1.957581212749623e-18
-1.099999999999998e-01  0.000000000000000e+00  1.957581212749623e-18
-1.099999999999998e-01  0.000000000000000e+00  1.957581212749623e-18
-1.099999999999998e-01  0.000000000000000e+00  1.957581212749623e-18
-1.099999999999998e-01  0.000000000000000e+00  1.957581212749623e-18
-1.099999999999998e-01  0.000000000000000e+00  1.957581212749623e-18
-1.099999999999998e-01  0.000000000000000e+00  1.957581212749623e-18
-1.099999999999998e-01  0.000000000000000e+00  1.957581212749623e-18
-1.099999999999998e-01  0.000000000000000e+00  1.957581212749623e-18
-1.099999999999998e-01  0.000000000000000e+00  1.957581212749623e-18
-1.099999999999998e-01  0.000000000000000e+00  1.957581212749623e-18
-1.099999999999998e-01  0.000000000000000e+00  1.957581212749623e-18
-1.099999999999998e-01  0.000000000000000e+00  1.957581212749623e-18
-1.099999999999998e-01  0.000000000000000e+00  1.957581212749623e-18
-1.099999999999998e-01  0.000000000000000e+00  1.957581212749623e-18
-1.099999999999998e-01  0.000000000000000e+00  1.957581212749623e-18
-1.099999999999998e-01  0.000000000000000e+00  1.957581212749623e-18
-1.099999999999998e-01  0.000000000000000e+00  1.957581212749623e-18
-1.099999999999998e-01  0.000000000000000e+00  1.957581212749623e-18
-1.099999999999998e-01  0.000000000000000e+00  1.957581212749623e-18
-1.099999999999998e-01  0.000000000000000e+00  1.957581212749623e-18
-1.099999999999998e-01  0.000000000000000e+00  1.957581212749623e-18
-1.099999999999998e-01  0.000000000000000e+00  1.957581212749623e-18
-1.099999999999998e-01  0.000000000000000e+00  1.957581212749623e-18
-1.099999999999998e-01  0.000000000000000e+00  1.957581212749623e-18
-1.099999999999998e-01  0.000000000000000e+00  1.957581212749623e-18
-1.099999999999998e-01  0.000000000000000e+00  1.957581212749623e-18
-1.099999999999998e-01  0.000000000000000e+00  1.957581212749623e-18
-1.099999999999998e-01  0.000000000000000e+00  1.957581212749623e-18
-1.099999999999998e-01  0.000000000000000e+00  1.957581212749623e-18
-1.099999999999998e-01  0.000000000000000e+00  1.957581212749623e-18
-1.099999999999998e-01  0.000000000000000e+00  1.957581212749623e-18
-1.099999999999998e-01  0.000000000000000e+00  1.957581212749623e-18
-1.099999999999998e-01  0.000000000000000e+00  1.957581212749623e-18
-1.099999999999998e-01  0.000000000000000e+00  1.957581212749623e-18
-1.099999999999998e-01  0.000000000000000e+00  1.957581212749623e-18
-1.099999999999998e-01  0.000000000000000e+00  1.957581212749623e-18
-1.099999999999998e-01  0.000000000000000e+00  1.957581212749623e-18
-1.099999999999998e-01  0.000000000000000e+00  1.957581212749623e-18
-1.099999999999998e-01  0.000000000000000e+00  1.957581212749623e-18
-1.099999999999998e-01  0.000000000000000e+00  1.957581212749623e-18
-1.099999999999998e-01  0.000000000000000e+00  1.957581212749623e-18
-1.099999999999998e-01  0.000000000000000e+00  1.957581212749623e-18
-1.099999999999998e-01  0.000000000000000e+00  1.957581212749623e-18
-1.099999999999998e-01  0.000000000000000e+00  1.957581212749623e-18
-1.099999999999998e-01  0.000000000000000e+00  1.957581212749623e-18
-1.099999999999998e-01  0.000000000000000e+00  1.957581212749623e-18
-1.099999999999998e-01  0.000000000000000e+00  1.957581212749623e-18
-1.099999999999998e-01  0.000000000000000e+00  1.957581212749623e-18
-1.099999999999998e-01  0.000000000000000e+00  1.957581212749623e-18
-1.099999999999998e-01  0.000000000000000e+00  1.957581212749623e-18
-1.099999999999998e-01  0.000000000000000e+00  1.957581212749623e-18
-1.099999999999998e-01  0.000000000000000e+00  1.957581212749623e-18
-1.099999999999998e-01  0.000000000000000e+00  1.957581212749623e-18
-1.099999999999998e-01  0.000000000000000e+00  1.957581212749623e-18
-1.099999999999998e-01  0.000000000000000e+00  1.957581212749623e-18
-1.099999999999998e-01  0.000000000000000e+00  1.957581212749623e-18
-1.099999999999998e-01  0.000000000000000e+00  1.957581212749623e-18
-1.099999999999998e-01  0.000000000000000e+00  1.957581212749623e-18
-1.099999999999998e-01  0.000000000000000e+00  1.957581212749623e-18
-1.099999999999998e-01  0.000000000000000e+00  1.957581212749623e-18
-1.099999999999998e-01  0.000000000000000e+00  1.957581212749623e-18
-1.099999999999998e-01  0.000000000000000e+00  1.957581212749623e-18
-1.099999999999998e-01  0.000000000000000e+00  1.957581212749623e-18
-1.099999999999998e-01  0.000000000000000e+00  1.957581212749623e-18
-1.099999999999998e-01  0.000000000000000e+00  1.957581212749623e-18
-1.099999999999998e-01  0.000000000000000e+00  1.957581212749623e-18
-1.099999999999998e-01  0.000000000000000e+00  1.957581212749623e-18
-1.099999999999998e-01  0.000000000000000e+00  1.957581212749623e-18
-1.099999999999998e-01  0.000000000000000e+00  1.957581212749623e-18
-1.099999999999998e-01  0.000000000000000e+00  1.957581212749623e-18
-1.099999999999998e-01  0.000000000000000e+00  1.957581212749623e-18
-1.099999999999998e-01  0.000000000000000e+00  1.957581212749623e-18
-1.099999999999998e-01  0.000000000000000e+00  1.957581212749623e-18
-1.099999999999998e-01  0.000000000000000e+00  1.957581212749623e-18
-1.099999999999998e-01  0.000000000000000e+00  1.957581212749623e-18
-1.099999999999998e-01  0.000000000000000e+00  1.957581212749623e-18
-1.099999999999998e-01  0.000000000000000e+00  1.957581212749623e-18
-1.099999999999998e-01  0.000000000000000e+00  1.957581212749623e-18
-1.099999999999998e-01  0.000000000000000e+00  1.957581212749623e-18
-1.099999999999998e-01  0.000000000000000e+00  1.957581212749623e-18
-1.099999999999998e-01  0.000000000000000e+00  1.957581212749623e-18
-1.099999999999998e-01  0.000000000000000e+00  1.957581212749623e-18
-1.099999999999998e-01  0.000000000000000e+00  1.957581212749623e-18
-1.099999999999998e-01  0.000000000000000e+00  1.957581212749623e-18
-1.099999999999998e-01  0.000000000000000e+00  1.957581212749623e-18
-1.099999999999998e-01  0.000000000000000e+00  1.957581212749623e-18
-1.099999999999998e-01  0.000000000000000e+00  1.957581212749623e-18
-1.099999999999998e-01  0.000000000000000e+00  1.957581212749623e-18
-1.099999999999998e-01  0.000000000000000e+00  1.957581212749623e-18
-1.099999999999998e-01  0.000000000000000e+00  1.957581212749623e-18
-1.099999999999998e-01  0.000000000000000e+00  1.957581212749623e-18
-1.099999999999998e-01  0.000000000000000e+00  1.957581212749623e-18
-1.099999999999998e-01  0.000000000000000e+00  1.957581212749623e-18
-1.099999999999998e-01  0.000000000000000e+00  1.957581212749623e-18
-1.099999999999998e-01  0.000000000000000e+00  1.957581212749623e-18
-1.099999999999998e-01  0.000000000000000e+00  1.957581212749623e-18
-1.099999999999998e-01  0.000000000000000e+00  1.957581212749623e-18
-1.099999999999998e-01  0.000000000000000e+00  1.957581212749623e-18
-1.099999999999998e-01  0.000000000000000e+00  1.957581212749623e-18
-1.099999999999998e-01  0.000000000000000e+00  1.957581212749623e-18
-1.099999999999998e-01  0.000000000000000e+00  1.957581212749623e-18
-1.099999999999998e-01  0.000000000000000e+00  1.957581212749623e-18
-1.099999999999998e-01  0.000000000000000e+00  1.957581212749623e-18
-1.099999999999998e-01  0.000000000000000e+00  1.957581212749623e-18
-1.099999999999998e-01  0.000000000000000e+00  1.957581212749623e-18
-1.099999999999998e-01  0.000000000000000e+00  1.957581212749623e-18
-1.099999999999998e-01  0.000000000000000e+00  1.957581212749623e-18
-1.099999999999998e-01  0.000000000000000e+00  1.957581212749623e-18
-1.099999999999998e-01  0.000000000000000e+00  1.957581212749623e-18
-1.099999999999998e-01  0.000000000000000e+00  1.957581212749623e-18
-1.099999999999998e-01  0.000000000000000e+00  1.957581212749623e-18
-1.099999999999998e-01  0.000000000000000e+00  1.957581212749623e-18
-1.099999999999998e-01  0.000000000000000e+00  1.957581212749623e-18
-1.099999999999998e-01  0.000000000000000e+00  1.957581212749623e-18
-1.099999999999998e-01  0.000000000000000e+00  1.957581212749623e-18
-1.099999999999998e-01  0.000000000000000e+00  1.957581212749623e-18
-1.099999999999998e-01  0.000000000000000e+00  1.957581212749623e-18
-1.099999999999998e-01  0.000000000000000e+00  1.957581212749623e-18
-1.099999999999998e-01  0.000000000000000e+00  1.957581212749623e-18
-1.099999999999998e-01  0.000000000000000e+00  1.957581212749623e-18
-1.099999999999998e-01  0.000000000000000e+00  1.957581212749623e-18
-1.099999999999998e-01  0.000000000000000e+00  1.957581212749623e-18
-1.099999999999998e-01  0.000000000000000e+00  1.957581212749623e-18
-1.099999999999998e-01  0.000000000000000e+00  1.957581212749623e-18
-1.099999999999998e-01  0.000000000000000e+00  1.957581212749623e-18
-1.099999999999998e-01  0.000000000000000e+00  1.957581212749623e-18
-1.099999999999998e-01  0.000000000000000e+00  1.957581212749623e-18
-1.099999999999998e-01  0.000000000000000e+00  1.957581212749623e-18
-1.099999999999998e-01  0.000000000000000e+00  1.957581212749623e-18
-1.099999999999998e-01  0.000000000000000e+00  1.957581212749623e-18
-1.099999999999998e-01  0.000000000000000e+00  1.957581212749623e-18
-1.099999999999998e-01  0.000000000000000e+00  1.957581212749623e-18
-1.099999999999998e-01  0.000000000000000e+00  1.957581212749623e-18
-1.099999999999998e-01  0.000000000000000e+00  1.957581212749623e-18
-1.099999999999998e-01  0.000000000000000e+00  1.957581212749623e-18
-1.099999999999998e-01  0.000000000000000e+00  1.957581212749623e-18
-1.099999999999998e-01  0.000000000000000e+00  1.957581212749623e-18
-1.099999999999998e-01  0.000000000000000e+00  1.957581212749623e-18
-1.099999999999998e-01  0.000000000000000e+00  1.957581212749623e-18
-1.099999999999998e-01  0.000000000000000e+00  1.957581212749623e-18
-1.099999999999998e-01  0.000000000000000e+00  1.957581212749623e-18
-1.099999999999998e-01  0.000000000000000e+00  1.957581212749623e-18
-1.099999999999998e-01  0.000000000000000e+00  1.957581212749623e-18
-1.099999999999998e-01  0.000000000000000e+00  1.957581212749623e-18
-1.099999999999998e-01  0.000000000000000e+00  1.957581212749623e-18
-1.099999999999998e-01  0.000000000000000e+00  1.957581212749623e-18
-1.099999999999998e-01  0.000000000000000e+00  1.957581212749623e-18
-1.099999999999998e-01  0.000000000000000e+00  1.957581212749623e-18
-1.099999999999998e-01  0.000000000000000e+00  1.957581212749623e-18
-1.099999999999998e-01  0.000000000000000e+00  1.957581212749623e-18
-1.099999999999998e-01  0.000000000000000e+00  1.957581212749623e-18
-1.099999999999998e-01  0.000000000000000e+00  1.957581212749623e-18
-1.099999999999998e-01  0.000000000000000e+00  1.957581212749623e-18
-1.099999999999998e-01  0.000000000000000e+00  1.957581212749623e-18
-1.099999999999998e-01  0.000000000000000e+00  1.957581212749623e-18
-1.099999999999998e-01  0.000000000000000e+00  1.957581212749623e-18
-1.099999999999998e-01  0.000000000000000e+00  1.957581212749623e-18
-1.099999999999998e-01  0.000000000000000e+00  1.957581212749623e-18

TENSORS stress double
0.000000000000000e+00 0.000000000000000e+00 0.000000000000000e+00
0.000000000000000e+00 0.000000000000000e+00 0.000000000000000e+00
0.000000000000000e+00 0.000000000000000e+00 0.000000000000000e+00

0.000000000000000e+00 0.000000000000000e+00 0.000000000000000e+00
0.000000000000000e+00 0.000000000000000e+00 0.000000000000000e+00
0.000000000000000e+00 0.000000000000000e+00 0.000000000000000e+00

0.000000000000000e+00 0.000000000000000e+00 0.000000000000000e+00
0.000000000000000e+00 0.000000000000000e+00 0.000000000000000e+00
0.000000000000000e+00 0.000000000000000e+00 0.000000000000000e+00

0.000000000000000e+00 0.000000000000000e+00 0.000000000000000e+00
0.000000000000000e+00 0.000000000000000e+00 0.000000000000000e+00
0.000000000000000e+00 0.000000000000000e+00 0.000000000000000e+00

0.000000000000000e+00 0.000000000000000e+00 0.000000000000000e+00
0.000000000000000e+00 0.000000000000000e+00 0.000000000000000e+00
0.000000000000000e+00 0.000000000000000e+00 0.000000000000000e+00

0.000000000000000e+00 0.000000000000000e+00 0.000000000000000e+00
0.000000000000000e+00 0.000000000000000e+00 0.000000000000000e+00
0.000000000000000e+00 0.000000000000000e+00 0.000000000000000e+00

0.000000000000000e+00 0.000000000000000e+00 0.000000000000000e+00
0.000000000000000e+00 0.000000000000000e+00 0.000000000000000e+00
0.000000000000000e+00 0.000000000000000e+00 0.000000000000000e+00

0.000000000000000e+00 0.000000000000000e+00 0.000000000000000e+00
0.000000000000000e+00 0.000000000000000e+00 0.000000000000000e+00
0.000000000000000e+00 0.000000000000000e+00 0.000000000000000e+00

0.000000000000000e+00 0.000000000000000e+00 0.000000000000000e+00
0.000000000000000e+00 0.000000000000000e+00 0.000000000000000e+00
0.000000000000000e+00 0.000000000000000e+00 0.000000000000000e+00

0.000000000000000e+00 0.000000000000000e+00 0.000000000000000e+00
0.000000000000000e+00 0.000000000000000e+00 0.000000000000000e+00
0.000000000000000e+00 0.000000000000000e+00 0.000000000000000e+00

0.000000000000000e+00 0.000000000000000e+00 0.000000000000000e+00
0.000000000000000e+00 0.000000000000000e+00 0.000000000000000e+00
0.000000000000000e+00 0.000000000000000e+00 0.000000000000000e+00

0.000000000000000e+00 0.000000000000000e+00 0.000000000000000e+00
0.000000000000000e+00 0.000000000000000e+00 0.000000000000000e+00
0.000000000000000e+00 0.000000000000000e+00 0.000000000000000e+00

0.000000000000000e+00 0.000000000000000e+00 0.000000000000000e+00
0.000000000000000e+00 0.000000000000000e+00 0.000000000000000e+00
0.000000000000000e+00 0.000000000000000e+00 0.000000000000000e+00

0.000000000000000e+00 0.000000000000000e+00 0.000000000000000e+00
0.000000000000000e+00 0.000000000000000e+00 0.000000000000000e+00
0.000000000000000e+00 0.000000000000000e+00 0.000000000000000e+00

0.000000000000000e+00 0.000000000000000e+00 0.000000000000000e+00
0.000000000000000e+00 0.000000000000000e+00 0.000000000000000e+00
0.000000000000000e+00 0.000000000000000e+00 0.000000000000000e+00

0.000000000000000e+00 0.000000000000000e+00 0.000000000000000e+00
0.000000000000000e+00 0.000000000000000e+00 0.000000000000000e+00
0.000000000000000e+00 0.000000000000000e+00 0.000000000000000e+00

0.000000000000000e+00 0.000000000000000e+00 0.000000000000000e+00
0.000000000000000e+00 0.000000000000000e+00 0.000000000000000e+00
0.000000000000000e+00 0.000000000000000e+00 0.000000000000000e+00

0.000000000000000e+00 0.000000000000000e+00 0.000000000000000e+00
0.000000000000000e+00 0.000000000000000e+00 0.000000000000000e+00
0.000000000000000e+00 0.000000000000000e+00 0.000000000000000e+00

0.000000000000000e+00 0.000000000000000e+00 0.000000000000000e+00
0.000000000000000e+00 0.000000000000000e+00 0.000000000000000e+00
0.000000000000000e+00 0.000000000000000e+00 0.000000000000000e+00

0.000000000000000e+00 0.000000000000000e+00 0.000000000000000e+00
0.000000000000000e+00 0.000000000000000e+00 0.000000000000000e+00
0.000000000000000e+00 0.000000000000000e+00 0.000000000000000e+00

0.000000000000000e+00 0.000000000000000e+00 0.000000000000000e+00
0.000000000000000e+00 0.000000000000000e+00 0.000000000000000e+00
0.000000000000000e+00 0.000000000000000e+00 0.000000000000000e+00

0.000000000000000e+00 0.000000000000000e+00 0.000000000000000e+00
0.000000000000000e+00 0.000000000000000e+00 0.000000000000000e+00
0.000000000000000e+00 0.000000000000000e+00 0.000000000000000e+00

0.000000000000000e+00 0.000000000000000e+00 0.000000000000000e+00
0.000000000000000e+00 0.000000000000000e+00 0.000000000000000e+00
0.000000000000000e+00 0.000000000000000e+00 0.000000000000000e+00

0.000000000000000e+00 0.000000000000000e+00 0.000000000000000e+00
0.000000000000000e+00 0.000000000000000e+00 0.000000000000000e+00
0.000000000000000e+00 0.000000000000000e+00 0.000000000000000e+00

0.000000000000000e+00 0.000000000000000e+00 0.000000000000000e+00
0.000000000000000e+00 0.000000000000000e+00 0.000000000000000e+00
0.000000000000000e+00 0.000000000000000e+00 0.000000000000000e+00

0.000000000000000e+00 0.000000000000000e+00 0.000000000000000e+00
0.000000000000000e+00 0.000000000000000e+00 0.000000000000000e+00
0.000000000000000e+00 0.000000000000000e+00 0.000000000000000e+00

0.000000000000000e+00 0.000000000000000e+00 0.000000000000000e+00
0.000000000000000e+00 0.000000000000000e+00 0.000000000000000e+00
0.000000000000000e+00 0.000000000000000e+00 0.000000000000000e+00

0.000000000000000e+00 0.000000000000000e+00 0.000000000000000e+00
0.000000000000000e+00 0.000000000000000e+00 0.000000000000000e+00
0.000000000000000e+00 0.000000000000000e+00 0.000000000000000e+00

0.000000000000000e+00 0.000000000000000e+00 0.000000000000000e+00
0.000000000000000e+00 0.000000000000000e+00 0.000000000000000e+00
0.000000000000000e+00 0.000000000000000e+00 0.000000000000000e+00

0.000000000000000e+00 0.000000000000000e+00 0.000000000000000e+00
0.000000000000000e+00 0.000000000000000e+00 0.000000000000000e+00
0.000000000000000e+00 0.000000000000000e+00 0.000000000000000e+00

0.000000000000000e+00 0.000000000000000e+00 0.000000000000000e+00
0.000000000000000e+00 0.000000000000000e+00 0.000000000000000e+00
0.000000000000000e+00 0.000000000000000e+00 0.000000000000000e+00

0.000000000000000e+00 0.000000000000000e+00 0.000000000000000e+00
0.000000000000000e+00 0.000000000000000e+00 0.000000000000000e+00
0.000000000000000e+00 0.000000000000000e+00 0.000000000000000e+00

0.000000000000000e+00 0.000000000000000e+00 0.000000000000000e+00
0.000000000000000e+00 0.000000000000000e+00 0.000000000000000e+00
0.000000000000000e+00 0.000000000000000e+00 0.000000000000000e+00

0.000000000000000e+00 0.000000000000000e+00 0.000000000000000e+00
0.000000000000000e+00 0.000000000000000e+00 0.000000000000000e+00
0.000000000000000e+00 0.000000000000000e+00 0.000000000000000e+00

0.000000000000000e+00 0.000000000000000e+00 0.000000000000000e+00
0.000000000000000e+00 0.000000000000000e+00 0.000000000000000e+00
0.000000000000000e+00 0.000000000000000e+00 0.000000000000000e+00

0.000000000000000e+00 0.000000000000000e+00 0.000000000000000e+00
0.000000000000000e+00 0.000000000000000e+00 0.000000000000000e+00
0.000000000000000e+00 0.000000000000000e+00 0.000000000000000e+00

0.000000000000000e+00 0.000000000000000e+00 0.000000000000000e+00
0.000000000000000e+00 0.000000000000000e+00 0.000000000000000e+00
0.000000000000000e+00 0.000000000000000e+00 0.000000000000000e+00

0.000000000000000e+00 0.000000000000000e+00 0.000000000000000e+00
0.000000000000000e+00 0.000000000000000e+00 0.000000000000000e+00
0.000000000000000e+00 0.000000000000000e+00 0.000000000000000e+00

0.000000000000000e+00 0.000000000000000e+00 0.000000000000000e+00
0.000000000000000e+00 0.000000000000000e+00 0.000000000000000e+00
0.000000000000000e+00 0.000000000000000e+00 0.000000000000000e+00

0.000000000000000e+00 0.000000000000000e+00 0.000000000000000e+00
0.000000000000000e+00 0.000000000000000e+00 0.000000000000000e+00
0.000000000000000e+00 0.000000000000000e+00 0.000000000000000e+00

0.000000000000000e+00 0.000000000000000e+00 0.000000000000000e+00
0.000000000000000e+00 0.000000000000000e+00 0.000000000000000e+00
0.000000000000000e+00 0.000000000000000e+00 0.000000000000000e+00

0.000000000000000e+00 0.000000000000000e+00 0.000000000000000e+00
0.000000000000000e+00 0.000000000000000e+00 0.000000000000000e+00
0.000000000000000e+00 0.000000000000000e+00 0.000000000000000e+00

0.000000000000000e+00 0.000000000000000e+00 0.000000000000000e+00
0.000000000000000e+00 0.000000000000000e+00 0.000000000000000e+00
0.000000000000000e+00 0.000000000000000e+00 0.000000000000000e+00

0.000000000000000e+00 0.000000000000000e+00 0.000000000000000e+00
0.000000000000000e+00 0.000000000000000e+00 0.000000000000000e+00
0.000000000000000e+00 0.000000000000000e+00 0.000000000000000e+00

0.000000000000000e+00 0.000000000000000e+00 0.000000000000000e+00
0.000000000000000e+00 0.000000000000000e+00 0.000000000000000e+00
0.000000000000000e+00 0.000000000000000e+00 0.000000000000000e+00

0.000000000000000e+00 0.000000000000000e+00 0.000000000000000e+00
0.000000000000000e+00 0.000000000000000e+00 0.000000000000000e+00
0.000000000000000e+00 0.000000000000000e+00 0.000000000000000e+00

0.000000000000000e+00 0.000000000000000e+00 0.000000000000000e+00
0.000000000000000e+00 0.000000000000000e+00 0.000000000000000e+00
0.000000000000000e+00 0.000000000000000e+00 0.000000000000000e+00

0.000000000000000e+00 0.000000000000000e+00 0.000000000000000e+00
0.000000000000000e+00 0.000000000000000e+00 0.000000000000000e+00
0.000000000000000e+00 0.000000000000000e+00 0.000000000000000e+00

0.000000000000000e+00 0.000000000000000e+00 0.000000000000000e+00
0.000000000000000e+00 0.000000000000000e+00 0.000000000000000e+00
0.000000000000000e+00 0.000000000000000e+00 0.000000000000000e+00

0.000000000000000e+00 0.000000000000000e+00 0.000000000000000e+00
0.000000000000000e+00 0.000000000000000e+00 0.000000000000000e+00
0.000000000000000e+00 0.000000000000000e+00 0.000000000000000e+00

0.000000000000000e+00 0.000000000000000e+00 0.000000000000000e+00
0.000000000000000e+00 0.000000000000000e+00 0.000000000000000e+00
0.000000000000000e+00 0.000000000000000e+00 0.000000000000000e+00

0.000000000000000e+00 0.000000000000000e+00 0.000000000000000e+00
0.000000000000000e+00 0.000000000000000e+00 0.000000000000000e+00
0.000000000000000e+00 0.000000000000000e+00 0.000000000000000e+00

0.000000000000000e+00 0.000000000000000e+00 0.000000000000000e+00
0.000000000000000e+00 0.000000000000000e+00 0.000000000000000e+00
0.000000000000000e+00 0.000000000000000e+00 0.000000000000000e+00

0.000000000000000e+00 0.000000000000000e+00 0.000000000000000e+00
0.000000000000000e+00 0.000000000000000e+00 0.000000000000000e+00
0.000000000000000e+00 0.000000000000000e+00 0.000000000000000e+00

0.000000000000000e+00 0.000000000000000e+00 0.000000000000000e+00
0.000000000000000e+00 0.000000000000000e+00 0.000000000000000e+00
0.000000000000000e+00 0.000000000000000e+00 0.000000000000000e+00

0.000000000000000e+00 0.000000000000000e+00 0.000000000000000e+00
0.000000000000000e+00 0.000000000000000e+00 0.000000000000000e+00
0.000000000000000e+00 0.000000000000000e+00 0.000000000000000e+00

0.000000000000000e+00 0.000000000000000e+00 0.000000000000000e+00
0.000000000000000e+00 0.000000000000000e+00 0.000000000000000e+00
0.000000000000000e+00 0.000000000000000e+00 0.000000000000000e+00

0.000000000000000e+00 0.000000000000000e+00 0.000000000000000e+00
0.000000000000000e+00 0.000000000000000e+00 0.000000000000000e+00
0.000000000000000e+00 0.000000000000000e+00 0.000000000000000e+00

0.000000000000000e+00 0.000000000000000e+00 0.000000000000000e+00
0.000000000000000e+00 0.000000000000000e+00 0.000000000000000e+00
0.000000000000000e+00 0.000000000000000e+00 0.000000000000000e+00

0.000000000000000e+00 0.000000000000000e+00 0.000000000000000e+00
0.000000000000000e+00 0.000000000000000e+00 0.000000000000000e+00
0.000000000000000e+00 0.000000000000000e+00 0.000000000000000e+00

0.000000000000000e+00 0.000000000000000e+00 0.000000000000000e+00
0.000000000000000e+00 0.000000000000000e+00 0.000000000000000e+00
0.000000000000000e+00 0.000000000000000e+00 0.000000000000000e+00

0.000000000000000e+00 0.000000000000000e+00 0.000000000000000e+00
0.000000000000000e+00 0.000000000000000e+00 0.000000000000000e+00
0.000000000000000e+00 0.000000000000000e+00 0.000000000000000e+00

0.000000000000000e+00 0.000000000000000e+00 0.000000000000000e+00
0.000000000000000e+00 0.000000000000000e+00 0.000000000000000e+00
0.000000000000000e+00 0.000000000000000e+00 0.000000000000000e+00

0.000000000000000e+00 0.000000000000000e+00 0.000000000000000e+00
0.000000000000000e+00 0.000000000000000e+00 0.000000000000000e+00
0.000000000000000e+00 0.000000000000000e+00 0.000000000000000e+00

0.000000000000000e+00 0.000000000000000e+00 0.000000000000000e+00
0.000000000000000e+00 0.000000000000000e+00 0.000000000000000e+00
0.000000000000000e+00 0.000000000000000e+00 0.000000000000000e+00

0.000000000000000e+00 0.000000000000000e+00 0.000000000000000e+00
0.000000000000000e+00 0.000000000000000e+00 0.000000000000000e+00
0.000000000000000e+00 0.000000000000000e+00 0.000000000000000e+00

0.000000000000000e+00 0.000000000000000e+00 0.000000000000000e+00
0.000000000000000e+00 0.000000000000000e+00 0.000000000000000e+00
0.000000000000000e+00 0.000000000000000e+00 0.000000000000000e+00

0.000000000000000e+00 0.000000000000000e+00 0.000000000000000e+00
0.000000000000000e+00 0.000000000000000e+00 0.000000000000000e+00
0.000000000000000e+00 0.000000000000000e+00 0.000000000000000e+00

0.000000000000000e+00 0.000000000000000e+00 0.000000000000000e+00
0.000000000000000e+00 0.000000000000000e+00 0.000000000000000e+00
0.000000000000000e+00 0.000000000000000e+00 0.000000000000000e+00

0.000000000000000e+00 0.000000000000000e+00 0.000000000000000e+00
0.000000000000000e+00 0.000000000000000e+00 0.000000000000000e+00
0.000000000000000e+00 0.000000000000000e+00 0.000000000000000e+00

0.000000000000000e+00 0.000000000000000e+00 0.000000000000000e+00
0.000000000000000e+00 0.000000000000000e+00 0.000000000000000e+00
0.000000000000000e+00 0.000000000000000e+00 0.000000000000000e+00

0.000000000000000e+00 0.000000000000000e+00 0.000000000000000e+00
0.000000000000000e+00 0.000000000000000e+00 0.000000000000000e+00
0.000000000000000e+00 0.000000000000000e+00 0.000000000000000e+00

0.000000000000000e+00 0.000000000000000e+00 0.000000000000000e+00
0.000000000000000e+00 0.000000000000000e+00 0.000000000000000e+00
0.000000000000000e+00 0.000000000000000e+00 0.000000000000000e+00

0.000000000000000e+00 0.000000000000000e+00 0.000000000000000e+00
0.000000000000000e+00 0.000000000000000e+00 0.000000000000000e+00
0.000000000000000e+00 0.000000000000000e+00 0.000000000000000e+00

0.000000000000000e+00 0.000000000000000e+00 0.000000000000000e+00
0.000000000000000e+00 0.000000000000000e+00 0.000000000000000e+00
0.000000000000000e+00 0.000000000000000e+00 0.000000000000000e+00

0.000000000000000e+00 0.000000000000000e+00 0.000000000000000e+00
0.000000000000000e+00 0.000000000000000e+00 0.000000000000000e+00
0.000000000000000e+00 0.000000000000000e+00 0.000000000000000e+00

0.000000000000000e+00 0.000000000000000e+00 0.000000000000000e+00
0.000000000000000e+00 0.000000000000000e+00 0.000000000000000e+00
0.000000000000000e+00 0.000000000000000e+00 0.000000000000000e+00

0.000000000000000e+00 0.000000000000000e+00 0.000000000000000e+00
0.000000000000000e+00 0.000000000000000e+00 0.000000000000000e+00
0.000000000000000e+00 0.000000000000000e+00 0.000000000000000e+00

0.000000000000000e+00 0.000000000000000e+00 0.000000000000000e+00
0.000000000000000e+00 0.000000000000000e+00 0.000000000000000e+00
0.000000000000000e+00 0.000000000000000e+00 0.000000000000000e+00

0.000000000000000e+00 0.000000000000000e+00 0.000000000000000e+00
0.000000000000000e+00 0.000000000000000e+00 0.000000000000000e+00
0.000000000000000e+00 0.000000000000000e+00 0.000000000000000e+00

0.000000000000000e+00 0.000000000000000e+00 0.000000000000000e+00
0.000000000000000e+00 0.000000000000000e+00 0.000000000000000e+00
0.000000000000000e+00 0.000000000000000e+00 0.000000000000000e+00

0.000000000000000e+00 0.000000000000000e+00 0.000000000000000e+00
0.000000000000000e+00 0.000000000000000e+00 0.000000000000000e+00
0.000000000000000e+00 0.000000000000000e+00 0.000000000000000e+00

0.000000000000000e+00 0.000000000000000e+00 0.000000000000000e+00
0.000000000000000e+00 0.000000000000000e+00 0.000000000000000e+00
0.000000000000000e+00 0.000000000000000e+00 0.000000000000000e+00

0.000000000000000e+00 0.000000000000000e+00 0.000000000000000e+00
0.000000000000000e+00 0.000000000000000e+00 0.000000000000000e+00
0.000000000000000e+00 0.000000000000000e+00 0.000000000000000e+00

0.000000000000000e+00 0.000000000000000e+00 0.000000000000000e+00
0.000000000000000e+00 0.000000000000000e+00 0.000000000000000e+00
0.000000000000000e+00 0.000000000000000e+00 0.000000000000000e+00

0.000000000000000e+00 0.000000000000000e+00 0.000000000000000e+00
0.000000000000000e+00 0.000000000000000e+00 0.000000000000000e+00
0.000000000000000e+00 0.000000000000000e+00 0.000000000000000e+00

0.000000000000000e+00 0.000000000000000e+00 0.000000000000000e+00
0.000000000000000e+00 0.000000000000000e+00 0.000000000000000e+00
0.000000000000000e+00 0.000000000000000e+00 0.000000000000000e+00

0.000000000000000e+00 0.000000000000000e+00 0.000000000000000e+00
0.000000000000000e+00 0.000000000000000e+00 0.000000000000000e+00
0.000000000000000e+00 0.000000000000000e+00 0.000000000000000e+00

0.000000000000000e+00 0.000000000000000e+00 0.000000000000000e+00
0.000000000000000e+00 0.000000000000000e+00 0.000000000000000e+00
0.000000000000000e+00 0.000000000000000e+00 0.000000000000000e+00

0.000000000000000e+00 0.000000000000000e+00 0.000000000000000e+00
0.000000000000000e+00 0.000000000000000e+00 0.000000000000000e+00
0.000000000000000e+00 0.000000000000000e+00 0.000000000000000e+00

0.000000000000000e+00 0.000000000000000e+00 0.000000000000000e+00
0.000000000000000e+00 0.000000000000000e+00 0.000000000000000e+00
0.000000000000000e+00 0.000000000000000e+00 0.000000000000000e+00

0.000000000000000e+00 0.000000000000000e+00 0.000000000000000e+00
0.000000000000000e+00 0.000000000000000e+00 0.000000000000000e+00
0.000000000000000e+00 0.000000000000000e+00 0.000000000000000e+00

0.000000000000000e+00 0.000000000000000e+00 0.000000000000000e+00
0.000000000000000e+00 0.000000000000000e+00 0.000000000000000e+00
0.000000000000000e+00 0.000000000000000e+00 0.000000000000000e+00

0.000000000000000e+00 0.000000000000000e+00 0.000000000000000e+00
0.000000000000000e+00 0.000000000000000e+00 0.000000000000000e+00
0.000000000000000e+00 0.000000000000000e+00 0.000000000000000e+00

0.000000000000000e+00 0.000000000000000e+00 0.000000000000000e+00
0.000000000000000e+00 0.000000000000000e+00 0.000000000000000e+00
0.000000000000000e+00 0.000000000000000e+00 0.000000000000000e+00

0.000000000000000e+00 0.000000000000000e+00 0.000000000000000e+00
0.000000000000000e+00 0.000000000000000e+00 0.000000000000000e+00
0.000000000000000e+00 0.000000000000000e+00 0.000000000000000e+00

0.000000000000000e+00 0.000000000000000e+00 0.000000000000000e+00
0.000000000000000e+00 0.000000000000000e+00 0.000000000000000e+00
0.000000000000000e+00 0.000000000000000e+00 0.000000000000000e+00

0.000000000000000e+00 0.000000000000000e+00 0.000000000000000e+00
0.000000000000000e+00 0.000000000000000e+00 0.000000000000000e+00
0.000000000000000e+00 0.000000000000000e+00 0.000000000000000e+00

0.000000000000000e+00 0.000000000000000e+00 0.000000000000000e+00
0.000000000000000e+00 0.000000000000000e+00 0.000000000000000e+00
0.000000000000000e+00 0.000000000000000e+00 0.000000000000000e+00

0.000000000000000e+00 0.000000000000000e+00 0.000000000000000e+00
0.000000000000000e+00 0.000000000000000e+00 0.000000000000000e+00
0.000000000000000e+00 0.000000000000000e+00 0.000000000000000e+00

0.000000000000000e+00 0.000000000000000e+00 0.000000000000000e+00
0.000000000000000e+00 0.000000000000000e+00 0.000000000000000e+00
0.000000000000000e+00 0.000000000000000e+00 0.000000000000000e+00

0.000000000000000e+00 0.000000000000000e+00 0.000000000000000e+00
0.000000000000000e+00 0.000000000000000e+00 0.000000000000000e+00
0.000000000000000e+00 0.000000000000000e+00 0.000000000000000e+00

0.000000000000000e+00 0.000000000000000e+00 0.000000000000000e+00
0.000000000000000e+00 0.000000000000000e+00 0.000000000000000e+00
0.000000000000000e+00 0.000000000000000e+00 0.000000000000000e+00

0.000000000000000e+00 0.000000000000000e+00 0.000000000000000e+00
0.000000000000000e+00 0.000000000000000e+00 0.000000000000000e+00
0.000000000000000e+00 0.000000000000000e+00 0.000000000000000e+00

0.000000000000000e+00 0.000000000000000e+00 0.000000000000000e+00
0.000000000000000e+00 0.000000000000000e+00 0.000000000000000e+00
0.000000000000000e+00 0.000000000000000e+00 0.000000000000000e+00

0.000000000000000e+00 0.000000000000000e+00 0.000000000000000e+00
0.000000000000000e+00 0.000000000000000e+00 0.000000000000000e+00
0.000000000000000e+00 0.000000000000000e+00 0.000000000000000e+00

0.000000000000000e+00 0.000000000000000e+00 0.000000000000000e+00
0.000000000000000e+00 0.000000000000000e+00 0.000000000000000e+00
0.000000000000000e+00 0.000000000000000e+00 0.000000000000000e+00

0.000000000000000e+00 0.000000000000000e+00 0.000000000000000e+00
0.000000000000000e+00 0.000000000000000e+00 0.000000000000000e+00
0.000000000000000e+00 0.000000000000000e+00 0.000000000000000e+00

0.000000000000000e+00 0.000000000000000e+00 0.000000000000000e+00
0.000000000000000e+00 0.000000000000000e+00 0.000000000000000e+00
0.000000000000000e+00 0.000000000000000e+00 0.000000000000000e+00

0.000000000000000e+00 0.000000000000000e+00 0.000000000000000e+00
0.000000000000000e+00 0.000000000000000e+00 0.000000000000000e+00
0.000000000000000e+00 0.000000000000000e+00 0.000000000000000e+00

0.000000000000000e+00 0.000000000000000e+00 0.000000000000000e+00
0.000000000000000e+00 0.000000000000000e+00 0.000000000000000e+00
0.000000000000000e+00 0.000000000000000e+00 0.000000000000000e+00

0.000000000000000e+00 0.000000000000000e+00 0.000000000000000e+00
0.000000000000000e+00 0.000000000000000e+00 0.000000000000000e+00
0.000000000000000e+00 0.000000000000000e+00 0.000000000000000e+00

0.000000000000000e+00 0.000000000000000e+00 0.000000000000000e+00
0.000000000000000e+00 0.000000000000000e+00 0.000000000000000e+00
0.000000000000000e+00 0.000000000000000e+00 0.000000000000000e+00

0.000000000000000e+00 0.000000000000000e+00 0.000000000000000e+00
0.000000000000000e+00 0.000000000000000e+00 0.000000000000000e+00
0.000000000000000e+00 0.000000000000000e+00 0.000000000000000e+00

0.000000000000000e+00 0.000000000000000e+00 0.000000000000000e+00
0.000000000000000e+00 0.000000000000000e+00 0.000000000000000e+00
0.000000000000000e+00 0.000000000000000e+00 0.000000000000000e+00

0.000000000000000e+00 0.000000000000000e+00 0.000000000000000e+00
0.000000000000000e+00 0.000000000000000e+00 0.000000000000000e+00
0.000000000000000e+00 0.000000000000000e+00 0.000000000000000e+00

0.000000000000000e+00 0.000000000000000e+00 0.000000000000000e+00
0.000000000000000e+00 0.000000000000000e+00 0.000000000000000e+00
0.000000000000000e+00 0.000000000000000e+00 0.000000000000000e+00

0.000000000000000e+00 0.000000000000000e+00 0.000000000000000e+00
0.000000000000000e+00 0.000000000000000e+00 0.000000000000000e+00
0.000000000000000e+00 0.000000000000000e+00 0.000000000000000e+00

0.000000000000000e+00 0.000000000000000e+00 0.000000000000000e+00
0.000000000000000e+00 0.000000000000000e+00 0.000000000000000e+00
0.000000000000000e+00 0.000000000000000e+00 0.000000000000000e+00

0.000000000000000e+00 0.000000000000000e+00 0.000000000000000e+00
0.000000000000000e+00 0.000000000000000e+00 0.000000000000000e+00
0.000000000000000e+00 0.000000000000000e+00 0.000000000000000e+00

0.000000000000000e+00 0.000000000000000e+00 0.000000000000000e+00
0.000000000000000e+00 0.000000000000000e+00 0.000000000000000e+00
0.000000000000000e+00 0.000000000000000e+00 0.000000000000000e+00

0.000000000000000e+00 0.000000000000000e+00 0.000000000000000e+00
0.000000000000000e+00 0.000000000000000e+00 0.000000000000000e+00
0.000000000000000e+00 0.000000000000000e+00 0.000000000000000e+00

0.000000000000000e+00 0.000000000000000e+00 0.000000000000000e+00
0.000000000000000e+00 0.000000000000000e+00 0.000000000000000e+00
0.000000000000000e+00 0.000000000000000e+00 0.000000000000000e+00

0.000000000000000e+00 0.000000000000000e+00 0.000000000000000e+00
0.000000000000000e+00 0.000000000000000e+00 0.000000000000000e+00
0.000000000000000e+00 0.000000000000000e+00 0.000000000000000e+00

0.000000000000000e+00 0.000000000000000e+00 0.000000000000000e+00
0.000000000000000e+00 0.000000000000000e+00 0.000000000000000e+00
0.000000000000000e+00 0.000000000000000e+00 0.000000000000000e+00

0.000000000000000e+00 0.000000000000000e+00 0.000000000000000e+00
0.000000000000000e+00 0.000000000000000e+00 0.000000000000000e+00
0.000000000000000e+00 0.000000000000000e+00 0.000000000000000e+00

0.000000000000000e+00 0.000000000000000e+00 0.000000000000000e+00
0.000000000000000e+00 0.000000000000000e+00 0.000000000000000e+00
0.000000000000000e+00 0.000000000000000e+00 0.000000000000000e+00

0.000000000000000e+00 0.000000000000000e+00 0.000000000000000e+00
0.000000000000000e+00 0.000000000000000e+00 0.000000000000000e+00
0.000000000000000e+00 0.000000000000000e+00 0.000000000000000e+00

0.000000000000000e+00 0.000000000000000e+00 0.000000000000000e+00
0.000000000000000e+00 0.000000000000000e+00 0.000000000000000e+00
0.000000000000000e+00 0.000000000000000e+00 0.000000000000000e+00

0.000000000000000e+00 0.000000000000000e+00 0.000000000000000e+00
0.000000000000000e+00 0.000000000000000e+00 0.000000000000000e+00
0.000000000000000e+00 0.000000000000000e+00 0.000000000000000e+00

0.000000000000000e+00 0.000000000000000e+00 0.000000000000000e+00
0.000000000000000e+00 0.000000000000000e+00 0.000000000000000e+00
0.000000000000000e+00 0.000000000000000e+00 0.000000000000000e+00

0.000000000000000e+00 0.000000000000000e+00 0.000000000000000e+00
0.000000000000000e+00 0.000000000000000e+00 0.000000000000000e+00
0.000000000000000e+00 0.000000000000000e+00 0.000000000000000e+00

0.000000000000000e+00 0.000000000000000e+00 0.000000000000000e+00
0.000000000000000e+00 0.000000000000000e+00 0.000000000000000e+00
0.000000000000000e+00 0.000000000000000e+00 0.000000000000000e+00

0.000000000000000e+00 0.000000000000000e+00 0.000000000000000e+00
0.000000000000000e+00 0.000000000000000e+00 0.000000000000000e+00
0.000000000000000e+00 0.000000000000000e+00 0.000000000000000e+00

0.000000000000000e+00 0.000000000000000e+00 0.000000000000000e+00
0.000000000000000e+00 0.000000000000000e+00 0.000000000000000e+00
0.000000000000000e+00 0.000000000000000e+00 0.000000000000000e+00

0.000000000000000e+00 0.000000000000000e+00 0.000000000000000e+00
0.000000000000000e+00 0.000000000000000e+00 0.000000000000000e+00
0.000000000000000e+00 0.000000000000000e+00 0.000000000000000e+00

0.000000000000000e+00 0.000000000000000e+00 0.000000000000000e+00
0.000000000000000e+00 0.000000000000000e+00 0.000000000000000e+00
0.000000000000000e+00 0.000000000000000e+00 0.000000000000000e+00

0.000000000000000e+00 0.000000000000000e+00 0.000000000000000e+00
0.000000000000000e+00 0.000000000000000e+00 0.000000000000000e+00
0.000000000000000e+00 0.000000000000000e+00 0.000000000000000e+00

0.000000000000000e+00 0.000000000000000e+00 0.000000000000000e+00
0.000000000000000e+00 0.000000000000000e+00 0.000000000000000e+00
0.000000000000000e+00 0.000000000000000e+00 0.000000000000000e+00

0.000000000000000e+00 0.000000000000000e+00 0.000000000000000e+00
0.000000000000000e+00 0.000000000000000e+00 0.000000000000000e+00
0.000000000000000e+00 0.000000000000000e+00 0.000000000000000e+00

0.000000000000000e+00 0.000000000000000e+00 0.000000000000000e+00
0.000000000000000e+00 0.000000000000000e+00 0.000000000000000e+00
0.000000000000000e+00 0.000000000000000e+00 0.000000000000000e+00

0.000000000000000e+00 0.000000000000000e+00 0.000000000000000e+00
0.000000000000000e+00 0.000000000000000e+00 0.000000000000000e+00
0.000000000000000e+00 0.000000000000000e+00 0.000000000000000e+00

0.000000000000000e+00 0.000000000000000e+00 0.000000000000000e+00
0.000000000000000e+00 0.000000000000000e+00 0.000000000000000e+00
0.000000000000000e+00 0.000000000000000e+00 0.000000000000000e+00

0.000000000000000e+00 0.000000000000000e+00 0.000000000000000e+00
0.000000000000000e+00 0.000000000000000e+00 0.000000000000000e+00
0.000000000000000e+00 0.000000000000000e+00 0.000000000000000e+00

0.000000000000000e+00 0.000000000000000e+00 0.000000000000000e+00
0.000000000000000e+00 0.000000000000000e+00 0.000000000000000e+00
0.000000000000000e+00 0.000000000000000e+00 0.000000000000000e+00

0.000000000000000e+00 0.000000000000000e+00 0.000000000000000e+00
0.000000000000000e+00 0.000000000000000e+00 0.000000000000000e+00
0.000000000000000e+00 0.000000000000000e+00 0.000000000000000e+00

0.000000000000000e+00 0.000000000000000e+00 0.000000000000000e+00
0.000000000000000e+00 0.000000000000000e+00 0.000000000000000e+00
0.000000000000000e+00 0.000000000000000e+00 0.000000000000000e+00

0.000000000000000e+00 0.000000000000000e+00 0.000000000000000e+00
0.000000000000000e+00 0.000000000000000e+00 0.000000000000000e+00
0.000000000000000e+00 0.000000000000000e+00 0.000000000000000e+00

0.000000000000000e+00 0.000000000000000e+00 0.000000000000000e+00
0.000000000000000e+00 0.000000000000000e+00 0.000000000000000e+00
0.000000000000000e+00 0.000000000000000e+00 0.000000000000000e+00

0.000000000000000e+00 0.000000000000000e+00 0.000000000000000e+00
0.000000000000000e+00 0.000000000000000e+00 0.000000000000000e+00
0.000000000000000e+00 0.000000000000000e+00 0.000000000000000e+00

0.000000000000000e+00 0.000000000000000e+00 0.000000000000000e+00
0.000000000000000e+00 0.000000000000000e+00 0.000000000000000e+00
0.000000000000000e+00 0.000000000000000e+00 0.000000000000000e+00

0.000000000000000e+00 0.000000000000000e+00 0.000000000000000e+00
0.000000000000000e+00 0.000000000000000e+00 0.000000000000000e+00
0.000000000000000e+00 0.000000000000000e+00 0.000000000000000e+00

0.000000000000000e+00 0.000000000000000e+00 0.000000000000000e+00
0.000000000000000e+00 0.000000000000000e+00 0.000000000000000e+00
0.000000000000000e+00 0.000000000000000e+00 0.000000000000000e+00

0.000000000000000e+00 0.000000000000000e+00 0.000000000000000e+00
0.000000000000000e+00 0.000000000000000e+00 0.000000000000000e+00
0.000000000000000e+00 0.000000000000000e+00 0.000000000000000e+00

0.000000000000000e+00 0.000000000000000e+00 0.000000000000000e+00
0.000000000000000e+00 0.000000000000000e+00 0.000000000000000e+00
0.000000000000000e+00 0.000000000000000e+00 0.000000000000000e+00

0.000000000000000e+00 0.000000000000000e+00 0.000000000000000e+00
0.000000000000000e+00 0.000000000000000e+00 0.000000000000000e+00
0.000000000000000e+00 0.000000000000000e+00 0.000000000000000e+00

0.000000000000000e+00 0.000000000000000e+00 0.000000000000000e+00
0.000000000000000e+00 0.000000000000000e+00 0.000000000000000e+00
0.000000000000000e+00 0.000000000000000e+00 0.000000000000000e+00

0.000000000000000e+00 0.000000000000000e+00 0.000000000000000e+00
0.000000000000000e+00 0.000000000000000e+00 0.000000000000000e+00
0.000000000000000e+00 0.000000000000000e+00 0.000000000000000e+00

0.000000000000000e+00 0.000000000000000e+00 0.000000000000000e+00
0.000000000000000e+00 0.000000000000000e+00 0.000000000000000e+00
0.000000000000000e+00 0.000000000000000e+00 0.000000000000000e+00

0.000000000000000e+00 0.000000000000000e+00 0.000000000000000e+00
0.000000000000000e+00 0.000000000000000e+00 0.000000000000000e+00
0.000000000000000e+00 0.000000000000000e+00 0.000000000000000e+00

0.000000000000000e+00 0.000000000000000e+00 0.000000000000000e+00
0.000000000000000e+00 0.000000000000000e+00 0.000000000000000e+00
0.000000000000000e+00 0.000000000000000e+00 0.000000000000000e+00

0.000000000000000e+00 0.000000000000000e+00 0.000000000000000e+00
0.000000000000000e+00 0.000000000000000e+00 0.000000000000000e+00
0.000000000000000e+00 0.000000000000000e+00 0.000000000000000e+00

0.000000000000000e+00 0.000000000000000e+00 0.000000000000000e+00
0.000000000000000e+00 0.000000000000000e+00 0.000000000000000e+00
0.000000000000000e+00 0.000000000000000e+00 0.000000000000000e+00

0.000000000000000e+00 0.000000000000000e+00 0.000000000000000e+00
0.000000000000000e+00 0.000000000000000e+00 0.000000000000000e+00
0.000000000000000e+00 0.000000000000000e+00 0.000000000000000e+00

0.000000000000000e+00 0.000000000000000e+00 0.000000000000000e+00
0.000000000000000e+00 0.000000000000000e+00 0.000000000000000e+00
0.000000000000000e+00 0.000000000000000e+00 0.000000000000000e+00

0.000000000000000e+00 0.000000000000000e+00 0.000000000000000e+00
0.000000000000000e+00 0.000000000000000e+00 0.000000000000000e+00
0.000000000000000e+00 0.000000000000000e+00 0.000000000000000e+00

0.000000000000000e+00 0.000000000000000e+00 0.000000000000000e+00
0.000000000000000e+00 0.000000000000000e+00 0.000000000000000e+00
0.000000000000000e+00 0.000000000000000e+00 0.000000000000000e+00

0.000000000000000e+00 0.000000000000000e+00 0.000000000000000e+00
0.000000000000000e+00 0.000000000000000e+00 0.000000000000000e+00
0.000000000000000e+00 0.000000000000000e+00 0.000000000000000e+00

0.000000000000000e+00 0.000000000000000e+00 0.000000000000000e+00
0.000000000000000e+00 0.000000000000000e+00 0.000000000000000e+00
0.000000000000000e+00 0.000000000000000e+00 0.000000000000000e+00

0.000000000000000e+00 0.000000000000000e+00 0.000000000000000e+00
0.000000000000000e+00 0.000000000000000e+00 0.000000000000000e+00
0.000000000000000e+00 0.000000000000000e+00 0.000000000000000e+00

0.000000000000000e+00 0.000000000000000e+00 0.000000000000000e+00
0.000000000000000e+00 0.000000000000000e+00 0.000000000000000e+00
0.000000000000000e+00 0.000000000000000e+00 0.000000000000000e+00

0.000000000000000e+00 0.000000000000000e+00 0.000000000000000e+00
0.000000000000000e+00 0.000000000000000e+00 0.000000000000000e+00
0.000000000000000e+00 0.000000000000000e+00 0.000000000000000e+00

0.000000000000000e+00 0.000000000000000e+00 0.000000000000000e+00
0.000000000000000e+00 0.000000000000000e+00 0.000000000000000e+00
0.000000000000000e+00 0.000000000000000e+00 0.000000000000000e+00

0.000000000000000e+00 0.000000000000000e+00 0.000000000000000e+00
0.000000000000000e+00 0.000000000000000e+00 0.000000000000000e+00
0.000000000000000e+00 0.000000000000000e+00 0.000000000000000e+00

0.000000000000000e+00 0.000000000000000e+00 0.000000000000000e+00
0.000000000000000e+00 0.000000000000000e+00 0.000000000000000e+00
0.000000000000000e+00 0.000000000000000e+00 0.000000000000000e+00

0.000000000000000e+00 0.000000000000000e+00 0.000000000000000e+00
0.000000000000000e+00 0.000000000000000e+00 0.000000000000000e+00
0.000000000000000e+00 0.000000000000000e+00 0.000000000000000e+00

0.000000000000000e+00 0.000000000000000e+00 0.000000000000000e+00
0.000000000000000e+00 0.000000000000000e+00 0.000000000000000e+00
0.000000000000000e+00 0.000000000000000e+00 0.000000000000000e+00

0.000000000000000e+00 0.000000000000000e+00 0.000000000000000e+00
0.000000000000000e+00 0.000000000000000e+00 0.000000000000000e+00
0.000000000000000e+00 0.000000000000000e+00 0.000000000000000e+00

0.000000000000000e+00 0.000000000000000e+00 0.000000000000000e+00
0.000000000000000e+00 0.000000000000000e+00 0.000000000000000e+00
0.000000000000000e+00 0.000000000000000e+00 0.000000000000000e+00

0.000000000000000e+00 0.000000000000000e+00 0.000000000000000e+00
0.000000000000000e+00 0.000000000000000e+00 0.000000000000000e+00
0.000000000000000e+00 0.000000000000000e+00 0.000000000000000e+00

0.000000000000000e+00 0.000000000000000e+00 0.000000000000000e+00
0.000000000000000e+00 0.000000000000000e+00 0.000000000000000e+00
0.000000000000000e+00 0.000000000000000e+00 0.000000000000000e+00

0.000000000000000e+00 0.000000000000000e+00 0.000000000000000e+00
0.000000000000000e+00 0.000000000000000e+00 0.000000000000000e+00
0.000000000000000e+00 0.000000000000000e+00 0.000000000000000e+00

0.000000000000000e+00 0.000000000000000e+00 0.000000000000000e+00
0.000000000000000e+00 0.000000000000000e+00 0.000000000000000e+00
0.000000000000000e+00 0.000000000000000e+00 0.000000000000000e+00

0.000000000000000e+00 0.000000000000000e+00 0.000000000000000e+00
0.000000000000000e+00 0.000000000000000e+00 0.000000000000000e+00
0.000000000000000e+00 0.000000000000000e+00 0.000000000000000e+00

0.000000000000000e+00 0.000000000000000e+00 0.000000000000000e+00
0.000000000000000e+00 0.000000000000000e+00 0.000000000000000e+00
0.000000000000000e+00 0.000000000000000e+00 0.000000000000000e+00

0.000000000000000e+00 0.000000000000000e+00 0.000000000000000e+00
0.000000000000000e+00 0.000000000000000e+00 0.000000000000000e+00
0.000000000000000e+00 0.000000000000000e+00 0.000000000000000e+00

0.000000000000000e+00 0.000000000000000e+00 0.000000000000000e+00
0.000000000000000e+00 0.000000000000000e+00 0.000000000000000e+00
0.000000000000000e+00 0.000000000000000e+00 0.000000000000000e+00

0.000000000000000e+00 0.000000000000000e+00 0.000000000000000e+00
0.000000000000000e+00 0.000000000000000e+00 0.000000000000000e+00
0.000000000000000e+00 0.000000000000000e+00 0.000000000000000e+00

0.000000000000000e+00 0.000000000000000e+00 0.000000000000000e+00
0.000000000000000e+00 0.000000000000000e+00 0.000000000000000e+00
0.000000000000000e+00 0.000000000000000e+00 0.000000000000000e+00

0.000000000000000e+00 0.000000000000000e+00 0.000000000000000e+00
0.000000000000000e+00 0.000000000000000e+00 0.000000000000000e+00
0.000000000000000e+00 0.000000000000000e+00 0.000000000000000e+00

0.000000000000000e+00 0.000000000000000e+00 0.000000000000000e+00
0.000000000000000e+00 0.000000000000000e+00 0.000000000000000e+00
0.000000000000000e+00 0.000000000000000e+00 0.000000000000000e+00

0.000000000000000e+00 0.000000000000000e+00 0.000000000000000e+00
0.000000000000000e+00 0.000000000000000e+00 0.000000000000000e+00
0.000000000000000e+00 0.000000000000000e+00 0.000000000000000e+00

0.000000000000000e+00 0.000000000000000e+00 0.000000000000000e+00
0.000000000000000e+00 0.000000000000000e+00 0.000000000000000e+00
0.000000000000000e+00 0.000000000000000e+00 0.000000000000000e+00

0.000000000000000e+00 0.000000000000000e+00 0.000000000000000e+00
0.000000000000000e+00 0.000000000000000e+00 0.000000000000000e+00
0.000000000000000e+00 0.000000000000000e+00 0.000000000000000e+00

0.000000000000000e+00 0.000000000000000e+00 0.000000000000000e+00
0.000000000000000e+00 0.000000000000000e+00 0.000000000000000e+00
0.000000000000000e+00 0.000000000000000e+00 0.000000000000000e+00

0.000000000000000e+00 0.000000000000000e+00 0.000000000000000e+00
0.000000000000000e+00 0.000000000000000e+00 0.000000000000000e+00
0.000000000000000e+00 0.000000000000000e+00 0.000000000000000e+00

0.000000000000000e+00 0.000000000000000e+00 0.000000000000000e+00
0.000000000000000e+00 0.000000000000000e+00 0.000000000000000e+00
0.000000000000000e+00 0.000000000000000e+00 0.000000000000000e+00

0.000000000000000e+00 0.000000000000000e+00 0.000000000000000e+00
0.000000000000000e+00 0.000000000000000e+00 0.000000000000000e+00
0.000000000000000e+00 0.000000000000000e+00 0.000000000000000e+00

0.000000000000000e+00 0.000000000000000e+00 0.000000000000000e+00
0.000000000000000e+00 0.000000000000000e+00 0.000000000000000e+00
0.000000000000000e+00 0.000000000000000e+00 0.000000000000000e+00

0.000000000000000e+00 0.000000000000000e+00 0.000000000000000e+00
0.000000000000000e+00 0.000000000000000e+00 0.000000000000000e+00
0.000000000000000e+00 0.000000000000000e+00 0.000000000000000e+00

0.000000000000000e+00 0.000000000000000e+00 0.000000000000000e+00
0.000000000000000e+00 0.000000000000000e+00 0.000000000000000e+00
0.000000000000000e+00 0.000000000000000e+00 0.000000000000000e+00

0.000000000000000e+00 0.000000000000000e+00 0.000000000000000e+00
0.000000000000000e+00 0.000000000000000e+00 0.000000000000000e+00
0.000000000000000e+00 0.000000000000000e+00 0.000000000000000e+00

0.000000000000000e+00 0.000000000000000e+00 0.000000000000000e+00
0.000000000000000e+00 0.000000000000000e+00 0.000000000000000e+00
0.000000000000000e+00 0.000000000000000e+00 0.000000000000000e+00

0.000000000000000e+00 0.000000000000000e+00 0.000000000000000e+00
0.000000000000000e+00 0.000000000000000e+00 0.000000000000000e+00
0.000000000000000e+00 0.000000000000000e+00 0.000000000000000e+00

0.000000000000000e+00 0.000000000000000e+00 0.000000000000000e+00
0.000000000000000e+00 0.000000000000000e+00 0.000000000000000e+00
0.000000000000000e+00 0.000000000000000e+00 0.000000000000000e+00

0.000000000000000e+00 0.000000000000000e+00 0.000000000000000e+00
0.000000000000000e+00 0.000000000000000e+00 0.000000000000000e+00
0.000000000000000e+00 0.000000000000000e+00 0.000000000000000e+00

0.000000000000000e+00 0.000000000000000e+00 0.000000000000000e+00
0.000000000000000e+00 0.000000000000000e+00 0.000000000000000e+00
0.000000000000000e+00 0.000000000000000e+00 0.000000000000000e+00

0.000000000000000e+00 0.000000000000000e+00 0.000000000000000e+00
0.000000000000000e+00 0.000000000000000e+00 0.000000000000000e+00
0.000000000000000e+00 0.000000000000000e+00 0.000000000000000e+00

0.000000000000000e+00 0.000000000000000e+00 0.000000000000000e+00
0.000000000000000e+00 0.000000000000000e+00 0.000000000000000e+00
0.000000000000000e+00 0.000000000000000e+00 0.000000000000000e+00

0.000000000000000e+00 0.000000000000000e+00 0.000000000000000e+00
0.000000000000000e+00 0.000000000000000e+00 0.000000000000000e+00
0.000000000000000e+00 0.000000000000000e+00 0.000000000000000e+00

0.000000000000000e+00 0.000000000000000e+00 0.000000000000000e+00
0.000000000000000e+00 0.000000000000000e+00 0.000000000000000e+00
0.000000000000000e+00 0.000000000000000e+00 0.000000000000000e+00

0.000000000000000e+00 0.000000000000000e+00 0.000000000000000e+00
0.000000000000000e+00 0.000000000000000e+00 0.000000000000000e+00
0.000000000000000e+00 0.000000000000000e+00 0.000000000000000e+00

0.000000000000000e+00 0.000000000000000e+00 0.000000000000000e+00
0.000000000000000e+00 0.000000000000000e+00 0.000000000000000e+00
0.000000000000000e+00 0.000000000000000e+00 0.000000000000000e+00

0.000000000000000e+00 0.000000000000000e+00 0.000000000000000e+00
0.000000000000000e+00 0.000000000000000e+00 0.000000000000000e+00
0.000000000000000e+00 0.000000000000000e+00 0.000000000000000e+00

0.000000000000000e+00 0.000000000000000e+00 0.000000000000000e+00
0.000000000000000e+00 0.000000000000000e+00 0.000000000000000e+00
0.000000000000000e+00 0.000000000000000e+00 0.000000000000000e+00

0.000000000000000e+00 0.000000000000000e+00 0.000000000000000e+00
0.000000000000000e+00 0.000000000000000e+00 0.000000000000000e+00
0.000000000000000e+00 0.000000000000000e+00 0.000000000000000e+00

0.000000000000000e+00 0.000000000000000e+00 0.000000000000000e+00
0.000000000000000e+00 0.000000000000000e+00 0.000000000000000e+00
0.000000000000000e+00 0.000000000000000e+00 0.000000000000000e+00

0.000000000000000e+00 0.000000000000000e+00 0.000000000000000e+00
0.000000000000000e+00 0.000000000000000e+00 0.000000000000000e+00
0.000000000000000e+00 0.000000000000000e+00 0.000000000000000e+00

0.000000000000000e+00 0.000000000000000e+00 0.000000000000000e+00
0.000000000000000e+00 0.000000000000000e+00 0.000000000000000e+00
0.000000000000000e+00 0.000000000000000e+00 0.000000000000000e+00

0.000000000000000e+00 0.000000000000000e+00 0.000000000000000e+00
0.000000000000000e+00 0.000000000000000e+00 0.000000000000000e+00
0.000000000000000e+00 0.000000000000000e+00 0.000000000000000e+00

0.000000000000000e+00 0.000000000000000e+00 0.000000000000000e+00
0.000000000000000e+00 0.000000000000000e+00 0.000000000000000e+00
0.000000000000000e+00 0.000000000000000e+00 0.000000000000000e+00

0.000000000000000e+00 0.000000000000000e+00 0.000000000000000e+00
0.000000000000000e+00 0.000000000000000e+00 0.000000000000000e+00
0.000000000000000e+00 0.000000000000000e+00 0.000000000000000e+00

0.000000000000000e+00 0.000000000000000e+00 0.000000000000000e+00
0.000000000000000e+00 0.000000000000000e+00 0.000000000000000e+00
0.000000000000000e+00 0.000000000000000e+00 0.000000000000000e+00

0.000000000000000e+00 0.000000000000000e+00 0.000000000000000e+00
0.000000000000000e+00 0.000000000000000e+00 0.000000000000000e+00
0.000000000000000e+00 0.000000000000000e+00 0.000000000000000e+00

0.000000000000000e+00 0.000000000000000e+00 0.000000000000000e+00
0.000000000000000e+00 0.000000000000000e+00 0.000000000000000e+00
0.000000000000000e+00 0.000000000000000e+00 0.000000000000000e+00

0.000000000000000e+00 0.000000000000000e+00 0.000000000000000e+00
0.000000000000000e+00 0.000000000000000e+00 0.000000000000000e+00
0.000000000000000e+00 0.000000000000000e+00 0.000000000000000e+00

0.000000000000000e+00 0.000000000000000e+00 0.000000000000000e+00
0.000000000000000e+00 0.000000000000000e+00 0.000000000000000e+00
0.000000000000000e+00 0.000000000000000e+00 0.000000000000000e+00

0.000000000000000e+00 0.000000000000000e+00 0.000000000000000e+00
0.000000000000000e+00 0.000000000000000e+00 0.000000000000000e+00
0.000000000000000e+00 0.000000000000000e+00 0.000000000000000e+00

0.000000000000000e+00 0.000000000000000e+00 0.000000000000000e+00
0.000000000000000e+00 0.000000000000000e+00 0.000000000000000e+00
0.000000000000000e+00 0.000000000000000e+00 0.000000000000000e+00

0.000000000000000e+00 0.000000000000000e+00 0.000000000000000e+00
0.000000000000000e+00 0.000000000000000e+00 0.000000000000000e+00
0.000000000000000e+00 0.000000000000000e+00 0.000000000000000e+00

0.000000000000000e+00 0.000000000000000e+00 0.000000000000000e+00
0.000000000000000e+00 0.000000000000000e+00 0.000000000000000e+00
0.000000000000000e+00 0.000000000000000e+00 0.000000000000000e+00

0.000000000000000e+00 0.000000000000000e+00 0.000000000000000e+00
0.000000000000000e+00 0.000000000000000e+00 0.000000000000000e+00
0.000000000000000e+00 0.000000000000000e+00 0.000000000000000e+00

0.000000000000000e+00 0.000000000000000e+00 0.000000000000000e+00
0.000000000000000e+00 0.000000000000000e+00 0.000000000000000e+00
0.000000000000000e+00 0.000000000000000e+00 0.000000000000000e+00

0.000000000000000e+00 0.000000000000000e+00 0.000000000000000e+00
0.000000000000000e+00 0.000000000000000e+00 0.000000000000000e+00
0.000000000000000e+00 0.000000000000000e+00 0.000000000000000e+00

0.000000000000000e+00 0.000000000000000e+00 0.000000000000000e+00
0.000000000000000e+00 0.000000000000000e+00 0.000000000000000e+00
0.000000000000000e+00 0.000000000000000e+00 0.000000000000000e+00

0.000000000000000e+00 0.000000000000000e+00 0.000000000000000e+00
0.000000000000000e+00 0.000000000000000e+00 0.000000000000000e+00
0.000000000000000e+00 0.000000000000000e+00 0.000000000000000e+00

0.000000000000000e+00 0.000000000000000e+00 0.000000000000000e+00
0.000000000000000e+00 0.000000000000000e+00 0.000000000000000e+00
0.000000000000000e+00 0.000000000000000e+00 0.000000000000000e+00

0.000000000000000e+00 0.000000000000000e+00 0.000000000000000e+00
0.000000000000000e+00 0.000000000000000e+00 0.000000000000000e+00
0.000000000000000e+00 0.000000000000000e+00 0.000000000000000e+00

0.000000000000000e+00 0.000000000000000e+00 0.000000000000000e+00
0.000000000000000e+00 0.000000000000000e+00 0.000000000000000e+00
0.000000000000000e+00 0.000000000000000e+00 0.000000000000000e+00

0.000000000000000e+00 0.000000000000000e+00 0.000000000000000e+00
0.000000000000000e+00 0.000000000000000e+00 0.000000000000000e+00
0.000000000000000e+00 0.000000000000000e+00 0.000000000000000e+00

0.000000000000000e+00 0.000000000000000e+00 0.000000000000000e+00
0.000000000000000e+00 0.000000000000000e+00 0.000000000000000e+00
0.000000000000000e+00 0.000000000000000e+00 0.000000000000000e+00

0.000000000000000e+00 0.000000000000000e+00 0.000000000000000e+00
0.000000000000000e+00 0.000000000000000e+00 0.000000000000000e+00
0.000000000000000e+00 0.000000000000000e+00 0.000000000000000e+00

0.000000000000000e+00 0.000000000000000e+00 0.000000000000000e+00
0.000000000000000e+00 0.000000000000000e+00 0.000000000000000e+00
0.000000000000000e+00 0.000000000000000e+00 0.000000000000000e+00

0.000000000000000e+00 0.000000000000000e+00 0.000000000000000e+00
0.000000000000000e+00 0.000000000000000e+00 0.000000000000000e+00
0.000000000000000e+00 0.000000000000000e+00 0.000000000000000e+00

0.000000000000000e+00 0.000000000000000e+00 0.000000000000000e+00
0.000000000000000e+00 0.000000000000000e+00 0.000000000000000e+00
0.000000000000000e+00 0.000000000000000e+00 0.000000000000000e+00

0.000000000000000e+00 0.000000000000000e+00 0.000000000000000e+00
0.000000000000000e+00 0.000000000000000e+00 0.000000000000000e+00
0.000000000000000e+00 0.000000000000000e+00 0.000000000000000e+00

0.000000000000000e+00 0.000000000000000e+00 0.000000000000000e+00
0.000000000000000e+00 0.000000000000000e+00 0.000000000000000e+00
0.000000000000000e+00 0.000000000000000e+00 0.000000000000000e+00

0.000000000000000e+00 0.000000000000000e+00 0.000000000000000e+00
0.000000000000000e+00 0.000000000000000e+00 0.000000000000000e+00
0.000000000000000e+00 0.000000000000000e+00 0.000000000000000e+00

0.000000000000000e+00 0.000000000000000e+00 0.000000000000000e+00
0.000000000000000e+00 0.000000000000000e+00 0.000000000000000e+00
0.000000000000000e+00 0.000000000000000e+00 0.000000000000000e+00

0.000000000000000e+00 0.000000000000000e+00 0.000000000000000e+00
0.000000000000000e+00 0.000000000000000e+00 0.000000000000000e+00
0.000000000000000e+00 0.000000000000000e+00 0.000000000000000e+00

0.000000000000000e+00 0.000000000000000e+00 0.000000000000000e+00
0.000000000000000e+00 0.000000000000000e+00 0.000000000000000e+00
0.000000000000000e+00 0.000000000000000e+00 0.000000000000000e+00

0.000000000000000e+00 0.000000000000000e+00 0.000000000000000e+00
0.000000000000000e+00 0.000000000000000e+00 0.000000000000000e+00
0.000000000000000e+00 0.000000000000000e+00 0.000000000000000e+00

0.000000000000000e+00 0.000000000000000e+00 0.000000000000000e+00
0.000000000000000e+00 0.000000000000000e+00 0.000000000000000e+00
0.000000000000000e+00 0.000000000000000e+00 0.000000000000000e+00

0.000000000000000e+00 0.000000000000000e+00 0.000000000000000e+00
0.000000000000000e+00 0.000000000000000e+00 0.000000000000000e+00
0.000000000000000e+00 0.000000000000000e+00 0.000000000000000e+00

0.000000000000000e+00 0.000000000000000e+00 0.000000000000000e+00
0.000000000000000e+00 0.000000000000000e+00 0.000000000000000e+00
0.000000000000000e+00 0.000000000000000e+00 0.000000000000000e+00

0.000000000000000e+00 0.000000000000000e+00 0.000000000000000e+00
0.000000000000000e+00 0.000000000000000e+00 0.000000000000000e+00
0.000000000000000e+00 0.000000000000000e+00 0.000000000000000e+00

0.000000000000000e+00 0.000000000000000e+00 0.000000000000000e+00
0.000000000000000e+00 0.000000000000000e+00 0.000000000000000e+00
0.000000000000000e+00 0.000000000000000e+00 0.000000000000000e+00

0.000000000000000e+00 0.000000000000000e+00 0.000000000000000e+00
0.000000000000000e+00 0.000000000000000e+00 0.000000000000000e+00
0.000000000000000e+00 0.000000000000000e+00 0.000000000000000e+00

0.000000000000000e+00 0.000000000000000e+00 0.000000000000000e+00
0.000000000000000e+00 0.000000000000000e+00 0.000000000000000e+00
0.000000000000000e+00 0.000000000000000e+00 0.000000000000000e+00

0.000000000000000e+00 0.000000000000000e+00 0.000000000000000e+00
0.000000000000000e+00 0.000000000000000e+00 0.000000000000000e+00
0.000000000000000e+00 0.000000000000000e+00 0.000000000000000e+00

0.000000000000000e+00 0.000000000000000e+00 0.000000000000000e+00
0.000000000000000e+00 0.000000000000000e+00 0.000000000000000e+00
0.000000000000000e+00 0.000000000000000e+00 0.000000000000000e+00

0.000000000000000e+00 0.000000000000000e+00 0.000000000000000e+00
0.000000000000000e+00 0.000000000000000e+00 0.000000000000000e+00
0.000000000000000e+00 0.000000000000000e+00 0.000000000000000e+00

0.000000000000000e+00 0.000000000000000e+00 0.000000000000000e+00
0.000000000000000e+00 0.000000000000000e+00 0.000000000000000e+00
0.000000000000000e+00 0.000000000000000e+00 0.000000000000000e+00

0.000000000000000e+00 0.000000000000000e+00 0.000000000000000e+00
0.000000000000000e+00 0.000000000000000e+00 0.000000000000000e+00
0.000000000000000e+00 0.000000000000000e+00 0.000000000000000e+00

0.000000000000000e+00 0.000000000000000e+00 0.000000000000000e+00
0.000000000000000e+00 0.000000000000000e+00 0.000000000000000e+00
0.000000000000000e+00 0.000000000000000e+00 0.000000000000000e+00

0.000000000000000e+00 0.000000000000000e+00 0.000000000000000e+00
0.000000000000000e+00 0.000000000000000e+00 0.000000000000000e+00
0.000000000000000e+00 0.000000000000000e+00 0.000000000000000e+00

0.000000000000000e+00 0.000000000000000e+00 0.000000000000000e+00
0.000000000000000e+00 0.000000000000000e+00 0.000000000000000e+00
0.000000000000000e+00 0.000000000000000e+00 0.000000000000000e+00

0.000000000000000e+00 0.000000000000000e+00 0.000000000000000e+00
0.000000000000000e+00 0.000000000000000e+00 0.000000000000000e+00
0.000000000000000e+00 0.000000000000000e+00 0.000000000000000e+00

0.000000000000000e+00 0.000000000000000e+00 0.000000000000000e+00
0.000000000000000e+00 0.000000000000000e+00 0.000000000000000e+00
0.000000000000000e+00 0.000000000000000e+00 0.000000000000000e+00

0.000000000000000e+00 0.000000000000000e+00 0.000000000000000e+00
0.000000000000000e+00 0.000000000000000e+00 0.000000000000000e+00
0.000000000000000e+00 0.000000000000000e+00 0.000000000000000e+00

0.000000000000000e+00 0.000000000000000e+00 0.000000000000000e+00
0.000000000000000e+00 0.000000000000000e+00 0.000000000000000e+00
0.000000000000000e+00 0.000000000000000e+00 0.000000000000000e+00

0.000000000000000e+00 0.000000000000000e+00 0.000000000000000e+00
0.000000000000000e+00 0.000000000000000e+00 0.000000000000000e+00
0.000000000000000e+00 0.000000000000000e+00 0.000000000000000e+00

0.000000000000000e+00 0.000000000000000e+00 0.000000000000000e+00
0.000000000000000e+00 0.000000000000000e+00 0.000000000000000e+00
0.000000000000000e+00 0.000000000000000e+00 0.000000000000000e+00

0.000000000000000e+00 0.000000000000000e+00 0.000000000000000e+00
0.000000000000000e+00 0.000000000000000e+00 0.000000000000000e+00
0.000000000000000e+00 0.000000000000000e+00 0.000000000000000e+00

0.000000000000000e+00 0.000000000000000e+00 0.000000000000000e+00
0.000000000000000e+00 0.000000000000000e+00 0.000000000000000e+00
0.000000000000000e+00 0.000000000000000e+00 0.000000000000000e+00

0.000000000000000e+00 0.000000000000000e+00 0.000000000000000e+00
0.000000000000000e+00 0.000000000000000e+00 0.000000000000000e+00
0.000000000000000e+00 0.000000000000000e+00 0.000000000000000e+00

0.000000000000000e+00 0.000000000000000e+00 0.000000000000000e+00
0.000000000000000e+00 0.000000000000000e+00 0.000000000000000e+00
0.000000000000000e+00 0.000000000000000e+00 0.000000000000000e+00

0.000000000000000e+00 0.000000000000000e+00 0.000000000000000e+00
0.000000000000000e+00 0.000000000000000e+00 0.000000000000000e+00
0.000000000000000e+00 0.000000000000000e+00 0.000000000000000e+00

0.000000000000000e+00 0.000000000000000e+00 0.000000000000000e+00
0.000000000000000e+00 0.000000000000000e+00 0.000000000000000e+00
0.000000000000000e+00 0.000000000000000e+00 0.000000000000000e+00

0.000000000000000e+00 0.000000000000000e+00 0.000000000000000e+00
0.000000000000000e+00 0.000000000000000e+00 0.000000000000000e+00
0.000000000000000e+00 0.000000000000000e+00 0.000000000000000e+00

0.000000000000000e+00 0.000000000000000e+00 0.000000000000000e+00
0.000000000000000e+00 0.000000000000000e+00 0.000000000000000e+00
0.000000000000000e+00 0.000000000000000e+00 0.000000000000000e+00

0.000000000000000e+00 0.000000000000000e+00 0.000000000000000e+00
0.000000000000000e+00 0.000000000000000e+00 0.000000000000000e+00
0.000000000000000e+00 0.000000000000000e+00 0.000000000000000e+00

0.000000000000000e+00 0.000000000000000e+00 0.000000000000000e+00
0.000000000000000e+00 0.000000000000000e+00 0.000000000000000e+00
0.000000000000000e+00 0.000000000000000e+00 0.000000000000000e+00

0.000000000000000e+00 0.000000000000000e+00 0.000000000000000e+00
0.000000000000000e+00 0.000000000000000e+00 0.000000000000000e+00
0.000000000000000e+00 0.000000000000000e+00 0.000000000000000e+00

0.000000000000000e+00 0.000000000000000e+00 0.000000000000000e+00
0.000000000000000e+00 0.000000000000000e+00 0.000000000000000e+00
0.000000000000000e+00 0.000000000000000e+00 0.000000000000000e+00

0.000000000000000e+00 0.000000000000000e+00 0.000000000000000e+00
0.000000000000000e+00 0.000000000000000e+00 0.000000000000000e+00
0.000000000000000e+00 0.000000000000000e+00 0.000000000000000e+00

0.000000000000000e+00 0.000000000000000e+00 0.000000000000000e+00
0.000000000000000e+00 0.000000000000000e+00 0.000000000000000e+00
0.000000000000000e+00 0.000000000000000e+00 0.000000000000000e+00

0.000000000000000e+00 0.000000000000000e+00 0.000000000000000e+00
0.000000000000000e+00 0.000000000000000e+00 0.000000000000000e+00
0.000000000000000e+00 0.000000000000000e+00 0.000000000000000e+00

0.000000000000000e+00 0.000000000000000e+00 0.000000000000000e+00
0.000000000000000e+00 0.000000000000000e+00 0.000000000000000e+00
0.000000000000000e+00 0.000000000000000e+00 0.000000000000000e+00

0.000000000000000e+00 0.000000000000000e+00 0.000000000000000e+00
0.000000000000000e+00 0.000000000000000e+00 0.000000000000000e+00
0.000000000000000e+00 0.000000000000000e+00 0.000000000000000e+00

0.000000000000000e+00 0.000000000000000e+00 0.000000000000000e+00
0.000000000000000e+00 0.000000000000000e+00 0.000000000000000e+00
0.000000000000000e+00 0.000000000000000e+00 0.000000000000000e+00

0.000000000000000e+00 0.000000000000000e+00 0.000000000000000e+00
0.000000000000000e+00 0.000000000000000e+00 0.000000000000000e+00
0.000000000000000e+00 0.000000000000000e+00 0.000000000000000e+00

0.000000000000000e+00 0.000000000000000e+00 0.000000000000000e+00
0.000000000000000e+00 0.000000000000000e+00 0.000000000000000e+00
0.000000000000000e+00 0.000000000000000e+00 0.000000000000000e+00

0.000000000000000e+00 0.000000000000000e+00 0.000000000000000e+00
0.000000000000000e+00 0.000000000000000e+00 0.000000000000000e+00
0.000000000000000e+00 0.000000000000000e+00 0.000000000000000e+00

0.000000000000000e+00 0.000000000000000e+00 0.000000000000000e+00
0.000000000000000e+00 0.000000000000000e+00 0.000000000000000e+00
0.000000000000000e+00 0.000000000000000e+00 0.000000000000000e+00

0.000000000000000e+00 0.000000000000000e+00 0.000000000000000e+00
0.000000000000000e+00 0.000000000000000e+00 0.000000000000000e+00
0.000000000000000e+00 0.000000000000000e+00 0.000000000000000e+00

0.000000000000000e+00 0.000000000000000e+00 0.000000000000000e+00
0.000000000000000e+00 0.000000000000000e+00 0.000000000000000e+00
0.000000000000000e+00 0.000000000000000e+00 0.000000000000000e+00

0.000000000000000e+00 0.000000000000000e+00 0.000000000000000e+00
0.000000000000000e+00 0.000000000000000e+00 0.000000000000000e+00
0.000000000000000e+00 0.000000000000000e+00 0.000000000000000e+00

0.000000000000000e+00 0.000000000000000e+00 0.000000000000000e+00
0.000000000000000e+00 0.000000000000000e+00 0.000000000000000e+00
0.000000000000000e+00 0.000000000000000e+00 0.000000000000000e+00

0.000000000000000e+00 0.000000000000000e+00 0.000000000000000e+00
0.000000000000000e+00 0.000000000000000e+00 0.000000000000000e+00
0.000000000000000e+00 0.000000000000000e+00 0.000000000000000e+00

0.000000000000000e+00 0.000000000000000e+00 0.000000000000000e+00
0.000000000000000e+00 0.000000000000000e+00 0.000000000000000e+00
0.000000000000000e+00 0.000000000000000e+00 0.000000000000000e+00

0.000000000000000e+00 0.000000000000000e+00 0.000000000000000e+00
0.000000000000000e+00 0.000000000000000e+00 0.000000000000000e+00
0.000000000000000e+00 0.000000000000000e+00 0.000000000000000e+00

0.000000000000000e+00 0.000000000000000e+00 0.000000000000000e+00
0.000000000000000e+00 0.000000000000000e+00 0.000000000000000e+00
0.000000000000000e+00 0.000000000000000e+00 0.000000000000000e+00

0.000000000000000e+00 0.000000000000000e+00 0.000000000000000e+00
0.000000000000000e+00 0.000000000000000e+00 0.000000000000000e+00
0.000000000000000e+00 0.000000000000000e+00 0.000000000000000e+00

0.000000000000000e+00 0.000000000000000e+00 0.000000000000000e+00
0.000000000000000e+00 0.000000000000000e+00 0.000000000000000e+00
0.000000000000000e+00 0.000000000000000e+00 0.000000000000000e+00

0.000000000000000e+00 0.000000000000000e+00 0.000000000000000e+00
0.000000000000000e+00 0.000000000000000e+00 0.000000000000000e+00
0.000000000000000e+00 0.000000000000000e+00 0.000000000000000e+00

0.000000000000000e+00 0.000000000000000e+00 0.000000000000000e+00
0.000000000000000e+00 0.000000000000000e+00 0.000000000000000e+00
0.000000000000000e+00 0.000000000000000e+00 0.000000000000000e+00

0.000000000000000e+00 0.000000000000000e+00 0.000000000000000e+00
0.000000000000000e+00 0.000000000000000e+00 0.000000000000000e+00
0.000000000000000e+00 0.000000000000000e+00 0.000000000000000e+00

0.000000000000000e+00 0.000000000000000e+00 0.000000000000000e+00
0.000000000000000e+00 0.000000000000000e+00 0.000000000000000e+00
0.000000000000000e+00 0.000000000000000e+00 0.000000000000000e+00

0.000000000000000e+00 0.000000000000000e+00 0.000000000000000e+00
0.000000000000000e+00 0.000000000000000e+00 0.000000000000000e+00
0.000000000000000e+00 0.000000000000000e+00 0.000000000000000e+00

0.000000000000000e+00 0.000000000000000e+00 0.000000000000000e+00
0.000000000000000e+00 0.000000000000000e+00 0.000000000000000e+00
0.000000000000000e+00 0.000000000000000e+00 0.000000000000000e+00

0.000000000000000e+00 0.000000000000000e+00 0.000000000000000e+00
0.000000000000000e+00 0.000000000000000e+00 0.000000000000000e+00
0.000000000000000e+00 0.000000000000000e+00 0.000000000000000e+00

0.000000000000000e+00 0.000000000000000e+00 0.000000000000000e+00
0.000000000000000e+00 0.000000000000000e+00 0.000000000000000e+00
0.000000000000000e+00 0.000000000000000e+00 0.000000000000000e+00

0.000000000000000e+00 0.000000000000000e+00 0.000000000000000e+00
0.000000000000000e+00 0.000000000000000e+00 0.000000000000000e+00
0.000000000000000e+00 0.000000000000000e+00 0.000000000000000e+00

0.000000000000000e+00 0.000000000000000e+00 0.000000000000000e+00
0.000000000000000e+00 0.000000000000000e+00 0.000000000000000e+00
0.000000000000000e+00 0.000000000000000e+00 0.000000000000000e+00

0.000000000000000e+00 0.000000000000000e+00 0.000000000000000e+00
0.000000000000000e+00 0.000000000000000e+00 0.000000000000000e+00
0.000000000000000e+00 0.000000000000000e+00 0.000000000000000e+00

0.000000000000000e+00 0.000000000000000e+00 0.000000000000000e+00
0.000000000000000e+00 0.000000000000000e+00 0.000000000000000e+00
0.000000000000000e+00 0.000000000000000e+00 0.000000000000000e+00

0.000000000000000e+00 0.000000000000000e+00 0.000000000000000e+00
0.000000000000000e+00 0.000000000000000e+00 0.000000000000000e+00
0.000000000000000e+00 0.000000000000000e+00 0.000000000000000e+00

0.000000000000000e+00 0.000000000000000e+00 0.000000000000000e+00
0.000000000000000e+00 0.000000000000000e+00 0.000000000000000e+00
0.000000000000000e+00 0.000000000000000e+00 0.000000000000000e+00

0.000000000000000e+00 0.000000000000000e+00 0.000000000000000e+00
0.000000000000000e+00 0.000000000000000e+00 0.000000000000000e+00
0.000000000000000e+00 0.000000000000000e+00 0.000000000000000e+00

0.000000000000000e+00 0.000000000000000e+00 0.000000000000000e+00
0.000000000000000e+00 0.000000000000000e+00 0.000000000000000e+00
0.000000000000000e+00 0.000000000000000e+00 0.000000000000000e+00

0.000000000000000e+00 0.000000000000000e+00 0.000000000000000e+00
0.000000000000000e+00 0.000000000000000e+00 0.000000000000000e+00
0.000000000000000e+00 0.000000000000000e+00 0.000000000000000e+00

0.000000000000000e+00 0.000000000000000e+00 0.000000000000000e+00
0.000000000000000e+00 0.000000000000000e+00 0.000000000000000e+00
0.000000000000000e+00 0.000000000000000e+00 0.000000000000000e+00

0.000000000000000e+00 0.000000000000000e+00 0.000000000000000e+00
0.000000000000000e+00 0.000000000000000e+00 0.000000000000000e+00
0.000000000000000e+00 0.000000000000000e+00 0.000000000000000e+00

0.000000000000000e+00 0.000000000000000e+00 0.000000000000000e+00
0.000000000000000e+00 0.000000000000000e+00 0.000000000000000e+00
0.000000000000000e+00 0.000000000000000e+00 0.000000000000000e+00

0.000000000000000e+00 0.000000000000000e+00 0.000000000000000e+00
0.000000000000000e+00 0.000000000000000e+00 0.000000000000000e+00
0.000000000000000e+00 0.000000000000000e+00 0.000000000000000e+00

0.000000000000000e+00 0.000000000000000e+00 0.000000000000000e+00
0.000000000000000e+00 0.000000000000000e+00 0.000000000000000e+00
0.000000000000000e+00 0.000000000000000e+00 0.000000000000000e+00

0.000000000000000e+00 0.000000000000000e+00 0.000000000000000e+00
0.000000000000000e+00 0.000000000000000e+00 0.000000000000000e+00
0.000000000000000e+00 0.000000000000000e+00 0.000000000000000e+00

0.000000000000000e+00 0.000000000000000e+00 0.000000000000000e+00
0.000000000000000e+00 0.000000000000000e+00 0.000000000000000e+00
0.000000000000000e+00 0.000000000000000e+00 0.000000000000000e+00

0.000000000000000e+00 0.000000000000000e+00 0.000000000000000e+00
0.000000000000000e+00 0.000000000000000e+00 0.000000000000000e+00
0.000000000000000e+00 0.000000000000000e+00 0.000000000000000e+00

0.000000000000000e+00 0.000000000000000e+00 0.000000000000000e+00
0.000000000000000e+00 0.000000000000000e+00 0.000000000000000e+00
0.000000000000000e+00 0.000000000000000e+00 0.000000000000000e+00

0.000000000000000e+00 0.000000000000000e+00 0.000000000000000e+00
0.000000000000000e+00 0.000000000000000e+00 0.000000000000000e+00
0.000000000000000e+00 0.000000000000000e+00 0.000000000000000e+00

0.000000000000000e+00 0.000000000000000e+00 0.000000000000000e+00
0.000000000000000e+00 0.000000000000000e+00 0.000000000000000e+00
0.000000000000000e+00 0.000000000000000e+00 0.000000000000000e+00

0.000000000000000e+00 0.000000000000000e+00 0.000000000000000e+00
0.000000000000000e+00 0.000000000000000e+00 0.000000000000000e+00
0.000000000000000e+00 0.000000000000000e+00 0.000000000000000e+00

0.000000000000000e+00 0.000000000000000e+00 0.000000000000000e+00
0.000000000000000e+00 0.000000000000000e+00 0.000000000000000e+00
0.000000000000000e+00 0.000000000000000e+00 0.000000000000000e+00

0.000000000000000e+00 0.000000000000000e+00 0.000000000000000e+00
0.000000000000000e+00 0.000000000000000e+00 0.000000000000000e+00
0.000000000000000e+00 0.000000000000000e+00 0.000000000000000e+00

0.000000000000000e+00 0.000000000000000e+00 0.000000000000000e+00
0.000000000000000e+00 0.000000000000000e+00 0.000000000000000e+00
0.000000000000000e+00 0.000000000000000e+00 0.000000000000000e+00

0.000000000000000e+00 0.000000000000000e+00 0.000000000000000e+00
0.000000000000000e+00 0.000000000000000e+00 0.000000000000000e+00
0.000000000000000e+00 0.000000000000000e+00 0.000000000000000e+00

0.000000000000000e+00 0.000000000000000e+00 0.000000000000000e+00
0.000000000000000e+00 0.000000000000000e+00 0.000000000000000e+00
0.000000000000000e+00 0.000000000000000e+00 0.000000000000000e+00

0.000000000000000e+00 0.000000000000000e+00 0.000000000000000e+00
0.000000000000000e+00 0.000000000000000e+00 0.000000000000000e+00
0.000000000000000e+00 0.000000000000000e+00 0.000000000000000e+00

0.000000000000000e+00 0.000000000000000e+00 0.000000000000000e+00
0.000000000000000e+00 0.000000000000000e+00 0.000000000000000e+00
0.000000000000000e+00 0.000000000000000e+00 0.000000000000000e+00

0.000000000000000e+00 0.000000000000000e+00 0.000000000000000e+00
0.000000000000000e+00 0.000000000000000e+00 0.000000000000000e+00
0.000000000000000e+00 0.000000000000000e+00 0.000000000000000e+00

0.000000000000000e+00 0.000000000000000e+00 0.000000000000000e+00
0.000000000000000e+00 0.000000000000000e+00 0.000000000000000e+00
0.000000000000000e+00 0.000000000000000e+00 0.000000000000000e+00

0.000000000000000e+00 0.000000000000000e+00 0.000000000000000e+00
0.000000000000000e+00 0.000000000000000e+00 0.000000000000000e+00
0.000000000000000e+00 0.000000000000000e+00 0.000000000000000e+00

0.000000000000000e+00 0.000000000000000e+00 0.000000000000000e+00
0.000000000000000e+00 0.000000000000000e+00 0.000000000000000e+00
0.000000000000000e+00 0.000000000000000e+00 0.000000000000000e+00

0.000000000000000e+00 0.000000000000000e+00 0.000000000000000e+00
0.000000000000000e+00 0.000000000000000e+00 0.000000000000000e+00
0.000000000000000e+00 0.000000000000000e+00 0.000000000000000e+00

0.000000000000000e+00 0.000000000000000e+00 0.000000000000000e+00
0.000000000000000e+00 0.000000000000000e+00 0.000000000000000e+00
0.000000000000000e+00 0.000000000000000e+00 0.000000000000000e+00

0.000000000000000e+00 0.000000000000000e+00 0.000000000000000e+00
0.000000000000000e+00 0.000000000000000e+00 0.000000000000000e+00
0.000000000000000e+00 0.000000000000000e+00 0.000000000000000e+00

0.000000000000000e+00 0.000000000000000e+00 0.000000000000000e+00
0.000000000000000e+00 0.000000000000000e+00 0.000000000000000e+00
0.000000000000000e+00 0.000000000000000e+00 0.000000000000000e+00

0.000000000000000e+00 0.000000000000000e+00 0.000000000000000e+00
0.000000000000000e+00 0.000000000000000e+00 0.000000000000000e+00
0.000000000000000e+00 0.000000000000000e+00 0.000000000000000e+00

0.000000000000000e+00 0.000000000000000e+00 0.000000000000000e+00
0.000000000000000e+00 0.000000000000000e+00 0.000000000000000e+00
0.000000000000000e+00 0.000000000000000e+00 0.000000000000000e+00

0.000000000000000e+00 0.000000000000000e+00 0.000000000000000e+00
0.000000000000000e+00 0.000000000000000e+00 0.000000000000000e+00
0.000000000000000e+00 0.000000000000000e+00 0.000000000000000e+00

0.000000000000000e+00 0.000000000000000e+00 0.000000000000000e+00
0.000000000000000e+00 0.000000000000000e+00 0.000000000000000e+00
0.000000000000000e+00 0.000000000000000e+00 0.000000000000000e+00

0.000000000000000e+00 0.000000000000000e+00 0.000000000000000e+00
0.000000000000000e+00 0.000000000000000e+00 0.000000000000000e+00
0.000000000000000e+00 0.000000000000000e+00 0.000000000000000e+00

0.000000000000000e+00 0.000000000000000e+00 0.000000000000000e+00
0.000000000000000e+00 0.000000000000000e+00 0.000000000000000e+00
0.000000000000000e+00 0.000000000000000e+00 0.000000000000000e+00

0.000000000000000e+00 0.000000000000000e+00 0.000000000000000e+00
0.000000000000000e+00 0.000000000000000e+00 0.000000000000000e+00
0.000000000000000e+00 0.000000000000000e+00 0.000000000000000e+00

0.000000000000000e+00 0.000000000000000e+00 0.000000000000000e+00
0.000000000000000e+00 0.000000000000000e+00 0.000000000000000e+00
0.000000000000000e+00 0.000000000000000e+00 0.000000000000000e+00

0.000000000000000e+00 0.000000000000000e+00 0.000000000000000e+00
0.000000000000000e+00 0.000000000000000e+00 0.000000000000000e+00
0.000000000000000e+00 0.000000000000000e+00 0.000000000000000e+00

0.000000000000000e+00 0.000000000000000e+00 0.000000000000000e+00
0.000000000000000e+00 0.000000000000000e+00 0.000000000000000e+00
0.000000000000000e+00 0.000000000000000e+00 0.000000000000000e+00

0.000000000000000e+00 0.000000000000000e+00 0.000000000000000e+00
0.000000000000000e+00 0.000000000000000e+00 0.000000000000000e+00
0.000000000000000e+00 0.000000000000000e+00 0.000000000000000e+00

0.000000000000000e+00 0.000000000000000e+00 0.000000000000000e+00
0.000000000000000e+00 0.000000000000000e+00 0.000000000000000e+00
0.000000000000000e+00 0.000000000000000e+00 0.000000000000000e+00

0.000000000000000e+00 0.000000000000000e+00 0.000000000000000e+00
0.000000000000000e+00 0.000000000000000e+00 0.000000000000000e+00
0.000000000000000e+00 0.000000000000000e+00 0.000000000000000e+00

0.000000000000000e+00 0.000000000000000e+00 0.000000000000000e+00
0.000000000000000e+00 0.000000000000000e+00 0.000000000000000e+00
0.000000000000000e+00 0.000000000000000e+00 0.000000000000000e+00

0.000000000000000e+00 0.000000000000000e+00 0.000000000000000e+00
0.000000000000000e+00 0.000000000000000e+00 0.000000000000000e+00
0.000000000000000e+00 0.000000000000000e+00 0.000000000000000e+00

0.000000000000000e+00 0.000000000000000e+00 0.000000000000000e+00
0.000000000000000e+00 0.000000000000000e+00 0.000000000000000e+00
0.000000000000000e+00 0.000000000000000e+00 0.000000000000000e+00

0.000000000000000e+00 0.000000000000000e+00 0.000000000000000e+00
0.000000000000000e+00 0.000000000000000e+00 0.000000000000000e+00
0.000000000000000e+00 0.000000000000000e+00 0.000000000000000e+00

0.000000000000000e+00 0.000000000000000e+00 0.000000000000000e+00
0.000000000000000e+00 0.000000000000000e+00 0.000000000000000e+00
0.000000000000000e+00 0.000000000000000e+00 0.000000000000000e+00

0.000000000000000e+00 0.000000000000000e+00 0.000000000000000e+00
0.000000000000000e+00 0.000000000000000e+00 0.000000000000000e+00
0.000000000000000e+00 0.000000000000000e+00 0.000000000000000e+00

0.000000000000000e+00 0.000000000000000e+00 0.000000000000000e+00
0.000000000000000e+00 0.000000000000000e+00 0.000000000000000e+00
0.000000000000000e+00 0.000000000000000e+00 0.000000000000000e+00

0.000000000000000e+00 0.000000000000000e+00 0.000000000000000e+00
0.000000000000000e+00 0.000000000000000e+00 0.000000000000000e+00
0.000000000000000e+00 0.000000000000000e+00 0.000000000000000e+00

0.000000000000000e+00 0.000000000000000e+00 0.000000000000000e+00
0.000000000000000e+00 0.000000000000000e+00 0.000000000000000e+00
0.000000000000000e+00 0.000000000000000e+00 0.000000000000000e+00

0.000000000000000e+00 0.000000000000000e+00 0.000000000000000e+00
0.000000000000000e+00 0.000000000000000e+00 0.000000000000000e+00
0.000000000000000e+00 0.000000000000000e+00 0.000000000000000e+00

0.000000000000000e+00 0.000000000000000e+00 0.000000000000000e+00
0.000000000000000e+00 0.000000000000000e+00 0.000000000000000e+00
0.000000000000000e+00 0.000000000000000e+00 0.000000000000000e+00

0.000000000000000e+00 0.000000000000000e+00 0.000000000000000e+00
0.000000000000000e+00 0.000000000000000e+00 0.000000000000000e+00
0.000000000000000e+00 0.000000000000000e+00 0.000000000000000e+00

0.000000000000000e+00 0.000000000000000e+00 0.000000000000000e+00
0.000000000000000e+00 0.000000000000000e+00 0.000000000000000e+00
0.000000000000000e+00 0.000000000000000e+00 0.000000000000000e+00

0.000000000000000e+00 0.000000000000000e+00 0.000000000000000e+00
0.000000000000000e+00 0.000000000000000e+00 0.000000000000000e+00
0.000000000000000e+00 0.000000000000000e+00 0.000000000000000e+00

0.000000000000000e+00 0.000000000000000e+00 0.000000000000000e+00
0.000000000000000e+00 0.000000000000000e+00 0.000000000000000e+00
0.000000000000000e+00 0.000000000000000e+00 0.000000000000000e+00

0.000000000000000e+00 0.000000000000000e+00 0.000000000000000e+00
0.000000000000000e+00 0.000000000000000e+00 0.000000000000000e+00
0.000000000000000e+00 0.000000000000000e+00 0.000000000000000e+00

0.000000000000000e+00 0.000000000000000e+00 0.000000000000000e+00
0.000000000000000e+00 0.000000000000000e+00 0.000000000000000e+00
0.000000000000000e+00 0.000000000000000e+00 0.000000000000000e+00

0.000000000000000e+00 0.000000000000000e+00 0.000000000000000e+00
0.000000000000000e+00 0.000000000000000e+00 0.000000000000000e+00
0.000000000000000e+00 0.000000000000000e+00 0.000000000000000e+00

0.000000000000000e+00 0.000000000000000e+00 0.000000000000000e+00
0.000000000000000e+00 0.000000000000000e+00 0.000000000000000e+00
0.000000000000000e+00 0.000000000000000e+00 0.000000000000000e+00

0.000000000000000e+00 0.000000000000000e+00 0.000000000000000e+00
0.000000000000000e+00 0.000000000000000e+00 0.000000000000000e+00
0.000000000000000e+00 0.000000000000000e+00 0.000000000000000e+00

0.000000000000000e+00 0.000000000000000e+00 0.000000000000000e+00
0.000000000000000e+00 0.000000000000000e+00 0.000000000000000e+00
0.000000000000000e+00 0.000000000000000e+00 0.000000000000000e+00

0.000000000000000e+00 0.000000000000000e+00 0.000000000000000e+00
0.000000000000000e+00 0.000000000000000e+00 0.000000000000000e+00
0.000000000000000e+00 0.000000000000000e+00 0.000000000000000e+00

0.000000000000000e+00 0.000000000000000e+00 0.000000000000000e+00
0.000000000000000e+00 0.000000000000000e+00 0.000000000000000e+00
0.000000000000000e+00 0.000000000000000e+00 0.000000000000000e+00

0.000000000000000e+00 0.000000000000000e+00 0.000000000000000e+00
0.000000000000000e+00 0.000000000000000e+00 0.000000000000000e+00
0.000000000000000e+00 0.000000000000000e+00 0.000000000000000e+00

0.000000000000000e+00 0.000000000000000e+00 0.000000000000000e+00
0.000000000000000e+00 0.000000000000000e+00 0.000000000000000e+00
0.000000000000000e+00 0.000000000000000e+00 0.000000000000000e+00

0.000000000000000e+00 0.000000000000000e+00 0.000000000000000e+00
0.000000000000000e+00 0.000000000000000e+00 0.000000000000000e+00
0.000000000000000e+00 0.000000000000000e+00 0.000000000000000e+00

0.000000000000000e+00 0.000000000000000e+00 0.000000000000000e+00
0.000000000000000e+00 0.000000000000000e+00 0.000000000000000e+00
0.000000000000000e+00 0.000000000000000e+00 0.000000000000000e+00

0.000000000000000e+00 0.000000000000000e+00 0.000000000000000e+00
0.000000000000000e+00 0.000000000000000e+00 0.000000000000000e+00
0.000000000000000e+00 0.000000000000000e+00 0.000000000000000e+00

0.000000000000000e+00 0.000000000000000e+00 0.000000000000000e+00
0.000000000000000e+00 0.000000000000000e+00 0.000000000000000e+00
0.000000000000000e+00 0.000000000000000e+00 0.000000000000000e+00

0.000000000000000e+00 0.000000000000000e+00 0.000000000000000e+00
0.000000000000000e+00 0.000000000000000e+00 0.000000000000000e+00
0.000000000000000e+00 0.000000000000000e+00 0.000000000000000e+00

0.000000000000000e+00 0.000000000000000e+00 0.000000000000000e+00
0.000000000000000e+00 0.000000000000000e+00 0.000000000000000e+00
0.000000000000000e+00 0.000000000000000e+00 0.000000000000000e+00

0.000000000000000e+00 0.000000000000000e+00 0.000000000000000e+00
0.000000000000000e+00 0.000000000000000e+00 0.000000000000000e+00
0.000000000000000e+00 0.000000000000000e+00 0.000000000000000e+00

0.000000000000000e+00 0.000000000000000e+00 0.000000000000000e+00
0.000000000000000e+00 0.000000000000000e+00 0.000000000000000e+00
0.000000000000000e+00 0.000000000000000e+00 0.000000000000000e+00

0.000000000000000e+00 0.000000000000000e+00 0.000000000000000e+00
0.000000000000000e+00 0.000000000000000e+00 0.000000000000000e+00
0.000000000000000e+00 0.000000000000000e+00 0.000000000000000e+00

0.000000000000000e+00 0.000000000000000e+00 0.000000000000000e+00
0.000000000000000e+00 0.000000000000000e+00 0.000000000000000e+00
0.000000000000000e+00 0.000000000000000e+00 0.000000000000000e+00

0.000000000000000e+00 0.000000000000000e+00 0.000000000000000e+00
0.000000000000000e+00 0.000000000000000e+00 0.000000000000000e+00
0.000000000000000e+00 0.000000000000000e+00 0.000000000000000e+00

0.000000000000000e+00 0.000000000000000e+00 0.000000000000000e+00
0.000000000000000e+00 0.000000000000000e+00 0.000000000000000e+00
0.000000000000000e+00 0.000000000000000e+00 0.000000000000000e+00

0.000000000000000e+00 0.000000000000000e+00 0.000000000000000e+00
0.000000000000000e+00 0.000000000000000e+00 0.000000000000000e+00
0.000000000000000e+00 0.000000000000000e+00 0.000000000000000e+00

0.000000000000000e+00 0.000000000000000e+00 0.000000000000000e+00
0.000000000000000e+00 0.000000000000000e+00 0.000000000000000e+00
0.000000000000000e+00 0.000000000000000e+00 0.000000000000000e+00

0.000000000000000e+00 0.000000000000000e+00 0.000000000000000e+00
0.000000000000000e+00 0.000000000000000e+00 0.000000000000000e+00
0.000000000000000e+00 0.000000000000000e+00 0.000000000000000e+00

0.000000000000000e+00 0.000000000000000e+00 0.000000000000000e+00
0.000000000000000e+00 0.000000000000000e+00 0.000000000000000e+00
0.000000000000000e+00 0.000000000000000e+00 0.000000000000000e+00

0.000000000000000e+00 0.000000000000000e+00 0.000000000000000e+00
0.000000000000000e+00 0.000000000000000e+00 0.000000000000000e+00
0.000000000000000e+00 0.000000000000000e+00 0.000000000000000e+00

0.000000000000000e+00 0.000000000000000e+00 0.000000000000000e+00
0.000000000000000e+00 0.000000000000000e+00 0.000000000000000e+00
0.000000000000000e+00 0.000000000000000e+00 0.000000000000000e+00

0.000000000000000e+00 0.000000000000000e+00 0.000000000000000e+00
0.000000000000000e+00 0.000000000000000e+00 0.000000000000000e+00
0.000000000000000e+00 0.000000000000000e+00 0.000000000000000e+00

0.000000000000000e+00 0.000000000000000e+00 0.000000000000000e+00
0.000000000000000e+00 0.000000000000000e+00 0.000000000000000e+00
0.000000000000000e+00 0.000000000000000e+00 0.000000000000000e+00

0.000000000000000e+00 0.000000000000000e+00 0.000000000000000e+00
0.000000000000000e+00 0.000000000000000e+00 0.000000000000000e+00
0.000000000000000e+00 0.000000000000000e+00 0.000000000000000e+00

0.000000000000000e+00 0.000000000000000e+00 0.000000000000000e+00
0.000000000000000e+00 0.000000000000000e+00 0.000000000000000e+00
0.000000000000000e+00 0.000000000000000e+00 0.000000000000000e+00

0.000000000000000e+00 0.000000000000000e+00 0.000000000000000e+00
0.000000000000000e+00 0.000000000000000e+00 0.000000000000000e+00
0.000000000000000e+00 0.000000000000000e+00 0.000000000000000e+00

0.000000000000000e+00 0.000000000000000e+00 0.000000000000000e+00
0.000000000000000e+00 0.000000000000000e+00 0.000000000000000e+00
0.000000000000000e+00 0.000000000000000e+00 0.000000000000000e+00

0.000000000000000e+00 0.000000000000000e+00 0.000000000000000e+00
0.000000000000000e+00 0.000000000000000e+00 0.000000000000000e+00
0.000000000000000e+00 0.000000000000000e+00 0.000000000000000e+00

0.000000000000000e+00 0.000000000000000e+00 0.000000000000000e+00
0.000000000000000e+00 0.000000000000000e+00 0.000000000000000e+00
0.000000000000000e+00 0.000000000000000e+00 0.000000000000000e+00

0.000000000000000e+00 0.000000000000000e+00 0.000000000000000e+00
0.000000000000000e+00 0.000000000000000e+00 0.000000000000000e+00
0.000000000000000e+00 0.000000000000000e+00 0.000000000000000e+00

0.000000000000000e+00 0.000000000000000e+00 0.000000000000000e+00
0.000000000000000e+00 0.000000000000000e+00 0.000000000000000e+00
0.000000000000000e+00 0.000000000000000e+00 0.000000000000000e+00

0.000000000000000e+00 0.000000000000000e+00 0.000000000000000e+00
0.000000000000000e+00 0.000000000000000e+00 0.000000000000000e+00
0.000000000000000e+00 0.000000000000000e+00 0.000000000000000e+00

0.000000000000000e+00 0.000000000000000e+00 0.000000000000000e+00
0.000000000000000e+00 0.000000000000000e+00 0.000000000000000e+00
0.000000000000000e+00 0.000000000000000e+00 0.000000000000000e+00

0.000000000000000e+00 0.000000000000000e+00 0.000000000000000e+00
0.000000000000000e+00 0.000000000000000e+00 0.000000000000000e+00
0.000000000000000e+00 0.000000000000000e+00 0.000000000000000e+00

0.000000000000000e+00 0.000000000000000e+00 0.000000000000000e+00
0.000000000000000e+00 0.000000000000000e+00 0.000000000000000e+00
0.000000000000000e+00 0.000000000000000e+00 0.000000000000000e+00

0.000000000000000e+00 0.000000000000000e+00 0.000000000000000e+00
0.000000000000000e+00 0.000000000000000e+00 0.000000000000000e+00
0.000000000000000e+00 0.000000000000000e+00 0.000000000000000e+00

0.000000000000000e+00 0.000000000000000e+00 0.000000000000000e+00
0.000000000000000e+00 0.000000000000000e+00 0.000000000000000e+00
0.000000000000000e+00 0.000000000000000e+00 0.000000000000000e+00

0.000000000000000e+00 0.000000000000000e+00 0.000000000000000e+00
0.000000000000000e+00 0.000000000000000e+00 0.000000000000000e+00
0.000000000000000e+00 0.000000000000000e+00 0.000000000000000e+00

0.000000000000000e+00 0.000000000000000e+00 0.000000000000000e+00
0.000000000000000e+00 0.000000000000000e+00 0.000000000000000e+00
0.000000000000000e+00 0.000000000000000e+00 0.000000000000000e+00

0.000000000000000e+00 0.000000000000000e+00 0.000000000000000e+00
0.000000000000000e+00 0.000000000000000e+00 0.000000000000000e+00
0.000000000000000e+00 0.000000000000000e+00 0.000000000000000e+00

0.000000000000000e+00 0.000000000000000e+00 0.000000000000000e+00
0.000000000000000e+00 0.000000000000000e+00 0.000000000000000e+00
0.000000000000000e+00 0.000000000000000e+00 0.000000000000000e+00

0.000000000000000e+00 0.000000000000000e+00 0.000000000000000e+00
0.000000000000000e+00 0.000000000000000e+00 0.000000000000000e+00
0.000000000000000e+00 0.000000000000000e+00 0.000000000000000e+00

0.000000000000000e+00 0.000000000000000e+00 0.000000000000000e+00
0.000000000000000e+00 0.000000000000000e+00 0.000000000000000e+00
0.000000000000000e+00 0.000000000000000e+00 0.000000000000000e+00

0.000000000000000e+00 0.000000000000000e+00 0.000000000000000e+00
0.000000000000000e+00 0.000000000000000e+00 0.000000000000000e+00
0.000000000000000e+00 0.000000000000000e+00 0.000000000000000e+00

0.000000000000000e+00 0.000000000000000e+00 0.000000000000000e+00
0.000000000000000e+00 0.000000000000000e+00 0.000000000000000e+00
0.000000000000000e+00 0.000000000000000e+00 0.000000000000000e+00

0.000000000000000e+00 0.000000000000000e+00 0.000000000000000e+00
0.000000000000000e+00 0.000000000000000e+00 0.000000000000000e+00
0.000000000000000e+00 0.000000000000000e+00 0.000000000000000e+00

0.000000000000000e+00 0.000000000000000e+00 0.000000000000000e+00
0.000000000000000e+00 0.000000000000000e+00 0.000000000000000e+00
0.000000000000000e+00 0.000000000000000e+00 0.000000000000000e+00

0.000000000000000e+00 0.000000000000000e+00 0.000000000000000e+00
0.000000000000000e+00 0.000000000000000e+00 0.000000000000000e+00
0.000000000000000e+00 0.000000000000000e+00 0.000000000000000e+00

0.000000000000000e+00 0.000000000000000e+00 0.000000000000000e+00
0.000000000000000e+00 0.000000000000000e+00 0.000000000000000e+00
0.000000000000000e+00 0.000000000000000e+00 0.000000000000000e+00

0.000000000000000e+00 0.000000000000000e+00 0.000000000000000e+00
0.000000000000000e+00 0.000000000000000e+00 0.000000000000000e+00
0.000000000000000e+00 0.000000000000000e+00 0.000000000000000e+00

0.000000000000000e+00 0.000000000000000e+00 0.000000000000000e+00
0.000000000000000e+00 0.000000000000000e+00 0.000000000000000e+00
0.000000000000000e+00 0.000000000000000e+00 0.000000000000000e+00

0.000000000000000e+00 0.000000000000000e+00 0.000000000000000e+00
0.000000000000000e+00 0.000000000000000e+00 0.000000000000000e+00
0.000000000000000e+00 0.000000000000000e+00 0.000000000000000e+00

0.000000000000000e+00 0.000000000000000e+00 0.000000000000000e+00
0.000000000000000e+00 0.000000000000000e+00 0.000000000000000e+00
0.000000000000000e+00 0.000000000000000e+00 0.000000000000000e+00

0.000000000000000e+00 0.000000000000000e+00 0.000000000000000e+00
0.000000000000000e+00 0.000000000000000e+00 0.000000000000000e+00
0.000000000000000e+00 0.000000000000000e+00 0.000000000000000e+00

0.000000000000000e+00 0.000000000000000e+00 0.000000000000000e+00
0.000000000000000e+00 0.000000000000000e+00 0.000000000000000e+00
0.000000000000000e+00 0.000000000000000e+00 0.000000000000000e+00

0.000000000000000e+00 0.000000000000000e+00 0.000000000000000e+00
0.000000000000000e+00 0.000000000000000e+00 0.000000000000000e+00
0.000000000000000e+00 0.000000000000000e+00 0.000000000000000e+00

0.000000000000000e+00 0.000000000000000e+00 0.000000000000000e+00
0.000000000000000e+00 0.000000000000000e+00 0.000000000000000e+00
0.000000000000000e+00 0.000000000000000e+00 0.000000000000000e+00

0.000000000000000e+00 0.000000000000000e+00 0.000000000000000e+00
0.000000000000000e+00 0.000000000000000e+00 0.000000000000000e+00
0.000000000000000e+00 0.000000000000000e+00 0.000000000000000e+00

0.000000000000000e+00 0.000000000000000e+00 0.000000000000000e+00
0.000000000000000e+00 0.000000000000000e+00 0.000000000000000e+00
0.000000000000000e+00 0.000000000000000e+00 0.000000000000000e+00

0.000000000000000e+00 0.000000000000000e+00 0.000000000000000e+00
0.000000000000000e+00 0.000000000000000e+00 0.000000000000000e+00
0.000000000000000e+00 0.000000000000000e+00 0.000000000000000e+00

0.000000000000000e+00 0.000000000000000e+00 0.000000000000000e+00
0.000000000000000e+00 0.000000000000000e+00 0.000000000000000e+00
0.000000000000000e+00 0.000000000000000e+00 0.000000000000000e+00

0.000000000000000e+00 0.000000000000000e+00 0.000000000000000e+00
0.000000000000000e+00 0.000000000000000e+00 0.000000000000000e+00
0.000000000000000e+00 0.000000000000000e+00 0.000000000000000e+00

0.000000000000000e+00 0.000000000000000e+00 0.000000000000000e+00
0.000000000000000e+00 0.000000000000000e+00 0.000000000000000e+00
0.000000000000000e+00 0.000000000000000e+00 0.000000000000000e+00

0.000000000000000e+00 0.000000000000000e+00 0.000000000000000e+00
0.000000000000000e+00 0.000000000000000e+00 0.000000000000000e+00
0.000000000000000e+00 0.000000000000000e+00 0.000000000000000e+00

0.000000000000000e+00 0.000000000000000e+00 0.000000000000000e+00
0.000000000000000e+00 0.000000000000000e+00 0.000000000000000e+00
0.000000000000000e+00 0.000000000000000e+00 0.000000000000000e+00

0.000000000000000e+00 0.000000000000000e+00 0.000000000000000e+00
0.000000000000000e+00 0.000000000000000e+00 0.000000000000000e+00
0.000000000000000e+00 0.000000000000000e+00 0.000000000000000e+00

0.000000000000000e+00 0.000000000000000e+00 0.000000000000000e+00
0.000000000000000e+00 0.000000000000000e+00 0.000000000000000e+00
0.000000000000000e+00 0.000000000000000e+00 0.000000000000000e+00

0.000000000000000e+00 0.000000000000000e+00 0.000000000000000e+00
0.000000000000000e+00 0.000000000000000e+00 0.000000000000000e+00
0.000000000000000e+00 0.000000000000000e+00 0.000000000000000e+00

0.000000000000000e+00 0.000000000000000e+00 0.000000000000000e+00
0.000000000000000e+00 0.000000000000000e+00 0.000000000000000e+00
0.000000000000000e+00 0.000000000000000e+00 0.000000000000000e+00

0.000000000000000e+00 0.000000000000000e+00 0.000000000000000e+00
0.000000000000000e+00 0.000000000000000e+00 0.000000000000000e+00
0.000000000000000e+00 0.000000000000000e+00 0.000000000000000e+00

0.000000000000000e+00 0.000000000000000e+00 0.000000000000000e+00
0.000000000000000e+00 0.000000000000000e+00 0.000000000000000e+00
0.000000000000000e+00 0.000000000000000e+00 0.000000000000000e+00

0.000000000000000e+00 0.000000000000000e+00 0.000000000000000e+00
0.000000000000000e+00 0.000000000000000e+00 0.000000000000000e+00
0.000000000000000e+00 0.000000000000000e+00 0.000000000000000e+00

0.000000000000000e+00 0.000000000000000e+00 0.000000000000000e+00
0.000000000000000e+00 0.000000000000000e+00 0.000000000000000e+00
0.000000000000000e+00 0.000000000000000e+00 0.000000000000000e+00

0.000000000000000e+00 0.000000000000000e+00 0.000000000000000e+00
0.000000000000000e+00 0.000000000000000e+00 0.000000000000000e+00
0.000000000000000e+00 0.000000000000000e+00 0.000000000000000e+00

0.000000000000000e+00 0.000000000000000e+00 0.000000000000000e+00
0.000000000000000e+00 0.000000000000000e+00 0.000000000000000e+00
0.000000000000000e+00 0.000000000000000e+00 0.000000000000000e+00

0.000000000000000e+00 0.000000000000000e+00 0.000000000000000e+00
0.000000000000000e+00 0.000000000000000e+00 0.000000000000000e+00
0.000000000000000e+00 0.000000000000000e+00 0.000000000000000e+00

0.000000000000000e+00 0.000000000000000e+00 0.000000000000000e+00
0.000000000000000e+00 0.000000000000000e+00 0.000000000000000e+00
0.000000000000000e+00 0.000000000000000e+00 0.000000000000000e+00

0.000000000000000e+00 0.000000000000000e+00 0.000000000000000e+00
0.000000000000000e+00 0.000000000000000e+00 0.000000000000000e+00
0.000000000000000e+00 0.000000000000000e+00 0.000000000000000e+00

0.000000000000000e+00 0.000000000000000e+00 0.000000000000000e+00
0.000000000000000e+00 0.000000000000000e+00 0.000000000000000e+00
0.000000000000000e+00 0.000000000000000e+00 0.000000000000000e+00

0.000000000000000e+00 0.000000000000000e+00 0.000000000000000e+00
0.000000000000000e+00 0.000000000000000e+00 0.000000000000000e+00
0.000000000000000e+00 0.000000000000000e+00 0.000000000000000e+00

0.000000000000000e+00 0.000000000000000e+00 0.000000000000000e+00
0.000000000000000e+00 0.000000000000000e+00 0.000000000000000e+00
0.000000000000000e+00 0.000000000000000e+00 0.000000000000000e+00

0.000000000000000e+00 0.000000000000000e+00 0.000000000000000e+00
0.000000000000000e+00 0.000000000000000e+00 0.000000000000000e+00
0.000000000000000e+00 0.000000000000000e+00 0.000000000000000e+00

0.000000000000000e+00 0.000000000000000e+00 0.000000000000000e+00
0.000000000000000e+00 0.000000000000000e+00 0.000000000000000e+00
0.000000000000000e+00 0.000000000000000e+00 0.000000000000000e+00

0.000000000000000e+00 0.000000000000000e+00 0.000000000000000e+00
0.000000000000000e+00 0.000000000000000e+00 0.000000000000000e+00
0.000000000000000e+00 0.000000000000000e+00 0.000000000000000e+00

0.000000000000000e+00 0.000000000000000e+00 0.000000000000000e+00
0.000000000000000e+00 0.000000000000000e+00 0.000000000000000e+00
0.000000000000000e+00 0.000000000000000e+00 0.000000000000000e+00

0.000000000000000e+00 0.000000000000000e+00 0.000000000000000e+00
0.000000000000000e+00 0.000000000000000e+00 0.000000000000000e+00
0.000000000000000e+00 0.000000000000000e+00 0.000000000000000e+00

0.000000000000000e+00 0.000000000000000e+00 0.000000000000000e+00
0.000000000000000e+00 0.000000000000000e+00 0.000000000000000e+00
0.000000000000000e+00 0.000000000000000e+00 0.000000000000000e+00

0.000000000000000e+00 0.000000000000000e+00 0.000000000000000e+00
0.000000000000000e+00 0.000000000000000e+00 0.000000000000000e+00
0.000000000000000e+00 0.000000000000000e+00 0.000000000000000e+00

0.000000000000000e+00 0.000000000000000e+00 0.000000000000000e+00
0.000000000000000e+00 0.000000000000000e+00 0.000000000000000e+00
0.000000000000000e+00 0.000000000000000e+00 0.000000000000000e+00

0.000000000000000e+00 0.000000000000000e+00 0.000000000000000e+00
0.000000000000000e+00 0.000000000000000e+00 0.000000000000000e+00
0.000000000000000e+00 0.000000000000000e+00 0.000000000000000e+00

0.000000000000000e+00 0.000000000000000e+00 0.000000000000000e+00
0.000000000000000e+00 0.000000000000000e+00 0.000000000000000e+00
0.000000000000000e+00 0.000000000000000e+00 0.000000000000000e+00

0.000000000000000e+00 0.000000000000000e+00 0.000000000000000e+00
0.000000000000000e+00 0.000000000000000e+00 0.000000000000000e+00
0.000000000000000e+00 0.000000000000000e+00 0.000000000000000e+00

0.000000000000000e+00 0.000000000000000e+00 0.000000000000000e+00
0.000000000000000e+00 0.000000000000000e+00 0.000000000000000e+00
0.000000000000000e+00 0.000000000000000e+00 0.000000000000000e+00

0.000000000000000e+00 0.000000000000000e+00 0.000000000000000e+00
0.000000000000000e+00 0.000000000000000e+00 0.000000000000000e+00
0.000000000000000e+00 0.000000000000000e+00 0.000000000000000e+00

0.000000000000000e+00 0.000000000000000e+00 0.000000000000000e+00
0.000000000000000e+00 0.000000000000000e+00 0.000000000000000e+00
0.000000000000000e+00 0.000000000000000e+00 0.000000000000000e+00

0.000000000000000e+00 0.000000000000000e+00 0.000000000000000e+00
0.000000000000000e+00 0.000000000000000e+00 0.000000000000000e+00
0.000000000000000e+00 0.000000000000000e+00 0.000000000000000e+00

0.000000000000000e+00 0.000000000000000e+00 0.000000000000000e+00
0.000000000000000e+00 0.000000000000000e+00 0.000000000000000e+00
0.000000000000000e+00 0.000000000000000e+00 0.000000000000000e+00

0.000000000000000e+00 0.000000000000000e+00 0.000000000000000e+00
0.000000000000000e+00 0.000000000000000e+00 0.000000000000000e+00
0.000000000000000e+00 0.000000000000000e+00 0.000000000000000e+00

0.000000000000000e+00 0.000000000000000e+00 0.000000000000000e+00
0.000000000000000e+00 0.000000000000000e+00 0.000000000000000e+00
0.000000000000000e+00 0.000000000000000e+00 0.000000000000000e+00

0.000000000000000e+00 0.000000000000000e+00 0.000000000000000e+00
0.000000000000000e+00 0.000000000000000e+00 0.000000000000000e+00
0.000000000000000e+00 0.000000000000000e+00 0.000000000000000e+00

0.000000000000000e+00 0.000000000000000e+00 0.000000000000000e+00
0.000000000000000e+00 0.000000000000000e+00 0.000000000000000e+00
0.000000000000000e+00 0.000000000000000e+00 0.000000000000000e+00

0.000000000000000e+00 0.000000000000000e+00 0.000000000000000e+00
0.000000000000000e+00 0.000000000000000e+00 0.000000000000000e+00
0.000000000000000e+00 0.000000000000000e+00 0.000000000000000e+00

0.000000000000000e+00 0.000000000000000e+00 0.000000000000000e+00
0.000000000000000e+00 0.000000000000000e+00 0.000000000000000e+00
0.000000000000000e+00 0.000000000000000e+00 0.000000000000000e+00

0.000000000000000e+00 0.000000000000000e+00 0.000000000000000e+00
0.000000000000000e+00 0.000000000000000e+00 0.000000000000000e+00
0.000000000000000e+00 0.000000000000000e+00 0.000000000000000e+00

0.000000000000000e+00 0.000000000000000e+00 0.000000000000000e+00
0.000000000000000e+00 0.000000000000000e+00 0.000000000000000e+00
0.000000000000000e+00 0.000000000000000e+00 0.000000000000000e+00

0.000000000000000e+00 0.000000000000000e+00 0.000000000000000e+00
0.000000000000000e+00 0.000000000000000e+00 0.000000000000000e+00
0.000000000000000e+00 0.000000000000000e+00 0.000000000000000e+00

0.000000000000000e+00 0.000000000000000e+00 0.000000000000000e+00
0.000000000000000e+00 0.000000000000000e+00 0.000000000000000e+00
0.000000000000000e+00 0.000000000000000e+00 0.000000000000000e+00

0.000000000000000e+00 0.000000000000000e+00 0.000000000000000e+00
0.000000000000000e+00 0.000000000000000e+00 0.000000000000000e+00
0.000000000000000e+00 0.000000000000000e+00 0.000000000000000e+00

0.000000000000000e+00 0.000000000000000e+00 0.000000000000000e+00
0.000000000000000e+00 0.000000000000000e+00 0.000000000000000e+00
0.000000000000000e+00 0.000000000000000e+00 0.000000000000000e+00

0.000000000000000e+00 0.000000000000000e+00 0.000000000000000e+00
0.000000000000000e+00 0.000000000000000e+00 0.000000000000000e+00
0.000000000000000e+00 0.000000000000000e+00 0.000000000000000e+00

0.000000000000000e+00 0.000000000000000e+00 0.000000000000000e+00
0.000000000000000e+00 0.000000000000000e+00 0.000000000000000e+00
0.000000000000000e+00 0.000000000000000e+00 0.000000000000000e+00

0.000000000000000e+00 0.000000000000000e+00 0.000000000000000e+00
0.000000000000000e+00 0.000000000000000e+00 0.000000000000000e+00
0.000000000000000e+00 0.000000000000000e+00 0.000000000000000e+00

0.000000000000000e+00 0.000000000000000e+00 0.000000000000000e+00
0.000000000000000e+00 0.000000000000000e+00 0.000000000000000e+00
0.000000000000000e+00 0.000000000000000e+00 0.000000000000000e+00

0.000000000000000e+00 0.000000000000000e+00 0.000000000000000e+00
0.000000000000000e+00 0.000000000000000e+00 0.000000000000000e+00
0.000000000000000e+00 0.000000000000000e+00 0.000000000000000e+00

0.000000000000000e+00 0.000000000000000e+00 0.000000000000000e+00
0.000000000000000e+00 0.000000000000000e+00 0.000000000000000e+00
0.000000000000000e+00 0.000000000000000e+00 0.000000000000000e+00

0.000000000000000e+00 0.000000000000000e+00 0.000000000000000e+00
0.000000000000000e+00 0.000000000000000e+00 0.000000000000000e+00
0.000000000000000e+00 0.000000000000000e+00 0.000000000000000e+00

0.000000000000000e+00 0.000000000000000e+00 0.000000000000000e+00
0.000000000000000e+00 0.000000000000000e+00 0.000000000000000e+00
0.000000000000000e+00 0.000000000000000e+00 0.000000000000000e+00

0.000000000000000e+00 0.000000000000000e+00 0.000000000000000e+00
0.000000000000000e+00 0.000000000000000e+00 0.000000000000000e+00
0.000000000000000e+00 0.000000000000000e+00 0.000000000000000e+00

0.000000000000000e+00 0.000000000000000e+00 0.000000000000000e+00
0.000000000000000e+00 0.000000000000000e+00 0.000000000000000e+00
0.000000000000000e+00 0.000000000000000e+00 0.000000000000000e+00

0.000000000000000e+00 0.000000000000000e+00 0.000000000000000e+00
0.000000000000000e+00 0.000000000000000e+00 0.000000000000000e+00
0.000000000000000e+00 0.000000000000000e+00 0.000000000000000e+00

0.000000000000000e+00 0.000000000000000e+00 0.000000000000000e+00
0.000000000000000e+00 0.000000000000000e+00 0.000000000000000e+00
0.000000000000000e+00 0.000000000000000e+00 0.000000000000000e+00

0.000000000000000e+00 0.000000000000000e+00 0.000000000000000e+00
0.000000000000000e+00 0.000000000000000e+00 0.000000000000000e+00
0.000000000000000e+00 0.000000000000000e+00 0.000000000000000e+00

0.000000000000000e+00 0.000000000000000e+00 0.000000000000000e+00
0.000000000000000e+00 0.000000000000000e+00 0.000000000000000e+00
0.000000000000000e+00 0.000000000000000e+00 0.000000000000000e+00

0.000000000000000e+00 0.000000000000000e+00 0.000000000000000e+00
0.000000000000000e+00 0.000000000000000e+00 0.000000000000000e+00
0.000000000000000e+00 0.000000000000000e+00 0.000000000000000e+00

0.000000000000000e+00 0.000000000000000e+00 0.000000000000000e+00
0.000000000000000e+00 0.000000000000000e+00 0.000000000000000e+00
0.000000000000000e+00 0.000000000000000e+00 0.000000000000000e+00

0.000000000000000e+00 0.000000000000000e+00 0.000000000000000e+00
0.000000000000000e+00 0.000000000000000e+00 0.000000000000000e+00
0.000000000000000e+00 0.000000000000000e+00 0.000000000000000e+00

0.000000000000000e+00 0.000000000000000e+00 0.000000000000000e+00
0.000000000000000e+00 0.000000000000000e+00 0.000000000000000e+00
0.000000000000000e+00 0.000000000000000e+00 0.000000000000000e+00

0.000000000000000e+00 0.000000000000000e+00 0.000000000000000e+00
0.000000000000000e+00 0.000000000000000e+00 0.000000000000000e+00
0.000000000000000e+00 0.000000000000000e+00 0.000000000000000e+00

0.000000000000000e+00 0.000000000000000e+00 0.000000000000000e+00
0.000000000000000e+00 0.000000000000000e+00 0.000000000000000e+00
0.000000000000000e+00 0.000000000000000e+00 0.000000000000000e+00

0.000000000000000e+00 0.000000000000000e+00 0.000000000000000e+00
0.000000000000000e+00 0.000000000000000e+00 0.000000000000000e+00
0.000000000000000e+00 0.000000000000000e+00 0.000000000000000e+00

0.000000000000000e+00 0.000000000000000e+00 0.000000000000000e+00
0.000000000000000e+00 0.000000000000000e+00 0.000000000000000e+00
0.000000000000000e+00 0.000000000000000e+00 0.000000000000000e+00

0.000000000000000e+00 0.000000000000000e+00 0.000000000000000e+00
0.000000000000000e+00 0.000000000000000e+00 0.000000000000000e+00
0.000000000000000e+00 0.000000000000000e+00 0.000000000000000e+00

0.000000000000000e+00 0.000000000000000e+00 0.000000000000000e+00
0.000000000000000e+00 0.000000000000000e+00 0.000000000000000e+00
0.000000000000000e+00 0.000000000000000e+00 0.000000000000000e+00

0.000000000000000e+00 0.000000000000000e+00 0.000000000000000e+00
0.000000000000000e+00 0.000000000000000e+00 0.000000000000000e+00
0.000000000000000e+00 0.000000000000000e+00 0.000000000000000e+00

0.000000000000000e+00 0.000000000000000e+00 0.000000000000000e+00
0.000000000000000e+00 0.000000000000000e+00 0.000000000000000e+00
0.000000000000000e+00 0.000000000000000e+00 0.000000000000000e+00

0.000000000000000e+00 0.000000000000000e+00 0.000000000000000e+00
0.000000000000000e+00 0.000000000000000e+00 0.000000000000000e+00
0.000000000000000e+00 0.000000000000000e+00 0.000000000000000e+00

0.000000000000000e+00 0.000000000000000e+00 0.000000000000000e+00
0.000000000000000e+00 0.000000000000000e+00 0.000000000000000e+00
0.000000000000000e+00 0.000000000000000e+00 0.000000000000000e+00

0.000000000000000e+00 0.000000000000000e+00 0.000000000000000e+00
0.000000000000000e+00 0.000000000000000e+00 0.000000000000000e+00
0.000000000000000e+00 0.000000000000000e+00 0.000000000000000e+00

0.000000000000000e+00 0.000000000000000e+00 0.000000000000000e+00
0.000000000000000e+00 0.000000000000000e+00 0.000000000000000e+00
0.000000000000000e+00 0.000000000000000e+00 0.000000000000000e+00

0.000000000000000e+00 0.000000000000000e+00 0.000000000000000e+00
0.000000000000000e+00 0.000000000000000e+00 0.000000000000000e+00
0.000000000000000e+00 0.000000000000000e+00 0.000000000000000e+00

0.000000000000000e+00 0.000000000000000e+00 0.000000000000000e+00
0.000000000000000e+00 0.000000000000000e+00 0.000000000000000e+00
0.000000000000000e+00 0.000000000000000e+00 0.000000000000000e+00

0.000000000000000e+00 0.000000000000000e+00 0.000000000000000e+00
0.000000000000000e+00 0.000000000000000e+00 0.000000000000000e+00
0.000000000000000e+00 0.000000000000000e+00 0.000000000000000e+00

0.000000000000000e+00 0.000000000000000e+00 0.000000000000000e+00
0.000000000000000e+00 0.000000000000000e+00 0.000000000000000e+00
0.000000000000000e+00 0.000000000000000e+00 0.000000000000000e+00

0.000000000000000e+00 0.000000000000000e+00 0.000000000000000e+00
0.000000000000000e+00 0.000000000000000e+00 0.000000000000000e+00
0.000000000000000e+00 0.000000000000000e+00 0.000000000000000e+00

0.000000000000000e+00 0.000000000000000e+00 0.000000000000000e+00
0.000000000000000e+00 0.000000000000000e+00 0.000000000000000e+00
0.000000000000000e+00 0.000000000000000e+00 0.000000000000000e+00

0.000000000000000e+00 0.000000000000000e+00 0.000000000000000e+00
0.000000000000000e+00 0.000000000000000e+00 0.000000000000000e+00
0.000000000000000e+00 0.000000000000000e+00 0.000000000000000e+00

0.000000000000000e+00 0.000000000000000e+00 0.000000000000000e+00
0.000000000000000e+00 0.000000000000000e+00 0.000000000000000e+00
0.000000000000000e+00 0.000000000000000e+00 0.000000000000000e+00

0.000000000000000e+00 0.000000000000000e+00 0.000000000000000e+00
0.000000000000000e+00 0.000000000000000e+00 0.000000000000000e+00
0.000000000000000e+00 0.000000000000000e+00 0.000000000000000e+00

0.000000000000000e+00 0.000000000000000e+00 0.000000000000000e+00
0.000000000000000e+00 0.000000000000000e+00 0.000000000000000e+00
0.000000000000000e+00 0.000000000000000e+00 0.000000000000000e+00

0.000000000000000e+00 0.000000000000000e+00 0.000000000000000e+00
0.000000000000000e+00 0.000000000000000e+00 0.000000000000000e+00
0.000000000000000e+00 0.000000000000000e+00 0.000000000000000e+00

0.000000000000000e+00 0.000000000000000e+00 0.000000000000000e+00
0.000000000000000e+00 0.000000000000000e+00 0.000000000000000e+00
0.000000000000000e+00 0.000000000000000e+00 0.000000000000000e+00

0.000000000000000e+00 0.000000000000000e+00 0.000000000000000e+00
0.000000000000000e+00 0.000000000000000e+00 0.000000000000000e+00
0.000000000000000e+00 0.000000000000000e+00 0.000000000000000e+00

0.000000000000000e+00 0.000000000000000e+00 0.000000000000000e+00
0.000000000000000e+00 0.000000000000000e+00 0.000000000000000e+00
0.000000000000000e+00 0.000000000000000e+00 0.000000000000000e+00

0.000000000000000e+00 0.000000000000000e+00 0.000000000000000e+00
0.000000000000000e+00 0.000000000000000e+00 0.000000000000000e+00
0.000000000000000e+00 0.000000000000000e+00 0.000000000000000e+00

0.000000000000000e+00 0.000000000000000e+00 0.000000000000000e+00
0.000000000000000e+00 0.000000000000000e+00 0.000000000000000e+00
0.000000000000000e+00 0.000000000000000e+00 0.000000000000000e+00

0.000000000000000e+00 0.000000000000000e+00 0.000000000000000e+00
0.000000000000000e+00 0.000000000000000e+00 0.000000000000000e+00
0.000000000000000e+00 0.000000000000000e+00 0.000000000000000e+00

0.000000000000000e+00 0.000000000000000e+00 0.000000000000000e+00
0.000000000000000e+00 0.000000000000000e+00 0.000000000000000e+00
0.000000000000000e+00 0.000000000000000e+00 0.000000000000000e+00

0.000000000000000e+00 0.000000000000000e+00 0.000000000000000e+00
0.000000000000000e+00 0.000000000000000e+00 0.000000000000000e+00
0.000000000000000e+00 0.000000000000000e+00 0.000000000000000e+00

0.000000000000000e+00 0.000000000000000e+00 0.000000000000000e+00
0.000000000000000e+00 0.000000000000000e+00 0.000000000000000e+00
0.000000000000000e+00 0.000000000000000e+00 0.000000000000000e+00

0.000000000000000e+00 0.000000000000000e+00 0.000000000000000e+00
0.000000000000000e+00 0.000000000000000e+00 0.000000000000000e+00
0.000000000000000e+00 0.000000000000000e+00 0.000000000000000e+00

0.000000000000000e+00 0.000000000000000e+00 0.000000000000000e+00
0.000000000000000e+00 0.000000000000000e+00 0.000000000000000e+00
0.000000000000000e+00 0.000000000000000e+00 0.000000000000000e+00

0.000000000000000e+00 0.000000000000000e+00 0.000000000000000e+00
0.000000000000000e+00 0.000000000000000e+00 0.000000000000000e+00
0.000000000000000e+00 0.000000000000000e+00 0.000000000000000e+00

0.000000000000000e+00 0.000000000000000e+00 0.000000000000000e+00
0.000000000000000e+00 0.000000000000000e+00 0.000000000000000e+00
0.000000000000000e+00 0.000000000000000e+00 0.000000000000000e+00

0.000000000000000e+00 0.000000000000000e+00 0.000000000000000e+00
0.000000000000000e+00 0.000000000000000e+00 0.000000000000000e+00
0.000000000000000e+00 0.000000000000000e+00 0.000000000000000e+00

0.000000000000000e+00 0.000000000000000e+00 0.000000000000000e+00
0.000000000000000e+00 0.000000000000000e+00 0.000000000000000e+00
0.000000000000000e+00 0.000000000000000e+00 0.000000000000000e+00

0.000000000000000e+00 0.000000000000000e+00 0.000000000000000e+00
0.000000000000000e+00 0.000000000000000e+00 0.000000000000000e+00
0.000000000000000e+00 0.000000000000000e+00 0.000000000000000e+00

0.000000000000000e+00 0.000000000000000e+00 0.000000000000000e+00
0.000000000000000e+00 0.000000000000000e+00 0.000000000000000e+00
0.000000000000000e+00 0.000000000000000e+00 0.000000000000000e+00

0.000000000000000e+00 0.000000000000000e+00 0.000000000000000e+00
0.000000000000000e+00 0.000000000000000e+00 0.000000000000000e+00
0.000000000000000e+00 0.000000000000000e+00 0.000000000000000e+00

0.000000000000000e+00 0.000000000000000e+00 0.000000000000000e+00
0.000000000000000e+00 0.000000000000000e+00 0.000000000000000e+00
0.000000000000000e+00 0.000000000000000e+00 0.000000000000000e+00

0.000000000000000e+00 0.000000000000000e+00 0.000000000000000e+00
0.000000000000000e+00 0.000000000000000e+00 0.000000000000000e+00
0.000000000000000e+00 0.000000000000000e+00 0.000000000000000e+00

0.000000000000000e+00 0.000000000000000e+00 0.000000000000000e+00
0.000000000000000e+00 0.000000000000000e+00 0.000000000000000e+00
0.000000000000000e+00 0.000000000000000e+00 0.000000000000000e+00

0.000000000000000e+00 0.000000000000000e+00 0.000000000000000e+00
0.000000000000000e+00 0.000000000000000e+00 0.000000000000000e+00
0.000000000000000e+00 0.000000000000000e+00 0.000000000000000e+00

0.000000000000000e+00 0.000000000000000e+00 0.000000000000000e+00
0.000000000000000e+00 0.000000000000000e+00 0.000000000000000e+00
0.000000000000000e+00 0.000000000000000e+00 0.000000000000000e+00

0.000000000000000e+00 0.000000000000000e+00 0.000000000000000e+00
0.000000000000000e+00 0.000000000000000e+00 0.000000000000000e+00
0.000000000000000e+00 0.000000000000000e+00 0.000000000000000e+00

0.000000000000000e+00 0.000000000000000e+00 0.000000000000000e+00
0.000000000000000e+00 0.000000000000000e+00 0.000000000000000e+00
0.000000000000000e+00 0.000000000000000e+00 0.000000000000000e+00

0.000000000000000e+00 0.000000000000000e+00 0.000000000000000e+00
0.000000000000000e+00 0.000000000000000e+00 0.000000000000000e+00
0.000000000000000e+00 0.000000000000000e+00 0.000000000000000e+00

0.000000000000000e+00 0.000000000000000e+00 0.000000000000000e+00
0.000000000000000e+00 0.000000000000000e+00 0.000000000000000e+00
0.000000000000000e+00 0.000000000000000e+00 0.000000000000000e+00

0.000000000000000e+00 0.000000000000000e+00 0.000000000000000e+00
0.000000000000000e+00 0.000000000000000e+00 0.000000000000000e+00
0.000000000000000e+00 0.000000000000000e+00 0.000000000000000e+00

0.000000000000000e+00 0.000000000000000e+00 0.000000000000000e+00
0.000000000000000e+00 0.000000000000000e+00 0.000000000000000e+00
0.000000000000000e+00 0.000000000000000e+00 0.000000000000000e+00

0.000000000000000e+00 0.000000000000000e+00 0.000000000000000e+00
0.000000000000000e+00 0.000000000000000e+00 0.000000000000000e+00
0.000000000000000e+00 0.000000000000000e+00 0.000000000000000e+00

0.000000000000000e+00 0.000000000000000e+00 0.000000000000000e+00
0.000000000000000e+00 0.000000000000000e+00 0.000000000000000e+00
0.000000000000000e+00 0.000000000000000e+00 0.000000000000000e+00

0.000000000000000e+00 0.000000000000000e+00 0.000000000000000e+00
0.000000000000000e+00 0.000000000000000e+00 0.000000000000000e+00
0.000000000000000e+00 0.000000000000000e+00 0.000000000000000e+00

0.000000000000000e+00 0.000000000000000e+00 0.000000000000000e+00
0.000000000000000e+00 0.000000000000000e+00 0.000000000000000e+00
0.000000000000000e+00 0.000000000000000e+00 0.000000000000000e+00

0.000000000000000e+00 0.000000000000000e+00 0.000000000000000e+00
0.000000000000000e+00 0.000000000000000e+00 0.000000000000000e+00
0.000000000000000e+00 0.000000000000000e+00 0.000000000000000e+00

0.000000000000000e+00 0.000000000000000e+00 0.000000000000000e+00
0.000000000000000e+00 0.000000000000000e+00 0.000000000000000e+00
0.000000000000000e+00 0.000000000000000e+00 0.000000000000000e+00

0.000000000000000e+00 0.000000000000000e+00 0.000000000000000e+00
0.000000000000000e+00 0.000000000000000e+00 0.000000000000000e+00
0.000000000000000e+00 0.000000000000000e+00 0.000000000000000e+00

0.000000000000000e+00 0.000000000000000e+00 0.000000000000000e+00
0.000000000000000e+00 0.000000000000000e+00 0.000000000000000e+00
0.000000000000000e+00 0.000000000000000e+00 0.000000000000000e+00

0.000000000000000e+00 0.000000000000000e+00 0.000000000000000e+00
0.000000000000000e+00 0.000000000000000e+00 0.000000000000000e+00
0.000000000000000e+00 0.000000000000000e+00 0.000000000000000e+00

0.000000000000000e+00 0.000000000000000e+00 0.000000000000000e+00
0.000000000000000e+00 0.000000000000000e+00 0.000000000000000e+00
0.000000000000000e+00 0.000000000000000e+00 0.000000000000000e+00

0.000000000000000e+00 0.000000000000000e+00 0.000000000000000e+00
0.000000000000000e+00 0.000000000000000e+00 0.000000000000000e+00
0.000000000000000e+00 0.000000000000000e+00 0.000000000000000e+00

0.000000000000000e+00 0.000000000000000e+00 0.000000000000000e+00
0.000000000000000e+00 0.000000000000000e+00 0.000000000000000e+00
0.000000000000000e+00 0.000000000000000e+00 0.000000000000000e+00

0.000000000000000e+00 0.000000000000000e+00 0.000000000000000e+00
0.000000000000000e+00 0.000000000000000e+00 0.000000000000000e+00
0.000000000000000e+00 0.000000000000000e+00 0.000000000000000e+00

0.000000000000000e+00 0.000000000000000e+00 0.000000000000000e+00
0.000000000000000e+00 0.000000000000000e+00 0.000000000000000e+00
0.000000000000000e+00 0.000000000000000e+00 0.000000000000000e+00

0.000000000000000e+00 0.000000000000000e+00 0.000000000000000e+00
0.000000000000000e+00 0.000000000000000e+00 0.000000000000000e+00
0.000000000000000e+00 0.000000000000000e+00 0.000000000000000e+00

0.000000000000000e+00 0.000000000000000e+00 0.000000000000000e+00
0.000000000000000e+00 0.000000000000000e+00 0.000000000000000e+00
0.000000000000000e+00 0.000000000000000e+00 0.000000000000000e+00

0.000000000000000e+00 0.000000000000000e+00 0.000000000000000e+00
0.000000000000000e+00 0.000000000000000e+00 0.000000000000000e+00
0.000000000000000e+00 0.000000000000000e+00 0.000000000000000e+00

0.000000000000000e+00 0.000000000000000e+00 0.000000000000000e+00
0.000000000000000e+00 0.000000000000000e+00 0.000000000000000e+00
0.000000000000000e+00 0.000000000000000e+00 0.000000000000000e+00

0.000000000000000e+00 0.000000000000000e+00 0.000000000000000e+00
0.000000000000000e+00 0.000000000000000e+00 0.000000000000000e+00
0.000000000000000e+00 0.000000000000000e+00 0.000000000000000e+00

0.000000000000000e+00 0.000000000000000e+00 0.000000000000000e+00
0.000000000000000e+00 0.000000000000000e+00 0.000000000000000e+00
0.000000000000000e+00 0.000000000000000e+00 0.000000000000000e+00

0.000000000000000e+00 0.000000000000000e+00 0.000000000000000e+00
0.000000000000000e+00 0.000000000000000e+00 0.000000000000000e+00
0.000000000000000e+00 0.000000000000000e+00 0.000000000000000e+00

0.000000000000000e+00 0.000000000000000e+00 0.000000000000000e+00
0.000000000000000e+00 0.000000000000000e+00 0.000000000000000e+00
0.000000000000000e+00 0.000000000000000e+00 0.000000000000000e+00

0.000000000000000e+00 0.000000000000000e+00 0.000000000000000e+00
0.000000000000000e+00 0.000000000000000e+00 0.000000000000000e+00
0.000000000000000e+00 0.000000000000000e+00 0.000000000000000e+00

0.000000000000000e+00 0.000000000000000e+00 0.000000000000000e+00
0.000000000000000e+00 0.000000000000000e+00 0.000000000000000e+00
0.000000000000000e+00 0.000000000000000e+00 0.000000000000000e+00

0.000000000000000e+00 0.000000000000000e+00 0.000000000000000e+00
0.000000000000000e+00 0.000000000000000e+00 0.000000000000000e+00
0.000000000000000e+00 0.000000000000000e+00 0.000000000000000e+00

0.000000000000000e+00 0.000000000000000e+00 0.000000000000000e+00
0.000000000000000e+00 0.000000000000000e+00 0.000000000000000e+00
0.000000000000000e+00 0.000000000000000e+00 0.000000000000000e+00

0.000000000000000e+00 0.000000000000000e+00 0.000000000000000e+00
0.000000000000000e+00 0.000000000000000e+00 0.000000000000000e+00
0.000000000000000e+00 0.000000000000000e+00 0.000000000000000e+00

0.000000000000000e+00 0.000000000000000e+00 0.000000000000000e+00
0.000000000000000e+00 0.000000000000000e+00 0.000000000000000e+00
0.000000000000000e+00 0.000000000000000e+00 0.000000000000000e+00

0.000000000000000e+00 0.000000000000000e+00 0.000000000000000e+00
0.000000000000000e+00 0.000000000000000e+00 0.000000000000000e+00
0.000000000000000e+00 0.000000000000000e+00 0.000000000000000e+00

0.000000000000000e+00 0.000000000000000e+00 0.000000000000000e+00
0.000000000000000e+00 0.000000000000000e+00 0.000000000000000e+00
0.000000000000000e+00 0.000000000000000e+00 0.000000000000000e+00

0.000000000000000e+00 0.000000000000000e+00 0.000000000000000e+00
0.000000000000000e+00 0.000000000000000e+00 0.000000000000000e+00
0.000000000000000e+00 0.000000000000000e+00 0.000000000000000e+00

0.000000000000000e+00 0.000000000000000e+00 0.000000000000000e+00
0.000000000000000e+00 0.000000000000000e+00 0.000000000000000e+00
0.000000000000000e+00 0.000000000000000e+00 0.000000000000000e+00

0.000000000000000e+00 0.000000000000000e+00 0.000000000000000e+00
0.000000000000000e+00 0.000000000000000e+00 0.000000000000000e+00
0.000000000000000e+00 0.000000000000000e+00 0.000000000000000e+00

0.000000000000000e+00 0.000000000000000e+00 0.000000000000000e+00
0.000000000000000e+00 0.000000000000000e+00 0.000000000000000e+00
0.000000000000000e+00 0.000000000000000e+00 0.000000000000000e+00

0.000000000000000e+00 0.000000000000000e+00 0.000000000000000e+00
0.000000000000000e+00 0.000000000000000e+00 0.000000000000000e+00
0.000000000000000e+00 0.000000000000000e+00 0.000000000000000e+00

0.000000000000000e+00 0.000000000000000e+00 0.000000000000000e+00
0.000000000000000e+00 0.000000000000000e+00 0.000000000000000e+00
0.000000000000000e+00 0.000000000000000e+00 0.000000000000000e+00

0.000000000000000e+00 0.000000000000000e+00 0.000000000000000e+00
0.000000000000000e+00 0.000000000000000e+00 0.000000000000000e+00
0.000000000000000e+00 0.000000000000000e+00 0.000000000000000e+00

0.000000000000000e+00 0.000000000000000e+00 0.000000000000000e+00
0.000000000000000e+00 0.000000000000000e+00 0.000000000000000e+00
0.000000000000000e+00 0.000000000000000e+00 0.000000000000000e+00

0.000000000000000e+00 0.000000000000000e+00 0.000000000000000e+00
0.000000000000000e+00 0.000000000000000e+00 0.000000000000000e+00
0.000000000000000e+00 0.000000000000000e+00 0.000000000000000e+00

0.000000000000000e+00 0.000000000000000e+00 0.000000000000000e+00
0.000000000000000e+00 0.000000000000000e+00 0.000000000000000e+00
0.000000000000000e+00 0.000000000000000e+00 0.000000000000000e+00

0.000000000000000e+00 0.000000000000000e+00 0.000000000000000e+00
0.000000000000000e+00 0.000000000000000e+00 0.000000000000000e+00
0.000000000000000e+00 0.000000000000000e+00 0.000000000000000e+00

0.000000000000000e+00 0.000000000000000e+00 0.000000000000000e+00
0.000000000000000e+00 0.000000000000000e+00 0.000000000000000e+00
0.000000000000000e+00 0.000000000000000e+00 0.000000000000000e+00

0.000000000000000e+00 0.000000000000000e+00 0.000000000000000e+00
0.000000000000000e+00 0.000000000000000e+00 0.000000000000000e+00
0.000000000000000e+00 0.000000000000000e+00 0.000000000000000e+00

0.000000000000000e+00 0.000000000000000e+00 0.000000000000000e+00
0.000000000000000e+00 0.000000000000000e+00 0.000000000000000e+00
0.000000000000000e+00 0.000000000000000e+00 0.000000000000000e+00

0.000000000000000e+00 0.000000000000000e+00 0.000000000000000e+00
0.000000000000000e+00 0.000000000000000e+00 0.000000000000000e+00
0.000000000000000e+00 0.000000000000000e+00 0.000000000000000e+00

0.000000000000000e+00 0.000000000000000e+00 0.000000000000000e+00
0.000000000000000e+00 0.000000000000000e+00 0.000000000000000e+00
0.000000000000000e+00 0.000000000000000e+00 0.000000000000000e+00

0.000000000000000e+00 0.000000000000000e+00 0.000000000000000e+00
0.000000000000000e+00 0.000000000000000e+00 0.000000000000000e+00
0.000000000000000e+00 0.000000000000000e+00 0.000000000000000e+00

0.000000000000000e+00 0.000000000000000e+00 0.000000000000000e+00
0.000000000000000e+00 0.000000000000000e+00 0.000000000000000e+00
0.000000000000000e+00 0.000000000000000e+00 0.000000000000000e+00

0.000000000000000e+00 0.000000000000000e+00 0.000000000000000e+00
0.000000000000000e+00 0.000000000000000e+00 0.000000000000000e+00
0.000000000000000e+00 0.000000000000000e+00 0.000000000000000e+00

0.000000000000000e+00 0.000000000000000e+00 0.000000000000000e+00
0.000000000000000e+00 0.000000000000000e+00 0.000000000000000e+00
0.000000000000000e+00 0.000000000000000e+00 0.000000000000000e+00

0.000000000000000e+00 0.000000000000000e+00 0.000000000000000e+00
0.000000000000000e+00 0.000000000000000e+00 0.000000000000000e+00
0.000000000000000e+00 0.000000000000000e+00 0.000000000000000e+00

0.000000000000000e+00 0.000000000000000e+00 0.000000000000000e+00
0.000000000000000e+00 0.000000000000000e+00 0.000000000000000e+00
0.000000000000000e+00 0.000000000000000e+00 0.000000000000000e+00

0.000000000000000e+00 0.000000000000000e+00 0.000000000000000e+00
0.000000000000000e+00 0.000000000000000e+00 0.000000000000000e+00
0.000000000000000e+00 0.000000000000000e+00 0.000000000000000e+00

0.000000000000000e+00 0.000000000000000e+00 0.000000000000000e+00
0.000000000000000e+00 0.000000000000000e+00 0.000000000000000e+00
0.000000000000000e+00 0.000000000000000e+00 0.000000000000000e+00

0.000000000000000e+00 0.000000000000000e+00 0.000000000000000e+00
0.000000000000000e+00 0.000000000000000e+00 0.000000000000000e+00
0.000000000000000e+00 0.000000000000000e+00 0.000000000000000e+00

0.000000000000000e+00 0.000000000000000e+00 0.000000000000000e+00
0.000000000000000e+00 0.000000000000000e+00 0.000000000000000e+00
0.000000000000000e+00 0.000000000000000e+00 0.000000000000000e+00

0.000000000000000e+00 0.000000000000000e+00 0.000000000000000e+00
0.000000000000000e+00 0.000000000000000e+00 0.000000000000000e+00
0.000000000000000e+00 0.000000000000000e+00 0.000000000000000e+00

0.000000000000000e+00 0.000000000000000e+00 0.000000000000000e+00
0.000000000000000e+00 0.000000000000000e+00 0.000000000000000e+00
0.000000000000000e+00 0.000000000000000e+00 0.000000000000000e+00

0.000000000000000e+00 0.000000000000000e+00 0.000000000000000e+00
0.000000000000000e+00 0.000000000000000e+00 0.000000000000000e+00
0.000000000000000e+00 0.000000000000000e+00 0.000000000000000e+00

0.000000000000000e+00 0.000000000000000e+00 0.000000000000000e+00
0.000000000000000e+00 0.000000000000000e+00 0.000000000000000e+00
0.000000000000000e+00 0.000000000000000e+00 0.000000000000000e+00

0.000000000000000e+00 0.000000000000000e+00 0.000000000000000e+00
0.000000000000000e+00 0.000000000000000e+00 0.000000000000000e+00
0.000000000000000e+00 0.000000000000000e+00 0.000000000000000e+00

0.000000000000000e+00 0.000000000000000e+00 0.000000000000000e+00
0.000000000000000e+00 0.000000000000000e+00 0.000000000000000e+00
0.000000000000000e+00 0.000000000000000e+00 0.000000000000000e+00

0.000000000000000e+00 0.000000000000000e+00 0.000000000000000e+00
0.000000000000000e+00 0.000000000000000e+00 0.000000000000000e+00
0.000000000000000e+00 0.000000000000000e+00 0.000000000000000e+00

0.000000000000000e+00 0.000000000000000e+00 0.000000000000000e+00
0.000000000000000e+00 0.000000000000000e+00 0.000000000000000e+00
0.000000000000000e+00 0.000000000000000e+00 0.000000000000000e+00

0.000000000000000e+00 0.000000000000000e+00 0.000000000000000e+00
0.000000000000000e+00 0.000000000000000e+00 0.000000000000000e+00
0.000000000000000e+00 0.000000000000000e+00 0.000000000000000e+00

0.000000000000000e+00 0.000000000000000e+00 0.000000000000000e+00
0.000000000000000e+00 0.000000000000000e+00 0.000000000000000e+00
0.000000000000000e+00 0.000000000000000e+00 0.000000000000000e+00

0.000000000000000e+00 0.000000000000000e+00 0.000000000000000e+00
0.000000000000000e+00 0.000000000000000e+00 0.000000000000000e+00
0.000000000000000e+00 0.000000000000000e+00 0.000000000000000e+00

0.000000000000000e+00 0.000000000000000e+00 0.000000000000000e+00
0.000000000000000e+00 0.000000000000000e+00 0.000000000000000e+00
0.000000000000000e+00 0.000000000000000e+00 0.000000000000000e+00

0.000000000000000e+00 0.000000000000000e+00 0.000000000000000e+00
0.000000000000000e+00 0.000000000000000e+00 0.000000000000000e+00
0.000000000000000e+00 0.000000000000000e+00 0.000000000000000e+00

0.000000000000000e+00 0.000000000000000e+00 0.000000000000000e+00
0.000000000000000e+00 0.000000000000000e+00 0.000000000000000e+00
0.000000000000000e+00 0.000000000000000e+00 0.000000000000000e+00

0.000000000000000e+00 0.000000000000000e+00 0.000000000000000e+00
0.000000000000000e+00 0.000000000000000e+00 0.000000000000000e+00
0.000000000000000e+00 0.000000000000000e+00 0.000000000000000e+00

0.000000000000000e+00 0.000000000000000e+00 0.000000000000000e+00
0.000000000000000e+00 0.000000000000000e+00 0.000000000000000e+00
0.000000000000000e+00 0.000000000000000e+00 0.000000000000000e+00

0.000000000000000e+00 0.000000000000000e+00 0.000000000000000e+00
0.000000000000000e+00 0.000000000000000e+00 0.000000000000000e+00
0.000000000000000e+00 0.000000000000000e+00 0.000000000000000e+00

0.000000000000000e+00 0.000000000000000e+00 0.000000000000000e+00
0.000000000000000e+00 0.000000000000000e+00 0.000000000000000e+00
0.000000000000000e+00 0.000000000000000e+00 0.000000000000000e+00

0.000000000000000e+00 0.000000000000000e+00 0.000000000000000e+00
0.000000000000000e+00 0.000000000000000e+00 0.000000000000000e+00
0.000000000000000e+00 0.000000000000000e+00 0.000000000000000e+00

0.000000000000000e+00 0.000000000000000e+00 0.000000000000000e+00
0.000000000000000e+00 0.000000000000000e+00 0.000000000000000e+00
0.000000000000000e+00 0.000000000000000e+00 0.000000000000000e+00

0.000000000000000e+00 0.000000000000000e+00 0.000000000000000e+00
0.000000000000000e+00 0.000000000000000e+00 0.000000000000000e+00
0.000000000000000e+00 0.000000000000000e+00 0.000000000000000e+00

0.000000000000000e+00 0.000000000000000e+00 0.000000000000000e+00
0.000000000000000e+00 0.000000000000000e+00 0.000000000000000e+00
0.000000000000000e+00 0.000000000000000e+00 0.000000000000000e+00

0.000000000000000e+00 0.000000000000000e+00 0.000000000000000e+00
0.000000000000000e+00 0.000000000000000e+00 0.000000000000000e+00
0.000000000000000e+00 0.000000000000000e+00 0.000000000000000e+00

0.000000000000000e+00 0.000000000000000e+00 0.000000000000000e+00
0.000000000000000e+00 0.000000000000000e+00 0.000000000000000e+00
0.000000000000000e+00 0.000000000000000e+00 0.000000000000000e+00

0.000000000000000e+00 0.000000000000000e+00 0.000000000000000e+00
0.000000000000000e+00 0.000000000000000e+00 0.000000000000000e+00
0.000000000000000e+00 0.000000000000000e+00 0.000000000000000e+00

0.000000000000000e+00 0.000000000000000e+00 0.000000000000000e+00
0.000000000000000e+00 0.000000000000000e+00 0.000000000000000e+00
0.000000000000000e+00 0.000000000000000e+00 0.000000000000000e+00

0.000000000000000e+00 0.000000000000000e+00 0.000000000000000e+00
0.000000000000000e+00 0.000000000000000e+00 0.000000000000000e+00
0.000000000000000e+00 0.000000000000000e+00 0.000000000000000e+00

0.000000000000000e+00 0.000000000000000e+00 0.000000000000000e+00
0.000000000000000e+00 0.000000000000000e+00 0.000000000000000e+00
0.000000000000000e+00 0.000000000000000e+00 0.000000000000000e+00

0.000000000000000e+00 0.000000000000000e+00 0.000000000000000e+00
0.000000000000000e+00 0.000000000000000e+00 0.000000000000000e+00
0.000000000000000e+00 0.000000000000000e+00 0.000000000000000e+00

0.000000000000000e+00 0.000000000000000e+00 0.000000000000000e+00
0.000000000000000e+00 0.000000000000000e+00 0.000000000000000e+00
0.000000000000000e+00 0.000000000000000e+00 0.000000000000000e+00

0.000000000000000e+00 0.000000000000000e+00 0.000000000000000e+00
0.000000000000000e+00 0.000000000000000e+00 0.000000000000000e+00
0.000000000000000e+00 0.000000000000000e+00 0.000000000000000e+00

0.000000000000000e+00 0.000000000000000e+00 0.000000000000000e+00
0.000000000000000e+00 0.000000000000000e+00 0.000000000000000e+00
0.000000000000000e+00 0.000000000000000e+00 0.000000000000000e+00

0.000000000000000e+00 0.000000000000000e+00 0.000000000000000e+00
0.000000000000000e+00 0.000000000000000e+00 0.000000000000000e+00
0.000000000000000e+00 0.000000000000000e+00 0.000000000000000e+00

0.000000000000000e+00 0.000000000000000e+00 0.000000000000000e+00
0.000000000000000e+00 0.000000000000000e+00 0.000000000000000e+00
0.000000000000000e+00 0.000000000000000e+00 0.000000000000000e+00

0.000000000000000e+00 0.000000000000000e+00 0.000000000000000e+00
0.000000000000000e+00 0.000000000000000e+00 0.000000000000000e+00
0.000000000000000e+00 0.000000000000000e+00 0.000000000000000e+00

0.000000000000000e+00 0.000000000000000e+00 0.000000000000000e+00
0.000000000000000e+00 0.000000000000000e+00 0.000000000000000e+00
0.000000000000000e+00 0.000000000000000e+00 0.000000000000000e+00

0.000000000000000e+00 0.000000000000000e+00 0.000000000000000e+00
0.000000000000000e+00 0.000000000000000e+00 0.000000000000000e+00
0.000000000000000e+00 0.000000000000000e+00 0.000000000000000e+00

0.000000000000000e+00 0.000000000000000e+00 0.000000000000000e+00
0.000000000000000e+00 0.000000000000000e+00 0.000000000000000e+00
0.000000000000000e+00 0.000000000000000e+00 0.000000000000000e+00

0.000000000000000e+00 0.000000000000000e+00 0.000000000000000e+00
0.000000000000000e+00 0.000000000000000e+00 0.000000000000000e+00
0.000000000000000e+00 0.000000000000000e+00 0.000000000000000e+00

0.000000000000000e+00 0.000000000000000e+00 0.000000000000000e+00
0.000000000000000e+00 0.000000000000000e+00 0.000000000000000e+00
0.000000000000000e+00 0.000000000000000e+00 0.000000000000000e+00

0.000000000000000e+00 0.000000000000000e+00 0.000000000000000e+00
0.000000000000000e+00 0.000000000000000e+00 0.000000000000000e+00
0.000000000000000e+00 0.000000000000000e+00 0.000000000000000e+00

0.000000000000000e+00 0.000000000000000e+00 0.000000000000000e+00
0.000000000000000e+00 0.000000000000000e+00 0.000000000000000e+00
0.000000000000000e+00 0.000000000000000e+00 0.000000000000000e+00

0.000000000000000e+00 0.000000000000000e+00 0.000000000000000e+00
0.000000000000000e+00 0.000000000000000e+00 0.000000000000000e+00
0.000000000000000e+00 0.000000000000000e+00 0.000000000000000e+00

0.000000000000000e+00 0.000000000000000e+00 0.000000000000000e+00
0.000000000000000e+00 0.000000000000000e+00 0.000000000000000e+00
0.000000000000000e+00 0.000000000000000e+00 0.000000000000000e+00

0.000000000000000e+00 0.000000000000000e+00 0.000000000000000e+00
0.000000000000000e+00 0.000000000000000e+00 0.000000000000000e+00
0.000000000000000e+00 0.000000000000000e+00 0.000000000000000e+00

0.000000000000000e+00 0.000000000000000e+00 0.000000000000000e+00
0.000000000000000e+00 0.000000000000000e+00 0.000000000000000e+00
0.000000000000000e+00 0.000000000000000e+00 0.000000000000000e+00

0.000000000000000e+00 0.000000000000000e+00 0.000000000000000e+00
0.000000000000000e+00 0.000000000000000e+00 0.000000000000000e+00
0.000000000000000e+00 0.000000000000000e+00 0.000000000000000e+00

0.000000000000000e+00 0.000000000000000e+00 0.000000000000000e+00
0.000000000000000e+00 0.000000000000000e+00 0.000000000000000e+00
0.000000000000000e+00 0.000000000000000e+00 0.000000000000000e+00

0.000000000000000e+00 0.000000000000000e+00 0.000000000000000e+00
0.000000000000000e+00 0.000000000000000e+00 0.000000000000000e+00
0.000000000000000e+00 0.000000000000000e+00 0.000000000000000e+00

0.000000000000000e+00 0.000000000000000e+00 0.000000000000000e+00
0.000000000000000e+00 0.000000000000000e+00 0.000000000000000e+00
0.000000000000000e+00 0.000000000000000e+00 0.000000000000000e+00

0.000000000000000e+00 0.000000000000000e+00 0.000000000000000e+00
0.000000000000000e+00 0.000000000000000e+00 0.000000000000000e+00
0.000000000000000e+00 0.000000000000000e+00 0.000000000000000e+00

0.000000000000000e+00 0.000000000000000e+00 0.000000000000000e+00
0.000000000000000e+00 0.000000000000000e+00 0.000000000000000e+00
0.000000000000000e+00 0.000000000000000e+00 0.000000000000000e+00

0.000000000000000e+00 0.000000000000000e+00 0.000000000000000e+00
0.000000000000000e+00 0.000000000000000e+00 0.000000000000000e+00
0.000000000000000e+00 0.000000000000000e+00 0.000000000000000e+00

0.000000000000000e+00 0.000000000000000e+00 0.000000000000000e+00
0.000000000000000e+00 0.000000000000000e+00 0.000000000000000e+00
0.000000000000000e+00 0.000000000000000e+00 0.000000000000000e+00

0.000000000000000e+00 0.000000000000000e+00 0.000000000000000e+00
0.000000000000000e+00 0.000000000000000e+00 0.000000000000000e+00
0.000000000000000e+00 0.000000000000000e+00 0.000000000000000e+00

0.000000000000000e+00 0.000000000000000e+00 0.000000000000000e+00
0.000000000000000e+00 0.000000000000000e+00 0.000000000000000e+00
0.000000000000000e+00 0.000000000000000e+00 0.000000000000000e+00

0.000000000000000e+00 0.000000000000000e+00 0.000000000000000e+00
0.000000000000000e+00 0.000000000000000e+00 0.000000000000000e+00
0.000000000000000e+00 0.000000000000000e+00 0.000000000000000e+00

0.000000000000000e+00 0.000000000000000e+00 0.000000000000000e+00
0.000000000000000e+00 0.000000000000000e+00 0.000000000000000e+00
0.000000000000000e+00 0.000000000000000e+00 0.000000000000000e+00

0.000000000000000e+00 0.000000000000000e+00 0.000000000000000e+00
0.000000000000000e+00 0.000000000000000e+00 0.000000000000000e+00
0.000000000000000e+00 0.000000000000000e+00 0.000000000000000e+00

0.000000000000000e+00 0.000000000000000e+00 0.000000000000000e+00
0.000000000000000e+00 0.000000000000000e+00 0.000000000000000e+00
0.000000000000000e+00 0.000000000000000e+00 0.000000000000000e+00

0.000000000000000e+00 0.000000000000000e+00 0.000000000000000e+00
0.000000000000000e+00 0.000000000000000e+00 0.000000000000000e+00
0.000000000000000e+00 0.000000000000000e+00 0.000000000000000e+00

0.000000000000000e+00 0.000000000000000e+00 0.000000000000000e+00
0.000000000000000e+00 0.000000000000000e+00 0.000000000000000e+00
0.000000000000000e+00 0.000000000000000e+00 0.000000000000000e+00

0.000000000000000e+00 0.000000000000000e+00 0.000000000000000e+00
0.000000000000000e+00 0.000000000000000e+00 0.000000000000000e+00
0.000000000000000e+00 0.000000000000000e+00 0.000000000000000e+00

0.000000000000000e+00 0.000000000000000e+00 0.000000000000000e+00
0.000000000000000e+00 0.000000000000000e+00 0.000000000000000e+00
0.000000000000000e+00 0.000000000000000e+00 0.000000000000000e+00

0.000000000000000e+00 0.000000000000000e+00 0.000000000000000e+00
0.000000000000000e+00 0.000000000000000e+00 0.000000000000000e+00
0.000000000000000e+00 0.000000000000000e+00 0.000000000000000e+00

0.000000000000000e+00 0.000000000000000e+00 0.000000000000000e+00
0.000000000000000e+00 0.000000000000000e+00 0.000000000000000e+00
0.000000000000000e+00 0.000000000000000e+00 0.000000000000000e+00

0.000000000000000e+00 0.000000000000000e+00 0.000000000000000e+00
0.000000000000000e+00 0.000000000000000e+00 0.000000000000000e+00
0.000000000000000e+00 0.000000000000000e+00 0.000000000000000e+00

0.000000000000000e+00 0.000000000000000e+00 0.000000000000000e+00
0.000000000000000e+00 0.000000000000000e+00 0.000000000000000e+00
0.000000000000000e+00 0.000000000000000e+00 0.000000000000000e+00

0.000000000000000e+00 0.000000000000000e+00 0.000000000000000e+00
0.000000000000000e+00 0.000000000000000e+00 0.000000000000000e+00
0.000000000000000e+00 0.000000000000000e+00 0.000000000000000e+00

0.000000000000000e+00 0.000000000000000e+00 0.000000000000000e+00
0.000000000000000e+00 0.000000000000000e+00 0.000000000000000e+00
0.000000000000000e+00 0.000000000000000e+00 0.000000000000000e+00

0.000000000000000e+00 0.000000000000000e+00 0.000000000000000e+00
0.000000000000000e+00 0.000000000000000e+00 0.000000000000000e+00
0.000000000000000e+00 0.000000000000000e+00 0.000000000000000e+00

0.000000000000000e+00 0.000000000000000e+00 0.000000000000000e+00
0.000000000000000e+00 0.000000000000000e+00 0.000000000000000e+00
0.000000000000000e+00 0.000000000000000e+00 0.000000000000000e+00

0.000000000000000e+00 0.000000000000000e+00 0.000000000000000e+00
0.000000000000000e+00 0.000000000000000e+00 0.000000000000000e+00
0.000000000000000e+00 0.000000000000000e+00 0.000000000000000e+00

0.000000000000000e+00 0.000000000000000e+00 0.000000000000000e+00
0.000000000000000e+00 0.000000000000000e+00 0.000000000000000e+00
0.000000000000000e+00 0.000000000000000e+00 0.000000000000000e+00

0.000000000000000e+00 0.000000000000000e+00 0.000000000000000e+00
0.000000000000000e+00 0.000000000000000e+00 0.000000000000000e+00
0.000000000000000e+00 0.000000000000000e+00 0.000000000000000e+00

0.000000000000000e+00 0.000000000000000e+00 0.000000000000000e+00
0.000000000000000e+00 0.000000000000000e+00 0.000000000000000e+00
0.000000000000000e+00 0.000000000000000e+00 0.000000000000000e+00

0.000000000000000e+00 0.000000000000000e+00 0.000000000000000e+00
0.000000000000000e+00 0.000000000000000e+00 0.000000000000000e+00
0.000000000000000e+00 0.000000000000000e+00 0.000000000000000e+00

0.000000000000000e+00 0.000000000000000e+00 0.000000000000000e+00
0.000000000000000e+00 0.000000000000000e+00 0.000000000000000e+00
0.000000000000000e+00 0.000000000000000e+00 0.000000000000000e+00

0.000000000000000e+00 0.000000000000000e+00 0.000000000000000e+00
0.000000000000000e+00 0.000000000000000e+00 0.000000000000000e+00
0.000000000000000e+00 0.000000000000000e+00 0.000000000000000e+00

0.000000000000000e+00 0.000000000000000e+00 0.000000000000000e+00
0.000000000000000e+00 0.000000000000000e+00 0.000000000000000e+00
0.000000000000000e+00 0.000000000000000e+00 0.000000000000000e+00

0.000000000000000e+00 0.000000000000000e+00 0.000000000000000e+00
0.000000000000000e+00 0.000000000000000e+00 0.000000000000000e+00
0.000000000000000e+00 0.000000000000000e+00 0.000000000000000e+00

0.000000000000000e+00 0.000000000000000e+00 0.000000000000000e+00
0.000000000000000e+00 0.000000000000000e+00 0.000000000000000e+00
0.000000000000000e+00 0.000000000000000e+00 0.000000000000000e+00

0.000000000000000e+00 0.000000000000000e+00 0.000000000000000e+00
0.000000000000000e+00 0.000000000000000e+00 0.000000000000000e+00
0.000000000000000e+00 0.000000000000000e+00 0.000000000000000e+00

0.000000000000000e+00 0.000000000000000e+00 0.000000000000000e+00
0.000000000000000e+00 0.000000000000000e+00 0.000000000000000e+00
0.000000000000000e+00 0.000000000000000e+00 0.000000000000000e+00

0.000000000000000e+00 0.000000000000000e+00 0.000000000000000e+00
0.000000000000000e+00 0.000000000000000e+00 0.000000000000000e+00
0.000000000000000e+00 0.000000000000000e+00 0.000000000000000e+00

0.000000000000000e+00 0.000000000000000e+00 0.000000000000000e+00
0.000000000000000e+00 0.000000000000000e+00 0.000000000000000e+00
0.000000000000000e+00 0.000000000000000e+00 0.000000000000000e+00

0.000000000000000e+00 0.000000000000000e+00 0.000000000000000e+00
0.000000000000000e+00 0.000000000000000e+00 0.000000000000000e+00
0.000000000000000e+00 0.000000000000000e+00 0.000000000000000e+00

0.000000000000000e+00 0.000000000000000e+00 0.000000000000000e+00
0.000000000000000e+00 0.000000000000000e+00 0.000000000000000e+00
0.000000000000000e+00 0.000000000000000e+00 0.000000000000000e+00

0.000000000000000e+00 0.000000000000000e+00 0.000000000000000e+00
0.000000000000000e+00 0.000000000000000e+00 0.000000000000000e+00
0.000000000000000e+00 0.000000000000000e+00 0.000000000000000e+00

0.000000000000000e+00 0.000000000000000e+00 0.000000000000000e+00
0.000000000000000e+00 0.000000000000000e+00 0.000000000000000e+00
0.000000000000000e+00 0.000000000000000e+00 0.000000000000000e+00

0.000000000000000e+00 0.000000000000000e+00 0.000000000000000e+00
0.000000000000000e+00 0.000000000000000e+00 0.000000000000000e+00
0.000000000000000e+00 0.000000000000000e+00 0.000000000000000e+00

0.000000000000000e+00 0.000000000000000e+00 0.000000000000000e+00
0.000000000000000e+00 0.000000000000000e+00 0.000000000000000e+00
0.000000000000000e+00 0.000000000000000e+00 0.000000000000000e+00

0.000000000000000e+00 0.000000000000000e+00 0.000000000000000e+00
0.000000000000000e+00 0.000000000000000e+00 0.000000000000000e+00
0.000000000000000e+00 0.000000000000000e+00 0.000000000000000e+00

0.000000000000000e+00 0.000000000000000e+00 0.000000000000000e+00
0.000000000000000e+00 0.000000000000000e+00 0.000000000000000e+00
0.000000000000000e+00 0.000000000000000e+00 0.000000000000000e+00

0.000000000000000e+00 0.000000000000000e+00 0.000000000000000e+00
0.000000000000000e+00 0.000000000000000e+00 0.000000000000000e+00
0.000000000000000e+00 0.000000000000000e+00 0.000000000000000e+00

0.000000000000000e+00 0.000000000000000e+00 0.000000000000000e+00
0.000000000000000e+00 0.000000000000000e+00 0.000000000000000e+00
0.000000000000000e+00 0.000000000000000e+00 0.000000000000000e+00

0.000000000000000e+00 0.000000000000000e+00 0.000000000000000e+00
0.000000000000000e+00 0.000000000000000e+00 0.000000000000000e+00
0.000000000000000e+00 0.000000000000000e+00 0.000000000000000e+00

0.000000000000000e+00 0.000000000000000e+00 0.000000000000000e+00
0.000000000000000e+00 0.000000000000000e+00 0.000000000000000e+00
0.000000000000000e+00 0.000000000000000e+00 0.000000000000000e+00

0.000000000000000e+00 0.000000000000000e+00 0.000000000000000e+00
0.000000000000000e+00 0.000000000000000e+00 0.000000000000000e+00
0.000000000000000e+00 0.000000000000000e+00 0.000000000000000e+00

0.000000000000000e+00 0.000000000000000e+00 0.000000000000000e+00
0.000000000000000e+00 0.000000000000000e+00 0.000000000000000e+00
0.000000000000000e+00 0.000000000000000e+00 0.000000000000000e+00

0.000000000000000e+00 0.000000000000000e+00 0.000000000000000e+00
0.000000000000000e+00 0.000000000000000e+00 0.000000000000000e+00
0.000000000000000e+00 0.000000000000000e+00 0.000000000000000e+00

0.000000000000000e+00 0.000000000000000e+00 0.000000000000000e+00
0.000000000000000e+00 0.000000000000000e+00 0.000000000000000e+00
0.000000000000000e+00 0.000000000000000e+00 0.000000000000000e+00

0.000000000000000e+00 0.000000000000000e+00 0.000000000000000e+00
0.000000000000000e+00 0.000000000000000e+00 0.000000000000000e+00
0.000000000000000e+00 0.000000000000000e+00 0.000000000000000e+00

0.000000000000000e+00 0.000000000000000e+00 0.000000000000000e+00
0.000000000000000e+00 0.000000000000000e+00 0.000000000000000e+00
0.000000000000000e+00 0.000000000000000e+00 0.000000000000000e+00

0.000000000000000e+00 0.000000000000000e+00 0.000000000000000e+00
0.000000000000000e+00 0.000000000000000e+00 0.000000000000000e+00
0.000000000000000e+00 0.000000000000000e+00 0.000000000000000e+00

0.000000000000000e+00 0.000000000000000e+00 0.000000000000000e+00
0.000000000000000e+00 0.000000000000000e+00 0.000000000000000e+00
0.000000000000000e+00 0.000000000000000e+00 0.000000000000000e+00

0.000000000000000e+00 0.000000000000000e+00 0.000000000000000e+00
0.000000000000000e+00 0.000000000000000e+00 0.000000000000000e+00
0.000000000000000e+00 0.000000000000000e+00 0.000000000000000e+00

0.000000000000000e+00 0.000000000000000e+00 0.000000000000000e+00
0.000000000000000e+00 0.000000000000000e+00 0.000000000000000e+00
0.000000000000000e+00 0.000000000000000e+00 0.000000000000000e+00

0.000000000000000e+00 0.000000000000000e+00 0.000000000000000e+00
0.000000000000000e+00 0.000000000000000e+00 0.000000000000000e+00
0.000000000000000e+00 0.000000000000000e+00 0.000000000000000e+00

0.000000000000000e+00 0.000000000000000e+00 0.000000000000000e+00
0.000000000000000e+00 0.000000000000000e+00 0.000000000000000e+00
0.000000000000000e+00 0.000000000000000e+00 0.000000000000000e+00

0.000000000000000e+00 0.000000000000000e+00 0.000000000000000e+00
0.000000000000000e+00 0.000000000000000e+00 0.000000000000000e+00
0.000000000000000e+00 0.000000000000000e+00 0.000000000000000e+00

0.000000000000000e+00 0.000000000000000e+00 0.000000000000000e+00
0.000000000000000e+00 0.000000000000000e+00 0.000000000000000e+00
0.000000000000000e+00 0.000000000000000e+00 0.000000000000000e+00

0.000000000000000e+00 0.000000000000000e+00 0.000000000000000e+00
0.000000000000000e+00 0.000000000000000e+00 0.000000000000000e+00
0.000000000000000e+00 0.000000000000000e+00 0.000000000000000e+00

0.000000000000000e+00 0.000000000000000e+00 0.000000000000000e+00
0.000000000000000e+00 0.000000000000000e+00 0.000000000000000e+00
0.000000000000000e+00 0.000000000000000e+00 0.000000000000000e+00

0.000000000000000e+00 0.000000000000000e+00 0.000000000000000e+00
0.000000000000000e+00 0.000000000000000e+00 0.000000000000000e+00
0.000000000000000e+00 0.000000000000000e+00 0.000000000000000e+00

0.000000000000000e+00 0.000000000000000e+00 0.000000000000000e+00
0.000000000000000e+00 0.000000000000000e+00 0.000000000000000e+00
0.000000000000000e+00 0.000000000000000e+00 0.000000000000000e+00

0.000000000000000e+00 0.000000000000000e+00 0.000000000000000e+00
0.000000000000000e+00 0.000000000000000e+00 0.000000000000000e+00
0.000000000000000e+00 0.000000000000000e+00 0.000000000000000e+00

0.000000000000000e+00 0.000000000000000e+00 0.000000000000000e+00
0.000000000000000e+00 0.000000000000000e+00 0.000000000000000e+00
0.000000000000000e+00 0.000000000000000e+00 0.000000000000000e+00

0.000000000000000e+00 0.000000000000000e+00 0.000000000000000e+00
0.000000000000000e+00 0.000000000000000e+00 0.000000000000000e+00
0.000000000000000e+00 0.000000000000000e+00 0.000000000000000e+00

0.000000000000000e+00 0.000000000000000e+00 0.000000000000000e+00
0.000000000000000e+00 0.000000000000000e+00 0.000000000000000e+00
0.000000000000000e+00 0.000000000000000e+00 0.000000000000000e+00

0.000000000000000e+00 0.000000000000000e+00 0.000000000000000e+00
0.000000000000000e+00 0.000000000000000e+00 0.000000000000000e+00
0.000000000000000e+00 0.000000000000000e+00 0.000000000000000e+00

0.000000000000000e+00 0.000000000000000e+00 0.000000000000000e+00
0.000000000000000e+00 0.000000000000000e+00 0.000000000000000e+00
0.000000000000000e+00 0.000000000000000e+00 0.000000000000000e+00

0.000000000000000e+00 0.000000000000000e+00 0.000000000000000e+00
0.000000000000000e+00 0.000000000000000e+00 0.000000000000000e+00
0.000000000000000e+00 0.000000000000000e+00 0.000000000000000e+00

0.000000000000000e+00 0.000000000000000e+00 0.000000000000000e+00
0.000000000000000e+00 0.000000000000000e+00 0.000000000000000e+00
0.000000000000000e+00 0.000000000000000e+00 0.000000000000000e+00

0.000000000000000e+00 0.000000000000000e+00 0.000000000000000e+00
0.000000000000000e+00 0.000000000000000e+00 0.000000000000000e+00
0.000000000000000e+00 0.000000000000000e+00 0.000000000000000e+00

0.000000000000000e+00 0.000000000000000e+00 0.000000000000000e+00
0.000000000000000e+00 0.000000000000000e+00 0.000000000000000e+00
0.000000000000000e+00 0.000000000000000e+00 0.000000000000000e+00

0.000000000000000e+00 0.000000000000000e+00 0.000000000000000e+00
0.000000000000000e+00 0.000000000000000e+00 0.000000000000000e+00
0.000000000000000e+00 0.000000000000000e+00 0.000000000000000e+00

0.000000000000000e+00 0.000000000000000e+00 0.000000000000000e+00
0.000000000000000e+00 0.000000000000000e+00 0.000000000000000e+00
0.000000000000000e+00 0.000000000000000e+00 0.000000000000000e+00

0.000000000000000e+00 0.000000000000000e+00 0.000000000000000e+00
0.000000000000000e+00 0.000000000000000e+00 0.000000000000000e+00
0.000000000000000e+00 0.000000000000000e+00 0.000000000000000e+00

0.000000000000000e+00 0.000000000000000e+00 0.000000000000000e+00
0.000000000000000e+00 0.000000000000000e+00 0.000000000000000e+00
0.000000000000000e+00 0.000000000000000e+00 0.000000000000000e+00

0.000000000000000e+00 0.000000000000000e+00 0.000000000000000e+00
0.000000000000000e+00 0.000000000000000e+00 0.000000000000000e+00
0.000000000000000e+00 0.000000000000000e+00 0.000000000000000e+00

0.000000000000000e+00 0.000000000000000e+00 0.000000000000000e+00
0.000000000000000e+00 0.000000000000000e+00 0.000000000000000e+00
0.000000000000000e+00 0.000000000000000e+00 0.000000000000000e+00

0.000000000000000e+00 0.000000000000000e+00 0.000000000000000e+00
0.000000000000000e+00 0.000000000000000e+00 0.000000000000000e+00
0.000000000000000e+00 0.000000000000000e+00 0.000000000000000e+00

0.000000000000000e+00 0.000000000000000e+00 0.000000000000000e+00
0.000000000000000e+00 0.000000000000000e+00 0.000000000000000e+00
0.000000000000000e+00 0.000000000000000e+00 0.000000000000000e+00

0.000000000000000e+00 0.000000000000000e+00 0.000000000000000e+00
0.000000000000000e+00 0.000000000000000e+00 0.000000000000000e+00
0.000000000000000e+00 0.000000000000000e+00 0.000000000000000e+00

0.000000000000000e+00 0.000000000000000e+00 0.000000000000000e+00
0.000000000000000e+00 0.000000000000000e+00 0.000000000000000e+00
0.000000000000000e+00 0.000000000000000e+00 0.000000000000000e+00

0.000000000000000e+00 0.000000000000000e+00 0.000000000000000e+00
0.000000000000000e+00 0.000000000000000e+00 0.000000000000000e+00
0.000000000000000e+00 0.000000000000000e+00 0.000000000000000e+00

0.000000000000000e+00 0.000000000000000e+00 0.000000000000000e+00
0.000000000000000e+00 0.000000000000000e+00 0.000000000000000e+00
0.000000000000000e+00 0.000000000000000e+00 0.000000000000000e+00

0.000000000000000e+00 0.000000000000000e+00 0.000000000000000e+00
0.000000000000000e+00 0.000000000000000e+00 0.000000000000000e+00
0.000000000000000e+00 0.000000000000000e+00 0.000000000000000e+00

0.000000000000000e+00 0.000000000000000e+00 0.000000000000000e+00
0.000000000000000e+00 0.000000000000000e+00 0.000000000000000e+00
0.000000000000000e+00 0.000000000000000e+00 0.000000000000000e+00

0.000000000000000e+00 0.000000000000000e+00 0.000000000000000e+00
0.000000000000000e+00 0.000000000000000e+00 0.000000000000000e+00
0.000000000000000e+00 0.000000000000000e+00 0.000000000000000e+00

0.000000000000000e+00 0.000000000000000e+00 0.000000000000000e+00
0.000000000000000e+00 0.000000000000000e+00 0.000000000000000e+00
0.000000000000000e+00 0.000000000000000e+00 0.000000000000000e+00

0.000000000000000e+00 0.000000000000000e+00 0.000000000000000e+00
0.000000000000000e+00 0.000000000000000e+00 0.000000000000000e+00
0.000000000000000e+00 0.000000000000000e+00 0.000000000000000e+00

0.000000000000000e+00 0.000000000000000e+00 0.000000000000000e+00
0.000000000000000e+00 0.000000000000000e+00 0.000000000000000e+00
0.000000000000000e+00 0.000000000000000e+00 0.000000000000000e+00

0.000000000000000e+00 0.000000000000000e+00 0.000000000000000e+00
0.000000000000000e+00 0.000000000000000e+00 0.000000000000000e+00
0.000000000000000e+00 0.000000000000000e+00 0.000000000000000e+00

0.000000000000000e+00 0.000000000000000e+00 0.000000000000000e+00
0.000000000000000e+00 0.000000000000000e+00 0.000000000000000e+00
0.000000000000000e+00 0.000000000000000e+00 0.000000000000000e+00

0.000000000000000e+00 0.000000000000000e+00 0.000000000000000e+00
0.000000000000000e+00 0.000000000000000e+00 0.000000000000000e+00
0.000000000000000e+00 0.000000000000000e+00 0.000000000000000e+00

0.000000000000000e+00 0.000000000000000e+00 0.000000000000000e+00
0.000000000000000e+00 0.000000000000000e+00 0.000000000000000e+00
0.000000000000000e+00 0.000000000000000e+00 0.000000000000000e+00

0.000000000000000e+00 0.000000000000000e+00 0.000000000000000e+00
0.000000000000000e+00 0.000000000000000e+00 0.000000000000000e+00
0.000000000000000e+00 0.000000000000000e+00 0.000000000000000e+00

0.000000000000000e+00 0.000000000000000e+00 0.000000000000000e+00
0.000000000000000e+00 0.000000000000000e+00 0.000000000000000e+00
0.000000000000000e+00 0.000000000000000e+00 0.000000000000000e+00

0.000000000000000e+00 0.000000000000000e+00 0.000000000000000e+00
0.000000000000000e+00 0.000000000000000e+00 0.000000000000000e+00
0.000000000000000e+00 0.000000000000000e+00 0.000000000000000e+00

0.000000000000000e+00 0.000000000000000e+00 0.000000000000000e+00
0.000000000000000e+00 0.000000000000000e+00 0.000000000000000e+00
0.000000000000000e+00 0.000000000000000e+00 0.000000000000000e+00

0.000000000000000e+00 0.000000000000000e+00 0.000000000000000e+00
0.000000000000000e+00 0.000000000000000e+00 0.000000000000000e+00
0.000000000000000e+00 0.000000000000000e+00 0.000000000000000e+00

0.000000000000000e+00 0.000000000000000e+00 0.000000000000000e+00
0.000000000000000e+00 0.000000000000000e+00 0.000000000000000e+00
0.000000000000000e+00 0.000000000000000e+00 0.000000000000000e+00

0.000000000000000e+00 0.000000000000000e+00 0.000000000000000e+00
0.000000000000000e+00 0.000000000000000e+00 0.000000000000000e+00
0.000000000000000e+00 0.000000000000000e+00 0.000000000000000e+00

0.000000000000000e+00 0.000000000000000e+00 0.000000000000000e+00
0.000000000000000e+00 0.000000000000000e+00 0.000000000000000e+00
0.000000000000000e+00 0.000000000000000e+00 0.000000000000000e+00

0.000000000000000e+00 0.000000000000000e+00 0.000000000000000e+00
0.000000000000000e+00 0.000000000000000e+00 0.000000000000000e+00
0.000000000000000e+00 0.000000000000000e+00 0.000000000000000e+00

0.000000000000000e+00 0.000000000000000e+00 0.000000000000000e+00
0.000000000000000e+00 0.000000000000000e+00 0.000000000000000e+00
0.000000000000000e+00 0.000000000000000e+00 0.000000000000000e+00

0.000000000000000e+00 0.000000000000000e+00 0.000000000000000e+00
0.000000000000000e+00 0.000000000000000e+00 0.000000000000000e+00
0.000000000000000e+00 0.000000000000000e+00 0.000000000000000e+00

0.000000000000000e+00 0.000000000000000e+00 0.000000000000000e+00
0.000000000000000e+00 0.000000000000000e+00 0.000000000000000e+00
0.000000000000000e+00 0.000000000000000e+00 0.000000000000000e+00

0.000000000000000e+00 0.000000000000000e+00 0.000000000000000e+00
0.000000000000000e+00 0.000000000000000e+00 0.000000000000000e+00
0.000000000000000e+00 0.000000000000000e+00 0.000000000000000e+00

0.000000000000000e+00 0.000000000000000e+00 0.000000000000000e+00
0.000000000000000e+00 0.000000000000000e+00 0.000000000000000e+00
0.000000000000000e+00 0.000000000000000e+00 0.000000000000000e+00

0.000000000000000e+00 0.000000000000000e+00 0.000000000000000e+00
0.000000000000000e+00 0.000000000000000e+00 0.000000000000000e+00
0.000000000000000e+00 0.000000000000000e+00 0.000000000000000e+00

0.000000000000000e+00 0.000000000000000e+00 0.000000000000000e+00
0.000000000000000e+00 0.000000000000000e+00 0.000000000000000e+00
0.000000000000000e+00 0.000000000000000e+00 0.000000000000000e+00

0.000000000000000e+00 0.000000000000000e+00 0.000000000000000e+00
0.000000000000000e+00 0.000000000000000e+00 0.000000000000000e+00
0.000000000000000e+00 0.000000000000000e+00 0.000000000000000e+00

0.000000000000000e+00 0.000000000000000e+00 0.000000000000000e+00
0.000000000000000e+00 0.000000000000000e+00 0.000000000000000e+00
0.000000000000000e+00 0.000000000000000e+00 0.000000000000000e+00

0.000000000000000e+00 0.000000000000000e+00 0.000000000000000e+00
0.000000000000000e+00 0.000000000000000e+00 0.000000000000000e+00
0.000000000000000e+00 0.000000000000000e+00 0.000000000000000e+00

0.000000000000000e+00 0.000000000000000e+00 0.000000000000000e+00
0.000000000000000e+00 0.000000000000000e+00 0.000000000000000e+00
0.000000000000000e+00 0.000000000000000e+00 0.000000000000000e+00

0.000000000000000e+00 0.000000000000000e+00 0.000000000000000e+00
0.000000000000000e+00 0.000000000000000e+00 0.000000000000000e+00
0.000000000000000e+00 0.000000000000000e+00 0.000000000000000e+00

0.000000000000000e+00 0.000000000000000e+00 0.000000000000000e+00
0.000000000000000e+00 0.000000000000000e+00 0.000000000000000e+00
0.000000000000000e+00 0.000000000000000e+00 0.000000000000000e+00

0.000000000000000e+00 0.000000000000000e+00 0.000000000000000e+00
0.000000000000000e+00 0.000000000000000e+00 0.000000000000000e+00
0.000000000000000e+00 0.000000000000000e+00 0.000000000000000e+00

0.000000000000000e+00 0.000000000000000e+00 0.000000000000000e+00
0.000000000000000e+00 0.000000000000000e+00 0.000000000000000e+00
0.000000000000000e+00 0.000000000000000e+00 0.000000000000000e+00

0.000000000000000e+00 0.000000000000000e+00 0.000000000000000e+00
0.000000000000000e+00 0.000000000000000e+00 0.000000000000000e+00
0.000000000000000e+00 0.000000000000000e+00 0.000000000000000e+00

0.000000000000000e+00 0.000000000000000e+00 0.000000000000000e+00
0.000000000000000e+00 0.000000000000000e+00 0.000000000000000e+00
0.000000000000000e+00 0.000000000000000e+00 0.000000000000000e+00

0.000000000000000e+00 0.000000000000000e+00 0.000000000000000e+00
0.000000000000000e+00 0.000000000000000e+00 0.000000000000000e+00
0.000000000000000e+00 0.000000000000000e+00 0.000000000000000e+00

0.000000000000000e+00 0.000000000000000e+00 0.000000000000000e+00
0.000000000000000e+00 0.000000000000000e+00 0.000000000000000e+00
0.000000000000000e+00 0.000000000000000e+00 0.000000000000000e+00

0.000000000000000e+00 0.000000000000000e+00 0.000000000000000e+00
0.000000000000000e+00 0.000000000000000e+00 0.000000000000000e+00
0.000000000000000e+00 0.000000000000000e+00 0.000000000000000e+00

0.000000000000000e+00 0.000000000000000e+00 0.000000000000000e+00
0.000000000000000e+00 0.000000000000000e+00 0.000000000000000e+00
0.000000000000000e+00 0.000000000000000e+00 0.000000000000000e+00

0.000000000000000e+00 0.000000000000000e+00 0.000000000000000e+00
0.000000000000000e+00 0.000000000000000e+00 0.000000000000000e+00
0.000000000000000e+00 0.000000000000000e+00 0.000000000000000e+00

0.000000000000000e+00 0.000000000000000e+00 0.000000000000000e+00
0.000000000000000e+00 0.000000000000000e+00 0.000000000000000e+00
0.000000000000000e+00 0.000000000000000e+00 0.000000000000000e+00

0.000000000000000e+00 0.000000000000000e+00 0.000000000000000e+00
0.000000000000000e+00 0.000000000000000e+00 0.000000000000000e+00
0.000000000000000e+00 0.000000000000000e+00 0.000000000000000e+00

0.000000000000000e+00 0.000000000000000e+00 0.000000000000000e+00
0.000000000000000e+00 0.000000000000000e+00 0.000000000000000e+00
0.000000000000000e+00 0.000000000000000e+00 0.000000000000000e+00

0.000000000000000e+00 0.000000000000000e+00 0.000000000000000e+00
0.000000000000000e+00 0.000000000000000e+00 0.000000000000000e+00
0.000000000000000e+00 0.000000000000000e+00 0.000000000000000e+00

0.000000000000000e+00 0.000000000000000e+00 0.000000000000000e+00
0.000000000000000e+00 0.000000000000000e+00 0.000000000000000e+00
0.000000000000000e+00 0.000000000000000e+00 0.000000000000000e+00

0.000000000000000e+00 0.000000000000000e+00 0.000000000000000e+00
0.000000000000000e+00 0.000000000000000e+00 0.000000000000000e+00
0.000000000000000e+00 0.000000000000000e+00 0.000000000000000e+00

0.000000000000000e+00 0.000000000000000e+00 0.000000000000000e+00
0.000000000000000e+00 0.000000000000000e+00 0.000000000000000e+00
0.000000000000000e+00 0.000000000000000e+00 0.000000000000000e+00

0.000000000000000e+00 0.000000000000000e+00 0.000000000000000e+00
0.000000000000000e+00 0.000000000000000e+00 0.000000000000000e+00
0.000000000000000e+00 0.000000000000000e+00 0.000000000000000e+00

0.000000000000000e+00 0.000000000000000e+00 0.000000000000000e+00
0.000000000000000e+00 0.000000000000000e+00 0.000000000000000e+00
0.000000000000000e+00 0.000000000000000e+00 0.000000000000000e+00

0.000000000000000e+00 0.000000000000000e+00 0.000000000000000e+00
0.000000000000000e+00 0.000000000000000e+00 0.000000000000000e+00
0.000000000000000e+00 0.000000000000000e+00 0.000000000000000e+00

0.000000000000000e+00 0.000000000000000e+00 0.000000000000000e+00
0.000000000000000e+00 0.000000000000000e+00 0.000000000000000e+00
0.000000000000000e+00 0.000000000000000e+00 0.000000000000000e+00

0.000000000000000e+00 0.000000000000000e+00 0.000000000000000e+00
0.000000000000000e+00 0.000000000000000e+00 0.000000000000000e+00
0.000000000000000e+00 0.000000000000000e+00 0.000000000000000e+00

0.000000000000000e+00 0.000000000000000e+00 0.000000000000000e+00
0.000000000000000e+00 0.000000000000000e+00 0.000000000000000e+00
0.000000000000000e+00 0.000000000000000e+00 0.000000000000000e+00

0.000000000000000e+00 0.000000000000000e+00 0.000000000000000e+00
0.000000000000000e+00 0.000000000000000e+00 0.000000000000000e+00
0.000000000000000e+00 0.000000000000000e+00 0.000000000000000e+00

0.000000000000000e+00 0.000000000000000e+00 0.000000000000000e+00
0.000000000000000e+00 0.000000000000000e+00 0.000000000000000e+00
0.000000000000000e+00 0.000000000000000e+00 0.000000000000000e+00

0.000000000000000e+00 0.000000000000000e+00 0.000000000000000e+00
0.000000000000000e+00 0.000000000000000e+00 0.000000000000000e+00
0.000000000000000e+00 0.000000000000000e+00 0.000000000000000e+00

0.000000000000000e+00 0.000000000000000e+00 0.000000000000000e+00
0.000000000000000e+00 0.000000000000000e+00 0.000000000000000e+00
0.000000000000000e+00 0.000000000000000e+00 0.000000000000000e+00

0.000000000000000e+00 0.000000000000000e+00 0.000000000000000e+00
0.000000000000000e+00 0.000000000000000e+00 0.000000000000000e+00
0.000000000000000e+00 0.000000000000000e+00 0.000000000000000e+00

0.000000000000000e+00 0.000000000000000e+00 0.000000000000000e+00
0.000000000000000e+00 0.000000000000000e+00 0.000000000000000e+00
0.000000000000000e+00 0.000000000000000e+00 0.000000000000000e+00

0.000000000000000e+00 0.000000000000000e+00 0.000000000000000e+00
0.000000000000000e+00 0.000000000000000e+00 0.000000000000000e+00
0.000000000000000e+00 0.000000000000000e+00 0.000000000000000e+00

0.000000000000000e+00 0.000000000000000e+00 0.000000000000000e+00
0.000000000000000e+00 0.000000000000000e+00 0.000000000000000e+00
0.000000000000000e+00 0.000000000000000e+00 0.000000000000000e+00

0.000000000000000e+00 0.000000000000000e+00 0.000000000000000e+00
0.000000000000000e+00 0.000000000000000e+00 0.000000000000000e+00
0.000000000000000e+00 0.000000000000000e+00 0.000000000000000e+00

0.000000000000000e+00 0.000000000000000e+00 0.000000000000000e+00
0.000000000000000e+00 0.000000000000000e+00 0.000000000000000e+00
0.000000000000000e+00 0.000000000000000e+00 0.000000000000000e+00

0.000000000000000e+00 0.000000000000000e+00 0.000000000000000e+00
0.000000000000000e+00 0.000000000000000e+00 0.000000000000000e+00
0.000000000000000e+00 0.000000000000000e+00 0.000000000000000e+00

0.000000000000000e+00 0.000000000000000e+00 0.000000000000000e+00
0.000000000000000e+00 0.000000000000000e+00 0.000000000000000e+00
0.000000000000000e+00 0.000000000000000e+00 0.000000000000000e+00

0.000000000000000e+00 0.000000000000000e+00 0.000000000000000e+00
0.000000000000000e+00 0.000000000000000e+00 0.000000000000000e+00
0.000000000000000e+00 0.000000000000000e+00 0.000000000000000e+00

0.000000000000000e+00 0.000000000000000e+00 0.000000000000000e+00
0.000000000000000e+00 0.000000000000000e+00 0.000000000000000e+00
0.000000000000000e+00 0.000000000000000e+00 0.000000000000000e+00

0.000000000000000e+00 0.000000000000000e+00 0.000000000000000e+00
0.000000000000000e+00 0.000000000000000e+00 0.000000000000000e+00
0.000000000000000e+00 0.000000000000000e+00 0.000000000000000e+00

0.000000000000000e+00 0.000000000000000e+00 0.000000000000000e+00
0.000000000000000e+00 0.000000000000000e+00 0.000000000000000e+00
0.000000000000000e+00 0.000000000000000e+00 0.000000000000000e+00

0.000000000000000e+00 0.000000000000000e+00 0.000000000000000e+00
0.000000000000000e+00 0.000000000000000e+00 0.000000000000000e+00
0.000000000000000e+00 0.000000000000000e+00 0.000000000000000e+00

0.000000000000000e+00 0.000000000000000e+00 0.000000000000000e+00
0.000000000000000e+00 0.000000000000000e+00 0.000000000000000e+00
0.000000000000000e+00 0.000000000000000e+00 0.000000000000000e+00

0.000000000000000e+00 0.000000000000000e+00 0.000000000000000e+00
0.000000000000000e+00 0.000000000000000e+00 0.000000000000000e+00
0.000000000000000e+00 0.000000000000000e+00 0.000000000000000e+00

0.000000000000000e+00 0.000000000000000e+00 0.000000000000000e+00
0.000000000000000e+00 0.000000000000000e+00 0.000000000000000e+00
0.000000000000000e+00 0.000000000000000e+00 0.000000000000000e+00

0.000000000000000e+00 0.000000000000000e+00 0.000000000000000e+00
0.000000000000000e+00 0.000000000000000e+00 0.000000000000000e+00
0.000000000000000e+00 0.000000000000000e+00 0.000000000000000e+00

0.000000000000000e+00 0.000000000000000e+00 0.000000000000000e+00
0.000000000000000e+00 0.000000000000000e+00 0.000000000000000e+00
0.000000000000000e+00 0.000000000000000e+00 0.000000000000000e+00

0.000000000000000e+00 0.000000000000000e+00 0.000000000000000e+00
0.000000000000000e+00 0.000000000000000e+00 0.000000000000000e+00
0.000000000000000e+00 0.000000000000000e+00 0.000000000000000e+00

0.000000000000000e+00 0.000000000000000e+00 0.000000000000000e+00
0.000000000000000e+00 0.000000000000000e+00 0.000000000000000e+00
0.000000000000000e+00 0.000000000000000e+00 0.000000000000000e+00

0.000000000000000e+00 0.000000000000000e+00 0.000000000000000e+00
0.000000000000000e+00 0.000000000000000e+00 0.000000000000000e+00
0.000000000000000e+00 0.000000000000000e+00 0.000000000000000e+00

0.000000000000000e+00 0.000000000000000e+00 0.000000000000000e+00
0.000000000000000e+00 0.000000000000000e+00 0.000000000000000e+00
0.000000000000000e+00 0.000000000000000e+00 0.000000000000000e+00

0.000000000000000e+00 0.000000000000000e+00 0.000000000000000e+00
0.000000000000000e+00 0.000000000000000e+00 0.000000000000000e+00
0.000000000000000e+00 0.000000000000000e+00 0.000000000000000e+00

0.000000000000000e+00 0.000000000000000e+00 0.000000000000000e+00
0.000000000000000e+00 0.000000000000000e+00 0.000000000000000e+00
0.000000000000000e+00 0.000000000000000e+00 0.000000000000000e+00

0.000000000000000e+00 0.000000000000000e+00 0.000000000000000e+00
0.000000000000000e+00 0.000000000000000e+00 0.000000000000000e+00
0.000000000000000e+00 0.000000000000000e+00 0.000000000000000e+00

0.000000000000000e+00 0.000000000000000e+00 0.000000000000000e+00
0.000000000000000e+00 0.000000000000000e+00 0.000000000000000e+00
0.000000000000000e+00 0.000000000000000e+00 0.000000000000000e+00

0.000000000000000e+00 0.000000000000000e+00 0.000000000000000e+00
0.000000000000000e+00 0.000000000000000e+00 0.000000000000000e+00
0.000000000000000e+00 0.000000000000000e+00 0.000000000000000e+00

0.000000000000000e+00 0.000000000000000e+00 0.000000000000000e+00
0.000000000000000e+00 0.000000000000000e+00 0.000000000000000e+00
0.000000000000000e+00 0.000000000000000e+00 0.000000000000000e+00

0.000000000000000e+00 0.000000000000000e+00 0.000000000000000e+00
0.000000000000000e+00 0.000000000000000e+00 0.000000000000000e+00
0.000000000000000e+00 0.000000000000000e+00 0.000000000000000e+00

0.000000000000000e+00 0.000000000000000e+00 0.000000000000000e+00
0.000000000000000e+00 0.000000000000000e+00 0.000000000000000e+00
0.000000000000000e+00 0.000000000000000e+00 0.000000000000000e+00

0.000000000000000e+00 0.000000000000000e+00 0.000000000000000e+00
0.000000000000000e+00 0.000000000000000e+00 0.000000000000000e+00
0.000000000000000e+00 0.000000000000000e+00 0.000000000000000e+00

0.000000000000000e+00 0.000000000000000e+00 0.000000000000000e+00
0.000000000000000e+00 0.000000000000000e+00 0.000000000000000e+00
0.000000000000000e+00 0.000000000000000e+00 0.000000000000000e+00

0.000000000000000e+00 0.000000000000000e+00 0.000000000000000e+00
0.000000000000000e+00 0.000000000000000e+00 0.000000000000000e+00
0.000000000000000e+00 0.000000000000000e+00 0.000000000000000e+00

0.000000000000000e+00 0.000000000000000e+00 0.000000000000000e+00
0.000000000000000e+00 0.000000000000000e+00 0.000000000000000e+00
0.000000000000000e+00 0.000000000000000e+00 0.000000000000000e+00

0.000000000000000e+00 0.000000000000000e+00 0.000000000000000e+00
0.000000000000000e+00 0.000000000000000e+00 0.000000000000000e+00
0.000000000000000e+00 0.000000000000000e+00 0.000000000000000e+00

0.000000000000000e+00 0.000000000000000e+00 0.000000000000000e+00
0.000000000000000e+00 0.000000000000000e+00 0.000000000000000e+00
0.000000000000000e+00 0.000000000000000e+00 0.000000000000000e+00

0.000000000000000e+00 0.000000000000000e+00 0.000000000000000e+00
0.000000000000000e+00 0.000000000000000e+00 0.000000000000000e+00
0.000000000000000e+00 0.000000000000000e+00 0.000000000000000e+00

0.000000000000000e+00 0.000000000000000e+00 0.000000000000000e+00
0.000000000000000e+00 0.000000000000000e+00 0.000000000000000e+00
0.000000000000000e+00 0.000000000000000e+00 0.000000000000000e+00

0.000000000000000e+00 0.000000000000000e+00 0.000000000000000e+00
0.000000000000000e+00 0.000000000000000e+00 0.000000000000000e+00
0.000000000000000e+00 0.000000000000000e+00 0.000000000000000e+00

0.000000000000000e+00 0.000000000000000e+00 0.000000000000000e+00
0.000000000000000e+00 0.000000000000000e+00 0.000000000000000e+00
0.000000000000000e+00 0.000000000000000e+00 0.000000000000000e+00

0.000000000000000e+00 0.000000000000000e+00 0.000000000000000e+00
0.000000000000000e+00 0.000000000000000e+00 0.000000000000000e+00
0.000000000000000e+00 0.000000000000000e+00 0.000000000000000e+00

0.000000000000000e+00 0.000000000000000e+00 0.000000000000000e+00
0.000000000000000e+00 0.000000000000000e+00 0.000000000000000e+00
0.000000000000000e+00 0.000000000000000e+00 0.000000000000000e+00

0.000000000000000e+00 0.000000000000000e+00 0.000000000000000e+00
0.000000000000000e+00 0.000000000000000e+00 0.000000000000000e+00
0.000000000000000e+00 0.000000000000000e+00 0.000000000000000e+00

0.000000000000000e+00 0.000000000000000e+00 0.000000000000000e+00
0.000000000000000e+00 0.000000000000000e+00 0.000000000000000e+00
0.000000000000000e+00 0.000000000000000e+00 0.000000000000000e+00

0.000000000000000e+00 0.000000000000000e+00 0.000000000000000e+00
0.000000000000000e+00 0.000000000000000e+00 0.000000000000000e+00
0.000000000000000e+00 0.000000000000000e+00 0.000000000000000e+00

0.000000000000000e+00 0.000000000000000e+00 0.000000000000000e+00
0.000000000000000e+00 0.000000000000000e+00 0.000000000000000e+00
0.000000000000000e+00 0.000000000000000e+00 0.000000000000000e+00

0.000000000000000e+00 0.000000000000000e+00 0.000000000000000e+00
0.000000000000000e+00 0.000000000000000e+00 0.000000000000000e+00
0.000000000000000e+00 0.000000000000000e+00 0.000000000000000e+00

0.000000000000000e+00 0.000000000000000e+00 0.000000000000000e+00
0.000000000000000e+00 0.000000000000000e+00 0.000000000000000e+00
0.000000000000000e+00 0.000000000000000e+00 0.000000000000000e+00

0.000000000000000e+00 0.000000000000000e+00 0.000000000000000e+00
0.000000000000000e+00 0.000000000000000e+00 0.000000000000000e+00
0.000000000000000e+00 0.000000000000000e+00 0.000000000000000e+00

0.000000000000000e+00 0.000000000000000e+00 0.000000000000000e+00
0.000000000000000e+00 0.000000000000000e+00 0.000000000000000e+00
0.000000000000000e+00 0.000000000000000e+00 0.000000000000000e+00

0.000000000000000e+00 0.000000000000000e+00 0.000000000000000e+00
0.000000000000000e+00 0.000000000000000e+00 0.000000000000000e+00
0.000000000000000e+00 0.000000000000000e+00 0.000000000000000e+00

0.000000000000000e+00 0.000000000000000e+00 0.000000000000000e+00
0.000000000000000e+00 0.000000000000000e+00 0.000000000000000e+00
0.000000000000000e+00 0.000000000000000e+00 0.000000000000000e+00

0.000000000000000e+00 0.000000000000000e+00 0.000000000000000e+00
0.000000000000000e+00 0.000000000000000e+00 0.000000000000000e+00
0.000000000000000e+00 0.000000000000000e+00 0.000000000000000e+00

0.000000000000000e+00 0.000000000000000e+00 0.000000000000000e+00
0.000000000000000e+00 0.000000000000000e+00 0.000000000000000e+00
0.000000000000000e+00 0.000000000000000e+00 0.000000000000000e+00

0.000000000000000e+00 0.000000000000000e+00 0.000000000000000e+00
0.000000000000000e+00 0.000000000000000e+00 0.000000000000000e+00
0.000000000000000e+00 0.000000000000000e+00 0.000000000000000e+00

0.000000000000000e+00 0.000000000000000e+00 0.000000000000000e+00
0.000000000000000e+00 0.000000000000000e+00 0.000000000000000e+00
0.000000000000000e+00 0.000000000000000e+00 0.000000000000000e+00

0.000000000000000e+00 0.000000000000000e+00 0.000000000000000e+00
0.000000000000000e+00 0.000000000000000e+00 0.000000000000000e+00
0.000000000000000e+00 0.000000000000000e+00 0.000000000000000e+00

0.000000000000000e+00 0.000000000000000e+00 0.000000000000000e+00
0.000000000000000e+00 0.000000000000000e+00 0.000000000000000e+00
0.000000000000000e+00 0.000000000000000e+00 0.000000000000000e+00

0.000000000000000e+00 0.000000000000000e+00 0.000000000000000e+00
0.000000000000000e+00 0.000000000000000e+00 0.000000000000000e+00
0.000000000000000e+00 0.000000000000000e+00 0.000000000000000e+00

0.000000000000000e+00 0.000000000000000e+00 0.000000000000000e+00
0.000000000000000e+00 0.000000000000000e+00 0.000000000000000e+00
0.000000000000000e+00 0.000000000000000e+00 0.000000000000000e+00

0.000000000000000e+00 0.000000000000000e+00 0.000000000000000e+00
0.000000000000000e+00 0.000000000000000e+00 0.000000000000000e+00
0.000000000000000e+00 0.000000000000000e+00 0.000000000000000e+00

0.000000000000000e+00 0.000000000000000e+00 0.000000000000000e+00
0.000000000000000e+00 0.000000000000000e+00 0.000000000000000e+00
0.000000000000000e+00 0.000000000000000e+00 0.000000000000000e+00

0.000000000000000e+00 0.000000000000000e+00 0.000000000000000e+00
0.000000000000000e+00 0.000000000000000e+00 0.000000000000000e+00
0.000000000000000e+00 0.000000000000000e+00 0.000000000000000e+00

0.000000000000000e+00 0.000000000000000e+00 0.000000000000000e+00
0.000000000000000e+00 0.000000000000000e+00 0.000000000000000e+00
0.000000000000000e+00 0.000000000000000e+00 0.000000000000000e+00

0.000000000000000e+00 0.000000000000000e+00 0.000000000000000e+00
0.000000000000000e+00 0.000000000000000e+00 0.000000000000000e+00
0.000000000000000e+00 0.000000000000000e+00 0.000000000000000e+00

0.000000000000000e+00 0.000000000000000e+00 0.000000000000000e+00
0.000000000000000e+00 0.000000000000000e+00 0.000000000000000e+00
0.000000000000000e+00 0.000000000000000e+00 0.000000000000000e+00

0.000000000000000e+00 0.000000000000000e+00 0.000000000000000e+00
0.000000000000000e+00 0.000000000000000e+00 0.000000000000000e+00
0.000000000000000e+00 0.000000000000000e+00 0.000000000000000e+00

0.000000000000000e+00 0.000000000000000e+00 0.000000000000000e+00
0.000000000000000e+00 0.000000000000000e+00 0.000000000000000e+00
0.000000000000000e+00 0.000000000000000e+00 0.000000000000000e+00

0.000000000000000e+00 0.000000000000000e+00 0.000000000000000e+00
0.000000000000000e+00 0.000000000000000e+00 0.000000000000000e+00
0.000000000000000e+00 0.000000000000000e+00 0.000000000000000e+00

0.000000000000000e+00 0.000000000000000e+00 0.000000000000000e+00
0.000000000000000e+00 0.000000000000000e+00 0.000000000000000e+00
0.000000000000000e+00 0.000000000000000e+00 0.000000000000000e+00

0.000000000000000e+00 0.000000000000000e+00 0.000000000000000e+00
0.000000000000000e+00 0.000000000000000e+00 0.000000000000000e+00
0.000000000000000e+00 0.000000000000000e+00 0.000000000000000e+00

0.000000000000000e+00 0.000000000000000e+00 0.000000000000000e+00
0.000000000000000e+00 0.000000000000000e+00 0.000000000000000e+00
0.000000000000000e+00 0.000000000000000e+00 0.000000000000000e+00

0.000000000000000e+00 0.000000000000000e+00 0.000000000000000e+00
0.000000000000000e+00 0.000000000000000e+00 0.000000000000000e+00
0.000000000000000e+00 0.000000000000000e+00 0.000000000000000e+00

0.000000000000000e+00 0.000000000000000e+00 0.000000000000000e+00
0.000000000000000e+00 0.000000000000000e+00 0.000000000000000e+00
0.000000000000000e+00 0.000000000000000e+00 0.000000000000000e+00

0.000000000000000e+00 0.000000000000000e+00 0.000000000000000e+00
0.000000000000000e+00 0.000000000000000e+00 0.000000000000000e+00
0.000000000000000e+00 0.000000000000000e+00 0.000000000000000e+00

0.000000000000000e+00 0.000000000000000e+00 0.000000000000000e+00
0.000000000000000e+00 0.000000000000000e+00 0.000000000000000e+00
0.000000000000000e+00 0.000000000000000e+00 0.000000000000000e+00

0.000000000000000e+00 0.000000000000000e+00 0.000000000000000e+00
0.000000000000000e+00 0.000000000000000e+00 0.000000000000000e+00
0.000000000000000e+00 0.000000000000000e+00 0.000000000000000e+00

0.000000000000000e+00 0.000000000000000e+00 0.000000000000000e+00
0.000000000000000e+00 0.000000000000000e+00 0.000000000000000e+00
0.000000000000000e+00 0.000000000000000e+00 0.000000000000000e+00

0.000000000000000e+00 0.000000000000000e+00 0.000000000000000e+00
0.000000000000000e+00 0.000000000000000e+00 0.000000000000000e+00
0.000000000000000e+00 0.000000000000000e+00 0.000000000000000e+00

0.000000000000000e+00 0.000000000000000e+00 0.000000000000000e+00
0.000000000000000e+00 0.000000000000000e+00 0.000000000000000e+00
0.000000000000000e+00 0.000000000000000e+00 0.000000000000000e+00

0.000000000000000e+00 0.000000000000000e+00 0.000000000000000e+00
0.000000000000000e+00 0.000000000000000e+00 0.000000000000000e+00
0.000000000000000e+00 0.000000000000000e+00 0.000000000000000e+00

0.000000000000000e+00 0.000000000000000e+00 0.000000000000000e+00
0.000000000000000e+00 0.000000000000000e+00 0.000000000000000e+00
0.000000000000000e+00 0.000000000000000e+00 0.000000000000000e+00

0.000000000000000e+00 0.000000000000000e+00 0.000000000000000e+00
0.000000000000000e+00 0.000000000000000e+00 0.000000000000000e+00
0.000000000000000e+00 0.000000000000000e+00 0.000000000000000e+00

0.000000000000000e+00 0.000000000000000e+00 0.000000000000000e+00
0.000000000000000e+00 0.000000000000000e+00 0.000000000000000e+00
0.000000000000000e+00 0.000000000000000e+00 0.000000000000000e+00

0.000000000000000e+00 0.000000000000000e+00 0.000000000000000e+00
0.000000000000000e+00 0.000000000000000e+00 0.000000000000000e+00
0.000000000000000e+00 0.000000000000000e+00 0.000000000000000e+00

0.000000000000000e+00 0.000000000000000e+00 0.000000000000000e+00
0.000000000000000e+00 0.000000000000000e+00 0.000000000000000e+00
0.000000000000000e+00 0.000000000000000e+00 0.000000000000000e+00

0.000000000000000e+00 0.000000000000000e+00 0.000000000000000e+00
0.000000000000000e+00 0.000000000000000e+00 0.000000000000000e+00
0.000000000000000e+00 0.000000000000000e+00 0.000000000000000e+00

0.000000000000000e+00 0.000000000000000e+00 0.000000000000000e+00
0.000000000000000e+00 0.000000000000000e+00 0.000000000000000e+00
0.000000000000000e+00 0.000000000000000e+00 0.000000000000000e+00

0.000000000000000e+00 0.000000000000000e+00 0.000000000000000e+00
0.000000000000000e+00 0.000000000000000e+00 0.000000000000000e+00
0.000000000000000e+00 0.000000000000000e+00 0.000000000000000e+00

0.000000000000000e+00 0.000000000000000e+00 0.000000000000000e+00
0.000000000000000e+00 0.000000000000000e+00 0.000000000000000e+00
0.000000000000000e+00 0.000000000000000e+00 0.000000000000000e+00

0.000000000000000e+00 0.000000000000000e+00 0.000000000000000e+00
0.000000000000000e+00 0.000000000000000e+00 0.000000000000000e+00
0.000000000000000e+00 0.000000000000000e+00 0.000000000000000e+00

0.000000000000000e+00 0.000000000000000e+00 0.000000000000000e+00
0.000000000000000e+00 0.000000000000000e+00 0.000000000000000e+00
0.000000000000000e+00 0.000000000000000e+00 0.000000000000000e+00

0.000000000000000e+00 0.000000000000000e+00 0.000000000000000e+00
0.000000000000000e+00 0.000000000000000e+00 0.000000000000000e+00
0.000000000000000e+00 0.000000000000000e+00 0.000000000000000e+00

0.000000000000000e+00 0.000000000000000e+00 0.000000000000000e+00
0.000000000000000e+00 0.000000000000000e+00 0.000000000000000e+00
0.000000000000000e+00 0.000000000000000e+00 0.000000000000000e+00

0.000000000000000e+00 0.000000000000000e+00 0.000000000000000e+00
0.000000000000000e+00 0.000000000000000e+00 0.000000000000000e+00
0.000000000000000e+00 0.000000000000000e+00 0.000000000000000e+00

0.000000000000000e+00 0.000000000000000e+00 0.000000000000000e+00
0.000000000000000e+00 0.000000000000000e+00 0.000000000000000e+00
0.000000000000000e+00 0.000000000000000e+00 0.000000000000000e+00

0.000000000000000e+00 0.000000000000000e+00 0.000000000000000e+00
0.000000000000000e+00 0.000000000000000e+00 0.000000000000000e+00
0.000000000000000e+00 0.000000000000000e+00 0.000000000000000e+00

0.000000000000000e+00 0.000000000000000e+00 0.000000000000000e+00
0.000000000000000e+00 0.000000000000000e+00 0.000000000000000e+00
0.000000000000000e+00 0.000000000000000e+00 0.000000000000000e+00

0.000000000000000e+00 0.000000000000000e+00 0.000000000000000e+00
0.000000000000000e+00 0.000000000000000e+00 0.000000000000000e+00
0.000000000000000e+00 0.000000000000000e+00 0.000000000000000e+00

0.000000000000000e+00 0.000000000000000e+00 0.000000000000000e+00
0.000000000000000e+00 0.000000000000000e+00 0.000000000000000e+00
0.000000000000000e+00 0.000000000000000e+00 0.000000000000000e+00

0.000000000000000e+00 0.000000000000000e+00 0.000000000000000e+00
0.000000000000000e+00 0.000000000000000e+00 0.000000000000000e+00
0.000000000000000e+00 0.000000000000000e+00 0.000000000000000e+00

0.000000000000000e+00 0.000000000000000e+00 0.000000000000000e+00
0.000000000000000e+00 0.000000000000000e+00 0.000000000000000e+00
0.000000000000000e+00 0.000000000000000e+00 0.000000000000000e+00

0.000000000000000e+00 0.000000000000000e+00 0.000000000000000e+00
0.000000000000000e+00 0.000000000000000e+00 0.000000000000000e+00
0.000000000000000e+00 0.000000000000000e+00 0.000000000000000e+00

0.000000000000000e+00 0.000000000000000e+00 0.000000000000000e+00
0.000000000000000e+00 0.000000000000000e+00 0.000000000000000e+00
0.000000000000000e+00 0.000000000000000e+00 0.000000000000000e+00

0.000000000000000e+00 0.000000000000000e+00 0.000000000000000e+00
0.000000000000000e+00 0.000000000000000e+00 0.000000000000000e+00
0.000000000000000e+00 0.000000000000000e+00 0.000000000000000e+00

0.000000000000000e+00 0.000000000000000e+00 0.000000000000000e+00
0.000000000000000e+00 0.000000000000000e+00 0.000000000000000e+00
0.000000000000000e+00 0.000000000000000e+00 0.000000000000000e+00

0.000000000000000e+00 0.000000000000000e+00 0.000000000000000e+00
0.000000000000000e+00 0.000000000000000e+00 0.000000000000000e+00
0.000000000000000e+00 0.000000000000000e+00 0.000000000000000e+00

0.000000000000000e+00 0.000000000000000e+00 0.000000000000000e+00
0.000000000000000e+00 0.000000000000000e+00 0.000000000000000e+00
0.000000000000000e+00 0.000000000000000e+00 0.000000000000000e+00

0.000000000000000e+00 0.000000000000000e+00 0.000000000000000e+00
0.000000000000000e+00 0.000000000000000e+00 0.000000000000000e+00
0.000000000000000e+00 0.000000000000000e+00 0.000000000000000e+00

0.000000000000000e+00 0.000000000000000e+00 0.000000000000000e+00
0.000000000000000e+00 0.000000000000000e+00 0.000000000000000e+00
0.000000000000000e+00 0.000000000000000e+00 0.000000000000000e+00

0.000000000000000e+00 0.000000000000000e+00 0.000000000000000e+00
0.000000000000000e+00 0.000000000000000e+00 0.000000000000000e+00
0.000000000000000e+00 0.000000000000000e+00 0.000000000000000e+00

0.000000000000000e+00 0.000000000000000e+00 0.000000000000000e+00
0.000000000000000e+00 0.000000000000000e+00 0.000000000000000e+00
0.000000000000000e+00 0.000000000000000e+00 0.000000000000000e+00

0.000000000000000e+00 0.000000000000000e+00 0.000000000000000e+00
0.000000000000000e+00 0.000000000000000e+00 0.000000000000000e+00
0.000000000000000e+00 0.000000000000000e+00 0.000000000000000e+00

0.000000000000000e+00 0.000000000000000e+00 0.000000000000000e+00
0.000000000000000e+00 0.000000000000000e+00 0.000000000000000e+00
0.000000000000000e+00 0.000000000000000e+00 0.000000000000000e+00

0.000000000000000e+00 0.000000000000000e+00 0.000000000000000e+00
0.000000000000000e+00 0.000000000000000e+00 0.000000000000000e+00
0.000000000000000e+00 0.000000000000000e+00 0.000000000000000e+00

0.000000000000000e+00 0.000000000000000e+00 0.000000000000000e+00
0.000000000000000e+00 0.000000000000000e+00 0.000000000000000e+00
0.000000000000000e+00 0.000000000000000e+00 0.000000000000000e+00

0.000000000000000e+00 0.000000000000000e+00 0.000000000000000e+00
0.000000000000000e+00 0.000000000000000e+00 0.000000000000000e+00
0.000000000000000e+00 0.000000000000000e+00 0.000000000000000e+00

0.000000000000000e+00 0.000000000000000e+00 0.000000000000000e+00
0.000000000000000e+00 0.000000000000000e+00 0.000000000000000e+00
0.000000000000000e+00 0.000000000000000e+00 0.000000000000000e+00

0.000000000000000e+00 0.000000000000000e+00 0.000000000000000e+00
0.000000000000000e+00 0.000000000000000e+00 0.000000000000000e+00
0.000000000000000e+00 0.000000000000000e+00 0.000000000000000e+00

0.000000000000000e+00 0.000000000000000e+00 0.000000000000000e+00
0.000000000000000e+00 0.000000000000000e+00 0.000000000000000e+00
0.000000000000000e+00 0.000000000000000e+00 0.000000000000000e+00

0.000000000000000e+00 0.000000000000000e+00 0.000000000000000e+00
0.000000000000000e+00 0.000000000000000e+00 0.000000000000000e+00
0.000000000000000e+00 0.000000000000000e+00 0.000000000000000e+00

0.000000000000000e+00 0.000000000000000e+00 0.000000000000000e+00
0.000000000000000e+00 0.000000000000000e+00 0.000000000000000e+00
0.000000000000000e+00 0.000000000000000e+00 0.000000000000000e+00

0.000000000000000e+00 0.000000000000000e+00 0.000000000000000e+00
0.000000000000000e+00 0.000000000000000e+00 0.000000000000000e+00
0.000000000000000e+00 0.000000000000000e+00 0.000000000000000e+00

0.000000000000000e+00 0.000000000000000e+00 0.000000000000000e+00
0.000000000000000e+00 0.000000000000000e+00 0.000000000000000e+00
0.000000000000000e+00 0.000000000000000e+00 0.000000000000000e+00

0.000000000000000e+00 0.000000000000000e+00 0.000000000000000e+00
0.000000000000000e+00 0.000000000000000e+00 0.000000000000000e+00
0.000000000000000e+00 0.000000000000000e+00 0.000000000000000e+00

0.000000000000000e+00 0.000000000000000e+00 0.000000000000000e+00
0.000000000000000e+00 0.000000000000000e+00 0.000000000000000e+00
0.000000000000000e+00 0.000000000000000e+00 0.000000000000000e+00

0.000000000000000e+00 0.000000000000000e+00 0.000000000000000e+00
0.000000000000000e+00 0.000000000000000e+00 0.000000000000000e+00
0.000000000000000e+00 0.000000000000000e+00 0.000000000000000e+00

0.000000000000000e+00 0.000000000000000e+00 0.000000000000000e+00
0.000000000000000e+00 0.000000000000000e+00 0.000000000000000e+00
0.000000000000000e+00 0.000000000000000e+00 0.000000000000000e+00

0.000000000000000e+00 0.000000000000000e+00 0.000000000000000e+00
0.000000000000000e+00 0.000000000000000e+00 0.000000000000000e+00
0.000000000000000e+00 0.000000000000000e+00 0.000000000000000e+00

0.000000000000000e+00 0.000000000000000e+00 0.000000000000000e+00
0.000000000000000e+00 0.000000000000000e+00 0.000000000000000e+00
0.000000000000000e+00 0.000000000000000e+00 0.000000000000000e+00

0.000000000000000e+00 0.000000000000000e+00 0.000000000000000e+00
0.000000000000000e+00 0.000000000000000e+00 0.000000000000000e+00
0.000000000000000e+00 0.000000000000000e+00 0.000000000000000e+00

0.000000000000000e+00 0.000000000000000e+00 0.000000000000000e+00
0.000000000000000e+00 0.000000000000000e+00 0.000000000000000e+00
0.000000000000000e+00 0.000000000000000e+00 0.000000000000000e+00

0.000000000000000e+00 0.000000000000000e+00 0.000000000000000e+00
0.000000000000000e+00 0.000000000000000e+00 0.000000000000000e+00
0.000000000000000e+00 0.000000000000000e+00 0.000000000000000e+00

0.000000000000000e+00 0.000000000000000e+00 0.000000000000000e+00
0.000000000000000e+00 0.000000000000000e+00 0.000000000000000e+00
0.000000000000000e+00 0.000000000000000e+00 0.000000000000000e+00

0.000000000000000e+00 0.000000000000000e+00 0.000000000000000e+00
0.000000000000000e+00 0.000000000000000e+00 0.000000000000000e+00
0.000000000000000e+00 0.000000000000000e+00 0.000000000000000e+00

0.000000000000000e+00 0.000000000000000e+00 0.000000000000000e+00
0.000000000000000e+00 0.000000000000000e+00 0.000000000000000e+00
0.000000000000000e+00 0.000000000000000e+00 0.000000000000000e+00

0.000000000000000e+00 0.000000000000000e+00 0.000000000000000e+00
0.000000000000000e+00 0.000000000000000e+00 0.000000000000000e+00
0.000000000000000e+00 0.000000000000000e+00 0.000000000000000e+00

0.000000000000000e+00 0.000000000000000e+00 0.000000000000000e+00
0.000000000000000e+00 0.000000000000000e+00 0.000000000000000e+00
0.000000000000000e+00 0.000000000000000e+00 0.000000000000000e+00

0.000000000000000e+00 0.000000000000000e+00 0.000000000000000e+00
0.000000000000000e+00 0.000000000000000e+00 0.000000000000000e+00
0.000000000000000e+00 0.000000000000000e+00 0.000000000000000e+00

0.000000000000000e+00 0.000000000000000e+00 0.000000000000000e+00
0.000000000000000e+00 0.000000000000000e+00 0.000000000000000e+00
0.000000000000000e+00 0.000000000000000e+00 0.000000000000000e+00

0.000000000000000e+00 0.000000000000000e+00 0.000000000000000e+00
0.000000000000000e+00 0.000000000000000e+00 0.000000000000000e+00
0.000000000000000e+00 0.000000000000000e+00 0.000000000000000e+00

0.000000000000000e+00 0.000000000000000e+00 0.000000000000000e+00
0.000000000000000e+00 0.000000000000000e+00 0.000000000000000e+00
0.000000000000000e+00 0.000000000000000e+00 0.000000000000000e+00

0.000000000000000e+00 0.000000000000000e+00 0.000000000000000e+00
0.000000000000000e+00 0.000000000000000e+00 0.000000000000000e+00
0.000000000000000e+00 0.000000000000000e+00 0.000000000000000e+00

0.000000000000000e+00 0.000000000000000e+00 0.000000000000000e+00
0.000000000000000e+00 0.000000000000000e+00 0.000000000000000e+00
0.000000000000000e+00 0.000000000000000e+00 0.000000000000000e+00

0.000000000000000e+00 0.000000000000000e+00 0.000000000000000e+00
0.000000000000000e+00 0.000000000000000e+00 0.000000000000000e+00
0.000000000000000e+00 0.000000000000000e+00 0.000000000000000e+00

0.000000000000000e+00 0.000000000000000e+00 0.000000000000000e+00
0.000000000000000e+00 0.000000000000000e+00 0.000000000000000e+00
0.000000000000000e+00 0.000000000000000e+00 0.000000000000000e+00

0.000000000000000e+00 0.000000000000000e+00 0.000000000000000e+00
0.000000000000000e+00 0.000000000000000e+00 0.000000000000000e+00
0.000000000000000e+00 0.000000000000000e+00 0.000000000000000e+00

0.000000000000000e+00 0.000000000000000e+00 0.000000000000000e+00
0.000000000000000e+00 0.000000000000000e+00 0.000000000000000e+00
0.000000000000000e+00 0.000000000000000e+00 0.000000000000000e+00

0.000000000000000e+00 0.000000000000000e+00 0.000000000000000e+00
0.000000000000000e+00 0.000000000000000e+00 0.000000000000000e+00
0.000000000000000e+00 0.000000000000000e+00 0.000000000000000e+00

0.000000000000000e+00 0.000000000000000e+00 0.000000000000000e+00
0.000000000000000e+00 0.000000000000000e+00 0.000000000000000e+00
0.000000000000000e+00 0.000000000000000e+00 0.000000000000000e+00

0.000000000000000e+00 0.000000000000000e+00 0.000000000000000e+00
0.000000000000000e+00 0.000000000000000e+00 0.000000000000000e+00
0.000000000000000e+00 0.000000000000000e+00 0.000000000000000e+00

0.000000000000000e+00 0.000000000000000e+00 0.000000000000000e+00
0.000000000000000e+00 0.000000000000000e+00 0.000000000000000e+00
0.000000000000000e+00 0.000000000000000e+00 0.000000000000000e+00

0.000000000000000e+00 0.000000000000000e+00 0.000000000000000e+00
0.000000000000000e+00 0.000000000000000e+00 0.000000000000000e+00
0.000000000000000e+00 0.000000000000000e+00 0.000000000000000e+00

0.000000000000000e+00 0.000000000000000e+00 0.000000000000000e+00
0.000000000000000e+00 0.000000000000000e+00 0.000000000000000e+00
0.000000000000000e+00 0.000000000000000e+00 0.000000000000000e+00

0.000000000000000e+00 0.000000000000000e+00 0.000000000000000e+00
0.000000000000000e+00 0.000000000000000e+00 0.000000000000000e+00
0.000000000000000e+00 0.000000000000000e+00 0.000000000000000e+00

0.000000000000000e+00 0.000000000000000e+00 0.000000000000000e+00
0.000000000000000e+00 0.000000000000000e+00 0.000000000000000e+00
0.000000000000000e+00 0.000000000000000e+00 0.000000000000000e+00

0.000000000000000e+00 0.000000000000000e+00 0.000000000000000e+00
0.000000000000000e+00 0.000000000000000e+00 0.000000000000000e+00
0.000000000000000e+00 0.000000000000000e+00 0.000000000000000e+00

0.000000000000000e+00 0.000000000000000e+00 0.000000000000000e+00
0.000000000000000e+00 0.000000000000000e+00 0.000000000000000e+00
0.000000000000000e+00 0.000000000000000e+00 0.000000000000000e+00

0.000000000000000e+00 0.000000000000000e+00 0.000000000000000e+00
0.000000000000000e+00 0.000000000000000e+00 0.000000000000000e+00
0.000000000000000e+00 0.000000000000000e+00 0.000000000000000e+00

0.000000000000000e+00 0.000000000000000e+00 0.000000000000000e+00
0.000000000000000e+00 0.000000000000000e+00 0.000000000000000e+00
0.000000000000000e+00 0.000000000000000e+00 0.000000000000000e+00

0.000000000000000e+00 0.000000000000000e+00 0.000000000000000e+00
0.000000000000000e+00 0.000000000000000e+00 0.000000000000000e+00
0.000000000000000e+00 0.000000000000000e+00 0.000000000000000e+00

0.000000000000000e+00 0.000000000000000e+00 0.000000000000000e+00
0.000000000000000e+00 0.000000000000000e+00 0.000000000000000e+00
0.000000000000000e+00 0.000000000000000e+00 0.000000000000000e+00

0.000000000000000e+00 0.000000000000000e+00 0.000000000000000e+00
0.000000000000000e+00 0.000000000000000e+00 0.000000000000000e+00
0.000000000000000e+00 0.000000000000000e+00 0.000000000000000e+00

0.000000000000000e+00 0.000000000000000e+00 0.000000000000000e+00
0.000000000000000e+00 0.000000000000000e+00 0.000000000000000e+00
0.000000000000000e+00 0.000000000000000e+00 0.000000000000000e+00

0.000000000000000e+00 0.000000000000000e+00 0.000000000000000e+00
0.000000000000000e+00 0.000000000000000e+00 0.000000000000000e+00
0.000000000000000e+00 0.000000000000000e+00 0.000000000000000e+00

0.000000000000000e+00 0.000000000000000e+00 0.000000000000000e+00
0.000000000000000e+00 0.000000000000000e+00 0.000000000000000e+00
0.000000000000000e+00 0.000000000000000e+00 0.000000000000000e+00

0.000000000000000e+00 0.000000000000000e+00 0.000000000000000e+00
0.000000000000000e+00 0.000000000000000e+00 0.000000000000000e+00
0.000000000000000e+00 0.000000000000000e+00 0.000000000000000e+00

0.000000000000000e+00 0.000000000000000e+00 0.000000000000000e+00
0.000000000000000e+00 0.000000000000000e+00 0.000000000000000e+00
0.000000000000000e+00 0.000000000000000e+00 0.000000000000000e+00

0.000000000000000e+00 0.000000000000000e+00 0.000000000000000e+00
0.000000000000000e+00 0.000000000000000e+00 0.000000000000000e+00
0.000000000000000e+00 0.000000000000000e+00 0.000000000000000e+00

0.000000000000000e+00 0.000000000000000e+00 0.000000000000000e+00
0.000000000000000e+00 0.000000000000000e+00 0.000000000000000e+00
0.000000000000000e+00 0.000000000000000e+00 0.000000000000000e+00

0.000000000000000e+00 0.000000000000000e+00 0.000000000000000e+00
0.000000000000000e+00 0.000000000000000e+00 0.000000000000000e+00
0.000000000000000e+00 0.000000000000000e+00 0.000000000000000e+00

0.000000000000000e+00 0.000000000000000e+00 0.000000000000000e+00
0.000000000000000e+00 0.000000000000000e+00 0.000000000000000e+00
0.000000000000000e+00 0.000000000000000e+00 0.000000000000000e+00

0.000000000000000e+00 0.000000000000000e+00 0.000000000000000e+00
0.000000000000000e+00 0.000000000000000e+00 0.000000000000000e+00
0.000000000000000e+00 0.000000000000000e+00 0.000000000000000e+00

0.000000000000000e+00 0.000000000000000e+00 0.000000000000000e+00
0.000000000000000e+00 0.000000000000000e+00 0.000000000000000e+00
0.000000000000000e+00 0.000000000000000e+00 0.000000000000000e+00

0.000000000000000e+00 0.000000000000000e+00 0.000000000000000e+00
0.000000000000000e+00 0.000000000000000e+00 0.000000000000000e+00
0.000000000000000e+00 0.000000000000000e+00 0.000000000000000e+00

0.000000000000000e+00 0.000000000000000e+00 0.000000000000000e+00
0.000000000000000e+00 0.000000000000000e+00 0.000000000000000e+00
0.000000000000000e+00 0.000000000000000e+00 0.000000000000000e+00

0.000000000000000e+00 0.000000000000000e+00 0.000000000000000e+00
0.000000000000000e+00 0.000000000000000e+00 0.000000000000000e+00
0.000000000000000e+00 0.000000000000000e+00 0.000000000000000e+00

0.000000000000000e+00 0.000000000000000e+00 0.000000000000000e+00
0.000000000000000e+00 0.000000000000000e+00 0.000000000000000e+00
0.000000000000000e+00 0.000000000000000e+00 0.000000000000000e+00

0.000000000000000e+00 0.000000000000000e+00 0.000000000000000e+00
0.000000000000000e+00 0.000000000000000e+00 0.000000000000000e+00
0.000000000000000e+00 0.000000000000000e+00 0.000000000000000e+00

0.000000000000000e+00 0.000000000000000e+00 0.000000000000000e+00
0.000000000000000e+00 0.000000000000000e+00 0.000000000000000e+00
0.000000000000000e+00 0.000000000000000e+00 0.000000000000000e+00

0.000000000000000e+00 0.000000000000000e+00 0.000000000000000e+00
0.000000000000000e+00 0.000000000000000e+00 0.000000000000000e+00
0.000000000000000e+00 0.000000000000000e+00 0.000000000000000e+00

0.000000000000000e+00 0.000000000000000e+00 0.000000000000000e+00
0.000000000000000e+00 0.000000000000000e+00 0.000000000000000e+00
0.000000000000000e+00 0.000000000000000e+00 0.000000000000000e+00

0.000000000000000e+00 0.000000000000000e+00 0.000000000000000e+00
0.000000000000000e+00 0.000000000000000e+00 0.000000000000000e+00
0.000000000000000e+00 0.000000000000000e+00 0.000000000000000e+00

0.000000000000000e+00 0.000000000000000e+00 0.000000000000000e+00
0.000000000000000e+00 0.000000000000000e+00 0.000000000000000e+00
0.000000000000000e+00 0.000000000000000e+00 0.000000000000000e+00

0.000000000000000e+00 0.000000000000000e+00 0.000000000000000e+00
0.000000000000000e+00 0.000000000000000e+00 0.000000000000000e+00
0.000000000000000e+00 0.000000000000000e+00 0.000000000000000e+00

0.000000000000000e+00 0.000000000000000e+00 0.000000000000000e+00
0.000000000000000e+00 0.000000000000000e+00 0.000000000000000e+00
0.000000000000000e+00 0.000000000000000e+00 0.000000000000000e+00

0.000000000000000e+00 0.000000000000000e+00 0.000000000000000e+00
0.000000000000000e+00 0.000000000000000e+00 0.000000000000000e+00
0.000000000000000e+00 0.000000000000000e+00 0.000000000000000e+00

0.000000000000000e+00 0.000000000000000e+00 0.000000000000000e+00
0.000000000000000e+00 0.000000000000000e+00 0.000000000000000e+00
0.000000000000000e+00 0.000000000000000e+00 0.000000000000000e+00

0.000000000000000e+00 0.000000000000000e+00 0.000000000000000e+00
0.000000000000000e+00 0.000000000000000e+00 0.000000000000000e+00
0.000000000000000e+00 0.000000000000000e+00 0.000000000000000e+00

0.000000000000000e+00 0.000000000000000e+00 0.000000000000000e+00
0.000000000000000e+00 0.000000000000000e+00 0.000000000000000e+00
0.000000000000000e+00 0.000000000000000e+00 0.000000000000000e+00

0.000000000000000e+00 0.000000000000000e+00 0.000000000000000e+00
0.000000000000000e+00 0.000000000000000e+00 0.000000000000000e+00
0.000000000000000e+00 0.000000000000000e+00 0.000000000000000e+00

0.000000000000000e+00 0.000000000000000e+00 0.000000000000000e+00
0.000000000000000e+00 0.000000000000000e+00 0.000000000000000e+00
0.000000000000000e+00 0.000000000000000e+00 0.000000000000000e+00

0.000000000000000e+00 0.000000000000000e+00 0.000000000000000e+00
0.000000000000000e+00 0.000000000000000e+00 0.000000000000000e+00
0.000000000000000e+00 0.000000000000000e+00 0.000000000000000e+00

0.000000000000000e+00 0.000000000000000e+00 0.000000000000000e+00
0.000000000000000e+00 0.000000000000000e+00 0.000000000000000e+00
0.000000000000000e+00 0.000000000000000e+00 0.000000000000000e+00

0.000000000000000e+00 0.000000000000000e+00 0.000000000000000e+00
0.000000000000000e+00 0.000000000000000e+00 0.000000000000000e+00
0.000000000000000e+00 0.000000000000000e+00 0.000000000000000e+00

0.000000000000000e+00 0.000000000000000e+00 0.000000000000000e+00
0.000000000000000e+00 0.000000000000000e+00 0.000000000000000e+00
0.000000000000000e+00 0.000000000000000e+00 0.000000000000000e+00

0.000000000000000e+00 0.000000000000000e+00 0.000000000000000e+00
0.000000000000000e+00 0.000000000000000e+00 0.000000000000000e+00
0.000000000000000e+00 0.000000000000000e+00 0.000000000000000e+00

0.000000000000000e+00 0.000000000000000e+00 0.000000000000000e+00
0.000000000000000e+00 0.000000000000000e+00 0.000000000000000e+00
0.000000000000000e+00 0.000000000000000e+00 0.000000000000000e+00

0.000000000000000e+00 0.000000000000000e+00 0.000000000000000e+00
0.000000000000000e+00 0.000000000000000e+00 0.000000000000000e+00
0.000000000000000e+00 0.000000000000000e+00 0.000000000000000e+00

0.000000000000000e+00 0.000000000000000e+00 0.000000000000000e+00
0.000000000000000e+00 0.000000000000000e+00 0.000000000000000e+00
0.000000000000000e+00 0.000000000000000e+00 0.000000000000000e+00

0.000000000000000e+00 0.000000000000000e+00 0.000000000000000e+00
0.000000000000000e+00 0.000000000000000e+00 0.000000000000000e+00
0.000000000000000e+00 0.000000000000000e+00 0.000000000000000e+00

0.000000000000000e+00 0.000000000000000e+00 0.000000000000000e+00
0.000000000000000e+00 0.000000000000000e+00 0.000000000000000e+00
0.000000000000000e+00 0.000000000000000e+00 0.000000000000000e+00

0.000000000000000e+00 0.000000000000000e+00 0.000000000000000e+00
0.000000000000000e+00 0.000000000000000e+00 0.000000000000000e+00
0.000000000000000e+00 0.000000000000000e+00 0.000000000000000e+00

0.000000000000000e+00 0.000000000000000e+00 0.000000000000000e+00
0.000000000000000e+00 0.000000000000000e+00 0.000000000000000e+00
0.000000000000000e+00 0.000000000000000e+00 0.000000000000000e+00

0.000000000000000e+00 0.000000000000000e+00 0.000000000000000e+00
0.000000000000000e+00 0.000000000000000e+00 0.000000000000000e+00
0.000000000000000e+00 0.000000000000000e+00 0.000000000000000e+00

0.000000000000000e+00 0.000000000000000e+00 0.000000000000000e+00
0.000000000000000e+00 0.000000000000000e+00 0.000000000000000e+00
0.000000000000000e+00 0.000000000000000e+00 0.000000000000000e+00

0.000000000000000e+00 0.000000000000000e+00 0.000000000000000e+00
0.000000000000000e+00 0.000000000000000e+00 0.000000000000000e+00
0.000000000000000e+00 0.000000000000000e+00 0.000000000000000e+00

0.000000000000000e+00 0.000000000000000e+00 0.000000000000000e+00
0.000000000000000e+00 0.000000000000000e+00 0.000000000000000e+00
0.000000000000000e+00 0.000000000000000e+00 0.000000000000000e+00

0.000000000000000e+00 0.000000000000000e+00 0.000000000000000e+00
0.000000000000000e+00 0.000000000000000e+00 0.000000000000000e+00
0.000000000000000e+00 0.000000000000000e+00 0.000000000000000e+00

0.000000000000000e+00 0.000000000000000e+00 0.000000000000000e+00
0.000000000000000e+00 0.000000000000000e+00 0.000000000000000e+00
0.000000000000000e+00 0.000000000000000e+00 0.000000000000000e+00

0.000000000000000e+00 0.000000000000000e+00 0.000000000000000e+00
0.000000000000000e+00 0.000000000000000e+00 0.000000000000000e+00
0.000000000000000e+00 0.000000000000000e+00 0.000000000000000e+00

0.000000000000000e+00 0.000000000000000e+00 0.000000000000000e+00
0.000000000000000e+00 0.000000000000000e+00 0.000000000000000e+00
0.000000000000000e+00 0.000000000000000e+00 0.000000000000000e+00

0.000000000000000e+00 0.000000000000000e+00 0.000000000000000e+00
0.000000000000000e+00 0.000000000000000e+00 0.000000000000000e+00
0.000000000000000e+00 0.000000000000000e+00 0.000000000000000e+00

0.000000000000000e+00 0.000000000000000e+00 0.000000000000000e+00
0.000000000000000e+00 0.000000000000000e+00 0.000000000000000e+00
0.000000000000000e+00 0.000000000000000e+00 0.000000000000000e+00

0.000000000000000e+00 0.000000000000000e+00 0.000000000000000e+00
0.000000000000000e+00 0.000000000000000e+00 0.000000000000000e+00
0.000000000000000e+00 0.000000000000000e+00 0.000000000000000e+00

0.000000000000000e+00 0.000000000000000e+00 0.000000000000000e+00
0.000000000000000e+00 0.000000000000000e+00 0.000000000000000e+00
0.000000000000000e+00 0.000000000000000e+00 0.000000000000000e+00

0.000000000000000e+00 0.000000000000000e+00 0.000000000000000e+00
0.000000000000000e+00 0.000000000000000e+00 0.000000000000000e+00
0.000000000000000e+00 0.000000000000000e+00 0.000000000000000e+00

0.000000000000000e+00 0.000000000000000e+00 0.000000000000000e+00
0.000000000000000e+00 0.000000000000000e+00 0.000000000000000e+00
0.000000000000000e+00 0.000000000000000e+00 0.000000000000000e+00

0.000000000000000e+00 0.000000000000000e+00 0.000000000000000e+00
0.000000000000000e+00 0.000000000000000e+00 0.000000000000000e+00
0.000000000000000e+00 0.000000000000000e+00 0.000000000000000e+00

0.000000000000000e+00 0.000000000000000e+00 0.000000000000000e+00
0.000000000000000e+00 0.000000000000000e+00 0.000000000000000e+00
0.000000000000000e+00 0.000000000000000e+00 0.000000000000000e+00

0.000000000000000e+00 0.000000000000000e+00 0.000000000000000e+00
0.000000000000000e+00 0.000000000000000e+00 0.000000000000000e+00
0.000000000000000e+00 0.000000000000000e+00 0.000000000000000e+00

0.000000000000000e+00 0.000000000000000e+00 0.000000000000000e+00
0.000000000000000e+00 0.000000000000000e+00 0.000000000000000e+00
0.000000000000000e+00 0.000000000000000e+00 0.000000000000000e+00

0.000000000000000e+00 0.000000000000000e+00 0.000000000000000e+00
0.000000000000000e+00 0.000000000000000e+00 0.000000000000000e+00
0.000000000000000e+00 0.000000000000000e+00 0.000000000000000e+00

0.000000000000000e+00 0.000000000000000e+00 0.000000000000000e+00
0.000000000000000e+00 0.000000000000000e+00 0.000000000000000e+00
0.000000000000000e+00 0.000000000000000e+00 0.000000000000000e+00

0.000000000000000e+00 0.000000000000000e+00 0.000000000000000e+00
0.000000000000000e+00 0.000000000000000e+00 0.000000000000000e+00
0.000000000000000e+00 0.000000000000000e+00 0.000000000000000e+00

0.000000000000000e+00 0.000000000000000e+00 0.000000000000000e+00
0.000000000000000e+00 0.000000000000000e+00 0.000000000000000e+00
0.000000000000000e+00 0.000000000000000e+00 0.000000000000000e+00

0.000000000000000e+00 0.000000000000000e+00 0.000000000000000e+00
0.000000000000000e+00 0.000000000000000e+00 0.000000000000000e+00
0.000000000000000e+00 0.000000000000000e+00 0.000000000000000e+00

0.000000000000000e+00 0.000000000000000e+00 0.000000000000000e+00
0.000000000000000e+00 0.000000000000000e+00 0.000000000000000e+00
0.000000000000000e+00 0.000000000000000e+00 0.000000000000000e+00

0.000000000000000e+00 0.000000000000000e+00 0.000000000000000e+00
0.000000000000000e+00 0.000000000000000e+00 0.000000000000000e+00
0.000000000000000e+00 0.000000000000000e+00 0.000000000000000e+00

0.000000000000000e+00 0.000000000000000e+00 0.000000000000000e+00
0.000000000000000e+00 0.000000000000000e+00 0.000000000000000e+00
0.000000000000000e+00 0.000000000000000e+00 0.000000000000000e+00

0.000000000000000e+00 0.000000000000000e+00 0.000000000000000e+00
0.000000000000000e+00 0.000000000000000e+00 0.000000000000000e+00
0.000000000000000e+00 0.000000000000000e+00 0.000000000000000e+00

0.000000000000000e+00 0.000000000000000e+00 0.000000000000000e+00
0.000000000000000e+00 0.000000000000000e+00 0.000000000000000e+00
0.000000000000000e+00 0.000000000000000e+00 0.000000000000000e+00

0.000000000000000e+00 0.000000000000000e+00 0.000000000000000e+00
0.000000000000000e+00 0.000000000000000e+00 0.000000000000000e+00
0.000000000000000e+00 0.000000000000000e+00 0.000000000000000e+00

0.000000000000000e+00 0.000000000000000e+00 0.000000000000000e+00
0.000000000000000e+00 0.000000000000000e+00 0.000000000000000e+00
0.000000000000000e+00 0.000000000000000e+00 0.000000000000000e+00

0.000000000000000e+00 0.000000000000000e+00 0.000000000000000e+00
0.000000000000000e+00 0.000000000000000e+00 0.000000000000000e+00
0.000000000000000e+00 0.000000000000000e+00 0.000000000000000e+00

0.000000000000000e+00 0.000000000000000e+00 0.000000000000000e+00
0.000000000000000e+00 0.000000000000000e+00 0.000000000000000e+00
0.000000000000000e+00 0.000000000000000e+00 0.000000000000000e+00

0.000000000000000e+00 0.000000000000000e+00 0.000000000000000e+00
0.000000000000000e+00 0.000000000000000e+00 0.000000000000000e+00
0.000000000000000e+00 0.000000000000000e+00 0.000000000000000e+00

0.000000000000000e+00 0.000000000000000e+00 0.000000000000000e+00
0.000000000000000e+00 0.000000000000000e+00 0.000000000000000e+00
0.000000000000000e+00 0.000000000000000e+00 0.000000000000000e+00

0.000000000000000e+00 0.000000000000000e+00 0.000000000000000e+00
0.000000000000000e+00 0.000000000000000e+00 0.000000000000000e+00
0.000000000000000e+00 0.000000000000000e+00 0.000000000000000e+00

0.000000000000000e+00 0.000000000000000e+00 0.000000000000000e+00
0.000000000000000e+00 0.000000000000000e+00 0.000000000000000e+00
0.000000000000000e+00 0.000000000000000e+00 0.000000000000000e+00

0.000000000000000e+00 0.000000000000000e+00 0.000000000000000e+00
0.000000000000000e+00 0.000000000000000e+00 0.000000000000000e+00
0.000000000000000e+00 0.000000000000000e+00 0.000000000000000e+00

0.000000000000000e+00 0.000000000000000e+00 0.000000000000000e+00
0.000000000000000e+00 0.000000000000000e+00 0.000000000000000e+00
0.000000000000000e+00 0.000000000000000e+00 0.000000000000000e+00

0.000000000000000e+00 0.000000000000000e+00 0.000000000000000e+00
0.000000000000000e+00 0.000000000000000e+00 0.000000000000000e+00
0.000000000000000e+00 0.000000000000000e+00 0.000000000000000e+00

0.000000000000000e+00 0.000000000000000e+00 0.000000000000000e+00
0.000000000000000e+00 0.000000000000000e+00 0.000000000000000e+00
0.000000000000000e+00 0.000000000000000e+00 0.000000000000000e+00

0.000000000000000e+00 0.000000000000000e+00 0.000000000000000e+00
0.000000000000000e+00 0.000000000000000e+00 0.000000000000000e+00
0.000000000000000e+00 0.000000000000000e+00 0.000000000000000e+00

0.000000000000000e+00 0.000000000000000e+00 0.000000000000000e+00
0.000000000000000e+00 0.000000000000000e+00 0.000000000000000e+00
0.000000000000000e+00 0.000000000000000e+00 0.000000000000000e+00

0.000000000000000e+00 0.000000000000000e+00 0.000000000000000e+00
0.000000000000000e+00 0.000000000000000e+00 0.000000000000000e+00
0.000000000000000e+00 0.000000000000000e+00 0.000000000000000e+00

0.000000000000000e+00 0.000000000000000e+00 0.000000000000000e+00
0.000000000000000e+00 0.000000000000000e+00 0.000000000000000e+00
0.000000000000000e+00 0.000000000000000e+00 0.000000000000000e+00

0.000000000000000e+00 0.000000000000000e+00 0.000000000000000e+00
0.000000000000000e+00 0.000000000000000e+00 0.000000000000000e+00
0.000000000000000e+00 0.000000000000000e+00 0.000000000000000e+00

0.000000000000000e+00 0.000000000000000e+00 0.000000000000000e+00
0.000000000000000e+00 0.000000000000000e+00 0.000000000000000e+00
0.000000000000000e+00 0.000000000000000e+00 0.000000000000000e+00

0.000000000000000e+00 0.000000000000000e+00 0.000000000000000e+00
0.000000000000000e+00 0.000000000000000e+00 0.000000000000000e+00
0.000000000000000e+00 0.000000000000000e+00 0.000000000000000e+00

0.000000000000000e+00 0.000000000000000e+00 0.000000000000000e+00
0.000000000000000e+00 0.000000000000000e+00 0.000000000000000e+00
0.000000000000000e+00 0.000000000000000e+00 0.000000000000000e+00

0.000000000000000e+00 0.000000000000000e+00 0.000000000000000e+00
0.000000000000000e+00 0.000000000000000e+00 0.000000000000000e+00
0.000000000000000e+00 0.000000000000000e+00 0.000000000000000e+00

0.000000000000000e+00 0.000000000000000e+00 0.000000000000000e+00
0.000000000000000e+00 0.000000000000000e+00 0.000000000000000e+00
0.000000000000000e+00 0.000000000000000e+00 0.000000000000000e+00

0.000000000000000e+00 0.000000000000000e+00 0.000000000000000e+00
0.000000000000000e+00 0.000000000000000e+00 0.000000000000000e+00
0.000000000000000e+00 0.000000000000000e+00 0.000000000000000e+00

0.000000000000000e+00 0.000000000000000e+00 0.000000000000000e+00
0.000000000000000e+00 0.000000000000000e+00 0.000000000000000e+00
0.000000000000000e+00 0.000000000000000e+00 0.000000000000000e+00

0.000000000000000e+00 0.000000000000000e+00 0.000000000000000e+00
0.000000000000000e+00 0.000000000000000e+00 0.000000000000000e+00
0.000000000000000e+00 0.000000000000000e+00 0.000000000000000e+00

0.000000000000000e+00 0.000000000000000e+00 0.000000000000000e+00
0.000000000000000e+00 0.000000000000000e+00 0.000000000000000e+00
0.000000000000000e+00 0.000000000000000e+00 0.000000000000000e+00

0.000000000000000e+00 0.000000000000000e+00 0.000000000000000e+00
0.000000000000000e+00 0.000000000000000e+00 0.000000000000000e+00
0.000000000000000e+00 0.000000000000000e+00 0.000000000000000e+00

0.000000000000000e+00 0.000000000000000e+00 0.000000000000000e+00
0.000000000000000e+00 0.000000000000000e+00 0.000000000000000e+00
0.000000000000000e+00 0.000000000000000e+00 0.000000000000000e+00

0.000000000000000e+00 0.000000000000000e+00 0.000000000000000e+00
0.000000000000000e+00 0.000000000000000e+00 0.000000000000000e+00
0.000000000000000e+00 0.000000000000000e+00 0.000000000000000e+00

0.000000000000000e+00 0.000000000000000e+00 0.000000000000000e+00
0.000000000000000e+00 0.000000000000000e+00 0.000000000000000e+00
0.000000000000000e+00 0.000000000000000e+00 0.000000000000000e+00

0.000000000000000e+00 0.000000000000000e+00 0.000000000000000e+00
0.000000000000000e+00 0.000000000000000e+00 0.000000000000000e+00
0.000000000000000e+00 0.000000000000000e+00 0.000000000000000e+00

0.000000000000000e+00 0.000000000000000e+00 0.000000000000000e+00
0.000000000000000e+00 0.000000000000000e+00 0.000000000000000e+00
0.000000000000000e+00 0.000000000000000e+00 0.000000000000000e+00

0.000000000000000e+00 0.000000000000000e+00 0.000000000000000e+00
0.000000000000000e+00 0.000000000000000e+00 0.000000000000000e+00
0.000000000000000e+00 0.000000000000000e+00 0.000000000000000e+00

0.000000000000000e+00 0.000000000000000e+00 0.000000000000000e+00
0.000000000000000e+00 0.000000000000000e+00 0.000000000000000e+00
0.000000000000000e+00 0.000000000000000e+00 0.000000000000000e+00

0.000000000000000e+00 0.000000000000000e+00 0.000000000000000e+00
0.000000000000000e+00 0.000000000000000e+00 0.000000000000000e+00
0.000000000000000e+00 0.000000000000000e+00 0.000000000000000e+00

0.000000000000000e+00 0.000000000000000e+00 0.000000000000000e+00
0.000000000000000e+00 0.000000000000000e+00 0.000000000000000e+00
0.000000000000000e+00 0.000000000000000e+00 0.000000000000000e+00

0.000000000000000e+00 0.000000000000000e+00 0.000000000000000e+00
0.000000000000000e+00 0.000000000000000e+00 0.000000000000000e+00
0.000000000000000e+00 0.000000000000000e+00 0.000000000000000e+00

0.000000000000000e+00 0.000000000000000e+00 0.000000000000000e+00
0.000000000000000e+00 0.000000000000000e+00 0.000000000000000e+00
0.000000000000000e+00 0.000000000000000e+00 0.000000000000000e+00

0.000000000000000e+00 0.000000000000000e+00 0.000000000000000e+00
0.000000000000000e+00 0.000000000000000e+00 0.000000000000000e+00
0.000000000000000e+00 0.000000000000000e+00 0.000000000000000e+00

0.000000000000000e+00 0.000000000000000e+00 0.000000000000000e+00
0.000000000000000e+00 0.000000000000000e+00 0.000000000000000e+00
0.000000000000000e+00 0.000000000000000e+00 0.000000000000000e+00

0.000000000000000e+00 0.000000000000000e+00 0.000000000000000e+00
0.000000000000000e+00 0.000000000000000e+00 0.000000000000000e+00
0.000000000000000e+00 0.000000000000000e+00 0.000000000000000e+00

0.000000000000000e+00 0.000000000000000e+00 0.000000000000000e+00
0.000000000000000e+00 0.000000000000000e+00 0.000000000000000e+00
0.000000000000000e+00 0.000000000000000e+00 0.000000000000000e+00

0.000000000000000e+00 0.000000000000000e+00 0.000000000000000e+00
0.000000000000000e+00 0.000000000000000e+00 0.000000000000000e+00
0.000000000000000e+00 0.000000000000000e+00 0.000000000000000e+00

0.000000000000000e+00 0.000000000000000e+00 0.000000000000000e+00
0.000000000000000e+00 0.000000000000000e+00 0.000000000000000e+00
0.000000000000000e+00 0.000000000000000e+00 0.000000000000000e+00

0.000000000000000e+00 0.000000000000000e+00 0.000000000000000e+00
0.000000000000000e+00 0.000000000000000e+00 0.000000000000000e+00
0.000000000000000e+00 0.000000000000000e+00 0.000000000000000e+00

0.000000000000000e+00 0.000000000000000e+00 0.000000000000000e+00
0.000000000000000e+00 0.000000000000000e+00 0.000000000000000e+00
0.000000000000000e+00 0.000000000000000e+00 0.000000000000000e+00

0.000000000000000e+00 0.000000000000000e+00 0.000000000000000e+00
0.000000000000000e+00 0.000000000000000e+00 0.000000000000000e+00
0.000000000000000e+00 0.000000000000000e+00 0.000000000000000e+00

0.000000000000000e+00 0.000000000000000e+00 0.000000000000000e+00
0.000000000000000e+00 0.000000000000000e+00 0.000000000000000e+00
0.000000000000000e+00 0.000000000000000e+00 0.000000000000000e+00

0.000000000000000e+00 0.000000000000000e+00 0.000000000000000e+00
0.000000000000000e+00 0.000000000000000e+00 0.000000000000000e+00
0.000000000000000e+00 0.000000000000000e+00 0.000000000000000e+00

0.000000000000000e+00 0.000000000000000e+00 0.000000000000000e+00
0.000000000000000e+00 0.000000000000000e+00 0.000000000000000e+00
0.000000000000000e+00 0.000000000000000e+00 0.000000000000000e+00

0.000000000000000e+00 0.000000000000000e+00 0.000000000000000e+00
0.000000000000000e+00 0.000000000000000e+00 0.000000000000000e+00
0.000000000000000e+00 0.000000000000000e+00 0.000000000000000e+00

0.000000000000000e+00 0.000000000000000e+00 0.000000000000000e+00
0.000000000000000e+00 0.000000000000000e+00 0.000000000000000e+00
0.000000000000000e+00 0.000000000000000e+00 0.000000000000000e+00

0.000000000000000e+00 0.000000000000000e+00 0.000000000000000e+00
0.000000000000000e+00 0.000000000000000e+00 0.000000000000000e+00
0.000000000000000e+00 0.000000000000000e+00 0.000000000000000e+00

0.000000000000000e+00 0.000000000000000e+00 0.000000000000000e+00
0.000000000000000e+00 0.000000000000000e+00 0.000000000000000e+00
0.000000000000000e+00 0.000000000000000e+00 0.000000000000000e+00

0.000000000000000e+00 0.000000000000000e+00 0.000000000000000e+00
0.000000000000000e+00 0.000000000000000e+00 0.000000000000000e+00
0.000000000000000e+00 0.000000000000000e+00 0.000000000000000e+00

0.000000000000000e+00 0.000000000000000e+00 0.000000000000000e+00
0.000000000000000e+00 0.000000000000000e+00 0.000000000000000e+00
0.000000000000000e+00 0.000000000000000e+00 0.000000000000000e+00

0.000000000000000e+00 0.000000000000000e+00 0.000000000000000e+00
0.000000000000000e+00 0.000000000000000e+00 0.000000000000000e+00
0.000000000000000e+00 0.000000000000000e+00 0.000000000000000e+00

0.000000000000000e+00 0.000000000000000e+00 0.000000000000000e+00
0.000000000000000e+00 0.000000000000000e+00 0.000000000000000e+00
0.000000000000000e+00 0.000000000000000e+00 0.000000000000000e+00

0.000000000000000e+00 0.000000000000000e+00 0.000000000000000e+00
0.000000000000000e+00 0.000000000000000e+00 0.000000000000000e+00
0.000000000000000e+00 0.000000000000000e+00 0.000000000000000e+00

0.000000000000000e+00 0.000000000000000e+00 0.000000000000000e+00
0.000000000000000e+00 0.000000000000000e+00 0.000000000000000e+00
0.000000000000000e+00 0.000000000000000e+00 0.000000000000000e+00

0.000000000000000e+00 0.000000000000000e+00 0.000000000000000e+00
0.000000000000000e+00 0.000000000000000e+00 0.000000000000000e+00
0.000000000000000e+00 0.000000000000000e+00 0.000000000000000e+00

0.000000000000000e+00 0.000000000000000e+00 0.000000000000000e+00
0.000000000000000e+00 0.000000000000000e+00 0.000000000000000e+00
0.000000000000000e+00 0.000000000000000e+00 0.000000000000000e+00

0.000000000000000e+00 0.000000000000000e+00 0.000000000000000e+00
0.000000000000000e+00 0.000000000000000e+00 0.000000000000000e+00
0.000000000000000e+00 0.000000000000000e+00 0.000000000000000e+00

0.000000000000000e+00 0.000000000000000e+00 0.000000000000000e+00
0.000000000000000e+00 0.000000000000000e+00 0.000000000000000e+00
0.000000000000000e+00 0.000000000000000e+00 0.000000000000000e+00

0.000000000000000e+00 0.000000000000000e+00 0.000000000000000e+00
0.000000000000000e+00 0.000000000000000e+00 0.000000000000000e+00
0.000000000000000e+00 0.000000000000000e+00 0.000000000000000e+00

0.000000000000000e+00 0.000000000000000e+00 0.000000000000000e+00
0.000000000000000e+00 0.000000000000000e+00 0.000000000000000e+00
0.000000000000000e+00 0.000000000000000e+00 0.000000000000000e+00

0.000000000000000e+00 0.000000000000000e+00 0.000000000000000e+00
0.000000000000000e+00 0.000000000000000e+00 0.000000000000000e+00
0.000000000000000e+00 0.000000000000000e+00 0.000000000000000e+00

0.000000000000000e+00 0.000000000000000e+00 0.000000000000000e+00
0.000000000000000e+00 0.000000000000000e+00 0.000000000000000e+00
0.000000000000000e+00 0.000000000000000e+00 0.000000000000000e+00

0.000000000000000e+00 0.000000000000000e+00 0.000000000000000e+00
0.000000000000000e+00 0.000000000000000e+00 0.000000000000000e+00
0.000000000000000e+00 0.000000000000000e+00 0.000000000000000e+00

0.000000000000000e+00 0.000000000000000e+00 0.000000000000000e+00
0.000000000000000e+00 0.000000000000000e+00 0.000000000000000e+00
0.000000000000000e+00 0.000000000000000e+00 0.000000000000000e+00

0.000000000000000e+00 0.000000000000000e+00 0.000000000000000e+00
0.000000000000000e+00 0.000000000000000e+00 0.000000000000000e+00
0.000000000000000e+00 0.000000000000000e+00 0.000000000000000e+00

0.000000000000000e+00 0.000000000000000e+00 0.000000000000000e+00
0.000000000000000e+00 0.000000000000000e+00 0.000000000000000e+00
0.000000000000000e+00 0.000000000000000e+00 0.000000000000000e+00

0.000000000000000e+00 0.000000000000000e+00 0.000000000000000e+00
0.000000000000000e+00 0.000000000000000e+00 0.000000000000000e+00
0.000000000000000e+00 0.000000000000000e+00 0.000000000000000e+00

0.000000000000000e+00 0.000000000000000e+00 0.000000000000000e+00
0.000000000000000e+00 0.000000000000000e+00 0.000000000000000e+00
0.000000000000000e+00 0.000000000000000e+00 0.000000000000000e+00

0.000000000000000e+00 0.000000000000000e+00 0.000000000000000e+00
0.000000000000000e+00 0.000000000000000e+00 0.000000000000000e+00
0.000000000000000e+00 0.000000000000000e+00 0.000000000000000e+00

0.000000000000000e+00 0.000000000000000e+00 0.000000000000000e+00
0.000000000000000e+00 0.000000000000000e+00 0.000000000000000e+00
0.000000000000000e+00 0.000000000000000e+00 0.000000000000000e+00

0.000000000000000e+00 0.000000000000000e+00 0.000000000000000e+00
0.000000000000000e+00 0.000000000000000e+00 0.000000000000000e+00
0.000000000000000e+00 0.000000000000000e+00 0.000000000000000e+00

0.000000000000000e+00 0.000000000000000e+00 0.000000000000000e+00
0.000000000000000e+00 0.000000000000000e+00 0.000000000000000e+00
0.000000000000000e+00 0.000000000000000e+00 0.000000000000000e+00

0.000000000000000e+00 0.000000000000000e+00 0.000000000000000e+00
0.000000000000000e+00 0.000000000000000e+00 0.000000000000000e+00
0.000000000000000e+00 0.000000000000000e+00 0.000000000000000e+00

0.000000000000000e+00 0.000000000000000e+00 0.000000000000000e+00
0.000000000000000e+00 0.000000000000000e+00 0.000000000000000e+00
0.000000000000000e+00 0.000000000000000e+00 0.000000000000000e+00

0.000000000000000e+00 0.000000000000000e+00 0.000000000000000e+00
0.000000000000000e+00 0.000000000000000e+00 0.000000000000000e+00
0.000000000000000e+00 0.000000000000000e+00 0.000000000000000e+00

0.000000000000000e+00 0.000000000000000e+00 0.000000000000000e+00
0.000000000000000e+00 0.000000000000000e+00 0.000000000000000e+00
0.000000000000000e+00 0.000000000000000e+00 0.000000000000000e+00

0.000000000000000e+00 0.000000000000000e+00 0.000000000000000e+00
0.000000000000000e+00 0.000000000000000e+00 0.000000000000000e+00
0.000000000000000e+00 0.000000000000000e+00 0.000000000000000e+00

0.000000000000000e+00 0.000000000000000e+00 0.000000000000000e+00
0.000000000000000e+00 0.000000000000000e+00 0.000000000000000e+00
0.000000000000000e+00 0.000000000000000e+00 0.000000000000000e+00

0.000000000000000e+00 0.000000000000000e+00 0.000000000000000e+00
0.000000000000000e+00 0.000000000000000e+00 0.000000000000000e+00
0.000000000000000e+00 0.000000000000000e+00 0.000000000000000e+00

0.000000000000000e+00 0.000000000000000e+00 0.000000000000000e+00
0.000000000000000e+00 0.000000000000000e+00 0.000000000000000e+00
0.000000000000000e+00 0.000000000000000e+00 0.000000000000000e+00

0.000000000000000e+00 0.000000000000000e+00 0.000000000000000e+00
0.000000000000000e+00 0.000000000000000e+00 0.000000000000000e+00
0.000000000000000e+00 0.000000000000000e+00 0.000000000000000e+00

0.000000000000000e+00 0.000000000000000e+00 0.000000000000000e+00
0.000000000000000e+00 0.000000000000000e+00 0.000000000000000e+00
0.000000000000000e+00 0.000000000000000e+00 0.000000000000000e+00

0.000000000000000e+00 0.000000000000000e+00 0.000000000000000e+00
0.000000000000000e+00 0.000000000000000e+00 0.000000000000000e+00
0.000000000000000e+00 0.000000000000000e+00 0.000000000000000e+00

0.000000000000000e+00 0.000000000000000e+00 0.000000000000000e+00
0.000000000000000e+00 0.000000000000000e+00 0.000000000000000e+00
0.000000000000000e+00 0.000000000000000e+00 0.000000000000000e+00

0.000000000000000e+00 0.000000000000000e+00 0.000000000000000e+00
0.000000000000000e+00 0.000000000000000e+00 0.000000000000000e+00
0.000000000000000e+00 0.000000000000000e+00 0.000000000000000e+00

0.000000000000000e+00 0.000000000000000e+00 0.000000000000000e+00
0.000000000000000e+00 0.000000000000000e+00 0.000000000000000e+00
0.000000000000000e+00 0.000000000000000e+00 0.000000000000000e+00

0.000000000000000e+00 0.000000000000000e+00 0.000000000000000e+00
0.000000000000000e+00 0.000000000000000e+00 0.000000000000000e+00
0.000000000000000e+00 0.000000000000000e+00 0.000000000000000e+00

0.000000000000000e+00 0.000000000000000e+00 0.000000000000000e+00
0.000000000000000e+00 0.000000000000000e+00 0.000000000000000e+00
0.000000000000000e+00 0.000000000000000e+00 0.000000000000000e+00

0.000000000000000e+00 0.000000000000000e+00 0.000000000000000e+00
0.000000000000000e+00 0.000000000000000e+00 0.000000000000000e+00
0.000000000000000e+00 0.000000000000000e+00 0.000000000000000e+00

0.000000000000000e+00 0.000000000000000e+00 0.000000000000000e+00
0.000000000000000e+00 0.000000000000000e+00 0.000000000000000e+00
0.000000000000000e+00 0.000000000000000e+00 0.000000000000000e+00

0.000000000000000e+00 0.000000000000000e+00 0.000000000000000e+00
0.000000000000000e+00 0.000000000000000e+00 0.000000000000000e+00
0.000000000000000e+00 0.000000000000000e+00 0.000000000000000e+00

0.000000000000000e+00 0.000000000000000e+00 0.000000000000000e+00
0.000000000000000e+00 0.000000000000000e+00 0.000000000000000e+00
0.000000000000000e+00 0.000000000000000e+00 0.000000000000000e+00

0.000000000000000e+00 0.000000000000000e+00 0.000000000000000e+00
0.000000000000000e+00 0.000000000000000e+00 0.000000000000000e+00
0.000000000000000e+00 0.000000000000000e+00 0.000000000000000e+00

0.000000000000000e+00 0.000000000000000e+00 0.000000000000000e+00
0.000000000000000e+00 0.000000000000000e+00 0.000000000000000e+00
0.000000000000000e+00 0.000000000000000e+00 0.000000000000000e+00

0.000000000000000e+00 0.000000000000000e+00 0.000000000000000e+00
0.000000000000000e+00 0.000000000000000e+00 0.000000000000000e+00
0.000000000000000e+00 0.000000000000000e+00 0.000000000000000e+00

0.000000000000000e+00 0.000000000000000e+00 0.000000000000000e+00
0.000000000000000e+00 0.000000000000000e+00 0.000000000000000e+00
0.000000000000000e+00 0.000000000000000e+00 0.000000000000000e+00

0.000000000000000e+00 0.000000000000000e+00 0.000000000000000e+00
0.000000000000000e+00 0.000000000000000e+00 0.000000000000000e+00
0.000000000000000e+00 0.000000000000000e+00 0.000000000000000e+00

0.000000000000000e+00 0.000000000000000e+00 0.000000000000000e+00
0.000000000000000e+00 0.000000000000000e+00 0.000000000000000e+00
0.000000000000000e+00 0.000000000000000e+00 0.000000000000000e+00

0.000000000000000e+00 0.000000000000000e+00 0.000000000000000e+00
0.000000000000000e+00 0.000000000000000e+00 0.000000000000000e+00
0.000000000000000e+00 0.000000000000000e+00 0.000000000000000e+00

0.000000000000000e+00 0.000000000000000e+00 0.000000000000000e+00
0.000000000000000e+00 0.000000000000000e+00 0.000000000000000e+00
0.000000000000000e+00 0.000000000000000e+00 0.000000000000000e+00

0.000000000000000e+00 0.000000000000000e+00 0.000000000000000e+00
0.000000000000000e+00 0.000000000000000e+00 0.000000000000000e+00
0.000000000000000e+00 0.000000000000000e+00 0.000000000000000e+00

0.000000000000000e+00 0.000000000000000e+00 0.000000000000000e+00
0.000000000000000e+00 0.000000000000000e+00 0.000000000000000e+00
0.000000000000000e+00 0.000000000000000e+00 0.000000000000000e+00

0.000000000000000e+00 0.000000000000000e+00 0.000000000000000e+00
0.000000000000000e+00 0.000000000000000e+00 0.000000000000000e+00
0.000000000000000e+00 0.000000000000000e+00 0.000000000000000e+00

0.000000000000000e+00 0.000000000000000e+00 0.000000000000000e+00
0.000000000000000e+00 0.000000000000000e+00 0.000000000000000e+00
0.000000000000000e+00 0.000000000000000e+00 0.000000000000000e+00

0.000000000000000e+00 0.000000000000000e+00 0.000000000000000e+00
0.000000000000000e+00 0.000000000000000e+00 0.000000000000000e+00
0.000000000000000e+00 0.000000000000000e+00 0.000000000000000e+00

0.000000000000000e+00 0.000000000000000e+00 0.000000000000000e+00
0.000000000000000e+00 0.000000000000000e+00 0.000000000000000e+00
0.000000000000000e+00 0.000000000000000e+00 0.000000000000000e+00

0.000000000000000e+00 0.000000000000000e+00 0.000000000000000e+00
0.000000000000000e+00 0.000000000000000e+00 0.000000000000000e+00
0.000000000000000e+00 0.000000000000000e+00 0.000000000000000e+00

0.000000000000000e+00 0.000000000000000e+00 0.000000000000000e+00
0.000000000000000e+00 0.000000000000000e+00 0.000000000000000e+00
0.000000000000000e+00 0.000000000000000e+00 0.000000000000000e+00

0.000000000000000e+00 0.000000000000000e+00 0.000000000000000e+00
0.000000000000000e+00 0.000000000000000e+00 0.000000000000000e+00
0.000000000000000e+00 0.000000000000000e+00 0.000000000000000e+00

0.000000000000000e+00 0.000000000000000e+00 0.000000000000000e+00
0.000000000000000e+00 0.000000000000000e+00 0.000000000000000e+00
0.000000000000000e+00 0.000000000000000e+00 0.000000000000000e+00

0.000000000000000e+00 0.000000000000000e+00 0.000000000000000e+00
0.000000000000000e+00 0.000000000000000e+00 0.000000000000000e+00
0.000000000000000e+00 0.000000000000000e+00 0.000000000000000e+00

0.000000000000000e+00 0.000000000000000e+00 0.000000000000000e+00
0.000000000000000e+00 0.000000000000000e+00 0.000000000000000e+00
0.000000000000000e+00 0.000000000000000e+00 0.000000000000000e+00

0.000000000000000e+00 0.000000000000000e+00 0.000000000000000e+00
0.000000000000000e+00 0.000000000000000e+00 0.000000000000000e+00
0.000000000000000e+00 0.000000000000000e+00 0.000000000000000e+00

0.000000000000000e+00 0.000000000000000e+00 0.000000000000000e+00
0.000000000000000e+00 0.000000000000000e+00 0.000000000000000e+00
0.000000000000000e+00 0.000000000000000e+00 0.000000000000000e+00

0.000000000000000e+00 0.000000000000000e+00 0.000000000000000e+00
0.000000000000000e+00 0.000000000000000e+00 0.000000000000000e+00
0.000000000000000e+00 0.000000000000000e+00 0.000000000000000e+00

0.000000000000000e+00 0.000000000000000e+00 0.000000000000000e+00
0.000000000000000e+00 0.000000000000000e+00 0.000000000000000e+00
0.000000000000000e+00 0.000000000000000e+00 0.000000000000000e+00

0.000000000000000e+00 0.000000000000000e+00 0.000000000000000e+00
0.000000000000000e+00 0.000000000000000e+00 0.000000000000000e+00
0.000000000000000e+00 0.000000000000000e+00 0.000000000000000e+00

0.000000000000000e+00 0.000000000000000e+00 0.000000000000000e+00
0.000000000000000e+00 0.000000000000000e+00 0.000000000000000e+00
0.000000000000000e+00 0.000000000000000e+00 0.000000000000000e+00

0.000000000000000e+00 0.000000000000000e+00 0.000000000000000e+00
0.000000000000000e+00 0.000000000000000e+00 0.000000000000000e+00
0.000000000000000e+00 0.000000000000000e+00 0.000000000000000e+00

0.000000000000000e+00 0.000000000000000e+00 0.000000000000000e+00
0.000000000000000e+00 0.000000000000000e+00 0.000000000000000e+00
0.000000000000000e+00 0.000000000000000e+00 0.000000000000000e+00

0.000000000000000e+00 0.000000000000000e+00 0.000000000000000e+00
0.000000000000000e+00 0.000000000000000e+00 0.000000000000000e+00
0.000000000000000e+00 0.000000000000000e+00 0.000000000000000e+00

0.000000000000000e+00 0.000000000000000e+00 0.000000000000000e+00
0.000000000000000e+00 0.000000000000000e+00 0.000000000000000e+00
0.000000000000000e+00 0.000000000000000e+00 0.000000000000000e+00

0.000000000000000e+00 0.000000000000000e+00 0.000000000000000e+00
0.000000000000000e+00 0.000000000000000e+00 0.000000000000000e+00
0.000000000000000e+00 0.000000000000000e+00 0.000000000000000e+00

0.000000000000000e+00 0.000000000000000e+00 0.000000000000000e+00
0.000000000000000e+00 0.000000000000000e+00 0.000000000000000e+00
0.000000000000000e+00 0.000000000000000e+00 0.000000000000000e+00

0.000000000000000e+00 0.000000000000000e+00 0.000000000000000e+00
0.000000000000000e+00 0.000000000000000e+00 0.000000000000000e+00
0.000000000000000e+00 0.000000000000000e+00 0.000000000000000e+00

0.000000000000000e+00 0.000000000000000e+00 0.000000000000000e+00
0.000000000000000e+00 0.000000000000000e+00 0.000000000000000e+00
0.000000000000000e+00 0.000000000000000e+00 0.000000000000000e+00

0.000000000000000e+00 0.000000000000000e+00 0.000000000000000e+00
0.000000000000000e+00 0.000000000000000e+00 0.000000000000000e+00
0.000000000000000e+00 0.000000000000000e+00 0.000000000000000e+00

0.000000000000000e+00 0.000000000000000e+00 0.000000000000000e+00
0.000000000000000e+00 0.000000000000000e+00 0.000000000000000e+00
0.000000000000000e+00 0.000000000000000e+00 0.000000000000000e+00

0.000000000000000e+00 0.000000000000000e+00 0.000000000000000e+00
0.000000000000000e+00 0.000000000000000e+00 0.000000000000000e+00
0.000000000000000e+00 0.000000000000000e+00 0.000000000000000e+00

0.000000000000000e+00 0.000000000000000e+00 0.000000000000000e+00
0.000000000000000e+00 0.000000000000000e+00 0.000000000000000e+00
0.000000000000000e+00 0.000000000000000e+00 0.000000000000000e+00

0.000000000000000e+00 0.000000000000000e+00 0.000000000000000e+00
0.000000000000000e+00 0.000000000000000e+00 0.000000000000000e+00
0.000000000000000e+00 0.000000000000000e+00 0.000000000000000e+00

0.000000000000000e+00 0.000000000000000e+00 0.000000000000000e+00
0.000000000000000e+00 0.000000000000000e+00 0.000000000000000e+00
0.000000000000000e+00 0.000000000000000e+00 0.000000000000000e+00

0.000000000000000e+00 0.000000000000000e+00 0.000000000000000e+00
0.000000000000000e+00 0.000000000000000e+00 0.000000000000000e+00
0.000000000000000e+00 0.000000000000000e+00 0.000000000000000e+00

0.000000000000000e+00 0.000000000000000e+00 0.000000000000000e+00
0.000000000000000e+00 0.000000000000000e+00 0.000000000000000e+00
0.000000000000000e+00 0.000000000000000e+00 0.000000000000000e+00

0.000000000000000e+00 0.000000000000000e+00 0.000000000000000e+00
0.000000000000000e+00 0.000000000000000e+00 0.000000000000000e+00
0.000000000000000e+00 0.000000000000000e+00 0.000000000000000e+00

0.000000000000000e+00 0.000000000000000e+00 0.000000000000000e+00
0.000000000000000e+00 0.000000000000000e+00 0.000000000000000e+00
0.000000000000000e+00 0.000000000000000e+00 0.000000000000000e+00

0.000000000000000e+00 0.000000000000000e+00 0.000000000000000e+00
0.000000000000000e+00 0.000000000000000e+00 0.000000000000000e+00
0.000000000000000e+00 0.000000000000000e+00 0.000000000000000e+00

0.000000000000000e+00 0.000000000000000e+00 0.000000000000000e+00
0.000000000000000e+00 0.000000000000000e+00 0.000000000000000e+00
0.000000000000000e+00 0.000000000000000e+00 0.000000000000000e+00

0.000000000000000e+00 0.000000000000000e+00 0.000000000000000e+00
0.000000000000000e+00 0.000000000000000e+00 0.000000000000000e+00
0.000000000000000e+00 0.000000000000000e+00 0.000000000000000e+00

0.000000000000000e+00 0.000000000000000e+00 0.000000000000000e+00
0.000000000000000e+00 0.000000000000000e+00 0.000000000000000e+00
0.000000000000000e+00 0.000000000000000e+00 0.000000000000000e+00

0.000000000000000e+00 0.000000000000000e+00 0.000000000000000e+00
0.000000000000000e+00 0.000000000000000e+00 0.000000000000000e+00
0.000000000000000e+00 0.000000000000000e+00 0.000000000000000e+00

0.000000000000000e+00 0.000000000000000e+00 0.000000000000000e+00
0.000000000000000e+00 0.000000000000000e+00 0.000000000000000e+00
0.000000000000000e+00 0.000000000000000e+00 0.000000000000000e+00

0.000000000000000e+00 0.000000000000000e+00 0.000000000000000e+00
0.000000000000000e+00 0.000000000000000e+00 0.000000000000000e+00
0.000000000000000e+00 0.000000000000000e+00 0.000000000000000e+00

0.000000000000000e+00 0.000000000000000e+00 0.000000000000000e+00
0.000000000000000e+00 0.000000000000000e+00 0.000000000000000e+00
0.000000000000000e+00 0.000000000000000e+00 0.000000000000000e+00

0.000000000000000e+00 0.000000000000000e+00 0.000000000000000e+00
0.000000000000000e+00 0.000000000000000e+00 0.000000000000000e+00
0.000000000000000e+00 0.000000000000000e+00 0.000000000000000e+00

0.000000000000000e+00 0.000000000000000e+00 0.000000000000000e+00
0.000000000000000e+00 0.000000000000000e+00 0.000000000000000e+00
0.000000000000000e+00 0.000000000000000e+00 0.000000000000000e+00

0.000000000000000e+00 0.000000000000000e+00 0.000000000000000e+00
0.000000000000000e+00 0.000000000000000e+00 0.000000000000000e+00
0.000000000000000e+00 0.000000000000000e+00 0.000000000000000e+00

0.000000000000000e+00 0.000000000000000e+00 0.000000000000000e+00
0.000000000000000e+00 0.000000000000000e+00 0.000000000000000e+00
0.000000000000000e+00 0.000000000000000e+00 0.000000000000000e+00

0.000000000000000e+00 0.000000000000000e+00 0.000000000000000e+00
0.000000000000000e+00 0.000000000000000e+00 0.000000000000000e+00
0.000000000000000e+00 0.000000000000000e+00 0.000000000000000e+00

0.000000000000000e+00 0.000000000000000e+00 0.000000000000000e+00
0.000000000000000e+00 0.000000000000000e+00 0.000000000000000e+00
0.000000000000000e+00 0.000000000000000e+00 0.000000000000000e+00

0.000000000000000e+00 0.000000000000000e+00 0.000000000000000e+00
0.000000000000000e+00 0.000000000000000e+00 0.000000000000000e+00
0.000000000000000e+00 0.000000000000000e+00 0.000000000000000e+00

0.000000000000000e+00 0.000000000000000e+00 0.000000000000000e+00
0.000000000000000e+00 0.000000000000000e+00 0.000000000000000e+00
0.000000000000000e+00 0.000000000000000e+00 0.000000000000000e+00

0.000000000000000e+00 0.000000000000000e+00 0.000000000000000e+00
0.000000000000000e+00 0.000000000000000e+00 0.000000000000000e+00
0.000000000000000e+00 0.000000000000000e+00 0.000000000000000e+00

0.000000000000000e+00 0.000000000000000e+00 0.000000000000000e+00
0.000000000000000e+00 0.000000000000000e+00 0.000000000000000e+00
0.000000000000000e+00 0.000000000000000e+00 0.000000000000000e+00

0.000000000000000e+00 0.000000000000000e+00 0.000000000000000e+00
0.000000000000000e+00 0.000000000000000e+00 0.000000000000000e+00
0.000000000000000e+00 0.000000000000000e+00 0.000000000000000e+00

0.000000000000000e+00 0.000000000000000e+00 0.000000000000000e+00
0.000000000000000e+00 0.000000000000000e+00 0.000000000000000e+00
0.000000000000000e+00 0.000000000000000e+00 0.000000000000000e+00

0.000000000000000e+00 0.000000000000000e+00 0.000000000000000e+00
0.000000000000000e+00 0.000000000000000e+00 0.000000000000000e+00
0.000000000000000e+00 0.000000000000000e+00 0.000000000000000e+00

0.000000000000000e+00 0.000000000000000e+00 0.000000000000000e+00
0.000000000000000e+00 0.000000000000000e+00 0.000000000000000e+00
0.000000000000000e+00 0.000000000000000e+00 0.000000000000000e+00

0.000000000000000e+00 0.000000000000000e+00 0.000000000000000e+00
0.000000000000000e+00 0.000000000000000e+00 0.000000000000000e+00
0.000000000000000e+00 0.000000000000000e+00 0.000000000000000e+00

0.000000000000000e+00 0.000000000000000e+00 0.000000000000000e+00
0.000000000000000e+00 0.000000000000000e+00 0.000000000000000e+00
0.000000000000000e+00 0.000000000000000e+00 0.000000000000000e+00

0.000000000000000e+00 0.000000000000000e+00 0.000000000000000e+00
0.000000000000000e+00 0.000000000000000e+00 0.000000000000000e+00
0.000000000000000e+00 0.000000000000000e+00 0.000000000000000e+00

0.000000000000000e+00 0.000000000000000e+00 0.000000000000000e+00
0.000000000000000e+00 0.000000000000000e+00 0.000000000000000e+00
0.000000000000000e+00 0.000000000000000e+00 0.000000000000000e+00

0.000000000000000e+00 0.000000000000000e+00 0.000000000000000e+00
0.000000000000000e+00 0.000000000000000e+00 0.000000000000000e+00
0.000000000000000e+00 0.000000000000000e+00 0.000000000000000e+00

0.000000000000000e+00 0.000000000000000e+00 0.000000000000000e+00
0.000000000000000e+00 0.000000000000000e+00 0.000000000000000e+00
0.000000000000000e+00 0.000000000000000e+00 0.000000000000000e+00

0.000000000000000e+00 0.000000000000000e+00 0.000000000000000e+00
0.000000000000000e+00 0.000000000000000e+00 0.000000000000000e+00
0.000000000000000e+00 0.000000000000000e+00 0.000000000000000e+00

0.000000000000000e+00 0.000000000000000e+00 0.000000000000000e+00
0.000000000000000e+00 0.000000000000000e+00 0.000000000000000e+00
0.000000000000000e+00 0.000000000000000e+00 0.000000000000000e+00

0.000000000000000e+00 0.000000000000000e+00 0.000000000000000e+00
0.000000000000000e+00 0.000000000000000e+00 0.000000000000000e+00
0.000000000000000e+00 0.000000000000000e+00 0.000000000000000e+00

0.000000000000000e+00 0.000000000000000e+00 0.000000000000000e+00
0.000000000000000e+00 0.000000000000000e+00 0.000000000000000e+00
0.000000000000000e+00 0.000000000000000e+00 0.000000000000000e+00

0.000000000000000e+00 0.000000000000000e+00 0.000000000000000e+00
0.000000000000000e+00 0.000000000000000e+00 0.000000000000000e+00
0.000000000000000e+00 0.000000000000000e+00 0.000000000000000e+00

0.000000000000000e+00 0.000000000000000e+00 0.000000000000000e+00
0.000000000000000e+00 0.000000000000000e+00 0.000000000000000e+00
0.000000000000000e+00 0.000000000000000e+00 0.000000000000000e+00

0.000000000000000e+00 0.000000000000000e+00 0.000000000000000e+00
0.000000000000000e+00 0.000000000000000e+00 0.000000000000000e+00
0.000000000000000e+00 0.000000000000000e+00 0.000000000000000e+00

0.000000000000000e+00 0.000000000000000e+00 0.000000000000000e+00
0.000000000000000e+00 0.000000000000000e+00 0.000000000000000e+00
0.000000000000000e+00 0.000000000000000e+00 0.000000000000000e+00

0.000000000000000e+00 0.000000000000000e+00 0.000000000000000e+00
0.000000000000000e+00 0.000000000000000e+00 0.000000000000000e+00
0.000000000000000e+00 0.000000000000000e+00 0.000000000000000e+00

0.000000000000000e+00 0.000000000000000e+00 0.000000000000000e+00
0.000000000000000e+00 0.000000000000000e+00 0.000000000000000e+00
0.000000000000000e+00 0.000000000000000e+00 0.000000000000000e+00

0.000000000000000e+00 0.000000000000000e+00 0.000000000000000e+00
0.000000000000000e+00 0.000000000000000e+00 0.000000000000000e+00
0.000000000000000e+00 0.000000000000000e+00 0.000000000000000e+00

0.000000000000000e+00 0.000000000000000e+00 0.000000000000000e+00
0.000000000000000e+00 0.000000000000000e+00 0.000000000000000e+00
0.000000000000000e+00 0.000000000000000e+00 0.000000000000000e+00

0.000000000000000e+00 0.000000000000000e+00 0.000000000000000e+00
0.000000000000000e+00 0.000000000000000e+00 0.000000000000000e+00
0.000000000000000e+00 0.000000000000000e+00 0.000000000000000e+00

0.000000000000000e+00 0.000000000000000e+00 0.000000000000000e+00
0.000000000000000e+00 0.000000000000000e+00 0.000000000000000e+00
0.000000000000000e+00 0.000000000000000e+00 0.000000000000000e+00

0.000000000000000e+00 0.000000000000000e+00 0.000000000000000e+00
0.000000000000000e+00 0.000000000000000e+00 0.000000000000000e+00
0.000000000000000e+00 0.000000000000000e+00 0.000000000000000e+00

0.000000000000000e+00 0.000000000000000e+00 0.000000000000000e+00
0.000000000000000e+00 0.000000000000000e+00 0.000000000000000e+00
0.000000000000000e+00 0.000000000000000e+00 0.000000000000000e+00

0.000000000000000e+00 0.000000000000000e+00 0.000000000000000e+00
0.000000000000000e+00 0.000000000000000e+00 0.000000000000000e+00
0.000000000000000e+00 0.000000000000000e+00 0.000000000000000e+00

0.000000000000000e+00 0.000000000000000e+00 0.000000000000000e+00
0.000000000000000e+00 0.000000000000000e+00 0.000000000000000e+00
0.000000000000000e+00 0.000000000000000e+00 0.000000000000000e+00

0.000000000000000e+00 0.000000000000000e+00 0.000000000000000e+00
0.000000000000000e+00 0.000000000000000e+00 0.000000000000000e+00
0.000000000000000e+00 0.000000000000000e+00 0.000000000000000e+00

0.000000000000000e+00 0.000000000000000e+00 0.000000000000000e+00
0.000000000000000e+00 0.000000000000000e+00 0.000000000000000e+00
0.000000000000000e+00 0.000000000000000e+00 0.000000000000000e+00

0.000000000000000e+00 0.000000000000000e+00 0.000000000000000e+00
0.000000000000000e+00 0.000000000000000e+00 0.000000000000000e+00
0.000000000000000e+00 0.000000000000000e+00 0.000000000000000e+00

0.000000000000000e+00 0.000000000000000e+00 0.000000000000000e+00
0.000000000000000e+00 0.000000000000000e+00 0.000000000000000e+00
0.000000000000000e+00 0.000000000000000e+00 0.000000000000000e+00

0.000000000000000e+00 0.000000000000000e+00 0.000000000000000e+00
0.000000000000000e+00 0.000000000000000e+00 0.000000000000000e+00
0.000000000000000e+00 0.000000000000000e+00 0.000000000000000e+00

0.000000000000000e+00 0.000000000000000e+00 0.000000000000000e+00
0.000000000000000e+00 0.000000000000000e+00 0.000000000000000e+00
0.000000000000000e+00 0.000000000000000e+00 0.000000000000000e+00

0.000000000000000e+00 0.000000000000000e+00 0.000000000000000e+00
0.000000000000000e+00 0.000000000000000e+00 0.000000000000000e+00
0.000000000000000e+00 0.000000000000000e+00 0.000000000000000e+00

0.000000000000000e+00 0.000000000000000e+00 0.000000000000000e+00
0.000000000000000e+00 0.000000000000000e+00 0.000000000000000e+00
0.000000000000000e+00 0.000000000000000e+00 0.000000000000000e+00

0.000000000000000e+00 0.000000000000000e+00 0.000000000000000e+00
0.000000000000000e+00 0.000000000000000e+00 0.000000000000000e+00
0.000000000000000e+00 0.000000000000000e+00 0.000000000000000e+00

0.000000000000000e+00 0.000000000000000e+00 0.000000000000000e+00
0.000000000000000e+00 0.000000000000000e+00 0.000000000000000e+00
0.000000000000000e+00 0.000000000000000e+00 0.000000000000000e+00

0.000000000000000e+00 0.000000000000000e+00 0.000000000000000e+00
0.000000000000000e+00 0.000000000000000e+00 0.000000000000000e+00
0.000000000000000e+00 0.000000000000000e+00 0.000000000000000e+00

0.000000000000000e+00 0.000000000000000e+00 0.000000000000000e+00
0.000000000000000e+00 0.000000000000000e+00 0.000000000000000e+00
0.000000000000000e+00 0.000000000000000e+00 0.000000000000000e+00

0.000000000000000e+00 0.000000000000000e+00 0.000000000000000e+00
0.000000000000000e+00 0.000000000000000e+00 0.000000000000000e+00
0.000000000000000e+00 0.000000000000000e+00 0.000000000000000e+00

0.000000000000000e+00 0.000000000000000e+00 0.000000000000000e+00
0.000000000000000e+00 0.000000000000000e+00 0.000000000000000e+00
0.000000000000000e+00 0.000000000000000e+00 0.000000000000000e+00

0.000000000000000e+00 0.000000000000000e+00 0.000000000000000e+00
0.000000000000000e+00 0.000000000000000e+00 0.000000000000000e+00
0.000000000000000e+00 0.000000000000000e+00 0.000000000000000e+00

0.000000000000000e+00 0.000000000000000e+00 0.000000000000000e+00
0.000000000000000e+00 0.000000000000000e+00 0.000000000000000e+00
0.000000000000000e+00 0.000000000000000e+00 0.000000000000000e+00

0.000000000000000e+00 0.000000000000000e+00 0.000000000000000e+00
0.000000000000000e+00 0.000000000000000e+00 0.000000000000000e+00
0.000000000000000e+00 0.000000000000000e+00 0.000000000000000e+00

0.000000000000000e+00 0.000000000000000e+00 0.000000000000000e+00
0.000000000000000e+00 0.000000000000000e+00 0.000000000000000e+00
0.000000000000000e+00 0.000000000000000e+00 0.000000000000000e+00

0.000000000000000e+00 0.000000000000000e+00 0.000000000000000e+00
0.000000000000000e+00 0.000000000000000e+00 0.000000000000000e+00
0.000000000000000e+00 0.000000000000000e+00 0.000000000000000e+00

0.000000000000000e+00 0.000000000000000e+00 0.000000000000000e+00
0.000000000000000e+00 0.000000000000000e+00 0.000000000000000e+00
0.000000000000000e+00 0.000000000000000e+00 0.000000000000000e+00

0.000000000000000e+00 0.000000000000000e+00 0.000000000000000e+00
0.000000000000000e+00 0.000000000000000e+00 0.000000000000000e+00
0.000000000000000e+00 0.000000000000000e+00 0.000000000000000e+00

0.000000000000000e+00 0.000000000000000e+00 0.000000000000000e+00
0.000000000000000e+00 0.000000000000000e+00 0.000000000000000e+00
0.000000000000000e+00 0.000000000000000e+00 0.000000000000000e+00

0.000000000000000e+00 0.000000000000000e+00 0.000000000000000e+00
0.000000000000000e+00 0.000000000000000e+00 0.000000000000000e+00
0.000000000000000e+00 0.000000000000000e+00 0.000000000000000e+00

0.000000000000000e+00 0.000000000000000e+00 0.000000000000000e+00
0.000000000000000e+00 0.000000000000000e+00 0.000000000000000e+00
0.000000000000000e+00 0.000000000000000e+00 0.000000000000000e+00

0.000000000000000e+00 0.000000000000000e+00 0.000000000000000e+00
0.000000000000000e+00 0.000000000000000e+00 0.000000000000000e+00
0.000000000000000e+00 0.000000000000000e+00 0.000000000000000e+00

0.000000000000000e+00 0.000000000000000e+00 0.000000000000000e+00
0.000000000000000e+00 0.000000000000000e+00 0.000000000000000e+00
0.000000000000000e+00 0.000000000000000e+00 0.000000000000000e+00

0.000000000000000e+00 0.000000000000000e+00 0.000000000000000e+00
0.000000000000000e+00 0.000000000000000e+00 0.000000000000000e+00
0.000000000000000e+00 0.000000000000000e+00 0.000000000000000e+00

0.000000000000000e+00 0.000000000000000e+00 0.000000000000000e+00
0.000000000000000e+00 0.000000000000000e+00 0.000000000000000e+00
0.000000000000000e+00 0.000000000000000e+00 0.000000000000000e+00

0.000000000000000e+00 0.000000000000000e+00 0.000000000000000e+00
0.000000000000000e+00 0.000000000000000e+00 0.000000000000000e+00
0.000000000000000e+00 0.000000000000000e+00 0.000000000000000e+00

0.000000000000000e+00 0.000000000000000e+00 0.000000000000000e+00
0.000000000000000e+00 0.000000000000000e+00 0.000000000000000e+00
0.000000000000000e+00 0.000000000000000e+00 0.000000000000000e+00

0.000000000000000e+00 0.000000000000000e+00 0.000000000000000e+00
0.000000000000000e+00 0.000000000000000e+00 0.000000000000000e+00
0.000000000000000e+00 0.000000000000000e+00 0.000000000000000e+00

0.000000000000000e+00 0.000000000000000e+00 0.000000000000000e+00
0.000000000000000e+00 0.000000000000000e+00 0.000000000000000e+00
0.000000000000000e+00 0.000000000000000e+00 0.000000000000000e+00

0.000000000000000e+00 0.000000000000000e+00 0.000000000000000e+00
0.000000000000000e+00 0.000000000000000e+00 0.000000000000000e+00
0.000000000000000e+00 0.000000000000000e+00 0.000000000000000e+00

0.000000000000000e+00 0.000000000000000e+00 0.000000000000000e+00
0.000000000000000e+00 0.000000000000000e+00 0.000000000000000e+00
0.000000000000000e+00 0.000000000000000e+00 0.000000000000000e+00

0.000000000000000e+00 0.000000000000000e+00 0.000000000000000e+00
0.000000000000000e+00 0.000000000000000e+00 0.000000000000000e+00
0.000000000000000e+00 0.000000000000000e+00 0.000000000000000e+00

0.000000000000000e+00 0.000000000000000e+00 0.000000000000000e+00
0.000000000000000e+00 0.000000000000000e+00 0.000000000000000e+00
0.000000000000000e+00 0.000000000000000e+00 0.000000000000000e+00

0.000000000000000e+00 0.000000000000000e+00 0.000000000000000e+00
0.000000000000000e+00 0.000000000000000e+00 0.000000000000000e+00
0.000000000000000e+00 0.000000000000000e+00 0.000000000000000e+00

0.000000000000000e+00 0.000000000000000e+00 0.000000000000000e+00
0.000000000000000e+00 0.000000000000000e+00 0.000000000000000e+00
0.000000000000000e+00 0.000000000000000e+00 0.000000000000000e+00

0.000000000000000e+00 0.000000000000000e+00 0.000000000000000e+00
0.000000000000000e+00 0.000000000000000e+00 0.000000000000000e+00
0.000000000000000e+00 0.000000000000000e+00 0.000000000000000e+00

0.000000000000000e+00 0.000000000000000e+00 0.000000000000000e+00
0.000000000000000e+00 0.000000000000000e+00 0.000000000000000e+00
0.000000000000000e+00 0.000000000000000e+00 0.000000000000000e+00

0.000000000000000e+00 0.000000000000000e+00 0.000000000000000e+00
0.000000000000000e+00 0.000000000000000e+00 0.000000000000000e+00
0.000000000000000e+00 0.000000000000000e+00 0.000000000000000e+00

0.000000000000000e+00 0.000000000000000e+00 0.000000000000000e+00
0.000000000000000e+00 0.000000000000000e+00 0.000000000000000e+00
0.000000000000000e+00 0.000000000000000e+00 0.000000000000000e+00

0.000000000000000e+00 0.000000000000000e+00 0.000000000000000e+00
0.000000000000000e+00 0.000000000000000e+00 0.000000000000000e+00
0.000000000000000e+00 0.000000000000000e+00 0.000000000000000e+00

0.000000000000000e+00 0.000000000000000e+00 0.000000000000000e+00
0.000000000000000e+00 0.000000000000000e+00 0.000000000000000e+00
0.000000000000000e+00 0.000000000000000e+00 0.000000000000000e+00

0.000000000000000e+00 0.000000000000000e+00 0.000000000000000e+00
0.000000000000000e+00 0.000000000000000e+00 0.000000000000000e+00
0.000000000000000e+00 0.000000000000000e+00 0.000000000000000e+00

0.000000000000000e+00 0.000000000000000e+00 0.000000000000000e+00
0.000000000000000e+00 0.000000000000000e+00 0.000000000000000e+00
0.000000000000000e+00 0.000000000000000e+00 0.000000000000000e+00

0.000000000000000e+00 0.000000000000000e+00 0.000000000000000e+00
0.000000000000000e+00 0.000000000000000e+00 0.000000000000000e+00
0.000000000000000e+00 0.000000000000000e+00 0.000000000000000e+00

0.000000000000000e+00 0.000000000000000e+00 0.000000000000000e+00
0.000000000000000e+00 0.000000000000000e+00 0.000000000000000e+00
0.000000000000000e+00 0.000000000000000e+00 0.000000000000000e+00

0.000000000000000e+00 0.000000000000000e+00 0.000000000000000e+00
0.000000000000000e+00 0.000000000000000e+00 0.000000000000000e+00
0.000000000000000e+00 0.000000000000000e+00 0.000000000000000e+00

0.000000000000000e+00 0.000000000000000e+00 0.000000000000000e+00
0.000000000000000e+00 0.000000000000000e+00 0.000000000000000e+00
0.000000000000000e+00 0.000000000000000e+00 0.000000000000000e+00

0.000000000000000e+00 0.000000000000000e+00 0.000000000000000e+00
0.000000000000000e+00 0.000000000000000e+00 0.000000000000000e+00
0.000000000000000e+00 0.000000000000000e+00 0.000000000000000e+00

0.000000000000000e+00 0.000000000000000e+00 0.000000000000000e+00
0.000000000000000e+00 0.000000000000000e+00 0.000000000000000e+00
0.000000000000000e+00 0.000000000000000e+00 0.000000000000000e+00

0.000000000000000e+00 0.000000000000000e+00 0.000000000000000e+00
0.000000000000000e+00 0.000000000000000e+00 0.000000000000000e+00
0.000000000000000e+00 0.000000000000000e+00 0.000000000000000e+00

0.000000000000000e+00 0.000000000000000e+00 0.000000000000000e+00
0.000000000000000e+00 0.000000000000000e+00 0.000000000000000e+00
0.000000000000000e+00 0.000000000000000e+00 0.000000000000000e+00

0.000000000000000e+00 0.000000000000000e+00 0.000000000000000e+00
0.000000000000000e+00 0.000000000000000e+00 0.000000000000000e+00
0.000000000000000e+00 0.000000000000000e+00 0.000000000000000e+00

0.000000000000000e+00 0.000000000000000e+00 0.000000000000000e+00
0.000000000000000e+00 0.000000000000000e+00 0.000000000000000e+00
0.000000000000000e+00 0.000000000000000e+00 0.000000000000000e+00

0.000000000000000e+00 0.000000000000000e+00 0.000000000000000e+00
0.000000000000000e+00 0.000000000000000e+00 0.000000000000000e+00
0.000000000000000e+00 0.000000000000000e+00 0.000000000000000e+00

0.000000000000000e+00 0.000000000000000e+00 0.000000000000000e+00
0.000000000000000e+00 0.000000000000000e+00 0.000000000000000e+00
0.000000000000000e+00 0.000000000000000e+00 0.000000000000000e+00

0.000000000000000e+00 0.000000000000000e+00 0.000000000000000e+00
0.000000000000000e+00 0.000000000000000e+00 0.000000000000000e+00
0.000000000000000e+00 0.000000000000000e+00 0.000000000000000e+00

0.000000000000000e+00 0.000000000000000e+00 0.000000000000000e+00
0.000000000000000e+00 0.000000000000000e+00 0.000000000000000e+00
0.000000000000000e+00 0.000000000000000e+00 0.000000000000000e+00

0.000000000000000e+00 0.000000000000000e+00 0.000000000000000e+00
0.000000000000000e+00 0.000000000000000e+00 0.000000000000000e+00
0.000000000000000e+00 0.000000000000000e+00 0.000000000000000e+00

0.000000000000000e+00 0.000000000000000e+00 0.000000000000000e+00
0.000000000000000e+00 0.000000000000000e+00 0.000000000000000e+00
0.000000000000000e+00 0.000000000000000e+00 0.000000000000000e+00

0.000000000000000e+00 0.000000000000000e+00 0.000000000000000e+00
0.000000000000000e+00 0.000000000000000e+00 0.000000000000000e+00
0.000000000000000e+00 0.000000000000000e+00 0.000000000000000e+00

0.000000000000000e+00 0.000000000000000e+00 0.000000000000000e+00
0.000000000000000e+00 0.000000000000000e+00 0.000000000000000e+00
0.000000000000000e+00 0.000000000000000e+00 0.000000000000000e+00

0.000000000000000e+00 0.000000000000000e+00 0.000000000000000e+00
0.000000000000000e+00 0.000000000000000e+00 0.000000000000000e+00
0.000000000000000e+00 0.000000000000000e+00 0.000000000000000e+00

0.000000000000000e+00 0.000000000000000e+00 0.000000000000000e+00
0.000000000000000e+00 0.000000000000000e+00 0.000000000000000e+00
0.000000000000000e+00 0.000000000000000e+00 0.000000000000000e+00

0.000000000000000e+00 0.000000000000000e+00 0.000000000000000e+00
0.000000000000000e+00 0.000000000000000e+00 0.000000000000000e+00
0.000000000000000e+00 0.000000000000000e+00 0.000000000000000e+00

0.000000000000000e+00 0.000000000000000e+00 0.000000000000000e+00
0.000000000000000e+00 0.000000000000000e+00 0.000000000000000e+00
0.000000000000000e+00 0.000000000000000e+00 0.000000000000000e+00

0.000000000000000e+00 0.000000000000000e+00 0.000000000000000e+00
0.000000000000000e+00 0.000000000000000e+00 0.000000000000000e+00
0.000000000000000e+00 0.000000000000000e+00 0.000000000000000e+00

0.000000000000000e+00 0.000000000000000e+00 0.000000000000000e+00
0.000000000000000e+00 0.000000000000000e+00 0.000000000000000e+00
0.000000000000000e+00 0.000000000000000e+00 0.000000000000000e+00

0.000000000000000e+00 0.000000000000000e+00 0.000000000000000e+00
0.000000000000000e+00 0.000000000000000e+00 0.000000000000000e+00
0.000000000000000e+00 0.000000000000000e+00 0.000000000000000e+00

0.000000000000000e+00 0.000000000000000e+00 0.000000000000000e+00
0.000000000000000e+00 0.000000000000000e+00 0.000000000000000e+00
0.000000000000000e+00 0.000000000000000e+00 0.000000000000000e+00

0.000000000000000e+00 0.000000000000000e+00 0.000000000000000e+00
0.000000000000000e+00 0.000000000000000e+00 0.000000000000000e+00
0.000000000000000e+00 0.000000000000000e+00 0.000000000000000e+00

0.000000000000000e+00 0.000000000000000e+00 0.000000000000000e+00
0.000000000000000e+00 0.000000000000000e+00 0.000000000000000e+00
0.000000000000000e+00 0.000000000000000e+00 0.000000000000000e+00

0.000000000000000e+00 0.000000000000000e+00 0.000000000000000e+00
0.000000000000000e+00 0.000000000000000e+00 0.000000000000000e+00
0.000000000000000e+00 0.000000000000000e+00 0.000000000000000e+00

0.000000000000000e+00 0.000000000000000e+00 0.000000000000000e+00
0.000000000000000e+00 0.000000000000000e+00 0.000000000000000e+00
0.000000000000000e+00 0.000000000000000e+00 0.000000000000000e+00

0.000000000000000e+00 0.000000000000000e+00 0.000000000000000e+00
0.000000000000000e+00 0.000000000000000e+00 0.000000000000000e+00
0.000000000000000e+00 0.000000000000000e+00 0.000000000000000e+00

0.000000000000000e+00 0.000000000000000e+00 0.000000000000000e+00
0.000000000000000e+00 0.000000000000000e+00 0.000000000000000e+00
0.000000000000000e+00 0.000000000000000e+00 0.000000000000000e+00

0.000000000000000e+00 0.000000000000000e+00 0.000000000000000e+00
0.000000000000000e+00 0.000000000000000e+00 0.000000000000000e+00
0.000000000000000e+00 0.000000000000000e+00 0.000000000000000e+00

0.000000000000000e+00 0.000000000000000e+00 0.000000000000000e+00
0.000000000000000e+00 0.000000000000000e+00 0.000000000000000e+00
0.000000000000000e+00 0.000000000000000e+00 0.000000000000000e+00

0.000000000000000e+00 0.000000000000000e+00 0.000000000000000e+00
0.000000000000000e+00 0.000000000000000e+00 0.000000000000000e+00
0.000000000000000e+00 0.000000000000000e+00 0.000000000000000e+00

0.000000000000000e+00 0.000000000000000e+00 0.000000000000000e+00
0.000000000000000e+00 0.000000000000000e+00 0.000000000000000e+00
0.000000000000000e+00 0.000000000000000e+00 0.000000000000000e+00

0.000000000000000e+00 0.000000000000000e+00 0.000000000000000e+00
0.000000000000000e+00 0.000000000000000e+00 0.000000000000000e+00
0.000000000000000e+00 0.000000000000000e+00 0.000000000000000e+00

0.000000000000000e+00 0.000000000000000e+00 0.000000000000000e+00
0.000000000000000e+00 0.000000000000000e+00 0.000000000000000e+00
0.000000000000000e+00 0.000000000000000e+00 0.000000000000000e+00

0.000000000000000e+00 0.000000000000000e+00 0.000000000000000e+00
0.000000000000000e+00 0.000000000000000e+00 0.000000000000000e+00
0.000000000000000e+00 0.000000000000000e+00 0.000000000000000e+00

0.000000000000000e+00 0.000000000000000e+00 0.000000000000000e+00
0.000000000000000e+00 0.000000000000000e+00 0.000000000000000e+00
0.000000000000000e+00 0.000000000000000e+00 0.000000000000000e+00

0.000000000000000e+00 0.000000000000000e+00 0.000000000000000e+00
0.000000000000000e+00 0.000000000000000e+00 0.000000000000000e+00
0.000000000000000e+00 0.000000000000000e+00 0.000000000000000e+00

0.000000000000000e+00 0.000000000000000e+00 0.000000000000000e+00
0.000000000000000e+00 0.000000000000000e+00 0.000000000000000e+00
0.000000000000000e+00 0.000000000000000e+00 0.000000000000000e+00

0.000000000000000e+00 0.000000000000000e+00 0.000000000000000e+00
0.000000000000000e+00 0.000000000000000e+00 0.000000000000000e+00
0.000000000000000e+00 0.000000000000000e+00 0.000000000000000e+00

0.000000000000000e+00 0.000000000000000e+00 0.000000000000000e+00
0.000000000000000e+00 0.000000000000000e+00 0.000000000000000e+00
0.000000000000000e+00 0.000000000000000e+00 0.000000000000000e+00

0.000000000000000e+00 0.000000000000000e+00 0.000000000000000e+00
0.000000000000000e+00 0.000000000000000e+00 0.000000000000000e+00
0.000000000000000e+00 0.000000000000000e+00 0.000000000000000e+00

0.000000000000000e+00 0.000000000000000e+00 0.000000000000000e+00
0.000000000000000e+00 0.000000000000000e+00 0.000000000000000e+00
0.000000000000000e+00 0.000000000000000e+00 0.000000000000000e+00

0.000000000000000e+00 0.000000000000000e+00 0.000000000000000e+00
0.000000000000000e+00 0.000000000000000e+00 0.000000000000000e+00
0.000000000000000e+00 0.000000000000000e+00 0.000000000000000e+00

0.000000000000000e+00 0.000000000000000e+00 0.000000000000000e+00
0.000000000000000e+00 0.000000000000000e+00 0.000000000000000e+00
0.000000000000000e+00 0.000000000000000e+00 0.000000000000000e+00

0.000000000000000e+00 0.000000000000000e+00 0.000000000000000e+00
0.000000000000000e+00 0.000000000000000e+00 0.000000000000000e+00
0.000000000000000e+00 0.000000000000000e+00 0.000000000000000e+00

0.000000000000000e+00 0.000000000000000e+00 0.000000000000000e+00
0.000000000000000e+00 0.000000000000000e+00 0.000000000000000e+00
0.000000000000000e+00 0.000000000000000e+00 0.000000000000000e+00

0.000000000000000e+00 0.000000000000000e+00 0.000000000000000e+00
0.000000000000000e+00 0.000000000000000e+00 0.000000000000000e+00
0.000000000000000e+00 0.000000000000000e+00 0.000000000000000e+00

0.000000000000000e+00 0.000000000000000e+00 0.000000000000000e+00
0.000000000000000e+00 0.000000000000000e+00 0.000000000000000e+00
0.000000000000000e+00 0.000000000000000e+00 0.000000000000000e+00

0.000000000000000e+00 0.000000000000000e+00 0.000000000000000e+00
0.000000000000000e+00 0.000000000000000e+00 0.000000000000000e+00
0.000000000000000e+00 0.000000000000000e+00 0.000000000000000e+00

0.000000000000000e+00 0.000000000000000e+00 0.000000000000000e+00
0.000000000000000e+00 0.000000000000000e+00 0.000000000000000e+00
0.000000000000000e+00 0.000000000000000e+00 0.000000000000000e+00

0.000000000000000e+00 0.000000000000000e+00 0.000000000000000e+00
0.000000000000000e+00 0.000000000000000e+00 0.000000000000000e+00
0.000000000000000e+00 0.000000000000000e+00 0.000000000000000e+00

0.000000000000000e+00 0.000000000000000e+00 0.000000000000000e+00
0.000000000000000e+00 0.000000000000000e+00 0.000000000000000e+00
0.000000000000000e+00 0.000000000000000e+00 0.000000000000000e+00

0.000000000000000e+00 0.000000000000000e+00 0.000000000000000e+00
0.000000000000000e+00 0.000000000000000e+00 0.000000000000000e+00
0.000000000000000e+00 0.000000000000000e+00 0.000000000000000e+00

0.000000000000000e+00 0.000000000000000e+00 0.000000000000000e+00
0.000000000000000e+00 0.000000000000000e+00 0.000000000000000e+00
0.000000000000000e+00 0.000000000000000e+00 0.000000000000000e+00

0.000000000000000e+00 0.000000000000000e+00 0.000000000000000e+00
0.000000000000000e+00 0.000000000000000e+00 0.000000000000000e+00
0.000000000000000e+00 0.000000000000000e+00 0.000000000000000e+00

0.000000000000000e+00 0.000000000000000e+00 0.000000000000000e+00
0.000000000000000e+00 0.000000000000000e+00 0.000000000000000e+00
0.000000000000000e+00 0.000000000000000e+00 0.000000000000000e+00

0.000000000000000e+00 0.000000000000000e+00 0.000000000000000e+00
0.000000000000000e+00 0.000000000000000e+00 0.000000000000000e+00
0.000000000000000e+00 0.000000000000000e+00 0.000000000000000e+00

0.000000000000000e+00 0.000000000000000e+00 0.000000000000000e+00
0.000000000000000e+00 0.000000000000000e+00 0.000000000000000e+00
0.000000000000000e+00 0.000000000000000e+00 0.000000000000000e+00

0.000000000000000e+00 0.000000000000000e+00 0.000000000000000e+00
0.000000000000000e+00 0.000000000000000e+00 0.000000000000000e+00
0.000000000000000e+00 0.000000000000000e+00 0.000000000000000e+00

0.000000000000000e+00 0.000000000000000e+00 0.000000000000000e+00
0.000000000000000e+00 0.000000000000000e+00 0.000000000000000e+00
0.000000000000000e+00 0.000000000000000e+00 0.000000000000000e+00

0.000000000000000e+00 0.000000000000000e+00 0.000000000000000e+00
0.000000000000000e+00 0.000000000000000e+00 0.000000000000000e+00
0.000000000000000e+00 0.000000000000000e+00 0.000000000000000e+00

0.000000000000000e+00 0.000000000000000e+00 0.000000000000000e+00
0.000000000000000e+00 0.000000000000000e+00 0.000000000000000e+00
0.000000000000000e+00 0.000000000000000e+00 0.000000000000000e+00

0.000000000000000e+00 0.000000000000000e+00 0.000000000000000e+00
0.000000000000000e+00 0.000000000000000e+00 0.000000000000000e+00
0.000000000000000e+00 0.000000000000000e+00 0.000000000000000e+00

0.000000000000000e+00 0.000000000000000e+00 0.000000000000000e+00
0.000000000000000e+00 0.000000000000000e+00 0.000000000000000e+00
0.000000000000000e+00 0.000000000000000e+00 0.000000000000000e+00

0.000000000000000e+00 0.000000000000000e+00 0.000000000000000e+00
0.000000000000000e+00 0.000000000000000e+00 0.000000000000000e+00
0.000000000000000e+00 0.000000000000000e+00 0.000000000000000e+00

0.000000000000000e+00 0.000000000000000e+00 0.000000000000000e+00
0.000000000000000e+00 0.000000000000000e+00 0.000000000000000e+00
0.000000000000000e+00 0.000000000000000e+00 0.000000000000000e+00

0.000000000000000e+00 0.000000000000000e+00 0.000000000000000e+00
0.000000000000000e+00 0.000000000000000e+00 0.000000000000000e+00
0.000000000000000e+00 0.000000000000000e+00 0.000000000000000e+00

0.000000000000000e+00 0.000000000000000e+00 0.000000000000000e+00
0.000000000000000e+00 0.000000000000000e+00 0.000000000000000e+00
0.000000000000000e+00 0.000000000000000e+00 0.000000000000000e+00

0.000000000000000e+00 0.000000000000000e+00 0.000000000000000e+00
0.000000000000000e+00 0.000000000000000e+00 0.000000000000000e+00
0.000000000000000e+00 0.000000000000000e+00 0.000000000000000e+00

0.000000000000000e+00 0.000000000000000e+00 0.000000000000000e+00
0.000000000000000e+00 0.000000000000000e+00 0.000000000000000e+00
0.000000000000000e+00 0.000000000000000e+00 0.000000000000000e+00

0.000000000000000e+00 0.000000000000000e+00 0.000000000000000e+00
0.000000000000000e+00 0.000000000000000e+00 0.000000000000000e+00
0.000000000000000e+00 0.000000000000000e+00 0.000000000000000e+00

0.000000000000000e+00 0.000000000000000e+00 0.000000000000000e+00
0.000000000000000e+00 0.000000000000000e+00 0.000000000000000e+00
0.000000000000000e+00 0.000000000000000e+00 0.000000000000000e+00

0.000000000000000e+00 0.000000000000000e+00 0.000000000000000e+00
0.000000000000000e+00 0.000000000000000e+00 0.000000000000000e+00
0.000000000000000e+00 0.000000000000000e+00 0.000000000000000e+00

0.000000000000000e+00 0.000000000000000e+00 0.000000000000000e+00
0.000000000000000e+00 0.000000000000000e+00 0.000000000000000e+00
0.000000000000000e+00 0.000000000000000e+00 0.000000000000000e+00

0.000000000000000e+00 0.000000000000000e+00 0.000000000000000e+00
0.000000000000000e+00 0.000000000000000e+00 0.000000000000000e+00
0.000000000000000e+00 0.000000000000000e+00 0.000000000000000e+00

0.000000000000000e+00 0.000000000000000e+00 0.000000000000000e+00
0.000000000000000e+00 0.000000000000000e+00 0.000000000000000e+00
0.000000000000000e+00 0.000000000000000e+00 0.000000000000000e+00

0.000000000000000e+00 0.000000000000000e+00 0.000000000000000e+00
0.000000000000000e+00 0.000000000000000e+00 0.000000000000000e+00
0.000000000000000e+00 0.000000000000000e+00 0.000000000000000e+00

0.000000000000000e+00 0.000000000000000e+00 0.000000000000000e+00
0.000000000000000e+00 0.000000000000000e+00 0.000000000000000e+00
0.000000000000000e+00 0.000000000000000e+00 0.000000000000000e+00

0.000000000000000e+00 0.000000000000000e+00 0.000000000000000e+00
0.000000000000000e+00 0.000000000000000e+00 0.000000000000000e+00
0.000000000000000e+00 0.000000000000000e+00 0.000000000000000e+00

0.000000000000000e+00 0.000000000000000e+00 0.000000000000000e+00
0.000000000000000e+00 0.000000000000000e+00 0.000000000000000e+00
0.000000000000000e+00 0.000000000000000e+00 0.000000000000000e+00

0.000000000000000e+00 0.000000000000000e+00 0.000000000000000e+00
0.000000000000000e+00 0.000000000000000e+00 0.000000000000000e+00
0.000000000000000e+00 0.000000000000000e+00 0.000000000000000e+00

0.000000000000000e+00 0.000000000000000e+00 0.000000000000000e+00
0.000000000000000e+00 0.000000000000000e+00 0.000000000000000e+00
0.000000000000000e+00 0.000000000000000e+00 0.000000000000000e+00

0.000000000000000e+00 0.000000000000000e+00 0.000000000000000e+00
0.000000000000000e+00 0.000000000000000e+00 0.000000000000000e+00
0.000000000000000e+00 0.000000000000000e+00 0.000000000000000e+00

0.000000000000000e+00 0.000000000000000e+00 0.000000000000000e+00
0.000000000000000e+00 0.000000000000000e+00 0.000000000000000e+00
0.000000000000000e+00 0.000000000000000e+00 0.000000000000000e+00

0.000000000000000e+00 0.000000000000000e+00 0.000000000000000e+00
0.000000000000000e+00 0.000000000000000e+00 0.000000000000000e+00
0.000000000000000e+00 0.000000000000000e+00 0.000000000000000e+00

0.000000000000000e+00 0.000000000000000e+00 0.000000000000000e+00
0.000000000000000e+00 0.000000000000000e+00 0.000000000000000e+00
0.000000000000000e+00 0.000000000000000e+00 0.000000000000000e+00

0.000000000000000e+00 0.000000000000000e+00 0.000000000000000e+00
0.000000000000000e+00 0.000000000000000e+00 0.000000000000000e+00
0.000000000000000e+00 0.000000000000000e+00 0.000000000000000e+00

0.000000000000000e+00 0.000000000000000e+00 0.000000000000000e+00
0.000000000000000e+00 0.000000000000000e+00 0.000000000000000e+00
0.000000000000000e+00 0.000000000000000e+00 0.000000000000000e+00

0.000000000000000e+00 0.000000000000000e+00 0.000000000000000e+00
0.000000000000000e+00 0.000000000000000e+00 0.000000000000000e+00
0.000000000000000e+00 0.000000000000000e+00 0.000000000000000e+00

0.000000000000000e+00 0.000000000000000e+00 0.000000000000000e+00
0.000000000000000e+00 0.000000000000000e+00 0.000000000000000e+00
0.000000000000000e+00 0.000000000000000e+00 0.000000000000000e+00

0.000000000000000e+00 0.000000000000000e+00 0.000000000000000e+00
0.000000000000000e+00 0.000000000000000e+00 0.000000000000000e+00
0.000000000000000e+00 0.000000000000000e+00 0.000000000000000e+00

0.000000000000000e+00 0.000000000000000e+00 0.000000000000000e+00
0.000000000000000e+00 0.000000000000000e+00 0.000000000000000e+00
0.000000000000000e+00 0.000000000000000e+00 0.000000000000000e+00

0.000000000000000e+00 0.000000000000000e+00 0.000000000000000e+00
0.000000000000000e+00 0.000000000000000e+00 0.000000000000000e+00
0.000000000000000e+00 0.000000000000000e+00 0.000000000000000e+00

0.000000000000000e+00 0.000000000000000e+00 0.000000000000000e+00
0.000000000000000e+00 0.000000000000000e+00 0.000000000000000e+00
0.000000000000000e+00 0.000000000000000e+00 0.000000000000000e+00

0.000000000000000e+00 0.000000000000000e+00 0.000000000000000e+00
0.000000000000000e+00 0.000000000000000e+00 0.000000000000000e+00
0.000000000000000e+00 0.000000000000000e+00 0.000000000000000e+00

0.000000000000000e+00 0.000000000000000e+00 0.000000000000000e+00
0.000000000000000e+00 0.000000000000000e+00 0.000000000000000e+00
0.000000000000000e+00 0.000000000000000e+00 0.000000000000000e+00

0.000000000000000e+00 0.000000000000000e+00 0.000000000000000e+00
0.000000000000000e+00 0.000000000000000e+00 0.000000000000000e+00
0.000000000000000e+00 0.000000000000000e+00 0.000000000000000e+00

0.000000000000000e+00 0.000000000000000e+00 0.000000000000000e+00
0.000000000000000e+00 0.000000000000000e+00 0.000000000000000e+00
0.000000000000000e+00 0.000000000000000e+00 0.000000000000000e+00

0.000000000000000e+00 0.000000000000000e+00 0.000000000000000e+00
0.000000000000000e+00 0.000000000000000e+00 0.000000000000000e+00
0.000000000000000e+00 0.000000000000000e+00 0.000000000000000e+00

0.000000000000000e+00 0.000000000000000e+00 0.000000000000000e+00
0.000000000000000e+00 0.000000000000000e+00 0.000000000000000e+00
0.000000000000000e+00 0.000000000000000e+00 0.000000000000000e+00

0.000000000000000e+00 0.000000000000000e+00 0.000000000000000e+00
0.000000000000000e+00 0.000000000000000e+00 0.000000000000000e+00
0.000000000000000e+00 0.000000000000000e+00 0.000000000000000e+00

0.000000000000000e+00 0.000000000000000e+00 0.000000000000000e+00
0.000000000000000e+00 0.000000000000000e+00 0.000000000000000e+00
0.000000000000000e+00 0.000000000000000e+00 0.000000000000000e+00

0.000000000000000e+00 0.000000000000000e+00 0.000000000000000e+00
0.000000000000000e+00 0.000000000000000e+00 0.000000000000000e+00
0.000000000000000e+00 0.000000000000000e+00 0.000000000000000e+00

0.000000000000000e+00 0.000000000000000e+00 0.000000000000000e+00
0.000000000000000e+00 0.000000000000000e+00 0.000000000000000e+00
0.000000000000000e+00 0.000000000000000e+00 0.000000000000000e+00

0.000000000000000e+00 0.000000000000000e+00 0.000000000000000e+00
0.000000000000000e+00 0.000000000000000e+00 0.000000000000000e+00
0.000000000000000e+00 0.000000000000000e+00 0.000000000000000e+00

0.000000000000000e+00 0.000000000000000e+00 0.000000000000000e+00
0.000000000000000e+00 0.000000000000000e+00 0.000000000000000e+00
0.000000000000000e+00 0.000000000000000e+00 0.000000000000000e+00

0.000000000000000e+00 0.000000000000000e+00 0.000000000000000e+00
0.000000000000000e+00 0.000000000000000e+00 0.000000000000000e+00
0.000000000000000e+00 0.000000000000000e+00 0.000000000000000e+00

0.000000000000000e+00 0.000000000000000e+00 0.000000000000000e+00
0.000000000000000e+00 0.000000000000000e+00 0.000000000000000e+00
0.000000000000000e+00 0.000000000000000e+00 0.000000000000000e+00

0.000000000000000e+00 0.000000000000000e+00 0.000000000000000e+00
0.000000000000000e+00 0.000000000000000e+00 0.000000000000000e+00
0.000000000000000e+00 0.000000000000000e+00 0.000000000000000e+00

0.000000000000000e+00 0.000000000000000e+00 0.000000000000000e+00
0.000000000000000e+00 0.000000000000000e+00 0.000000000000000e+00
0.000000000000000e+00 0.000000000000000e+00 0.000000000000000e+00

0.000000000000000e+00 0.000000000000000e+00 0.000000000000000e+00
0.000000000000000e+00 0.000000000000000e+00 0.000000000000000e+00
0.000000000000000e+00 0.000000000000000e+00 0.000000000000000e+00

0.000000000000000e+00 0.000000000000000e+00 0.000000000000000e+00
0.000000000000000e+00 0.000000000000000e+00 0.000000000000000e+00
0.000000000000000e+00 0.000000000000000e+00 0.000000000000000e+00

0.000000000000000e+00 0.000000000000000e+00 0.000000000000000e+00
0.000000000000000e+00 0.000000000000000e+00 0.000000000000000e+00
0.000000000000000e+00 0.000000000000000e+00 0.000000000000000e+00

0.000000000000000e+00 0.000000000000000e+00 0.000000000000000e+00
0.000000000000000e+00 0.000000000000000e+00 0.000000000000000e+00
0.000000000000000e+00 0.000000000000000e+00 0.000000000000000e+00

0.000000000000000e+00 0.000000000000000e+00 0.000000000000000e+00
0.000000000000000e+00 0.000000000000000e+00 0.000000000000000e+00
0.000000000000000e+00 0.000000000000000e+00 0.000000000000000e+00

0.000000000000000e+00 0.000000000000000e+00 0.000000000000000e+00
0.000000000000000e+00 0.000000000000000e+00 0.000000000000000e+00
0.000000000000000e+00 0.000000000000000e+00 0.000000000000000e+00

0.000000000000000e+00 0.000000000000000e+00 0.000000000000000e+00
0.000000000000000e+00 0.000000000000000e+00 0.000000000000000e+00
0.000000000000000e+00 0.000000000000000e+00 0.000000000000000e+00

0.000000000000000e+00 0.000000000000000e+00 0.000000000000000e+00
0.000000000000000e+00 0.000000000000000e+00 0.000000000000000e+00
0.000000000000000e+00 0.000000000000000e+00 0.000000000000000e+00

0.000000000000000e+00 0.000000000000000e+00 0.000000000000000e+00
0.000000000000000e+00 0.000000000000000e+00 0.000000000000000e+00
0.000000000000000e+00 0.000000000000000e+00 0.000000000000000e+00

0.000000000000000e+00 0.000000000000000e+00 0.000000000000000e+00
0.000000000000000e+00 0.000000000000000e+00 0.000000000000000e+00
0.000000000000000e+00 0.000000000000000e+00 0.000000000000000e+00

0.000000000000000e+00 0.000000000000000e+00 0.000000000000000e+00
0.000000000000000e+00 0.000000000000000e+00 0.000000000000000e+00
0.000000000000000e+00 0.000000000000000e+00 0.000000000000000e+00

0.000000000000000e+00 0.000000000000000e+00 0.000000000000000e+00
0.000000000000000e+00 0.000000000000000e+00 0.000000000000000e+00
0.000000000000000e+00 0.000000000000000e+00 0.000000000000000e+00

0.000000000000000e+00 0.000000000000000e+00 0.000000000000000e+00
0.000000000000000e+00 0.000000000000000e+00 0.000000000000000e+00
0.000000000000000e+00 0.000000000000000e+00 0.000000000000000e+00

0.000000000000000e+00 0.000000000000000e+00 0.000000000000000e+00
0.000000000000000e+00 0.000000000000000e+00 0.000000000000000e+00
0.000000000000000e+00 0.000000000000000e+00 0.000000000000000e+00

0.000000000000000e+00 0.000000000000000e+00 0.000000000000000e+00
0.000000000000000e+00 0.000000000000000e+00 0.000000000000000e+00
0.000000000000000e+00 0.000000000000000e+00 0.000000000000000e+00

0.000000000000000e+00 0.000000000000000e+00 0.000000000000000e+00
0.000000000000000e+00 0.000000000000000e+00 0.000000000000000e+00
0.000000000000000e+00 0.000000000000000e+00 0.000000000000000e+00

0.000000000000000e+00 0.000000000000000e+00 0.000000000000000e+00
0.000000000000000e+00 0.000000000000000e+00 0.000000000000000e+00
0.000000000000000e+00 0.000000000000000e+00 0.000000000000000e+00

0.000000000000000e+00 0.000000000000000e+00 0.000000000000000e+00
0.000000000000000e+00 0.000000000000000e+00 0.000000000000000e+00
0.000000000000000e+00 0.000000000000000e+00 0.000000000000000e+00

0.000000000000000e+00 0.000000000000000e+00 0.000000000000000e+00
0.000000000000000e+00 0.000000000000000e+00 0.000000000000000e+00
0.000000000000000e+00 0.000000000000000e+00 0.000000000000000e+00

0.000000000000000e+00 0.000000000000000e+00 0.000000000000000e+00
0.000000000000000e+00 0.000000000000000e+00 0.000000000000000e+00
0.000000000000000e+00 0.000000000000000e+00 0.000000000000000e+00

0.000000000000000e+00 0.000000000000000e+00 0.000000000000000e+00
0.000000000000000e+00 0.000000000000000e+00 0.000000000000000e+00
0.000000000000000e+00 0.000000000000000e+00 0.000000000000000e+00

0.000000000000000e+00 0.000000000000000e+00 0.000000000000000e+00
0.000000000000000e+00 0.000000000000000e+00 0.000000000000000e+00
0.000000000000000e+00 0.000000000000000e+00 0.000000000000000e+00

0.000000000000000e+00 0.000000000000000e+00 0.000000000000000e+00
0.000000000000000e+00 0.000000000000000e+00 0.000000000000000e+00
0.000000000000000e+00 0.000000000000000e+00 0.000000000000000e+00

0.000000000000000e+00 0.000000000000000e+00 0.000000000000000e+00
0.000000000000000e+00 0.000000000000000e+00 0.000000000000000e+00
0.000000000000000e+00 0.000000000000000e+00 0.000000000000000e+00

0.000000000000000e+00 0.000000000000000e+00 0.000000000000000e+00
0.000000000000000e+00 0.000000000000000e+00 0.000000000000000e+00
0.000000000000000e+00 0.000000000000000e+00 0.000000000000000e+00

0.000000000000000e+00 0.000000000000000e+00 0.000000000000000e+00
0.000000000000000e+00 0.000000000000000e+00 0.000000000000000e+00
0.000000000000000e+00 0.000000000000000e+00 0.000000000000000e+00

0.000000000000000e+00 0.000000000000000e+00 0.000000000000000e+00
0.000000000000000e+00 0.000000000000000e+00 0.000000000000000e+00
0.000000000000000e+00 0.000000000000000e+00 0.000000000000000e+00

0.000000000000000e+00 0.000000000000000e+00 0.000000000000000e+00
0.000000000000000e+00 0.000000000000000e+00 0.000000000000000e+00
0.000000000000000e+00 0.000000000000000e+00 0.000000000000000e+00

0.000000000000000e+00 0.000000000000000e+00 0.000000000000000e+00
0.000000000000000e+00 0.000000000000000e+00 0.000000000000000e+00
0.000000000000000e+00 0.000000000000000e+00 0.000000000000000e+00

0.000000000000000e+00 0.000000000000000e+00 0.000000000000000e+00
0.000000000000000e+00 0.000000000000000e+00 0.000000000000000e+00
0.000000000000000e+00 0.000000000000000e+00 0.000000000000000e+00

0.000000000000000e+00 0.000000000000000e+00 0.000000000000000e+00
0.000000000000000e+00 0.000000000000000e+00 0.000000000000000e+00
0.000000000000000e+00 0.000000000000000e+00 0.000000000000000e+00

0.000000000000000e+00 0.000000000000000e+00 0.000000000000000e+00
0.000000000000000e+00 0.000000000000000e+00 0.000000000000000e+00
0.000000000000000e+00 0.000000000000000e+00 0.000000000000000e+00

0.000000000000000e+00 0.000000000000000e+00 0.000000000000000e+00
0.000000000000000e+00 0.000000000000000e+00 0.000000000000000e+00
0.000000000000000e+00 0.000000000000000e+00 0.000000000000000e+00

0.000000000000000e+00 0.000000000000000e+00 0.000000000000000e+00
0.000000000000000e+00 0.000000000000000e+00 0.000000000000000e+00
0.000000000000000e+00 0.000000000000000e+00 0.000000000000000e+00

0.000000000000000e+00 0.000000000000000e+00 0.000000000000000e+00
0.000000000000000e+00 0.000000000000000e+00 0.000000000000000e+00
0.000000000000000e+00 0.000000000000000e+00 0.000000000000000e+00

0.000000000000000e+00 0.000000000000000e+00 0.000000000000000e+00
0.000000000000000e+00 0.000000000000000e+00 0.000000000000000e+00
0.000000000000000e+00 0.000000000000000e+00 0.000000000000000e+00

0.000000000000000e+00 0.000000000000000e+00 0.000000000000000e+00
0.000000000000000e+00 0.000000000000000e+00 0.000000000000000e+00
0.000000000000000e+00 0.000000000000000e+00 0.000000000000000e+00

0.000000000000000e+00 0.000000000000000e+00 0.000000000000000e+00
0.000000000000000e+00 0.000000000000000e+00 0.000000000000000e+00
0.000000000000000e+00 0.000000000000000e+00 0.000000000000000e+00

0.000000000000000e+00 0.000000000000000e+00 0.000000000000000e+00
0.000000000000000e+00 0.000000000000000e+00 0.000000000000000e+00
0.000000000000000e+00 0.000000000000000e+00 0.000000000000000e+00

0.000000000000000e+00 0.000000000000000e+00 0.000000000000000e+00
0.000000000000000e+00 0.000000000000000e+00 0.000000000000000e+00
0.000000000000000e+00 0.000000000000000e+00 0.000000000000000e+00

0.000000000000000e+00 0.000000000000000e+00 0.000000000000000e+00
0.000000000000000e+00 0.000000000000000e+00 0.000000000000000e+00
0.000000000000000e+00 0.000000000000000e+00 0.000000000000000e+00

0.000000000000000e+00 0.000000000000000e+00 0.000000000000000e+00
0.000000000000000e+00 0.000000000000000e+00 0.000000000000000e+00
0.000000000000000e+00 0.000000000000000e+00 0.000000000000000e+00

0.000000000000000e+00 0.000000000000000e+00 0.000000000000000e+00
0.000000000000000e+00 0.000000000000000e+00 0.000000000000000e+00
0.000000000000000e+00 0.000000000000000e+00 0.000000000000000e+00

0.000000000000000e+00 0.000000000000000e+00 0.000000000000000e+00
0.000000000000000e+00 0.000000000000000e+00 0.000000000000000e+00
0.000000000000000e+00 0.000000000000000e+00 0.000000000000000e+00

0.000000000000000e+00 0.000000000000000e+00 0.000000000000000e+00
0.000000000000000e+00 0.000000000000000e+00 0.000000000000000e+00
0.000000000000000e+00 0.000000000000000e+00 0.000000000000000e+00

0.000000000000000e+00 0.000000000000000e+00 0.000000000000000e+00
0.000000000000000e+00 0.000000000000000e+00 0.000000000000000e+00
0.000000000000000e+00 0.000000000000000e+00 0.000000000000000e+00

0.000000000000000e+00 0.000000000000000e+00 0.000000000000000e+00
0.000000000000000e+00 0.000000000000000e+00 0.000000000000000e+00
0.000000000000000e+00 0.000000000000000e+00 0.000000000000000e+00

0.000000000000000e+00 0.000000000000000e+00 0.000000000000000e+00
0.000000000000000e+00 0.000000000000000e+00 0.000000000000000e+00
0.000000000000000e+00 0.000000000000000e+00 0.000000000000000e+00

0.000000000000000e+00 0.000000000000000e+00 0.000000000000000e+00
0.000000000000000e+00 0.000000000000000e+00 0.000000000000000e+00
0.000000000000000e+00 0.000000000000000e+00 0.000000000000000e+00

0.000000000000000e+00 0.000000000000000e+00 0.000000000000000e+00
0.000000000000000e+00 0.000000000000000e+00 0.000000000000000e+00
0.000000000000000e+00 0.000000000000000e+00 0.000000000000000e+00

0.000000000000000e+00 0.000000000000000e+00 0.000000000000000e+00
0.000000000000000e+00 0.000000000000000e+00 0.000000000000000e+00
0.000000000000000e+00 0.000000000000000e+00 0.000000000000000e+00

0.000000000000000e+00 0.000000000000000e+00 0.000000000000000e+00
0.000000000000000e+00 0.000000000000000e+00 0.000000000000000e+00
0.000000000000000e+00 0.000000000000000e+00 0.000000000000000e+00

0.000000000000000e+00 0.000000000000000e+00 0.000000000000000e+00
0.000000000000000e+00 0.000000000000000e+00 0.000000000000000e+00
0.000000000000000e+00 0.000000000000000e+00 0.000000000000000e+00

0.000000000000000e+00 0.000000000000000e+00 0.000000000000000e+00
0.000000000000000e+00 0.000000000000000e+00 0.000000000000000e+00
0.000000000000000e+00 0.000000000000000e+00 0.000000000000000e+00

0.000000000000000e+00 0.000000000000000e+00 0.000000000000000e+00
0.000000000000000e+00 0.000000000000000e+00 0.000000000000000e+00
0.000000000000000e+00 0.000000000000000e+00 0.000000000000000e+00

0.000000000000000e+00 0.000000000000000e+00 0.000000000000000e+00
0.000000000000000e+00 0.000000000000000e+00 0.000000000000000e+00
0.000000000000000e+00 0.000000000000000e+00 0.000000000000000e+00

0.000000000000000e+00 0.000000000000000e+00 0.000000000000000e+00
0.000000000000000e+00 0.000000000000000e+00 0.000000000000000e+00
0.000000000000000e+00 0.000000000000000e+00 0.000000000000000e+00

0.000000000000000e+00 0.000000000000000e+00 0.000000000000000e+00
0.000000000000000e+00 0.000000000000000e+00 0.000000000000000e+00
0.000000000000000e+00 0.000000000000000e+00 0.000000000000000e+00

0.000000000000000e+00 0.000000000000000e+00 0.000000000000000e+00
0.000000000000000e+00 0.000000000000000e+00 0.000000000000000e+00
0.000000000000000e+00 0.000000000000000e+00 0.000000000000000e+00

0.000000000000000e+00 0.000000000000000e+00 0.000000000000000e+00
0.000000000000000e+00 0.000000000000000e+00 0.000000000000000e+00
0.000000000000000e+00 0.000000000000000e+00 0.000000000000000e+00

0.000000000000000e+00 0.000000000000000e+00 0.000000000000000e+00
0.000000000000000e+00 0.000000000000000e+00 0.000000000000000e+00
0.000000000000000e+00 0.000000000000000e+00 0.000000000000000e+00

0.000000000000000e+00 0.000000000000000e+00 0.000000000000000e+00
0.000000000000000e+00 0.000000000000000e+00 0.000000000000000e+00
0.000000000000000e+00 0.000000000000000e+00 0.000000000000000e+00

0.000000000000000e+00 0.000000000000000e+00 0.000000000000000e+00
0.000000000000000e+00 0.000000000000000e+00 0.000000000000000e+00
0.000000000000000e+00 0.000000000000000e+00 0.000000000000000e+00

0.000000000000000e+00 0.000000000000000e+00 0.000000000000000e+00
0.000000000000000e+00 0.000000000000000e+00 0.000000000000000e+00
0.000000000000000e+00 0.000000000000000e+00 0.000000000000000e+00

0.000000000000000e+00 0.000000000000000e+00 0.000000000000000e+00
0.000000000000000e+00 0.000000000000000e+00 0.000000000000000e+00
0.000000000000000e+00 0.000000000000000e+00 0.000000000000000e+00

0.000000000000000e+00 0.000000000000000e+00 0.000000000000000e+00
0.000000000000000e+00 0.000000000000000e+00 0.000000000000000e+00
0.000000000000000e+00 0.000000000000000e+00 0.000000000000000e+00

0.000000000000000e+00 0.000000000000000e+00 0.000000000000000e+00
0.000000000000000e+00 0.000000000000000e+00 0.000000000000000e+00
0.000000000000000e+00 0.000000000000000e+00 0.000000000000000e+00

0.000000000000000e+00 0.000000000000000e+00 0.000000000000000e+00
0.000000000000000e+00 0.000000000000000e+00 0.000000000000000e+00
0.000000000000000e+00 0.000000000000000e+00 0.000000000000000e+00

0.000000000000000e+00 0.000000000000000e+00 0.000000000000000e+00
0.000000000000000e+00 0.000000000000000e+00 0.000000000000000e+00
0.000000000000000e+00 0.000000000000000e+00 0.000000000000000e+00

0.000000000000000e+00 0.000000000000000e+00 0.000000000000000e+00
0.000000000000000e+00 0.000000000000000e+00 0.000000000000000e+00
0.000000000000000e+00 0.000000000000000e+00 0.000000000000000e+00

0.000000000000000e+00 0.000000000000000e+00 0.000000000000000e+00
0.000000000000000e+00 0.000000000000000e+00 0.000000000000000e+00
0.000000000000000e+00 0.000000000000000e+00 0.000000000000000e+00

0.000000000000000e+00 0.000000000000000e+00 0.000000000000000e+00
0.000000000000000e+00 0.000000000000000e+00 0.000000000000000e+00
0.000000000000000e+00 0.000000000000000e+00 0.000000000000000e+00

0.000000000000000e+00 0.000000000000000e+00 0.000000000000000e+00
0.000000000000000e+00 0.000000000000000e+00 0.000000000000000e+00
0.000000000000000e+00 0.000000000000000e+00 0.000000000000000e+00

0.000000000000000e+00 0.000000000000000e+00 0.000000000000000e+00
0.000000000000000e+00 0.000000000000000e+00 0.000000000000000e+00
0.000000000000000e+00 0.000000000000000e+00 0.000000000000000e+00

0.000000000000000e+00 0.000000000000000e+00 0.000000000000000e+00
0.000000000000000e+00 0.000000000000000e+00 0.000000000000000e+00
0.000000000000000e+00 0.000000000000000e+00 0.000000000000000e+00

0.000000000000000e+00 0.000000000000000e+00 0.000000000000000e+00
0.000000000000000e+00 0.000000000000000e+00 0.000000000000000e+00
0.000000000000000e+00 0.000000000000000e+00 0.000000000000000e+00

0.000000000000000e+00 0.000000000000000e+00 0.000000000000000e+00
0.000000000000000e+00 0.000000000000000e+00 0.000000000000000e+00
0.000000000000000e+00 0.000000000000000e+00 0.000000000000000e+00

0.000000000000000e+00 0.000000000000000e+00 0.000000000000000e+00
0.000000000000000e+00 0.000000000000000e+00 0.000000000000000e+00
0.000000000000000e+00 0.000000000000000e+00 0.000000000000000e+00

0.000000000000000e+00 0.000000000000000e+00 0.000000000000000e+00
0.000000000000000e+00 0.000000000000000e+00 0.000000000000000e+00
0.000000000000000e+00 0.000000000000000e+00 0.000000000000000e+00

0.000000000000000e+00 0.000000000000000e+00 0.000000000000000e+00
0.000000000000000e+00 0.000000000000000e+00 0.000000000000000e+00
0.000000000000000e+00 0.000000000000000e+00 0.000000000000000e+00

0.000000000000000e+00 0.000000000000000e+00 0.000000000000000e+00
0.000000000000000e+00 0.000000000000000e+00 0.000000000000000e+00
0.000000000000000e+00 0.000000000000000e+00 0.000000000000000e+00

0.000000000000000e+00 0.000000000000000e+00 0.000000000000000e+00
0.000000000000000e+00 0.000000000000000e+00 0.000000000000000e+00
0.000000000000000e+00 0.000000000000000e+00 0.000000000000000e+00

0.000000000000000e+00 0.000000000000000e+00 0.000000000000000e+00
0.000000000000000e+00 0.000000000000000e+00 0.000000000000000e+00
0.000000000000000e+00 0.000000000000000e+00 0.000000000000000e+00

0.000000000000000e+00 0.000000000000000e+00 0.000000000000000e+00
0.000000000000000e+00 0.000000000000000e+00 0.000000000000000e+00
0.000000000000000e+00 0.000000000000000e+00 0.000000000000000e+00

0.000000000000000e+00 0.000000000000000e+00 0.000000000000000e+00
0.000000000000000e+00 0.000000000000000e+00 0.000000000000000e+00
0.000000000000000e+00 0.000000000000000e+00 0.000000000000000e+00

0.000000000000000e+00 0.000000000000000e+00 0.000000000000000e+00
0.000000000000000e+00 0.000000000000000e+00 0.000000000000000e+00
0.000000000000000e+00 0.000000000000000e+00 0.000000000000000e+00

0.000000000000000e+00 0.000000000000000e+00 0.000000000000000e+00
0.000000000000000e+00 0.000000000000000e+00 0.000000000000000e+00
0.000000000000000e+00 0.000000000000000e+00 0.000000000000000e+00

0.000000000000000e+00 0.000000000000000e+00 0.000000000000000e+00
0.000000000000000e+00 0.000000000000000e+00 0.000000000000000e+00
0.000000000000000e+00 0.000000000000000e+00 0.000000000000000e+00

0.000000000000000e+00 0.000000000000000e+00 0.000000000000000e+00
0.000000000000000e+00 0.000000000000000e+00 0.000000000000000e+00
0.000000000000000e+00 0.000000000000000e+00 0.000000000000000e+00

0.000000000000000e+00 0.000000000000000e+00 0.000000000000000e+00
0.000000000000000e+00 0.000000000000000e+00 0.000000000000000e+00
0.000000000000000e+00 0.000000000000000e+00 0.000000000000000e+00

0.000000000000000e+00 0.000000000000000e+00 0.000000000000000e+00
0.000000000000000e+00 0.000000000000000e+00 0.000000000000000e+00
0.000000000000000e+00 0.000000000000000e+00 0.000000000000000e+00

0.000000000000000e+00 0.000000000000000e+00 0.000000000000000e+00
0.000000000000000e+00 0.000000000000000e+00 0.000000000000000e+00
0.000000000000000e+00 0.000000000000000e+00 0.000000000000000e+00

0.000000000000000e+00 0.000000000000000e+00 0.000000000000000e+00
0.000000000000000e+00 0.000000000000000e+00 0.000000000000000e+00
0.000000000000000e+00 0.000000000000000e+00 0.000000000000000e+00

0.000000000000000e+00 0.000000000000000e+00 0.000000000000000e+00
0.000000000000000e+00 0.000000000000000e+00 0.000000000000000e+00
0.000000000000000e+00 0.000000000000000e+00 0.000000000000000e+00

0.000000000000000e+00 0.000000000000000e+00 0.000000000000000e+00
0.000000000000000e+00 0.000000000000000e+00 0.000000000000000e+00
0.000000000000000e+00 0.000000000000000e+00 0.000000000000000e+00

0.000000000000000e+00 0.000000000000000e+00 0.000000000000000e+00
0.000000000000000e+00 0.000000000000000e+00 0.000000000000000e+00
0.000000000000000e+00 0.000000000000000e+00 0.000000000000000e+00

0.000000000000000e+00 0.000000000000000e+00 0.000000000000000e+00
0.000000000000000e+00 0.000000000000000e+00 0.000000000000000e+00
0.000000000000000e+00 0.000000000000000e+00 0.000000000000000e+00

0.000000000000000e+00 0.000000000000000e+00 0.000000000000000e+00
0.000000000000000e+00 0.000000000000000e+00 0.000000000000000e+00
0.000000000000000e+00 0.000000000000000e+00 0.000000000000000e+00

0.000000000000000e+00 0.000000000000000e+00 0.000000000000000e+00
0.000000000000000e+00 0.000000000000000e+00 0.000000000000000e+00
0.000000000000000e+00 0.000000000000000e+00 0.000000000000000e+00

0.000000000000000e+00 0.000000000000000e+00 0.000000000000000e+00
0.000000000000000e+00 0.000000000000000e+00 0.000000000000000e+00
0.000000000000000e+00 0.000000000000000e+00 0.000000000000000e+00

0.000000000000000e+00 0.000000000000000e+00 0.000000000000000e+00
0.000000000000000e+00 0.000000000000000e+00 0.000000000000000e+00
0.000000000000000e+00 0.000000000000000e+00 0.000000000000000e+00

0.000000000000000e+00 0.000000000000000e+00 0.000000000000000e+00
0.000000000000000e+00 0.000000000000000e+00 0.000000000000000e+00
0.000000000000000e+00 0.000000000000000e+00 0.000000000000000e+00

0.000000000000000e+00 0.000000000000000e+00 0.000000000000000e+00
0.000000000000000e+00 0.000000000000000e+00 0.000000000000000e+00
0.000000000000000e+00 0.000000000000000e+00 0.000000000000000e+00

0.000000000000000e+00 0.000000000000000e+00 0.000000000000000e+00
0.000000000000000e+00 0.000000000000000e+00 0.000000000000000e+00
0.000000000000000e+00 0.000000000000000e+00 0.000000000000000e+00

0.000000000000000e+00 0.000000000000000e+00 0.000000000000000e+00
0.000000000000000e+00 0.000000000000000e+00 0.000000000000000e+00
0.000000000000000e+00 0.000000000000000e+00 0.000000000000000e+00

0.000000000000000e+00 0.000000000000000e+00 0.000000000000000e+00
0.000000000000000e+00 0.000000000000000e+00 0.000000000000000e+00
0.000000000000000e+00 0.000000000000000e+00 0.000000000000000e+00

0.000000000000000e+00 0.000000000000000e+00 0.000000000000000e+00
0.000000000000000e+00 0.000000000000000e+00 0.000000000000000e+00
0.000000000000000e+00 0.000000000000000e+00 0.000000000000000e+00

0.000000000000000e+00 0.000000000000000e+00 0.000000000000000e+00
0.000000000000000e+00 0.000000000000000e+00 0.000000000000000e+00
0.000000000000000e+00 0.000000000000000e+00 0.000000000000000e+00

0.000000000000000e+00 0.000000000000000e+00 0.000000000000000e+00
0.000000000000000e+00 0.000000000000000e+00 0.000000000000000e+00
0.000000000000000e+00 0.000000000000000e+00 0.000000000000000e+00

0.000000000000000e+00 0.000000000000000e+00 0.000000000000000e+00
0.000000000000000e+00 0.000000000000000e+00 0.000000000000000e+00
0.000000000000000e+00 0.000000000000000e+00 0.000000000000000e+00

0.000000000000000e+00 0.000000000000000e+00 0.000000000000000e+00
0.000000000000000e+00 0.000000000000000e+00 0.000000000000000e+00
0.000000000000000e+00 0.000000000000000e+00 0.000000000000000e+00

0.000000000000000e+00 0.000000000000000e+00 0.000000000000000e+00
0.000000000000000e+00 0.000000000000000e+00 0.000000000000000e+00
0.000000000000000e+00 0.000000000000000e+00 0.000000000000000e+00

0.000000000000000e+00 0.000000000000000e+00 0.000000000000000e+00
0.000000000000000e+00 0.000000000000000e+00 0.000000000000000e+00
0.000000000000000e+00 0.000000000000000e+00 0.000000000000000e+00

0.000000000000000e+00 0.000000000000000e+00 0.000000000000000e+00
0.000000000000000e+00 0.000000000000000e+00 0.000000000000000e+00
0.000000000000000e+00 0.000000000000000e+00 0.000000000000000e+00

0.000000000000000e+00 0.000000000000000e+00 0.000000000000000e+00
0.000000000000000e+00 0.000000000000000e+00 0.000000000000000e+00
0.000000000000000e+00 0.000000000000000e+00 0.000000000000000e+00

0.000000000000000e+00 0.000000000000000e+00 0.000000000000000e+00
0.000000000000000e+00 0.000000000000000e+00 0.000000000000000e+00
0.000000000000000e+00 0.000000000000000e+00 0.000000000000000e+00

0.000000000000000e+00 0.000000000000000e+00 0.000000000000000e+00
0.000000000000000e+00 0.000000000000000e+00 0.000000000000000e+00
0.000000000000000e+00 0.000000000000000e+00 0.000000000000000e+00

0.000000000000000e+00 0.000000000000000e+00 0.000000000000000e+00
0.000000000000000e+00 0.000000000000000e+00 0.000000000000000e+00
0.000000000000000e+00 0.000000000000000e+00 0.000000000000000e+00

0.000000000000000e+00 0.000000000000000e+00 0.000000000000000e+00
0.000000000000000e+00 0.000000000000000e+00 0.000000000000000e+00
0.000000000000000e+00 0.000000000000000e+00 0.000000000000000e+00

0.000000000000000e+00 0.000000000000000e+00 0.000000000000000e+00
0.000000000000000e+00 0.000000000000000e+00 0.000000000000000e+00
0.000000000000000e+00 0.000000000000000e+00 0.000000000000000e+00

0.000000000000000e+00 0.000000000000000e+00 0.000000000000000e+00
0.000000000000000e+00 0.000000000000000e+00 0.000000000000000e+00
0.000000000000000e+00 0.000000000000000e+00 0.000000000000000e+00

0.000000000000000e+00 0.000000000000000e+00 0.000000000000000e+00
0.000000000000000e+00 0.000000000000000e+00 0.000000000000000e+00
0.000000000000000e+00 0.000000000000000e+00 0.000000000000000e+00

0.000000000000000e+00 0.000000000000000e+00 0.000000000000000e+00
0.000000000000000e+00 0.000000000000000e+00 0.000000000000000e+00
0.000000000000000e+00 0.000000000000000e+00 0.000000000000000e+00

0.000000000000000e+00 0.000000000000000e+00 0.000000000000000e+00
0.000000000000000e+00 0.000000000000000e+00 0.000000000000000e+00
0.000000000000000e+00 0.000000000000000e+00 0.000000000000000e+00

0.000000000000000e+00 0.000000000000000e+00 0.000000000000000e+00
0.000000000000000e+00 0.000000000000000e+00 0.000000000000000e+00
0.000000000000000e+00 0.000000000000000e+00 0.000000000000000e+00

0.000000000000000e+00 0.000000000000000e+00 0.000000000000000e+00
0.000000000000000e+00 0.000000000000000e+00 0.000000000000000e+00
0.000000000000000e+00 0.000000000000000e+00 0.000000000000000e+00

0.000000000000000e+00 0.000000000000000e+00 0.000000000000000e+00
0.000000000000000e+00 0.000000000000000e+00 0.000000000000000e+00
0.000000000000000e+00 0.000000000000000e+00 0.000000000000000e+00

0.000000000000000e+00 0.000000000000000e+00 0.000000000000000e+00
0.000000000000000e+00 0.000000000000000e+00 0.000000000000000e+00
0.000000000000000e+00 0.000000000000000e+00 0.000000000000000e+00

0.000000000000000e+00 0.000000000000000e+00 0.000000000000000e+00
0.000000000000000e+00 0.000000000000000e+00 0.000000000000000e+00
0.000000000000000e+00 0.000000000000000e+00 0.000000000000000e+00

0.000000000000000e+00 0.000000000000000e+00 0.000000000000000e+00
0.000000000000000e+00 0.000000000000000e+00 0.000000000000000e+00
0.000000000000000e+00 0.000000000000000e+00 0.000000000000000e+00

0.000000000000000e+00 0.000000000000000e+00 0.000000000000000e+00
0.000000000000000e+00 0.000000000000000e+00 0.000000000000000e+00
0.000000000000000e+00 0.000000000000000e+00 0.000000000000000e+00

0.000000000000000e+00 0.000000000000000e+00 0.000000000000000e+00
0.000000000000000e+00 0.000000000000000e+00 0.000000000000000e+00
0.000000000000000e+00 0.000000000000000e+00 0.000000000000000e+00

0.000000000000000e+00 0.000000000000000e+00 0.000000000000000e+00
0.000000000000000e+00 0.000000000000000e+00 0.000000000000000e+00
0.000000000000000e+00 0.000000000000000e+00 0.000000000000000e+00

0.000000000000000e+00 0.000000000000000e+00 0.000000000000000e+00
0.000000000000000e+00 0.000000000000000e+00 0.000000000000000e+00
0.000000000000000e+00 0.000000000000000e+00 0.000000000000000e+00

0.000000000000000e+00 0.000000000000000e+00 0.000000000000000e+00
0.000000000000000e+00 0.000000000000000e+00 0.000000000000000e+00
0.000000000000000e+00 0.000000000000000e+00 0.000000000000000e+00

0.000000000000000e+00 0.000000000000000e+00 0.000000000000000e+00
0.000000000000000e+00 0.000000000000000e+00 0.000000000000000e+00
0.000000000000000e+00 0.000000000000000e+00 0.000000000000000e+00

0.000000000000000e+00 0.000000000000000e+00 0.000000000000000e+00
0.000000000000000e+00 0.000000000000000e+00 0.000000000000000e+00
0.000000000000000e+00 0.000000000000000e+00 0.000000000000000e+00

0.000000000000000e+00 0.000000000000000e+00 0.000000000000000e+00
0.000000000000000e+00 0.000000000000000e+00 0.000000000000000e+00
0.000000000000000e+00 0.000000000000000e+00 0.000000000000000e+00

0.000000000000000e+00 0.000000000000000e+00 0.000000000000000e+00
0.000000000000000e+00 0.000000000000000e+00 0.000000000000000e+00
0.000000000000000e+00 0.000000000000000e+00 0.000000000000000e+00

0.000000000000000e+00 0.000000000000000e+00 0.000000000000000e+00
0.000000000000000e+00 0.000000000000000e+00 0.000000000000000e+00
0.000000000000000e+00 0.000000000000000e+00 0.000000000000000e+00

0.000000000000000e+00 0.000000000000000e+00 0.000000000000000e+00
0.000000000000000e+00 0.000000000000000e+00 0.000000000000000e+00
0.000000000000000e+00 0.000000000000000e+00 0.000000000000000e+00

0.000000000000000e+00 0.000000000000000e+00 0.000000000000000e+00
0.000000000000000e+00 0.000000000000000e+00 0.000000000000000e+00
0.000000000000000e+00 0.000000000000000e+00 0.000000000000000e+00

0.000000000000000e+00 0.000000000000000e+00 0.000000000000000e+00
0.000000000000000e+00 0.000000000000000e+00 0.000000000000000e+00
0.000000000000000e+00 0.000000000000000e+00 0.000000000000000e+00

0.000000000000000e+00 0.000000000000000e+00 0.000000000000000e+00
0.000000000000000e+00 0.000000000000000e+00 0.000000000000000e+00
0.000000000000000e+00 0.000000000000000e+00 0.000000000000000e+00

0.000000000000000e+00 0.000000000000000e+00 0.000000000000000e+00
0.000000000000000e+00 0.000000000000000e+00 0.000000000000000e+00
0.000000000000000e+00 0.000000000000000e+00 0.000000000000000e+00

0.000000000000000e+00 0.000000000000000e+00 0.000000000000000e+00
0.000000000000000e+00 0.000000000000000e+00 0.000000000000000e+00
0.000000000000000e+00 0.000000000000000e+00 0.000000000000000e+00

0.000000000000000e+00 0.000000000000000e+00 0.000000000000000e+00
0.000000000000000e+00 0.000000000000000e+00 0.000000000000000e+00
0.000000000000000e+00 0.000000000000000e+00 0.000000000000000e+00

0.000000000000000e+00 0.000000000000000e+00 0.000000000000000e+00
0.000000000000000e+00 0.000000000000000e+00 0.000000000000000e+00
0.000000000000000e+00 0.000000000000000e+00 0.000000000000000e+00

0.000000000000000e+00 0.000000000000000e+00 0.000000000000000e+00
0.000000000000000e+00 0.000000000000000e+00 0.000000000000000e+00
0.000000000000000e+00 0.000000000000000e+00 0.000000000000000e+00

0.000000000000000e+00 0.000000000000000e+00 0.000000000000000e+00
0.000000000000000e+00 0.000000000000000e+00 0.000000000000000e+00
0.000000000000000e+00 0.000000000000000e+00 0.000000000000000e+00

0.000000000000000e+00 0.000000000000000e+00 0.000000000000000e+00
0.000000000000000e+00 0.000000000000000e+00 0.000000000000000e+00
0.000000000000000e+00 0.000000000000000e+00 0.000000000000000e+00

0.000000000000000e+00 0.000000000000000e+00 0.000000000000000e+00
0.000000000000000e+00 0.000000000000000e+00 0.000000000000000e+00
0.000000000000000e+00 0.000000000000000e+00 0.000000000000000e+00

0.000000000000000e+00 0.000000000000000e+00 0.000000000000000e+00
0.000000000000000e+00 0.000000000000000e+00 0.000000000000000e+00
0.000000000000000e+00 0.000000000000000e+00 0.000000000000000e+00

0.000000000000000e+00 0.000000000000000e+00 0.000000000000000e+00
0.000000000000000e+00 0.000000000000000e+00 0.000000000000000e+00
0.000000000000000e+00 0.000000000000000e+00 0.000000000000000e+00

0.000000000000000e+00 0.000000000000000e+00 0.000000000000000e+00
0.000000000000000e+00 0.000000000000000e+00 0.000000000000000e+00
0.000000000000000e+00 0.000000000000000e+00 0.000000000000000e+00

0.000000000000000e+00 0.000000000000000e+00 0.000000000000000e+00
0.000000000000000e+00 0.000000000000000e+00 0.000000000000000e+00
0.000000000000000e+00 0.000000000000000e+00 0.000000000000000e+00

0.000000000000000e+00 0.000000000000000e+00 0.000000000000000e+00
0.000000000000000e+00 0.000000000000000e+00 0.000000000000000e+00
0.000000000000000e+00 0.000000000000000e+00 0.000000000000000e+00

0.000000000000000e+00 0.000000000000000e+00 0.000000000000000e+00
0.000000000000000e+00 0.000000000000000e+00 0.000000000000000e+00
0.000000000000000e+00 0.000000000000000e+00 0.000000000000000e+00

0.000000000000000e+00 0.000000000000000e+00 0.000000000000000e+00
0.000000000000000e+00 0.000000000000000e+00 0.000000000000000e+00
0.000000000000000e+00 0.000000000000000e+00 0.000000000000000e+00

0.000000000000000e+00 0.000000000000000e+00 0.000000000000000e+00
0.000000000000000e+00 0.000000000000000e+00 0.000000000000000e+00
0.000000000000000e+00 0.000000000000000e+00 0.000000000000000e+00

0.000000000000000e+00 0.000000000000000e+00 0.000000000000000e+00
0.000000000000000e+00 0.000000000000000e+00 0.000000000000000e+00
0.000000000000000e+00 0.000000000000000e+00 0.000000000000000e+00

0.000000000000000e+00 0.000000000000000e+00 0.000000000000000e+00
0.000000000000000e+00 0.000000000000000e+00 0.000000000000000e+00
0.000000000000000e+00 0.000000000000000e+00 0.000000000000000e+00

0.000000000000000e+00 0.000000000000000e+00 0.000000000000000e+00
0.000000000000000e+00 0.000000000000000e+00 0.000000000000000e+00
0.000000000000000e+00 0.000000000000000e+00 0.000000000000000e+00

0.000000000000000e+00 0.000000000000000e+00 0.000000000000000e+00
0.000000000000000e+00 0.000000000000000e+00 0.000000000000000e+00
0.000000000000000e+00 0.000000000000000e+00 0.000000000000000e+00

0.000000000000000e+00 0.000000000000000e+00 0.000000000000000e+00
0.000000000000000e+00 0.000000000000000e+00 0.000000000000000e+00
0.000000000000000e+00 0.000000000000000e+00 0.000000000000000e+00

0.000000000000000e+00 0.000000000000000e+00 0.000000000000000e+00
0.000000000000000e+00 0.000000000000000e+00 0.000000000000000e+00
0.000000000000000e+00 0.000000000000000e+00 0.000000000000000e+00

0.000000000000000e+00 0.000000000000000e+00 0.000000000000000e+00
0.000000000000000e+00 0.000000000000000e+00 0.000000000000000e+00
0.000000000000000e+00 0.000000000000000e+00 0.000000000000000e+00

0.000000000000000e+00 0.000000000000000e+00 0.000000000000000e+00
0.000000000000000e+00 0.000000000000000e+00 0.000000000000000e+00
0.000000000000000e+00 0.000000000000000e+00 0.000000000000000e+00

0.000000000000000e+00 0.000000000000000e+00 0.000000000000000e+00
0.000000000000000e+00 0.000000000000000e+00 0.000000000000000e+00
0.000000000000000e+00 0.000000000000000e+00 0.000000000000000e+00

0.000000000000000e+00 0.000000000000000e+00 0.000000000000000e+00
0.000000000000000e+00 0.000000000000000e+00 0.000000000000000e+00
0.000000000000000e+00 0.000000000000000e+00 0.000000000000000e+00

0.000000000000000e+00 0.000000000000000e+00 0.000000000000000e+00
0.000000000000000e+00 0.000000000000000e+00 0.000000000000000e+00
0.000000000000000e+00 0.000000000000000e+00 0.000000000000000e+00

0.000000000000000e+00 0.000000000000000e+00 0.000000000000000e+00
0.000000000000000e+00 0.000000000000000e+00 0.000000000000000e+00
0.000000000000000e+00 0.000000000000000e+00 0.000000000000000e+00

0.000000000000000e+00 0.000000000000000e+00 0.000000000000000e+00
0.000000000000000e+00 0.000000000000000e+00 0.000000000000000e+00
0.000000000000000e+00 0.000000000000000e+00 0.000000000000000e+00

0.000000000000000e+00 0.000000000000000e+00 0.000000000000000e+00
0.000000000000000e+00 0.000000000000000e+00 0.000000000000000e+00
0.000000000000000e+00 0.000000000000000e+00 0.000000000000000e+00

0.000000000000000e+00 0.000000000000000e+00 0.000000000000000e+00
0.000000000000000e+00 0.000000000000000e+00 0.000000000000000e+00
0.000000000000000e+00 0.000000000000000e+00 0.000000000000000e+00

0.000000000000000e+00 0.000000000000000e+00 0.000000000000000e+00
0.000000000000000e+00 0.000000000000000e+00 0.000000000000000e+00
0.000000000000000e+00 0.000000000000000e+00 0.000000000000000e+00

0.000000000000000e+00 0.000000000000000e+00 0.000000000000000e+00
0.000000000000000e+00 0.000000000000000e+00 0.000000000000000e+00
0.000000000000000e+00 0.000000000000000e+00 0.000000000000000e+00

0.000000000000000e+00 0.000000000000000e+00 0.000000000000000e+00
0.000000000000000e+00 0.000000000000000e+00 0.000000000000000e+00
0.000000000000000e+00 0.000000000000000e+00 0.000000000000000e+00

0.000000000000000e+00 0.000000000000000e+00 0.000000000000000e+00
0.000000000000000e+00 0.000000000000000e+00 0.000000000000000e+00
0.000000000000000e+00 0.000000000000000e+00 0.000000000000000e+00

0.000000000000000e+00 0.000000000000000e+00 0.000000000000000e+00
0.000000000000000e+00 0.000000000000000e+00 0.000000000000000e+00
0.000000000000000e+00 0.000000000000000e+00 0.000000000000000e+00

0.000000000000000e+00 0.000000000000000e+00 0.000000000000000e+00
0.000000000000000e+00 0.000000000000000e+00 0.000000000000000e+00
0.000000000000000e+00 0.000000000000000e+00 0.000000000000000e+00

0.000000000000000e+00 0.000000000000000e+00 0.000000000000000e+00
0.000000000000000e+00 0.000000000000000e+00 0.000000000000000e+00
0.000000000000000e+00 0.000000000000000e+00 0.000000000000000e+00

0.000000000000000e+00 0.000000000000000e+00 0.000000000000000e+00
0.000000000000000e+00 0.000000000000000e+00 0.000000000000000e+00
0.000000000000000e+00 0.000000000000000e+00 0.000000000000000e+00

0.000000000000000e+00 0.000000000000000e+00 0.000000000000000e+00
0.000000000000000e+00 0.000000000000000e+00 0.000000000000000e+00
0.000000000000000e+00 0.000000000000000e+00 0.000000000000000e+00

0.000000000000000e+00 0.000000000000000e+00 0.000000000000000e+00
0.000000000000000e+00 0.000000000000000e+00 0.000000000000000e+00
0.000000000000000e+00 0.000000000000000e+00 0.000000000000000e+00

0.000000000000000e+00 0.000000000000000e+00 0.000000000000000e+00
0.000000000000000e+00 0.000000000000000e+00 0.000000000000000e+00
0.000000000000000e+00 0.000000000000000e+00 0.000000000000000e+00

0.000000000000000e+00 0.000000000000000e+00 0.000000000000000e+00
0.000000000000000e+00 0.000000000000000e+00 0.000000000000000e+00
0.000000000000000e+00 0.000000000000000e+00 0.000000000000000e+00

0.000000000000000e+00 0.000000000000000e+00 0.000000000000000e+00
0.000000000000000e+00 0.000000000000000e+00 0.000000000000000e+00
0.000000000000000e+00 0.000000000000000e+00 0.000000000000000e+00

0.000000000000000e+00 0.000000000000000e+00 0.000000000000000e+00
0.000000000000000e+00 0.000000000000000e+00 0.000000000000000e+00
0.000000000000000e+00 0.000000000000000e+00 0.000000000000000e+00

0.000000000000000e+00 0.000000000000000e+00 0.000000000000000e+00
0.000000000000000e+00 0.000000000000000e+00 0.000000000000000e+00
0.000000000000000e+00 0.000000000000000e+00 0.000000000000000e+00

0.000000000000000e+00 0.000000000000000e+00 0.000000000000000e+00
0.000000000000000e+00 0.000000000000000e+00 0.000000000000000e+00
0.000000000000000e+00 0.000000000000000e+00 0.000000000000000e+00

0.000000000000000e+00 0.000000000000000e+00 0.000000000000000e+00
0.000000000000000e+00 0.000000000000000e+00 0.000000000000000e+00
0.000000000000000e+00 0.000000000000000e+00 0.000000000000000e+00

0.000000000000000e+00 0.000000000000000e+00 0.000000000000000e+00
0.000000000000000e+00 0.000000000000000e+00 0.000000000000000e+00
0.000000000000000e+00 0.000000000000000e+00 0.000000000000000e+00

0.000000000000000e+00 0.000000000000000e+00 0.000000000000000e+00
0.000000000000000e+00 0.000000000000000e+00 0.000000000000000e+00
0.000000000000000e+00 0.000000000000000e+00 0.000000000000000e+00

0.000000000000000e+00 0.000000000000000e+00 0.000000000000000e+00
0.000000000000000e+00 0.000000000000000e+00 0.000000000000000e+00
0.000000000000000e+00 0.000000000000000e+00 0.000000000000000e+00

0.000000000000000e+00 0.000000000000000e+00 0.000000000000000e+00
0.000000000000000e+00 0.000000000000000e+00 0.000000000000000e+00
0.000000000000000e+00 0.000000000000000e+00 0.000000000000000e+00

0.000000000000000e+00 0.000000000000000e+00 0.000000000000000e+00
0.000000000000000e+00 0.000000000000000e+00 0.000000000000000e+00
0.000000000000000e+00 0.000000000000000e+00 0.000000000000000e+00

0.000000000000000e+00 0.000000000000000e+00 0.000000000000000e+00
0.000000000000000e+00 0.000000000000000e+00 0.000000000000000e+00
0.000000000000000e+00 0.000000000000000e+00 0.000000000000000e+00

0.000000000000000e+00 0.000000000000000e+00 0.000000000000000e+00
0.000000000000000e+00 0.000000000000000e+00 0.000000000000000e+00
0.000000000000000e+00 0.000000000000000e+00 0.000000000000000e+00

0.000000000000000e+00 0.000000000000000e+00 0.000000000000000e+00
0.000000000000000e+00 0.000000000000000e+00 0.000000000000000e+00
0.000000000000000e+00 0.000000000000000e+00 0.000000000000000e+00

0.000000000000000e+00 0.000000000000000e+00 0.000000000000000e+00
0.000000000000000e+00 0.000000000000000e+00 0.000000000000000e+00
0.000000000000000e+00 0.000000000000000e+00 0.000000000000000e+00

0.000000000000000e+00 0.000000000000000e+00 0.000000000000000e+00
0.000000000000000e+00 0.000000000000000e+00 0.000000000000000e+00
0.000000000000000e+00 0.000000000000000e+00 0.000000000000000e+00

0.000000000000000e+00 0.000000000000000e+00 0.000000000000000e+00
0.000000000000000e+00 0.000000000000000e+00 0.000000000000000e+00
0.000000000000000e+00 0.000000000000000e+00 0.000000000000000e+00

0.000000000000000e+00 0.000000000000000e+00 0.000000000000000e+00
0.000000000000000e+00 0.000000000000000e+00 0.000000000000000e+00
0.000000000000000e+00 0.000000000000000e+00 0.000000000000000e+00

0.000000000000000e+00 0.000000000000000e+00 0.000000000000000e+00
0.000000000000000e+00 0.000000000000000e+00 0.000000000000000e+00
0.000000000000000e+00 0.000000000000000e+00 0.000000000000000e+00

0.000000000000000e+00 0.000000000000000e+00 0.000000000000000e+00
0.000000000000000e+00 0.000000000000000e+00 0.000000000000000e+00
0.000000000000000e+00 0.000000000000000e+00 0.000000000000000e+00

0.000000000000000e+00 0.000000000000000e+00 0.000000000000000e+00
0.000000000000000e+00 0.000000000000000e+00 0.000000000000000e+00
0.000000000000000e+00 0.000000000000000e+00 0.000000000000000e+00

0.000000000000000e+00 0.000000000000000e+00 0.000000000000000e+00
0.000000000000000e+00 0.000000000000000e+00 0.000000000000000e+00
0.000000000000000e+00 0.000000000000000e+00 0.000000000000000e+00

0.000000000000000e+00 0.000000000000000e+00 0.000000000000000e+00
0.000000000000000e+00 0.000000000000000e+00 0.000000000000000e+00
0.000000000000000e+00 0.000000000000000e+00 0.000000000000000e+00

0.000000000000000e+00 0.000000000000000e+00 0.000000000000000e+00
0.000000000000000e+00 0.000000000000000e+00 0.000000000000000e+00
0.000000000000000e+00 0.000000000000000e+00 0.000000000000000e+00

0.000000000000000e+00 0.000000000000000e+00 0.000000000000000e+00
0.000000000000000e+00 0.000000000000000e+00 0.000000000000000e+00
0.000000000000000e+00 0.000000000000000e+00 0.000000000000000e+00

0.000000000000000e+00 0.000000000000000e+00 0.000000000000000e+00
0.000000000000000e+00 0.000000000000000e+00 0.000000000000000e+00
0.000000000000000e+00 0.000000000000000e+00 0.000000000000000e+00

0.000000000000000e+00 0.000000000000000e+00 0.000000000000000e+00
0.000000000000000e+00 0.000000000000000e+00 0.000000000000000e+00
0.000000000000000e+00 0.000000000000000e+00 0.000000000000000e+00

0.000000000000000e+00 0.000000000000000e+00 0.000000000000000e+00
0.000000000000000e+00 0.000000000000000e+00 0.000000000000000e+00
0.000000000000000e+00 0.000000000000000e+00 0.000000000000000e+00

0.000000000000000e+00 0.000000000000000e+00 0.000000000000000e+00
0.000000000000000e+00 0.000000000000000e+00 0.000000000000000e+00
0.000000000000000e+00 0.000000000000000e+00 0.000000000000000e+00

0.000000000000000e+00 0.000000000000000e+00 0.000000000000000e+00
0.000000000000000e+00 0.000000000000000e+00 0.000000000000000e+00
0.000000000000000e+00 0.000000000000000e+00 0.000000000000000e+00

0.000000000000000e+00 0.000000000000000e+00 0.000000000000000e+00
0.000000000000000e+00 0.000000000000000e+00 0.000000000000000e+00
0.000000000000000e+00 0.000000000000000e+00 0.000000000000000e+00

0.000000000000000e+00 0.000000000000000e+00 0.000000000000000e+00
0.000000000000000e+00 0.000000000000000e+00 0.000000000000000e+00
0.000000000000000e+00 0.000000000000000e+00 0.000000000000000e+00

0.000000000000000e+00 0.000000000000000e+00 0.000000000000000e+00
0.000000000000000e+00 0.000000000000000e+00 0.000000000000000e+00
0.000000000000000e+00 0.000000000000000e+00 0.000000000000000e+00

0.000000000000000e+00 0.000000000000000e+00 0.000000000000000e+00
0.000000000000000e+00 0.000000000000000e+00 0.000000000000000e+00
0.000000000000000e+00 0.000000000000000e+00 0.000000000000000e+00

0.000000000000000e+00 0.000000000000000e+00 0.000000000000000e+00
0.000000000000000e+00 0.000000000000000e+00 0.000000000000000e+00
0.000000000000000e+00 0.000000000000000e+00 0.000000000000000e+00

0.000000000000000e+00 0.000000000000000e+00 0.000000000000000e+00
0.000000000000000e+00 0.000000000000000e+00 0.000000000000000e+00
0.000000000000000e+00 0.000000000000000e+00 0.000000000000000e+00

0.000000000000000e+00 0.000000000000000e+00 0.000000000000000e+00
0.000000000000000e+00 0.000000000000000e+00 0.000000000000000e+00
0.000000000000000e+00 0.000000000000000e+00 0.000000000000000e+00

0.000000000000000e+00 0.000000000000000e+00 0.000000000000000e+00
0.000000000000000e+00 0.000000000000000e+00 0.000000000000000e+00
0.000000000000000e+00 0.000000000000000e+00 0.000000000000000e+00

0.000000000000000e+00 0.000000000000000e+00 0.000000000000000e+00
0.000000000000000e+00 0.000000000000000e+00 0.000000000000000e+00
0.000000000000000e+00 0.000000000000000e+00 0.000000000000000e+00

0.000000000000000e+00 0.000000000000000e+00 0.000000000000000e+00
0.000000000000000e+00 0.000000000000000e+00 0.000000000000000e+00
0.000000000000000e+00 0.000000000000000e+00 0.000000000000000e+00

0.000000000000000e+00 0.000000000000000e+00 0.000000000000000e+00
0.000000000000000e+00 0.000000000000000e+00 0.000000000000000e+00
0.000000000000000e+00 0.000000000000000e+00 0.000000000000000e+00

0.000000000000000e+00 0.000000000000000e+00 0.000000000000000e+00
0.000000000000000e+00 0.000000000000000e+00 0.000000000000000e+00
0.000000000000000e+00 0.000000000000000e+00 0.000000000000000e+00

0.000000000000000e+00 0.000000000000000e+00 0.000000000000000e+00
0.000000000000000e+00 0.000000000000000e+00 0.000000000000000e+00
0.000000000000000e+00 0.000000000000000e+00 0.000000000000000e+00

0.000000000000000e+00 0.000000000000000e+00 0.000000000000000e+00
0.000000000000000e+00 0.000000000000000e+00 0.000000000000000e+00
0.000000000000000e+00 0.000000000000000e+00 0.000000000000000e+00

0.000000000000000e+00 0.000000000000000e+00 0.000000000000000e+00
0.000000000000000e+00 0.000000000000000e+00 0.000000000000000e+00
0.000000000000000e+00 0.000000000000000e+00 0.000000000000000e+00

0.000000000000000e+00 0.000000000000000e+00 0.000000000000000e+00
0.000000000000000e+00 0.000000000000000e+00 0.000000000000000e+00
0.000000000000000e+00 0.000000000000000e+00 0.000000000000000e+00

0.000000000000000e+00 0.000000000000000e+00 0.000000000000000e+00
0.000000000000000e+00 0.000000000000000e+00 0.000000000000000e+00
0.000000000000000e+00 0.000000000000000e+00 0.000000000000000e+00

0.000000000000000e+00 0.000000000000000e+00 0.000000000000000e+00
0.000000000000000e+00 0.000000000000000e+00 0.000000000000000e+00
0.000000000000000e+00 0.000000000000000e+00 0.000000000000000e+00

0.000000000000000e+00 0.000000000000000e+00 0.000000000000000e+00
0.000000000000000e+00 0.000000000000000e+00 0.000000000000000e+00
0.000000000000000e+00 0.000000000000000e+00 0.000000000000000e+00

0.000000000000000e+00 0.000000000000000e+00 0.000000000000000e+00
0.000000000000000e+00 0.000000000000000e+00 0.000000000000000e+00
0.000000000000000e+00 0.000000000000000e+00 0.000000000000000e+00

0.000000000000000e+00 0.000000000000000e+00 0.000000000000000e+00
0.000000000000000e+00 0.000000000000000e+00 0.000000000000000e+00
0.000000000000000e+00 0.000000000000000e+00 0.000000000000000e+00

0.000000000000000e+00 0.000000000000000e+00 0.000000000000000e+00
0.000000000000000e+00 0.000000000000000e+00 0.000000000000000e+00
0.000000000000000e+00 0.000000000000000e+00 0.000000000000000e+00

0.000000000000000e+00 0.000000000000000e+00 0.000000000000000e+00
0.000000000000000e+00 0.000000000000000e+00 0.000000000000000e+00
0.000000000000000e+00 0.000000000000000e+00 0.000000000000000e+00

0.000000000000000e+00 0.000000000000000e+00 0.000000000000000e+00
0.000000000000000e+00 0.000000000000000e+00 0.000000000000000e+00
0.000000000000000e+00 0.000000000000000e+00 0.000000000000000e+00

0.000000000000000e+00 0.000000000000000e+00 0.000000000000000e+00
0.000000000000000e+00 0.000000000000000e+00 0.000000000000000e+00
0.000000000000000e+00 0.000000000000000e+00 0.000000000000000e+00

0.000000000000000e+00 0.000000000000000e+00 0.000000000000000e+00
0.000000000000000e+00 0.000000000000000e+00 0.000000000000000e+00
0.000000000000000e+00 0.000000000000000e+00 0.000000000000000e+00

0.000000000000000e+00 0.000000000000000e+00 0.000000000000000e+00
0.000000000000000e+00 0.000000000000000e+00 0.000000000000000e+00
0.000000000000000e+00 0.000000000000000e+00 0.000000000000000e+00

0.000000000000000e+00 0.000000000000000e+00 0.000000000000000e+00
0.000000000000000e+00 0.000000000000000e+00 0.000000000000000e+00
0.000000000000000e+00 0.000000000000000e+00 0.000000000000000e+00

0.000000000000000e+00 0.000000000000000e+00 0.000000000000000e+00
0.000000000000000e+00 0.000000000000000e+00 0.000000000000000e+00
0.000000000000000e+00 0.000000000000000e+00 0.000000000000000e+00

0.000000000000000e+00 0.000000000000000e+00 0.000000000000000e+00
0.000000000000000e+00 0.000000000000000e+00 0.000000000000000e+00
0.000000000000000e+00 0.000000000000000e+00 0.000000000000000e+00

0.000000000000000e+00 0.000000000000000e+00 0.000000000000000e+00
0.000000000000000e+00 0.000000000000000e+00 0.000000000000000e+00
0.000000000000000e+00 0.000000000000000e+00 0.000000000000000e+00

0.000000000000000e+00 0.000000000000000e+00 0.000000000000000e+00
0.000000000000000e+00 0.000000000000000e+00 0.000000000000000e+00
0.000000000000000e+00 0.000000000000000e+00 0.000000000000000e+00

0.000000000000000e+00 0.000000000000000e+00 0.000000000000000e+00
0.000000000000000e+00 0.000000000000000e+00 0.000000000000000e+00
0.000000000000000e+00 0.000000000000000e+00 0.000000000000000e+00

0.000000000000000e+00 0.000000000000000e+00 0.000000000000000e+00
0.000000000000000e+00 0.000000000000000e+00 0.000000000000000e+00
0.000000000000000e+00 0.000000000000000e+00 0.000000000000000e+00

0.000000000000000e+00 0.000000000000000e+00 0.000000000000000e+00
0.000000000000000e+00 0.000000000000000e+00 0.000000000000000e+00
0.000000000000000e+00 0.000000000000000e+00 0.000000000000000e+00

0.000000000000000e+00 0.000000000000000e+00 0.000000000000000e+00
0.000000000000000e+00 0.000000000000000e+00 0.000000000000000e+00
0.000000000000000e+00 0.000000000000000e+00 0.000000000000000e+00

0.000000000000000e+00 0.000000000000000e+00 0.000000000000000e+00
0.000000000000000e+00 0.000000000000000e+00 0.000000000000000e+00
0.000000000000000e+00 0.000000000000000e+00 0.000000000000000e+00

0.000000000000000e+00 0.000000000000000e+00 0.000000000000000e+00
0.000000000000000e+00 0.000000000000000e+00 0.000000000000000e+00
0.000000000000000e+00 0.000000000000000e+00 0.000000000000000e+00

0.000000000000000e+00 0.000000000000000e+00 0.000000000000000e+00
0.000000000000000e+00 0.000000000000000e+00 0.000000000000000e+00
0.000000000000000e+00 0.000000000000000e+00 0.000000000000000e+00

0.000000000000000e+00 0.000000000000000e+00 0.000000000000000e+00
0.000000000000000e+00 0.000000000000000e+00 0.000000000000000e+00
0.000000000000000e+00 0.000000000000000e+00 0.000000000000000e+00

0.000000000000000e+00 0.000000000000000e+00 0.000000000000000e+00
0.000000000000000e+00 0.000000000000000e+00 0.000000000000000e+00
0.000000000000000e+00 0.000000000000000e+00 0.000000000000000e+00

0.000000000000000e+00 0.000000000000000e+00 0.000000000000000e+00
0.000000000000000e+00 0.000000000000000e+00 0.000000000000000e+00
0.000000000000000e+00 0.000000000000000e+00 0.000000000000000e+00

0.000000000000000e+00 0.000000000000000e+00 0.000000000000000e+00
0.000000000000000e+00 0.000000000000000e+00 0.000000000000000e+00
0.000000000000000e+00 0.000000000000000e+00 0.000000000000000e+00

0.000000000000000e+00 0.000000000000000e+00 0.000000000000000e+00
0.000000000000000e+00 0.000000000000000e+00 0.000000000000000e+00
0.000000000000000e+00 0.000000000000000e+00 0.000000000000000e+00

0.000000000000000e+00 0.000000000000000e+00 0.000000000000000e+00
0.000000000000000e+00 0.000000000000000e+00 0.000000000000000e+00
0.000000000000000e+00 0.000000000000000e+00 0.000000000000000e+00

0.000000000000000e+00 0.000000000000000e+00 0.000000000000000e+00
0.000000000000000e+00 0.000000000000000e+00 0.000000000000000e+00
0.000000000000000e+00 0.000000000000000e+00 0.000000000000000e+00

0.000000000000000e+00 0.000000000000000e+00 0.000000000000000e+00
0.000000000000000e+00 0.000000000000000e+00 0.000000000000000e+00
0.000000000000000e+00 0.000000000000000e+00 0.000000000000000e+00

0.000000000000000e+00 0.000000000000000e+00 0.000000000000000e+00
0.000000000000000e+00 0.000000000000000e+00 0.000000000000000e+00
0.000000000000000e+00 0.000000000000000e+00 0.000000000000000e+00

0.000000000000000e+00 0.000000000000000e+00 0.000000000000000e+00
0.000000000000000e+00 0.000000000000000e+00 0.000000000000000e+00
0.000000000000000e+00 0.000000000000000e+00 0.000000000000000e+00

0.000000000000000e+00 0.000000000000000e+00 0.000000000000000e+00
0.000000000000000e+00 0.000000000000000e+00 0.000000000000000e+00
0.000000000000000e+00 0.000000000000000e+00 0.000000000000000e+00

0.000000000000000e+00 0.000000000000000e+00 0.000000000000000e+00
0.000000000000000e+00 0.000000000000000e+00 0.000000000000000e+00
0.000000000000000e+00 0.000000000000000e+00 0.000000000000000e+00

0.000000000000000e+00 0.000000000000000e+00 0.000000000000000e+00
0.000000000000000e+00 0.000000000000000e+00 0.000000000000000e+00
0.000000000000000e+00 0.000000000000000e+00 0.000000000000000e+00

0.000000000000000e+00 0.000000000000000e+00 0.000000000000000e+00
0.000000000000000e+00 0.000000000000000e+00 0.000000000000000e+00
0.000000000000000e+00 0.000000000000000e+00 0.000000000000000e+00

0.000000000000000e+00 0.000000000000000e+00 0.000000000000000e+00
0.000000000000000e+00 0.000000000000000e+00 0.000000000000000e+00
0.000000000000000e+00 0.000000000000000e+00 0.000000000000000e+00

0.000000000000000e+00 0.000000000000000e+00 0.000000000000000e+00
0.000000000000000e+00 0.000000000000000e+00 0.000000000000000e+00
0.000000000000000e+00 0.000000000000000e+00 0.000000000000000e+00

0.000000000000000e+00 0.000000000000000e+00 0.000000000000000e+00
0.000000000000000e+00 0.000000000000000e+00 0.000000000000000e+00
0.000000000000000e+00 0.000000000000000e+00 0.000000000000000e+00

0.000000000000000e+00 0.000000000000000e+00 0.000000000000000e+00
0.000000000000000e+00 0.000000000000000e+00 0.000000000000000e+00
0.000000000000000e+00 0.000000000000000e+00 0.000000000000000e+00

0.000000000000000e+00 0.000000000000000e+00 0.000000000000000e+00
0.000000000000000e+00 0.000000000000000e+00 0.000000000000000e+00
0.000000000000000e+00 0.000000000000000e+00 0.000000000000000e+00

0.000000000000000e+00 0.000000000000000e+00 0.000000000000000e+00
0.000000000000000e+00 0.000000000000000e+00 0.000000000000000e+00
0.000000000000000e+00 0.000000000000000e+00 0.000000000000000e+00

0.000000000000000e+00 0.000000000000000e+00 0.000000000000000e+00
0.000000000000000e+00 0.000000000000000e+00 0.000000000000000e+00
0.000000000000000e+00 0.000000000000000e+00 0.000000000000000e+00

0.000000000000000e+00 0.000000000000000e+00 0.000000000000000e+00
0.000000000000000e+00 0.000000000000000e+00 0.000000000000000e+00
0.000000000000000e+00 0.000000000000000e+00 0.000000000000000e+00

0.000000000000000e+00 0.000000000000000e+00 0.000000000000000e+00
0.000000000000000e+00 0.000000000000000e+00 0.000000000000000e+00
0.000000000000000e+00 0.000000000000000e+00 0.000000000000000e+00

0.000000000000000e+00 0.000000000000000e+00 0.000000000000000e+00
0.000000000000000e+00 0.000000000000000e+00 0.000000000000000e+00
0.000000000000000e+00 0.000000000000000e+00 0.000000000000000e+00

0.000000000000000e+00 0.000000000000000e+00 0.000000000000000e+00
0.000000000000000e+00 0.000000000000000e+00 0.000000000000000e+00
0.000000000000000e+00 0.000000000000000e+00 0.000000000000000e+00

0.000000000000000e+00 0.000000000000000e+00 0.000000000000000e+00
0.000000000000000e+00 0.000000000000000e+00 0.000000000000000e+00
0.000000000000000e+00 0.000000000000000e+00 0.000000000000000e+00

0.000000000000000e+00 0.000000000000000e+00 0.000000000000000e+00
0.000000000000000e+00 0.000000000000000e+00 0.000000000000000e+00
0.000000000000000e+00 0.000000000000000e+00 0.000000000000000e+00

0.000000000000000e+00 0.000000000000000e+00 0.000000000000000e+00
0.000000000000000e+00 0.000000000000000e+00 0.000000000000000e+00
0.000000000000000e+00 0.000000000000000e+00 0.000000000000000e+00

0.000000000000000e+00 0.000000000000000e+00 0.000000000000000e+00
0.000000000000000e+00 0.000000000000000e+00 0.000000000000000e+00
0.000000000000000e+00 0.000000000000000e+00 0.000000000000000e+00

0.000000000000000e+00 0.000000000000000e+00 0.000000000000000e+00
0.000000000000000e+00 0.000000000000000e+00 0.000000000000000e+00
0.000000000000000e+00 0.000000000000000e+00 0.000000000000000e+00

0.000000000000000e+00 0.000000000000000e+00 0.000000000000000e+00
0.000000000000000e+00 0.000000000000000e+00 0.000000000000000e+00
0.000000000000000e+00 0.000000000000000e+00 0.000000000000000e+00

0.000000000000000e+00 0.000000000000000e+00 0.000000000000000e+00
0.000000000000000e+00 0.000000000000000e+00 0.000000000000000e+00
0.000000000000000e+00 0.000000000000000e+00 0.000000000000000e+00

0.000000000000000e+00 0.000000000000000e+00 0.000000000000000e+00
0.000000000000000e+00 0.000000000000000e+00 0.000000000000000e+00
0.000000000000000e+00 0.000000000000000e+00 0.000000000000000e+00

0.000000000000000e+00 0.000000000000000e+00 0.000000000000000e+00
0.000000000000000e+00 0.000000000000000e+00 0.000000000000000e+00
0.000000000000000e+00 0.000000000000000e+00 0.000000000000000e+00

0.000000000000000e+00 0.000000000000000e+00 0.000000000000000e+00
0.000000000000000e+00 0.000000000000000e+00 0.000000000000000e+00
0.000000000000000e+00 0.000000000000000e+00 0.000000000000000e+00

0.000000000000000e+00 0.000000000000000e+00 0.000000000000000e+00
0.000000000000000e+00 0.000000000000000e+00 0.000000000000000e+00
0.000000000000000e+00 0.000000000000000e+00 0.000000000000000e+00

0.000000000000000e+00 0.000000000000000e+00 0.000000000000000e+00
0.000000000000000e+00 0.000000000000000e+00 0.000000000000000e+00
0.000000000000000e+00 0.000000000000000e+00 0.000000000000000e+00

0.000000000000000e+00 0.000000000000000e+00 0.000000000000000e+00
0.000000000000000e+00 0.000000000000000e+00 0.000000000000000e+00
0.000000000000000e+00 0.000000000000000e+00 0.000000000000000e+00

0.000000000000000e+00 0.000000000000000e+00 0.000000000000000e+00
0.000000000000000e+00 0.000000000000000e+00 0.000000000000000e+00
0.000000000000000e+00 0.000000000000000e+00 0.000000000000000e+00

0.000000000000000e+00 0.000000000000000e+00 0.000000000000000e+00
0.000000000000000e+00 0.000000000000000e+00 0.000000000000000e+00
0.000000000000000e+00 0.000000000000000e+00 0.000000000000000e+00

0.000000000000000e+00 0.000000000000000e+00 0.000000000000000e+00
0.000000000000000e+00 0.000000000000000e+00 0.000000000000000e+00
0.000000000000000e+00 0.000000000000000e+00 0.000000000000000e+00

0.000000000000000e+00 0.000000000000000e+00 0.000000000000000e+00
0.000000000000000e+00 0.000000000000000e+00 0.000000000000000e+00
0.000000000000000e+00 0.000000000000000e+00 0.000000000000000e+00

0.000000000000000e+00 0.000000000000000e+00 0.000000000000000e+00
0.000000000000000e+00 0.000000000000000e+00 0.000000000000000e+00
0.000000000000000e+00 0.000000000000000e+00 0.000000000000000e+00

0.000000000000000e+00 0.000000000000000e+00 0.000000000000000e+00
0.000000000000000e+00 0.000000000000000e+00 0.000000000000000e+00
0.000000000000000e+00 0.000000000000000e+00 0.000000000000000e+00

0.000000000000000e+00 0.000000000000000e+00 0.000000000000000e+00
0.000000000000000e+00 0.000000000000000e+00 0.000000000000000e+00
0.000000000000000e+00 0.000000000000000e+00 0.000000000000000e+00

0.000000000000000e+00 0.000000000000000e+00 0.000000000000000e+00
0.000000000000000e+00 0.000000000000000e+00 0.000000000000000e+00
0.000000000000000e+00 0.000000000000000e+00 0.000000000000000e+00

0.000000000000000e+00 0.000000000000000e+00 0.000000000000000e+00
0.000000000000000e+00 0.000000000000000e+00 0.000000000000000e+00
0.000000000000000e+00 0.000000000000000e+00 0.000000000000000e+00

0.000000000000000e+00 0.000000000000000e+00 0.000000000000000e+00
0.000000000000000e+00 0.000000000000000e+00 0.000000000000000e+00
0.000000000000000e+00 0.000000000000000e+00 0.000000000000000e+00

0.000000000000000e+00 0.000000000000000e+00 0.000000000000000e+00
0.000000000000000e+00 0.000000000000000e+00 0.000000000000000e+00
0.000000000000000e+00 0.000000000000000e+00 0.000000000000000e+00

0.000000000000000e+00 0.000000000000000e+00 0.000000000000000e+00
0.000000000000000e+00 0.000000000000000e+00 0.000000000000000e+00
0.000000000000000e+00 0.000000000000000e+00 0.000000000000000e+00

0.000000000000000e+00 0.000000000000000e+00 0.000000000000000e+00
0.000000000000000e+00 0.000000000000000e+00 0.000000000000000e+00
0.000000000000000e+00 0.000000000000000e+00 0.000000000000000e+00

0.000000000000000e+00 0.000000000000000e+00 0.000000000000000e+00
0.000000000000000e+00 0.000000000000000e+00 0.000000000000000e+00
0.000000000000000e+00 0.000000000000000e+00 0.000000000000000e+00

0.000000000000000e+00 0.000000000000000e+00 0.000000000000000e+00
0.000000000000000e+00 0.000000000000000e+00 0.000000000000000e+00
0.000000000000000e+00 0.000000000000000e+00 0.000000000000000e+00

0.000000000000000e+00 0.000000000000000e+00 0.000000000000000e+00
0.000000000000000e+00 0.000000000000000e+00 0.000000000000000e+00
0.000000000000000e+00 0.000000000000000e+00 0.000000000000000e+00

0.000000000000000e+00 0.000000000000000e+00 0.000000000000000e+00
0.000000000000000e+00 0.000000000000000e+00 0.000000000000000e+00
0.000000000000000e+00 0.000000000000000e+00 0.000000000000000e+00

0.000000000000000e+00 0.000000000000000e+00 0.000000000000000e+00
0.000000000000000e+00 0.000000000000000e+00 0.000000000000000e+00
0.000000000000000e+00 0.000000000000000e+00 0.000000000000000e+00

0.000000000000000e+00 0.000000000000000e+00 0.000000000000000e+00
0.000000000000000e+00 0.000000000000000e+00 0.000000000000000e+00
0.000000000000000e+00 0.000000000000000e+00 0.000000000000000e+00

0.000000000000000e+00 0.000000000000000e+00 0.000000000000000e+00
0.000000000000000e+00 0.000000000000000e+00 0.000000000000000e+00
0.000000000000000e+00 0.000000000000000e+00 0.000000000000000e+00

0.000000000000000e+00 0.000000000000000e+00 0.000000000000000e+00
0.000000000000000e+00 0.000000000000000e+00 0.000000000000000e+00
0.000000000000000e+00 0.000000000000000e+00 0.000000000000000e+00

0.000000000000000e+00 0.000000000000000e+00 0.000000000000000e+00
0.000000000000000e+00 0.000000000000000e+00 0.000000000000000e+00
0.000000000000000e+00 0.000000000000000e+00 0.000000000000000e+00

0.000000000000000e+00 0.000000000000000e+00 0.000000000000000e+00
0.000000000000000e+00 0.000000000000000e+00 0.000000000000000e+00
0.000000000000000e+00 0.000000000000000e+00 0.000000000000000e+00

0.000000000000000e+00 0.000000000000000e+00 0.000000000000000e+00
0.000000000000000e+00 0.000000000000000e+00 0.000000000000000e+00
0.000000000000000e+00 0.000000000000000e+00 0.000000000000000e+00

0.000000000000000e+00 0.000000000000000e+00 0.000000000000000e+00
0.000000000000000e+00 0.000000000000000e+00 0.000000000000000e+00
0.000000000000000e+00 0.000000000000000e+00 0.000000000000000e+00

0.000000000000000e+00 0.000000000000000e+00 0.000000000000000e+00
0.000000000000000e+00 0.000000000000000e+00 0.000000000000000e+00
0.000000000000000e+00 0.000000000000000e+00 0.000000000000000e+00

0.000000000000000e+00 0.000000000000000e+00 0.000000000000000e+00
0.000000000000000e+00 0.000000000000000e+00 0.000000000000000e+00
0.000000000000000e+00 0.000000000000000e+00 0.000000000000000e+00

0.000000000000000e+00 0.000000000000000e+00 0.000000000000000e+00
0.000000000000000e+00 0.000000000000000e+00 0.000000000000000e+00
0.000000000000000e+00 0.000000000000000e+00 0.000000000000000e+00

0.000000000000000e+00 0.000000000000000e+00 0.000000000000000e+00
0.000000000000000e+00 0.000000000000000e+00 0.000000000000000e+00
0.000000000000000e+00 0.000000000000000e+00 0.000000000000000e+00

0.000000000000000e+00 0.000000000000000e+00 0.000000000000000e+00
0.000000000000000e+00 0.000000000000000e+00 0.000000000000000e+00
0.000000000000000e+00 0.000000000000000e+00 0.000000000000000e+00

0.000000000000000e+00 0.000000000000000e+00 0.000000000000000e+00
0.000000000000000e+00 0.000000000000000e+00 0.000000000000000e+00
0.000000000000000e+00 0.000000000000000e+00 0.000000000000000e+00

0.000000000000000e+00 0.000000000000000e+00 0.000000000000000e+00
0.000000000000000e+00 0.000000000000000e+00 0.000000000000000e+00
0.000000000000000e+00 0.000000000000000e+00 0.000000000000000e+00

0.000000000000000e+00 0.000000000000000e+00 0.000000000000000e+00
0.000000000000000e+00 0.000000000000000e+00 0.000000000000000e+00
0.000000000000000e+00 0.000000000000000e+00 0.000000000000000e+00

0.000000000000000e+00 0.000000000000000e+00 0.000000000000000e+00
0.000000000000000e+00 0.000000000000000e+00 0.000000000000000e+00
0.000000000000000e+00 0.000000000000000e+00 0.000000000000000e+00

0.000000000000000e+00 0.000000000000000e+00 0.000000000000000e+00
0.000000000000000e+00 0.000000000000000e+00 0.000000000000000e+00
0.000000000000000e+00 0.000000000000000e+00 0.000000000000000e+00

0.000000000000000e+00 0.000000000000000e+00 0.000000000000000e+00
0.000000000000000e+00 0.000000000000000e+00 0.000000000000000e+00
0.000000000000000e+00 0.000000000000000e+00 0.000000000000000e+00

0.000000000000000e+00 0.000000000000000e+00 0.000000000000000e+00
0.000000000000000e+00 0.000000000000000e+00 0.000000000000000e+00
0.000000000000000e+00 0.000000000000000e+00 0.000000000000000e+00

0.000000000000000e+00 0.000000000000000e+00 0.000000000000000e+00
0.000000000000000e+00 0.000000000000000e+00 0.000000000000000e+00
0.000000000000000e+00 0.000000000000000e+00 0.000000000000000e+00

0.000000000000000e+00 0.000000000000000e+00 0.000000000000000e+00
0.000000000000000e+00 0.000000000000000e+00 0.000000000000000e+00
0.000000000000000e+00 0.000000000000000e+00 0.000000000000000e+00

0.000000000000000e+00 0.000000000000000e+00 0.000000000000000e+00
0.000000000000000e+00 0.000000000000000e+00 0.000000000000000e+00
0.000000000000000e+00 0.000000000000000e+00 0.000000000000000e+00

0.000000000000000e+00 0.000000000000000e+00 0.000000000000000e+00
0.000000000000000e+00 0.000000000000000e+00 0.000000000000000e+00
0.000000000000000e+00 0.000000000000000e+00 0.000000000000000e+00

0.000000000000000e+00 0.000000000000000e+00 0.000000000000000e+00
0.000000000000000e+00 0.000000000000000e+00 0.000000000000000e+00
0.000000000000000e+00 0.000000000000000e+00 0.000000000000000e+00

0.000000000000000e+00 0.000000000000000e+00 0.000000000000000e+00
0.000000000000000e+00 0.000000000000000e+00 0.000000000000000e+00
0.000000000000000e+00 0.000000000000000e+00 0.000000000000000e+00

0.000000000000000e+00 0.000000000000000e+00 0.000000000000000e+00
0.000000000000000e+00 0.000000000000000e+00 0.000000000000000e+00
0.000000000000000e+00 0.000000000000000e+00 0.000000000000000e+00

0.000000000000000e+00 0.000000000000000e+00 0.000000000000000e+00
0.000000000000000e+00 0.000000000000000e+00 0.000000000000000e+00
0.000000000000000e+00 0.000000000000000e+00 0.000000000000000e+00

0.000000000000000e+00 0.000000000000000e+00 0.000000000000000e+00
0.000000000000000e+00 0.000000000000000e+00 0.000000000000000e+00
0.000000000000000e+00 0.000000000000000e+00 0.000000000000000e+00

0.000000000000000e+00 0.000000000000000e+00 0.000000000000000e+00
0.000000000000000e+00 0.000000000000000e+00 0.000000000000000e+00
0.000000000000000e+00 0.000000000000000e+00 0.000000000000000e+00

0.000000000000000e+00 0.000000000000000e+00 0.000000000000000e+00
0.000000000000000e+00 0.000000000000000e+00 0.000000000000000e+00
0.000000000000000e+00 0.000000000000000e+00 0.000000000000000e+00

0.000000000000000e+00 0.000000000000000e+00 0.000000000000000e+00
0.000000000000000e+00 0.000000000000000e+00 0.000000000000000e+00
0.000000000000000e+00 0.000000000000000e+00 0.000000000000000e+00

0.000000000000000e+00 0.000000000000000e+00 0.000000000000000e+00
0.000000000000000e+00 0.000000000000000e+00 0.000000000000000e+00
0.000000000000000e+00 0.000000000000000e+00 0.000000000000000e+00

0.000000000000000e+00 0.000000000000000e+00 0.000000000000000e+00
0.000000000000000e+00 0.000000000000000e+00 0.000000000000000e+00
0.000000000000000e+00 0.000000000000000e+00 0.000000000000000e+00

0.000000000000000e+00 0.000000000000000e+00 0.000000000000000e+00
0.000000000000000e+00 0.000000000000000e+00 0.000000000000000e+00
0.000000000000000e+00 0.000000000000000e+00 0.000000000000000e+00

0.000000000000000e+00 0.000000000000000e+00 0.000000000000000e+00
0.000000000000000e+00 0.000000000000000e+00 0.000000000000000e+00
0.000000000000000e+00 0.000000000000000e+00 0.000000000000000e+00

0.000000000000000e+00 0.000000000000000e+00 0.000000000000000e+00
0.000000000000000e+00 0.000000000000000e+00 0.000000000000000e+00
0.000000000000000e+00 0.000000000000000e+00 0.000000000000000e+00

0.000000000000000e+00 0.000000000000000e+00 0.000000000000000e+00
0.000000000000000e+00 0.000000000000000e+00 0.000000000000000e+00
0.000000000000000e+00 0.000000000000000e+00 0.000000000000000e+00

0.000000000000000e+00 0.000000000000000e+00 0.000000000000000e+00
0.000000000000000e+00 0.000000000000000e+00 0.000000000000000e+00
0.000000000000000e+00 0.000000000000000e+00 0.000000000000000e+00

0.000000000000000e+00 0.000000000000000e+00 0.000000000000000e+00
0.000000000000000e+00 0.000000000000000e+00 0.000000000000000e+00
0.000000000000000e+00 0.000000000000000e+00 0.000000000000000e+00

0.000000000000000e+00 0.000000000000000e+00 0.000000000000000e+00
0.000000000000000e+00 0.000000000000000e+00 0.000000000000000e+00
0.000000000000000e+00 0.000000000000000e+00 0.000000000000000e+00

0.000000000000000e+00 0.000000000000000e+00 0.000000000000000e+00
0.000000000000000e+00 0.000000000000000e+00 0.000000000000000e+00
0.000000000000000e+00 0.000000000000000e+00 0.000000000000000e+00

0.000000000000000e+00 0.000000000000000e+00 0.000000000000000e+00
0.000000000000000e+00 0.000000000000000e+00 0.000000000000000e+00
0.000000000000000e+00 0.000000000000000e+00 0.000000000000000e+00

0.000000000000000e+00 0.000000000000000e+00 0.000000000000000e+00
0.000000000000000e+00 0.000000000000000e+00 0.000000000000000e+00
0.000000000000000e+00 0.000000000000000e+00 0.000000000000000e+00

0.000000000000000e+00 0.000000000000000e+00 0.000000000000000e+00
0.000000000000000e+00 0.000000000000000e+00 0.000000000000000e+00
0.000000000000000e+00 0.000000000000000e+00 0.000000000000000e+00

0.000000000000000e+00 0.000000000000000e+00 0.000000000000000e+00
0.000000000000000e+00 0.000000000000000e+00 0.000000000000000e+00
0.000000000000000e+00 0.000000000000000e+00 0.000000000000000e+00

0.000000000000000e+00 0.000000000000000e+00 0.000000000000000e+00
0.000000000000000e+00 0.000000000000000e+00 0.000000000000000e+00
0.000000000000000e+00 0.000000000000000e+00 0.000000000000000e+00

0.000000000000000e+00 0.000000000000000e+00 0.000000000000000e+00
0.000000000000000e+00 0.000000000000000e+00 0.000000000000000e+00
0.000000000000000e+00 0.000000000000000e+00 0.000000000000000e+00

0.000000000000000e+00 0.000000000000000e+00 0.000000000000000e+00
0.000000000000000e+00 0.000000000000000e+00 0.000000000000000e+00
0.000000000000000e+00 0.000000000000000e+00 0.000000000000000e+00

0.000000000000000e+00 0.000000000000000e+00 0.000000000000000e+00
0.000000000000000e+00 0.000000000000000e+00 0.000000000000000e+00
0.000000000000000e+00 0.000000000000000e+00 0.000000000000000e+00

0.000000000000000e+00 0.000000000000000e+00 0.000000000000000e+00
0.000000000000000e+00 0.000000000000000e+00 0.000000000000000e+00
0.000000000000000e+00 0.000000000000000e+00 0.000000000000000e+00

0.000000000000000e+00 0.000000000000000e+00 0.000000000000000e+00
0.000000000000000e+00 0.000000000000000e+00 0.000000000000000e+00
0.000000000000000e+00 0.000000000000000e+00 0.000000000000000e+00

0.000000000000000e+00 0.000000000000000e+00 0.000000000000000e+00
0.000000000000000e+00 0.000000000000000e+00 0.000000000000000e+00
0.000000000000000e+00 0.000000000000000e+00 0.000000000000000e+00

0.000000000000000e+00 0.000000000000000e+00 0.000000000000000e+00
0.000000000000000e+00 0.000000000000000e+00 0.000000000000000e+00
0.000000000000000e+00 0.000000000000000e+00 0.000000000000000e+00

0.000000000000000e+00 0.000000000000000e+00 0.000000000000000e+00
0.000000000000000e+00 0.000000000000000e+00 0.000000000000000e+00
0.000000000000000e+00 0.000000000000000e+00 0.000000000000000e+00

0.000000000000000e+00 0.000000000000000e+00 0.000000000000000e+00
0.000000000000000e+00 0.000000000000000e+00 0.000000000000000e+00
0.000000000000000e+00 0.000000000000000e+00 0.000000000000000e+00

0.000000000000000e+00 0.000000000000000e+00 0.000000000000000e+00
0.000000000000000e+00 0.000000000000000e+00 0.000000000000000e+00
0.000000000000000e+00 0.000000000000000e+00 0.000000000000000e+00

0.000000000000000e+00 0.000000000000000e+00 0.000000000000000e+00
0.000000000000000e+00 0.000000000000000e+00 0.000000000000000e+00
0.000000000000000e+00 0.000000000000000e+00 0.000000000000000e+00

0.000000000000000e+00 0.000000000000000e+00 0.000000000000000e+00
0.000000000000000e+00 0.000000000000000e+00 0.000000000000000e+00
0.000000000000000e+00 0.000000000000000e+00 0.000000000000000e+00

0.000000000000000e+00 0.000000000000000e+00 0.000000000000000e+00
0.000000000000000e+00 0.000000000000000e+00 0.000000000000000e+00
0.000000000000000e+00 0.000000000000000e+00 0.000000000000000e+00

0.000000000000000e+00 0.000000000000000e+00 0.000000000000000e+00
0.000000000000000e+00 0.000000000000000e+00 0.000000000000000e+00
0.000000000000000e+00 0.000000000000000e+00 0.000000000000000e+00

0.000000000000000e+00 0.000000000000000e+00 0.000000000000000e+00
0.000000000000000e+00 0.000000000000000e+00 0.000000000000000e+00
0.000000000000000e+00 0.000000000000000e+00 0.000000000000000e+00

0.000000000000000e+00 0.000000000000000e+00 0.000000000000000e+00
0.000000000000000e+00 0.000000000000000e+00 0.000000000000000e+00
0.000000000000000e+00 0.000000000000000e+00 0.000000000000000e+00

0.000000000000000e+00 0.000000000000000e+00 0.000000000000000e+00
0.000000000000000e+00 0.000000000000000e+00 0.000000000000000e+00
0.000000000000000e+00 0.000000000000000e+00 0.000000000000000e+00

0.000000000000000e+00 0.000000000000000e+00 0.000000000000000e+00
0.000000000000000e+00 0.000000000000000e+00 0.000000000000000e+00
0.000000000000000e+00 0.000000000000000e+00 0.000000000000000e+00

0.000000000000000e+00 0.000000000000000e+00 0.000000000000000e+00
0.000000000000000e+00 0.000000000000000e+00 0.000000000000000e+00
0.000000000000000e+00 0.000000000000000e+00 0.000000000000000e+00

0.000000000000000e+00 0.000000000000000e+00 0.000000000000000e+00
0.000000000000000e+00 0.000000000000000e+00 0.000000000000000e+00
0.000000000000000e+00 0.000000000000000e+00 0.000000000000000e+00

0.000000000000000e+00 0.000000000000000e+00 0.000000000000000e+00
0.000000000000000e+00 0.000000000000000e+00 0.000000000000000e+00
0.000000000000000e+00 0.000000000000000e+00 0.000000000000000e+00

0.000000000000000e+00 0.000000000000000e+00 0.000000000000000e+00
0.000000000000000e+00 0.000000000000000e+00 0.000000000000000e+00
0.000000000000000e+00 0.000000000000000e+00 0.000000000000000e+00

0.000000000000000e+00 0.000000000000000e+00 0.000000000000000e+00
0.000000000000000e+00 0.000000000000000e+00 0.000000000000000e+00
0.000000000000000e+00 0.000000000000000e+00 0.000000000000000e+00

0.000000000000000e+00 0.000000000000000e+00 0.000000000000000e+00
0.000000000000000e+00 0.000000000000000e+00 0.000000000000000e+00
0.000000000000000e+00 0.000000000000000e+00 0.000000000000000e+00

0.000000000000000e+00 0.000000000000000e+00 0.000000000000000e+00
0.000000000000000e+00 0.000000000000000e+00 0.000000000000000e+00
0.000000000000000e+00 0.000000000000000e+00 0.000000000000000e+00

0.000000000000000e+00 0.000000000000000e+00 0.000000000000000e+00
0.000000000000000e+00 0.000000000000000e+00 0.000000000000000e+00
0.000000000000000e+00 0.000000000000000e+00 0.000000000000000e+00

0.000000000000000e+00 0.000000000000000e+00 0.000000000000000e+00
0.000000000000000e+00 0.000000000000000e+00 0.000000000000000e+00
0.000000000000000e+00 0.000000000000000e+00 0.000000000000000e+00

0.000000000000000e+00 0.000000000000000e+00 0.000000000000000e+00
0.000000000000000e+00 0.000000000000000e+00 0.000000000000000e+00
0.000000000000000e+00 0.000000000000000e+00 0.000000000000000e+00

0.000000000000000e+00 0.000000000000000e+00 0.000000000000000e+00
0.000000000000000e+00 0.000000000000000e+00 0.000000000000000e+00
0.000000000000000e+00 0.000000000000000e+00 0.000000000000000e+00

0.000000000000000e+00 0.000000000000000e+00 0.000000000000000e+00
0.000000000000000e+00 0.000000000000000e+00 0.000000000000000e+00
0.000000000000000e+00 0.000000000000000e+00 0.000000000000000e+00

0.000000000000000e+00 0.000000000000000e+00 0.000000000000000e+00
0.000000000000000e+00 0.000000000000000e+00 0.000000000000000e+00
0.000000000000000e+00 0.000000000000000e+00 0.000000000000000e+00

0.000000000000000e+00 0.000000000000000e+00 0.000000000000000e+00
0.000000000000000e+00 0.000000000000000e+00 0.000000000000000e+00
0.000000000000000e+00 0.000000000000000e+00 0.000000000000000e+00

0.000000000000000e+00 0.000000000000000e+00 0.000000000000000e+00
0.000000000000000e+00 0.000000000000000e+00 0.000000000000000e+00
0.000000000000000e+00 0.000000000000000e+00 0.000000000000000e+00

0.000000000000000e+00 0.000000000000000e+00 0.000000000000000e+00
0.000000000000000e+00 0.000000000000000e+00 0.000000000000000e+00
0.000000000000000e+00 0.000000000000000e+00 0.000000000000000e+00

0.000000000000000e+00 0.000000000000000e+00 0.000000000000000e+00
0.000000000000000e+00 0.000000000000000e+00 0.000000000000000e+00
0.000000000000000e+00 0.000000000000000e+00 0.000000000000000e+00

0.000000000000000e+00 0.000000000000000e+00 0.000000000000000e+00
0.000000000000000e+00 0.000000000000000e+00 0.000000000000000e+00
0.000000000000000e+00 0.000000000000000e+00 0.000000000000000e+00

0.000000000000000e+00 0.000000000000000e+00 0.000000000000000e+00
0.000000000000000e+00 0.000000000000000e+00 0.000000000000000e+00
0.000000000000000e+00 0.000000000000000e+00 0.000000000000000e+00

0.000000000000000e+00 0.000000000000000e+00 0.000000000000000e+00
0.000000000000000e+00 0.000000000000000e+00 0.000000000000000e+00
0.000000000000000e+00 0.000000000000000e+00 0.000000000000000e+00

0.000000000000000e+00 0.000000000000000e+00 0.000000000000000e+00
0.000000000000000e+00 0.000000000000000e+00 0.000000000000000e+00
0.000000000000000e+00 0.000000000000000e+00 0.000000000000000e+00

0.000000000000000e+00 0.000000000000000e+00 0.000000000000000e+00
0.000000000000000e+00 0.000000000000000e+00 0.000000000000000e+00
0.000000000000000e+00 0.000000000000000e+00 0.000000000000000e+00

0.000000000000000e+00 0.000000000000000e+00 0.000000000000000e+00
0.000000000000000e+00 0.000000000000000e+00 0.000000000000000e+00
0.000000000000000e+00 0.000000000000000e+00 0.000000000000000e+00

0.000000000000000e+00 0.000000000000000e+00 0.000000000000000e+00
0.000000000000000e+00 0.000000000000000e+00 0.000000000000000e+00
0.000000000000000e+00 0.000000000000000e+00 0.000000000000000e+00

0.000000000000000e+00 0.000000000000000e+00 0.000000000000000e+00
0.000000000000000e+00 0.000000000000000e+00 0.000000000000000e+00
0.000000000000000e+00 0.000000000000000e+00 0.000000000000000e+00

0.000000000000000e+00 0.000000000000000e+00 0.000000000000000e+00
0.000000000000000e+00 0.000000000000000e+00 0.000000000000000e+00
0.000000000000000e+00 0.000000000000000e+00 0.000000000000000e+00

0.000000000000000e+00 0.000000000000000e+00 0.000000000000000e+00
0.000000000000000e+00 0.000000000000000e+00 0.000000000000000e+00
0.000000000000000e+00 0.000000000000000e+00 0.000000000000000e+00

0.000000000000000e+00 0.000000000000000e+00 0.000000000000000e+00
0.000000000000000e+00 0.000000000000000e+00 0.000000000000000e+00
0.000000000000000e+00 0.000000000000000e+00 0.000000000000000e+00

0.000000000000000e+00 0.000000000000000e+00 0.000000000000000e+00
0.000000000000000e+00 0.000000000000000e+00 0.000000000000000e+00
0.000000000000000e+00 0.000000000000000e+00 0.000000000000000e+00

0.000000000000000e+00 0.000000000000000e+00 0.000000000000000e+00
0.000000000000000e+00 0.000000000000000e+00 0.000000000000000e+00
0.000000000000000e+00 0.000000000000000e+00 0.000000000000000e+00

0.000000000000000e+00 0.000000000000000e+00 0.000000000000000e+00
0.000000000000000e+00 0.000000000000000e+00 0.000000000000000e+00
0.000000000000000e+00 0.000000000000000e+00 0.000000000000000e+00

0.000000000000000e+00 0.000000000000000e+00 0.000000000000000e+00
0.000000000000000e+00 0.000000000000000e+00 0.000000000000000e+00
0.000000000000000e+00 0.000000000000000e+00 0.000000000000000e+00

0.000000000000000e+00 0.000000000000000e+00 0.000000000000000e+00
0.000000000000000e+00 0.000000000000000e+00 0.000000000000000e+00
0.000000000000000e+00 0.000000000000000e+00 0.000000000000000e+00

0.000000000000000e+00 0.000000000000000e+00 0.000000000000000e+00
0.000000000000000e+00 0.000000000000000e+00 0.000000000000000e+00
0.000000000000000e+00 0.000000000000000e+00 0.000000000000000e+00

0.000000000000000e+00 0.000000000000000e+00 0.000000000000000e+00
0.000000000000000e+00 0.000000000000000e+00 0.000000000000000e+00
0.000000000000000e+00 0.000000000000000e+00 0.000000000000000e+00

0.000000000000000e+00 0.000000000000000e+00 0.000000000000000e+00
0.000000000000000e+00 0.000000000000000e+00 0.000000000000000e+00
0.000000000000000e+00 0.000000000000000e+00 0.000000000000000e+00

0.000000000000000e+00 0.000000000000000e+00 0.000000000000000e+00
0.000000000000000e+00 0.000000000000000e+00 0.000000000000000e+00
0.000000000000000e+00 0.000000000000000e+00 0.000000000000000e+00

0.000000000000000e+00 0.000000000000000e+00 0.000000000000000e+00
0.000000000000000e+00 0.000000000000000e+00 0.000000000000000e+00
0.000000000000000e+00 0.000000000000000e+00 0.000000000000000e+00

0.000000000000000e+00 0.000000000000000e+00 0.000000000000000e+00
0.000000000000000e+00 0.000000000000000e+00 0.000000000000000e+00
0.000000000000000e+00 0.000000000000000e+00 0.000000000000000e+00

0.000000000000000e+00 0.000000000000000e+00 0.000000000000000e+00
0.000000000000000e+00 0.000000000000000e+00 0.000000000000000e+00
0.000000000000000e+00 0.000000000000000e+00 0.000000000000000e+00

0.000000000000000e+00 0.000000000000000e+00 0.000000000000000e+00
0.000000000000000e+00 0.000000000000000e+00 0.000000000000000e+00
0.000000000000000e+00 0.000000000000000e+00 0.000000000000000e+00

0.000000000000000e+00 0.000000000000000e+00 0.000000000000000e+00
0.000000000000000e+00 0.000000000000000e+00 0.000000000000000e+00
0.000000000000000e+00 0.000000000000000e+00 0.000000000000000e+00

0.000000000000000e+00 0.000000000000000e+00 0.000000000000000e+00
0.000000000000000e+00 0.000000000000000e+00 0.000000000000000e+00
0.000000000000000e+00 0.000000000000000e+00 0.000000000000000e+00

0.000000000000000e+00 0.000000000000000e+00 0.000000000000000e+00
0.000000000000000e+00 0.000000000000000e+00 0.000000000000000e+00
0.000000000000000e+00 0.000000000000000e+00 0.000000000000000e+00

0.000000000000000e+00 0.000000000000000e+00 0.000000000000000e+00
0.000000000000000e+00 0.000000000000000e+00 0.000000000000000e+00
0.000000000000000e+00 0.000000000000000e+00 0.000000000000000e+00

0.000000000000000e+00 0.000000000000000e+00 0.000000000000000e+00
0.000000000000000e+00 0.000000000000000e+00 0.000000000000000e+00
0.000000000000000e+00 0.000000000000000e+00 0.000000000000000e+00

0.000000000000000e+00 0.000000000000000e+00 0.000000000000000e+00
0.000000000000000e+00 0.000000000000000e+00 0.000000000000000e+00
0.000000000000000e+00 0.000000000000000e+00 0.000000000000000e+00

0.000000000000000e+00 0.000000000000000e+00 0.000000000000000e+00
0.000000000000000e+00 0.000000000000000e+00 0.000000000000000e+00
0.000000000000000e+00 0.000000000000000e+00 0.000000000000000e+00

0.000000000000000e+00 0.000000000000000e+00 0.000000000000000e+00
0.000000000000000e+00 0.000000000000000e+00 0.000000000000000e+00
0.000000000000000e+00 0.000000000000000e+00 0.000000000000000e+00

0.000000000000000e+00 0.000000000000000e+00 0.000000000000000e+00
0.000000000000000e+00 0.000000000000000e+00 0.000000000000000e+00
0.000000000000000e+00 0.000000000000000e+00 0.000000000000000e+00

0.000000000000000e+00 0.000000000000000e+00 0.000000000000000e+00
0.000000000000000e+00 0.000000000000000e+00 0.000000000000000e+00
0.000000000000000e+00 0.000000000000000e+00 0.000000000000000e+00

0.000000000000000e+00 0.000000000000000e+00 0.000000000000000e+00
0.000000000000000e+00 0.000000000000000e+00 0.000000000000000e+00
0.000000000000000e+00 0.000000000000000e+00 0.000000000000000e+00

0.000000000000000e+00 0.000000000000000e+00 0.000000000000000e+00
0.000000000000000e+00 0.000000000000000e+00 0.000000000000000e+00
0.000000000000000e+00 0.000000000000000e+00 0.000000000000000e+00

0.000000000000000e+00 0.000000000000000e+00 0.000000000000000e+00
0.000000000000000e+00 0.000000000000000e+00 0.000000000000000e+00
0.000000000000000e+00 0.000000000000000e+00 0.000000000000000e+00

0.000000000000000e+00 0.000000000000000e+00 0.000000000000000e+00
0.000000000000000e+00 0.000000000000000e+00 0.000000000000000e+00
0.000000000000000e+00 0.000000000000000e+00 0.000000000000000e+00

0.000000000000000e+00 0.000000000000000e+00 0.000000000000000e+00
0.000000000000000e+00 0.000000000000000e+00 0.000000000000000e+00
0.000000000000000e+00 0.000000000000000e+00 0.000000000000000e+00

0.000000000000000e+00 0.000000000000000e+00 0.000000000000000e+00
0.000000000000000e+00 0.000000000000000e+00 0.000000000000000e+00
0.000000000000000e+00 0.000000000000000e+00 0.000000000000000e+00

0.000000000000000e+00 0.000000000000000e+00 0.000000000000000e+00
0.000000000000000e+00 0.000000000000000e+00 0.000000000000000e+00
0.000000000000000e+00 0.000000000000000e+00 0.000000000000000e+00

0.000000000000000e+00 0.000000000000000e+00 0.000000000000000e+00
0.000000000000000e+00 0.000000000000000e+00 0.000000000000000e+00
0.000000000000000e+00 0.000000000000000e+00 0.000000000000000e+00

0.000000000000000e+00 0.000000000000000e+00 0.000000000000000e+00
0.000000000000000e+00 0.000000000000000e+00 0.000000000000000e+00
0.000000000000000e+00 0.000000000000000e+00 0.000000000000000e+00

0.000000000000000e+00 0.000000000000000e+00 0.000000000000000e+00
0.000000000000000e+00 0.000000000000000e+00 0.000000000000000e+00
0.000000000000000e+00 0.000000000000000e+00 0.000000000000000e+00

0.000000000000000e+00 0.000000000000000e+00 0.000000000000000e+00
0.000000000000000e+00 0.000000000000000e+00 0.000000000000000e+00
0.000000000000000e+00 0.000000000000000e+00 0.000000000000000e+00

0.000000000000000e+00 0.000000000000000e+00 0.000000000000000e+00
0.000000000000000e+00 0.000000000000000e+00 0.000000000000000e+00
0.000000000000000e+00 0.000000000000000e+00 0.000000000000000e+00

0.000000000000000e+00 0.000000000000000e+00 0.000000000000000e+00
0.000000000000000e+00 0.000000000000000e+00 0.000000000000000e+00
0.000000000000000e+00 0.000000000000000e+00 0.000000000000000e+00

0.000000000000000e+00 0.000000000000000e+00 0.000000000000000e+00
0.000000000000000e+00 0.000000000000000e+00 0.000000000000000e+00
0.000000000000000e+00 0.000000000000000e+00 0.000000000000000e+00

0.000000000000000e+00 0.000000000000000e+00 0.000000000000000e+00
0.000000000000000e+00 0.000000000000000e+00 0.000000000000000e+00
0.000000000000000e+00 0.000000000000000e+00 0.000000000000000e+00

0.000000000000000e+00 0.000000000000000e+00 0.000000000000000e+00
0.000000000000000e+00 0.000000000000000e+00 0.000000000000000e+00
0.000000000000000e+00 0.000000000000000e+00 0.000000000000000e+00

0.000000000000000e+00 0.000000000000000e+00 0.000000000000000e+00
0.000000000000000e+00 0.000000000000000e+00 0.000000000000000e+00
0.000000000000000e+00 0.000000000000000e+00 0.000000000000000e+00

0.000000000000000e+00 0.000000000000000e+00 0.000000000000000e+00
0.000000000000000e+00 0.000000000000000e+00 0.000000000000000e+00
0.000000000000000e+00 0.000000000000000e+00 0.000000000000000e+00

0.000000000000000e+00 0.000000000000000e+00 0.000000000000000e+00
0.000000000000000e+00 0.000000000000000e+00 0.000000000000000e+00
0.000000000000000e+00 0.000000000000000e+00 0.000000000000000e+00

0.000000000000000e+00 0.000000000000000e+00 0.000000000000000e+00
0.000000000000000e+00 0.000000000000000e+00 0.000000000000000e+00
0.000000000000000e+00 0.000000000000000e+00 0.000000000000000e+00

0.000000000000000e+00 0.000000000000000e+00 0.000000000000000e+00
0.000000000000000e+00 0.000000000000000e+00 0.000000000000000e+00
0.000000000000000e+00 0.000000000000000e+00 0.000000000000000e+00

0.000000000000000e+00 0.000000000000000e+00 0.000000000000000e+00
0.000000000000000e+00 0.000000000000000e+00 0.000000000000000e+00
0.000000000000000e+00 0.000000000000000e+00 0.000000000000000e+00

0.000000000000000e+00 0.000000000000000e+00 0.000000000000000e+00
0.000000000000000e+00 0.000000000000000e+00 0.000000000000000e+00
0.000000000000000e+00 0.000000000000000e+00 0.000000000000000e+00

0.000000000000000e+00 0.000000000000000e+00 0.000000000000000e+00
0.000000000000000e+00 0.000000000000000e+00 0.000000000000000e+00
0.000000000000000e+00 0.000000000000000e+00 0.000000000000000e+00

0.000000000000000e+00 0.000000000000000e+00 0.000000000000000e+00
0.000000000000000e+00 0.000000000000000e+00 0.000000000000000e+00
0.000000000000000e+00 0.000000000000000e+00 0.000000000000000e+00

0.000000000000000e+00 0.000000000000000e+00 0.000000000000000e+00
0.000000000000000e+00 0.000000000000000e+00 0.000000000000000e+00
0.000000000000000e+00 0.000000000000000e+00 0.000000000000000e+00

0.000000000000000e+00 0.000000000000000e+00 0.000000000000000e+00
0.000000000000000e+00 0.000000000000000e+00 0.000000000000000e+00
0.000000000000000e+00 0.000000000000000e+00 0.000000000000000e+00

0.000000000000000e+00 0.000000000000000e+00 0.000000000000000e+00
0.000000000000000e+00 0.000000000000000e+00 0.000000000000000e+00
0.000000000000000e+00 0.000000000000000e+00 0.000000000000000e+00

0.000000000000000e+00 0.000000000000000e+00 0.000000000000000e+00
0.000000000000000e+00 0.000000000000000e+00 0.000000000000000e+00
0.000000000000000e+00 0.000000000000000e+00 0.000000000000000e+00

0.000000000000000e+00 0.000000000000000e+00 0.000000000000000e+00
0.000000000000000e+00 0.000000000000000e+00 0.000000000000000e+00
0.000000000000000e+00 0.000000000000000e+00 0.000000000000000e+00

0.000000000000000e+00 0.000000000000000e+00 0.000000000000000e+00
0.000000000000000e+00 0.000000000000000e+00 0.000000000000000e+00
0.000000000000000e+00 0.000000000000000e+00 0.000000000000000e+00

0.000000000000000e+00 0.000000000000000e+00 0.000000000000000e+00
0.000000000000000e+00 0.000000000000000e+00 0.000000000000000e+00
0.000000000000000e+00 0.000000000000000e+00 0.000000000000000e+00

0.000000000000000e+00 0.000000000000000e+00 0.000000000000000e+00
0.000000000000000e+00 0.000000000000000e+00 0.000000000000000e+00
0.000000000000000e+00 0.000000000000000e+00 0.000000000000000e+00

0.000000000000000e+00 0.000000000000000e+00 0.000000000000000e+00
0.000000000000000e+00 0.000000000000000e+00 0.000000000000000e+00
0.000000000000000e+00 0.000000000000000e+00 0.000000000000000e+00

0.000000000000000e+00 0.000000000000000e+00 0.000000000000000e+00
0.000000000000000e+00 0.000000000000000e+00 0.000000000000000e+00
0.000000000000000e+00 0.000000000000000e+00 0.000000000000000e+00

0.000000000000000e+00 0.000000000000000e+00 0.000000000000000e+00
0.000000000000000e+00 0.000000000000000e+00 0.000000000000000e+00
0.000000000000000e+00 0.000000000000000e+00 0.000000000000000e+00

0.000000000000000e+00 0.000000000000000e+00 0.000000000000000e+00
0.000000000000000e+00 0.000000000000000e+00 0.000000000000000e+00
0.000000000000000e+00 0.000000000000000e+00 0.000000000000000e+00

0.000000000000000e+00 0.000000000000000e+00 0.000000000000000e+00
0.000000000000000e+00 0.000000000000000e+00 0.000000000000000e+00
0.000000000000000e+00 0.000000000000000e+00 0.000000000000000e+00

0.000000000000000e+00 0.000000000000000e+00 0.000000000000000e+00
0.000000000000000e+00 0.000000000000000e+00 0.000000000000000e+00
0.000000000000000e+00 0.000000000000000e+00 0.000000000000000e+00

0.000000000000000e+00 0.000000000000000e+00 0.000000000000000e+00
0.000000000000000e+00 0.000000000000000e+00 0.000000000000000e+00
0.000000000000000e+00 0.000000000000000e+00 0.000000000000000e+00

0.000000000000000e+00 0.000000000000000e+00 0.000000000000000e+00
0.000000000000000e+00 0.000000000000000e+00 0.000000000000000e+00
0.000000000000000e+00 0.000000000000000e+00 0.000000000000000e+00

0.000000000000000e+00 0.000000000000000e+00 0.000000000000000e+00
0.000000000000000e+00 0.000000000000000e+00 0.000000000000000e+00
0.000000000000000e+00 0.000000000000000e+00 0.000000000000000e+00

0.000000000000000e+00 0.000000000000000e+00 0.000000000000000e+00
0.000000000000000e+00 0.000000000000000e+00 0.000000000000000e+00
0.000000000000000e+00 0.000000000000000e+00 0.000000000000000e+00

0.000000000000000e+00 0.000000000000000e+00 0.000000000000000e+00
0.000000000000000e+00 0.000000000000000e+00 0.000000000000000e+00
0.000000000000000e+00 0.000000000000000e+00 0.000000000000000e+00

0.000000000000000e+00 0.000000000000000e+00 0.000000000000000e+00
0.000000000000000e+00 0.000000000000000e+00 0.000000000000000e+00
0.000000000000000e+00 0.000000000000000e+00 0.000000000000000e+00

0.000000000000000e+00 0.000000000000000e+00 0.000000000000000e+00
0.000000000000000e+00 0.000000000000000e+00 0.000000000000000e+00
0.000000000000000e+00 0.000000000000000e+00 0.000000000000000e+00

0.000000000000000e+00 0.000000000000000e+00 0.000000000000000e+00
0.000000000000000e+00 0.000000000000000e+00 0.000000000000000e+00
0.000000000000000e+00 0.000000000000000e+00 0.000000000000000e+00

0.000000000000000e+00 0.000000000000000e+00 0.000000000000000e+00
0.000000000000000e+00 0.000000000000000e+00 0.000000000000000e+00
0.000000000000000e+00 0.000000000000000e+00 0.000000000000000e+00

0.000000000000000e+00 0.000000000000000e+00 0.000000000000000e+00
0.000000000000000e+00 0.000000000000000e+00 0.000000000000000e+00
0.000000000000000e+00 0.000000000000000e+00 0.000000000000000e+00

0.000000000000000e+00 0.000000000000000e+00 0.000000000000000e+00
0.000000000000000e+00 0.000000000000000e+00 0.000000000000000e+00
0.000000000000000e+00 0.000000000000000e+00 0.000000000000000e+00

0.000000000000000e+00 0.000000000000000e+00 0.000000000000000e+00
0.000000000000000e+00 0.000000000000000e+00 0.000000000000000e+00
0.000000000000000e+00 0.000000000000000e+00 0.000000000000000e+00

0.000000000000000e+00 0.000000000000000e+00 0.000000000000000e+00
0.000000000000000e+00 0.000000000000000e+00 0.000000000000000e+00
0.000000000000000e+00 0.000000000000000e+00 0.000000000000000e+00

0.000000000000000e+00 0.000000000000000e+00 0.000000000000000e+00
0.000000000000000e+00 0.000000000000000e+00 0.000000000000000e+00
0.000000000000000e+00 0.000000000000000e+00 0.000000000000000e+00

0.000000000000000e+00 0.000000000000000e+00 0.000000000000000e+00
0.000000000000000e+00 0.000000000000000e+00 0.000000000000000e+00
0.000000000000000e+00 0.000000000000000e+00 0.000000000000000e+00

0.000000000000000e+00 0.000000000000000e+00 0.000000000000000e+00
0.000000000000000e+00 0.000000000000000e+00 0.000000000000000e+00
0.000000000000000e+00 0.000000000000000e+00 0.000000000000000e+00

0.000000000000000e+00 0.000000000000000e+00 0.000000000000000e+00
0.000000000000000e+00 0.000000000000000e+00 0.000000000000000e+00
0.000000000000000e+00 0.000000000000000e+00 0.000000000000000e+00

0.000000000000000e+00 0.000000000000000e+00 0.000000000000000e+00
0.000000000000000e+00 0.000000000000000e+00 0.000000000000000e+00
0.000000000000000e+00 0.000000000000000e+00 0.000000000000000e+00

0.000000000000000e+00 0.000000000000000e+00 0.000000000000000e+00
0.000000000000000e+00 0.000000000000000e+00 0.000000000000000e+00
0.000000000000000e+00 0.000000000000000e+00 0.000000000000000e+00

0.000000000000000e+00 0.000000000000000e+00 0.000000000000000e+00
0.000000000000000e+00 0.000000000000000e+00 0.000000000000000e+00
0.000000000000000e+00 0.000000000000000e+00 0.000000000000000e+00

0.000000000000000e+00 0.000000000000000e+00 0.000000000000000e+00
0.000000000000000e+00 0.000000000000000e+00 0.000000000000000e+00
0.000000000000000e+00 0.000000000000000e+00 0.000000000000000e+00

0.000000000000000e+00 0.000000000000000e+00 0.000000000000000e+00
0.000000000000000e+00 0.000000000000000e+00 0.000000000000000e+00
0.000000000000000e+00 0.000000000000000e+00 0.000000000000000e+00

0.000000000000000e+00 0.000000000000000e+00 0.000000000000000e+00
0.000000000000000e+00 0.000000000000000e+00 0.000000000000000e+00
0.000000000000000e+00 0.000000000000000e+00 0.000000000000000e+00

0.000000000000000e+00 0.000000000000000e+00 0.000000000000000e+00
0.000000000000000e+00 0.000000000000000e+00 0.000000000000000e+00
0.000000000000000e+00 0.000000000000000e+00 0.000000000000000e+00

0.000000000000000e+00 0.000000000000000e+00 0.000000000000000e+00
0.000000000000000e+00 0.000000000000000e+00 0.000000000000000e+00
0.000000000000000e+00 0.000000000000000e+00 0.000000000000000e+00

0.000000000000000e+00 0.000000000000000e+00 0.000000000000000e+00
0.000000000000000e+00 0.000000000000000e+00 0.000000000000000e+00
0.000000000000000e+00 0.000000000000000e+00 0.000000000000000e+00

0.000000000000000e+00 0.000000000000000e+00 0.000000000000000e+00
0.000000000000000e+00 0.000000000000000e+00 0.000000000000000e+00
0.000000000000000e+00 0.000000000000000e+00 0.000000000000000e+00

0.000000000000000e+00 0.000000000000000e+00 0.000000000000000e+00
0.000000000000000e+00 0.000000000000000e+00 0.000000000000000e+00
0.000000000000000e+00 0.000000000000000e+00 0.000000000000000e+00

0.000000000000000e+00 0.000000000000000e+00 0.000000000000000e+00
0.000000000000000e+00 0.000000000000000e+00 0.000000000000000e+00
0.000000000000000e+00 0.000000000000000e+00 0.000000000000000e+00

0.000000000000000e+00 0.000000000000000e+00 0.000000000000000e+00
0.000000000000000e+00 0.000000000000000e+00 0.000000000000000e+00
0.000000000000000e+00 0.000000000000000e+00 0.000000000000000e+00

0.000000000000000e+00 0.000000000000000e+00 0.000000000000000e+00
0.000000000000000e+00 0.000000000000000e+00 0.000000000000000e+00
0.000000000000000e+00 0.000000000000000e+00 0.000000000000000e+00

0.000000000000000e+00 0.000000000000000e+00 0.000000000000000e+00
0.000000000000000e+00 0.000000000000000e+00 0.000000000000000e+00
0.000000000000000e+00 0.000000000000000e+00 0.000000000000000e+00

0.000000000000000e+00 0.000000000000000e+00 0.000000000000000e+00
0.000000000000000e+00 0.000000000000000e+00 0.000000000000000e+00
0.000000000000000e+00 0.000000000000000e+00 0.000000000000000e+00

0.000000000000000e+00 0.000000000000000e+00 0.000000000000000e+00
0.000000000000000e+00 0.000000000000000e+00 0.000000000000000e+00
0.000000000000000e+00 0.000000000000000e+00 0.000000000000000e+00

0.000000000000000e+00 0.000000000000000e+00 0.000000000000000e+00
0.000000000000000e+00 0.000000000000000e+00 0.000000000000000e+00
0.000000000000000e+00 0.000000000000000e+00 0.000000000000000e+00

0.000000000000000e+00 0.000000000000000e+00 0.000000000000000e+00
0.000000000000000e+00 0.000000000000000e+00 0.000000000000000e+00
0.000000000000000e+00 0.000000000000000e+00 0.000000000000000e+00

0.000000000000000e+00 0.000000000000000e+00 0.000000000000000e+00
0.000000000000000e+00 0.000000000000000e+00 0.000000000000000e+00
0.000000000000000e+00 0.000000000000000e+00 0.000000000000000e+00

0.000000000000000e+00 0.000000000000000e+00 0.000000000000000e+00
0.000000000000000e+00 0.000000000000000e+00 0.000000000000000e+00
0.000000000000000e+00 0.000000000000000e+00 0.000000000000000e+00

0.000000000000000e+00 0.000000000000000e+00 0.000000000000000e+00
0.000000000000000e+00 0.000000000000000e+00 0.000000000000000e+00
0.000000000000000e+00 0.000000000000000e+00 0.000000000000000e+00

0.000000000000000e+00 0.000000000000000e+00 0.000000000000000e+00
0.000000000000000e+00 0.000000000000000e+00 0.000000000000000e+00
0.000000000000000e+00 0.000000000000000e+00 0.000000000000000e+00

0.000000000000000e+00 0.000000000000000e+00 0.000000000000000e+00
0.000000000000000e+00 0.000000000000000e+00 0.000000000000000e+00
0.000000000000000e+00 0.000000000000000e+00 0.000000000000000e+00

0.000000000000000e+00 0.000000000000000e+00 0.000000000000000e+00
0.000000000000000e+00 0.000000000000000e+00 0.000000000000000e+00
0.000000000000000e+00 0.000000000000000e+00 0.000000000000000e+00

0.000000000000000e+00 0.000000000000000e+00 0.000000000000000e+00
0.000000000000000e+00 0.000000000000000e+00 0.000000000000000e+00
0.000000000000000e+00 0.000000000000000e+00 0.000000000000000e+00

0.000000000000000e+00 0.000000000000000e+00 0.000000000000000e+00
0.000000000000000e+00 0.000000000000000e+00 0.000000000000000e+00
0.000000000000000e+00 0.000000000000000e+00 0.000000000000000e+00

0.000000000000000e+00 0.000000000000000e+00 0.000000000000000e+00
0.000000000000000e+00 0.000000000000000e+00 0.000000000000000e+00
0.000000000000000e+00 0.000000000000000e+00 0.000000000000000e+00

0.000000000000000e+00 0.000000000000000e+00 0.000000000000000e+00
0.000000000000000e+00 0.000000000000000e+00 0.000000000000000e+00
0.000000000000000e+00 0.000000000000000e+00 0.000000000000000e+00

0.000000000000000e+00 0.000000000000000e+00 0.000000000000000e+00
0.000000000000000e+00 0.000000000000000e+00 0.000000000000000e+00
0.000000000000000e+00 0.000000000000000e+00 0.000000000000000e+00

0.000000000000000e+00 0.000000000000000e+00 0.000000000000000e+00
0.000000000000000e+00 0.000000000000000e+00 0.000000000000000e+00
0.000000000000000e+00 0.000000000000000e+00 0.000000000000000e+00

0.000000000000000e+00 0.000000000000000e+00 0.000000000000000e+00
0.000000000000000e+00 0.000000000000000e+00 0.000000000000000e+00
0.000000000000000e+00 0.000000000000000e+00 0.000000000000000e+00

0.000000000000000e+00 0.000000000000000e+00 0.000000000000000e+00
0.000000000000000e+00 0.000000000000000e+00 0.000000000000000e+00
0.000000000000000e+00 0.000000000000000e+00 0.000000000000000e+00

0.000000000000000e+00 0.000000000000000e+00 0.000000000000000e+00
0.000000000000000e+00 0.000000000000000e+00 0.000000000000000e+00
0.000000000000000e+00 0.000000000000000e+00 0.000000000000000e+00

0.000000000000000e+00 0.000000000000000e+00 0.000000000000000e+00
0.000000000000000e+00 0.000000000000000e+00 0.000000000000000e+00
0.000000000000000e+00 0.000000000000000e+00 0.000000000000000e+00

0.000000000000000e+00 0.000000000000000e+00 0.000000000000000e+00
0.000000000000000e+00 0.000000000000000e+00 0.000000000000000e+00
0.000000000000000e+00 0.000000000000000e+00 0.000000000000000e+00

0.000000000000000e+00 0.000000000000000e+00 0.000000000000000e+00
0.000000000000000e+00 0.000000000000000e+00 0.000000000000000e+00
0.000000000000000e+00 0.000000000000000e+00 0.000000000000000e+00

0.000000000000000e+00 0.000000000000000e+00 0.000000000000000e+00
0.000000000000000e+00 0.000000000000000e+00 0.000000000000000e+00
0.000000000000000e+00 0.000000000000000e+00 0.000000000000000e+00

0.000000000000000e+00 0.000000000000000e+00 0.000000000000000e+00
0.000000000000000e+00 0.000000000000000e+00 0.000000000000000e+00
0.000000000000000e+00 0.000000000000000e+00 0.000000000000000e+00

0.000000000000000e+00 0.000000000000000e+00 0.000000000000000e+00
0.000000000000000e+00 0.000000000000000e+00 0.000000000000000e+00
0.000000000000000e+00 0.000000000000000e+00 0.000000000000000e+00

0.000000000000000e+00 0.000000000000000e+00 0.000000000000000e+00
0.000000000000000e+00 0.000000000000000e+00 0.000000000000000e+00
0.000000000000000e+00 0.000000000000000e+00 0.000000000000000e+00

0.000000000000000e+00 0.000000000000000e+00 0.000000000000000e+00
0.000000000000000e+00 0.000000000000000e+00 0.000000000000000e+00
0.000000000000000e+00 0.000000000000000e+00 0.000000000000000e+00

0.000000000000000e+00 0.000000000000000e+00 0.000000000000000e+00
0.000000000000000e+00 0.000000000000000e+00 0.000000000000000e+00
0.000000000000000e+00 0.000000000000000e+00 0.000000000000000e+00

0.000000000000000e+00 0.000000000000000e+00 0.000000000000000e+00
0.000000000000000e+00 0.000000000000000e+00 0.000000000000000e+00
0.000000000000000e+00 0.000000000000000e+00 0.000000000000000e+00

0.000000000000000e+00 0.000000000000000e+00 0.000000000000000e+00
0.000000000000000e+00 0.000000000000000e+00 0.000000000000000e+00
0.000000000000000e+00 0.000000000000000e+00 0.000000000000000e+00

0.000000000000000e+00 0.000000000000000e+00 0.000000000000000e+00
0.000000000000000e+00 0.000000000000000e+00 0.000000000000000e+00
0.000000000000000e+00 0.000000000000000e+00 0.000000000000000e+00

0.000000000000000e+00 0.000000000000000e+00 0.000000000000000e+00
0.000000000000000e+00 0.000000000000000e+00 0.000000000000000e+00
0.000000000000000e+00 0.000000000000000e+00 0.000000000000000e+00

0.000000000000000e+00 0.000000000000000e+00 0.000000000000000e+00
0.000000000000000e+00 0.000000000000000e+00 0.000000000000000e+00
0.000000000000000e+00 0.000000000000000e+00 0.000000000000000e+00

0.000000000000000e+00 0.000000000000000e+00 0.000000000000000e+00
0.000000000000000e+00 0.000000000000000e+00 0.000000000000000e+00
0.000000000000000e+00 0.000000000000000e+00 0.000000000000000e+00

0.000000000000000e+00 0.000000000000000e+00 0.000000000000000e+00
0.000000000000000e+00 0.000000000000000e+00 0.000000000000000e+00
0.000000000000000e+00 0.000000000000000e+00 0.000000000000000e+00

0.000000000000000e+00 0.000000000000000e+00 0.000000000000000e+00
0.000000000000000e+00 0.000000000000000e+00 0.000000000000000e+00
0.000000000000000e+00 0.000000000000000e+00 0.000000000000000e+00

0.000000000000000e+00 0.000000000000000e+00 0.000000000000000e+00
0.000000000000000e+00 0.000000000000000e+00 0.000000000000000e+00
0.000000000000000e+00 0.000000000000000e+00 0.000000000000000e+00

0.000000000000000e+00 0.000000000000000e+00 0.000000000000000e+00
0.000000000000000e+00 0.000000000000000e+00 0.000000000000000e+00
0.000000000000000e+00 0.000000000000000e+00 0.000000000000000e+00

0.000000000000000e+00 0.000000000000000e+00 0.000000000000000e+00
0.000000000000000e+00 0.000000000000000e+00 0.000000000000000e+00
0.000000000000000e+00 0.000000000000000e+00 0.000000000000000e+00

0.000000000000000e+00 0.000000000000000e+00 0.000000000000000e+00
0.000000000000000e+00 0.000000000000000e+00 0.000000000000000e+00
0.000000000000000e+00 0.000000000000000e+00 0.000000000000000e+00

0.000000000000000e+00 0.000000000000000e+00 0.000000000000000e+00
0.000000000000000e+00 0.000000000000000e+00 0.000000000000000e+00
0.000000000000000e+00 0.000000000000000e+00 0.000000000000000e+00

0.000000000000000e+00 0.000000000000000e+00 0.000000000000000e+00
0.000000000000000e+00 0.000000000000000e+00 0.000000000000000e+00
0.000000000000000e+00 0.000000000000000e+00 0.000000000000000e+00

0.000000000000000e+00 0.000000000000000e+00 0.000000000000000e+00
0.000000000000000e+00 0.000000000000000e+00 0.000000000000000e+00
0.000000000000000e+00 0.000000000000000e+00 0.000000000000000e+00

0.000000000000000e+00 0.000000000000000e+00 0.000000000000000e+00
0.000000000000000e+00 0.000000000000000e+00 0.000000000000000e+00
0.000000000000000e+00 0.000000000000000e+00 0.000000000000000e+00

0.000000000000000e+00 0.000000000000000e+00 0.000000000000000e+00
0.000000000000000e+00 0.000000000000000e+00 0.000000000000000e+00
0.000000000000000e+00 0.000000000000000e+00 0.000000000000000e+00

0.000000000000000e+00 0.000000000000000e+00 0.000000000000000e+00
0.000000000000000e+00 0.000000000000000e+00 0.000000000000000e+00
0.000000000000000e+00 0.000000000000000e+00 0.000000000000000e+00

0.000000000000000e+00 0.000000000000000e+00 0.000000000000000e+00
0.000000000000000e+00 0.000000000000000e+00 0.000000000000000e+00
0.000000000000000e+00 0.000000000000000e+00 0.000000000000000e+00

0.000000000000000e+00 0.000000000000000e+00 0.000000000000000e+00
0.000000000000000e+00 0.000000000000000e+00 0.000000000000000e+00
0.000000000000000e+00 0.000000000000000e+00 0.000000000000000e+00

0.000000000000000e+00 0.000000000000000e+00 0.000000000000000e+00
0.000000000000000e+00 0.000000000000000e+00 0.000000000000000e+00
0.000000000000000e+00 0.000000000000000e+00 0.000000000000000e+00

0.000000000000000e+00 0.000000000000000e+00 0.000000000000000e+00
0.000000000000000e+00 0.000000000000000e+00 0.000000000000000e+00
0.000000000000000e+00 0.000000000000000e+00 0.000000000000000e+00

0.000000000000000e+00 0.000000000000000e+00 0.000000000000000e+00
0.000000000000000e+00 0.000000000000000e+00 0.000000000000000e+00
0.000000000000000e+00 0.000000000000000e+00 0.000000000000000e+00

0.000000000000000e+00 0.000000000000000e+00 0.000000000000000e+00
0.000000000000000e+00 0.000000000000000e+00 0.000000000000000e+00
0.000000000000000e+00 0.000000000000000e+00 0.000000000000000e+00

0.000000000000000e+00 0.000000000000000e+00 0.000000000000000e+00
0.000000000000000e+00 0.000000000000000e+00 0.000000000000000e+00
0.000000000000000e+00 0.000000000000000e+00 0.000000000000000e+00

0.000000000000000e+00 0.000000000000000e+00 0.000000000000000e+00
0.000000000000000e+00 0.000000000000000e+00 0.000000000000000e+00
0.000000000000000e+00 0.000000000000000e+00 0.000000000000000e+00

0.000000000000000e+00 0.000000000000000e+00 0.000000000000000e+00
0.000000000000000e+00 0.000000000000000e+00 0.000000000000000e+00
0.000000000000000e+00 0.000000000000000e+00 0.000000000000000e+00

0.000000000000000e+00 0.000000000000000e+00 0.000000000000000e+00
0.000000000000000e+00 0.000000000000000e+00 0.000000000000000e+00
0.000000000000000e+00 0.000000000000000e+00 0.000000000000000e+00

0.000000000000000e+00 0.000000000000000e+00 0.000000000000000e+00
0.000000000000000e+00 0.000000000000000e+00 0.000000000000000e+00
0.000000000000000e+00 0.000000000000000e+00 0.000000000000000e+00

0.000000000000000e+00 0.000000000000000e+00 0.000000000000000e+00
0.000000000000000e+00 0.000000000000000e+00 0.000000000000000e+00
0.000000000000000e+00 0.000000000000000e+00 0.000000000000000e+00

0.000000000000000e+00 0.000000000000000e+00 0.000000000000000e+00
0.000000000000000e+00 0.000000000000000e+00 0.000000000000000e+00
0.000000000000000e+00 0.000000000000000e+00 0.000000000000000e+00

0.000000000000000e+00 0.000000000000000e+00 0.000000000000000e+00
0.000000000000000e+00 0.000000000000000e+00 0.000000000000000e+00
0.000000000000000e+00 0.000000000000000e+00 0.000000000000000e+00

0.000000000000000e+00 0.000000000000000e+00 0.000000000000000e+00
0.000000000000000e+00 0.000000000000000e+00 0.000000000000000e+00
0.000000000000000e+00 0.000000000000000e+00 0.000000000000000e+00

0.000000000000000e+00 0.000000000000000e+00 0.000000000000000e+00
0.000000000000000e+00 0.000000000000000e+00 0.000000000000000e+00
0.000000000000000e+00 0.000000000000000e+00 0.000000000000000e+00

0.000000000000000e+00 0.000000000000000e+00 0.000000000000000e+00
0.000000000000000e+00 0.000000000000000e+00 0.000000000000000e+00
0.000000000000000e+00 0.000000000000000e+00 0.000000000000000e+00

0.000000000000000e+00 0.000000000000000e+00 0.000000000000000e+00
0.000000000000000e+00 0.000000000000000e+00 0.000000000000000e+00
0.000000000000000e+00 0.000000000000000e+00 0.000000000000000e+00

0.000000000000000e+00 0.000000000000000e+00 0.000000000000000e+00
0.000000000000000e+00 0.000000000000000e+00 0.000000000000000e+00
0.000000000000000e+00 0.000000000000000e+00 0.000000000000000e+00

0.000000000000000e+00 0.000000000000000e+00 0.000000000000000e+00
0.000000000000000e+00 0.000000000000000e+00 0.000000000000000e+00
0.000000000000000e+00 0.000000000000000e+00 0.000000000000000e+00

0.000000000000000e+00 0.000000000000000e+00 0.000000000000000e+00
0.000000000000000e+00 0.000000000000000e+00 0.000000000000000e+00
0.000000000000000e+00 0.000000000000000e+00 0.000000000000000e+00

0.000000000000000e+00 0.000000000000000e+00 0.000000000000000e+00
0.000000000000000e+00 0.000000000000000e+00 0.000000000000000e+00
0.000000000000000e+00 0.000000000000000e+00 0.000000000000000e+00

0.000000000000000e+00 0.000000000000000e+00 0.000000000000000e+00
0.000000000000000e+00 0.000000000000000e+00 0.000000000000000e+00
0.000000000000000e+00 0.000000000000000e+00 0.000000000000000e+00

0.000000000000000e+00 0.000000000000000e+00 0.000000000000000e+00
0.000000000000000e+00 0.000000000000000e+00 0.000000000000000e+00
0.000000000000000e+00 0.000000000000000e+00 0.000000000000000e+00

0.000000000000000e+00 0.000000000000000e+00 0.000000000000000e+00
0.000000000000000e+00 0.000000000000000e+00 0.000000000000000e+00
0.000000000000000e+00 0.000000000000000e+00 0.000000000000000e+00

0.000000000000000e+00 0.000000000000000e+00 0.000000000000000e+00
0.000000000000000e+00 0.000000000000000e+00 0.000000000000000e+00
0.000000000000000e+00 0.000000000000000e+00 0.000000000000000e+00

0.000000000000000e+00 0.000000000000000e+00 0.000000000000000e+00
0.000000000000000e+00 0.000000000000000e+00 0.000000000000000e+00
0.000000000000000e+00 0.000000000000000e+00 0.000000000000000e+00

0.000000000000000e+00 0.000000000000000e+00 0.000000000000000e+00
0.000000000000000e+00 0.000000000000000e+00 0.000000000000000e+00
0.000000000000000e+00 0.000000000000000e+00 0.000000000000000e+00

0.000000000000000e+00 0.000000000000000e+00 0.000000000000000e+00
0.000000000000000e+00 0.000000000000000e+00 0.000000000000000e+00
0.000000000000000e+00 0.000000000000000e+00 0.000000000000000e+00

0.000000000000000e+00 0.000000000000000e+00 0.000000000000000e+00
0.000000000000000e+00 0.000000000000000e+00 0.000000000000000e+00
0.000000000000000e+00 0.000000000000000e+00 0.000000000000000e+00

0.000000000000000e+00 0.000000000000000e+00 0.000000000000000e+00
0.000000000000000e+00 0.000000000000000e+00 0.000000000000000e+00
0.000000000000000e+00 0.000000000000000e+00 0.000000000000000e+00

0.000000000000000e+00 0.000000000000000e+00 0.000000000000000e+00
0.000000000000000e+00 0.000000000000000e+00 0.000000000000000e+00
0.000000000000000e+00 0.000000000000000e+00 0.000000000000000e+00

0.000000000000000e+00 0.000000000000000e+00 0.000000000000000e+00
0.000000000000000e+00 0.000000000000000e+00 0.000000000000000e+00
0.000000000000000e+00 0.000000000000000e+00 0.000000000000000e+00

0.000000000000000e+00 0.000000000000000e+00 0.000000000000000e+00
0.000000000000000e+00 0.000000000000000e+00 0.000000000000000e+00
0.000000000000000e+00 0.000000000000000e+00 0.000000000000000e+00

0.000000000000000e+00 0.000000000000000e+00 0.000000000000000e+00
0.000000000000000e+00 0.000000000000000e+00 0.000000000000000e+00
0.000000000000000e+00 0.000000000000000e+00 0.000000000000000e+00

0.000000000000000e+00 0.000000000000000e+00 0.000000000000000e+00
0.000000000000000e+00 0.000000000000000e+00 0.000000000000000e+00
0.000000000000000e+00 0.000000000000000e+00 0.000000000000000e+00

0.000000000000000e+00 0.000000000000000e+00 0.000000000000000e+00
0.000000000000000e+00 0.000000000000000e+00 0.000000000000000e+00
0.000000000000000e+00 0.000000000000000e+00 0.000000000000000e+00

0.000000000000000e+00 0.000000000000000e+00 0.000000000000000e+00
0.000000000000000e+00 0.000000000000000e+00 0.000000000000000e+00
0.000000000000000e+00 0.000000000000000e+00 0.000000000000000e+00

0.000000000000000e+00 0.000000000000000e+00 0.000000000000000e+00
0.000000000000000e+00 0.000000000000000e+00 0.000000000000000e+00
0.000000000000000e+00 0.000000000000000e+00 0.000000000000000e+00

0.000000000000000e+00 0.000000000000000e+00 0.000000000000000e+00
0.000000000000000e+00 0.000000000000000e+00 0.000000000000000e+00
0.000000000000000e+00 0.000000000000000e+00 0.000000000000000e+00

0.000000000000000e+00 0.000000000000000e+00 0.000000000000000e+00
0.000000000000000e+00 0.000000000000000e+00 0.000000000000000e+00
0.000000000000000e+00 0.000000000000000e+00 0.000000000000000e+00

0.000000000000000e+00 0.000000000000000e+00 0.000000000000000e+00
0.000000000000000e+00 0.000000000000000e+00 0.000000000000000e+00
0.000000000000000e+00 0.000000000000000e+00 0.000000000000000e+00

0.000000000000000e+00 0.000000000000000e+00 0.000000000000000e+00
0.000000000000000e+00 0.000000000000000e+00 0.000000000000000e+00
0.000000000000000e+00 0.000000000000000e+00 0.000000000000000e+00

0.000000000000000e+00 0.000000000000000e+00 0.000000000000000e+00
0.000000000000000e+00 0.000000000000000e+00 0.000000000000000e+00
0.000000000000000e+00 0.000000000000000e+00 0.000000000000000e+00

0.000000000000000e+00 0.000000000000000e+00 0.000000000000000e+00
0.000000000000000e+00 0.000000000000000e+00 0.000000000000000e+00
0.000000000000000e+00 0.000000000000000e+00 0.000000000000000e+00

0.000000000000000e+00 0.000000000000000e+00 0.000000000000000e+00
0.000000000000000e+00 0.000000000000000e+00 0.000000000000000e+00
0.000000000000000e+00 0.000000000000000e+00 0.000000000000000e+00

0.000000000000000e+00 0.000000000000000e+00 0.000000000000000e+00
0.000000000000000e+00 0.000000000000000e+00 0.000000000000000e+00
0.000000000000000e+00 0.000000000000000e+00 0.000000000000000e+00

0.000000000000000e+00 0.000000000000000e+00 0.000000000000000e+00
0.000000000000000e+00 0.000000000000000e+00 0.000000000000000e+00
0.000000000000000e+00 0.000000000000000e+00 0.000000000000000e+00

0.000000000000000e+00 0.000000000000000e+00 0.000000000000000e+00
0.000000000000000e+00 0.000000000000000e+00 0.000000000000000e+00
0.000000000000000e+00 0.000000000000000e+00 0.000000000000000e+00

0.000000000000000e+00 0.000000000000000e+00 0.000000000000000e+00
0.000000000000000e+00 0.000000000000000e+00 0.000000000000000e+00
0.000000000000000e+00 0.000000000000000e+00 0.000000000000000e+00

0.000000000000000e+00 0.000000000000000e+00 0.000000000000000e+00
0.000000000000000e+00 0.000000000000000e+00 0.000000000000000e+00
0.000000000000000e+00 0.000000000000000e+00 0.000000000000000e+00

0.000000000000000e+00 0.000000000000000e+00 0.000000000000000e+00
0.000000000000000e+00 0.000000000000000e+00 0.000000000000000e+00
0.000000000000000e+00 0.000000000000000e+00 0.000000000000000e+00

0.000000000000000e+00 0.000000000000000e+00 0.000000000000000e+00
0.000000000000000e+00 0.000000000000000e+00 0.000000000000000e+00
0.000000000000000e+00 0.000000000000000e+00 0.000000000000000e+00

0.000000000000000e+00 0.000000000000000e+00 0.000000000000000e+00
0.000000000000000e+00 0.000000000000000e+00 0.000000000000000e+00
0.000000000000000e+00 0.000000000000000e+00 0.000000000000000e+00

0.000000000000000e+00 0.000000000000000e+00 0.000000000000000e+00
0.000000000000000e+00 0.000000000000000e+00 0.000000000000000e+00
0.000000000000000e+00 0.000000000000000e+00 0.000000000000000e+00

0.000000000000000e+00 0.000000000000000e+00 0.000000000000000e+00
0.000000000000000e+00 0.000000000000000e+00 0.000000000000000e+00
0.000000000000000e+00 0.000000000000000e+00 0.000000000000000e+00

0.000000000000000e+00 0.000000000000000e+00 0.000000000000000e+00
0.000000000000000e+00 0.000000000000000e+00 0.000000000000000e+00
0.000000000000000e+00 0.000000000000000e+00 0.000000000000000e+00

0.000000000000000e+00 0.000000000000000e+00 0.000000000000000e+00
0.000000000000000e+00 0.000000000000000e+00 0.000000000000000e+00
0.000000000000000e+00 0.000000000000000e+00 0.000000000000000e+00

0.000000000000000e+00 0.000000000000000e+00 0.000000000000000e+00
0.000000000000000e+00 0.000000000000000e+00 0.000000000000000e+00
0.000000000000000e+00 0.000000000000000e+00 0.000000000000000e+00

0.000000000000000e+00 0.000000000000000e+00 0.000000000000000e+00
0.000000000000000e+00 0.000000000000000e+00 0.000000000000000e+00
0.000000000000000e+00 0.000000000000000e+00 0.000000000000000e+00

0.000000000000000e+00 0.000000000000000e+00 0.000000000000000e+00
0.000000000000000e+00 0.000000000000000e+00 0.000000000000000e+00
0.000000000000000e+00 0.000000000000000e+00 0.000000000000000e+00

0.000000000000000e+00 0.000000000000000e+00 0.000000000000000e+00
0.000000000000000e+00 0.000000000000000e+00 0.000000000000000e+00
0.000000000000000e+00 0.000000000000000e+00 0.000000000000000e+00

0.000000000000000e+00 0.000000000000000e+00 0.000000000000000e+00
0.000000000000000e+00 0.000000000000000e+00 0.000000000000000e+00
0.000000000000000e+00 0.000000000000000e+00 0.000000000000000e+00

0.000000000000000e+00 0.000000000000000e+00 0.000000000000000e+00
0.000000000000000e+00 0.000000000000000e+00 0.000000000000000e+00
0.000000000000000e+00 0.000000000000000e+00 0.000000000000000e+00

0.000000000000000e+00 0.000000000000000e+00 0.000000000000000e+00
0.000000000000000e+00 0.000000000000000e+00 0.000000000000000e+00
0.000000000000000e+00 0.000000000000000e+00 0.000000000000000e+00

0.000000000000000e+00 0.000000000000000e+00 0.000000000000000e+00
0.000000000000000e+00 0.000000000000000e+00 0.000000000000000e+00
0.000000000000000e+00 0.000000000000000e+00 0.000000000000000e+00

0.000000000000000e+00 0.000000000000000e+00 0.000000000000000e+00
0.000000000000000e+00 0.000000000000000e+00 0.000000000000000e+00
0.000000000000000e+00 0.000000000000000e+00 0.000000000000000e+00

0.000000000000000e+00 0.000000000000000e+00 0.000000000000000e+00
0.000000000000000e+00 0.000000000000000e+00 0.000000000000000e+00
0.000000000000000e+00 0.000000000000000e+00 0.000000000000000e+00

0.000000000000000e+00 0.000000000000000e+00 0.000000000000000e+00
0.000000000000000e+00 0.000000000000000e+00 0.000000000000000e+00
0.000000000000000e+00 0.000000000000000e+00 0.000000000000000e+00

0.000000000000000e+00 0.000000000000000e+00 0.000000000000000e+00
0.000000000000000e+00 0.000000000000000e+00 0.000000000000000e+00
0.000000000000000e+00 0.000000000000000e+00 0.000000000000000e+00

0.000000000000000e+00 0.000000000000000e+00 0.000000000000000e+00
0.000000000000000e+00 0.000000000000000e+00 0.000000000000000e+00
0.000000000000000e+00 0.000000000000000e+00 0.000000000000000e+00

0.000000000000000e+00 0.000000000000000e+00 0.000000000000000e+00
0.000000000000000e+00 0.000000000000000e+00 0.000000000000000e+00
0.000000000000000e+00 0.000000000000000e+00 0.000000000000000e+00

0.000000000000000e+00 0.000000000000000e+00 0.000000000000000e+00
0.000000000000000e+00 0.000000000000000e+00 0.000000000000000e+00
0.000000000000000e+00 0.000000000000000e+00 0.000000000000000e+00

0.000000000000000e+00 0.000000000000000e+00 0.000000000000000e+00
0.000000000000000e+00 0.000000000000000e+00 0.000000000000000e+00
0.000000000000000e+00 0.000000000000000e+00 0.000000000000000e+00

0.000000000000000e+00 0.000000000000000e+00 0.000000000000000e+00
0.000000000000000e+00 0.000000000000000e+00 0.000000000000000e+00
0.000000000000000e+00 0.000000000000000e+00 0.000000000000000e+00

0.000000000000000e+00 0.000000000000000e+00 0.000000000000000e+00
0.000000000000000e+00 0.000000000000000e+00 0.000000000000000e+00
0.000000000000000e+00 0.000000000000000e+00 0.000000000000000e+00

0.000000000000000e+00 0.000000000000000e+00 0.000000000000000e+00
0.000000000000000e+00 0.000000000000000e+00 0.000000000000000e+00
0.000000000000000e+00 0.000000000000000e+00 0.000000000000000e+00

0.000000000000000e+00 0.000000000000000e+00 0.000000000000000e+00
0.000000000000000e+00 0.000000000000000e+00 0.000000000000000e+00
0.000000000000000e+00 0.000000000000000e+00 0.000000000000000e+00

0.000000000000000e+00 0.000000000000000e+00 0.000000000000000e+00
0.000000000000000e+00 0.000000000000000e+00 0.000000000000000e+00
0.000000000000000e+00 0.000000000000000e+00 0.000000000000000e+00

0.000000000000000e+00 0.000000000000000e+00 0.000000000000000e+00
0.000000000000000e+00 0.000000000000000e+00 0.000000000000000e+00
0.000000000000000e+00 0.000000000000000e+00 0.000000000000000e+00

0.000000000000000e+00 0.000000000000000e+00 0.000000000000000e+00
0.000000000000000e+00 0.000000000000000e+00 0.000000000000000e+00
0.000000000000000e+00 0.000000000000000e+00 0.000000000000000e+00

0.000000000000000e+00 0.000000000000000e+00 0.000000000000000e+00
0.000000000000000e+00 0.000000000000000e+00 0.000000000000000e+00
0.000000000000000e+00 0.000000000000000e+00 0.000000000000000e+00

0.000000000000000e+00 0.000000000000000e+00 0.000000000000000e+00
0.000000000000000e+00 0.000000000000000e+00 0.000000000000000e+00
0.000000000000000e+00 0.000000000000000e+00 0.000000000000000e+00

0.000000000000000e+00 0.000000000000000e+00 0.000000000000000e+00
0.000000000000000e+00 0.000000000000000e+00 0.000000000000000e+00
0.000000000000000e+00 0.000000000000000e+00 0.000000000000000e+00

0.000000000000000e+00 0.000000000000000e+00 0.000000000000000e+00
0.000000000000000e+00 0.000000000000000e+00 0.000000000000000e+00
0.000000000000000e+00 0.000000000000000e+00 0.000000000000000e+00

0.000000000000000e+00 0.000000000000000e+00 0.000000000000000e+00
0.000000000000000e+00 0.000000000000000e+00 0.000000000000000e+00
0.000000000000000e+00 0.000000000000000e+00 0.000000000000000e+00

0.000000000000000e+00 0.000000000000000e+00 0.000000000000000e+00
0.000000000000000e+00 0.000000000000000e+00 0.000000000000000e+00
0.000000000000000e+00 0.000000000000000e+00 0.000000000000000e+00

0.000000000000000e+00 0.000000000000000e+00 0.000000000000000e+00
0.000000000000000e+00 0.000000000000000e+00 0.000000000000000e+00
0.000000000000000e+00 0.000000000000000e+00 0.000000000000000e+00

0.000000000000000e+00 0.000000000000000e+00 0.000000000000000e+00
0.000000000000000e+00 0.000000000000000e+00 0.000000000000000e+00
0.000000000000000e+00 0.000000000000000e+00 0.000000000000000e+00

0.000000000000000e+00 0.000000000000000e+00 0.000000000000000e+00
0.000000000000000e+00 0.000000000000000e+00 0.000000000000000e+00
0.000000000000000e+00 0.000000000000000e+00 0.000000000000000e+00

0.000000000000000e+00 0.000000000000000e+00 0.000000000000000e+00
0.000000000000000e+00 0.000000000000000e+00 0.000000000000000e+00
0.000000000000000e+00 0.000000000000000e+00 0.000000000000000e+00

0.000000000000000e+00 0.000000000000000e+00 0.000000000000000e+00
0.000000000000000e+00 0.000000000000000e+00 0.000000000000000e+00
0.000000000000000e+00 0.000000000000000e+00 0.000000000000000e+00

0.000000000000000e+00 0.000000000000000e+00 0.000000000000000e+00
0.000000000000000e+00 0.000000000000000e+00 0.000000000000000e+00
0.000000000000000e+00 0.000000000000000e+00 0.000000000000000e+00

0.000000000000000e+00 0.000000000000000e+00 0.000000000000000e+00
0.000000000000000e+00 0.000000000000000e+00 0.000000000000000e+00
0.000000000000000e+00 0.000000000000000e+00 0.000000000000000e+00

0.000000000000000e+00 0.000000000000000e+00 0.000000000000000e+00
0.000000000000000e+00 0.000000000000000e+00 0.000000000000000e+00
0.000000000000000e+00 0.000000000000000e+00 0.000000000000000e+00

0.000000000000000e+00 0.000000000000000e+00 0.000000000000000e+00
0.000000000000000e+00 0.000000000000000e+00 0.000000000000000e+00
0.000000000000000e+00 0.000000000000000e+00 0.000000000000000e+00

0.000000000000000e+00 0.000000000000000e+00 0.000000000000000e+00
0.000000000000000e+00 0.000000000000000e+00 0.000000000000000e+00
0.000000000000000e+00 0.000000000000000e+00 0.000000000000000e+00

0.000000000000000e+00 0.000000000000000e+00 0.000000000000000e+00
0.000000000000000e+00 0.000000000000000e+00 0.000000000000000e+00
0.000000000000000e+00 0.000000000000000e+00 0.000000000000000e+00

0.000000000000000e+00 0.000000000000000e+00 0.000000000000000e+00
0.000000000000000e+00 0.000000000000000e+00 0.000000000000000e+00
0.000000000000000e+00 0.000000000000000e+00 0.000000000000000e+00

0.000000000000000e+00 0.000000000000000e+00 0.000000000000000e+00
0.000000000000000e+00 0.000000000000000e+00 0.000000000000000e+00
0.000000000000000e+00 0.000000000000000e+00 0.000000000000000e+00

0.000000000000000e+00 0.000000000000000e+00 0.000000000000000e+00
0.000000000000000e+00 0.000000000000000e+00 0.000000000000000e+00
0.000000000000000e+00 0.000000000000000e+00 0.000000000000000e+00

0.000000000000000e+00 0.000000000000000e+00 0.000000000000000e+00
0.000000000000000e+00 0.000000000000000e+00 0.000000000000000e+00
0.000000000000000e+00 0.000000000000000e+00 0.000000000000000e+00

0.000000000000000e+00 0.000000000000000e+00 0.000000000000000e+00
0.000000000000000e+00 0.000000000000000e+00 0.000000000000000e+00
0.000000000000000e+00 0.000000000000000e+00 0.000000000000000e+00

0.000000000000000e+00 0.000000000000000e+00 0.000000000000000e+00
0.000000000000000e+00 0.000000000000000e+00 0.000000000000000e+00
0.000000000000000e+00 0.000000000000000e+00 0.000000000000000e+00

0.000000000000000e+00 0.000000000000000e+00 0.000000000000000e+00
0.000000000000000e+00 0.000000000000000e+00 0.000000000000000e+00
0.000000000000000e+00 0.000000000000000e+00 0.000000000000000e+00

0.000000000000000e+00 0.000000000000000e+00 0.000000000000000e+00
0.000000000000000e+00 0.000000000000000e+00 0.000000000000000e+00
0.000000000000000e+00 0.000000000000000e+00 0.000000000000000e+00

0.000000000000000e+00 0.000000000000000e+00 0.000000000000000e+00
0.000000000000000e+00 0.000000000000000e+00 0.000000000000000e+00
0.000000000000000e+00 0.000000000000000e+00 0.000000000000000e+00

0.000000000000000e+00 0.000000000000000e+00 0.000000000000000e+00
0.000000000000000e+00 0.000000000000000e+00 0.000000000000000e+00
0.000000000000000e+00 0.000000000000000e+00 0.000000000000000e+00

0.000000000000000e+00 0.000000000000000e+00 0.000000000000000e+00
0.000000000000000e+00 0.000000000000000e+00 0.000000000000000e+00
0.000000000000000e+00 0.000000000000000e+00 0.000000000000000e+00

0.000000000000000e+00 0.000000000000000e+00 0.000000000000000e+00
0.000000000000000e+00 0.000000000000000e+00 0.000000000000000e+00
0.000000000000000e+00 0.000000000000000e+00 0.000000000000000e+00

0.000000000000000e+00 0.000000000000000e+00 0.000000000000000e+00
0.000000000000000e+00 0.000000000000000e+00 0.000000000000000e+00
0.000000000000000e+00 0.000000000000000e+00 0.000000000000000e+00

0.000000000000000e+00 0.000000000000000e+00 0.000000000000000e+00
0.000000000000000e+00 0.000000000000000e+00 0.000000000000000e+00
0.000000000000000e+00 0.000000000000000e+00 0.000000000000000e+00

0.000000000000000e+00 0.000000000000000e+00 0.000000000000000e+00
0.000000000000000e+00 0.000000000000000e+00 0.000000000000000e+00
0.000000000000000e+00 0.000000000000000e+00 0.000000000000000e+00

0.000000000000000e+00 0.000000000000000e+00 0.000000000000000e+00
0.000000000000000e+00 0.000000000000000e+00 0.000000000000000e+00
0.000000000000000e+00 0.000000000000000e+00 0.000000000000000e+00

0.000000000000000e+00 0.000000000000000e+00 0.000000000000000e+00
0.000000000000000e+00 0.000000000000000e+00 0.000000000000000e+00
0.000000000000000e+00 0.000000000000000e+00 0.000000000000000e+00

0.000000000000000e+00 0.000000000000000e+00 0.000000000000000e+00
0.000000000000000e+00 0.000000000000000e+00 0.000000000000000e+00
0.000000000000000e+00 0.000000000000000e+00 0.000000000000000e+00

0.000000000000000e+00 0.000000000000000e+00 0.000000000000000e+00
0.000000000000000e+00 0.000000000000000e+00 0.000000000000000e+00
0.000000000000000e+00 0.000000000000000e+00 0.000000000000000e+00

0.000000000000000e+00 0.000000000000000e+00 0.000000000000000e+00
0.000000000000000e+00 0.000000000000000e+00 0.000000000000000e+00
0.000000000000000e+00 0.000000000000000e+00 0.000000000000000e+00

0.000000000000000e+00 0.000000000000000e+00 0.000000000000000e+00
0.000000000000000e+00 0.000000000000000e+00 0.000000000000000e+00
0.000000000000000e+00 0.000000000000000e+00 0.000000000000000e+00

0.000000000000000e+00 0.000000000000000e+00 0.000000000000000e+00
0.000000000000000e+00 0.000000000000000e+00 0.000000000000000e+00
0.000000000000000e+00 0.000000000000000e+00 0.000000000000000e+00

0.000000000000000e+00 0.000000000000000e+00 0.000000000000000e+00
0.000000000000000e+00 0.000000000000000e+00 0.000000000000000e+00
0.000000000000000e+00 0.000000000000000e+00 0.000000000000000e+00

0.000000000000000e+00 0.000000000000000e+00 0.000000000000000e+00
0.000000000000000e+00 0.000000000000000e+00 0.000000000000000e+00
0.000000000000000e+00 0.000000000000000e+00 0.000000000000000e+00

0.000000000000000e+00 0.000000000000000e+00 0.000000000000000e+00
0.000000000000000e+00 0.000000000000000e+00 0.000000000000000e+00
0.000000000000000e+00 0.000000000000000e+00 0.000000000000000e+00

0.000000000000000e+00 0.000000000000000e+00 0.000000000000000e+00
0.000000000000000e+00 0.000000000000000e+00 0.000000000000000e+00
0.000000000000000e+00 0.000000000000000e+00 0.000000000000000e+00

0.000000000000000e+00 0.000000000000000e+00 0.000000000000000e+00
0.000000000000000e+00 0.000000000000000e+00 0.000000000000000e+00
0.000000000000000e+00 0.000000000000000e+00 0.000000000000000e+00

0.000000000000000e+00 0.000000000000000e+00 0.000000000000000e+00
0.000000000000000e+00 0.000000000000000e+00 0.000000000000000e+00
0.000000000000000e+00 0.000000000000000e+00 0.000000000000000e+00

0.000000000000000e+00 0.000000000000000e+00 0.000000000000000e+00
0.000000000000000e+00 0.000000000000000e+00 0.000000000000000e+00
0.000000000000000e+00 0.000000000000000e+00 0.000000000000000e+00

0.000000000000000e+00 0.000000000000000e+00 0.000000000000000e+00
0.000000000000000e+00 0.000000000000000e+00 0.000000000000000e+00
0.000000000000000e+00 0.000000000000000e+00 0.000000000000000e+00

0.000000000000000e+00 0.000000000000000e+00 0.000000000000000e+00
0.000000000000000e+00 0.000000000000000e+00 0.000000000000000e+00
0.000000000000000e+00 0.000000000000000e+00 0.000000000000000e+00

0.000000000000000e+00 0.000000000000000e+00 0.000000000000000e+00
0.000000000000000e+00 0.000000000000000e+00 0.000000000000000e+00
0.000000000000000e+00 0.000000000000000e+00 0.000000000000000e+00

0.000000000000000e+00 0.000000000000000e+00 0.000000000000000e+00
0.000000000000000e+00 0.000000000000000e+00 0.000000000000000e+00
0.000000000000000e+00 0.000000000000000e+00 0.000000000000000e+00

0.000000000000000e+00 0.000000000000000e+00 0.000000000000000e+00
0.000000000000000e+00 0.000000000000000e+00 0.000000000000000e+00
0.000000000000000e+00 0.000000000000000e+00 0.000000000000000e+00

0.000000000000000e+00 0.000000000000000e+00 0.000000000000000e+00
0.000000000000000e+00 0.000000000000000e+00 0.000000000000000e+00
0.000000000000000e+00 0.000000000000000e+00 0.000000000000000e+00

0.000000000000000e+00 0.000000000000000e+00 0.000000000000000e+00
0.000000000000000e+00 0.000000000000000e+00 0.000000000000000e+00
0.000000000000000e+00 0.000000000000000e+00 0.000000000000000e+00

0.000000000000000e+00 0.000000000000000e+00 0.000000000000000e+00
0.000000000000000e+00 0.000000000000000e+00 0.000000000000000e+00
0.000000000000000e+00 0.000000000000000e+00 0.000000000000000e+00

0.000000000000000e+00 0.000000000000000e+00 0.000000000000000e+00
0.000000000000000e+00 0.000000000000000e+00 0.000000000000000e+00
0.000000000000000e+00 0.000000000000000e+00 0.000000000000000e+00

0.000000000000000e+00 0.000000000000000e+00 0.000000000000000e+00
0.000000000000000e+00 0.000000000000000e+00 0.000000000000000e+00
0.000000000000000e+00 0.000000000000000e+00 0.000000000000000e+00

0.000000000000000e+00 0.000000000000000e+00 0.000000000000000e+00
0.000000000000000e+00 0.000000000000000e+00 0.000000000000000e+00
0.000000000000000e+00 0.000000000000000e+00 0.000000000000000e+00

0.000000000000000e+00 0.000000000000000e+00 0.000000000000000e+00
0.000000000000000e+00 0.000000000000000e+00 0.000000000000000e+00
0.000000000000000e+00 0.000000000000000e+00 0.000000000000000e+00

0.000000000000000e+00 0.000000000000000e+00 0.000000000000000e+00
0.000000000000000e+00 0.000000000000000e+00 0.000000000000000e+00
0.000000000000000e+00 0.000000000000000e+00 0.000000000000000e+00

0.000000000000000e+00 0.000000000000000e+00 0.000000000000000e+00
0.000000000000000e+00 0.000000000000000e+00 0.000000000000000e+00
0.000000000000000e+00 0.000000000000000e+00 0.000000000000000e+00

0.000000000000000e+00 0.000000000000000e+00 0.000000000000000e+00
0.000000000000000e+00 0.000000000000000e+00 0.000000000000000e+00
0.000000000000000e+00 0.000000000000000e+00 0.000000000000000e+00

0.000000000000000e+00 0.000000000000000e+00 0.000000000000000e+00
0.000000000000000e+00 0.000000000000000e+00 0.000000000000000e+00
0.000000000000000e+00 0.000000000000000e+00 0.000000000000000e+00

0.000000000000000e+00 0.000000000000000e+00 0.000000000000000e+00
0.000000000000000e+00 0.000000000000000e+00 0.000000000000000e+00
0.000000000000000e+00 0.000000000000000e+00 0.000000000000000e+00

0.000000000000000e+00 0.000000000000000e+00 0.000000000000000e+00
0.000000000000000e+00 0.000000000000000e+00 0.000000000000000e+00
0.000000000000000e+00 0.000000000000000e+00 0.000000000000000e+00

0.000000000000000e+00 0.000000000000000e+00 0.000000000000000e+00
0.000000000000000e+00 0.000000000000000e+00 0.000000000000000e+00
0.000000000000000e+00 0.000000000000000e+00 0.000000000000000e+00

0.000000000000000e+00 0.000000000000000e+00 0.000000000000000e+00
0.000000000000000e+00 0.000000000000000e+00 0.000000000000000e+00
0.000000000000000e+00 0.000000000000000e+00 0.000000000000000e+00

0.000000000000000e+00 0.000000000000000e+00 0.000000000000000e+00
0.000000000000000e+00 0.000000000000000e+00 0.000000000000000e+00
0.000000000000000e+00 0.000000000000000e+00 0.000000000000000e+00

0.000000000000000e+00 0.000000000000000e+00 0.000000000000000e+00
0.000000000000000e+00 0.000000000000000e+00 0.000000000000000e+00
0.000000000000000e+00 0.000000000000000e+00 0.000000000000000e+00

0.000000000000000e+00 0.000000000000000e+00 0.000000000000000e+00
0.000000000000000e+00 0.000000000000000e+00 0.000000000000000e+00
0.000000000000000e+00 0.000000000000000e+00 0.000000000000000e+00

0.000000000000000e+00 0.000000000000000e+00 0.000000000000000e+00
0.000000000000000e+00 0.000000000000000e+00 0.000000000000000e+00
0.000000000000000e+00 0.000000000000000e+00 0.000000000000000e+00

0.000000000000000e+00 0.000000000000000e+00 0.000000000000000e+00
0.000000000000000e+00 0.000000000000000e+00 0.000000000000000e+00
0.000000000000000e+00 0.000000000000000e+00 0.000000000000000e+00

0.000000000000000e+00 0.000000000000000e+00 0.000000000000000e+00
0.000000000000000e+00 0.000000000000000e+00 0.000000000000000e+00
0.000000000000000e+00 0.000000000000000e+00 0.000000000000000e+00

0.000000000000000e+00 0.000000000000000e+00 0.000000000000000e+00
0.000000000000000e+00 0.000000000000000e+00 0.000000000000000e+00
0.000000000000000e+00 0.000000000000000e+00 0.000000000000000e+00

0.000000000000000e+00 0.000000000000000e+00 0.000000000000000e+00
0.000000000000000e+00 0.000000000000000e+00 0.000000000000000e+00
0.000000000000000e+00 0.000000000000000e+00 0.000000000000000e+00

0.000000000000000e+00 0.000000000000000e+00 0.000000000000000e+00
0.000000000000000e+00 0.000000000000000e+00 0.000000000000000e+00
0.000000000000000e+00 0.000000000000000e+00 0.000000000000000e+00

0.000000000000000e+00 0.000000000000000e+00 0.000000000000000e+00
0.000000000000000e+00 0.000000000000000e+00 0.000000000000000e+00
0.000000000000000e+00 0.000000000000000e+00 0.000000000000000e+00

0.000000000000000e+00 0.000000000000000e+00 0.000000000000000e+00
0.000000000000000e+00 0.000000000000000e+00 0.000000000000000e+00
0.000000000000000e+00 0.000000000000000e+00 0.000000000000000e+00

0.000000000000000e+00 0.000000000000000e+00 0.000000000000000e+00
0.000000000000000e+00 0.000000000000000e+00 0.000000000000000e+00
0.000000000000000e+00 0.000000000000000e+00 0.000000000000000e+00

0.000000000000000e+00 0.000000000000000e+00 0.000000000000000e+00
0.000000000000000e+00 0.000000000000000e+00 0.000000000000000e+00
0.000000000000000e+00 0.000000000000000e+00 0.000000000000000e+00

0.000000000000000e+00 0.000000000000000e+00 0.000000000000000e+00
0.000000000000000e+00 0.000000000000000e+00 0.000000000000000e+00
0.000000000000000e+00 0.000000000000000e+00 0.000000000000000e+00

0.000000000000000e+00 0.000000000000000e+00 0.000000000000000e+00
0.000000000000000e+00 0.000000000000000e+00 0.000000000000000e+00
0.000000000000000e+00 0.000000000000000e+00 0.000000000000000e+00

0.000000000000000e+00 0.000000000000000e+00 0.000000000000000e+00
0.000000000000000e+00 0.000000000000000e+00 0.000000000000000e+00
0.000000000000000e+00 0.000000000000000e+00 0.000000000000000e+00

0.000000000000000e+00 0.000000000000000e+00 0.000000000000000e+00
0.000000000000000e+00 0.000000000000000e+00 0.000000000000000e+00
0.000000000000000e+00 0.000000000000000e+00 0.000000000000000e+00

0.000000000000000e+00 0.000000000000000e+00 0.000000000000000e+00
0.000000000000000e+00 0.000000000000000e+00 0.000000000000000e+00
0.000000000000000e+00 0.000000000000000e+00 0.000000000000000e+00

0.000000000000000e+00 0.000000000000000e+00 0.000000000000000e+00
0.000000000000000e+00 0.000000000000000e+00 0.000000000000000e+00
0.000000000000000e+00 0.000000000000000e+00 0.000000000000000e+00

0.000000000000000e+00 0.000000000000000e+00 0.000000000000000e+00
0.000000000000000e+00 0.000000000000000e+00 0.000000000000000e+00
0.000000000000000e+00 0.000000000000000e+00 0.000000000000000e+00

0.000000000000000e+00 0.000000000000000e+00 0.000000000000000e+00
0.000000000000000e+00 0.000000000000000e+00 0.000000000000000e+00
0.000000000000000e+00 0.000000000000000e+00 0.000000000000000e+00

0.000000000000000e+00 0.000000000000000e+00 0.000000000000000e+00
0.000000000000000e+00 0.000000000000000e+00 0.000000000000000e+00
0.000000000000000e+00 0.000000000000000e+00 0.000000000000000e+00

0.000000000000000e+00 0.000000000000000e+00 0.000000000000000e+00
0.000000000000000e+00 0.000000000000000e+00 0.000000000000000e+00
0.000000000000000e+00 0.000000000000000e+00 0.000000000000000e+00

0.000000000000000e+00 0.000000000000000e+00 0.000000000000000e+00
0.000000000000000e+00 0.000000000000000e+00 0.000000000000000e+00
0.000000000000000e+00 0.000000000000000e+00 0.000000000000000e+00

0.000000000000000e+00 0.000000000000000e+00 0.000000000000000e+00
0.000000000000000e+00 0.000000000000000e+00 0.000000000000000e+00
0.000000000000000e+00 0.000000000000000e+00 0.000000000000000e+00

0.000000000000000e+00 0.000000000000000e+00 0.000000000000000e+00
0.000000000000000e+00 0.000000000000000e+00 0.000000000000000e+00
0.000000000000000e+00 0.000000000000000e+00 0.000000000000000e+00

0.000000000000000e+00 0.000000000000000e+00 0.000000000000000e+00
0.000000000000000e+00 0.000000000000000e+00 0.000000000000000e+00
0.000000000000000e+00 0.000000000000000e+00 0.000000000000000e+00

0.000000000000000e+00 0.000000000000000e+00 0.000000000000000e+00
0.000000000000000e+00 0.000000000000000e+00 0.000000000000000e+00
0.000000000000000e+00 0.000000000000000e+00 0.000000000000000e+00

0.000000000000000e+00 0.000000000000000e+00 0.000000000000000e+00
0.000000000000000e+00 0.000000000000000e+00 0.000000000000000e+00
0.000000000000000e+00 0.000000000000000e+00 0.000000000000000e+00

0.000000000000000e+00 0.000000000000000e+00 0.000000000000000e+00
0.000000000000000e+00 0.000000000000000e+00 0.000000000000000e+00
0.000000000000000e+00 0.000000000000000e+00 0.000000000000000e+00

0.000000000000000e+00 0.000000000000000e+00 0.000000000000000e+00
0.000000000000000e+00 0.000000000000000e+00 0.000000000000000e+00
0.000000000000000e+00 0.000000000000000e+00 0.000000000000000e+00

0.000000000000000e+00 0.000000000000000e+00 0.000000000000000e+00
0.000000000000000e+00 0.000000000000000e+00 0.000000000000000e+00
0.000000000000000e+00 0.000000000000000e+00 0.000000000000000e+00

0.000000000000000e+00 0.000000000000000e+00 0.000000000000000e+00
0.000000000000000e+00 0.000000000000000e+00 0.000000000000000e+00
0.000000000000000e+00 0.000000000000000e+00 0.000000000000000e+00

0.000000000000000e+00 0.000000000000000e+00 0.000000000000000e+00
0.000000000000000e+00 0.000000000000000e+00 0.000000000000000e+00
0.000000000000000e+00 0.000000000000000e+00 0.000000000000000e+00

0.000000000000000e+00 0.000000000000000e+00 0.000000000000000e+00
0.000000000000000e+00 0.000000000000000e+00 0.000000000000000e+00
0.000000000000000e+00 0.000000000000000e+00 0.000000000000000e+00

0.000000000000000e+00 0.000000000000000e+00 0.000000000000000e+00
0.000000000000000e+00 0.000000000000000e+00 0.000000000000000e+00
0.000000000000000e+00 0.000000000000000e+00 0.000000000000000e+00

0.000000000000000e+00 0.000000000000000e+00 0.000000000000000e+00
0.000000000000000e+00 0.000000000000000e+00 0.000000000000000e+00
0.000000000000000e+00 0.000000000000000e+00 0.000000000000000e+00

0.000000000000000e+00 0.000000000000000e+00 0.000000000000000e+00
0.000000000000000e+00 0.000000000000000e+00 0.000000000000000e+00
0.000000000000000e+00 0.000000000000000e+00 0.000000000000000e+00

0.000000000000000e+00 0.000000000000000e+00 0.000000000000000e+00
0.000000000000000e+00 0.000000000000000e+00 0.000000000000000e+00
0.000000000000000e+00 0.000000000000000e+00 0.000000000000000e+00

0.000000000000000e+00 0.000000000000000e+00 0.000000000000000e+00
0.000000000000000e+00 0.000000000000000e+00 0.000000000000000e+00
0.000000000000000e+00 0.000000000000000e+00 0.000000000000000e+00

0.000000000000000e+00 0.000000000000000e+00 0.000000000000000e+00
0.000000000000000e+00 0.000000000000000e+00 0.000000000000000e+00
0.000000000000000e+00 0.000000000000000e+00 0.000000000000000e+00

0.000000000000000e+00 0.000000000000000e+00 0.000000000000000e+00
0.000000000000000e+00 0.000000000000000e+00 0.000000000000000e+00
0.000000000000000e+00 0.000000000000000e+00 0.000000000000000e+00

0.000000000000000e+00 0.000000000000000e+00 0.000000000000000e+00
0.000000000000000e+00 0.000000000000000e+00 0.000000000000000e+00
0.000000000000000e+00 0.000000000000000e+00 0.000000000000000e+00

0.000000000000000e+00 0.000000000000000e+00 0.000000000000000e+00
0.000000000000000e+00 0.000000000000000e+00 0.000000000000000e+00
0.000000000000000e+00 0.000000000000000e+00 0.000000000000000e+00

0.000000000000000e+00 0.000000000000000e+00 0.000000000000000e+00
0.000000000000000e+00 0.000000000000000e+00 0.000000000000000e+00
0.000000000000000e+00 0.000000000000000e+00 0.000000000000000e+00

0.000000000000000e+00 0.000000000000000e+00 0.000000000000000e+00
0.000000000000000e+00 0.000000000000000e+00 0.000000000000000e+00
0.000000000000000e+00 0.000000000000000e+00 0.000000000000000e+00

0.000000000000000e+00 0.000000000000000e+00 0.000000000000000e+00
0.000000000000000e+00 0.000000000000000e+00 0.000000000000000e+00
0.000000000000000e+00 0.000000000000000e+00 0.000000000000000e+00

0.000000000000000e+00 0.000000000000000e+00 0.000000000000000e+00
0.000000000000000e+00 0.000000000000000e+00 0.000000000000000e+00
0.000000000000000e+00 0.000000000000000e+00 0.000000000000000e+00

0.000000000000000e+00 0.000000000000000e+00 0.000000000000000e+00
0.000000000000000e+00 0.000000000000000e+00 0.000000000000000e+00
0.000000000000000e+00 0.000000000000000e+00 0.000000000000000e+00

0.000000000000000e+00 0.000000000000000e+00 0.000000000000000e+00
0.000000000000000e+00 0.000000000000000e+00 0.000000000000000e+00
0.000000000000000e+00 0.000000000000000e+00 0.000000000000000e+00

0.000000000000000e+00 0.000000000000000e+00 0.000000000000000e+00
0.000000000000000e+00 0.000000000000000e+00 0.000000000000000e+00
0.000000000000000e+00 0.000000000000000e+00 0.000000000000000e+00

0.000000000000000e+00 0.000000000000000e+00 0.000000000000000e+00
0.000000000000000e+00 0.000000000000000e+00 0.000000000000000e+00
0.000000000000000e+00 0.000000000000000e+00 0.000000000000000e+00

0.000000000000000e+00 0.000000000000000e+00 0.000000000000000e+00
0.000000000000000e+00 0.000000000000000e+00 0.000000000000000e+00
0.000000000000000e+00 0.000000000000000e+00 0.000000000000000e+00

0.000000000000000e+00 0.000000000000000e+00 0.000000000000000e+00
0.000000000000000e+00 0.000000000000000e+00 0.000000000000000e+00
0.000000000000000e+00 0.000000000000000e+00 0.000000000000000e+00

0.000000000000000e+00 0.000000000000000e+00 0.000000000000000e+00
0.000000000000000e+00 0.000000000000000e+00 0.000000000000000e+00
0.000000000000000e+00 0.000000000000000e+00 0.000000000000000e+00

0.000000000000000e+00 0.000000000000000e+00 0.000000000000000e+00
0.000000000000000e+00 0.000000000000000e+00 0.000000000000000e+00
0.000000000000000e+00 0.000000000000000e+00 0.000000000000000e+00

0.000000000000000e+00 0.000000000000000e+00 0.000000000000000e+00
0.000000000000000e+00 0.000000000000000e+00 0.000000000000000e+00
0.000000000000000e+00 0.000000000000000e+00 0.000000000000000e+00

0.000000000000000e+00 0.000000000000000e+00 0.000000000000000e+00
0.000000000000000e+00 0.000000000000000e+00 0.000000000000000e+00
0.000000000000000e+00 0.000000000000000e+00 0.000000000000000e+00

0.000000000000000e+00 0.000000000000000e+00 0.000000000000000e+00
0.000000000000000e+00 0.000000000000000e+00 0.000000000000000e+00
0.000000000000000e+00 0.000000000000000e+00 0.000000000000000e+00

0.000000000000000e+00 0.000000000000000e+00 0.000000000000000e+00
0.000000000000000e+00 0.000000000000000e+00 0.000000000000000e+00
0.000000000000000e+00 0.000000000000000e+00 0.000000000000000e+00

0.000000000000000e+00 0.000000000000000e+00 0.000000000000000e+00
0.000000000000000e+00 0.000000000000000e+00 0.000000000000000e+00
0.000000000000000e+00 0.000000000000000e+00 0.000000000000000e+00

0.000000000000000e+00 0.000000000000000e+00 0.000000000000000e+00
0.000000000000000e+00 0.000000000000000e+00 0.000000000000000e+00
0.000000000000000e+00 0.000000000000000e+00 0.000000000000000e+00

0.000000000000000e+00 0.000000000000000e+00 0.000000000000000e+00
0.000000000000000e+00 0.000000000000000e+00 0.000000000000000e+00
0.000000000000000e+00 0.000000000000000e+00 0.000000000000000e+00

0.000000000000000e+00 0.000000000000000e+00 0.000000000000000e+00
0.000000000000000e+00 0.000000000000000e+00 0.000000000000000e+00
0.000000000000000e+00 0.000000000000000e+00 0.000000000000000e+00

0.000000000000000e+00 0.000000000000000e+00 0.000000000000000e+00
0.000000000000000e+00 0.000000000000000e+00 0.000000000000000e+00
0.000000000000000e+00 0.000000000000000e+00 0.000000000000000e+00

0.000000000000000e+00 0.000000000000000e+00 0.000000000000000e+00
0.000000000000000e+00 0.000000000000000e+00 0.000000000000000e+00
0.000000000000000e+00 0.000000000000000e+00 0.000000000000000e+00

0.000000000000000e+00 0.000000000000000e+00 0.000000000000000e+00
0.000000000000000e+00 0.000000000000000e+00 0.000000000000000e+00
0.000000000000000e+00 0.000000000000000e+00 0.000000000000000e+00

0.000000000000000e+00 0.000000000000000e+00 0.000000000000000e+00
0.000000000000000e+00 0.000000000000000e+00 0.000000000000000e+00
0.000000000000000e+00 0.000000000000000e+00 0.000000000000000e+00

0.000000000000000e+00 0.000000000000000e+00 0.000000000000000e+00
0.000000000000000e+00 0.000000000000000e+00 0.000000000000000e+00
0.000000000000000e+00 0.000000000000000e+00 0.000000000000000e+00

0.000000000000000e+00 0.000000000000000e+00 0.000000000000000e+00
0.000000000000000e+00 0.000000000000000e+00 0.000000000000000e+00
0.000000000000000e+00 0.000000000000000e+00 0.000000000000000e+00

0.000000000000000e+00 0.000000000000000e+00 0.000000000000000e+00
0.000000000000000e+00 0.000000000000000e+00 0.000000000000000e+00
0.000000000000000e+00 0.000000000000000e+00 0.000000000000000e+00

0.000000000000000e+00 0.000000000000000e+00 0.000000000000000e+00
0.000000000000000e+00 0.000000000000000e+00 0.000000000000000e+00
0.000000000000000e+00 0.000000000000000e+00 0.000000000000000e+00

0.000000000000000e+00 0.000000000000000e+00 0.000000000000000e+00
0.000000000000000e+00 0.000000000000000e+00 0.000000000000000e+00
0.000000000000000e+00 0.000000000000000e+00 0.000000000000000e+00

0.000000000000000e+00 0.000000000000000e+00 0.000000000000000e+00
0.000000000000000e+00 0.000000000000000e+00 0.000000000000000e+00
0.000000000000000e+00 0.000000000000000e+00 0.000000000000000e+00

0.000000000000000e+00 0.000000000000000e+00 0.000000000000000e+00
0.000000000000000e+00 0.000000000000000e+00 0.000000000000000e+00
0.000000000000000e+00 0.000000000000000e+00 0.000000000000000e+00

0.000000000000000e+00 0.000000000000000e+00 0.000000000000000e+00
0.000000000000000e+00 0.000000000000000e+00 0.000000000000000e+00
0.000000000000000e+00 0.000000000000000e+00 0.000000000000000e+00

0.000000000000000e+00 0.000000000000000e+00 0.000000000000000e+00
0.000000000000000e+00 0.000000000000000e+00 0.000000000000000e+00
0.000000000000000e+00 0.000000000000000e+00 0.000000000000000e+00

0.000000000000000e+00 0.000000000000000e+00 0.000000000000000e+00
0.000000000000000e+00 0.000000000000000e+00 0.000000000000000e+00
0.000000000000000e+00 0.000000000000000e+00 0.000000000000000e+00

0.000000000000000e+00 0.000000000000000e+00 0.000000000000000e+00
0.000000000000000e+00 0.000000000000000e+00 0.000000000000000e+00
0.000000000000000e+00 0.000000000000000e+00 0.000000000000000e+00

0.000000000000000e+00 0.000000000000000e+00 0.000000000000000e+00
0.000000000000000e+00 0.000000000000000e+00 0.000000000000000e+00
0.000000000000000e+00 0.000000000000000e+00 0.000000000000000e+00

0.000000000000000e+00 0.000000000000000e+00 0.000000000000000e+00
0.000000000000000e+00 0.000000000000000e+00 0.000000000000000e+00
0.000000000000000e+00 0.000000000000000e+00 0.000000000000000e+00

0.000000000000000e+00 0.000000000000000e+00 0.000000000000000e+00
0.000000000000000e+00 0.000000000000000e+00 0.000000000000000e+00
0.000000000000000e+00 0.000000000000000e+00 0.000000000000000e+00

0.000000000000000e+00 0.000000000000000e+00 0.000000000000000e+00
0.000000000000000e+00 0.000000000000000e+00 0.000000000000000e+00
0.000000000000000e+00 0.000000000000000e+00 0.000000000000000e+00

0.000000000000000e+00 0.000000000000000e+00 0.000000000000000e+00
0.000000000000000e+00 0.000000000000000e+00 0.000000000000000e+00
0.000000000000000e+00 0.000000000000000e+00 0.000000000000000e+00

0.000000000000000e+00 0.000000000000000e+00 0.000000000000000e+00
0.000000000000000e+00 0.000000000000000e+00 0.000000000000000e+00
0.000000000000000e+00 0.000000000000000e+00 0.000000000000000e+00

0.000000000000000e+00 0.000000000000000e+00 0.000000000000000e+00
0.000000000000000e+00 0.000000000000000e+00 0.000000000000000e+00
0.000000000000000e+00 0.000000000000000e+00 0.000000000000000e+00

0.000000000000000e+00 0.000000000000000e+00 0.000000000000000e+00
0.000000000000000e+00 0.000000000000000e+00 0.000000000000000e+00
0.000000000000000e+00 0.000000000000000e+00 0.000000000000000e+00

0.000000000000000e+00 0.000000000000000e+00 0.000000000000000e+00
0.000000000000000e+00 0.000000000000000e+00 0.000000000000000e+00
0.000000000000000e+00 0.000000000000000e+00 0.000000000000000e+00

0.000000000000000e+00 0.000000000000000e+00 0.000000000000000e+00
0.000000000000000e+00 0.000000000000000e+00 0.000000000000000e+00
0.000000000000000e+00 0.000000000000000e+00 0.000000000000000e+00

0.000000000000000e+00 0.000000000000000e+00 0.000000000000000e+00
0.000000000000000e+00 0.000000000000000e+00 0.000000000000000e+00
0.000000000000000e+00 0.000000000000000e+00 0.000000000000000e+00

0.000000000000000e+00 0.000000000000000e+00 0.000000000000000e+00
0.000000000000000e+00 0.000000000000000e+00 0.000000000000000e+00
0.000000000000000e+00 0.000000000000000e+00 0.000000000000000e+00

0.000000000000000e+00 0.000000000000000e+00 0.000000000000000e+00
0.000000000000000e+00 0.000000000000000e+00 0.000000000000000e+00
0.000000000000000e+00 0.000000000000000e+00 0.000000000000000e+00

0.000000000000000e+00 0.000000000000000e+00 0.000000000000000e+00
0.000000000000000e+00 0.000000000000000e+00 0.000000000000000e+00
0.000000000000000e+00 0.000000000000000e+00 0.000000000000000e+00

0.000000000000000e+00 0.000000000000000e+00 0.000000000000000e+00
0.000000000000000e+00 0.000000000000000e+00 0.000000000000000e+00
0.000000000000000e+00 0.000000000000000e+00 0.000000000000000e+00

0.000000000000000e+00 0.000000000000000e+00 0.000000000000000e+00
0.000000000000000e+00 0.000000000000000e+00 0.000000000000000e+00
0.000000000000000e+00 0.000000000000000e+00 0.000000000000000e+00

0.000000000000000e+00 0.000000000000000e+00 0.000000000000000e+00
0.000000000000000e+00 0.000000000000000e+00 0.000000000000000e+00
0.000000000000000e+00 0.000000000000000e+00 0.000000000000000e+00

0.000000000000000e+00 0.000000000000000e+00 0.000000000000000e+00
0.000000000000000e+00 0.000000000000000e+00 0.000000000000000e+00
0.000000000000000e+00 0.000000000000000e+00 0.000000000000000e+00

0.000000000000000e+00 0.000000000000000e+00 0.000000000000000e+00
0.000000000000000e+00 0.000000000000000e+00 0.000000000000000e+00
0.000000000000000e+00 0.000000000000000e+00 0.000000000000000e+00

0.000000000000000e+00 0.000000000000000e+00 0.000000000000000e+00
0.000000000000000e+00 0.000000000000000e+00 0.000000000000000e+00
0.000000000000000e+00 0.000000000000000e+00 0.000000000000000e+00

0.000000000000000e+00 0.000000000000000e+00 0.000000000000000e+00
0.000000000000000e+00 0.000000000000000e+00 0.000000000000000e+00
0.000000000000000e+00 0.000000000000000e+00 0.000000000000000e+00

0.000000000000000e+00 0.000000000000000e+00 0.000000000000000e+00
0.000000000000000e+00 0.000000000000000e+00 0.000000000000000e+00
0.000000000000000e+00 0.000000000000000e+00 0.000000000000000e+00

0.000000000000000e+00 0.000000000000000e+00 0.000000000000000e+00
0.000000000000000e+00 0.000000000000000e+00 0.000000000000000e+00
0.000000000000000e+00 0.000000000000000e+00 0.000000000000000e+00

0.000000000000000e+00 0.000000000000000e+00 0.000000000000000e+00
0.000000000000000e+00 0.000000000000000e+00 0.000000000000000e+00
0.000000000000000e+00 0.000000000000000e+00 0.000000000000000e+00

0.000000000000000e+00 0.000000000000000e+00 0.000000000000000e+00
0.000000000000000e+00 0.000000000000000e+00 0.000000000000000e+00
0.000000000000000e+00 0.000000000000000e+00 0.000000000000000e+00

0.000000000000000e+00 0.000000000000000e+00 0.000000000000000e+00
0.000000000000000e+00 0.000000000000000e+00 0.000000000000000e+00
0.000000000000000e+00 0.000000000000000e+00 0.000000000000000e+00

0.000000000000000e+00 0.000000000000000e+00 0.000000000000000e+00
0.000000000000000e+00 0.000000000000000e+00 0.000000000000000e+00
0.000000000000000e+00 0.000000000000000e+00 0.000000000000000e+00

0.000000000000000e+00 0.000000000000000e+00 0.000000000000000e+00
0.000000000000000e+00 0.000000000000000e+00 0.000000000000000e+00
0.000000000000000e+00 0.000000000000000e+00 0.000000000000000e+00

0.000000000000000e+00 0.000000000000000e+00 0.000000000000000e+00
0.000000000000000e+00 0.000000000000000e+00 0.000000000000000e+00
0.000000000000000e+00 0.000000000000000e+00 0.000000000000000e+00

0.000000000000000e+00 0.000000000000000e+00 0.000000000000000e+00
0.000000000000000e+00 0.000000000000000e+00 0.000000000000000e+00
0.000000000000000e+00 0.000000000000000e+00 0.000000000000000e+00

0.000000000000000e+00 0.000000000000000e+00 0.000000000000000e+00
0.000000000000000e+00 0.000000000000000e+00 0.000000000000000e+00
0.000000000000000e+00 0.000000000000000e+00 0.000000000000000e+00

0.000000000000000e+00 0.000000000000000e+00 0.000000000000000e+00
0.000000000000000e+00 0.000000000000000e+00 0.000000000000000e+00
0.000000000000000e+00 0.000000000000000e+00 0.000000000000000e+00

0.000000000000000e+00 0.000000000000000e+00 0.000000000000000e+00
0.000000000000000e+00 0.000000000000000e+00 0.000000000000000e+00
0.000000000000000e+00 0.000000000000000e+00 0.000000000000000e+00

0.000000000000000e+00 0.000000000000000e+00 0.000000000000000e+00
0.000000000000000e+00 0.000000000000000e+00 0.000000000000000e+00
0.000000000000000e+00 0.000000000000000e+00 0.000000000000000e+00

0.000000000000000e+00 0.000000000000000e+00 0.000000000000000e+00
0.000000000000000e+00 0.000000000000000e+00 0.000000000000000e+00
0.000000000000000e+00 0.000000000000000e+00 0.000000000000000e+00

0.000000000000000e+00 0.000000000000000e+00 0.000000000000000e+00
0.000000000000000e+00 0.000000000000000e+00 0.000000000000000e+00
0.000000000000000e+00 0.000000000000000e+00 0.000000000000000e+00

0.000000000000000e+00 0.000000000000000e+00 0.000000000000000e+00
0.000000000000000e+00 0.000000000000000e+00 0.000000000000000e+00
0.000000000000000e+00 0.000000000000000e+00 0.000000000000000e+00

0.000000000000000e+00 0.000000000000000e+00 0.000000000000000e+00
0.000000000000000e+00 0.000000000000000e+00 0.000000000000000e+00
0.000000000000000e+00 0.000000000000000e+00 0.000000000000000e+00

0.000000000000000e+00 0.000000000000000e+00 0.000000000000000e+00
0.000000000000000e+00 0.000000000000000e+00 0.000000000000000e+00
0.000000000000000e+00 0.000000000000000e+00 0.000000000000000e+00

0.000000000000000e+00 0.000000000000000e+00 0.000000000000000e+00
0.000000000000000e+00 0.000000000000000e+00 0.000000000000000e+00
0.000000000000000e+00 0.000000000000000e+00 0.000000000000000e+00

0.000000000000000e+00 0.000000000000000e+00 0.000000000000000e+00
0.000000000000000e+00 0.000000000000000e+00 0.000000000000000e+00
0.000000000000000e+00 0.000000000000000e+00 0.000000000000000e+00

0.000000000000000e+00 0.000000000000000e+00 0.000000000000000e+00
0.000000000000000e+00 0.000000000000000e+00 0.000000000000000e+00
0.000000000000000e+00 0.000000000000000e+00 0.000000000000000e+00

0.000000000000000e+00 0.000000000000000e+00 0.000000000000000e+00
0.000000000000000e+00 0.000000000000000e+00 0.000000000000000e+00
0.000000000000000e+00 0.000000000000000e+00 0.000000000000000e+00

0.000000000000000e+00 0.000000000000000e+00 0.000000000000000e+00
0.000000000000000e+00 0.000000000000000e+00 0.000000000000000e+00
0.000000000000000e+00 0.000000000000000e+00 0.000000000000000e+00

0.000000000000000e+00 0.000000000000000e+00 0.000000000000000e+00
0.000000000000000e+00 0.000000000000000e+00 0.000000000000000e+00
0.000000000000000e+00 0.000000000000000e+00 0.000000000000000e+00

0.000000000000000e+00 0.000000000000000e+00 0.000000000000000e+00
0.000000000000000e+00 0.000000000000000e+00 0.000000000000000e+00
0.000000000000000e+00 0.000000000000000e+00 0.000000000000000e+00

0.000000000000000e+00 0.000000000000000e+00 0.000000000000000e+00
0.000000000000000e+00 0.000000000000000e+00 0.000000000000000e+00
0.000000000000000e+00 0.000000000000000e+00 0.000000000000000e+00

0.000000000000000e+00 0.000000000000000e+00 0.000000000000000e+00
0.000000000000000e+00 0.000000000000000e+00 0.000000000000000e+00
0.000000000000000e+00 0.000000000000000e+00 0.000000000000000e+00

0.000000000000000e+00 0.000000000000000e+00 0.000000000000000e+00
0.000000000000000e+00 0.000000000000000e+00 0.000000000000000e+00
0.000000000000000e+00 0.000000000000000e+00 0.000000000000000e+00

0.000000000000000e+00 0.000000000000000e+00 0.000000000000000e+00
0.000000000000000e+00 0.000000000000000e+00 0.000000000000000e+00
0.000000000000000e+00 0.000000000000000e+00 0.000000000000000e+00

0.000000000000000e+00 0.000000000000000e+00 0.000000000000000e+00
0.000000000000000e+00 0.000000000000000e+00 0.000000000000000e+00
0.000000000000000e+00 0.000000000000000e+00 0.000000000000000e+00

0.000000000000000e+00 0.000000000000000e+00 0.000000000000000e+00
0.000000000000000e+00 0.000000000000000e+00 0.000000000000000e+00
0.000000000000000e+00 0.000000000000000e+00 0.000000000000000e+00

0.000000000000000e+00 0.000000000000000e+00 0.000000000000000e+00
0.000000000000000e+00 0.000000000000000e+00 0.000000000000000e+00
0.000000000000000e+00 0.000000000000000e+00 0.000000000000000e+00

0.000000000000000e+00 0.000000000000000e+00 0.000000000000000e+00
0.000000000000000e+00 0.000000000000000e+00 0.000000000000000e+00
0.000000000000000e+00 0.000000000000000e+00 0.000000000000000e+00

0.000000000000000e+00 0.000000000000000e+00 0.000000000000000e+00
0.000000000000000e+00 0.000000000000000e+00 0.000000000000000e+00
0.000000000000000e+00 0.000000000000000e+00 0.000000000000000e+00

0.000000000000000e+00 0.000000000000000e+00 0.000000000000000e+00
0.000000000000000e+00 0.000000000000000e+00 0.000000000000000e+00
0.000000000000000e+00 0.000000000000000e+00 0.000000000000000e+00

0.000000000000000e+00 0.000000000000000e+00 0.000000000000000e+00
0.000000000000000e+00 0.000000000000000e+00 0.000000000000000e+00
0.000000000000000e+00 0.000000000000000e+00 0.000000000000000e+00

0.000000000000000e+00 0.000000000000000e+00 0.000000000000000e+00
0.000000000000000e+00 0.000000000000000e+00 0.000000000000000e+00
0.000000000000000e+00 0.000000000000000e+00 0.000000000000000e+00

0.000000000000000e+00 0.000000000000000e+00 0.000000000000000e+00
0.000000000000000e+00 0.000000000000000e+00 0.000000000000000e+00
0.000000000000000e+00 0.000000000000000e+00 0.000000000000000e+00

0.000000000000000e+00 0.000000000000000e+00 0.000000000000000e+00
0.000000000000000e+00 0.000000000000000e+00 0.000000000000000e+00
0.000000000000000e+00 0.000000000000000e+00 0.000000000000000e+00

0.000000000000000e+00 0.000000000000000e+00 0.000000000000000e+00
0.000000000000000e+00 0.000000000000000e+00 0.000000000000000e+00
0.000000000000000e+00 0.000000000000000e+00 0.000000000000000e+00

0.000000000000000e+00 0.000000000000000e+00 0.000000000000000e+00
0.000000000000000e+00 0.000000000000000e+00 0.000000000000000e+00
0.000000000000000e+00 0.000000000000000e+00 0.000000000000000e+00

0.000000000000000e+00 0.000000000000000e+00 0.000000000000000e+00
0.000000000000000e+00 0.000000000000000e+00 0.000000000000000e+00
0.000000000000000e+00 0.000000000000000e+00 0.000000000000000e+00

0.000000000000000e+00 0.000000000000000e+00 0.000000000000000e+00
0.000000000000000e+00 0.000000000000000e+00 0.000000000000000e+00
0.000000000000000e+00 0.000000000000000e+00 0.000000000000000e+00

0.000000000000000e+00 0.000000000000000e+00 0.000000000000000e+00
0.000000000000000e+00 0.000000000000000e+00 0.000000000000000e+00
0.000000000000000e+00 0.000000000000000e+00 0.000000000000000e+00

0.000000000000000e+00 0.000000000000000e+00 0.000000000000000e+00
0.000000000000000e+00 0.000000000000000e+00 0.000000000000000e+00
0.000000000000000e+00 0.000000000000000e+00 0.000000000000000e+00

0.000000000000000e+00 0.000000000000000e+00 0.000000000000000e+00
0.000000000000000e+00 0.000000000000000e+00 0.000000000000000e+00
0.000000000000000e+00 0.000000000000000e+00 0.000000000000000e+00

0.000000000000000e+00 0.000000000000000e+00 0.000000000000000e+00
0.000000000000000e+00 0.000000000000000e+00 0.000000000000000e+00
0.000000000000000e+00 0.000000000000000e+00 0.000000000000000e+00

0.000000000000000e+00 0.000000000000000e+00 0.000000000000000e+00
0.000000000000000e+00 0.000000000000000e+00 0.000000000000000e+00
0.000000000000000e+00 0.000000000000000e+00 0.000000000000000e+00

0.000000000000000e+00 0.000000000000000e+00 0.000000000000000e+00
0.000000000000000e+00 0.000000000000000e+00 0.000000000000000e+00
0.000000000000000e+00 0.000000000000000e+00 0.000000000000000e+00

0.000000000000000e+00 0.000000000000000e+00 0.000000000000000e+00
0.000000000000000e+00 0.000000000000000e+00 0.000000000000000e+00
0.000000000000000e+00 0.000000000000000e+00 0.000000000000000e+00

0.000000000000000e+00 0.000000000000000e+00 0.000000000000000e+00
0.000000000000000e+00 0.000000000000000e+00 0.000000000000000e+00
0.000000000000000e+00 0.000000000000000e+00 0.000000000000000e+00

0.000000000000000e+00 0.000000000000000e+00 0.000000000000000e+00
0.000000000000000e+00 0.000000000000000e+00 0.000000000000000e+00
0.000000000000000e+00 0.000000000000000e+00 0.000000000000000e+00

0.000000000000000e+00 0.000000000000000e+00 0.000000000000000e+00
0.000000000000000e+00 0.000000000000000e+00 0.000000000000000e+00
0.000000000000000e+00 0.000000000000000e+00 0.000000000000000e+00

0.000000000000000e+00 0.000000000000000e+00 0.000000000000000e+00
0.000000000000000e+00 0.000000000000000e+00 0.000000000000000e+00
0.000000000000000e+00 0.000000000000000e+00 0.000000000000000e+00

0.000000000000000e+00 0.000000000000000e+00 0.000000000000000e+00
0.000000000000000e+00 0.000000000000000e+00 0.000000000000000e+00
0.000000000000000e+00 0.000000000000000e+00 0.000000000000000e+00

0.000000000000000e+00 0.000000000000000e+00 0.000000000000000e+00
0.000000000000000e+00 0.000000000000000e+00 0.000000000000000e+00
0.000000000000000e+00 0.000000000000000e+00 0.000000000000000e+00

0.000000000000000e+00 0.000000000000000e+00 0.000000000000000e+00
0.000000000000000e+00 0.000000000000000e+00 0.000000000000000e+00
0.000000000000000e+00 0.000000000000000e+00 0.000000000000000e+00

0.000000000000000e+00 0.000000000000000e+00 0.000000000000000e+00
0.000000000000000e+00 0.000000000000000e+00 0.000000000000000e+00
0.000000000000000e+00 0.000000000000000e+00 0.000000000000000e+00

0.000000000000000e+00 0.000000000000000e+00 0.000000000000000e+00
0.000000000000000e+00 0.000000000000000e+00 0.000000000000000e+00
0.000000000000000e+00 0.000000000000000e+00 0.000000000000000e+00

0.000000000000000e+00 0.000000000000000e+00 0.000000000000000e+00
0.000000000000000e+00 0.000000000000000e+00 0.000000000000000e+00
0.000000000000000e+00 0.000000000000000e+00 0.000000000000000e+00

0.000000000000000e+00 0.000000000000000e+00 0.000000000000000e+00
0.000000000000000e+00 0.000000000000000e+00 0.000000000000000e+00
0.000000000000000e+00 0.000000000000000e+00 0.000000000000000e+00

0.000000000000000e+00 0.000000000000000e+00 0.000000000000000e+00
0.000000000000000e+00 0.000000000000000e+00 0.000000000000000e+00
0.000000000000000e+00 0.000000000000000e+00 0.000000000000000e+00

0.000000000000000e+00 0.000000000000000e+00 0.000000000000000e+00
0.000000000000000e+00 0.000000000000000e+00 0.000000000000000e+00
0.000000000000000e+00 0.000000000000000e+00 0.000000000000000e+00

0.000000000000000e+00 0.000000000000000e+00 0.000000000000000e+00
0.000000000000000e+00 0.000000000000000e+00 0.000000000000000e+00
0.000000000000000e+00 0.000000000000000e+00 0.000000000000000e+00

0.000000000000000e+00 0.000000000000000e+00 0.000000000000000e+00
0.000000000000000e+00 0.000000000000000e+00 0.000000000000000e+00
0.000000000000000e+00 0.000000000000000e+00 0.000000000000000e+00

0.000000000000000e+00 0.000000000000000e+00 0.000000000000000e+00
0.000000000000000e+00 0.000000000000000e+00 0.000000000000000e+00
0.000000000000000e+00 0.000000000000000e+00 0.000000000000000e+00

0.000000000000000e+00 0.000000000000000e+00 0.000000000000000e+00
0.000000000000000e+00 0.000000000000000e+00 0.000000000000000e+00
0.000000000000000e+00 0.000000000000000e+00 0.000000000000000e+00

0.000000000000000e+00 0.000000000000000e+00 0.000000000000000e+00
0.000000000000000e+00 0.000000000000000e+00 0.000000000000000e+00
0.000000000000000e+00 0.000000000000000e+00 0.000000000000000e+00

0.000000000000000e+00 0.000000000000000e+00 0.000000000000000e+00
0.000000000000000e+00 0.000000000000000e+00 0.000000000000000e+00
0.000000000000000e+00 0.000000000000000e+00 0.000000000000000e+00

0.000000000000000e+00 0.000000000000000e+00 0.000000000000000e+00
0.000000000000000e+00 0.000000000000000e+00 0.000000000000000e+00
0.000000000000000e+00 0.000000000000000e+00 0.000000000000000e+00

0.000000000000000e+00 0.000000000000000e+00 0.000000000000000e+00
0.000000000000000e+00 0.000000000000000e+00 0.000000000000000e+00
0.000000000000000e+00 0.000000000000000e+00 0.000000000000000e+00

0.000000000000000e+00 0.000000000000000e+00 0.000000000000000e+00
0.000000000000000e+00 0.000000000000000e+00 0.000000000000000e+00
0.000000000000000e+00 0.000000000000000e+00 0.000000000000000e+00

0.000000000000000e+00 0.000000000000000e+00 0.000000000000000e+00
0.000000000000000e+00 0.000000000000000e+00 0.000000000000000e+00
0.000000000000000e+00 0.000000000000000e+00 0.000000000000000e+00

0.000000000000000e+00 0.000000000000000e+00 0.000000000000000e+00
0.000000000000000e+00 0.000000000000000e+00 0.000000000000000e+00
0.000000000000000e+00 0.000000000000000e+00 0.000000000000000e+00

0.000000000000000e+00 0.000000000000000e+00 0.000000000000000e+00
0.000000000000000e+00 0.000000000000000e+00 0.000000000000000e+00
0.000000000000000e+00 0.000000000000000e+00 0.000000000000000e+00

0.000000000000000e+00 0.000000000000000e+00 0.000000000000000e+00
0.000000000000000e+00 0.000000000000000e+00 0.000000000000000e+00
0.000000000000000e+00 0.000000000000000e+00 0.000000000000000e+00

0.000000000000000e+00 0.000000000000000e+00 0.000000000000000e+00
0.000000000000000e+00 0.000000000000000e+00 0.000000000000000e+00
0.000000000000000e+00 0.000000000000000e+00 0.000000000000000e+00

0.000000000000000e+00 0.000000000000000e+00 0.000000000000000e+00
0.000000000000000e+00 0.000000000000000e+00 0.000000000000000e+00
0.000000000000000e+00 0.000000000000000e+00 0.000000000000000e+00

0.000000000000000e+00 0.000000000000000e+00 0.000000000000000e+00
0.000000000000000e+00 0.000000000000000e+00 0.000000000000000e+00
0.000000000000000e+00 0.000000000000000e+00 0.000000000000000e+00

0.000000000000000e+00 0.000000000000000e+00 0.000000000000000e+00
0.000000000000000e+00 0.000000000000000e+00 0.000000000000000e+00
0.000000000000000e+00 0.000000000000000e+00 0.000000000000000e+00

0.000000000000000e+00 0.000000000000000e+00 0.000000000000000e+00
0.000000000000000e+00 0.000000000000000e+00 0.000000000000000e+00
0.000000000000000e+00 0.000000000000000e+00 0.000000000000000e+00

0.000000000000000e+00 0.000000000000000e+00 0.000000000000000e+00
0.000000000000000e+00 0.000000000000000e+00 0.000000000000000e+00
0.000000000000000e+00 0.000000000000000e+00 0.000000000000000e+00

0.000000000000000e+00 0.000000000000000e+00 0.000000000000000e+00
0.000000000000000e+00 0.000000000000000e+00 0.000000000000000e+00
0.000000000000000e+00 0.000000000000000e+00 0.000000000000000e+00

0.000000000000000e+00 0.000000000000000e+00 0.000000000000000e+00
0.000000000000000e+00 0.000000000000000e+00 0.000000000000000e+00
0.000000000000000e+00 0.000000000000000e+00 0.000000000000000e+00

0.000000000000000e+00 0.000000000000000e+00 0.000000000000000e+00
0.000000000000000e+00 0.000000000000000e+00 0.000000000000000e+00
0.000000000000000e+00 0.000000000000000e+00 0.000000000000000e+00

0.000000000000000e+00 0.000000000000000e+00 0.000000000000000e+00
0.000000000000000e+00 0.000000000000000e+00 0.000000000000000e+00
0.000000000000000e+00 0.000000000000000e+00 0.000000000000000e+00

0.000000000000000e+00 0.000000000000000e+00 0.000000000000000e+00
0.000000000000000e+00 0.000000000000000e+00 0.000000000000000e+00
0.000000000000000e+00 0.000000000000000e+00 0.000000000000000e+00

0.000000000000000e+00 0.000000000000000e+00 0.000000000000000e+00
0.000000000000000e+00 0.000000000000000e+00 0.000000000000000e+00
0.000000000000000e+00 0.000000000000000e+00 0.000000000000000e+00

0.000000000000000e+00 0.000000000000000e+00 0.000000000000000e+00
0.000000000000000e+00 0.000000000000000e+00 0.000000000000000e+00
0.000000000000000e+00 0.000000000000000e+00 0.000000000000000e+00

0.000000000000000e+00 0.000000000000000e+00 0.000000000000000e+00
0.000000000000000e+00 0.000000000000000e+00 0.000000000000000e+00
0.000000000000000e+00 0.000000000000000e+00 0.000000000000000e+00

0.000000000000000e+00 0.000000000000000e+00 0.000000000000000e+00
0.000000000000000e+00 0.000000000000000e+00 0.000000000000000e+00
0.000000000000000e+00 0.000000000000000e+00 0.000000000000000e+00

0.000000000000000e+00 0.000000000000000e+00 0.000000000000000e+00
0.000000000000000e+00 0.000000000000000e+00 0.000000000000000e+00
0.000000000000000e+00 0.000000000000000e+00 0.000000000000000e+00

0.000000000000000e+00 0.000000000000000e+00 0.000000000000000e+00
0.000000000000000e+00 0.000000000000000e+00 0.000000000000000e+00
0.000000000000000e+00 0.000000000000000e+00 0.000000000000000e+00

0.000000000000000e+00 0.000000000000000e+00 0.000000000000000e+00
0.000000000000000e+00 0.000000000000000e+00 0.000000000000000e+00
0.000000000000000e+00 0.000000000000000e+00 0.000000000000000e+00

0.000000000000000e+00 0.000000000000000e+00 0.000000000000000e+00
0.000000000000000e+00 0.000000000000000e+00 0.000000000000000e+00
0.000000000000000e+00 0.000000000000000e+00 0.000000000000000e+00

0.000000000000000e+00 0.000000000000000e+00 0.000000000000000e+00
0.000000000000000e+00 0.000000000000000e+00 0.000000000000000e+00
0.000000000000000e+00 0.000000000000000e+00 0.000000000000000e+00

0.000000000000000e+00 0.000000000000000e+00 0.000000000000000e+00
0.000000000000000e+00 0.000000000000000e+00 0.000000000000000e+00
0.000000000000000e+00 0.000000000000000e+00 0.000000000000000e+00

0.000000000000000e+00 0.000000000000000e+00 0.000000000000000e+00
0.000000000000000e+00 0.000000000000000e+00 0.000000000000000e+00
0.000000000000000e+00 0.000000000000000e+00 0.000000000000000e+00

0.000000000000000e+00 0.000000000000000e+00 0.000000000000000e+00
0.000000000000000e+00 0.000000000000000e+00 0.000000000000000e+00
0.000000000000000e+00 0.000000000000000e+00 0.000000000000000e+00

0.000000000000000e+00 0.000000000000000e+00 0.000000000000000e+00
0.000000000000000e+00 0.000000000000000e+00 0.000000000000000e+00
0.000000000000000e+00 0.000000000000000e+00 0.000000000000000e+00

0.000000000000000e+00 0.000000000000000e+00 0.000000000000000e+00
0.000000000000000e+00 0.000000000000000e+00 0.000000000000000e+00
0.000000000000000e+00 0.000000000000000e+00 0.000000000000000e+00

0.000000000000000e+00 0.000000000000000e+00 0.000000000000000e+00
0.000000000000000e+00 0.000000000000000e+00 0.000000000000000e+00
0.000000000000000e+00 0.000000000000000e+00 0.000000000000000e+00

0.000000000000000e+00 0.000000000000000e+00 0.000000000000000e+00
0.000000000000000e+00 0.000000000000000e+00 0.000000000000000e+00
0.000000000000000e+00 0.000000000000000e+00 0.000000000000000e+00

0.000000000000000e+00 0.000000000000000e+00 0.000000000000000e+00
0.000000000000000e+00 0.000000000000000e+00 0.000000000000000e+00
0.000000000000000e+00 0.000000000000000e+00 0.000000000000000e+00

0.000000000000000e+00 0.000000000000000e+00 0.000000000000000e+00
0.000000000000000e+00 0.000000000000000e+00 0.000000000000000e+00
0.000000000000000e+00 0.000000000000000e+00 0.000000000000000e+00

0.000000000000000e+00 0.000000000000000e+00 0.000000000000000e+00
0.000000000000000e+00 0.000000000000000e+00 0.000000000000000e+00
0.000000000000000e+00 0.000000000000000e+00 0.000000000000000e+00

0.000000000000000e+00 0.000000000000000e+00 0.000000000000000e+00
0.000000000000000e+00 0.000000000000000e+00 0.000000000000000e+00
0.000000000000000e+00 0.000000000000000e+00 0.000000000000000e+00

0.000000000000000e+00 0.000000000000000e+00 0.000000000000000e+00
0.000000000000000e+00 0.000000000000000e+00 0.000000000000000e+00
0.000000000000000e+00 0.000000000000000e+00 0.000000000000000e+00

0.000000000000000e+00 0.000000000000000e+00 0.000000000000000e+00
0.000000000000000e+00 0.000000000000000e+00 0.000000000000000e+00
0.000000000000000e+00 0.000000000000000e+00 0.000000000000000e+00

0.000000000000000e+00 0.000000000000000e+00 0.000000000000000e+00
0.000000000000000e+00 0.000000000000000e+00 0.000000000000000e+00
0.000000000000000e+00 0.000000000000000e+00 0.000000000000000e+00

0.000000000000000e+00 0.000000000000000e+00 0.000000000000000e+00
0.000000000000000e+00 0.000000000000000e+00 0.000000000000000e+00
0.000000000000000e+00 0.000000000000000e+00 0.000000000000000e+00

0.000000000000000e+00 0.000000000000000e+00 0.000000000000000e+00
0.000000000000000e+00 0.000000000000000e+00 0.000000000000000e+00
0.000000000000000e+00 0.000000000000000e+00 0.000000000000000e+00

0.000000000000000e+00 0.000000000000000e+00 0.000000000000000e+00
0.000000000000000e+00 0.000000000000000e+00 0.000000000000000e+00
0.000000000000000e+00 0.000000000000000e+00 0.000000000000000e+00

0.000000000000000e+00 0.000000000000000e+00 0.000000000000000e+00
0.000000000000000e+00 0.000000000000000e+00 0.000000000000000e+00
0.000000000000000e+00 0.000000000000000e+00 0.000000000000000e+00

0.000000000000000e+00 0.000000000000000e+00 0.000000000000000e+00
0.000000000000000e+00 0.000000000000000e+00 0.000000000000000e+00
0.000000000000000e+00 0.000000000000000e+00 0.000000000000000e+00

0.000000000000000e+00 0.000000000000000e+00 0.000000000000000e+00
0.000000000000000e+00 0.000000000000000e+00 0.000000000000000e+00
0.000000000000000e+00 0.000000000000000e+00 0.000000000000000e+00

0.000000000000000e+00 0.000000000000000e+00 0.000000000000000e+00
0.000000000000000e+00 0.000000000000000e+00 0.000000000000000e+00
0.000000000000000e+00 0.000000000000000e+00 0.000000000000000e+00

0.000000000000000e+00 0.000000000000000e+00 0.000000000000000e+00
0.000000000000000e+00 0.000000000000000e+00 0.000000000000000e+00
0.000000000000000e+00 0.000000000000000e+00 0.000000000000000e+00

0.000000000000000e+00 0.000000000000000e+00 0.000000000000000e+00
0.000000000000000e+00 0.000000000000000e+00 0.000000000000000e+00
0.000000000000000e+00 0.000000000000000e+00 0.000000000000000e+00

0.000000000000000e+00 0.000000000000000e+00 0.000000000000000e+00
0.000000000000000e+00 0.000000000000000e+00 0.000000000000000e+00
0.000000000000000e+00 0.000000000000000e+00 0.000000000000000e+00

0.000000000000000e+00 0.000000000000000e+00 0.000000000000000e+00
0.000000000000000e+00 0.000000000000000e+00 0.000000000000000e+00
0.000000000000000e+00 0.000000000000000e+00 0.000000000000000e+00

0.000000000000000e+00 0.000000000000000e+00 0.000000000000000e+00
0.000000000000000e+00 0.000000000000000e+00 0.000000000000000e+00
0.000000000000000e+00 0.000000000000000e+00 0.000000000000000e+00

0.000000000000000e+00 0.000000000000000e+00 0.000000000000000e+00
0.000000000000000e+00 0.000000000000000e+00 0.000000000000000e+00
0.000000000000000e+00 0.000000000000000e+00 0.000000000000000e+00

0.000000000000000e+00 0.000000000000000e+00 0.000000000000000e+00
0.000000000000000e+00 0.000000000000000e+00 0.000000000000000e+00
0.000000000000000e+00 0.000000000000000e+00 0.000000000000000e+00

0.000000000000000e+00 0.000000000000000e+00 0.000000000000000e+00
0.000000000000000e+00 0.000000000000000e+00 0.000000000000000e+00
0.000000000000000e+00 0.000000000000000e+00 0.000000000000000e+00

0.000000000000000e+00 0.000000000000000e+00 0.000000000000000e+00
0.000000000000000e+00 0.000000000000000e+00 0.000000000000000e+00
0.000000000000000e+00 0.000000000000000e+00 0.000000000000000e+00

0.000000000000000e+00 0.000000000000000e+00 0.000000000000000e+00
0.000000000000000e+00 0.000000000000000e+00 0.000000000000000e+00
0.000000000000000e+00 0.000000000000000e+00 0.000000000000000e+00

0.000000000000000e+00 0.000000000000000e+00 0.000000000000000e+00
0.000000000000000e+00 0.000000000000000e+00 0.000000000000000e+00
0.000000000000000e+00 0.000000000000000e+00 0.000000000000000e+00

0.000000000000000e+00 0.000000000000000e+00 0.000000000000000e+00
0.000000000000000e+00 0.000000000000000e+00 0.000000000000000e+00
0.000000000000000e+00 0.000000000000000e+00 0.000000000000000e+00

0.000000000000000e+00 0.000000000000000e+00 0.000000000000000e+00
0.000000000000000e+00 0.000000000000000e+00 0.000000000000000e+00
0.000000000000000e+00 0.000000000000000e+00 0.000000000000000e+00

0.000000000000000e+00 0.000000000000000e+00 0.000000000000000e+00
0.000000000000000e+00 0.000000000000000e+00 0.000000000000000e+00
0.000000000000000e+00 0.000000000000000e+00 0.000000000000000e+00

0.000000000000000e+00 0.000000000000000e+00 0.000000000000000e+00
0.000000000000000e+00 0.000000000000000e+00 0.000000000000000e+00
0.000000000000000e+00 0.000000000000000e+00 0.000000000000000e+00

0.000000000000000e+00 0.000000000000000e+00 0.000000000000000e+00
0.000000000000000e+00 0.000000000000000e+00 0.000000000000000e+00
0.000000000000000e+00 0.000000000000000e+00 0.000000000000000e+00

0.000000000000000e+00 0.000000000000000e+00 0.000000000000000e+00
0.000000000000000e+00 0.000000000000000e+00 0.000000000000000e+00
0.000000000000000e+00 0.000000000000000e+00 0.000000000000000e+00

0.000000000000000e+00 0.000000000000000e+00 0.000000000000000e+00
0.000000000000000e+00 0.000000000000000e+00 0.000000000000000e+00
0.000000000000000e+00 0.000000000000000e+00 0.000000000000000e+00

0.000000000000000e+00 0.000000000000000e+00 0.000000000000000e+00
0.000000000000000e+00 0.000000000000000e+00 0.000000000000000e+00
0.000000000000000e+00 0.000000000000000e+00 0.000000000000000e+00

0.000000000000000e+00 0.000000000000000e+00 0.000000000000000e+00
0.000000000000000e+00 0.000000000000000e+00 0.000000000000000e+00
0.000000000000000e+00 0.000000000000000e+00 0.000000000000000e+00

0.000000000000000e+00 0.000000000000000e+00 0.000000000000000e+00
0.000000000000000e+00 0.000000000000000e+00 0.000000000000000e+00
0.000000000000000e+00 0.000000000000000e+00 0.000000000000000e+00

0.000000000000000e+00 0.000000000000000e+00 0.000000000000000e+00
0.000000000000000e+00 0.000000000000000e+00 0.000000000000000e+00
0.000000000000000e+00 0.000000000000000e+00 0.000000000000000e+00

0.000000000000000e+00 0.000000000000000e+00 0.000000000000000e+00
0.000000000000000e+00 0.000000000000000e+00 0.000000000000000e+00
0.000000000000000e+00 0.000000000000000e+00 0.000000000000000e+00

0.000000000000000e+00 0.000000000000000e+00 0.000000000000000e+00
0.000000000000000e+00 0.000000000000000e+00 0.000000000000000e+00
0.000000000000000e+00 0.000000000000000e+00 0.000000000000000e+00

0.000000000000000e+00 0.000000000000000e+00 0.000000000000000e+00
0.000000000000000e+00 0.000000000000000e+00 0.000000000000000e+00
0.000000000000000e+00 0.000000000000000e+00 0.000000000000000e+00

0.000000000000000e+00 0.000000000000000e+00 0.000000000000000e+00
0.000000000000000e+00 0.000000000000000e+00 0.000000000000000e+00
0.000000000000000e+00 0.000000000000000e+00 0.000000000000000e+00

0.000000000000000e+00 0.000000000000000e+00 0.000000000000000e+00
0.000000000000000e+00 0.000000000000000e+00 0.000000000000000e+00
0.000000000000000e+00 0.000000000000000e+00 0.000000000000000e+00

0.000000000000000e+00 0.000000000000000e+00 0.000000000000000e+00
0.000000000000000e+00 0.000000000000000e+00 0.000000000000000e+00
0.000000000000000e+00 0.000000000000000e+00 0.000000000000000e+00

0.000000000000000e+00 0.000000000000000e+00 0.000000000000000e+00
0.000000000000000e+00 0.000000000000000e+00 0.000000000000000e+00
0.000000000000000e+00 0.000000000000000e+00 0.000000000000000e+00

0.000000000000000e+00 0.000000000000000e+00 0.000000000000000e+00
0.000000000000000e+00 0.000000000000000e+00 0.000000000000000e+00
0.000000000000000e+00 0.000000000000000e+00 0.000000000000000e+00

0.000000000000000e+00 0.000000000000000e+00 0.000000000000000e+00
0.000000000000000e+00 0.000000000000000e+00 0.000000000000000e+00
0.000000000000000e+00 0.000000000000000e+00 0.000000000000000e+00

0.000000000000000e+00 0.000000000000000e+00 0.000000000000000e+00
0.000000000000000e+00 0.000000000000000e+00 0.000000000000000e+00
0.000000000000000e+00 0.000000000000000e+00 0.000000000000000e+00

0.000000000000000e+00 0.000000000000000e+00 0.000000000000000e+00
0.000000000000000e+00 0.000000000000000e+00 0.000000000000000e+00
0.000000000000000e+00 0.000000000000000e+00 0.000000000000000e+00

0.000000000000000e+00 0.000000000000000e+00 0.000000000000000e+00
0.000000000000000e+00 0.000000000000000e+00 0.000000000000000e+00
0.000000000000000e+00 0.000000000000000e+00 0.000000000000000e+00

0.000000000000000e+00 0.000000000000000e+00 0.000000000000000e+00
0.000000000000000e+00 0.000000000000000e+00 0.000000000000000e+00
0.000000000000000e+00 0.000000000000000e+00 0.000000000000000e+00

0.000000000000000e+00 0.000000000000000e+00 0.000000000000000e+00
0.000000000000000e+00 0.000000000000000e+00 0.000000000000000e+00
0.000000000000000e+00 0.000000000000000e+00 0.000000000000000e+00

0.000000000000000e+00 0.000000000000000e+00 0.000000000000000e+00
0.000000000000000e+00 0.000000000000000e+00 0.000000000000000e+00
0.000000000000000e+00 0.000000000000000e+00 0.000000000000000e+00

0.000000000000000e+00 0.000000000000000e+00 0.000000000000000e+00
0.000000000000000e+00 0.000000000000000e+00 0.000000000000000e+00
0.000000000000000e+00 0.000000000000000e+00 0.000000000000000e+00

0.000000000000000e+00 0.000000000000000e+00 0.000000000000000e+00
0.000000000000000e+00 0.000000000000000e+00 0.000000000000000e+00
0.000000000000000e+00 0.000000000000000e+00 0.000000000000000e+00

0.000000000000000e+00 0.000000000000000e+00 0.000000000000000e+00
0.000000000000000e+00 0.000000000000000e+00 0.000000000000000e+00
0.000000000000000e+00 0.000000000000000e+00 0.000000000000000e+00

0.000000000000000e+00 0.000000000000000e+00 0.000000000000000e+00
0.000000000000000e+00 0.000000000000000e+00 0.000000000000000e+00
0.000000000000000e+00 0.000000000000000e+00 0.000000000000000e+00

0.000000000000000e+00 0.000000000000000e+00 0.000000000000000e+00
0.000000000000000e+00 0.000000000000000e+00 0.000000000000000e+00
0.000000000000000e+00 0.000000000000000e+00 0.000000000000000e+00

0.000000000000000e+00 0.000000000000000e+00 0.000000000000000e+00
0.000000000000000e+00 0.000000000000000e+00 0.000000000000000e+00
0.000000000000000e+00 0.000000000000000e+00 0.000000000000000e+00

0.000000000000000e+00 0.000000000000000e+00 0.000000000000000e+00
0.000000000000000e+00 0.000000000000000e+00 0.000000000000000e+00
0.000000000000000e+00 0.000000000000000e+00 0.000000000000000e+00

0.000000000000000e+00 0.000000000000000e+00 0.000000000000000e+00
0.000000000000000e+00 0.000000000000000e+00 0.000000000000000e+00
0.000000000000000e+00 0.000000000000000e+00 0.000000000000000e+00

0.000000000000000e+00 0.000000000000000e+00 0.000000000000000e+00
0.000000000000000e+00 0.000000000000000e+00 0.000000000000000e+00
0.000000000000000e+00 0.000000000000000e+00 0.000000000000000e+00

0.000000000000000e+00 0.000000000000000e+00 0.000000000000000e+00
0.000000000000000e+00 0.000000000000000e+00 0.000000000000000e+00
0.000000000000000e+00 0.000000000000000e+00 0.000000000000000e+00

0.000000000000000e+00 0.000000000000000e+00 0.000000000000000e+00
0.000000000000000e+00 0.000000000000000e+00 0.000000000000000e+00
0.000000000000000e+00 0.000000000000000e+00 0.000000000000000e+00

0.000000000000000e+00 0.000000000000000e+00 0.000000000000000e+00
0.000000000000000e+00 0.000000000000000e+00 0.000000000000000e+00
0.000000000000000e+00 0.000000000000000e+00 0.000000000000000e+00

0.000000000000000e+00 0.000000000000000e+00 0.000000000000000e+00
0.000000000000000e+00 0.000000000000000e+00 0.000000000000000e+00
0.000000000000000e+00 0.000000000000000e+00 0.000000000000000e+00

0.000000000000000e+00 0.000000000000000e+00 0.000000000000000e+00
0.000000000000000e+00 0.000000000000000e+00 0.000000000000000e+00
0.000000000000000e+00 0.000000000000000e+00 0.000000000000000e+00

0.000000000000000e+00 0.000000000000000e+00 0.000000000000000e+00
0.000000000000000e+00 0.000000000000000e+00 0.000000000000000e+00
0.000000000000000e+00 0.000000000000000e+00 0.000000000000000e+00

0.000000000000000e+00 0.000000000000000e+00 0.000000000000000e+00
0.000000000000000e+00 0.000000000000000e+00 0.000000000000000e+00
0.000000000000000e+00 0.000000000000000e+00 0.000000000000000e+00

0.000000000000000e+00 0.000000000000000e+00 0.000000000000000e+00
0.000000000000000e+00 0.000000000000000e+00 0.000000000000000e+00
0.000000000000000e+00 0.000000000000000e+00 0.000000000000000e+00

0.000000000000000e+00 0.000000000000000e+00 0.000000000000000e+00
0.000000000000000e+00 0.000000000000000e+00 0.000000000000000e+00
0.000000000000000e+00 0.000000000000000e+00 0.000000000000000e+00

0.000000000000000e+00 0.000000000000000e+00 0.000000000000000e+00
0.000000000000000e+00 0.000000000000000e+00 0.000000000000000e+00
0.000000000000000e+00 0.000000000000000e+00 0.000000000000000e+00

0.000000000000000e+00 0.000000000000000e+00 0.000000000000000e+00
0.000000000000000e+00 0.000000000000000e+00 0.000000000000000e+00
0.000000000000000e+00 0.000000000000000e+00 0.000000000000000e+00

0.000000000000000e+00 0.000000000000000e+00 0.000000000000000e+00
0.000000000000000e+00 0.000000000000000e+00 0.000000000000000e+00
0.000000000000000e+00 0.000000000000000e+00 0.000000000000000e+00

0.000000000000000e+00 0.000000000000000e+00 0.000000000000000e+00
0.000000000000000e+00 0.000000000000000e+00 0.000000000000000e+00
0.000000000000000e+00 0.000000000000000e+00 0.000000000000000e+00

0.000000000000000e+00 0.000000000000000e+00 0.000000000000000e+00
0.000000000000000e+00 0.000000000000000e+00 0.000000000000000e+00
0.000000000000000e+00 0.000000000000000e+00 0.000000000000000e+00

0.000000000000000e+00 0.000000000000000e+00 0.000000000000000e+00
0.000000000000000e+00 0.000000000000000e+00 0.000000000000000e+00
0.000000000000000e+00 0.000000000000000e+00 0.000000000000000e+00

0.000000000000000e+00 0.000000000000000e+00 0.000000000000000e+00
0.000000000000000e+00 0.000000000000000e+00 0.000000000000000e+00
0.000000000000000e+00 0.000000000000000e+00 0.000000000000000e+00

0.000000000000000e+00 0.000000000000000e+00 0.000000000000000e+00
0.000000000000000e+00 0.000000000000000e+00 0.000000000000000e+00
0.000000000000000e+00 0.000000000000000e+00 0.000000000000000e+00

0.000000000000000e+00 0.000000000000000e+00 0.000000000000000e+00
0.000000000000000e+00 0.000000000000000e+00 0.000000000000000e+00
0.000000000000000e+00 0.000000000000000e+00 0.000000000000000e+00

0.000000000000000e+00 0.000000000000000e+00 0.000000000000000e+00
0.000000000000000e+00 0.000000000000000e+00 0.000000000000000e+00
0.000000000000000e+00 0.000000000000000e+00 0.000000000000000e+00

0.000000000000000e+00 0.000000000000000e+00 0.000000000000000e+00
0.000000000000000e+00 0.000000000000000e+00 0.000000000000000e+00
0.000000000000000e+00 0.000000000000000e+00 0.000000000000000e+00

0.000000000000000e+00 0.000000000000000e+00 0.000000000000000e+00
0.000000000000000e+00 0.000000000000000e+00 0.000000000000000e+00
0.000000000000000e+00 0.000000000000000e+00 0.000000000000000e+00

0.000000000000000e+00 0.000000000000000e+00 0.000000000000000e+00
0.000000000000000e+00 0.000000000000000e+00 0.000000000000000e+00
0.000000000000000e+00 0.000000000000000e+00 0.000000000000000e+00

0.000000000000000e+00 0.000000000000000e+00 0.000000000000000e+00
0.000000000000000e+00 0.000000000000000e+00 0.000000000000000e+00
0.000000000000000e+00 0.000000000000000e+00 0.000000000000000e+00

0.000000000000000e+00 0.000000000000000e+00 0.000000000000000e+00
0.000000000000000e+00 0.000000000000000e+00 0.000000000000000e+00
0.000000000000000e+00 0.000000000000000e+00 0.000000000000000e+00

0.000000000000000e+00 0.000000000000000e+00 0.000000000000000e+00
0.000000000000000e+00 0.000000000000000e+00 0.000000000000000e+00
0.000000000000000e+00 0.000000000000000e+00 0.000000000000000e+00

0.000000000000000e+00 0.000000000000000e+00 0.000000000000000e+00
0.000000000000000e+00 0.000000000000000e+00 0.000000000000000e+00
0.000000000000000e+00 0.000000000000000e+00 0.000000000000000e+00

0.000000000000000e+00 0.000000000000000e+00 0.000000000000000e+00
0.000000000000000e+00 0.000000000000000e+00 0.000000000000000e+00
0.000000000000000e+00 0.000000000000000e+00 0.000000000000000e+00

0.000000000000000e+00 0.000000000000000e+00 0.000000000000000e+00
0.000000000000000e+00 0.000000000000000e+00 0.000000000000000e+00
0.000000000000000e+00 0.000000000000000e+00 0.000000000000000e+00

0.000000000000000e+00 0.000000000000000e+00 0.000000000000000e+00
0.000000000000000e+00 0.000000000000000e+00 0.000000000000000e+00
0.000000000000000e+00 0.000000000000000e+00 0.000000000000000e+00

0.000000000000000e+00 0.000000000000000e+00 0.000000000000000e+00
0.000000000000000e+00 0.000000000000000e+00 0.000000000000000e+00
0.000000000000000e+00 0.000000000000000e+00 0.000000000000000e+00

0.000000000000000e+00 0.000000000000000e+00 0.000000000000000e+00
0.000000000000000e+00 0.000000000000000e+00 0.000000000000000e+00
0.000000000000000e+00 0.000000000000000e+00 0.000000000000000e+00

0.000000000000000e+00 0.000000000000000e+00 0.000000000000000e+00
0.000000000000000e+00 0.000000000000000e+00 0.000000000000000e+00
0.000000000000000e+00 0.000000000000000e+00 0.000000000000000e+00

0.000000000000000e+00 0.000000000000000e+00 0.000000000000000e+00
0.000000000000000e+00 0.000000000000000e+00 0.000000000000000e+00
0.000000000000000e+00 0.000000000000000e+00 0.000000000000000e+00

0.000000000000000e+00 0.000000000000000e+00 0.000000000000000e+00
0.000000000000000e+00 0.000000000000000e+00 0.000000000000000e+00
0.000000000000000e+00 0.000000000000000e+00 0.000000000000000e+00

0.000000000000000e+00 0.000000000000000e+00 0.000000000000000e+00
0.000000000000000e+00 0.000000000000000e+00 0.000000000000000e+00
0.000000000000000e+00 0.000000000000000e+00 0.000000000000000e+00

0.000000000000000e+00 0.000000000000000e+00 0.000000000000000e+00
0.000000000000000e+00 0.000000000000000e+00 0.000000000000000e+00
0.000000000000000e+00 0.000000000000000e+00 0.000000000000000e+00

0.000000000000000e+00 0.000000000000000e+00 0.000000000000000e+00
0.000000000000000e+00 0.000000000000000e+00 0.000000000000000e+00
0.000000000000000e+00 0.000000000000000e+00 0.000000000000000e+00

0.000000000000000e+00 0.000000000000000e+00 0.000000000000000e+00
0.000000000000000e+00 0.000000000000000e+00 0.000000000000000e+00
0.000000000000000e+00 0.000000000000000e+00 0.000000000000000e+00

0.000000000000000e+00 0.000000000000000e+00 0.000000000000000e+00
0.000000000000000e+00 0.000000000000000e+00 0.000000000000000e+00
0.000000000000000e+00 0.000000000000000e+00 0.000000000000000e+00

0.000000000000000e+00 0.000000000000000e+00 0.000000000000000e+00
0.000000000000000e+00 0.000000000000000e+00 0.000000000000000e+00
0.000000000000000e+00 0.000000000000000e+00 0.000000000000000e+00

0.000000000000000e+00 0.000000000000000e+00 0.000000000000000e+00
0.000000000000000e+00 0.000000000000000e+00 0.000000000000000e+00
0.000000000000000e+00 0.000000000000000e+00 0.000000000000000e+00

0.000000000000000e+00 0.000000000000000e+00 0.000000000000000e+00
0.000000000000000e+00 0.000000000000000e+00 0.000000000000000e+00
0.000000000000000e+00 0.000000000000000e+00 0.000000000000000e+00

0.000000000000000e+00 0.000000000000000e+00 0.000000000000000e+00
0.000000000000000e+00 0.000000000000000e+00 0.000000000000000e+00
0.000000000000000e+00 0.000000000000000e+00 0.000000000000000e+00

0.000000000000000e+00 0.000000000000000e+00 0.000000000000000e+00
0.000000000000000e+00 0.000000000000000e+00 0.000000000000000e+00
0.000000000000000e+00 0.000000000000000e+00 0.000000000000000e+00

0.000000000000000e+00 0.000000000000000e+00 0.000000000000000e+00
0.000000000000000e+00 0.000000000000000e+00 0.000000000000000e+00
0.000000000000000e+00 0.000000000000000e+00 0.000000000000000e+00

0.000000000000000e+00 0.000000000000000e+00 0.000000000000000e+00
0.000000000000000e+00 0.000000000000000e+00 0.000000000000000e+00
0.000000000000000e+00 0.000000000000000e+00 0.000000000000000e+00

0.000000000000000e+00 0.000000000000000e+00 0.000000000000000e+00
0.000000000000000e+00 0.000000000000000e+00 0.000000000000000e+00
0.000000000000000e+00 0.000000000000000e+00 0.000000000000000e+00

0.000000000000000e+00 0.000000000000000e+00 0.000000000000000e+00
0.000000000000000e+00 0.000000000000000e+00 0.000000000000000e+00
0.000000000000000e+00 0.000000000000000e+00 0.000000000000000e+00

0.000000000000000e+00 0.000000000000000e+00 0.000000000000000e+00
0.000000000000000e+00 0.000000000000000e+00 0.000000000000000e+00
0.000000000000000e+00 0.000000000000000e+00 0.000000000000000e+00

0.000000000000000e+00 0.000000000000000e+00 0.000000000000000e+00
0.000000000000000e+00 0.000000000000000e+00 0.000000000000000e+00
0.000000000000000e+00 0.000000000000000e+00 0.000000000000000e+00

0.000000000000000e+00 0.000000000000000e+00 0.000000000000000e+00
0.000000000000000e+00 0.000000000000000e+00 0.000000000000000e+00
0.000000000000000e+00 0.000000000000000e+00 0.000000000000000e+00

0.000000000000000e+00 0.000000000000000e+00 0.000000000000000e+00
0.000000000000000e+00 0.000000000000000e+00 0.000000000000000e+00
0.000000000000000e+00 0.000000000000000e+00 0.000000000000000e+00

0.000000000000000e+00 0.000000000000000e+00 0.000000000000000e+00
0.000000000000000e+00 0.000000000000000e+00 0.000000000000000e+00
0.000000000000000e+00 0.000000000000000e+00 0.000000000000000e+00

0.000000000000000e+00 0.000000000000000e+00 0.000000000000000e+00
0.000000000000000e+00 0.000000000000000e+00 0.000000000000000e+00
0.000000000000000e+00 0.000000000000000e+00 0.000000000000000e+00

0.000000000000000e+00 0.000000000000000e+00 0.000000000000000e+00
0.000000000000000e+00 0.000000000000000e+00 0.000000000000000e+00
0.000000000000000e+00 0.000000000000000e+00 0.000000000000000e+00

0.000000000000000e+00 0.000000000000000e+00 0.000000000000000e+00
0.000000000000000e+00 0.000000000000000e+00 0.000000000000000e+00
0.000000000000000e+00 0.000000000000000e+00 0.000000000000000e+00

0.000000000000000e+00 0.000000000000000e+00 0.000000000000000e+00
0.000000000000000e+00 0.000000000000000e+00 0.000000000000000e+00
0.000000000000000e+00 0.000000000000000e+00 0.000000000000000e+00

0.000000000000000e+00 0.000000000000000e+00 0.000000000000000e+00
0.000000000000000e+00 0.000000000000000e+00 0.000000000000000e+00
0.000000000000000e+00 0.000000000000000e+00 0.000000000000000e+00

0.000000000000000e+00 0.000000000000000e+00 0.000000000000000e+00
0.000000000000000e+00 0.000000000000000e+00 0.000000000000000e+00
0.000000000000000e+00 0.000000000000000e+00 0.000000000000000e+00

0.000000000000000e+00 0.000000000000000e+00 0.000000000000000e+00
0.000000000000000e+00 0.000000000000000e+00 0.000000000000000e+00
0.000000000000000e+00 0.000000000000000e+00 0.000000000000000e+00

0.000000000000000e+00 0.000000000000000e+00 0.000000000000000e+00
0.000000000000000e+00 0.000000000000000e+00 0.000000000000000e+00
0.000000000000000e+00 0.000000000000000e+00 0.000000000000000e+00

0.000000000000000e+00 0.000000000000000e+00 0.000000000000000e+00
0.000000000000000e+00 0.000000000000000e+00 0.000000000000000e+00
0.000000000000000e+00 0.000000000000000e+00 0.000000000000000e+00

0.000000000000000e+00 0.000000000000000e+00 0.000000000000000e+00
0.000000000000000e+00 0.000000000000000e+00 0.000000000000000e+00
0.000000000000000e+00 0.000000000000000e+00 0.000000000000000e+00

0.000000000000000e+00 0.000000000000000e+00 0.000000000000000e+00
0.000000000000000e+00 0.000000000000000e+00 0.000000000000000e+00
0.000000000000000e+00 0.000000000000000e+00 0.000000000000000e+00

0.000000000000000e+00 0.000000000000000e+00 0.000000000000000e+00
0.000000000000000e+00 0.000000000000000e+00 0.000000000000000e+00
0.000000000000000e+00 0.000000000000000e+00 0.000000000000000e+00

0.000000000000000e+00 0.000000000000000e+00 0.000000000000000e+00
0.000000000000000e+00 0.000000000000000e+00 0.000000000000000e+00
0.000000000000000e+00 0.000000000000000e+00 0.000000000000000e+00

0.000000000000000e+00 0.000000000000000e+00 0.000000000000000e+00
0.000000000000000e+00 0.000000000000000e+00 0.000000000000000e+00
0.000000000000000e+00 0.000000000000000e+00 0.000000000000000e+00

0.000000000000000e+00 0.000000000000000e+00 0.000000000000000e+00
0.000000000000000e+00 0.000000000000000e+00 0.000000000000000e+00
0.000000000000000e+00 0.000000000000000e+00 0.000000000000000e+00

0.000000000000000e+00 0.000000000000000e+00 0.000000000000000e+00
0.000000000000000e+00 0.000000000000000e+00 0.000000000000000e+00
0.000000000000000e+00 0.000000000000000e+00 0.000000000000000e+00

0.000000000000000e+00 0.000000000000000e+00 0.000000000000000e+00
0.000000000000000e+00 0.000000000000000e+00 0.000000000000000e+00
0.000000000000000e+00 0.000000000000000e+00 0.000000000000000e+00

0.000000000000000e+00 0.000000000000000e+00 0.000000000000000e+00
0.000000000000000e+00 0.000000000000000e+00 0.000000000000000e+00
0.000000000000000e+00 0.000000000000000e+00 0.000000000000000e+00

0.000000000000000e+00 0.000000000000000e+00 0.000000000000000e+00
0.000000000000000e+00 0.000000000000000e+00 0.000000000000000e+00
0.000000000000000e+00 0.000000000000000e+00 0.000000000000000e+00

0.000000000000000e+00 0.000000000000000e+00 0.000000000000000e+00
0.000000000000000e+00 0.000000000000000e+00 0.000000000000000e+00
0.000000000000000e+00 0.000000000000000e+00 0.000000000000000e+00

0.000000000000000e+00 0.000000000000000e+00 0.000000000000000e+00
0.000000000000000e+00 0.000000000000000e+00 0.000000000000000e+00
0.000000000000000e+00 0.000000000000000e+00 0.000000000000000e+00

0.000000000000000e+00 0.000000000000000e+00 0.000000000000000e+00
0.000000000000000e+00 0.000000000000000e+00 0.000000000000000e+00
0.000000000000000e+00 0.000000000000000e+00 0.000000000000000e+00

0.000000000000000e+00 0.000000000000000e+00 0.000000000000000e+00
0.000000000000000e+00 0.000000000000000e+00 0.000000000000000e+00
0.000000000000000e+00 0.000000000000000e+00 0.000000000000000e+00

0.000000000000000e+00 0.000000000000000e+00 0.000000000000000e+00
0.000000000000000e+00 0.000000000000000e+00 0.000000000000000e+00
0.000000000000000e+00 0.000000000000000e+00 0.000000000000000e+00

0.000000000000000e+00 0.000000000000000e+00 0.000000000000000e+00
0.000000000000000e+00 0.000000000000000e+00 0.000000000000000e+00
0.000000000000000e+00 0.000000000000000e+00 0.000000000000000e+00

0.000000000000000e+00 0.000000000000000e+00 0.000000000000000e+00
0.000000000000000e+00 0.000000000000000e+00 0.000000000000000e+00
0.000000000000000e+00 0.000000000000000e+00 0.000000000000000e+00

0.000000000000000e+00 0.000000000000000e+00 0.000000000000000e+00
0.000000000000000e+00 0.000000000000000e+00 0.000000000000000e+00
0.000000000000000e+00 0.000000000000000e+00 0.000000000000000e+00

0.000000000000000e+00 0.000000000000000e+00 0.000000000000000e+00
0.000000000000000e+00 0.000000000000000e+00 0.000000000000000e+00
0.000000000000000e+00 0.000000000000000e+00 0.000000000000000e+00

0.000000000000000e+00 0.000000000000000e+00 0.000000000000000e+00
0.000000000000000e+00 0.000000000000000e+00 0.000000000000000e+00
0.000000000000000e+00 0.000000000000000e+00 0.000000000000000e+00

0.000000000000000e+00 0.000000000000000e+00 0.000000000000000e+00
0.000000000000000e+00 0.000000000000000e+00 0.000000000000000e+00
0.000000000000000e+00 0.000000000000000e+00 0.000000000000000e+00

0.000000000000000e+00 0.000000000000000e+00 0.000000000000000e+00
0.000000000000000e+00 0.000000000000000e+00 0.000000000000000e+00
0.000000000000000e+00 0.000000000000000e+00 0.000000000000000e+00

0.000000000000000e+00 0.000000000000000e+00 0.000000000000000e+00
0.000000000000000e+00 0.000000000000000e+00 0.000000000000000e+00
0.000000000000000e+00 0.000000000000000e+00 0.000000000000000e+00

0.000000000000000e+00 0.000000000000000e+00 0.000000000000000e+00
0.000000000000000e+00 0.000000000000000e+00 0.000000000000000e+00
0.000000000000000e+00 0.000000000000000e+00 0.000000000000000e+00

0.000000000000000e+00 0.000000000000000e+00 0.000000000000000e+00
0.000000000000000e+00 0.000000000000000e+00 0.000000000000000e+00
0.000000000000000e+00 0.000000000000000e+00 0.000000000000000e+00

0.000000000000000e+00 0.000000000000000e+00 0.000000000000000e+00
0.000000000000000e+00 0.000000000000000e+00 0.000000000000000e+00
0.000000000000000e+00 0.000000000000000e+00 0.000000000000000e+00

0.000000000000000e+00 0.000000000000000e+00 0.000000000000000e+00
0.000000000000000e+00 0.000000000000000e+00 0.000000000000000e+00
0.000000000000000e+00 0.000000000000000e+00 0.000000000000000e+00

0.000000000000000e+00 0.000000000000000e+00 0.000000000000000e+00
0.000000000000000e+00 0.000000000000000e+00 0.000000000000000e+00
0.000000000000000e+00 0.000000000000000e+00 0.000000000000000e+00

0.000000000000000e+00 0.000000000000000e+00 0.000000000000000e+00
0.000000000000000e+00 0.000000000000000e+00 0.000000000000000e+00
0.000000000000000e+00 0.000000000000000e+00 0.000000000000000e+00

0.000000000000000e+00 0.000000000000000e+00 0.000000000000000e+00
0.000000000000000e+00 0.000000000000000e+00 0.000000000000000e+00
0.000000000000000e+00 0.000000000000000e+00 0.000000000000000e+00

0.000000000000000e+00 0.000000000000000e+00 0.000000000000000e+00
0.000000000000000e+00 0.000000000000000e+00 0.000000000000000e+00
0.000000000000000e+00 0.000000000000000e+00 0.000000000000000e+00

0.000000000000000e+00 0.000000000000000e+00 0.000000000000000e+00
0.000000000000000e+00 0.000000000000000e+00 0.000000000000000e+00
0.000000000000000e+00 0.000000000000000e+00 0.000000000000000e+00

0.000000000000000e+00 0.000000000000000e+00 0.000000000000000e+00
0.000000000000000e+00 0.000000000000000e+00 0.000000000000000e+00
0.000000000000000e+00 0.000000000000000e+00 0.000000000000000e+00

0.000000000000000e+00 0.000000000000000e+00 0.000000000000000e+00
0.000000000000000e+00 0.000000000000000e+00 0.000000000000000e+00
0.000000000000000e+00 0.000000000000000e+00 0.000000000000000e+00

0.000000000000000e+00 0.000000000000000e+00 0.000000000000000e+00
0.000000000000000e+00 0.000000000000000e+00 0.000000000000000e+00
0.000000000000000e+00 0.000000000000000e+00 0.000000000000000e+00

0.000000000000000e+00 0.000000000000000e+00 0.000000000000000e+00
0.000000000000000e+00 0.000000000000000e+00 0.000000000000000e+00
0.000000000000000e+00 0.000000000000000e+00 0.000000000000000e+00

0.000000000000000e+00 0.000000000000000e+00 0.000000000000000e+00
0.000000000000000e+00 0.000000000000000e+00 0.000000000000000e+00
0.000000000000000e+00 0.000000000000000e+00 0.000000000000000e+00

0.000000000000000e+00 0.000000000000000e+00 0.000000000000000e+00
0.000000000000000e+00 0.000000000000000e+00 0.000000000000000e+00
0.000000000000000e+00 0.000000000000000e+00 0.000000000000000e+00

0.000000000000000e+00 0.000000000000000e+00 0.000000000000000e+00
0.000000000000000e+00 0.000000000000000e+00 0.000000000000000e+00
0.000000000000000e+00 0.000000000000000e+00 0.000000000000000e+00

0.000000000000000e+00 0.000000000000000e+00 0.000000000000000e+00
0.000000000000000e+00 0.000000000000000e+00 0.000000000000000e+00
0.000000000000000e+00 0.000000000000000e+00 0.000000000000000e+00

0.000000000000000e+00 0.000000000000000e+00 0.000000000000000e+00
0.000000000000000e+00 0.000000000000000e+00 0.000000000000000e+00
0.000000000000000e+00 0.000000000000000e+00 0.000000000000000e+00

0.000000000000000e+00 0.000000000000000e+00 0.000000000000000e+00
0.000000000000000e+00 0.000000000000000e+00 0.000000000000000e+00
0.000000000000000e+00 0.000000000000000e+00 0.000000000000000e+00

0.000000000000000e+00 0.000000000000000e+00 0.000000000000000e+00
0.000000000000000e+00 0.000000000000000e+00 0.000000000000000e+00
0.000000000000000e+00 0.000000000000000e+00 0.000000000000000e+00

0.000000000000000e+00 0.000000000000000e+00 0.000000000000000e+00
0.000000000000000e+00 0.000000000000000e+00 0.000000000000000e+00
0.000000000000000e+00 0.000000000000000e+00 0.000000000000000e+00

0.000000000000000e+00 0.000000000000000e+00 0.000000000000000e+00
0.000000000000000e+00 0.000000000000000e+00 0.000000000000000e+00
0.000000000000000e+00 0.000000000000000e+00 0.000000000000000e+00

0.000000000000000e+00 0.000000000000000e+00 0.000000000000000e+00
0.000000000000000e+00 0.000000000000000e+00 0.000000000000000e+00
0.000000000000000e+00 0.000000000000000e+00 0.000000000000000e+00

0.000000000000000e+00 0.000000000000000e+00 0.000000000000000e+00
0.000000000000000e+00 0.000000000000000e+00 0.000000000000000e+00
0.000000000000000e+00 0.000000000000000e+00 0.000000000000000e+00

0.000000000000000e+00 0.000000000000000e+00 0.000000000000000e+00
0.000000000000000e+00 0.000000000000000e+00 0.000000000000000e+00
0.000000000000000e+00 0.000000000000000e+00 0.000000000000000e+00

0.000000000000000e+00 0.000000000000000e+00 0.000000000000000e+00
0.000000000000000e+00 0.000000000000000e+00 0.000000000000000e+00
0.000000000000000e+00 0.000000000000000e+00 0.000000000000000e+00

0.000000000000000e+00 0.000000000000000e+00 0.000000000000000e+00
0.000000000000000e+00 0.000000000000000e+00 0.000000000000000e+00
0.000000000000000e+00 0.000000000000000e+00 0.000000000000000e+00

0.000000000000000e+00 0.000000000000000e+00 0.000000000000000e+00
0.000000000000000e+00 0.000000000000000e+00 0.000000000000000e+00
0.000000000000000e+00 0.000000000000000e+00 0.000000000000000e+00

0.000000000000000e+00 0.000000000000000e+00 0.000000000000000e+00
0.000000000000000e+00 0.000000000000000e+00 0.000000000000000e+00
0.000000000000000e+00 0.000000000000000e+00 0.000000000000000e+00

0.000000000000000e+00 0.000000000000000e+00 0.000000000000000e+00
0.000000000000000e+00 0.000000000000000e+00 0.000000000000000e+00
0.000000000000000e+00 0.000000000000000e+00 0.000000000000000e+00

0.000000000000000e+00 0.000000000000000e+00 0.000000000000000e+00
0.000000000000000e+00 0.000000000000000e+00 0.000000000000000e+00
0.000000000000000e+00 0.000000000000000e+00 0.000000000000000e+00

0.000000000000000e+00 0.000000000000000e+00 0.000000000000000e+00
0.000000000000000e+00 0.000000000000000e+00 0.000000000000000e+00
0.000000000000000e+00 0.000000000000000e+00 0.000000000000000e+00

0.000000000000000e+00 0.000000000000000e+00 0.000000000000000e+00
0.000000000000000e+00 0.000000000000000e+00 0.000000000000000e+00
0.000000000000000e+00 0.000000000000000e+00 0.000000000000000e+00

0.000000000000000e+00 0.000000000000000e+00 0.000000000000000e+00
0.000000000000000e+00 0.000000000000000e+00 0.000000000000000e+00
0.000000000000000e+00 0.000000000000000e+00 0.000000000000000e+00

0.000000000000000e+00 0.000000000000000e+00 0.000000000000000e+00
0.000000000000000e+00 0.000000000000000e+00 0.000000000000000e+00
0.000000000000000e+00 0.000000000000000e+00 0.000000000000000e+00

0.000000000000000e+00 0.000000000000000e+00 0.000000000000000e+00
0.000000000000000e+00 0.000000000000000e+00 0.000000000000000e+00
0.000000000000000e+00 0.000000000000000e+00 0.000000000000000e+00

0.000000000000000e+00 0.000000000000000e+00 0.000000000000000e+00
0.000000000000000e+00 0.000000000000000e+00 0.000000000000000e+00
0.000000000000000e+00 0.000000000000000e+00 0.000000000000000e+00

0.000000000000000e+00 0.000000000000000e+00 0.000000000000000e+00
0.000000000000000e+00 0.000000000000000e+00 0.000000000000000e+00
0.000000000000000e+00 0.000000000000000e+00 0.000000000000000e+00

0.000000000000000e+00 0.000000000000000e+00 0.000000000000000e+00
0.000000000000000e+00 0.000000000000000e+00 0.000000000000000e+00
0.000000000000000e+00 0.000000000000000e+00 0.000000000000000e+00

0.000000000000000e+00 0.000000000000000e+00 0.000000000000000e+00
0.000000000000000e+00 0.000000000000000e+00 0.000000000000000e+00
0.000000000000000e+00 0.000000000000000e+00 0.000000000000000e+00

0.000000000000000e+00 0.000000000000000e+00 0.000000000000000e+00
0.000000000000000e+00 0.000000000000000e+00 0.000000000000000e+00
0.000000000000000e+00 0.000000000000000e+00 0.000000000000000e+00

0.000000000000000e+00 0.000000000000000e+00 0.000000000000000e+00
0.000000000000000e+00 0.000000000000000e+00 0.000000000000000e+00
0.000000000000000e+00 0.000000000000000e+00 0.000000000000000e+00

0.000000000000000e+00 0.000000000000000e+00 0.000000000000000e+00
0.000000000000000e+00 0.000000000000000e+00 0.000000000000000e+00
0.000000000000000e+00 0.000000000000000e+00 0.000000000000000e+00

0.000000000000000e+00 0.000000000000000e+00 0.000000000000000e+00
0.000000000000000e+00 0.000000000000000e+00 0.000000000000000e+00
0.000000000000000e+00 0.000000000000000e+00 0.000000000000000e+00

0.000000000000000e+00 0.000000000000000e+00 0.000000000000000e+00
0.000000000000000e+00 0.000000000000000e+00 0.000000000000000e+00
0.000000000000000e+00 0.000000000000000e+00 0.000000000000000e+00

0.000000000000000e+00 0.000000000000000e+00 0.000000000000000e+00
0.000000000000000e+00 0.000000000000000e+00 0.000000000000000e+00
0.000000000000000e+00 0.000000000000000e+00 0.000000000000000e+00

0.000000000000000e+00 0.000000000000000e+00 0.000000000000000e+00
0.000000000000000e+00 0.000000000000000e+00 0.000000000000000e+00
0.000000000000000e+00 0.000000000000000e+00 0.000000000000000e+00

0.000000000000000e+00 0.000000000000000e+00 0.000000000000000e+00
0.000000000000000e+00 0.000000000000000e+00 0.000000000000000e+00
0.000000000000000e+00 0.000000000000000e+00 0.000000000000000e+00

0.000000000000000e+00 0.000000000000000e+00 0.000000000000000e+00
0.000000000000000e+00 0.000000000000000e+00 0.000000000000000e+00
0.000000000000000e+00 0.000000000000000e+00 0.000000000000000e+00

0.000000000000000e+00 0.000000000000000e+00 0.000000000000000e+00
0.000000000000000e+00 0.000000000000000e+00 0.000000000000000e+00
0.000000000000000e+00 0.000000000000000e+00 0.000000000000000e+00

0.000000000000000e+00 0.000000000000000e+00 0.000000000000000e+00
0.000000000000000e+00 0.000000000000000e+00 0.000000000000000e+00
0.000000000000000e+00 0.000000000000000e+00 0.000000000000000e+00

0.000000000000000e+00 0.000000000000000e+00 0.000000000000000e+00
0.000000000000000e+00 0.000000000000000e+00 0.000000000000000e+00
0.000000000000000e+00 0.000000000000000e+00 0.000000000000000e+00

0.000000000000000e+00 0.000000000000000e+00 0.000000000000000e+00
0.000000000000000e+00 0.000000000000000e+00 0.000000000000000e+00
0.000000000000000e+00 0.000000000000000e+00 0.000000000000000e+00

0.000000000000000e+00 0.000000000000000e+00 0.000000000000000e+00
0.000000000000000e+00 0.000000000000000e+00 0.000000000000000e+00
0.000000000000000e+00 0.000000000000000e+00 0.000000000000000e+00

0.000000000000000e+00 0.000000000000000e+00 0.000000000000000e+00
0.000000000000000e+00 0.000000000000000e+00 0.000000000000000e+00
0.000000000000000e+00 0.000000000000000e+00 0.000000000000000e+00

0.000000000000000e+00 0.000000000000000e+00 0.000000000000000e+00
0.000000000000000e+00 0.000000000000000e+00 0.000000000000000e+00
0.000000000000000e+00 0.000000000000000e+00 0.000000000000000e+00

0.000000000000000e+00 0.000000000000000e+00 0.000000000000000e+00
0.000000000000000e+00 0.000000000000000e+00 0.000000000000000e+00
0.000000000000000e+00 0.000000000000000e+00 0.000000000000000e+00

0.000000000000000e+00 0.000000000000000e+00 0.000000000000000e+00
0.000000000000000e+00 0.000000000000000e+00 0.000000000000000e+00
0.000000000000000e+00 0.000000000000000e+00 0.000000000000000e+00

0.000000000000000e+00 0.000000000000000e+00 0.000000000000000e+00
0.000000000000000e+00 0.000000000000000e+00 0.000000000000000e+00
0.000000000000000e+00 0.000000000000000e+00 0.000000000000000e+00

0.000000000000000e+00 0.000000000000000e+00 0.000000000000000e+00
0.000000000000000e+00 0.000000000000000e+00 0.000000000000000e+00
0.000000000000000e+00 0.000000000000000e+00 0.000000000000000e+00

0.000000000000000e+00 0.000000000000000e+00 0.000000000000000e+00
0.000000000000000e+00 0.000000000000000e+00 0.000000000000000e+00
0.000000000000000e+00 0.000000000000000e+00 0.000000000000000e+00

0.000000000000000e+00 0.000000000000000e+00 0.000000000000000e+00
0.000000000000000e+00 0.000000000000000e+00 0.000000000000000e+00
0.000000000000000e+00 0.000000000000000e+00 0.000000000000000e+00

0.000000000000000e+00 0.000000000000000e+00 0.000000000000000e+00
0.000000000000000e+00 0.000000000000000e+00 0.000000000000000e+00
0.000000000000000e+00 0.000000000000000e+00 0.000000000000000e+00

0.000000000000000e+00 0.000000000000000e+00 0.000000000000000e+00
0.000000000000000e+00 0.000000000000000e+00 0.000000000000000e+00
0.000000000000000e+00 0.000000000000000e+00 0.000000000000000e+00

0.000000000000000e+00 0.000000000000000e+00 0.000000000000000e+00
0.000000000000000e+00 0.000000000000000e+00 0.000000000000000e+00
0.000000000000000e+00 0.000000000000000e+00 0.000000000000000e+00

0.000000000000000e+00 0.000000000000000e+00 0.000000000000000e+00
0.000000000000000e+00 0.000000000000000e+00 0.000000000000000e+00
0.000000000000000e+00 0.000000000000000e+00 0.000000000000000e+00

0.000000000000000e+00 0.000000000000000e+00 0.000000000000000e+00
0.000000000000000e+00 0.000000000000000e+00 0.000000000000000e+00
0.000000000000000e+00 0.000000000000000e+00 0.000000000000000e+00

0.000000000000000e+00 0.000000000000000e+00 0.000000000000000e+00
0.000000000000000e+00 0.000000000000000e+00 0.000000000000000e+00
0.000000000000000e+00 0.000000000000000e+00 0.000000000000000e+00

0.000000000000000e+00 0.000000000000000e+00 0.000000000000000e+00
0.000000000000000e+00 0.000000000000000e+00 0.000000000000000e+00
0.000000000000000e+00 0.000000000000000e+00 0.000000000000000e+00

0.000000000000000e+00 0.000000000000000e+00 0.000000000000000e+00
0.000000000000000e+00 0.000000000000000e+00 0.000000000000000e+00
0.000000000000000e+00 0.000000000000000e+00 0.000000000000000e+00

0.000000000000000e+00 0.000000000000000e+00 0.000000000000000e+00
0.000000000000000e+00 0.000000000000000e+00 0.000000000000000e+00
0.000000000000000e+00 0.000000000000000e+00 0.000000000000000e+00

0.000000000000000e+00 0.000000000000000e+00 0.000000000000000e+00
0.000000000000000e+00 0.000000000000000e+00 0.000000000000000e+00
0.000000000000000e+00 0.000000000000000e+00 0.000000000000000e+00

0.000000000000000e+00 0.000000000000000e+00 0.000000000000000e+00
0.000000000000000e+00 0.000000000000000e+00 0.000000000000000e+00
0.000000000000000e+00 0.000000000000000e+00 0.000000000000000e+00

0.000000000000000e+00 0.000000000000000e+00 0.000000000000000e+00
0.000000000000000e+00 0.000000000000000e+00 0.000000000000000e+00
0.000000000000000e+00 0.000000000000000e+00 0.000000000000000e+00

0.000000000000000e+00 0.000000000000000e+00 0.000000000000000e+00
0.000000000000000e+00 0.000000000000000e+00 0.000000000000000e+00
0.000000000000000e+00 0.000000000000000e+00 0.000000000000000e+00

0.000000000000000e+00 0.000000000000000e+00 0.000000000000000e+00
0.000000000000000e+00 0.000000000000000e+00 0.000000000000000e+00
0.000000000000000e+00 0.000000000000000e+00 0.000000000000000e+00

0.000000000000000e+00 0.000000000000000e+00 0.000000000000000e+00
0.000000000000000e+00 0.000000000000000e+00 0.000000000000000e+00
0.000000000000000e+00 0.000000000000000e+00 0.000000000000000e+00

0.000000000000000e+00 0.000000000000000e+00 0.000000000000000e+00
0.000000000000000e+00 0.000000000000000e+00 0.000000000000000e+00
0.000000000000000e+00 0.000000000000000e+00 0.000000000000000e+00

0.000000000000000e+00 0.000000000000000e+00 0.000000000000000e+00
0.000000000000000e+00 0.000000000000000e+00 0.000000000000000e+00
0.000000000000000e+00 0.000000000000000e+00 0.000000000000000e+00

0.000000000000000e+00 0.000000000000000e+00 0.000000000000000e+00
0.000000000000000e+00 0.000000000000000e+00 0.000000000000000e+00
0.000000000000000e+00 0.000000000000000e+00 0.000000000000000e+00

0.000000000000000e+00 0.000000000000000e+00 0.000000000000000e+00
0.000000000000000e+00 0.000000000000000e+00 0.000000000000000e+00
0.000000000000000e+00 0.000000000000000e+00 0.000000000000000e+00

0.000000000000000e+00 0.000000000000000e+00 0.000000000000000e+00
0.000000000000000e+00 0.000000000000000e+00 0.000000000000000e+00
0.000000000000000e+00 0.000000000000000e+00 0.000000000000000e+00

0.000000000000000e+00 0.000000000000000e+00 0.000000000000000e+00
0.000000000000000e+00 0.000000000000000e+00 0.000000000000000e+00
0.000000000000000e+00 0.000000000000000e+00 0.000000000000000e+00

0.000000000000000e+00 0.000000000000000e+00 0.000000000000000e+00
0.000000000000000e+00 0.000000000000000e+00 0.000000000000000e+00
0.000000000000000e+00 0.000000000000000e+00 0.000000000000000e+00

0.000000000000000e+00 0.000000000000000e+00 0.000000000000000e+00
0.000000000000000e+00 0.000000000000000e+00 0.000000000000000e+00
0.000000000000000e+00 0.000000000000000e+00 0.000000000000000e+00

0.000000000000000e+00 0.000000000000000e+00 0.000000000000000e+00
0.000000000000000e+00 0.000000000000000e+00 0.000000000000000e+00
0.000000000000000e+00 0.000000000000000e+00 0.000000000000000e+00

0.000000000000000e+00 0.000000000000000e+00 0.000000000000000e+00
0.000000000000000e+00 0.000000000000000e+00 0.000000000000000e+00
0.000000000000000e+00 0.000000000000000e+00 0.000000000000000e+00

0.000000000000000e+00 0.000000000000000e+00 0.000000000000000e+00
0.000000000000000e+00 0.000000000000000e+00 0.000000000000000e+00
0.000000000000000e+00 0.000000000000000e+00 0.000000000000000e+00

0.000000000000000e+00 0.000000000000000e+00 0.000000000000000e+00
0.000000000000000e+00 0.000000000000000e+00 0.000000000000000e+00
0.000000000000000e+00 0.000000000000000e+00 0.000000000000000e+00

0.000000000000000e+00 0.000000000000000e+00 0.000000000000000e+00
0.000000000000000e+00 0.000000000000000e+00 0.000000000000000e+00
0.000000000000000e+00 0.000000000000000e+00 0.000000000000000e+00

0.000000000000000e+00 0.000000000000000e+00 0.000000000000000e+00
0.000000000000000e+00 0.000000000000000e+00 0.000000000000000e+00
0.000000000000000e+00 0.000000000000000e+00 0.000000000000000e+00

0.000000000000000e+00 0.000000000000000e+00 0.000000000000000e+00
0.000000000000000e+00 0.000000000000000e+00 0.000000000000000e+00
0.000000000000000e+00 0.000000000000000e+00 0.000000000000000e+00

0.000000000000000e+00 0.000000000000000e+00 0.000000000000000e+00
0.000000000000000e+00 0.000000000000000e+00 0.000000000000000e+00
0.000000000000000e+00 0.000000000000000e+00 0.000000000000000e+00

0.000000000000000e+00 0.000000000000000e+00 0.000000000000000e+00
0.000000000000000e+00 0.000000000000000e+00 0.000000000000000e+00
0.000000000000000e+00 0.000000000000000e+00 0.000000000000000e+00

0.000000000000000e+00 0.000000000000000e+00 0.000000000000000e+00
0.000000000000000e+00 0.000000000000000e+00 0.000000000000000e+00
0.000000000000000e+00 0.000000000000000e+00 0.000000000000000e+00

0.000000000000000e+00 0.000000000000000e+00 0.000000000000000e+00
0.000000000000000e+00 0.000000000000000e+00 0.000000000000000e+00
0.000000000000000e+00 0.000000000000000e+00 0.000000000000000e+00

0.000000000000000e+00 0.000000000000000e+00 0.000000000000000e+00
0.000000000000000e+00 0.000000000000000e+00 0.000000000000000e+00
0.000000000000000e+00 0.000000000000000e+00 0.000000000000000e+00

0.000000000000000e+00 0.000000000000000e+00 0.000000000000000e+00
0.000000000000000e+00 0.000000000000000e+00 0.000000000000000e+00
0.000000000000000e+00 0.000000000000000e+00 0.000000000000000e+00

0.000000000000000e+00 0.000000000000000e+00 0.000000000000000e+00
0.000000000000000e+00 0.000000000000000e+00 0.000000000000000e+00
0.000000000000000e+00 0.000000000000000e+00 0.000000000000000e+00

0.000000000000000e+00 0.000000000000000e+00 0.000000000000000e+00
0.000000000000000e+00 0.000000000000000e+00 0.000000000000000e+00
0.000000000000000e+00 0.000000000000000e+00 0.000000000000000e+00

0.000000000000000e+00 0.000000000000000e+00 0.000000000000000e+00
0.000000000000000e+00 0.000000000000000e+00 0.000000000000000e+00
0.000000000000000e+00 0.000000000000000e+00 0.000000000000000e+00

0.000000000000000e+00 0.000000000000000e+00 0.000000000000000e+00
0.000000000000000e+00 0.000000000000000e+00 0.000000000000000e+00
0.000000000000000e+00 0.000000000000000e+00 0.000000000000000e+00

0.000000000000000e+00 0.000000000000000e+00 0.000000000000000e+00
0.000000000000000e+00 0.000000000000000e+00 0.000000000000000e+00
0.000000000000000e+00 0.000000000000000e+00 0.000000000000000e+00

0.000000000000000e+00 0.000000000000000e+00 0.000000000000000e+00
0.000000000000000e+00 0.000000000000000e+00 0.000000000000000e+00
0.000000000000000e+00 0.000000000000000e+00 0.000000000000000e+00

0.000000000000000e+00 0.000000000000000e+00 0.000000000000000e+00
0.000000000000000e+00 0.000000000000000e+00 0.000000000000000e+00
0.000000000000000e+00 0.000000000000000e+00 0.000000000000000e+00

0.000000000000000e+00 0.000000000000000e+00 0.000000000000000e+00
0.000000000000000e+00 0.000000000000000e+00 0.000000000000000e+00
0.000000000000000e+00 0.000000000000000e+00 0.000000000000000e+00

0.000000000000000e+00 0.000000000000000e+00 0.000000000000000e+00
0.000000000000000e+00 0.000000000000000e+00 0.000000000000000e+00
0.000000000000000e+00 0.000000000000000e+00 0.000000000000000e+00

0.000000000000000e+00 0.000000000000000e+00 0.000000000000000e+00
0.000000000000000e+00 0.000000000000000e+00 0.000000000000000e+00
0.000000000000000e+00 0.000000000000000e+00 0.000000000000000e+00

0.000000000000000e+00 0.000000000000000e+00 0.000000000000000e+00
0.000000000000000e+00 0.000000000000000e+00 0.000000000000000e+00
0.000000000000000e+00 0.000000000000000e+00 0.000000000000000e+00

0.000000000000000e+00 0.000000000000000e+00 0.000000000000000e+00
0.000000000000000e+00 0.000000000000000e+00 0.000000000000000e+00
0.000000000000000e+00 0.000000000000000e+00 0.000000000000000e+00

0.000000000000000e+00 0.000000000000000e+00 0.000000000000000e+00
0.000000000000000e+00 0.000000000000000e+00 0.000000000000000e+00
0.000000000000000e+00 0.000000000000000e+00 0.000000000000000e+00

0.000000000000000e+00 0.000000000000000e+00 0.000000000000000e+00
0.000000000000000e+00 0.000000000000000e+00 0.000000000000000e+00
0.000000000000000e+00 0.000000000000000e+00 0.000000000000000e+00

0.000000000000000e+00 0.000000000000000e+00 0.000000000000000e+00
0.000000000000000e+00 0.000000000000000e+00 0.000000000000000e+00
0.000000000000000e+00 0.000000000000000e+00 0.000000000000000e+00

0.000000000000000e+00 0.000000000000000e+00 0.000000000000000e+00
0.000000000000000e+00 0.000000000000000e+00 0.000000000000000e+00
0.000000000000000e+00 0.000000000000000e+00 0.000000000000000e+00

0.000000000000000e+00 0.000000000000000e+00 0.000000000000000e+00
0.000000000000000e+00 0.000000000000000e+00 0.000000000000000e+00
0.000000000000000e+00 0.000000000000000e+00 0.000000000000000e+00

0.000000000000000e+00 0.000000000000000e+00 0.000000000000000e+00
0.000000000000000e+00 0.000000000000000e+00 0.000000000000000e+00
0.000000000000000e+00 0.000000000000000e+00 0.000000000000000e+00

0.000000000000000e+00 0.000000000000000e+00 0.000000000000000e+00
0.000000000000000e+00 0.000000000000000e+00 0.000000000000000e+00
0.000000000000000e+00 0.000000000000000e+00 0.000000000000000e+00

0.000000000000000e+00 0.000000000000000e+00 0.000000000000000e+00
0.000000000000000e+00 0.000000000000000e+00 0.000000000000000e+00
0.000000000000000e+00 0.000000000000000e+00 0.000000000000000e+00

0.000000000000000e+00 0.000000000000000e+00 0.000000000000000e+00
0.000000000000000e+00 0.000000000000000e+00 0.000000000000000e+00
0.000000000000000e+00 0.000000000000000e+00 0.000000000000000e+00

0.000000000000000e+00 0.000000000000000e+00 0.000000000000000e+00
0.000000000000000e+00 0.000000000000000e+00 0.000000000000000e+00
0.000000000000000e+00 0.000000000000000e+00 0.000000000000000e+00

0.000000000000000e+00 0.000000000000000e+00 0.000000000000000e+00
0.000000000000000e+00 0.000000000000000e+00 0.000000000000000e+00
0.000000000000000e+00 0.000000000000000e+00 0.000000000000000e+00

0.000000000000000e+00 0.000000000000000e+00 0.000000000000000e+00
0.000000000000000e+00 0.000000000000000e+00 0.000000000000000e+00
0.000000000000000e+00 0.000000000000000e+00 0.000000000000000e+00

0.000000000000000e+00 0.000000000000000e+00 0.000000000000000e+00
0.000000000000000e+00 0.000000000000000e+00 0.000000000000000e+00
0.000000000000000e+00 0.000000000000000e+00 0.000000000000000e+00

0.000000000000000e+00 0.000000000000000e+00 0.000000000000000e+00
0.000000000000000e+00 0.000000000000000e+00 0.000000000000000e+00
0.000000000000000e+00 0.000000000000000e+00 0.000000000000000e+00

0.000000000000000e+00 0.000000000000000e+00 0.000000000000000e+00
0.000000000000000e+00 0.000000000000000e+00 0.000000000000000e+00
0.000000000000000e+00 0.000000000000000e+00 0.000000000000000e+00

0.000000000000000e+00 0.000000000000000e+00 0.000000000000000e+00
0.000000000000000e+00 0.000000000000000e+00 0.000000000000000e+00
0.000000000000000e+00 0.000000000000000e+00 0.000000000000000e+00

0.000000000000000e+00 0.000000000000000e+00 0.000000000000000e+00
0.000000000000000e+00 0.000000000000000e+00 0.000000000000000e+00
0.000000000000000e+00 0.000000000000000e+00 0.000000000000000e+00

0.000000000000000e+00 0.000000000000000e+00 0.000000000000000e+00
0.000000000000000e+00 0.000000000000000e+00 0.000000000000000e+00
0.000000000000000e+00 0.000000000000000e+00 0.000000000000000e+00

0.000000000000000e+00 0.000000000000000e+00 0.000000000000000e+00
0.000000000000000e+00 0.000000000000000e+00 0.000000000000000e+00
0.000000000000000e+00 0.000000000000000e+00 0.000000000000000e+00

0.000000000000000e+00 0.000000000000000e+00 0.000000000000000e+00
0.000000000000000e+00 0.000000000000000e+00 0.000000000000000e+00
0.000000000000000e+00 0.000000000000000e+00 0.000000000000000e+00

0.000000000000000e+00 0.000000000000000e+00 0.000000000000000e+00
0.000000000000000e+00 0.000000000000000e+00 0.000000000000000e+00
0.000000000000000e+00 0.000000000000000e+00 0.000000000000000e+00

0.000000000000000e+00 0.000000000000000e+00 0.000000000000000e+00
0.000000000000000e+00 0.000000000000000e+00 0.000000000000000e+00
0.000000000000000e+00 0.000000000000000e+00 0.000000000000000e+00

0.000000000000000e+00 0.000000000000000e+00 0.000000000000000e+00
0.000000000000000e+00 0.000000000000000e+00 0.000000000000000e+00
0.000000000000000e+00 0.000000000000000e+00 0.000000000000000e+00

0.000000000000000e+00 0.000000000000000e+00 0.000000000000000e+00
0.000000000000000e+00 0.000000000000000e+00 0.000000000000000e+00
0.000000000000000e+00 0.000000000000000e+00 0.000000000000000e+00

0.000000000000000e+00 0.000000000000000e+00 0.000000000000000e+00
0.000000000000000e+00 0.000000000000000e+00 0.000000000000000e+00
0.000000000000000e+00 0.000000000000000e+00 0.000000000000000e+00

0.000000000000000e+00 0.000000000000000e+00 0.000000000000000e+00
0.000000000000000e+00 0.000000000000000e+00 0.000000000000000e+00
0.000000000000000e+00 0.000000000000000e+00 0.000000000000000e+00

0.000000000000000e+00 0.000000000000000e+00 0.000000000000000e+00
0.000000000000000e+00 0.000000000000000e+00 0.000000000000000e+00
0.000000000000000e+00 0.000000000000000e+00 0.000000000000000e+00

0.000000000000000e+00 0.000000000000000e+00 0.000000000000000e+00
0.000000000000000e+00 0.000000000000000e+00 0.000000000000000e+00
0.000000000000000e+00 0.000000000000000e+00 0.000000000000000e+00

0.000000000000000e+00 0.000000000000000e+00 0.000000000000000e+00
0.000000000000000e+00 0.000000000000000e+00 0.000000000000000e+00
0.000000000000000e+00 0.000000000000000e+00 0.000000000000000e+00

0.000000000000000e+00 0.000000000000000e+00 0.000000000000000e+00
0.000000000000000e+00 0.000000000000000e+00 0.000000000000000e+00
0.000000000000000e+00 0.000000000000000e+00 0.000000000000000e+00

0.000000000000000e+00 0.000000000000000e+00 0.000000000000000e+00
0.000000000000000e+00 0.000000000000000e+00 0.000000000000000e+00
0.000000000000000e+00 0.000000000000000e+00 0.000000000000000e+00

0.000000000000000e+00 0.000000000000000e+00 0.000000000000000e+00
0.000000000000000e+00 0.000000000000000e+00 0.000000000000000e+00
0.000000000000000e+00 0.000000000000000e+00 0.000000000000000e+00

0.000000000000000e+00 0.000000000000000e+00 0.000000000000000e+00
0.000000000000000e+00 0.000000000000000e+00 0.000000000000000e+00
0.000000000000000e+00 0.000000000000000e+00 0.000000000000000e+00

0.000000000000000e+00 0.000000000000000e+00 0.000000000000000e+00
0.000000000000000e+00 0.000000000000000e+00 0.000000000000000e+00
0.000000000000000e+00 0.000000000000000e+00 0.000000000000000e+00

0.000000000000000e+00 0.000000000000000e+00 0.000000000000000e+00
0.000000000000000e+00 0.000000000000000e+00 0.000000000000000e+00
0.000000000000000e+00 0.000000000000000e+00 0.000000000000000e+00

0.000000000000000e+00 0.000000000000000e+00 0.000000000000000e+00
0.000000000000000e+00 0.000000000000000e+00 0.000000000000000e+00
0.000000000000000e+00 0.000000000000000e+00 0.000000000000000e+00

0.000000000000000e+00 0.000000000000000e+00 0.000000000000000e+00
0.000000000000000e+00 0.000000000000000e+00 0.000000000000000e+00
0.000000000000000e+00 0.000000000000000e+00 0.000000000000000e+00

0.000000000000000e+00 0.000000000000000e+00 0.000000000000000e+00
0.000000000000000e+00 0.000000000000000e+00 0.000000000000000e+00
0.000000000000000e+00 0.000000000000000e+00 0.000000000000000e+00

0.000000000000000e+00 0.000000000000000e+00 0.000000000000000e+00
0.000000000000000e+00 0.000000000000000e+00 0.000000000000000e+00
0.000000000000000e+00 0.000000000000000e+00 0.000000000000000e+00

0.000000000000000e+00 0.000000000000000e+00 0.000000000000000e+00
0.000000000000000e+00 0.000000000000000e+00 0.000000000000000e+00
0.000000000000000e+00 0.000000000000000e+00 0.000000000000000e+00

0.000000000000000e+00 0.000000000000000e+00 0.000000000000000e+00
0.000000000000000e+00 0.000000000000000e+00 0.000000000000000e+00
0.000000000000000e+00 0.000000000000000e+00 0.000000000000000e+00

0.000000000000000e+00 0.000000000000000e+00 0.000000000000000e+00
0.000000000000000e+00 0.000000000000000e+00 0.000000000000000e+00
0.000000000000000e+00 0.000000000000000e+00 0.000000000000000e+00

0.000000000000000e+00 0.000000000000000e+00 0.000000000000000e+00
0.000000000000000e+00 0.000000000000000e+00 0.000000000000000e+00
0.000000000000000e+00 0.000000000000000e+00 0.000000000000000e+00

0.000000000000000e+00 0.000000000000000e+00 0.000000000000000e+00
0.000000000000000e+00 0.000000000000000e+00 0.000000000000000e+00
0.000000000000000e+00 0.000000000000000e+00 0.000000000000000e+00

0.000000000000000e+00 0.000000000000000e+00 0.000000000000000e+00
0.000000000000000e+00 0.000000000000000e+00 0.000000000000000e+00
0.000000000000000e+00 0.000000000000000e+00 0.000000000000000e+00

0.000000000000000e+00 0.000000000000000e+00 0.000000000000000e+00
0.000000000000000e+00 0.000000000000000e+00 0.000000000000000e+00
0.000000000000000e+00 0.000000000000000e+00 0.000000000000000e+00

0.000000000000000e+00 0.000000000000000e+00 0.000000000000000e+00
0.000000000000000e+00 0.000000000000000e+00 0.000000000000000e+00
0.000000000000000e+00 0.000000000000000e+00 0.000000000000000e+00

0.000000000000000e+00 0.000000000000000e+00 0.000000000000000e+00
0.000000000000000e+00 0.000000000000000e+00 0.000000000000000e+00
0.000000000000000e+00 0.000000000000000e+00 0.000000000000000e+00

0.000000000000000e+00 0.000000000000000e+00 0.000000000000000e+00
0.000000000000000e+00 0.000000000000000e+00 0.000000000000000e+00
0.000000000000000e+00 0.000000000000000e+00 0.000000000000000e+00

0.000000000000000e+00 0.000000000000000e+00 0.000000000000000e+00
0.000000000000000e+00 0.000000000000000e+00 0.000000000000000e+00
0.000000000000000e+00 0.000000000000000e+00 0.000000000000000e+00

0.000000000000000e+00 0.000000000000000e+00 0.000000000000000e+00
0.000000000000000e+00 0.000000000000000e+00 0.000000000000000e+00
0.000000000000000e+00 0.000000000000000e+00 0.000000000000000e+00

0.000000000000000e+00 0.000000000000000e+00 0.000000000000000e+00
0.000000000000000e+00 0.000000000000000e+00 0.000000000000000e+00
0.000000000000000e+00 0.000000000000000e+00 0.000000000000000e+00

0.000000000000000e+00 0.000000000000000e+00 0.000000000000000e+00
0.000000000000000e+00 0.000000000000000e+00 0.000000000000000e+00
0.000000000000000e+00 0.000000000000000e+00 0.000000000000000e+00

0.000000000000000e+00 0.000000000000000e+00 0.000000000000000e+00
0.000000000000000e+00 0.000000000000000e+00 0.000000000000000e+00
0.000000000000000e+00 0.000000000000000e+00 0.000000000000000e+00

0.000000000000000e+00 0.000000000000000e+00 0.000000000000000e+00
0.000000000000000e+00 0.000000000000000e+00 0.000000000000000e+00
0.000000000000000e+00 0.000000000000000e+00 0.000000000000000e+00

0.000000000000000e+00 0.000000000000000e+00 0.000000000000000e+00
0.000000000000000e+00 0.000000000000000e+00 0.000000000000000e+00
0.000000000000000e+00 0.000000000000000e+00 0.000000000000000e+00

0.000000000000000e+00 0.000000000000000e+00 0.000000000000000e+00
0.000000000000000e+00 0.000000000000000e+00 0.000000000000000e+00
0.000000000000000e+00 0.000000000000000e+00 0.000000000000000e+00

0.000000000000000e+00 0.000000000000000e+00 0.000000000000000e+00
0.000000000000000e+00 0.000000000000000e+00 0.000000000000000e+00
0.000000000000000e+00 0.000000000000000e+00 0.000000000000000e+00

0.000000000000000e+00 0.000000000000000e+00 0.000000000000000e+00
0.000000000000000e+00 0.000000000000000e+00 0.000000000000000e+00
0.000000000000000e+00 0.000000000000000e+00 0.000000000000000e+00

0.000000000000000e+00 0.000000000000000e+00 0.000000000000000e+00
0.000000000000000e+00 0.000000000000000e+00 0.000000000000000e+00
0.000000000000000e+00 0.000000000000000e+00 0.000000000000000e+00

0.000000000000000e+00 0.000000000000000e+00 0.000000000000000e+00
0.000000000000000e+00 0.000000000000000e+00 0.000000000000000e+00
0.000000000000000e+00 0.000000000000000e+00 0.000000000000000e+00

0.000000000000000e+00 0.000000000000000e+00 0.000000000000000e+00
0.000000000000000e+00 0.000000000000000e+00 0.000000000000000e+00
0.000000000000000e+00 0.000000000000000e+00 0.000000000000000e+00

0.000000000000000e+00 0.000000000000000e+00 0.000000000000000e+00
0.000000000000000e+00 0.000000000000000e+00 0.000000000000000e+00
0.000000000000000e+00 0.000000000000000e+00 0.000000000000000e+00

0.000000000000000e+00 0.000000000000000e+00 0.000000000000000e+00
0.000000000000000e+00 0.000000000000000e+00 0.000000000000000e+00
0.000000000000000e+00 0.000000000000000e+00 0.000000000000000e+00

0.000000000000000e+00 0.000000000000000e+00 0.000000000000000e+00
0.000000000000000e+00 0.000000000000000e+00 0.000000000000000e+00
0.000000000000000e+00 0.000000000000000e+00 0.000000000000000e+00

0.000000000000000e+00 0.000000000000000e+00 0.000000000000000e+00
0.000000000000000e+00 0.000000000000000e+00 0.000000000000000e+00
0.000000000000000e+00 0.000000000000000e+00 0.000000000000000e+00

0.000000000000000e+00 0.000000000000000e+00 0.000000000000000e+00
0.000000000000000e+00 0.000000000000000e+00 0.000000000000000e+00
0.000000000000000e+00 0.000000000000000e+00 0.000000000000000e+00

0.000000000000000e+00 0.000000000000000e+00 0.000000000000000e+00
0.000000000000000e+00 0.000000000000000e+00 0.000000000000000e+00
0.000000000000000e+00 0.000000000000000e+00 0.000000000000000e+00

0.000000000000000e+00 0.000000000000000e+00 0.000000000000000e+00
0.000000000000000e+00 0.000000000000000e+00 0.000000000000000e+00
0.000000000000000e+00 0.000000000000000e+00 0.000000000000000e+00

0.000000000000000e+00 0.000000000000000e+00 0.000000000000000e+00
0.000000000000000e+00 0.000000000000000e+00 0.000000000000000e+00
0.000000000000000e+00 0.000000000000000e+00 0.000000000000000e+00

0.000000000000000e+00 0.000000000000000e+00 0.000000000000000e+00
0.000000000000000e+00 0.000000000000000e+00 0.000000000000000e+00
0.000000000000000e+00 0.000000000000000e+00 0.000000000000000e+00

0.000000000000000e+00 0.000000000000000e+00 0.000000000000000e+00
0.000000000000000e+00 0.000000000000000e+00 0.000000000000000e+00
0.000000000000000e+00 0.000000000000000e+00 0.000000000000000e+00

0.000000000000000e+00 0.000000000000000e+00 0.000000000000000e+00
0.000000000000000e+00 0.000000000000000e+00 0.000000000000000e+00
0.000000000000000e+00 0.000000000000000e+00 0.000000000000000e+00

0.000000000000000e+00 0.000000000000000e+00 0.000000000000000e+00
0.000000000000000e+00 0.000000000000000e+00 0.000000000000000e+00
0.000000000000000e+00 0.000000000000000e+00 0.000000000000000e+00

0.000000000000000e+00 0.000000000000000e+00 0.000000000000000e+00
0.000000000000000e+00 0.000000000000000e+00 0.000000000000000e+00
0.000000000000000e+00 0.000000000000000e+00 0.000000000000000e+00

0.000000000000000e+00 0.000000000000000e+00 0.000000000000000e+00
0.000000000000000e+00 0.000000000000000e+00 0.000000000000000e+00
0.000000000000000e+00 0.000000000000000e+00 0.000000000000000e+00

0.000000000000000e+00 0.000000000000000e+00 0.000000000000000e+00
0.000000000000000e+00 0.000000000000000e+00 0.000000000000000e+00
0.000000000000000e+00 0.000000000000000e+00 0.000000000000000e+00

0.000000000000000e+00 0.000000000000000e+00 0.000000000000000e+00
0.000000000000000e+00 0.000000000000000e+00 0.000000000000000e+00
0.000000000000000e+00 0.000000000000000e+00 0.000000000000000e+00

0.000000000000000e+00 0.000000000000000e+00 0.000000000000000e+00
0.000000000000000e+00 0.000000000000000e+00 0.000000000000000e+00
0.000000000000000e+00 0.000000000000000e+00 0.000000000000000e+00

0.000000000000000e+00 0.000000000000000e+00 0.000000000000000e+00
0.000000000000000e+00 0.000000000000000e+00 0.000000000000000e+00
0.000000000000000e+00 0.000000000000000e+00 0.000000000000000e+00

0.000000000000000e+00 0.000000000000000e+00 0.000000000000000e+00
0.000000000000000e+00 0.000000000000000e+00 0.000000000000000e+00
0.000000000000000e+00 0.000000000000000e+00 0.000000000000000e+00

0.000000000000000e+00 0.000000000000000e+00 0.000000000000000e+00
0.000000000000000e+00 0.000000000000000e+00 0.000000000000000e+00
0.000000000000000e+00 0.000000000000000e+00 0.000000000000000e+00

0.000000000000000e+00 0.000000000000000e+00 0.000000000000000e+00
0.000000000000000e+00 0.000000000000000e+00 0.000000000000000e+00
0.000000000000000e+00 0.000000000000000e+00 0.000000000000000e+00

0.000000000000000e+00 0.000000000000000e+00 0.000000000000000e+00
0.000000000000000e+00 0.000000000000000e+00 0.000000000000000e+00
0.000000000000000e+00 0.000000000000000e+00 0.000000000000000e+00

0.000000000000000e+00 0.000000000000000e+00 0.000000000000000e+00
0.000000000000000e+00 0.000000000000000e+00 0.000000000000000e+00
0.000000000000000e+00 0.000000000000000e+00 0.000000000000000e+00

0.000000000000000e+00 0.000000000000000e+00 0.000000000000000e+00
0.000000000000000e+00 0.000000000000000e+00 0.000000000000000e+00
0.000000000000000e+00 0.000000000000000e+00 0.000000000000000e+00

0.000000000000000e+00 0.000000000000000e+00 0.000000000000000e+00
0.000000000000000e+00 0.000000000000000e+00 0.000000000000000e+00
0.000000000000000e+00 0.000000000000000e+00 0.000000000000000e+00

0.000000000000000e+00 0.000000000000000e+00 0.000000000000000e+00
0.000000000000000e+00 0.000000000000000e+00 0.000000000000000e+00
0.000000000000000e+00 0.000000000000000e+00 0.000000000000000e+00

0.000000000000000e+00 0.000000000000000e+00 0.000000000000000e+00
0.000000000000000e+00 0.000000000000000e+00 0.000000000000000e+00
0.000000000000000e+00 0.000000000000000e+00 0.000000000000000e+00

0.000000000000000e+00 0.000000000000000e+00 0.000000000000000e+00
0.000000000000000e+00 0.000000000000000e+00 0.000000000000000e+00
0.000000000000000e+00 0.000000000000000e+00 0.000000000000000e+00

0.000000000000000e+00 0.000000000000000e+00 0.000000000000000e+00
0.000000000000000e+00 0.000000000000000e+00 0.000000000000000e+00
0.000000000000000e+00 0.000000000000000e+00 0.000000000000000e+00

0.000000000000000e+00 0.000000000000000e+00 0.000000000000000e+00
0.000000000000000e+00 0.000000000000000e+00 0.000000000000000e+00
0.000000000000000e+00 0.000000000000000e+00 0.000000000000000e+00

0.000000000000000e+00 0.000000000000000e+00 0.000000000000000e+00
0.000000000000000e+00 0.000000000000000e+00 0.000000000000000e+00
0.000000000000000e+00 0.000000000000000e+00 0.000000000000000e+00

0.000000000000000e+00 0.000000000000000e+00 0.000000000000000e+00
0.000000000000000e+00 0.000000000000000e+00 0.000000000000000e+00
0.000000000000000e+00 0.000000000000000e+00 0.000000000000000e+00

0.000000000000000e+00 0.000000000000000e+00 0.000000000000000e+00
0.000000000000000e+00 0.000000000000000e+00 0.000000000000000e+00
0.000000000000000e+00 0.000000000000000e+00 0.000000000000000e+00

0.000000000000000e+00 0.000000000000000e+00 0.000000000000000e+00
0.000000000000000e+00 0.000000000000000e+00 0.000000000000000e+00
0.000000000000000e+00 0.000000000000000e+00 0.000000000000000e+00

0.000000000000000e+00 0.000000000000000e+00 0.000000000000000e+00
0.000000000000000e+00 0.000000000000000e+00 0.000000000000000e+00
0.000000000000000e+00 0.000000000000000e+00 0.000000000000000e+00

0.000000000000000e+00 0.000000000000000e+00 0.000000000000000e+00
0.000000000000000e+00 0.000000000000000e+00 0.000000000000000e+00
0.000000000000000e+00 0.000000000000000e+00 0.000000000000000e+00

0.000000000000000e+00 0.000000000000000e+00 0.000000000000000e+00
0.000000000000000e+00 0.000000000000000e+00 0.000000000000000e+00
0.000000000000000e+00 0.000000000000000e+00 0.000000000000000e+00

0.000000000000000e+00 0.000000000000000e+00 0.000000000000000e+00
0.000000000000000e+00 0.000000000000000e+00 0.000000000000000e+00
0.000000000000000e+00 0.000000000000000e+00 0.000000000000000e+00

0.000000000000000e+00 0.000000000000000e+00 0.000000000000000e+00
0.000000000000000e+00 0.000000000000000e+00 0.000000000000000e+00
0.000000000000000e+00 0.000000000000000e+00 0.000000000000000e+00

0.000000000000000e+00 0.000000000000000e+00 0.000000000000000e+00
0.000000000000000e+00 0.000000000000000e+00 0.000000000000000e+00
0.000000000000000e+00 0.000000000000000e+00 0.000000000000000e+00

0.000000000000000e+00 0.000000000000000e+00 0.000000000000000e+00
0.000000000000000e+00 0.000000000000000e+00 0.000000000000000e+00
0.000000000000000e+00 0.000000000000000e+00 0.000000000000000e+00

0.000000000000000e+00 0.000000000000000e+00 0.000000000000000e+00
0.000000000000000e+00 0.000000000000000e+00 0.000000000000000e+00
0.000000000000000e+00 0.000000000000000e+00 0.000000000000000e+00

0.000000000000000e+00 0.000000000000000e+00 0.000000000000000e+00
0.000000000000000e+00 0.000000000000000e+00 0.000000000000000e+00
0.000000000000000e+00 0.000000000000000e+00 0.000000000000000e+00

0.000000000000000e+00 0.000000000000000e+00 0.000000000000000e+00
0.000000000000000e+00 0.000000000000000e+00 0.000000000000000e+00
0.000000000000000e+00 0.000000000000000e+00 0.000000000000000e+00

0.000000000000000e+00 0.000000000000000e+00 0.000000000000000e+00
0.000000000000000e+00 0.000000000000000e+00 0.000000000000000e+00
0.000000000000000e+00 0.000000000000000e+00 0.000000000000000e+00

0.000000000000000e+00 0.000000000000000e+00 0.000000000000000e+00
0.000000000000000e+00 0.000000000000000e+00 0.000000000000000e+00
0.000000000000000e+00 0.000000000000000e+00 0.000000000000000e+00

0.000000000000000e+00 0.000000000000000e+00 0.000000000000000e+00
0.000000000000000e+00 0.000000000000000e+00 0.000000000000000e+00
0.000000000000000e+00 0.000000000000000e+00 0.000000000000000e+00

0.000000000000000e+00 0.000000000000000e+00 0.000000000000000e+00
0.000000000000000e+00 0.000000000000000e+00 0.000000000000000e+00
0.000000000000000e+00 0.000000000000000e+00 0.000000000000000e+00

0.000000000000000e+00 0.000000000000000e+00 0.000000000000000e+00
0.000000000000000e+00 0.000000000000000e+00 0.000000000000000e+00
0.000000000000000e+00 0.000000000000000e+00 0.000000000000000e+00

0.000000000000000e+00 0.000000000000000e+00 0.000000000000000e+00
0.000000000000000e+00 0.000000000000000e+00 0.000000000000000e+00
0.000000000000000e+00 0.000000000000000e+00 0.000000000000000e+00

0.000000000000000e+00 0.000000000000000e+00 0.000000000000000e+00
0.000000000000000e+00 0.000000000000000e+00 0.000000000000000e+00
0.000000000000000e+00 0.000000000000000e+00 0.000000000000000e+00

0.000000000000000e+00 0.000000000000000e+00 0.000000000000000e+00
0.000000000000000e+00 0.000000000000000e+00 0.000000000000000e+00
0.000000000000000e+00 0.000000000000000e+00 0.000000000000000e+00

0.000000000000000e+00 0.000000000000000e+00 0.000000000000000e+00
0.000000000000000e+00 0.000000000000000e+00 0.000000000000000e+00
0.000000000000000e+00 0.000000000000000e+00 0.000000000000000e+00

0.000000000000000e+00 0.000000000000000e+00 0.000000000000000e+00
0.000000000000000e+00 0.000000000000000e+00 0.000000000000000e+00
0.000000000000000e+00 0.000000000000000e+00 0.000000000000000e+00

0.000000000000000e+00 0.000000000000000e+00 0.000000000000000e+00
0.000000000000000e+00 0.000000000000000e+00 0.000000000000000e+00
0.000000000000000e+00 0.000000000000000e+00 0.000000000000000e+00

0.000000000000000e+00 0.000000000000000e+00 0.000000000000000e+00
0.000000000000000e+00 0.000000000000000e+00 0.000000000000000e+00
0.000000000000000e+00 0.000000000000000e+00 0.000000000000000e+00

0.000000000000000e+00 0.000000000000000e+00 0.000000000000000e+00
0.000000000000000e+00 0.000000000000000e+00 0.000000000000000e+00
0.000000000000000e+00 0.000000000000000e+00 0.000000000000000e+00

0.000000000000000e+00 0.000000000000000e+00 0.000000000000000e+00
0.000000000000000e+00 0.000000000000000e+00 0.000000000000000e+00
0.000000000000000e+00 0.000000000000000e+00 0.000000000000000e+00

0.000000000000000e+00 0.000000000000000e+00 0.000000000000000e+00
0.000000000000000e+00 0.000000000000000e+00 0.000000000000000e+00
0.000000000000000e+00 0.000000000000000e+00 0.000000000000000e+00

0.000000000000000e+00 0.000000000000000e+00 0.000000000000000e+00
0.000000000000000e+00 0.000000000000000e+00 0.000000000000000e+00
0.000000000000000e+00 0.000000000000000e+00 0.000000000000000e+00

0.000000000000000e+00 0.000000000000000e+00 0.000000000000000e+00
0.000000000000000e+00 0.000000000000000e+00 0.000000000000000e+00
0.000000000000000e+00 0.000000000000000e+00 0.000000000000000e+00

0.000000000000000e+00 0.000000000000000e+00 0.000000000000000e+00
0.000000000000000e+00 0.000000000000000e+00 0.000000000000000e+00
0.000000000000000e+00 0.000000000000000e+00 0.000000000000000e+00

0.000000000000000e+00 0.000000000000000e+00 0.000000000000000e+00
0.000000000000000e+00 0.000000000000000e+00 0.000000000000000e+00
0.000000000000000e+00 0.000000000000000e+00 0.000000000000000e+00

0.000000000000000e+00 0.000000000000000e+00 0.000000000000000e+00
0.000000000000000e+00 0.000000000000000e+00 0.000000000000000e+00
0.000000000000000e+00 0.000000000000000e+00 0.000000000000000e+00

0.000000000000000e+00 0.000000000000000e+00 0.000000000000000e+00
0.000000000000000e+00 0.000000000000000e+00 0.000000000000000e+00
0.000000000000000e+00 0.000000000000000e+00 0.000000000000000e+00

0.000000000000000e+00 0.000000000000000e+00 0.000000000000000e+00
0.000000000000000e+00 0.000000000000000e+00 0.000000000000000e+00
0.000000000000000e+00 0.000000000000000e+00 0.000000000000000e+00

0.000000000000000e+00 0.000000000000000e+00 0.000000000000000e+00
0.000000000000000e+00 0.000000000000000e+00 0.000000000000000e+00
0.000000000000000e+00 0.000000000000000e+00 0.000000000000000e+00

0.000000000000000e+00 0.000000000000000e+00 0.000000000000000e+00
0.000000000000000e+00 0.000000000000000e+00 0.000000000000000e+00
0.000000000000000e+00 0.000000000000000e+00 0.000000000000000e+00

0.000000000000000e+00 0.000000000000000e+00 0.000000000000000e+00
0.000000000000000e+00 0.000000000000000e+00 0.000000000000000e+00
0.000000000000000e+00 0.000000000000000e+00 0.000000000000000e+00

0.000000000000000e+00 0.000000000000000e+00 0.000000000000000e+00
0.000000000000000e+00 0.000000000000000e+00 0.000000000000000e+00
0.000000000000000e+00 0.000000000000000e+00 0.000000000000000e+00

0.000000000000000e+00 0.000000000000000e+00 0.000000000000000e+00
0.000000000000000e+00 0.000000000000000e+00 0.000000000000000e+00
0.000000000000000e+00 0.000000000000000e+00 0.000000000000000e+00

0.000000000000000e+00 0.000000000000000e+00 0.000000000000000e+00
0.000000000000000e+00 0.000000000000000e+00 0.000000000000000e+00
0.000000000000000e+00 0.000000000000000e+00 0.000000000000000e+00

0.000000000000000e+00 0.000000000000000e+00 0.000000000000000e+00
0.000000000000000e+00 0.000000000000000e+00 0.000000000000000e+00
0.000000000000000e+00 0.000000000000000e+00 0.000000000000000e+00

0.000000000000000e+00 0.000000000000000e+00 0.000000000000000e+00
0.000000000000000e+00 0.000000000000000e+00 0.000000000000000e+00
0.000000000000000e+00 0.000000000000000e+00 0.000000000000000e+00

0.000000000000000e+00 0.000000000000000e+00 0.000000000000000e+00
0.000000000000000e+00 0.000000000000000e+00 0.000000000000000e+00
0.000000000000000e+00 0.000000000000000e+00 0.000000000000000e+00

0.000000000000000e+00 0.000000000000000e+00 0.000000000000000e+00
0.000000000000000e+00 0.000000000000000e+00 0.000000000000000e+00
0.000000000000000e+00 0.000000000000000e+00 0.000000000000000e+00

0.000000000000000e+00 0.000000000000000e+00 0.000000000000000e+00
0.000000000000000e+00 0.000000000000000e+00 0.000000000000000e+00
0.000000000000000e+00 0.000000000000000e+00 0.000000000000000e+00

0.000000000000000e+00 0.000000000000000e+00 0.000000000000000e+00
0.000000000000000e+00 0.000000000000000e+00 0.000000000000000e+00
0.000000000000000e+00 0.000000000000000e+00 0.000000000000000e+00

0.000000000000000e+00 0.000000000000000e+00 0.000000000000000e+00
0.000000000000000e+00 0.000000000000000e+00 0.000000000000000e+00
0.000000000000000e+00 0.000000000000000e+00 0.000000000000000e+00

0.000000000000000e+00 0.000000000000000e+00 0.000000000000000e+00
0.000000000000000e+00 0.000000000000000e+00 0.000000000000000e+00
0.000000000000000e+00 0.000000000000000e+00 0.000000000000000e+00

0.000000000000000e+00 0.000000000000000e+00 0.000000000000000e+00
0.000000000000000e+00 0.000000000000000e+00 0.000000000000000e+00
0.000000000000000e+00 0.000000000000000e+00 0.000000000000000e+00

0.000000000000000e+00 0.000000000000000e+00 0.000000000000000e+00
0.000000000000000e+00 0.000000000000000e+00 0.000000000000000e+00
0.000000000000000e+00 0.000000000000000e+00 0.000000000000000e+00

0.000000000000000e+00 0.000000000000000e+00 0.000000000000000e+00
0.000000000000000e+00 0.000000000000000e+00 0.000000000000000e+00
0.000000000000000e+00 0.000000000000000e+00 0.000000000000000e+00

0.000000000000000e+00 0.000000000000000e+00 0.000000000000000e+00
0.000000000000000e+00 0.000000000000000e+00 0.000000000000000e+00
0.000000000000000e+00 0.000000000000000e+00 0.000000000000000e+00

0.000000000000000e+00 0.000000000000000e+00 0.000000000000000e+00
0.000000000000000e+00 0.000000000000000e+00 0.000000000000000e+00
0.000000000000000e+00 0.000000000000000e+00 0.000000000000000e+00

0.000000000000000e+00 0.000000000000000e+00 0.000000000000000e+00
0.000000000000000e+00 0.000000000000000e+00 0.000000000000000e+00
0.000000000000000e+00 0.000000000000000e+00 0.000000000000000e+00

0.000000000000000e+00 0.000000000000000e+00 0.000000000000000e+00
0.000000000000000e+00 0.000000000000000e+00 0.000000000000000e+00
0.000000000000000e+00 0.000000000000000e+00 0.000000000000000e+00

0.000000000000000e+00 0.000000000000000e+00 0.000000000000000e+00
0.000000000000000e+00 0.000000000000000e+00 0.000000000000000e+00
0.000000000000000e+00 0.000000000000000e+00 0.000000000000000e+00

0.000000000000000e+00 0.000000000000000e+00 0.000000000000000e+00
0.000000000000000e+00 0.000000000000000e+00 0.000000000000000e+00
0.000000000000000e+00 0.000000000000000e+00 0.000000000000000e+00

0.000000000000000e+00 0.000000000000000e+00 0.000000000000000e+00
0.000000000000000e+00 0.000000000000000e+00 0.000000000000000e+00
0.000000000000000e+00 0.000000000000000e+00 0.000000000000000e+00

0.000000000000000e+00 0.000000000000000e+00 0.000000000000000e+00
0.000000000000000e+00 0.000000000000000e+00 0.000000000000000e+00
0.000000000000000e+00 0.000000000000000e+00 0.000000000000000e+00

0.000000000000000e+00 0.000000000000000e+00 0.000000000000000e+00
0.000000000000000e+00 0.000000000000000e+00 0.000000000000000e+00
0.000000000000000e+00 0.000000000000000e+00 0.000000000000000e+00

0.000000000000000e+00 0.000000000000000e+00 0.000000000000000e+00
0.000000000000000e+00 0.000000000000000e+00 0.000000000000000e+00
0.000000000000000e+00 0.000000000000000e+00 0.000000000000000e+00

0.000000000000000e+00 0.000000000000000e+00 0.000000000000000e+00
0.000000000000000e+00 0.000000000000000e+00 0.000000000000000e+00
0.000000000000000e+00 0.000000000000000e+00 0.000000000000000e+00

0.000000000000000e+00 0.000000000000000e+00 0.000000000000000e+00
0.000000000000000e+00 0.000000000000000e+00 0.000000000000000e+00
0.000000000000000e+00 0.000000000000000e+00 0.000000000000000e+00

0.000000000000000e+00 0.000000000000000e+00 0.000000000000000e+00
0.000000000000000e+00 0.000000000000000e+00 0.000000000000000e+00
0.000000000000000e+00 0.000000000000000e+00 0.000000000000000e+00

0.000000000000000e+00 0.000000000000000e+00 0.000000000000000e+00
0.000000000000000e+00 0.000000000000000e+00 0.000000000000000e+00
0.000000000000000e+00 0.000000000000000e+00 0.000000000000000e+00

0.000000000000000e+00 0.000000000000000e+00 0.000000000000000e+00
0.000000000000000e+00 0.000000000000000e+00 0.000000000000000e+00
0.000000000000000e+00 0.000000000000000e+00 0.000000000000000e+00

0.000000000000000e+00 0.000000000000000e+00 0.000000000000000e+00
0.000000000000000e+00 0.000000000000000e+00 0.000000000000000e+00
0.000000000000000e+00 0.000000000000000e+00 0.000000000000000e+00

0.000000000000000e+00 0.000000000000000e+00 0.000000000000000e+00
0.000000000000000e+00 0.000000000000000e+00 0.000000000000000e+00
0.000000000000000e+00 0.000000000000000e+00 0.000000000000000e+00

0.000000000000000e+00 0.000000000000000e+00 0.000000000000000e+00
0.000000000000000e+00 0.000000000000000e+00 0.000000000000000e+00
0.000000000000000e+00 0.000000000000000e+00 0.000000000000000e+00

0.000000000000000e+00 0.000000000000000e+00 0.000000000000000e+00
0.000000000000000e+00 0.000000000000000e+00 0.000000000000000e+00
0.000000000000000e+00 0.000000000000000e+00 0.000000000000000e+00

0.000000000000000e+00 0.000000000000000e+00 0.000000000000000e+00
0.000000000000000e+00 0.000000000000000e+00 0.000000000000000e+00
0.000000000000000e+00 0.000000000000000e+00 0.000000000000000e+00

0.000000000000000e+00 0.000000000000000e+00 0.000000000000000e+00
0.000000000000000e+00 0.000000000000000e+00 0.000000000000000e+00
0.000000000000000e+00 0.000000000000000e+00 0.000000000000000e+00

0.000000000000000e+00 0.000000000000000e+00 0.000000000000000e+00
0.000000000000000e+00 0.000000000000000e+00 0.000000000000000e+00
0.000000000000000e+00 0.000000000000000e+00 0.000000000000000e+00

0.000000000000000e+00 0.000000000000000e+00 0.000000000000000e+00
0.000000000000000e+00 0.000000000000000e+00 0.000000000000000e+00
0.000000000000000e+00 0.000000000000000e+00 0.000000000000000e+00

0.000000000000000e+00 0.000000000000000e+00 0.000000000000000e+00
0.000000000000000e+00 0.000000000000000e+00 0.000000000000000e+00
0.000000000000000e+00 0.000000000000000e+00 0.000000000000000e+00

0.000000000000000e+00 0.000000000000000e+00 0.000000000000000e+00
0.000000000000000e+00 0.000000000000000e+00 0.000000000000000e+00
0.000000000000000e+00 0.000000000000000e+00 0.000000000000000e+00

0.000000000000000e+00 0.000000000000000e+00 0.000000000000000e+00
0.000000000000000e+00 0.000000000000000e+00 0.000000000000000e+00
0.000000000000000e+00 0.000000000000000e+00 0.000000000000000e+00

0.000000000000000e+00 0.000000000000000e+00 0.000000000000000e+00
0.000000000000000e+00 0.000000000000000e+00 0.000000000000000e+00
0.000000000000000e+00 0.000000000000000e+00 0.000000000000000e+00

0.000000000000000e+00 0.000000000000000e+00 0.000000000000000e+00
0.000000000000000e+00 0.000000000000000e+00 0.000000000000000e+00
0.000000000000000e+00 0.000000000000000e+00 0.000000000000000e+00

0.000000000000000e+00 0.000000000000000e+00 0.000000000000000e+00
0.000000000000000e+00 0.000000000000000e+00 0.000000000000000e+00
0.000000000000000e+00 0.000000000000000e+00 0.000000000000000e+00

0.000000000000000e+00 0.000000000000000e+00 0.000000000000000e+00
0.000000000000000e+00 0.000000000000000e+00 0.000000000000000e+00
0.000000000000000e+00 0.000000000000000e+00 0.000000000000000e+00

0.000000000000000e+00 0.000000000000000e+00 0.000000000000000e+00
0.000000000000000e+00 0.000000000000000e+00 0.000000000000000e+00
0.000000000000000e+00 0.000000000000000e+00 0.000000000000000e+00

0.000000000000000e+00 0.000000000000000e+00 0.000000000000000e+00
0.000000000000000e+00 0.000000000000000e+00 0.000000000000000e+00
0.000000000000000e+00 0.000000000000000e+00 0.000000000000000e+00

0.000000000000000e+00 0.000000000000000e+00 0.000000000000000e+00
0.000000000000000e+00 0.000000000000000e+00 0.000000000000000e+00
0.000000000000000e+00 0.000000000000000e+00 0.000000000000000e+00

0.000000000000000e+00 0.000000000000000e+00 0.000000000000000e+00
0.000000000000000e+00 0.000000000000000e+00 0.000000000000000e+00
0.000000000000000e+00 0.000000000000000e+00 0.000000000000000e+00

0.000000000000000e+00 0.000000000000000e+00 0.000000000000000e+00
0.000000000000000e+00 0.000000000000000e+00 0.000000000000000e+00
0.000000000000000e+00 0.000000000000000e+00 0.000000000000000e+00

0.000000000000000e+00 0.000000000000000e+00 0.000000000000000e+00
0.000000000000000e+00 0.000000000000000e+00 0.000000000000000e+00
0.000000000000000e+00 0.000000000000000e+00 0.000000000000000e+00

0.000000000000000e+00 0.000000000000000e+00 0.000000000000000e+00
0.000000000000000e+00 0.000000000000000e+00 0.000000000000000e+00
0.000000000000000e+00 0.000000000000000e+00 0.000000000000000e+00

0.000000000000000e+00 0.000000000000000e+00 0.000000000000000e+00
0.000000000000000e+00 0.000000000000000e+00 0.000000000000000e+00
0.000000000000000e+00 0.000000000000000e+00 0.000000000000000e+00

0.000000000000000e+00 0.000000000000000e+00 0.000000000000000e+00
0.000000000000000e+00 0.000000000000000e+00 0.000000000000000e+00
0.000000000000000e+00 0.000000000000000e+00 0.000000000000000e+00

0.000000000000000e+00 0.000000000000000e+00 0.000000000000000e+00
0.000000000000000e+00 0.000000000000000e+00 0.000000000000000e+00
0.000000000000000e+00 0.000000000000000e+00 0.000000000000000e+00

0.000000000000000e+00 0.000000000000000e+00 0.000000000000000e+00
0.000000000000000e+00 0.000000000000000e+00 0.000000000000000e+00
0.000000000000000e+00 0.000000000000000e+00 0.000000000000000e+00

0.000000000000000e+00 0.000000000000000e+00 0.000000000000000e+00
0.000000000000000e+00 0.000000000000000e+00 0.000000000000000e+00
0.000000000000000e+00 0.000000000000000e+00 0.000000000000000e+00

0.000000000000000e+00 0.000000000000000e+00 0.000000000000000e+00
0.000000000000000e+00 0.000000000000000e+00 0.000000000000000e+00
0.000000000000000e+00 0.000000000000000e+00 0.000000000000000e+00

0.000000000000000e+00 0.000000000000000e+00 0.000000000000000e+00
0.000000000000000e+00 0.000000000000000e+00 0.000000000000000e+00
0.000000000000000e+00 0.000000000000000e+00 0.000000000000000e+00

0.000000000000000e+00 0.000000000000000e+00 0.000000000000000e+00
0.000000000000000e+00 0.000000000000000e+00 0.000000000000000e+00
0.000000000000000e+00 0.000000000000000e+00 0.000000000000000e+00

0.000000000000000e+00 0.000000000000000e+00 0.000000000000000e+00
0.000000000000000e+00 0.000000000000000e+00 0.000000000000000e+00
0.000000000000000e+00 0.000000000000000e+00 0.000000000000000e+00

0.000000000000000e+00 0.000000000000000e+00 0.000000000000000e+00
0.000000000000000e+00 0.000000000000000e+00 0.000000000000000e+00
0.000000000000000e+00 0.000000000000000e+00 0.000000000000000e+00

0.000000000000000e+00 0.000000000000000e+00 0.000000000000000e+00
0.000000000000000e+00 0.000000000000000e+00 0.000000000000000e+00
0.000000000000000e+00 0.000000000000000e+00 0.000000000000000e+00

0.000000000000000e+00 0.000000000000000e+00 0.000000000000000e+00
0.000000000000000e+00 0.000000000000000e+00 0.000000000000000e+00
0.000000000000000e+00 0.000000000000000e+00 0.000000000000000e+00

0.000000000000000e+00 0.000000000000000e+00 0.000000000000000e+00
0.000000000000000e+00 0.000000000000000e+00 0.000000000000000e+00
0.000000000000000e+00 0.000000000000000e+00 0.000000000000000e+00

0.000000000000000e+00 0.000000000000000e+00 0.000000000000000e+00
0.000000000000000e+00 0.000000000000000e+00 0.000000000000000e+00
0.000000000000000e+00 0.000000000000000e+00 0.000000000000000e+00

0.000000000000000e+00 0.000000000000000e+00 0.000000000000000e+00
0.000000000000000e+00 0.000000000000000e+00 0.000000000000000e+00
0.000000000000000e+00 0.000000000000000e+00 0.000000000000000e+00

0.000000000000000e+00 0.000000000000000e+00 0.000000000000000e+00
0.000000000000000e+00 0.000000000000000e+00 0.000000000000000e+00
0.000000000000000e+00 0.000000000000000e+00 0.000000000000000e+00

0.000000000000000e+00 0.000000000000000e+00 0.000000000000000e+00
0.000000000000000e+00 0.000000000000000e+00 0.000000000000000e+00
0.000000000000000e+00 0.000000000000000e+00 0.000000000000000e+00

0.000000000000000e+00 0.000000000000000e+00 0.000000000000000e+00
0.000000000000000e+00 0.000000000000000e+00 0.000000000000000e+00
0.000000000000000e+00 0.000000000000000e+00 0.000000000000000e+00

0.000000000000000e+00 0.000000000000000e+00 0.000000000000000e+00
0.000000000000000e+00 0.000000000000000e+00 0.000000000000000e+00
0.000000000000000e+00 0.000000000000000e+00 0.000000000000000e+00

0.000000000000000e+00 0.000000000000000e+00 0.000000000000000e+00
0.000000000000000e+00 0.000000000000000e+00 0.000000000000000e+00
0.000000000000000e+00 0.000000000000000e+00 0.000000000000000e+00

0.000000000000000e+00 0.000000000000000e+00 0.000000000000000e+00
0.000000000000000e+00 0.000000000000000e+00 0.000000000000000e+00
0.000000000000000e+00 0.000000000000000e+00 0.000000000000000e+00

0.000000000000000e+00 0.000000000000000e+00 0.000000000000000e+00
0.000000000000000e+00 0.000000000000000e+00 0.000000000000000e+00
0.000000000000000e+00 0.000000000000000e+00 0.000000000000000e+00

0.000000000000000e+00 0.000000000000000e+00 0.000000000000000e+00
0.000000000000000e+00 0.000000000000000e+00 0.000000000000000e+00
0.000000000000000e+00 0.000000000000000e+00 0.000000000000000e+00

0.000000000000000e+00 0.000000000000000e+00 0.000000000000000e+00
0.000000000000000e+00 0.000000000000000e+00 0.000000000000000e+00
0.000000000000000e+00 0.000000000000000e+00 0.000000000000000e+00

0.000000000000000e+00 0.000000000000000e+00 0.000000000000000e+00
0.000000000000000e+00 0.000000000000000e+00 0.000000000000000e+00
0.000000000000000e+00 0.000000000000000e+00 0.000000000000000e+00

0.000000000000000e+00 0.000000000000000e+00 0.000000000000000e+00
0.000000000000000e+00 0.000000000000000e+00 0.000000000000000e+00
0.000000000000000e+00 0.000000000000000e+00 0.000000000000000e+00

0.000000000000000e+00 0.000000000000000e+00 0.000000000000000e+00
0.000000000000000e+00 0.000000000000000e+00 0.000000000000000e+00
0.000000000000000e+00 0.000000000000000e+00 0.000000000000000e+00

0.000000000000000e+00 0.000000000000000e+00 0.000000000000000e+00
0.000000000000000e+00 0.000000000000000e+00 0.000000000000000e+00
0.000000000000000e+00 0.000000000000000e+00 0.000000000000000e+00

0.000000000000000e+00 0.000000000000000e+00 0.000000000000000e+00
0.000000000000000e+00 0.000000000000000e+00 0.000000000000000e+00
0.000000000000000e+00 0.000000000000000e+00 0.000000000000000e+00

0.000000000000000e+00 0.000000000000000e+00 0.000000000000000e+00
0.000000000000000e+00 0.000000000000000e+00 0.000000000000000e+00
0.000000000000000e+00 0.000000000000000e+00 0.000000000000000e+00

0.000000000000000e+00 0.000000000000000e+00 0.000000000000000e+00
0.000000000000000e+00 0.000000000000000e+00 0.000000000000000e+00
0.000000000000000e+00 0.000000000000000e+00 0.000000000000000e+00

0.000000000000000e+00 0.000000000000000e+00 0.000000000000000e+00
0.000000000000000e+00 0.000000000000000e+00 0.000000000000000e+00
0.000000000000000e+00 0.000000000000000e+00 0.000000000000000e+00

0.000000000000000e+00 0.000000000000000e+00 0.000000000000000e+00
0.000000000000000e+00 0.000000000000000e+00 0.000000000000000e+00
0.000000000000000e+00 0.000000000000000e+00 0.000000000000000e+00

0.000000000000000e+00 0.000000000000000e+00 0.000000000000000e+00
0.000000000000000e+00 0.000000000000000e+00 0.000000000000000e+00
0.000000000000000e+00 0.000000000000000e+00 0.000000000000000e+00

0.000000000000000e+00 0.000000000000000e+00 0.000000000000000e+00
0.000000000000000e+00 0.000000000000000e+00 0.000000000000000e+00
0.000000000000000e+00 0.000000000000000e+00 0.000000000000000e+00

0.000000000000000e+00 0.000000000000000e+00 0.000000000000000e+00
0.000000000000000e+00 0.000000000000000e+00 0.000000000000000e+00
0.000000000000000e+00 0.000000000000000e+00 0.000000000000000e+00

0.000000000000000e+00 0.000000000000000e+00 0.000000000000000e+00
0.000000000000000e+00 0.000000000000000e+00 0.000000000000000e+00
0.000000000000000e+00 0.000000000000000e+00 0.000000000000000e+00

0.000000000000000e+00 0.000000000000000e+00 0.000000000000000e+00
0.000000000000000e+00 0.000000000000000e+00 0.000000000000000e+00
0.000000000000000e+00 0.000000000000000e+00 0.000000000000000e+00

0.000000000000000e+00 0.000000000000000e+00 0.000000000000000e+00
0.000000000000000e+00 0.000000000000000e+00 0.000000000000000e+00
0.000000000000000e+00 0.000000000000000e+00 0.000000000000000e+00

0.000000000000000e+00 0.000000000000000e+00 0.000000000000000e+00
0.000000000000000e+00 0.000000000000000e+00 0.000000000000000e+00
0.000000000000000e+00 0.000000000000000e+00 0.000000000000000e+00

0.000000000000000e+00 0.000000000000000e+00 0.000000000000000e+00
0.000000000000000e+00 0.000000000000000e+00 0.000000000000000e+00
0.000000000000000e+00 0.000000000000000e+00 0.000000000000000e+00

0.000000000000000e+00 0.000000000000000e+00 0.000000000000000e+00
0.000000000000000e+00 0.000000000000000e+00 0.000000000000000e+00
0.000000000000000e+00 0.000000000000000e+00 0.000000000000000e+00

0.000000000000000e+00 0.000000000000000e+00 0.000000000000000e+00
0.000000000000000e+00 0.000000000000000e+00 0.000000000000000e+00
0.000000000000000e+00 0.000000000000000e+00 0.000000000000000e+00

0.000000000000000e+00 0.000000000000000e+00 0.000000000000000e+00
0.000000000000000e+00 0.000000000000000e+00 0.000000000000000e+00
0.000000000000000e+00 0.000000000000000e+00 0.000000000000000e+00

0.000000000000000e+00 0.000000000000000e+00 0.000000000000000e+00
0.000000000000000e+00 0.000000000000000e+00 0.000000000000000e+00
0.000000000000000e+00 0.000000000000000e+00 0.000000000000000e+00

0.000000000000000e+00 0.000000000000000e+00 0.000000000000000e+00
0.000000000000000e+00 0.000000000000000e+00 0.000000000000000e+00
0.000000000000000e+00 0.000000000000000e+00 0.000000000000000e+00

0.000000000000000e+00 0.000000000000000e+00 0.000000000000000e+00
0.000000000000000e+00 0.000000000000000e+00 0.000000000000000e+00
0.000000000000000e+00 0.000000000000000e+00 0.000000000000000e+00

0.000000000000000e+00 0.000000000000000e+00 0.000000000000000e+00
0.000000000000000e+00 0.000000000000000e+00 0.000000000000000e+00
0.000000000000000e+00 0.000000000000000e+00 0.000000000000000e+00

0.000000000000000e+00 0.000000000000000e+00 0.000000000000000e+00
0.000000000000000e+00 0.000000000000000e+00 0.000000000000000e+00
0.000000000000000e+00 0.000000000000000e+00 0.000000000000000e+00

0.000000000000000e+00 0.000000000000000e+00 0.000000000000000e+00
0.000000000000000e+00 0.000000000000000e+00 0.000000000000000e+00
0.000000000000000e+00 0.000000000000000e+00 0.000000000000000e+00

0.000000000000000e+00 0.000000000000000e+00 0.000000000000000e+00
0.000000000000000e+00 0.000000000000000e+00 0.000000000000000e+00
0.000000000000000e+00 0.000000000000000e+00 0.000000000000000e+00

0.000000000000000e+00 0.000000000000000e+00 0.000000000000000e+00
0.000000000000000e+00 0.000000000000000e+00 0.000000000000000e+00
0.000000000000000e+00 0.000000000000000e+00 0.000000000000000e+00

0.000000000000000e+00 0.000000000000000e+00 0.000000000000000e+00
0.000000000000000e+00 0.000000000000000e+00 0.000000000000000e+00
0.000000000000000e+00 0.000000000000000e+00 0.000000000000000e+00

0.000000000000000e+00 0.000000000000000e+00 0.000000000000000e+00
0.000000000000000e+00 0.000000000000000e+00 0.000000000000000e+00
0.000000000000000e+00 0.000000000000000e+00 0.000000000000000e+00

0.000000000000000e+00 0.000000000000000e+00 0.000000000000000e+00
0.000000000000000e+00 0.000000000000000e+00 0.000000000000000e+00
0.000000000000000e+00 0.000000000000000e+00 0.000000000000000e+00

0.000000000000000e+00 0.000000000000000e+00 0.000000000000000e+00
0.000000000000000e+00 0.000000000000000e+00 0.000000000000000e+00
0.000000000000000e+00 0.000000000000000e+00 0.000000000000000e+00

0.000000000000000e+00 0.000000000000000e+00 0.000000000000000e+00
0.000000000000000e+00 0.000000000000000e+00 0.000000000000000e+00
0.000000000000000e+00 0.000000000000000e+00 0.000000000000000e+00

0.000000000000000e+00 0.000000000000000e+00 0.000000000000000e+00
0.000000000000000e+00 0.000000000000000e+00 0.000000000000000e+00
0.000000000000000e+00 0.000000000000000e+00 0.000000000000000e+00

0.000000000000000e+00 0.000000000000000e+00 0.000000000000000e+00
0.000000000000000e+00 0.000000000000000e+00 0.000000000000000e+00
0.000000000000000e+00 0.000000000000000e+00 0.000000000000000e+00

0.000000000000000e+00 0.000000000000000e+00 0.000000000000000e+00
0.000000000000000e+00 0.000000000000000e+00 0.000000000000000e+00
0.000000000000000e+00 0.000000000000000e+00 0.000000000000000e+00

0.000000000000000e+00 0.000000000000000e+00 0.000000000000000e+00
0.000000000000000e+00 0.000000000000000e+00 0.000000000000000e+00
0.000000000000000e+00 0.000000000000000e+00 0.000000000000000e+00

0.000000000000000e+00 0.000000000000000e+00 0.000000000000000e+00
0.000000000000000e+00 0.000000000000000e+00 0.000000000000000e+00
0.000000000000000e+00 0.000000000000000e+00 0.000000000000000e+00

0.000000000000000e+00 0.000000000000000e+00 0.000000000000000e+00
0.000000000000000e+00 0.000000000000000e+00 0.000000000000000e+00
0.000000000000000e+00 0.000000000000000e+00 0.000000000000000e+00

0.000000000000000e+00 0.000000000000000e+00 0.000000000000000e+00
0.000000000000000e+00 0.000000000000000e+00 0.000000000000000e+00
0.000000000000000e+00 0.000000000000000e+00 0.000000000000000e+00

0.000000000000000e+00 0.000000000000000e+00 0.000000000000000e+00
0.000000000000000e+00 0.000000000000000e+00 0.000000000000000e+00
0.000000000000000e+00 0.000000000000000e+00 0.000000000000000e+00

0.000000000000000e+00 0.000000000000000e+00 0.000000000000000e+00
0.000000000000000e+00 0.000000000000000e+00 0.000000000000000e+00
0.000000000000000e+00 0.000000000000000e+00 0.000000000000000e+00

0.000000000000000e+00 0.000000000000000e+00 0.000000000000000e+00
0.000000000000000e+00 0.000000000000000e+00 0.000000000000000e+00
0.000000000000000e+00 0.000000000000000e+00 0.000000000000000e+00

0.000000000000000e+00 0.000000000000000e+00 0.000000000000000e+00
0.000000000000000e+00 0.000000000000000e+00 0.000000000000000e+00
0.000000000000000e+00 0.000000000000000e+00 0.000000000000000e+00

0.000000000000000e+00 0.000000000000000e+00 0.000000000000000e+00
0.000000000000000e+00 0.000000000000000e+00 0.000000000000000e+00
0.000000000000000e+00 0.000000000000000e+00 0.000000000000000e+00

0.000000000000000e+00 0.000000000000000e+00 0.000000000000000e+00
0.000000000000000e+00 0.000000000000000e+00 0.000000000000000e+00
0.000000000000000e+00 0.000000000000000e+00 0.000000000000000e+00

0.000000000000000e+00 0.000000000000000e+00 0.000000000000000e+00
0.000000000000000e+00 0.000000000000000e+00 0.000000000000000e+00
0.000000000000000e+00 0.000000000000000e+00 0.000000000000000e+00

0.000000000000000e+00 0.000000000000000e+00 0.000000000000000e+00
0.000000000000000e+00 0.000000000000000e+00 0.000000000000000e+00
0.000000000000000e+00 0.000000000000000e+00 0.000000000000000e+00

0.000000000000000e+00 0.000000000000000e+00 0.000000000000000e+00
0.000000000000000e+00 0.000000000000000e+00 0.000000000000000e+00
0.000000000000000e+00 0.000000000000000e+00 0.000000000000000e+00

0.000000000000000e+00 0.000000000000000e+00 0.000000000000000e+00
0.000000000000000e+00 0.000000000000000e+00 0.000000000000000e+00
0.000000000000000e+00 0.000000000000000e+00 0.000000000000000e+00

0.000000000000000e+00 0.000000000000000e+00 0.000000000000000e+00
0.000000000000000e+00 0.000000000000000e+00 0.000000000000000e+00
0.000000000000000e+00 0.000000000000000e+00 0.000000000000000e+00

0.000000000000000e+00 0.000000000000000e+00 0.000000000000000e+00
0.000000000000000e+00 0.000000000000000e+00 0.000000000000000e+00
0.000000000000000e+00 0.000000000000000e+00 0.000000000000000e+00

0.000000000000000e+00 0.000000000000000e+00 0.000000000000000e+00
0.000000000000000e+00 0.000000000000000e+00 0.000000000000000e+00
0.000000000000000e+00 0.000000000000000e+00 0.000000000000000e+00

0.000000000000000e+00 0.000000000000000e+00 0.000000000000000e+00
0.000000000000000e+00 0.000000000000000e+00 0.000000000000000e+00
0.000000000000000e+00 0.000000000000000e+00 0.000000000000000e+00

0.000000000000000e+00 0.000000000000000e+00 0.000000000000000e+00
0.000000000000000e+00 0.000000000000000e+00 0.000000000000000e+00
0.000000000000000e+00 0.000000000000000e+00 0.000000000000000e+00

0.000000000000000e+00 0.000000000000000e+00 0.000000000000000e+00
0.000000000000000e+00 0.000000000000000e+00 0.000000000000000e+00
0.000000000000000e+00 0.000000000000000e+00 0.000000000000000e+00

0.000000000000000e+00 0.000000000000000e+00 0.000000000000000e+00
0.000000000000000e+00 0.000000000000000e+00 0.000000000000000e+00
0.000000000000000e+00 0.000000000000000e+00 0.000000000000000e+00

0.000000000000000e+00 0.000000000000000e+00 0.000000000000000e+00
0.000000000000000e+00 0.000000000000000e+00 0.000000000000000e+00
0.000000000000000e+00 0.000000000000000e+00 0.000000000000000e+00

0.000000000000000e+00 0.000000000000000e+00 0.000000000000000e+00
0.000000000000000e+00 0.000000000000000e+00 0.000000000000000e+00
0.000000000000000e+00 0.000000000000000e+00 0.000000000000000e+00

0.000000000000000e+00 0.000000000000000e+00 0.000000000000000e+00
0.000000000000000e+00 0.000000000000000e+00 0.000000000000000e+00
0.000000000000000e+00 0.000000000000000e+00 0.000000000000000e+00

0.000000000000000e+00 0.000000000000000e+00 0.000000000000000e+00
0.000000000000000e+00 0.000000000000000e+00 0.000000000000000e+00
0.000000000000000e+00 0.000000000000000e+00 0.000000000000000e+00

0.000000000000000e+00 0.000000000000000e+00 0.000000000000000e+00
0.000000000000000e+00 0.000000000000000e+00 0.000000000000000e+00
0.000000000000000e+00 0.000000000000000e+00 0.000000000000000e+00

0.000000000000000e+00 0.000000000000000e+00 0.000000000000000e+00
0.000000000000000e+00 0.000000000000000e+00 0.000000000000000e+00
0.000000000000000e+00 0.000000000000000e+00 0.000000000000000e+00

0.000000000000000e+00 0.000000000000000e+00 0.000000000000000e+00
0.000000000000000e+00 0.000000000000000e+00 0.000000000000000e+00
0.000000000000000e+00 0.000000000000000e+00 0.000000000000000e+00

0.000000000000000e+00 0.000000000000000e+00 0.000000000000000e+00
0.000000000000000e+00 0.000000000000000e+00 0.000000000000000e+00
0.000000000000000e+00 0.000000000000000e+00 0.000000000000000e+00

0.000000000000000e+00 0.000000000000000e+00 0.000000000000000e+00
0.000000000000000e+00 0.000000000000000e+00 0.000000000000000e+00
0.000000000000000e+00 0.000000000000000e+00 0.000000000000000e+00

0.000000000000000e+00 0.000000000000000e+00 0.000000000000000e+00
0.000000000000000e+00 0.000000000000000e+00 0.000000000000000e+00
0.000000000000000e+00 0.000000000000000e+00 0.000000000000000e+00

0.000000000000000e+00 0.000000000000000e+00 0.000000000000000e+00
0.000000000000000e+00 0.000000000000000e+00 0.000000000000000e+00
0.000000000000000e+00 0.000000000000000e+00 0.000000000000000e+00

0.000000000000000e+00 0.000000000000000e+00 0.000000000000000e+00
0.000000000000000e+00 0.000000000000000e+00 0.000000000000000e+00
0.000000000000000e+00 0.000000000000000e+00 0.000000000000000e+00

0.000000000000000e+00 0.000000000000000e+00 0.000000000000000e+00
0.000000000000000e+00 0.000000000000000e+00 0.000000000000000e+00
0.000000000000000e+00 0.000000000000000e+00 0.000000000000000e+00

0.000000000000000e+00 0.000000000000000e+00 0.000000000000000e+00
0.000000000000000e+00 0.000000000000000e+00 0.000000000000000e+00
0.000000000000000e+00 0.000000000000000e+00 0.000000000000000e+00

0.000000000000000e+00 0.000000000000000e+00 0.000000000000000e+00
0.000000000000000e+00 0.000000000000000e+00 0.000000000000000e+00
0.000000000000000e+00 0.000000000000000e+00 0.000000000000000e+00

0.000000000000000e+00 0.000000000000000e+00 0.000000000000000e+00
0.000000000000000e+00 0.000000000000000e+00 0.000000000000000e+00
0.000000000000000e+00 0.000000000000000e+00 0.000000000000000e+00

0.000000000000000e+00 0.000000000000000e+00 0.000000000000000e+00
0.000000000000000e+00 0.000000000000000e+00 0.000000000000000e+00
0.000000000000000e+00 0.000000000000000e+00 0.000000000000000e+00

0.000000000000000e+00 0.000000000000000e+00 0.000000000000000e+00
0.000000000000000e+00 0.000000000000000e+00 0.000000000000000e+00
0.000000000000000e+00 0.000000000000000e+00 0.000000000000000e+00

0.000000000000000e+00 0.000000000000000e+00 0.000000000000000e+00
0.000000000000000e+00 0.000000000000000e+00 0.000000000000000e+00
0.000000000000000e+00 0.000000000000000e+00 0.000000000000000e+00

0.000000000000000e+00 0.000000000000000e+00 0.000000000000000e+00
0.000000000000000e+00 0.000000000000000e+00 0.000000000000000e+00
0.000000000000000e+00 0.000000000000000e+00 0.000000000000000e+00

0.000000000000000e+00 0.000000000000000e+00 0.000000000000000e+00
0.000000000000000e+00 0.000000000000000e+00 0.000000000000000e+00
0.000000000000000e+00 0.000000000000000e+00 0.000000000000000e+00

0.000000000000000e+00 0.000000000000000e+00 0.000000000000000e+00
0.000000000000000e+00 0.000000000000000e+00 0.000000000000000e+00
0.000000000000000e+00 0.000000000000000e+00 0.000000000000000e+00

0.000000000000000e+00 0.000000000000000e+00 0.000000000000000e+00
0.000000000000000e+00 0.000000000000000e+00 0.000000000000000e+00
0.000000000000000e+00 0.000000000000000e+00 0.000000000000000e+00

0.000000000000000e+00 0.000000000000000e+00 0.000000000000000e+00
0.000000000000000e+00 0.000000000000000e+00 0.000000000000000e+00
0.000000000000000e+00 0.000000000000000e+00 0.000000000000000e+00

0.000000000000000e+00 0.000000000000000e+00 0.000000000000000e+00
0.000000000000000e+00 0.000000000000000e+00 0.000000000000000e+00
0.000000000000000e+00 0.000000000000000e+00 0.000000000000000e+00

0.000000000000000e+00 0.000000000000000e+00 0.000000000000000e+00
0.000000000000000e+00 0.000000000000000e+00 0.000000000000000e+00
0.000000000000000e+00 0.000000000000000e+00 0.000000000000000e+00

0.000000000000000e+00 0.000000000000000e+00 0.000000000000000e+00
0.000000000000000e+00 0.000000000000000e+00 0.000000000000000e+00
0.000000000000000e+00 0.000000000000000e+00 0.000000000000000e+00

0.000000000000000e+00 0.000000000000000e+00 0.000000000000000e+00
0.000000000000000e+00 0.000000000000000e+00 0.000000000000000e+00
0.000000000000000e+00 0.000000000000000e+00 0.000000000000000e+00

0.000000000000000e+00 0.000000000000000e+00 0.000000000000000e+00
0.000000000000000e+00 0.000000000000000e+00 0.000000000000000e+00
0.000000000000000e+00 0.000000000000000e+00 0.000000000000000e+00

0.000000000000000e+00 0.000000000000000e+00 0.000000000000000e+00
0.000000000000000e+00 0.000000000000000e+00 0.000000000000000e+00
0.000000000000000e+00 0.000000000000000e+00 0.000000000000000e+00

0.000000000000000e+00 0.000000000000000e+00 0.000000000000000e+00
0.000000000000000e+00 0.000000000000000e+00 0.000000000000000e+00
0.000000000000000e+00 0.000000000000000e+00 0.000000000000000e+00

0.000000000000000e+00 0.000000000000000e+00 0.000000000000000e+00
0.000000000000000e+00 0.000000000000000e+00 0.000000000000000e+00
0.000000000000000e+00 0.000000000000000e+00 0.000000000000000e+00

0.000000000000000e+00 0.000000000000000e+00 0.000000000000000e+00
0.000000000000000e+00 0.000000000000000e+00 0.000000000000000e+00
0.000000000000000e+00 0.000000000000000e+00 0.000000000000000e+00

0.000000000000000e+00 0.000000000000000e+00 0.000000000000000e+00
0.000000000000000e+00 0.000000000000000e+00 0.000000000000000e+00
0.000000000000000e+00 0.000000000000000e+00 0.000000000000000e+00

0.000000000000000e+00 0.000000000000000e+00 0.000000000000000e+00
0.000000000000000e+00 0.000000000000000e+00 0.000000000000000e+00
0.000000000000000e+00 0.000000000000000e+00 0.000000000000000e+00

0.000000000000000e+00 0.000000000000000e+00 0.000000000000000e+00
0.000000000000000e+00 0.000000000000000e+00 0.000000000000000e+00
0.000000000000000e+00 0.000000000000000e+00 0.000000000000000e+00

0.000000000000000e+00 0.000000000000000e+00 0.000000000000000e+00
0.000000000000000e+00 0.000000000000000e+00 0.000000000000000e+00
0.000000000000000e+00 0.000000000000000e+00 0.000000000000000e+00

0.000000000000000e+00 0.000000000000000e+00 0.000000000000000e+00
0.000000000000000e+00 0.000000000000000e+00 0.000000000000000e+00
0.000000000000000e+00 0.000000000000000e+00 0.000000000000000e+00

0.000000000000000e+00 0.000000000000000e+00 0.000000000000000e+00
0.000000000000000e+00 0.000000000000000e+00 0.000000000000000e+00
0.000000000000000e+00 0.000000000000000e+00 0.000000000000000e+00

0.000000000000000e+00 0.000000000000000e+00 0.000000000000000e+00
0.000000000000000e+00 0.000000000000000e+00 0.000000000000000e+00
0.000000000000000e+00 0.000000000000000e+00 0.000000000000000e+00

0.000000000000000e+00 0.000000000000000e+00 0.000000000000000e+00
0.000000000000000e+00 0.000000000000000e+00 0.000000000000000e+00
0.000000000000000e+00 0.000000000000000e+00 0.000000000000000e+00

0.000000000000000e+00 0.000000000000000e+00 0.000000000000000e+00
0.000000000000000e+00 0.000000000000000e+00 0.000000000000000e+00
0.000000000000000e+00 0.000000000000000e+00 0.000000000000000e+00

0.000000000000000e+00 0.000000000000000e+00 0.000000000000000e+00
0.000000000000000e+00 0.000000000000000e+00 0.000000000000000e+00
0.000000000000000e+00 0.000000000000000e+00 0.000000000000000e+00

0.000000000000000e+00 0.000000000000000e+00 0.000000000000000e+00
0.000000000000000e+00 0.000000000000000e+00 0.000000000000000e+00
0.000000000000000e+00 0.000000000000000e+00 0.000000000000000e+00

0.000000000000000e+00 0.000000000000000e+00 0.000000000000000e+00
0.000000000000000e+00 0.000000000000000e+00 0.000000000000000e+00
0.000000000000000e+00 0.000000000000000e+00 0.000000000000000e+00

0.000000000000000e+00 0.000000000000000e+00 0.000000000000000e+00
0.000000000000000e+00 0.000000000000000e+00 0.000000000000000e+00
0.000000000000000e+00 0.000000000000000e+00 0.000000000000000e+00

0.000000000000000e+00 0.000000000000000e+00 0.000000000000000e+00
0.000000000000000e+00 0.000000000000000e+00 0.000000000000000e+00
0.000000000000000e+00 0.000000000000000e+00 0.000000000000000e+00

0.000000000000000e+00 0.000000000000000e+00 0.000000000000000e+00
0.000000000000000e+00 0.000000000000000e+00 0.000000000000000e+00
0.000000000000000e+00 0.000000000000000e+00 0.000000000000000e+00

0.000000000000000e+00 0.000000000000000e+00 0.000000000000000e+00
0.000000000000000e+00 0.000000000000000e+00 0.000000000000000e+00
0.000000000000000e+00 0.000000000000000e+00 0.000000000000000e+00

0.000000000000000e+00 0.000000000000000e+00 0.000000000000000e+00
0.000000000000000e+00 0.000000000000000e+00 0.000000000000000e+00
0.000000000000000e+00 0.000000000000000e+00 0.000000000000000e+00

0.000000000000000e+00 0.000000000000000e+00 0.000000000000000e+00
0.000000000000000e+00 0.000000000000000e+00 0.000000000000000e+00
0.000000000000000e+00 0.000000000000000e+00 0.000000000000000e+00

0.000000000000000e+00 0.000000000000000e+00 0.000000000000000e+00
0.000000000000000e+00 0.000000000000000e+00 0.000000000000000e+00
0.000000000000000e+00 0.000000000000000e+00 0.000000000000000e+00

0.000000000000000e+00 0.000000000000000e+00 0.000000000000000e+00
0.000000000000000e+00 0.000000000000000e+00 0.000000000000000e+00
0.000000000000000e+00 0.000000000000000e+00 0.000000000000000e+00

0.000000000000000e+00 0.000000000000000e+00 0.000000000000000e+00
0.000000000000000e+00 0.000000000000000e+00 0.000000000000000e+00
0.000000000000000e+00 0.000000000000000e+00 0.000000000000000e+00

0.000000000000000e+00 0.000000000000000e+00 0.000000000000000e+00
0.000000000000000e+00 0.000000000000000e+00 0.000000000000000e+00
0.000000000000000e+00 0.000000000000000e+00 0.000000000000000e+00

0.000000000000000e+00 0.000000000000000e+00 0.000000000000000e+00
0.000000000000000e+00 0.000000000000000e+00 0.000000000000000e+00
0.000000000000000e+00 0.000000000000000e+00 0.000000000000000e+00

0.000000000000000e+00 0.000000000000000e+00 0.000000000000000e+00
0.000000000000000e+00 0.000000000000000e+00 0.000000000000000e+00
0.000000000000000e+00 0.000000000000000e+00 0.000000000000000e+00

0.000000000000000e+00 0.000000000000000e+00 0.000000000000000e+00
0.000000000000000e+00 0.000000000000000e+00 0.000000000000000e+00
0.000000000000000e+00 0.000000000000000e+00 0.000000000000000e+00

0.000000000000000e+00 0.000000000000000e+00 0.000000000000000e+00
0.000000000000000e+00 0.000000000000000e+00 0.000000000000000e+00
0.000000000000000e+00 0.000000000000000e+00 0.000000000000000e+00

0.000000000000000e+00 0.000000000000000e+00 0.000000000000000e+00
0.000000000000000e+00 0.000000000000000e+00 0.000000000000000e+00
0.000000000000000e+00 0.000000000000000e+00 0.000000000000000e+00

0.000000000000000e+00 0.000000000000000e+00 0.000000000000000e+00
0.000000000000000e+00 0.000000000000000e+00 0.000000000000000e+00
0.000000000000000e+00 0.000000000000000e+00 0.000000000000000e+00

0.000000000000000e+00 0.000000000000000e+00 0.000000000000000e+00
0.000000000000000e+00 0.000000000000000e+00 0.000000000000000e+00
0.000000000000000e+00 0.000000000000000e+00 0.000000000000000e+00

0.000000000000000e+00 0.000000000000000e+00 0.000000000000000e+00
0.000000000000000e+00 0.000000000000000e+00 0.000000000000000e+00
0.000000000000000e+00 0.000000000000000e+00 0.000000000000000e+00

0.000000000000000e+00 0.000000000000000e+00 0.000000000000000e+00
0.000000000000000e+00 0.000000000000000e+00 0.000000000000000e+00
0.000000000000000e+00 0.000000000000000e+00 0.000000000000000e+00

0.000000000000000e+00 0.000000000000000e+00 0.000000000000000e+00
0.000000000000000e+00 0.000000000000000e+00 0.000000000000000e+00
0.000000000000000e+00 0.000000000000000e+00 0.000000000000000e+00

0.000000000000000e+00 0.000000000000000e+00 0.000000000000000e+00
0.000000000000000e+00 0.000000000000000e+00 0.000000000000000e+00
0.000000000000000e+00 0.000000000000000e+00 0.000000000000000e+00

0.000000000000000e+00 0.000000000000000e+00 0.000000000000000e+00
0.000000000000000e+00 0.000000000000000e+00 0.000000000000000e+00
0.000000000000000e+00 0.000000000000000e+00 0.000000000000000e+00

0.000000000000000e+00 0.000000000000000e+00 0.000000000000000e+00
0.000000000000000e+00 0.000000000000000e+00 0.000000000000000e+00
0.000000000000000e+00 0.000000000000000e+00 0.000000000000000e+00

0.000000000000000e+00 0.000000000000000e+00 0.000000000000000e+00
0.000000000000000e+00 0.000000000000000e+00 0.000000000000000e+00
0.000000000000000e+00 0.000000000000000e+00 0.000000000000000e+00

0.000000000000000e+00 0.000000000000000e+00 0.000000000000000e+00
0.000000000000000e+00 0.000000000000000e+00 0.000000000000000e+00
0.000000000000000e+00 0.000000000000000e+00 0.000000000000000e+00

0.000000000000000e+00 0.000000000000000e+00 0.000000000000000e+00
0.000000000000000e+00 0.000000000000000e+00 0.000000000000000e+00
0.000000000000000e+00 0.000000000000000e+00 0.000000000000000e+00

0.000000000000000e+00 0.000000000000000e+00 0.000000000000000e+00
0.000000000000000e+00 0.000000000000000e+00 0.000000000000000e+00
0.000000000000000e+00 0.000000000000000e+00 0.000000000000000e+00

0.000000000000000e+00 0.000000000000000e+00 0.000000000000000e+00
0.000000000000000e+00 0.000000000000000e+00 0.000000000000000e+00
0.000000000000000e+00 0.000000000000000e+00 0.000000000000000e+00

0.000000000000000e+00 0.000000000000000e+00 0.000000000000000e+00
0.000000000000000e+00 0.000000000000000e+00 0.000000000000000e+00
0.000000000000000e+00 0.000000000000000e+00 0.000000000000000e+00

0.000000000000000e+00 0.000000000000000e+00 0.000000000000000e+00
0.000000000000000e+00 0.000000000000000e+00 0.000000000000000e+00
0.000000000000000e+00 0.000000000000000e+00 0.000000000000000e+00

0.000000000000000e+00 0.000000000000000e+00 0.000000000000000e+00
0.000000000000000e+00 0.000000000000000e+00 0.000000000000000e+00
0.000000000000000e+00 0.000000000000000e+00 0.000000000000000e+00

0.000000000000000e+00 0.000000000000000e+00 0.000000000000000e+00
0.000000000000000e+00 0.000000000000000e+00 0.000000000000000e+00
0.000000000000000e+00 0.000000000000000e+00 0.000000000000000e+00

0.000000000000000e+00 0.000000000000000e+00 0.000000000000000e+00
0.000000000000000e+00 0.000000000000000e+00 0.000000000000000e+00
0.000000000000000e+00 0.000000000000000e+00 0.000000000000000e+00

0.000000000000000e+00 0.000000000000000e+00 0.000000000000000e+00
0.000000000000000e+00 0.000000000000000e+00 0.000000000000000e+00
0.000000000000000e+00 0.000000000000000e+00 0.000000000000000e+00

0.000000000000000e+00 0.000000000000000e+00 0.000000000000000e+00
0.000000000000000e+00 0.000000000000000e+00 0.000000000000000e+00
0.000000000000000e+00 0.000000000000000e+00 0.000000000000000e+00

0.000000000000000e+00 0.000000000000000e+00 0.000000000000000e+00
0.000000000000000e+00 0.000000000000000e+00 0.000000000000000e+00
0.000000000000000e+00 0.000000000000000e+00 0.000000000000000e+00

0.000000000000000e+00 0.000000000000000e+00 0.000000000000000e+00
0.000000000000000e+00 0.000000000000000e+00 0.000000000000000e+00
0.000000000000000e+00 0.000000000000000e+00 0.000000000000000e+00

0.000000000000000e+00 0.000000000000000e+00 0.000000000000000e+00
0.000000000000000e+00 0.000000000000000e+00 0.000000000000000e+00
0.000000000000000e+00 0.000000000000000e+00 0.000000000000000e+00

0.000000000000000e+00 0.000000000000000e+00 0.000000000000000e+00
0.000000000000000e+00 0.000000000000000e+00 0.000000000000000e+00
0.000000000000000e+00 0.000000000000000e+00 0.000000000000000e+00

0.000000000000000e+00 0.000000000000000e+00 0.000000000000000e+00
0.000000000000000e+00 0.000000000000000e+00 0.000000000000000e+00
0.000000000000000e+00 0.000000000000000e+00 0.000000000000000e+00

0.000000000000000e+00 0.000000000000000e+00 0.000000000000000e+00
0.000000000000000e+00 0.000000000000000e+00 0.000000000000000e+00
0.000000000000000e+00 0.000000000000000e+00 0.000000000000000e+00

0.000000000000000e+00 0.000000000000000e+00 0.000000000000000e+00
0.000000000000000e+00 0.000000000000000e+00 0.000000000000000e+00
0.000000000000000e+00 0.000000000000000e+00 0.000000000000000e+00

0.000000000000000e+00 0.000000000000000e+00 0.000000000000000e+00
0.000000000000000e+00 0.000000000000000e+00 0.000000000000000e+00
0.000000000000000e+00 0.000000000000000e+00 0.000000000000000e+00

0.000000000000000e+00 0.000000000000000e+00 0.000000000000000e+00
0.000000000000000e+00 0.000000000000000e+00 0.000000000000000e+00
0.000000000000000e+00 0.000000000000000e+00 0.000000000000000e+00

0.000000000000000e+00 0.000000000000000e+00 0.000000000000000e+00
0.000000000000000e+00 0.000000000000000e+00 0.000000000000000e+00
0.000000000000000e+00 0.000000000000000e+00 0.000000000000000e+00

0.000000000000000e+00 0.000000000000000e+00 0.000000000000000e+00
0.000000000000000e+00 0.000000000000000e+00 0.000000000000000e+00
0.000000000000000e+00 0.000000000000000e+00 0.000000000000000e+00

0.000000000000000e+00 0.000000000000000e+00 0.000000000000000e+00
0.000000000000000e+00 0.000000000000000e+00 0.000000000000000e+00
0.000000000000000e+00 0.000000000000000e+00 0.000000000000000e+00

0.000000000000000e+00 0.000000000000000e+00 0.000000000000000e+00
0.000000000000000e+00 0.000000000000000e+00 0.000000000000000e+00
0.000000000000000e+00 0.000000000000000e+00 0.000000000000000e+00

0.000000000000000e+00 0.000000000000000e+00 0.000000000000000e+00
0.000000000000000e+00 0.000000000000000e+00 0.000000000000000e+00
0.000000000000000e+00 0.000000000000000e+00 0.000000000000000e+00

0.000000000000000e+00 0.000000000000000e+00 0.000000000000000e+00
0.000000000000000e+00 0.000000000000000e+00 0.000000000000000e+00
0.000000000000000e+00 0.000000000000000e+00 0.000000000000000e+00

0.000000000000000e+00 0.000000000000000e+00 0.000000000000000e+00
0.000000000000000e+00 0.000000000000000e+00 0.000000000000000e+00
0.000000000000000e+00 0.000000000000000e+00 0.000000000000000e+00

0.000000000000000e+00 0.000000000000000e+00 0.000000000000000e+00
0.000000000000000e+00 0.000000000000000e+00 0.000000000000000e+00
0.000000000000000e+00 0.000000000000000e+00 0.000000000000000e+00

0.000000000000000e+00 0.000000000000000e+00 0.000000000000000e+00
0.000000000000000e+00 0.000000000000000e+00 0.000000000000000e+00
0.000000000000000e+00 0.000000000000000e+00 0.000000000000000e+00

0.000000000000000e+00 0.000000000000000e+00 0.000000000000000e+00
0.000000000000000e+00 0.000000000000000e+00 0.000000000000000e+00
0.000000000000000e+00 0.000000000000000e+00 0.000000000000000e+00

0.000000000000000e+00 0.000000000000000e+00 0.000000000000000e+00
0.000000000000000e+00 0.000000000000000e+00 0.000000000000000e+00
0.000000000000000e+00 0.000000000000000e+00 0.000000000000000e+00

0.000000000000000e+00 0.000000000000000e+00 0.000000000000000e+00
0.000000000000000e+00 0.000000000000000e+00 0.000000000000000e+00
0.000000000000000e+00 0.000000000000000e+00 0.000000000000000e+00

0.000000000000000e+00 0.000000000000000e+00 0.000000000000000e+00
0.000000000000000e+00 0.000000000000000e+00 0.000000000000000e+00
0.000000000000000e+00 0.000000000000000e+00 0.000000000000000e+00

0.000000000000000e+00 0.000000000000000e+00 0.000000000000000e+00
0.000000000000000e+00 0.000000000000000e+00 0.000000000000000e+00
0.000000000000000e+00 0.000000000000000e+00 0.000000000000000e+00

0.000000000000000e+00 0.000000000000000e+00 0.000000000000000e+00
0.000000000000000e+00 0.000000000000000e+00 0.000000000000000e+00
0.000000000000000e+00 0.000000000000000e+00 0.000000000000000e+00

0.000000000000000e+00 0.000000000000000e+00 0.000000000000000e+00
0.000000000000000e+00 0.000000000000000e+00 0.000000000000000e+00
0.000000000000000e+00 0.000000000000000e+00 0.000000000000000e+00

0.000000000000000e+00 0.000000000000000e+00 0.000000000000000e+00
0.000000000000000e+00 0.000000000000000e+00 0.000000000000000e+00
0.000000000000000e+00 0.000000000000000e+00 0.000000000000000e+00

0.000000000000000e+00 0.000000000000000e+00 0.000000000000000e+00
0.000000000000000e+00 0.000000000000000e+00 0.000000000000000e+00
0.000000000000000e+00 0.000000000000000e+00 0.000000000000000e+00

0.000000000000000e+00 0.000000000000000e+00 0.000000000000000e+00
0.000000000000000e+00 0.000000000000000e+00 0.000000000000000e+00
0.000000000000000e+00 0.000000000000000e+00 0.000000000000000e+00

0.000000000000000e+00 0.000000000000000e+00 0.000000000000000e+00
0.000000000000000e+00 0.000000000000000e+00 0.000000000000000e+00
0.000000000000000e+00 0.000000000000000e+00 0.000000000000000e+00

0.000000000000000e+00 0.000000000000000e+00 0.000000000000000e+00
0.000000000000000e+00 0.000000000000000e+00 0.000000000000000e+00
0.000000000000000e+00 0.000000000000000e+00 0.000000000000000e+00

0.000000000000000e+00 0.000000000000000e+00 0.000000000000000e+00
0.000000000000000e+00 0.000000000000000e+00 0.000000000000000e+00
0.000000000000000e+00 0.000000000000000e+00 0.000000000000000e+00

0.000000000000000e+00 0.000000000000000e+00 0.000000000000000e+00
0.000000000000000e+00 0.000000000000000e+00 0.000000000000000e+00
0.000000000000000e+00 0.000000000000000e+00 0.000000000000000e+00

0.000000000000000e+00 0.000000000000000e+00 0.000000000000000e+00
0.000000000000000e+00 0.000000000000000e+00 0.000000000000000e+00
0.000000000000000e+00 0.000000000000000e+00 0.000000000000000e+00

0.000000000000000e+00 0.000000000000000e+00 0.000000000000000e+00
0.000000000000000e+00 0.000000000000000e+00 0.000000000000000e+00
0.000000000000000e+00 0.000000000000000e+00 0.000000000000000e+00

0.000000000000000e+00 0.000000000000000e+00 0.000000000000000e+00
0.000000000000000e+00 0.000000000000000e+00 0.000000000000000e+00
0.000000000000000e+00 0.000000000000000e+00 0.000000000000000e+00

0.000000000000000e+00 0.000000000000000e+00 0.000000000000000e+00
0.000000000000000e+00 0.000000000000000e+00 0.000000000000000e+00
0.000000000000000e+00 0.000000000000000e+00 0.000000000000000e+00

0.000000000000000e+00 0.000000000000000e+00 0.000000000000000e+00
0.000000000000000e+00 0.000000000000000e+00 0.000000000000000e+00
0.000000000000000e+00 0.000000000000000e+00 0.000000000000000e+00

0.000000000000000e+00 0.000000000000000e+00 0.000000000000000e+00
0.000000000000000e+00 0.000000000000000e+00 0.000000000000000e+00
0.000000000000000e+00 0.000000000000000e+00 0.000000000000000e+00

0.000000000000000e+00 0.000000000000000e+00 0.000000000000000e+00
0.000000000000000e+00 0.000000000000000e+00 0.000000000000000e+00
0.000000000000000e+00 0.000000000000000e+00 0.000000000000000e+00

0.000000000000000e+00 0.000000000000000e+00 0.000000000000000e+00
0.000000000000000e+00 0.000000000000000e+00 0.000000000000000e+00
0.000000000000000e+00 0.000000000000000e+00 0.000000000000000e+00

0.000000000000000e+00 0.000000000000000e+00 0.000000000000000e+00
0.000000000000000e+00 0.000000000000000e+00 0.000000000000000e+00
0.000000000000000e+00 0.000000000000000e+00 0.000000000000000e+00

0.000000000000000e+00 0.000000000000000e+00 0.000000000000000e+00
0.000000000000000e+00 0.000000000000000e+00 0.000000000000000e+00
0.000000000000000e+00 0.000000000000000e+00 0.000000000000000e+00

0.000000000000000e+00 0.000000000000000e+00 0.000000000000000e+00
0.000000000000000e+00 0.000000000000000e+00 0.000000000000000e+00
0.000000000000000e+00 0.000000000000000e+00 0.000000000000000e+00

0.000000000000000e+00 0.000000000000000e+00 0.000000000000000e+00
0.000000000000000e+00 0.000000000000000e+00 0.000000000000000e+00
0.000000000000000e+00 0.000000000000000e+00 0.000000000000000e+00

0.000000000000000e+00 0.000000000000000e+00 0.000000000000000e+00
0.000000000000000e+00 0.000000000000000e+00 0.000000000000000e+00
0.000000000000000e+00 0.000000000000000e+00 0.000000000000000e+00

0.000000000000000e+00 0.000000000000000e+00 0.000000000000000e+00
0.000000000000000e+00 0.000000000000000e+00 0.000000000000000e+00
0.000000000000000e+00 0.000000000000000e+00 0.000000000000000e+00

0.000000000000000e+00 0.000000000000000e+00 0.000000000000000e+00
0.000000000000000e+00 0.000000000000000e+00 0.000000000000000e+00
0.000000000000000e+00 0.000000000000000e+00 0.000000000000000e+00

0.000000000000000e+00 0.000000000000000e+00 0.000000000000000e+00
0.000000000000000e+00 0.000000000000000e+00 0.000000000000000e+00
0.000000000000000e+00 0.000000000000000e+00 0.000000000000000e+00

0.000000000000000e+00 0.000000000000000e+00 0.000000000000000e+00
0.000000000000000e+00 0.000000000000000e+00 0.000000000000000e+00
0.000000000000000e+00 0.000000000000000e+00 0.000000000000000e+00

0.000000000000000e+00 0.000000000000000e+00 0.000000000000000e+00
0.000000000000000e+00 0.000000000000000e+00 0.000000000000000e+00
0.000000000000000e+00 0.000000000000000e+00 0.000000000000000e+00

0.000000000000000e+00 0.000000000000000e+00 0.000000000000000e+00
0.000000000000000e+00 0.000000000000000e+00 0.000000000000000e+00
0.000000000000000e+00 0.000000000000000e+00 0.000000000000000e+00

0.000000000000000e+00 0.000000000000000e+00 0.000000000000000e+00
0.000000000000000e+00 0.000000000000000e+00 0.000000000000000e+00
0.000000000000000e+00 0.000000000000000e+00 0.000000000000000e+00

0.000000000000000e+00 0.000000000000000e+00 0.000000000000000e+00
0.000000000000000e+00 0.000000000000000e+00 0.000000000000000e+00
0.000000000000000e+00 0.000000000000000e+00 0.000000000000000e+00

0.000000000000000e+00 0.000000000000000e+00 0.000000000000000e+00
0.000000000000000e+00 0.000000000000000e+00 0.000000000000000e+00
0.000000000000000e+00 0.000000000000000e+00 0.000000000000000e+00

0.000000000000000e+00 0.000000000000000e+00 0.000000000000000e+00
0.000000000000000e+00 0.000000000000000e+00 0.000000000000000e+00
0.000000000000000e+00 0.000000000000000e+00 0.000000000000000e+00

0.000000000000000e+00 0.000000000000000e+00 0.000000000000000e+00
0.000000000000000e+00 0.000000000000000e+00 0.000000000000000e+00
0.000000000000000e+00 0.000000000000000e+00 0.000000000000000e+00

0.000000000000000e+00 0.000000000000000e+00 0.000000000000000e+00
0.000000000000000e+00 0.000000000000000e+00 0.000000000000000e+00
0.000000000000000e+00 0.000000000000000e+00 0.000000000000000e+00

0.000000000000000e+00 0.000000000000000e+00 0.000000000000000e+00
0.000000000000000e+00 0.000000000000000e+00 0.000000000000000e+00
0.000000000000000e+00 0.000000000000000e+00 0.000000000000000e+00

0.000000000000000e+00 0.000000000000000e+00 0.000000000000000e+00
0.000000000000000e+00 0.000000000000000e+00 0.000000000000000e+00
0.000000000000000e+00 0.000000000000000e+00 0.000000000000000e+00

0.000000000000000e+00 0.000000000000000e+00 0.000000000000000e+00
0.000000000000000e+00 0.000000000000000e+00 0.000000000000000e+00
0.000000000000000e+00 0.000000000000000e+00 0.000000000000000e+00

0.000000000000000e+00 0.000000000000000e+00 0.000000000000000e+00
0.000000000000000e+00 0.000000000000000e+00 0.000000000000000e+00
0.000000000000000e+00 0.000000000000000e+00 0.000000000000000e+00

0.000000000000000e+00 0.000000000000000e+00 0.000000000000000e+00
0.000000000000000e+00 0.000000000000000e+00 0.000000000000000e+00
0.000000000000000e+00 0.000000000000000e+00 0.000000000000000e+00

0.000000000000000e+00 0.000000000000000e+00 0.000000000000000e+00
0.000000000000000e+00 0.000000000000000e+00 0.000000000000000e+00
0.000000000000000e+00 0.000000000000000e+00 0.000000000000000e+00

0.000000000000000e+00 0.000000000000000e+00 0.000000000000000e+00
0.000000000000000e+00 0.000000000000000e+00 0.000000000000000e+00
0.000000000000000e+00 0.000000000000000e+00 0.000000000000000e+00

0.000000000000000e+00 0.000000000000000e+00 0.000000000000000e+00
0.000000000000000e+00 0.000000000000000e+00 0.000000000000000e+00
0.000000000000000e+00 0.000000000000000e+00 0.000000000000000e+00

0.000000000000000e+00 0.000000000000000e+00 0.000000000000000e+00
0.000000000000000e+00 0.000000000000000e+00 0.000000000000000e+00
0.000000000000000e+00 0.000000000000000e+00 0.000000000000000e+00

0.000000000000000e+00 0.000000000000000e+00 0.000000000000000e+00
0.000000000000000e+00 0.000000000000000e+00 0.000000000000000e+00
0.000000000000000e+00 0.000000000000000e+00 0.000000000000000e+00

0.000000000000000e+00 0.000000000000000e+00 0.000000000000000e+00
0.000000000000000e+00 0.000000000000000e+00 0.000000000000000e+00
0.000000000000000e+00 0.000000000000000e+00 0.000000000000000e+00

0.000000000000000e+00 0.000000000000000e+00 0.000000000000000e+00
0.000000000000000e+00 0.000000000000000e+00 0.000000000000000e+00
0.000000000000000e+00 0.000000000000000e+00 0.000000000000000e+00

0.000000000000000e+00 0.000000000000000e+00 0.000000000000000e+00
0.000000000000000e+00 0.000000000000000e+00 0.000000000000000e+00
0.000000000000000e+00 0.000000000000000e+00 0.000000000000000e+00

0.000000000000000e+00 0.000000000000000e+00 0.000000000000000e+00
0.000000000000000e+00 0.000000000000000e+00 0.000000000000000e+00
0.000000000000000e+00 0.000000000000000e+00 0.000000000000000e+00

0.000000000000000e+00 0.000000000000000e+00 0.000000000000000e+00
0.000000000000000e+00 0.000000000000000e+00 0.000000000000000e+00
0.000000000000000e+00 0.000000000000000e+00 0.000000000000000e+00

0.000000000000000e+00 0.000000000000000e+00 0.000000000000000e+00
0.000000000000000e+00 0.000000000000000e+00 0.000000000000000e+00
0.000000000000000e+00 0.000000000000000e+00 0.000000000000000e+00

0.000000000000000e+00 0.000000000000000e+00 0.000000000000000e+00
0.000000000000000e+00 0.000000000000000e+00 0.000000000000000e+00
0.000000000000000e+00 0.000000000000000e+00 0.000000000000000e+00

0.000000000000000e+00 0.000000000000000e+00 0.000000000000000e+00
0.000000000000000e+00 0.000000000000000e+00 0.000000000000000e+00
0.000000000000000e+00 0.000000000000000e+00 0.000000000000000e+00

0.000000000000000e+00 0.000000000000000e+00 0.000000000000000e+00
0.000000000000000e+00 0.000000000000000e+00 0.000000000000000e+00
0.000000000000000e+00 0.000000000000000e+00 0.000000000000000e+00

0.000000000000000e+00 0.000000000000000e+00 0.000000000000000e+00
0.000000000000000e+00 0.000000000000000e+00 0.000000000000000e+00
0.000000000000000e+00 0.000000000000000e+00 0.000000000000000e+00

0.000000000000000e+00 0.000000000000000e+00 0.000000000000000e+00
0.000000000000000e+00 0.000000000000000e+00 0.000000000000000e+00
0.000000000000000e+00 0.000000000000000e+00 0.000000000000000e+00

0.000000000000000e+00 0.000000000000000e+00 0.000000000000000e+00
0.000000000000000e+00 0.000000000000000e+00 0.000000000000000e+00
0.000000000000000e+00 0.000000000000000e+00 0.000000000000000e+00

0.000000000000000e+00 0.000000000000000e+00 0.000000000000000e+00
0.000000000000000e+00 0.000000000000000e+00 0.000000000000000e+00
0.000000000000000e+00 0.000000000000000e+00 0.000000000000000e+00

0.000000000000000e+00 0.000000000000000e+00 0.000000000000000e+00
0.000000000000000e+00 0.000000000000000e+00 0.000000000000000e+00
0.000000000000000e+00 0.000000000000000e+00 0.000000000000000e+00

0.000000000000000e+00 0.000000000000000e+00 0.000000000000000e+00
0.000000000000000e+00 0.000000000000000e+00 0.000000000000000e+00
0.000000000000000e+00 0.000000000000000e+00 0.000000000000000e+00

0.000000000000000e+00 0.000000000000000e+00 0.000000000000000e+00
0.000000000000000e+00 0.000000000000000e+00 0.000000000000000e+00
0.000000000000000e+00 0.000000000000000e+00 0.000000000000000e+00

0.000000000000000e+00 0.000000000000000e+00 0.000000000000000e+00
0.000000000000000e+00 0.000000000000000e+00 0.000000000000000e+00
0.000000000000000e+00 0.000000000000000e+00 0.000000000000000e+00

0.000000000000000e+00 0.000000000000000e+00 0.000000000000000e+00
0.000000000000000e+00 0.000000000000000e+00 0.000000000000000e+00
0.000000000000000e+00 0.000000000000000e+00 0.000000000000000e+00

0.000000000000000e+00 0.000000000000000e+00 0.000000000000000e+00
0.000000000000000e+00 0.000000000000000e+00 0.000000000000000e+00
0.000000000000000e+00 0.000000000000000e+00 0.000000000000000e+00

0.000000000000000e+00 0.000000000000000e+00 0.000000000000000e+00
0.000000000000000e+00 0.000000000000000e+00 0.000000000000000e+00
0.000000000000000e+00 0.000000000000000e+00 0.000000000000000e+00

0.000000000000000e+00 0.000000000000000e+00 0.000000000000000e+00
0.000000000000000e+00 0.000000000000000e+00 0.000000000000000e+00
0.000000000000000e+00 0.000000000000000e+00 0.000000000000000e+00

0.000000000000000e+00 0.000000000000000e+00 0.000000000000000e+00
0.000000000000000e+00 0.000000000000000e+00 0.000000000000000e+00
0.000000000000000e+00 0.000000000000000e+00 0.000000000000000e+00

0.000000000000000e+00 0.000000000000000e+00 0.000000000000000e+00
0.000000000000000e+00 0.000000000000000e+00 0.000000000000000e+00
0.000000000000000e+00 0.000000000000000e+00 0.000000000000000e+00

0.000000000000000e+00 0.000000000000000e+00 0.000000000000000e+00
0.000000000000000e+00 0.000000000000000e+00 0.000000000000000e+00
0.000000000000000e+00 0.000000000000000e+00 0.000000000000000e+00

0.000000000000000e+00 0.000000000000000e+00 0.000000000000000e+00
0.000000000000000e+00 0.000000000000000e+00 0.000000000000000e+00
0.000000000000000e+00 0.000000000000000e+00 0.000000000000000e+00

0.000000000000000e+00 0.000000000000000e+00 0.000000000000000e+00
0.000000000000000e+00 0.000000000000000e+00 0.000000000000000e+00
0.000000000000000e+00 0.000000000000000e+00 0.000000000000000e+00

0.000000000000000e+00 0.000000000000000e+00 0.000000000000000e+00
0.000000000000000e+00 0.000000000000000e+00 0.000000000000000e+00
0.000000000000000e+00 0.000000000000000e+00 0.000000000000000e+00

0.000000000000000e+00 0.000000000000000e+00 0.000000000000000e+00
0.000000000000000e+00 0.000000000000000e+00 0.000000000000000e+00
0.000000000000000e+00 0.000000000000000e+00 0.000000000000000e+00

0.000000000000000e+00 0.000000000000000e+00 0.000000000000000e+00
0.000000000000000e+00 0.000000000000000e+00 0.000000000000000e+00
0.000000000000000e+00 0.000000000000000e+00 0.000000000000000e+00

0.000000000000000e+00 0.000000000000000e+00 0.000000000000000e+00
0.000000000000000e+00 0.000000000000000e+00 0.000000000000000e+00
0.000000000000000e+00 0.000000000000000e+00 0.000000000000000e+00

0.000000000000000e+00 0.000000000000000e+00 0.000000000000000e+00
0.000000000000000e+00 0.000000000000000e+00 0.000000000000000e+00
0.000000000000000e+00 0.000000000000000e+00 0.000000000000000e+00

0.000000000000000e+00 0.000000000000000e+00 0.000000000000000e+00
0.000000000000000e+00 0.000000000000000e+00 0.000000000000000e+00
0.000000000000000e+00 0.000000000000000e+00 0.000000000000000e+00

0.000000000000000e+00 0.000000000000000e+00 0.000000000000000e+00
0.000000000000000e+00 0.000000000000000e+00 0.000000000000000e+00
0.000000000000000e+00 0.000000000000000e+00 0.000000000000000e+00

0.000000000000000e+00 0.000000000000000e+00 0.000000000000000e+00
0.000000000000000e+00 0.000000000000000e+00 0.000000000000000e+00
0.000000000000000e+00 0.000000000000000e+00 0.000000000000000e+00

0.000000000000000e+00 0.000000000000000e+00 0.000000000000000e+00
0.000000000000000e+00 0.000000000000000e+00 0.000000000000000e+00
0.000000000000000e+00 0.000000000000000e+00 0.000000000000000e+00

0.000000000000000e+00 0.000000000000000e+00 0.000000000000000e+00
0.000000000000000e+00 0.000000000000000e+00 0.000000000000000e+00
0.000000000000000e+00 0.000000000000000e+00 0.000000000000000e+00

0.000000000000000e+00 0.000000000000000e+00 0.000000000000000e+00
0.000000000000000e+00 0.000000000000000e+00 0.000000000000000e+00
0.000000000000000e+00 0.000000000000000e+00 0.000000000000000e+00

0.000000000000000e+00 0.000000000000000e+00 0.000000000000000e+00
0.000000000000000e+00 0.000000000000000e+00 0.000000000000000e+00
0.000000000000000e+00 0.000000000000000e+00 0.000000000000000e+00

0.000000000000000e+00 0.000000000000000e+00 0.000000000000000e+00
0.000000000000000e+00 0.000000000000000e+00 0.000000000000000e+00
0.000000000000000e+00 0.000000000000000e+00 0.000000000000000e+00

0.000000000000000e+00 0.000000000000000e+00 0.000000000000000e+00
0.000000000000000e+00 0.000000000000000e+00 0.000000000000000e+00
0.000000000000000e+00 0.000000000000000e+00 0.000000000000000e+00

0.000000000000000e+00 0.000000000000000e+00 0.000000000000000e+00
0.000000000000000e+00 0.000000000000000e+00 0.000000000000000e+00
0.000000000000000e+00 0.000000000000000e+00 0.000000000000000e+00

0.000000000000000e+00 0.000000000000000e+00 0.000000000000000e+00
0.000000000000000e+00 0.000000000000000e+00 0.000000000000000e+00
0.000000000000000e+00 0.000000000000000e+00 0.000000000000000e+00

0.000000000000000e+00 0.000000000000000e+00 0.000000000000000e+00
0.000000000000000e+00 0.000000000000000e+00 0.000000000000000e+00
0.000000000000000e+00 0.000000000000000e+00 0.000000000000000e+00

0.000000000000000e+00 0.000000000000000e+00 0.000000000000000e+00
0.000000000000000e+00 0.000000000000000e+00 0.000000000000000e+00
0.000000000000000e+00 0.000000000000000e+00 0.000000000000000e+00

0.000000000000000e+00 0.000000000000000e+00 0.000000000000000e+00
0.000000000000000e+00 0.000000000000000e+00 0.000000000000000e+00
0.000000000000000e+00 0.000000000000000e+00 0.000000000000000e+00

0.000000000000000e+00 0.000000000000000e+00 0.000000000000000e+00
0.000000000000000e+00 0.000000000000000e+00 0.000000000000000e+00
0.000000000000000e+00 0.000000000000000e+00 0.000000000000000e+00

0.000000000000000e+00 0.000000000000000e+00 0.000000000000000e+00
0.000000000000000e+00 0.000000000000000e+00 0.000000000000000e+00
0.000000000000000e+00 0.000000000000000e+00 0.000000000000000e+00

0.000000000000000e+00 0.000000000000000e+00 0.000000000000000e+00
0.000000000000000e+00 0.000000000000000e+00 0.000000000000000e+00
0.000000000000000e+00 0.000000000000000e+00 0.000000000000000e+00

0.000000000000000e+00 0.000000000000000e+00 0.000000000000000e+00
0.000000000000000e+00 0.000000000000000e+00 0.000000000000000e+00
0.000000000000000e+00 0.000000000000000e+00 0.000000000000000e+00

0.000000000000000e+00 0.000000000000000e+00 0.000000000000000e+00
0.000000000000000e+00 0.000000000000000e+00 0.000000000000000e+00
0.000000000000000e+00 0.000000000000000e+00 0.000000000000000e+00

0.000000000000000e+00 0.000000000000000e+00 0.000000000000000e+00
0.000000000000000e+00 0.000000000000000e+00 0.000000000000000e+00
0.000000000000000e+00 0.000000000000000e+00 0.000000000000000e+00

0.000000000000000e+00 0.000000000000000e+00 0.000000000000000e+00
0.000000000000000e+00 0.000000000000000e+00 0.000000000000000e+00
0.000000000000000e+00 0.000000000000000e+00 0.000000000000000e+00

0.000000000000000e+00 0.000000000000000e+00 0.000000000000000e+00
0.000000000000000e+00 0.000000000000000e+00 0.000000000000000e+00
0.000000000000000e+00 0.000000000000000e+00 0.000000000000000e+00

0.000000000000000e+00 0.000000000000000e+00 0.000000000000000e+00
0.000000000000000e+00 0.000000000000000e+00 0.000000000000000e+00
0.000000000000000e+00 0.000000000000000e+00 0.000000000000000e+00

0.000000000000000e+00 0.000000000000000e+00 0.000000000000000e+00
0.000000000000000e+00 0.000000000000000e+00 0.000000000000000e+00
0.000000000000000e+00 0.000000000000000e+00 0.000000000000000e+00

0.000000000000000e+00 0.000000000000000e+00 0.000000000000000e+00
0.000000000000000e+00 0.000000000000000e+00 0.000000000000000e+00
0.000000000000000e+00 0.000000000000000e+00 0.000000000000000e+00

0.000000000000000e+00 0.000000000000000e+00 0.000000000000000e+00
0.000000000000000e+00 0.000000000000000e+00 0.000000000000000e+00
0.000000000000000e+00 0.000000000000000e+00 0.000000000000000e+00

0.000000000000000e+00 0.000000000000000e+00 0.000000000000000e+00
0.000000000000000e+00 0.000000000000000e+00 0.000000000000000e+00
0.000000000000000e+00 0.000000000000000e+00 0.000000000000000e+00

0.000000000000000e+00 0.000000000000000e+00 0.000000000000000e+00
0.000000000000000e+00 0.000000000000000e+00 0.000000000000000e+00
0.000000000000000e+00 0.000000000000000e+00 0.000000000000000e+00

0.000000000000000e+00 0.000000000000000e+00 0.000000000000000e+00
0.000000000000000e+00 0.000000000000000e+00 0.000000000000000e+00
0.000000000000000e+00 0.000000000000000e+00 0.000000000000000e+00

0.000000000000000e+00 0.000000000000000e+00 0.000000000000000e+00
0.000000000000000e+00 0.000000000000000e+00 0.000000000000000e+00
0.000000000000000e+00 0.000000000000000e+00 0.000000000000000e+00

0.000000000000000e+00 0.000000000000000e+00 0.000000000000000e+00
0.000000000000000e+00 0.000000000000000e+00 0.000000000000000e+00
0.000000000000000e+00 0.000000000000000e+00 0.000000000000000e+00

0.000000000000000e+00 0.000000000000000e+00 0.000000000000000e+00
0.000000000000000e+00 0.000000000000000e+00 0.000000000000000e+00
0.000000000000000e+00 0.000000000000000e+00 0.000000000000000e+00

0.000000000000000e+00 0.000000000000000e+00 0.000000000000000e+00
0.000000000000000e+00 0.000000000000000e+00 0.000000000000000e+00
0.000000000000000e+00 0.000000000000000e+00 0.000000000000000e+00

0.000000000000000e+00 0.000000000000000e+00 0.000000000000000e+00
0.000000000000000e+00 0.000000000000000e+00 0.000000000000000e+00
0.000000000000000e+00 0.000000000000000e+00 0.000000000000000e+00

0.000000000000000e+00 0.000000000000000e+00 0.000000000000000e+00
0.000000000000000e+00 0.000000000000000e+00 0.000000000000000e+00
0.000000000000000e+00 0.000000000000000e+00 0.000000000000000e+00

0.000000000000000e+00 0.000000000000000e+00 0.000000000000000e+00
0.000000000000000e+00 0.000000000000000e+00 0.000000000000000e+00
0.000000000000000e+00 0.000000000000000e+00 0.000000000000000e+00

0.000000000000000e+00 0.000000000000000e+00 0.000000000000000e+00
0.000000000000000e+00 0.000000000000000e+00 0.000000000000000e+00
0.000000000000000e+00 0.000000000000000e+00 0.000000000000000e+00

0.000000000000000e+00 0.000000000000000e+00 0.000000000000000e+00
0.000000000000000e+00 0.000000000000000e+00 0.000000000000000e+00
0.000000000000000e+00 0.000000000000000e+00 0.000000000000000e+00

0.000000000000000e+00 0.000000000000000e+00 0.000000000000000e+00
0.000000000000000e+00 0.000000000000000e+00 0.000000000000000e+00
0.000000000000000e+00 0.000000000000000e+00 0.000000000000000e+00

0.000000000000000e+00 0.000000000000000e+00 0.000000000000000e+00
0.000000000000000e+00 0.000000000000000e+00 0.000000000000000e+00
0.000000000000000e+00 0.000000000000000e+00 0.000000000000000e+00

0.000000000000000e+00 0.000000000000000e+00 0.000000000000000e+00
0.000000000000000e+00 0.000000000000000e+00 0.000000000000000e+00
0.000000000000000e+00 0.000000000000000e+00 0.000000000000000e+00

0.000000000000000e+00 0.000000000000000e+00 0.000000000000000e+00
0.000000000000000e+00 0.000000000000000e+00 0.000000000000000e+00
0.000000000000000e+00 0.000000000000000e+00 0.000000000000000e+00

0.000000000000000e+00 0.000000000000000e+00 0.000000000000000e+00
0.000000000000000e+00 0.000000000000000e+00 0.000000000000000e+00
0.000000000000000e+00 0.000000000000000e+00 0.000000000000000e+00

0.000000000000000e+00 0.000000000000000e+00 0.000000000000000e+00
0.000000000000000e+00 0.000000000000000e+00 0.000000000000000e+00
0.000000000000000e+00 0.000000000000000e+00 0.000000000000000e+00

0.000000000000000e+00 0.000000000000000e+00 0.000000000000000e+00
0.000000000000000e+00 0.000000000000000e+00 0.000000000000000e+00
0.000000000000000e+00 0.000000000000000e+00 0.000000000000000e+00

0.000000000000000e+00 0.000000000000000e+00 0.000000000000000e+00
0.000000000000000e+00 0.000000000000000e+00 0.000000000000000e+00
0.000000000000000e+00 0.000000000000000e+00 0.000000000000000e+00

0.000000000000000e+00 0.000000000000000e+00 0.000000000000000e+00
0.000000000000000e+00 0.000000000000000e+00 0.000000000000000e+00
0.000000000000000e+00 0.000000000000000e+00 0.000000000000000e+00

0.000000000000000e+00 0.000000000000000e+00 0.000000000000000e+00
0.000000000000000e+00 0.000000000000000e+00 0.000000000000000e+00
0.000000000000000e+00 0.000000000000000e+00 0.000000000000000e+00

0.000000000000000e+00 0.000000000000000e+00 0.000000000000000e+00
0.000000000000000e+00 0.000000000000000e+00 0.000000000000000e+00
0.000000000000000e+00 0.000000000000000e+00 0.000000000000000e+00

0.000000000000000e+00 0.000000000000000e+00 0.000000000000000e+00
0.000000000000000e+00 0.000000000000000e+00 0.000000000000000e+00
0.000000000000000e+00 0.000000000000000e+00 0.000000000000000e+00

0.000000000000000e+00 0.000000000000000e+00 0.000000000000000e+00
0.000000000000000e+00 0.000000000000000e+00 0.000000000000000e+00
0.000000000000000e+00 0.000000000000000e+00 0.000000000000000e+00

0.000000000000000e+00 0.000000000000000e+00 0.000000000000000e+00
0.000000000000000e+00 0.000000000000000e+00 0.000000000000000e+00
0.000000000000000e+00 0.000000000000000e+00 0.000000000000000e+00

0.000000000000000e+00 0.000000000000000e+00 0.000000000000000e+00
0.000000000000000e+00 0.000000000000000e+00 0.000000000000000e+00
0.000000000000000e+00 0.000000000000000e+00 0.000000000000000e+00

0.000000000000000e+00 0.000000000000000e+00 0.000000000000000e+00
0.000000000000000e+00 0.000000000000000e+00 0.000000000000000e+00
0.000000000000000e+00 0.000000000000000e+00 0.000000000000000e+00

0.000000000000000e+00 0.000000000000000e+00 0.000000000000000e+00
0.000000000000000e+00 0.000000000000000e+00 0.000000000000000e+00
0.000000000000000e+00 0.000000000000000e+00 0.000000000000000e+00

0.000000000000000e+00 0.000000000000000e+00 0.000000000000000e+00
0.000000000000000e+00 0.000000000000000e+00 0.000000000000000e+00
0.000000000000000e+00 0.000000000000000e+00 0.000000000000000e+00

0.000000000000000e+00 0.000000000000000e+00 0.000000000000000e+00
0.000000000000000e+00 0.000000000000000e+00 0.000000000000000e+00
0.000000000000000e+00 0.000000000000000e+00 0.000000000000000e+00

0.000000000000000e+00 0.000000000000000e+00 0.000000000000000e+00
0.000000000000000e+00 0.000000000000000e+00 0.000000000000000e+00
0.000000000000000e+00 0.000000000000000e+00 0.000000000000000e+00

0.000000000000000e+00 0.000000000000000e+00 0.000000000000000e+00
0.000000000000000e+00 0.000000000000000e+00 0.000000000000000e+00
0.000000000000000e+00 0.000000000000000e+00 0.000000000000000e+00

0.000000000000000e+00 0.000000000000000e+00 0.000000000000000e+00
0.000000000000000e+00 0.000000000000000e+00 0.000000000000000e+00
0.000000000000000e+00 0.000000000000000e+00 0.000000000000000e+00

0.000000000000000e+00 0.000000000000000e+00 0.000000000000000e+00
0.000000000000000e+00 0.000000000000000e+00 0.000000000000000e+00
0.000000000000000e+00 0.000000000000000e+00 0.000000000000000e+00

0.000000000000000e+00 0.000000000000000e+00 0.000000000000000e+00
0.000000000000000e+00 0.000000000000000e+00 0.000000000000000e+00
0.000000000000000e+00 0.000000000000000e+00 0.000000000000000e+00

0.000000000000000e+00 0.000000000000000e+00 0.000000000000000e+00
0.000000000000000e+00 0.000000000000000e+00 0.000000000000000e+00
0.000000000000000e+00 0.000000000000000e+00 0.000000000000000e+00

0.000000000000000e+00 0.000000000000000e+00 0.000000000000000e+00
0.000000000000000e+00 0.000000000000000e+00 0.000000000000000e+00
0.000000000000000e+00 0.000000000000000e+00 0.000000000000000e+00

0.000000000000000e+00 0.000000000000000e+00 0.000000000000000e+00
0.000000000000000e+00 0.000000000000000e+00 0.000000000000000e+00
0.000000000000000e+00 0.000000000000000e+00 0.000000000000000e+00

0.000000000000000e+00 0.000000000000000e+00 0.000000000000000e+00
0.000000000000000e+00 0.000000000000000e+00 0.000000000000000e+00
0.000000000000000e+00 0.000000000000000e+00 0.000000000000000e+00

0.000000000000000e+00 0.000000000000000e+00 0.000000000000000e+00
0.000000000000000e+00 0.000000000000000e+00 0.000000000000000e+00
0.000000000000000e+00 0.000000000000000e+00 0.000000000000000e+00

0.000000000000000e+00 0.000000000000000e+00 0.000000000000000e+00
0.000000000000000e+00 0.000000000000000e+00 0.000000000000000e+00
0.000000000000000e+00 0.000000000000000e+00 0.000000000000000e+00

0.000000000000000e+00 0.000000000000000e+00 0.000000000000000e+00
0.000000000000000e+00 0.000000000000000e+00 0.000000000000000e+00
0.000000000000000e+00 0.000000000000000e+00 0.000000000000000e+00

0.000000000000000e+00 0.000000000000000e+00 0.000000000000000e+00
0.000000000000000e+00 0.000000000000000e+00 0.000000000000000e+00
0.000000000000000e+00 0.000000000000000e+00 0.000000000000000e+00

0.000000000000000e+00 0.000000000000000e+00 0.000000000000000e+00
0.000000000000000e+00 0.000000000000000e+00 0.000000000000000e+00
0.000000000000000e+00 0.000000000000000e+00 0.000000000000000e+00

0.000000000000000e+00 0.000000000000000e+00 0.000000000000000e+00
0.000000000000000e+00 0.000000000000000e+00 0.000000000000000e+00
0.000000000000000e+00 0.000000000000000e+00 0.000000000000000e+00

0.000000000000000e+00 0.000000000000000e+00 0.000000000000000e+00
0.000000000000000e+00 0.000000000000000e+00 0.000000000000000e+00
0.000000000000000e+00 0.000000000000000e+00 0.000000000000000e+00

0.000000000000000e+00 0.000000000000000e+00 0.000000000000000e+00
0.000000000000000e+00 0.000000000000000e+00 0.000000000000000e+00
0.000000000000000e+00 0.000000000000000e+00 0.000000000000000e+00

0.000000000000000e+00 0.000000000000000e+00 0.000000000000000e+00
0.000000000000000e+00 0.000000000000000e+00 0.000000000000000e+00
0.000000000000000e+00 0.000000000000000e+00 0.000000000000000e+00

0.000000000000000e+00 0.000000000000000e+00 0.000000000000000e+00
0.000000000000000e+00 0.000000000000000e+00 0.000000000000000e+00
0.000000000000000e+00 0.000000000000000e+00 0.000000000000000e+00

0.000000000000000e+00 0.000000000000000e+00 0.000000000000000e+00
0.000000000000000e+00 0.000000000000000e+00 0.000000000000000e+00
0.000000000000000e+00 0.000000000000000e+00 0.000000000000000e+00

0.000000000000000e+00 0.000000000000000e+00 0.000000000000000e+00
0.000000000000000e+00 0.000000000000000e+00 0.000000000000000e+00
0.000000000000000e+00 0.000000000000000e+00 0.000000000000000e+00

0.000000000000000e+00 0.000000000000000e+00 0.000000000000000e+00
0.000000000000000e+00 0.000000000000000e+00 0.000000000000000e+00
0.000000000000000e+00 0.000000000000000e+00 0.000000000000000e+00

0.000000000000000e+00 0.000000000000000e+00 0.000000000000000e+00
0.000000000000000e+00 0.000000000000000e+00 0.000000000000000e+00
0.000000000000000e+00 0.000000000000000e+00 0.000000000000000e+00

0.000000000000000e+00 0.000000000000000e+00 0.000000000000000e+00
0.000000000000000e+00 0.000000000000000e+00 0.000000000000000e+00
0.000000000000000e+00 0.000000000000000e+00 0.000000000000000e+00

0.000000000000000e+00 0.000000000000000e+00 0.000000000000000e+00
0.000000000000000e+00 0.000000000000000e+00 0.000000000000000e+00
0.000000000000000e+00 0.000000000000000e+00 0.000000000000000e+00

0.000000000000000e+00 0.000000000000000e+00 0.000000000000000e+00
0.000000000000000e+00 0.000000000000000e+00 0.000000000000000e+00
0.000000000000000e+00 0.000000000000000e+00 0.000000000000000e+00

0.000000000000000e+00 0.000000000000000e+00 0.000000000000000e+00
0.000000000000000e+00 0.000000000000000e+00 0.000000000000000e+00
0.000000000000000e+00 0.000000000000000e+00 0.000000000000000e+00

0.000000000000000e+00 0.000000000000000e+00 0.000000000000000e+00
0.000000000000000e+00 0.000000000000000e+00 0.000000000000000e+00
0.000000000000000e+00 0.000000000000000e+00 0.000000000000000e+00

0.000000000000000e+00 0.000000000000000e+00 0.000000000000000e+00
0.000000000000000e+00 0.000000000000000e+00 0.000000000000000e+00
0.000000000000000e+00 0.000000000000000e+00 0.000000000000000e+00

0.000000000000000e+00 0.000000000000000e+00 0.000000000000000e+00
0.000000000000000e+00 0.000000000000000e+00 0.000000000000000e+00
0.000000000000000e+00 0.000000000000000e+00 0.000000000000000e+00

0.000000000000000e+00 0.000000000000000e+00 0.000000000000000e+00
0.000000000000000e+00 0.000000000000000e+00 0.000000000000000e+00
0.000000000000000e+00 0.000000000000000e+00 0.000000000000000e+00

0.000000000000000e+00 0.000000000000000e+00 0.000000000000000e+00
0.000000000000000e+00 0.000000000000000e+00 0.000000000000000e+00
0.000000000000000e+00 0.000000000000000e+00 0.000000000000000e+00

0.000000000000000e+00 0.000000000000000e+00 0.000000000000000e+00
0.000000000000000e+00 0.000000000000000e+00 0.000000000000000e+00
0.000000000000000e+00 0.000000000000000e+00 0.000000000000000e+00

0.000000000000000e+00 0.000000000000000e+00 0.000000000000000e+00
0.000000000000000e+00 0.000000000000000e+00 0.000000000000000e+00
0.000000000000000e+00 0.000000000000000e+00 0.000000000000000e+00

0.000000000000000e+00 0.000000000000000e+00 0.000000000000000e+00
0.000000000000000e+00 0.000000000000000e+00 0.000000000000000e+00
0.000000000000000e+00 0.000000000000000e+00 0.000000000000000e+00

0.000000000000000e+00 0.000000000000000e+00 0.000000000000000e+00
0.000000000000000e+00 0.000000000000000e+00 0.000000000000000e+00
0.000000000000000e+00 0.000000000000000e+00 0.000000000000000e+00

0.000000000000000e+00 0.000000000000000e+00 0.000000000000000e+00
0.000000000000000e+00 0.000000000000000e+00 0.000000000000000e+00
0.000000000000000e+00 0.000000000000000e+00 0.000000000000000e+00

0.000000000000000e+00 0.000000000000000e+00 0.000000000000000e+00
0.000000000000000e+00 0.000000000000000e+00 0.000000000000000e+00
0.000000000000000e+00 0.000000000000000e+00 0.000000000000000e+00

0.000000000000000e+00 0.000000000000000e+00 0.000000000000000e+00
0.000000000000000e+00 0.000000000000000e+00 0.000000000000000e+00
0.000000000000000e+00 0.000000000000000e+00 0.000000000000000e+00

0.000000000000000e+00 0.000000000000000e+00 0.000000000000000e+00
0.000000000000000e+00 0.000000000000000e+00 0.000000000000000e+00
0.000000000000000e+00 0.000000000000000e+00 0.000000000000000e+00

0.000000000000000e+00 0.000000000000000e+00 0.000000000000000e+00
0.000000000000000e+00 0.000000000000000e+00 0.000000000000000e+00
0.000000000000000e+00 0.000000000000000e+00 0.000000000000000e+00

0.000000000000000e+00 0.000000000000000e+00 0.000000000000000e+00
0.000000000000000e+00 0.000000000000000e+00 0.000000000000000e+00
0.000000000000000e+00 0.000000000000000e+00 0.000000000000000e+00

0.000000000000000e+00 0.000000000000000e+00 0.000000000000000e+00
0.000000000000000e+00 0.000000000000000e+00 0.000000000000000e+00
0.000000000000000e+00 0.000000000000000e+00 0.000000000000000e+00

0.000000000000000e+00 0.000000000000000e+00 0.000000000000000e+00
0.000000000000000e+00 0.000000000000000e+00 0.000000000000000e+00
0.000000000000000e+00 0.000000000000000e+00 0.000000000000000e+00

0.000000000000000e+00 0.000000000000000e+00 0.000000000000000e+00
0.000000000000000e+00 0.000000000000000e+00 0.000000000000000e+00
0.000000000000000e+00 0.000000000000000e+00 0.000000000000000e+00

0.000000000000000e+00 0.000000000000000e+00 0.000000000000000e+00
0.000000000000000e+00 0.000000000000000e+00 0.000000000000000e+00
0.000000000000000e+00 0.000000000000000e+00 0.000000000000000e+00

0.000000000000000e+00 0.000000000000000e+00 0.000000000000000e+00
0.000000000000000e+00 0.000000000000000e+00 0.000000000000000e+00
0.000000000000000e+00 0.000000000000000e+00 0.000000000000000e+00

0.000000000000000e+00 0.000000000000000e+00 0.000000000000000e+00
0.000000000000000e+00 0.000000000000000e+00 0.000000000000000e+00
0.000000000000000e+00 0.000000000000000e+00 0.000000000000000e+00

0.000000000000000e+00 0.000000000000000e+00 0.000000000000000e+00
0.000000000000000e+00 0.000000000000000e+00 0.000000000000000e+00
0.000000000000000e+00 0.000000000000000e+00 0.000000000000000e+00

0.000000000000000e+00 0.000000000000000e+00 0.000000000000000e+00
0.000000000000000e+00 0.000000000000000e+00 0.000000000000000e+00
0.000000000000000e+00 0.000000000000000e+00 0.000000000000000e+00

0.000000000000000e+00 0.000000000000000e+00 0.000000000000000e+00
0.000000000000000e+00 0.000000000000000e+00 0.000000000000000e+00
0.000000000000000e+00 0.000000000000000e+00 0.000000000000000e+00

0.000000000000000e+00 0.000000000000000e+00 0.000000000000000e+00
0.000000000000000e+00 0.000000000000000e+00 0.000000000000000e+00
0.000000000000000e+00 0.000000000000000e+00 0.000000000000000e+00

0.000000000000000e+00 0.000000000000000e+00 0.000000000000000e+00
0.000000000000000e+00 0.000000000000000e+00 0.000000000000000e+00
0.000000000000000e+00 0.000000000000000e+00 0.000000000000000e+00

0.000000000000000e+00 0.000000000000000e+00 0.000000000000000e+00
0.000000000000000e+00 0.000000000000000e+00 0.000000000000000e+00
0.000000000000000e+00 0.000000000000000e+00 0.000000000000000e+00

0.000000000000000e+00 0.000000000000000e+00 0.000000000000000e+00
0.000000000000000e+00 0.000000000000000e+00 0.000000000000000e+00
0.000000000000000e+00 0.000000000000000e+00 0.000000000000000e+00

0.000000000000000e+00 0.000000000000000e+00 0.000000000000000e+00
0.000000000000000e+00 0.000000000000000e+00 0.000000000000000e+00
0.000000000000000e+00 0.000000000000000e+00 0.000000000000000e+00

0.000000000000000e+00 0.000000000000000e+00 0.000000000000000e+00
0.000000000000000e+00 0.000000000000000e+00 0.000000000000000e+00
0.000000000000000e+00 0.000000000000000e+00 0.000000000000000e+00

0.000000000000000e+00 0.000000000000000e+00 0.000000000000000e+00
0.000000000000000e+00 0.000000000000000e+00 0.000000000000000e+00
0.000000000000000e+00 0.000000000000000e+00 0.000000000000000e+00

0.000000000000000e+00 0.000000000000000e+00 0.000000000000000e+00
0.000000000000000e+00 0.000000000000000e+00 0.000000000000000e+00
0.000000000000000e+00 0.000000000000000e+00 0.000000000000000e+00

0.000000000000000e+00 0.000000000000000e+00 0.000000000000000e+00
0.000000000000000e+00 0.000000000000000e+00 0.000000000000000e+00
0.000000000000000e+00 0.000000000000000e+00 0.000000000000000e+00

0.000000000000000e+00 0.000000000000000e+00 0.000000000000000e+00
0.000000000000000e+00 0.000000000000000e+00 0.000000000000000e+00
0.000000000000000e+00 0.000000000000000e+00 0.000000000000000e+00

0.000000000000000e+00 0.000000000000000e+00 0.000000000000000e+00
0.000000000000000e+00 0.000000000000000e+00 0.000000000000000e+00
0.000000000000000e+00 0.000000000000000e+00 0.000000000000000e+00

0.000000000000000e+00 0.000000000000000e+00 0.000000000000000e+00
0.000000000000000e+00 0.000000000000000e+00 0.000000000000000e+00
0.000000000000000e+00 0.000000000000000e+00 0.000000000000000e+00

0.000000000000000e+00 0.000000000000000e+00 0.000000000000000e+00
0.000000000000000e+00 0.000000000000000e+00 0.000000000000000e+00
0.000000000000000e+00 0.000000000000000e+00 0.000000000000000e+00

0.000000000000000e+00 0.000000000000000e+00 0.000000000000000e+00
0.000000000000000e+00 0.000000000000000e+00 0.000000000000000e+00
0.000000000000000e+00 0.000000000000000e+00 0.000000000000000e+00

 7.873305941510108e-18 -5.019364638268787e-20 -6.635688561146351e-01
-5.019364638268787e-20  5.568492401080958e-18  2.595242540755106e-01
-6.635688561146351e-01  2.595242540755106e-01  8.478280668095334e-18

 7.873316559672533e-18 -5.026773590535506e-20 -6.635688189773197e-01
-5.026773590535506e-20  5.568481060156986e-18  2.595203380279001e-01
-6.635688189773197e-01  2.595203380279001e-01  8.478280618162150e-18

 7.873295876106230e-18 -5.010880434396026e-20 -6.635688930568442e-01
-5.010880434396026e-20  5.568502985465756e-18  2.595285432434823e-01
-6.635688930568442e-01  2.595285432434823e-01  8.478280736888413e-18

 7.873286841748832e-18 -5.003200831547102e-20 -6.635689298037386e-01
-5.003200831547102e-20  5.568512648402530e-18  2.595324242841149e-01
-6.635689298037386e-01  2.595324242841149e-01  8.478280842934460e-18

 7.873279189380160e-18 -4.996229368522615e-20 -6.635689663550990e-01
-4.996229368522615e-20  5.568520954214167e-18  2.595359540253381e-01
-6.635689663550990e-01  2.595359540253381e-01  8.478280999728617e-18

 7.873273115265356e-18 -4.989536837837624e-20 -6.635690027107028e-01
-4.989536837837624e-20  5.568527662020284e-18  2.595393316694110e-01
-6.635690027107028e-01  2.595393316694110e-01  8.478281214816831e-18

 7.873268663154662e-18 -4.982925965365879e-20 -6.635690388703284e-01
-4.982925965365879e-20  5.568532853537068e-18  2.595426586965748e-01
-6.635690388703284e-01  2.595426586965748e-01  8.478281489879041e-18

 7.873265749508178e-18 -4.976337096670658e-20 -6.635690748337424e-01
-4.976337096670658e-20  5.568536386762905e-18  2.595459763893142e-01
-6.635690748337424e-01  2.595459763893142e-01  8.478281821699324e-18

 7.873264201193535e-18 -4.969773932144504e-20 -6.635691106007064e-01
-4.969773932144504e-20  5.568538707129585e-18  2.595492964012809e-01
-6.635691106007064e-01  2.595492964012809e-01  8.478282203615857e-18

 7.873263795216019e-18 -4.963244523360096e-20 -6.635691461709811e-01
-4.963244523360096e-20  5.568539839068147e-18  2.595526241225108e-01
-6.635691461709811e-01  2.595526241225108e-01  8.478282627048940e-18

 7.873264293010571e-18 -4.956765447113328e-20 -6.635691815443222e-01
-4.956765447113328e-20  5.568539932020714e-18  2.595559583633633e-01
-6.635691815443222e-01  2.595559583633633e-01  8.478283082819979e-18

 7.873265465632910e-18 -4.950340253931816e-20 -6.635692167204752e-01
-4.950340253931816e-20  5.568539529092178e-18  2.595593002706996e-01
-6.635692167204752e-01  2.595593002706996e-01  8.478283562120344e-18

 7.873267109356302e-18 -4.943973020560979e-20 -6.635692516991865e-01
-4.943973020560979e-20  5.568538445704574e-18  2.595626482398334e-01
-6.635692516991865e-01  2.595626482398334e-01  8.478284057111270e-18

 7.873269053122722e-18 -4.937664655243663e-20 -6.635692864801924e-01
-4.937664655243663e-20  5.568537316992292e-18  2.595660009025052e-01
-6.635692864801924e-01  2.595660009025052e-01  8.478284561210378e-18

 7.873271160067541e-18 -4.931406581138286e-20 -6.635693210632295e-01
-4.931406581138286e-20  5.568536037842400e-18  2.595693594275202e-01
-6.635693210632295e-01  2.595693594275202e-01  8.478285069150379e-18

 7.873273325317409e-18 -4.925196869184280e-20 -6.635693554480253e-01
-4.925196869184280e-20  5.568534468074046e-18  2.595727217938218e-01
-6.635693554480253e-01  2.595727217938218e-01  8.478285576894402e-18

 7.873275471841142e-18 -4.919025559556973e-20 -6.635693896343039e-01
-4.919025559556973e-20  5.568533004639565e-18  2.595760894077440e-01
-6.635693896343039e-01  2.595760894077440e-01  8.478286081476255e-18

 7.873277545606892e-18 -4.912890004290040e-20 -6.635694236217844e-01
-4.912890004290040e-20  5.568531691557879e-18  2.595794604407787e-01
-6.635694236217844e-01  2.595794604407787e-01  8.478286580814384e-18

 7.873279510823049e-18 -4.906780057556301e-20 -6.635694574101801e-01
-4.906780057556301e-20  5.568530278995040e-18  2.595828364464594e-01
-6.635694574101801e-01  2.595828364464594e-01  8.478287073528673e-18

 7.873281345677540e-18 -4.900694437831449e-20 -6.635694909992019e-01
-4.900694437831449e-20  5.568529314888309e-18  2.595862157055214e-01
-6.635694909992019e-01  2.595862157055214e-01  8.478287558776624e-18

 7.873283038746147e-18 -4.894623836302712e-20 -6.635695243885517e-01
-4.894623836302712e-20  5.568528380791033e-18  2.595895998505322e-01
-6.635695243885517e-01  2.595895998505322e-01  8.478288036115205e-18

 7.873284586091192e-18 -4.888566852083065e-20 -6.635695575779316e-01
-4.888566852083065e-20  5.568527370180167e-18  2.595929876339972e-01
-6.635695575779316e-01  2.595929876339972e-01  8.478288505389306e-18

 7.873285988993682e-18 -4.882520074685792e-20 -6.635695905670327e-01
-4.882520074685792e-20  5.568526726230917e-18  2.595963790698338e-01
-6.635695905670327e-01  2.595963790698338e-01  8.478288966644381e-18

 7.873287252227034e-18 -4.876476951840796e-20 -6.635696233555465e-01
-4.876476951840796e-20  5.568526084678543e-18  2.595997754284623e-01
-6.635696233555465e-01  2.595997754284623e-01  8.478289420060289e-18

 7.873288382773813e-18 -4.870439036236401e-20 -6.635696559431564e-01
-4.870439036236401e-20  5.568525521708414e-18  2.596031750850689e-01
-6.635696559431564e-01  2.596031750850689e-01  8.478289865901657e-18

 7.873289388892021e-18 -4.864400465422658e-20 -6.635696883295421e-01
-4.864400465422658e-20  5.568525209254385e-18  2.596065797396569e-01
-6.635696883295421e-01  2.596065797396569e-01  8.478290304482194e-18

 7.873290279451251e-18 -4.858362814190962e-20 -6.635697205143766e-01
-4.858362814190962e-20  5.568525082804069e-18  2.596099877774559e-01
-6.635697205143766e-01  2.596099877774559e-01  8.478290736139022e-18

 7.873291063472319e-18 -4.852320664116889e-20 -6.635697524973331e-01
-4.852320664116889e-20  5.568524792533672e-18  2.596134009059493e-01
-6.635697524973331e-01  2.596134009059493e-01  8.478291161215057e-18

 7.873291749817756e-18 -4.846277145089401e-20 -6.635697842780721e-01
-4.846277145089401e-20  5.568524862077296e-18  2.596168175160829e-01
-6.635697842780721e-01  2.596168175160829e-01  8.478291580047027e-18

 7.873292346992549e-18 -4.840226410392237e-20 -6.635698158562559e-01
-4.840226410392237e-20  5.568524928062364e-18  2.596202393190002e-01
-6.635698158562559e-01  2.596202393190002e-01  8.478291992957894e-18

 7.873292863023738e-18 -4.834172290126729e-20 -6.635698472315380e-01
-4.834172290126729e-20  5.568525012223998e-18  2.596236647084022e-01
-6.635698472315380e-01  2.596236647084022e-01  8.478292400252130e-18

 7.873293305396153e-18 -4.828109741676316e-20 -6.635698784035684e-01
-4.828109741676316e-20  5.568525180363900e-18  2.596270953977861e-01
-6.635698784035684e-01  2.596270953977861e-01  8.478292802213320e-18

 7.873293681026528e-18 -4.822041219700699e-20 -6.635699093719932e-01
-4.822041219700699e-20  5.568525488463297e-18  2.596305301972489e-01
-6.635699093719932e-01  2.596305301972489e-01  8.478293199103141e-18

 7.873293996263592e-18 -4.815966026533920e-20 -6.635699401364499e-01
-4.815966026533920e-20  5.568525834718381e-18  2.596339691621343e-01
-6.635699401364499e-01  2.596339691621343e-01  8.478293591161330e-18

 7.873294256905340e-18 -4.809881024126474e-20 -6.635699706965765e-01
-4.809881024126474e-20  5.568526209770457e-18  2.596374135925846e-01
-6.635699706965765e-01  2.596374135925846e-01  8.478293978606438e-18

 7.873294468226693e-18 -4.803789437114933e-20 -6.635700010520005e-01
-4.803789437114933e-20  5.568526415506982e-18  2.596408618855434e-01
-6.635700010520005e-01  2.596408618855434e-01  8.478294361636776e-18

 7.873294635013128e-18 -4.797687714212073e-20 -6.635700312023493e-01
-4.797687714212073e-20  5.568527045473499e-18  2.596443157565851e-01
-6.635700312023493e-01  2.596443157565851e-01  8.478294740431812e-18

 7.873294761597206e-18 -4.791578582580706e-20 -6.635700611472400e-01
-4.791578582580706e-20  5.568527440597938e-18  2.596477736030148e-01
-6.635700611472400e-01  2.596477736030148e-01  8.478295115153505e-18

 7.873294851895627e-18 -4.785458692098003e-20 -6.635700908862925e-01
-4.785458692098003e-20  5.568527891407511e-18  2.596512371411863e-01
-6.635700908862925e-01  2.596512371411863e-01  8.478295485947815e-18

 7.873294909445839e-18 -4.779331362279640e-20 -6.635701204191123e-01
-4.779331362279640e-20  5.568528551065912e-18  2.596547047686556e-01
-6.635701204191123e-01  2.596547047686556e-01  8.478295852945939e-18

 7.873294937440792e-18 -4.773192373270224e-20 -6.635701497453094e-01
-4.773192373270224e-20  5.568528922666172e-18  2.596581782023171e-01
-6.635701497453094e-01  2.596581782023171e-01  8.478296216265907e-18

 7.873294938761808e-18 -4.767044953375557e-20 -6.635701788644818e-01
-4.767044953375557e-20  5.568529533753449e-18  2.596616562550908e-01
-6.635701788644818e-01  2.596616562550908e-01  8.478296576013614e-18

 7.873294916008985e-18 -4.760888852969289e-20 -6.635702077762262e-01
-4.760888852969289e-20  5.568530257097686e-18  2.596651389845649e-01
-6.635702077762262e-01  2.596651389845649e-01  8.478296932284074e-18

 7.873294871529059e-18 -4.754720768995147e-20 -6.635702364801332e-01
-4.754720768995147e-20  5.568530852860797e-18  2.596686276930687e-01
-6.635702364801332e-01  2.596686276930687e-01  8.478297285162568e-18

 7.873294807440885e-18 -4.748544609367119e-20 -6.635702649757885e-01
-4.748544609367119e-20  5.568531525552086e-18  2.596721207792107e-01
-6.635702649757885e-01  2.596721207792107e-01  8.478297634725447e-18

 7.873294725658665e-18 -4.742356146138149e-20 -6.635702932627741e-01
-4.742356146138149e-20  5.568532000356083e-18  2.596756199605236e-01
-6.635702932627741e-01  2.596756199605236e-01  8.478297981041224e-18

 7.873294627912709e-18 -4.736159829479279e-20 -6.635703213406642e-01
-4.736159829479279e-20  5.568532887692053e-18  2.596791236356542e-01
-6.635703213406642e-01  2.596791236356542e-01  8.478298324171232e-18

 7.873294515768308e-18 -4.729950824683399e-20 -6.635703492090328e-01
-4.729950824683399e-20  5.568533413494464e-18  2.596826335223885e-01
-6.635703492090328e-01  2.596826335223885e-01  8.478298664170420e-18

 7.873294390642559e-18 -4.723733498611145e-20 -6.635703768674442e-01
-4.723733498611145e-20  5.568534074701067e-18  2.596861480199299e-01
-6.635703768674442e-01  2.596861480199299e-01  8.478299001087943e-18

 7.873294253819590e-18 -4.717503683806946e-20 -6.635704043154603e-01
-4.717503683806946e-20  5.568534696618452e-18  2.596896688460392e-01
-6.635704043154603e-01  2.596896688460392e-01  8.478299334967821e-18

 7.873294106463961e-18 -4.711265360052919e-20 -6.635704315526395e-01
-4.711265360052919e-20  5.568535493650015e-18  2.596931944002026e-01
-6.635704315526395e-01  2.596931944002026e-01  8.478299665849394e-18

 7.873293949633069e-18 -4.705014292150593e-20 -6.635704585785296e-01
-4.705014292150593e-20  5.568536238317704e-18  2.596967264004447e-01
-6.635704585785296e-01  2.596967264004447e-01  8.478299993767807e-18

 7.873293784287687e-18 -4.698753444039491e-20 -6.635704853926822e-01
-4.698753444039491e-20  5.568537007636123e-18  2.597002636611201e-01
-6.635704853926822e-01  2.597002636611201e-01  8.478300318754475e-18

 7.873293611301926e-18 -4.692482501794920e-20 -6.635705119946356e-01
-4.692482501794920e-20  5.568537580664062e-18  2.597038062413561e-01
-6.635705119946356e-01  2.597038062413561e-01  8.478300640837349e-18

 7.873293431471763e-18 -4.686198728716587e-20 -6.635705383839285e-01
-4.686198728716587e-20  5.568538284120255e-18  2.597073554444262e-01
-6.635705383839285e-01  2.597073554444262e-01  8.478300960041410e-18

 7.873293245522712e-18 -4.679905842640989e-20 -6.635705645600931e-01
-4.679905842640989e-20  5.568538919322101e-18  2.597109096704211e-01
-6.635705645600931e-01  2.597109096704211e-01  8.478301276388758e-18

 7.873293054117044e-18 -4.673600020132032e-20 -6.635705905226557e-01
-4.673600020132032e-20  5.568539752266316e-18  2.597144706377857e-01
-6.635705905226557e-01  2.597144706377857e-01  8.478301589899099e-18

 7.873292857859632e-18 -4.667284818469598e-20 -6.635706162711400e-01
-4.667284818469598e-20  5.568540446290891e-18  2.597180367463240e-01
-6.635706162711400e-01  2.597180367463240e-01  8.478301900589788e-18

 7.873292657303794e-18 -4.660956388244880e-20 -6.635706418050634e-01
-4.660956388244880e-20  5.568541147023164e-18  2.597216097149814e-01
-6.635706418050634e-01  2.597216097149814e-01  8.478302208476240e-18

 7.873292452956068e-18 -4.654618323469048e-20 -6.635706671239375e-01
-4.654618323469048e-20  5.568541753132891e-18  2.597251879437094e-01
-6.635706671239375e-01  2.597251879437094e-01  8.478302513571876e-18

 7.873292245280745e-18 -4.648267231536143e-20 -6.635706922272715e-01
-4.648267231536143e-20  5.568542673528991e-18  2.597287731515786e-01
-6.635706922272715e-01  2.597287731515786e-01  8.478302815888571e-18

 7.873292034703851e-18 -4.641905094593270e-20 -6.635707171145671e-01
-4.641905094593270e-20  5.568543262588485e-18  2.597323641533743e-01
-6.635707171145671e-01  2.597323641533743e-01  8.478303115436556e-18

 7.873291821616767e-18 -4.635532477864778e-20 -6.635707417853244e-01
-4.635532477864778e-20  5.568543983756501e-18  2.597359610087683e-01
-6.635707417853244e-01  2.597359610087683e-01  8.478303412224721e-18

 7.873291606379357e-18 -4.629146040497403e-20 -6.635707662390345e-01
-4.629146040497403e-20  5.568544679784717e-18  2.597395650221236e-01
-6.635707662390345e-01  2.597395650221236e-01  8.478303706260720e-18

 7.873291389322915e-18 -4.622749767121916e-20 -6.635707904751885e-01
-4.622749767121916e-20  5.568545422666222e-18  2.597431745937279e-01
-6.635707904751885e-01  2.597431745937279e-01  8.478303997550957e-18

 7.873291170752773e-18 -4.616339371639491e-20 -6.635708144932660e-01
-4.616339371639491e-20  5.568545900943184e-18  2.597467914427187e-01
-6.635708144932660e-01  2.597467914427187e-01  8.478304286100870e-18

 7.873290950950657e-18 -4.609919282996595e-20 -6.635708382927489e-01
-4.609919282996595e-20  5.568546762525288e-18  2.597504139696165e-01
-6.635708382927489e-01  2.597504139696165e-01  8.478304571914843e-18

 7.873290730176721e-18 -4.603484974156726e-20 -6.635708618731097e-01
-4.603484974156726e-20  5.568547506987203e-18  2.597540438936862e-01
-6.635708618731097e-01  2.597540438936862e-01  8.478304854996472e-18

 7.873290508671552e-18 -4.597040373920117e-20 -6.635708852338174e-01
-4.597040373920117e-20  5.568548247184001e-18  2.597576796155043e-01
-6.635708852338174e-01  2.597576796155043e-01  8.478305135348412e-18

 7.873290286657750e-18 -4.590581422041581e-20 -6.635709083743363e-01
-4.590581422041581e-20  5.568548955234418e-18  2.597613228544604e-01
-6.635709083743363e-01  2.597613228544604e-01  8.478305412972706e-18

 7.873290064341756e-18 -4.584111830370390e-20 -6.635709312941265e-01
-4.584111830370390e-20  5.568549383699263e-18  2.597649720108798e-01
-6.635709312941265e-01  2.597649720108798e-01  8.478305687870601e-18

 7.873289841914835e-18 -4.577627890324610e-20 -6.635709539926407e-01
-4.577627890324610e-20  5.568550114851464e-18  2.597686288047205e-01
-6.635709539926407e-01  2.597686288047205e-01  8.478305960042781e-18

 7.873289619554800e-18 -4.571132376825699e-20 -6.635709764693296e-01
-4.571132376825699e-20  5.568550770325133e-18  2.597722920511736e-01
-6.635709764693296e-01  2.597722920511736e-01  8.478306229489283e-18

 7.873289397426792e-18 -4.564625086527355e-20 -6.635709987236373e-01
-4.564625086527355e-20  5.568551391340366e-18  2.597759618104354e-01
-6.635709987236373e-01  2.597759618104354e-01  8.478306496209656e-18

 7.873289175684559e-18 -4.558103239933318e-20 -6.635710207550050e-01
-4.558103239933318e-20  5.568552134939771e-18  2.597796393874776e-01
-6.635710207550050e-01  2.597796393874776e-01  8.478306760202930e-18

 7.873288954471328e-18 -4.551570168095406e-20 -6.635710425628654e-01
-4.551570168095406e-20  5.568552719132546e-18  2.597833231827614e-01
-6.635710425628654e-01  2.597833231827614e-01  8.478307021467663e-18

 7.873288733920673e-18 -4.545022459423553e-20 -6.635710641466505e-01
-4.545022459423553e-20  5.568553525509707e-18  2.597870149161007e-01
-6.635710641466505e-01  2.597870149161007e-01  8.478307280001980e-18

 7.873288514157289e-18 -4.538463441629697e-20 -6.635710855057849e-01
-4.538463441629697e-20  5.568554184722740e-18  2.597907129881998e-01
-6.635710855057849e-01  2.597907129881998e-01  8.478307535803621e-18

 7.873288295297614e-18 -4.531889268556481e-20 -6.635711066396894e-01
-4.531889268556481e-20  5.568554829297901e-18  2.597944191189054e-01
-6.635711066396894e-01  2.597944191189054e-01  8.478307788869939e-18

 7.873288077450804e-18 -4.525303323688747e-20 -6.635711275477789e-01
-4.525303323688747e-20  5.568555205425685e-18  2.597981317089753e-01
-6.635711275477789e-01  2.597981317089753e-01  8.478308039197950e-18

 7.873287860718889e-18 -4.518702561625248e-20 -6.635711482294642e-01
-4.518702561625248e-20  5.568555940688510e-18  2.598018524782537e-01
-6.635711482294642e-01  2.598018524782537e-01  8.478308286784325e-18

 7.873287645197626e-18 -4.512088937547855e-20 -6.635711686841533e-01
-4.512088937547855e-20  5.568556419717080e-18  2.598055802424453e-01
-6.635711686841533e-01  2.598055802424453e-01  8.478308531625469e-18

 7.873287430976871e-18 -4.505462950476551e-20 -6.635711889112443e-01
-4.505462950476551e-20  5.568557185620029e-18  2.598093150618412e-01
-6.635711889112443e-01  2.598093150618412e-01  8.478308773717419e-18

 7.873287218141059e-18 -4.498821360042888e-20 -6.635712089101354e-01
-4.498821360042888e-20  5.568557951184197e-18  2.598130582416657e-01
-6.635712089101354e-01  2.598130582416657e-01  8.478309013056082e-18

 7.873287006769602e-18 -4.492167774216928e-20 -6.635712286802177e-01
-4.492167774216928e-20  5.568558553697531e-18  2.598168081826189e-01
-6.635712286802177e-01  2.598168081826189e-01  8.478309249636960e-18

 7.873286796937316e-18 -4.485498261179552e-20 -6.635712482208769e-01
-4.485498261179552e-20  5.568559060481797e-18  2.598205666046369e-01
-6.635712482208769e-01  2.598205666046369e-01  8.478309483455422e-18

 7.873286588714699e-18 -4.478816758053404e-20 -6.635712675314954e-01
-4.478816758053404e-20  5.568559707092564e-18  2.598243319087042e-01
-6.635712675314954e-01  2.598243319087042e-01  8.478309714506578e-18

 7.873286382168220e-18 -4.472119192265005e-20 -6.635712866114510e-01
-4.472119192265005e-20  5.568560289783917e-18  2.598281058146513e-01
-6.635712866114510e-01  2.598281058146513e-01  8.478309942785315e-18

 7.873286177360844e-18 -4.465408950079082e-20 -6.635713054601131e-01
-4.465408950079082e-20  5.568560616528141e-18  2.598318867236240e-01
-6.635713054601131e-01  2.598318867236240e-01  8.478310168286327e-18

 7.873285974351943e-18 -4.458682794474363e-20 -6.635713240768516e-01
-4.458682794474363e-20  5.568561232000673e-18  2.598356763552100e-01
-6.635713240768516e-01  2.598356763552100e-01  8.478310391004145e-18

 7.873285773197874e-18 -4.451944359011440e-20 -6.635713424610281e-01
-4.451944359011440e-20  5.568561935786899e-18  2.598394731107481e-01
-6.635713424610281e-01  2.598394731107481e-01  8.478310610933063e-18

 7.873285573951932e-18 -4.445189351123909e-20 -6.635713606119985e-01
-4.445189351123909e-20  5.568562580783747e-18  2.598432787099615e-01
-6.635713606119985e-01  2.598432787099615e-01  8.478310828067245e-18

 7.873285376664827e-18 -4.438420462207202e-20 -6.635713785291179e-01
-4.438420462207202e-20  5.568563030166240e-18  2.598470919689322e-01
-6.635713785291179e-01  2.598470919689322e-01  8.478311042400691e-18

 7.873285181384658e-18 -4.431637899569445e-20 -6.635713962117329e-01
-4.431637899569445e-20  5.568563563602562e-18  2.598509129478191e-01
-6.635713962117329e-01  2.598509129478191e-01  8.478311253927222e-18

 7.873284988157134e-18 -4.424838640203266e-20 -6.635714136591856e-01
-4.424838640203266e-20  5.568564158802455e-18  2.598547429519441e-01
-6.635714136591856e-01  2.598547429519441e-01  8.478311462640529e-18

 7.873284797025919e-18 -4.418026293765137e-20 -6.635714308708160e-01
-4.418026293765137e-20  5.568564682120462e-18  2.598585803822435e-01
-6.635714308708160e-01  2.598585803822435e-01  8.478311668534138e-18

 7.873284608032490e-18 -4.411196918892405e-20 -6.635714478459569e-01
-4.411196918892405e-20  5.568565150719818e-18  2.598624269584870e-01
-6.635714478459569e-01  2.598624269584870e-01  8.478311871601461e-18

 7.873284421216531e-18 -4.404354197479052e-20 -6.635714645839358e-01
-4.404354197479052e-20  5.568565561349047e-18  2.598662810819823e-01
-6.635714645839358e-01  2.598662810819823e-01  8.478312071835761e-18

 7.873284236615864e-18 -4.397494630524796e-20 -6.635714810840770e-01
-4.397494630524796e-20  5.568566179300655e-18  2.598701444725297e-01
-6.635714810840770e-01  2.598701444725297e-01  8.478312269230173e-18

 7.873284054266811e-18 -4.390621344887496e-20 -6.635714973456990e-01
-4.390621344887496e-20  5.568566632087874e-18  2.598740155308618e-01
-6.635714973456990e-01  2.598740155308618e-01  8.478312463777726e-18

 7.873283874267558e-18 -4.383730715080424e-20 -6.635715133681234e-01
-4.383730715080424e-20  5.568567067917220e-18  2.598778959774311e-01
-6.635715133681234e-01  2.598778959774311e-01  8.478312655473822e-18

 7.873283696521327e-18 -4.376825808708339e-20 -6.635715291506447e-01
-4.376825808708339e-20  5.568567798866920e-18  2.598817846276276e-01
-6.635715291506447e-01  2.598817846276276e-01  8.478312844306126e-18

 7.873283521126730e-18 -4.369905716778979e-20 -6.635715446925763e-01
-4.369905716778979e-20  5.568568144513774e-18  2.598856815420364e-01
-6.635715446925763e-01  2.598856815420364e-01  8.478313030269900e-18

 7.873283348114384e-18 -4.362968376105557e-20 -6.635715599932126e-01
-4.362968376105557e-20  5.568568834863648e-18  2.598895880256738e-01
-6.635715599932126e-01  2.598895880256738e-01  8.478313213357751e-18

 7.873283177513932e-18 -4.356016507643723e-20 -6.635715750518548e-01
-4.356016507643723e-20  5.568569081893729e-18  2.598935024794561e-01
-6.635715750518548e-01  2.598935024794561e-01  8.478313393562119e-18

 7.873283009353698e-18 -4.349046957704490e-20 -6.635715898677856e-01
-4.349046957704490e-20  5.568569540919206e-18  2.598974266233426e-01
-6.635715898677856e-01  2.598974266233426e-01  8.478313570875368e-18

 7.873282843661105e-18 -4.342063316857144e-20 -6.635716044402966e-01
-4.342063316857144e-20  5.568569944330948e-18  2.599013588582719e-01
-6.635716044402966e-01  2.599013588582719e-01  8.478313745289753e-18

 7.873282680462621e-18 -4.335061693576250e-20 -6.635716187686627e-01
-4.335061693576250e-20  5.568570626738624e-18  2.599053009038899e-01
-6.635716187686627e-01  2.599053009038899e-01  8.478313916797458e-18

 7.873282519783825e-18 -4.328045257112276e-20 -6.635716328521611e-01
-4.328045257112276e-20  5.568570876429863e-18  2.599092511612534e-01
-6.635716328521611e-01  2.599092511612534e-01  8.478314085390523e-18

 7.873282361649448e-18 -4.321010563742806e-20 -6.635716466900623e-01
-4.321010563742806e-20  5.568571190399199e-18  2.599132113500812e-01
-6.635716466900623e-01  2.599132113500812e-01  8.478314251060949e-18

 7.873282206083466e-18 -4.313961463170832e-20 -6.635716602816316e-01
-4.313961463170832e-20  5.568571691497885e-18  2.599171798713061e-01
-6.635716602816316e-01  2.599171798713061e-01  8.478314413800618e-18

 7.873282053109018e-18 -4.306893768432164e-20 -6.635716736261297e-01
-4.306893768432164e-20  5.568572149315788e-18  2.599211584446068e-01
-6.635716736261297e-01  2.599211584446068e-01  8.478314573601316e-18

 7.873281902748778e-18 -4.299810215978630e-20 -6.635716867228114e-01
-4.299810215978630e-20  5.568572518177862e-18  2.599251458857540e-01
-6.635716867228114e-01  2.599251458857540e-01  8.478314730454796e-18

 7.873281755024588e-18 -4.292710899983612e-20 -6.635716995709293e-01
-4.292710899983612e-20  5.568572957593896e-18  2.599291422549740e-01
-6.635716995709293e-01  2.599291422549740e-01  8.478314884352626e-18

 7.873281609957749e-18 -4.285592493042055e-20 -6.635717121697278e-01
-4.285592493042055e-20  5.568573237689924e-18  2.599331488569465e-01
-6.635717121697278e-01  2.599331488569465e-01  8.478315035286438e-18

 7.873281467569024e-18 -4.278459242552352e-20 -6.635717245184489e-01
-4.278459242552352e-20  5.568573723217848e-18  2.599371640927329e-01
-6.635717245184489e-01  2.599371640927329e-01  8.478315183247613e-18

 7.873281327878627e-18 -4.271306756929244e-20 -6.635717366163283e-01
-4.271306756929244e-20  5.568574105885954e-18  2.599411896815657e-01
-6.635717366163283e-01  2.599411896815657e-01  8.478315328227590e-18

 7.873281190906365e-18 -4.264138816776417e-20 -6.635717484625993e-01
-4.264138816776417e-20  5.568574392097316e-18  2.599452240245774e-01
-6.635717484625993e-01  2.599452240245774e-01  8.478315470217666e-18

 7.873281056671342e-18 -4.256951699131914e-20 -6.635717600564853e-01
-4.256951699131914e-20  5.568574803476396e-18  2.599492688409812e-01
-6.635717600564853e-01  2.599492688409812e-01  8.478315609209049e-18

 7.873280925192600e-18 -4.249749116276058e-20 -6.635717713972110e-01
-4.249749116276058e-20  5.568575245002481e-18  2.599533225316731e-01
-6.635717713972110e-01  2.599533225316731e-01  8.478315745192916e-18

 7.873280796488431e-18 -4.242526816482310e-20 -6.635717824839913e-01
-4.242526816482310e-20  5.568575485835406e-18  2.599573868159815e-01
-6.635717824839913e-01  2.599573868159815e-01  8.478315878160338e-18

 7.873280670576939e-18 -4.235287934499916e-20 -6.635717933160401e-01
-4.235287934499916e-20  5.568575848952535e-18  2.599614605094635e-01
-6.635717933160401e-01  2.599614605094635e-01  8.478316008102320e-18

 7.873280547475864e-18 -4.228032103599816e-20 -6.635718038925622e-01
-4.228032103599816e-20  5.568576126061706e-18  2.599655436721598e-01
-6.635718038925622e-01  2.599655436721598e-01  8.478316135009777e-18

 7.873280427202453e-18 -4.220756838446888e-20 -6.635718142127605e-01
-4.220756838446888e-20  5.568576720314431e-18  2.599696376084769e-01
-6.635718142127605e-01  2.599696376084769e-01  8.478316258873572e-18

 7.873280309773899e-18 -4.213465000791901e-20 -6.635718242758336e-01
-4.213465000791901e-20  5.568576929505345e-18  2.599737407189480e-01
-6.635718242758336e-01  2.599737407189480e-01  8.478316379684490e-18

 7.873280195206885e-18 -4.206153311776373e-20 -6.635718340809716e-01
-4.206153311776373e-20  5.568577265441138e-18  2.599778547231232e-01
-6.635718340809716e-01  2.599778547231232e-01  8.478316497433249e-18

 7.873280083517952e-18 -4.198825180044794e-20 -6.635718436273643e-01
-4.198825180044794e-20  5.568577460110295e-18  2.599819780211584e-01
-6.635718436273643e-01  2.599819780211584e-01  8.478316612110472e-18

 7.873279974723284e-18 -4.191476881719483e-20 -6.635718529141935e-01
-4.191476881719483e-20  5.568577715924590e-18  2.599861123324508e-01
-6.635718529141935e-01  2.599861123324508e-01  8.478316723706770e-18

 7.873279868838929e-18 -4.184112022433870e-20 -6.635718619406362e-01
-4.184112022433870e-20  5.568577937087466e-18  2.599902560573553e-01
-6.635718619406362e-01  2.599902560573553e-01  8.478316832212590e-18

 7.873279765880588e-18 -4.176726861424073e-20 -6.635718707058660e-01
-4.176726861424073e-20  5.568578331129567e-18  2.599944109149215e-01
-6.635718707058660e-01  2.599944109149215e-01  8.478316937618413e-18

 7.873279665863903e-18 -4.169325027054451e-20 -6.635718792090506e-01
-4.169325027054451e-20  5.568578655623630e-18  2.599985753055373e-01
-6.635718792090506e-01  2.599985753055373e-01  8.478317039914556e-18

 7.873279568804178e-18 -4.161902140966729e-20 -6.635718874493527e-01
-4.161902140966729e-20  5.568578776827662e-18  2.600027509482555e-01
-6.635718874493527e-01  2.600027509482555e-01  8.478317139091354e-18

 7.873279474716647e-18 -4.154461723692199e-20 -6.635718954259315e-01
-4.154461723692199e-20  5.568579147473819e-18  2.600069366582019e-01
-6.635718954259315e-01  2.600069366582019e-01  8.478317235139049e-18

 7.873279383616293e-18 -4.147003141642416e-20 -6.635719031379397e-01
-4.147003141642416e-20  5.568579310503620e-18  2.600111324949223e-01
-6.635719031379397e-01  2.600111324949223e-01  8.478317328047738e-18

 7.873279295517953e-18 -4.139523502815112e-20 -6.635719105845239e-01
-4.139523502815112e-20  5.568579523836682e-18  2.600153397622888e-01
-6.635719105845239e-01  2.600153397622888e-01  8.478317417807578e-18

 7.873279210436419e-18 -4.132026690432229e-20 -6.635719177648306e-01
-4.132026690432229e-20  5.568579730542059e-18  2.600195568606695e-01
-6.635719177648306e-01  2.600195568606695e-01  8.478317504408567e-18

 7.873279128386158e-18 -4.124508814749826e-20 -6.635719246779946e-01
-4.124508814749826e-20  5.568580074690765e-18  2.600237855088853e-01
-6.635719246779946e-01  2.600237855088853e-01  8.478317587840679e-18

 7.873279049381673e-18 -4.116973371283244e-20 -6.635719313231520e-01
-4.116973371283244e-20  5.568580282498756e-18  2.600280241066634e-01
-6.635719313231520e-01  2.600280241066634e-01  8.478317668093796e-18

 7.873278973437273e-18 -4.109416347462531e-20 -6.635719376994303e-01
-4.109416347462531e-20  5.568580345753168e-18  2.600322743729143e-01
-6.635719376994303e-01  2.600322743729143e-01  8.478317745157771e-18

 7.873278900567163e-18 -4.101841657074624e-20 -6.635719438059536e-01
-4.101841657074624e-20  5.568580465685293e-18  2.600365347075881e-01
-6.635719438059536e-01  2.600365347075881e-01  8.478317819022358e-18

 7.873278830785451e-18 -4.094245727724337e-20 -6.635719496418396e-01
-4.094245727724337e-20  5.568580852764920e-18  2.600408068293089e-01
-6.635719496418396e-01  2.600408068293089e-01  8.478317889677241e-18

 7.873278764106174e-18 -4.086630530382517e-20 -6.635719552062028e-01
-4.086630530382517e-20  5.568580846481562e-18  2.600450895525199e-01
-6.635719552062028e-01  2.600450895525199e-01  8.478317957112111e-18

 7.873278700543263e-18 -4.078996610230042e-20 -6.635719604981528e-01
-4.078996610230042e-20  5.568581067434623e-18  2.600493829365452e-01
-6.635719604981528e-01  2.600493829365452e-01  8.478318021316476e-18

 7.873278640110504e-18 -4.071340614427410e-20 -6.635719655167904e-01
-4.071340614427410e-20  5.568581198567861e-18  2.600536882849649e-01
-6.635719655167904e-01  2.600536882849649e-01  8.478318082279884e-18

 7.873278582821768e-18 -4.063666551039348e-20 -6.635719702612177e-01
-4.063666551039348e-20  5.568581375213605e-18  2.600580039973424e-01
-6.635719702612177e-01  2.600580039973424e-01  8.478318139991760e-18

 7.873278528690683e-18 -4.055970372939015e-20 -6.635719747305254e-01
-4.055970372939015e-20  5.568581606749079e-18  2.600623317921182e-01
-6.635719747305254e-01  2.600623317921182e-01  8.478318194441498e-18

 7.873278477730968e-18 -4.048255758449869e-20 -6.635719789238049e-01
-4.048255758449869e-20  5.568581764357507e-18  2.600666700686970e-01
-6.635719789238049e-01  2.600666700686970e-01  8.478318245618398e-18

 7.873278429956168e-18 -4.040518395889041e-20 -6.635719828401390e-01
-4.040518395889041e-20  5.568581638470044e-18  2.600710205454736e-01
-6.635719828401390e-01  2.600710205454736e-01  8.478318293511741e-18

 7.873278385379840e-18 -4.032762921046115e-20 -6.635719864786054e-01
-4.032762921046115e-20  5.568581931864454e-18  2.600753816217317e-01
-6.635719864786054e-01  2.600753816217317e-01  8.478318338110674e-18

 7.873278344015455e-18 -4.024984719855502e-20 -6.635719898382794e-01
-4.024984719855502e-20  5.568582105587924e-18  2.600797550157590e-01
-6.635719898382794e-01  2.600797550157590e-01  8.478318379404367e-18

 7.873278305876504e-18 -4.017187391933736e-20 -6.635719929182301e-01
-4.017187391933736e-20  5.568581953065547e-18  2.600841391264844e-01
-6.635719929182301e-01  2.600841391264844e-01  8.478318417381849e-18

 7.873278270976380e-18 -4.009367731826577e-20 -6.635719957175197e-01
-4.009367731826577e-20  5.568582191828017e-18  2.600885356723772e-01
-6.635719957175197e-01  2.600885356723772e-01  8.478318452032125e-18

 7.873278239328499e-18 -4.001527925249301e-20 -6.635719982352085e-01
-4.001527925249301e-20  5.568582356499220e-18  2.600929434669807e-01
-6.635719982352085e-01  2.600929434669807e-01  8.478318483344165e-18

 7.873278210946216e-18 -3.993667709901537e-20 -6.635720004703501e-01
-3.993667709901537e-20  5.568582185114929e-18  2.600973625690254e-01
-6.635720004703501e-01  2.600973625690254e-01  8.478318511306794e-18

 7.873278185842836e-18 -3.985784790041240e-20 -6.635720024219915e-01
-3.985784790041240e-20  5.568582360467519e-18  2.601017942815528e-01
-6.635720024219915e-01  2.601017942815528e-01  8.478318535908851e-18

 7.873278164031724e-18 -3.977882401706104e-20 -6.635720040891787e-01
-3.977882401706104e-20  5.568582398883080e-18  2.601062370032736e-01
-6.635720040891787e-01  2.601062370032736e-01  8.478318557139077e-18

 7.873278145526113e-18 -3.969956667249831e-20 -6.635720054709475e-01
-3.969956667249831e-20  5.568582406447797e-18  2.601106924521221e-01
-6.635720054709475e-01  2.601106924521221e-01  8.478318574986155e-18

 7.873278130339407e-18 -3.962011509330501e-20 -6.635720065663343e-01
-3.962011509330501e-20  5.568582528087932e-18  2.601151590267728e-01
-6.635720065663343e-01  2.601151590267728e-01  8.478318589438718e-18

 7.873278118484744e-18 -3.954042799203530e-20 -6.635720073743656e-01
-3.954042799203530e-20  5.568582635676156e-18  2.601196384447759e-01
-6.635720073743656e-01  2.601196384447759e-01  8.478318600485295e-18

 7.873278109975528e-18 -3.946054148224643e-20 -6.635720078940660e-01
-3.946054148224643e-20  5.568582522115457e-18  2.601241291048697e-01
-6.635720078940660e-01  2.601241291048697e-01  8.478318608114419e-18

 7.873278104824910e-18 -3.938041915621284e-20 -6.635720081244532e-01
-3.938041915621284e-20  5.568582493870608e-18  2.601286327246201e-01
-6.635720081244532e-01  2.601286327246201e-01  8.478318612314497e-18

 7.873278103046262e-18 -3.930008796353818e-20 -6.635720080645408e-01
-3.930008796353818e-20  5.568582575190342e-18  2.601331481170075e-01
-6.635720080645408e-01  2.601331481170075e-01  8.478318613073920e-18

 7.873278104652769e-18 -3.921954648958190e-20 -6.635720077133364e-01
-3.921954648958190e-20  5.568582601180266e-18  2.601376753402931e-01
-6.635720077133364e-01  2.601376753402931e-01  8.478318610380949e-18

 7.873278109657744e-18 -3.913876388283456e-20 -6.635720070698429e-01
-3.913876388283456e-20  5.568582573131299e-18  2.601422156967066e-01
-6.635720070698429e-01  2.601422156967066e-01  8.478318604223913e-18

 7.873278118074506e-18 -3.905777758872858e-20 -6.635720061330596e-01
-3.905777758872858e-20  5.568582415311582e-18  2.601467675845542e-01
-6.635720061330596e-01  2.601467675845542e-01  8.478318594590917e-18

 7.873278129916266e-18 -3.897655007435519e-20 -6.635720049019760e-01
-3.897655007435519e-20  5.568582379277185e-18  2.601513327209090e-01
-6.635720049019760e-01  2.601513327209090e-01  8.478318581470122e-18

 7.873278145196342e-18 -3.889511734728453e-20 -6.635720033755834e-01
-3.889511734728453e-20  5.568582306221371e-18  2.601559095038100e-01
-6.635720033755834e-01  2.601559095038100e-01  8.478318564849563e-18

 7.873278163928100e-18 -3.881344150974342e-20 -6.635720015528614e-01
-3.881344150974342e-20  5.568582336850840e-18  2.601604996504978e-01
-6.635720015528614e-01  2.601604996504978e-01  8.478318544717246e-18

 7.873278186124849e-18 -3.873155744585299e-20 -6.635719994327892e-01
-3.873155744585299e-20  5.568582222826643e-18  2.601651015587349e-01
-6.635719994327892e-01  2.601651015587349e-01  8.478318521061093e-18

 7.873278211799917e-18 -3.864942788345296e-20 -6.635719970143384e-01
-3.864942788345296e-20  5.568582181820604e-18  2.601697169454951e-01
-6.635719970143384e-01  2.601697169454951e-01  8.478318493868985e-18

 7.873278240966680e-18 -3.856709011897773e-20 -6.635719942964757e-01
-3.856709011897773e-20  5.568582208277823e-18  2.601743442082831e-01
-6.635719942964757e-01  2.601743442082831e-01  8.478318463128709e-18

 7.873278273638516e-18 -3.848450224909087e-20 -6.635719912781624e-01
-3.848450224909087e-20  5.568582073036273e-18  2.601789850641126e-01
-6.635719912781624e-01  2.601789850641126e-01  8.478318428828018e-18

 7.873278309828879e-18 -3.840169399488754e-20 -6.635719879583559e-01
-3.840169399488754e-20  5.568581966830323e-18  2.601836383252800e-01
-6.635719879583559e-01  2.601836383252800e-01  8.478318390954595e-18

 7.873278349551140e-18 -3.831866169237928e-20 -6.635719843360077e-01
-3.831866169237928e-20  5.568581624104270e-18  2.601883040489974e-01
-6.635719843360077e-01  2.601883040489974e-01  8.478318349496023e-18

 7.873278392818828e-18 -3.823538246287124e-20 -6.635719804100624e-01
-3.823538246287124e-20  5.568581671213965e-18  2.601929835367384e-01
-6.635719804100624e-01  2.601929835367384e-01  8.478318304439907e-18

 7.873278439645391e-18 -3.815188758470213e-20 -6.635719761794625e-01
-3.815188758470213e-20  5.568581576739858e-18  2.601976751858790e-01
-6.635719761794625e-01  2.601976751858790e-01  8.478318255773687e-18

 7.873278490044321e-18 -3.806813909717413e-20 -6.635719716431422e-01
-3.806813909717413e-20  5.568581464476238e-18  2.602023807128120e-01
-6.635719716431422e-01  2.602023807128120e-01  8.478318203484810e-18

 7.873278544029258e-18 -3.798417215654642e-20 -6.635719668000339e-01
-3.798417215654642e-20  5.568581137772081e-18  2.602070985148015e-01
-6.635719668000339e-01  2.602070985148015e-01  8.478318147560640e-18

 7.873278601613686e-18 -3.789995249933301e-20 -6.635719616490598e-01
-3.789995249933301e-20  5.568581089231050e-18  2.602118303076585e-01
-6.635719616490598e-01  2.602118303076585e-01  8.478318087988463e-18

 7.873278662811297e-18 -3.781551239393618e-20 -6.635719561891422e-01
-3.781551239393618e-20  5.568580739641102e-18  2.602165744888805e-01
-6.635719561891422e-01  2.602165744888805e-01  8.478318024755515e-18

 7.873278727635672e-18 -3.773081864808682e-20 -6.635719504191945e-01
-3.773081864808682e-20  5.568580783226833e-18  2.602213327740777e-01
-6.635719504191945e-01  2.602213327740777e-01  8.478317957848972e-18

 7.873278796100552e-18 -3.764589069217203e-20 -6.635719443381264e-01
-3.764589069217203e-20  5.568580418361832e-18  2.602261039752719e-01
-6.635719443381264e-01  2.602261039752719e-01  8.478317887255939e-18

 7.873278868219628e-18 -3.756073494013028e-20 -6.635719379448418e-01
-3.756073494013028e-20  5.568580308061539e-18  2.602308881486516e-01
-6.635719379448418e-01  2.602308881486516e-01  8.478317812963435e-18

 7.873278944006667e-18 -3.747531652640329e-20 -6.635719312382371e-01
-3.747531652640329e-20  5.568580008214454e-18  2.602356865951602e-01
-6.635719312382371e-01  2.602356865951602e-01  8.478317734958485e-18

 7.873279023475449e-18 -3.738967704658921e-20 -6.635719242172097e-01
-3.738967704658921e-20  5.568579845897362e-18  2.602404977111855e-01
-6.635719242172097e-01  2.602404977111855e-01  8.478317653227936e-18

 7.873279106639852e-18 -3.730377172577919e-20 -6.635719168806431e-01
-3.730377172577919e-20  5.568579481059237e-18  2.602453232125110e-01
-6.635719168806431e-01  2.602453232125110e-01  8.478317567758715e-18

 7.873279193513734e-18 -3.721764559668892e-20 -6.635719092274225e-01
-3.721764559668892e-20  5.568579387835871e-18  2.602501614954474e-01
-6.635719092274225e-01  2.602501614954474e-01  8.478317478537531e-18

 7.873279284111007e-18 -3.713125153133598e-20 -6.635719012564234e-01
-3.713125153133598e-20  5.568579049398673e-18  2.602550142756173e-01
-6.635719012564234e-01  2.602550142756173e-01  8.478317385551159e-18

 7.873279378445646e-18 -3.704463275750543e-20 -6.635718929665191e-01
-3.704463275750543e-20  5.568578854865811e-18  2.602598799488893e-01
-6.635718929665191e-01  2.602598799488893e-01  8.478317288786206e-18

 7.873279476531659e-18 -3.695774611187419e-20 -6.635718843565744e-01
-3.695774611187419e-20  5.568578656092921e-18  2.602647602307930e-01
-6.635718843565744e-01  2.602647602307930e-01  8.478317188229309e-18

 7.873279578383150e-18 -3.687062834033132e-20 -6.635718754254510e-01
-3.687062834033132e-20  5.568578158078410e-18  2.602696535173872e-01
-6.635718754254510e-01  2.602696535173872e-01  8.478317083866960e-18

 7.873279684014107e-18 -3.678324554995153e-20 -6.635718661720038e-01
-3.678324554995153e-20  5.568578048600799e-18  2.602745615234415e-01
-6.635718661720038e-01  2.602745615234415e-01  8.478316975685617e-18

 7.873279793438784e-18 -3.669561907826307e-20 -6.635718565950820e-01
-3.669561907826307e-20  5.568577673659978e-18  2.602794830600527e-01
-6.635718565950820e-01  2.602794830600527e-01  8.478316863671679e-18

 7.873279906671307e-18 -3.660775191412217e-20 -6.635718466935322e-01
-3.660775191412217e-20  5.568577249195132e-18  2.602844181824419e-01
-6.635718466935322e-01  2.602844181824419e-01  8.478316747811464e-18

 7.873280023725959e-18 -3.651961316695521e-20 -6.635718364661903e-01
-3.651961316695521e-20  5.568576906078468e-18  2.602893681904438e-01
-6.635718364661903e-01  2.602893681904438e-01  8.478316628091260e-18

 7.873280144617024e-18 -3.643124298343162e-20 -6.635718259118927e-01
-3.643124298343162e-20  5.568576815189614e-18  2.602943314797823e-01
-6.635718259118927e-01  2.602943314797823e-01  8.478316504497245e-18

 7.873280269358812e-18 -3.634259671899091e-20 -6.635718150294636e-01
-3.634259671899091e-20  5.568576415466244e-18  2.602993097649714e-01
-6.635718150294636e-01  2.602993097649714e-01  8.478316377015547e-18

 7.873280397965779e-18 -3.625371153229533e-20 -6.635718038177296e-01
-3.625371153229533e-20  5.568575832427601e-18  2.603043014413411e-01
-6.635718038177296e-01  2.603043014413411e-01  8.478316245632230e-18

 7.873280530452296e-18 -3.616455404226820e-20 -6.635717922755042e-01
-3.616455404226820e-20  5.568575486448434e-18  2.603093082236032e-01
-6.635717922755042e-01  2.603093082236032e-01  8.478316110333293e-18

 7.873280666832899e-18 -3.607516045103958e-20 -6.635717804015996e-01
-3.607516045103958e-20  5.568575318466568e-18  2.603143285066858e-01
-6.635717804015996e-01  2.603143285066858e-01  8.478315971104653e-18

 7.873280807122142e-18 -3.598548518060217e-20 -6.635717681948214e-01
-3.598548518060217e-20  5.568574757121895e-18  2.603193640050199e-01
-6.635717681948214e-01  2.603193640050199e-01  8.478315827932188e-18

 7.873280951334606e-18 -3.589556306454318e-20 -6.635717556539695e-01
-3.589556306454318e-20  5.568574449991836e-18  2.603244135284921e-01
-6.635717556539695e-01  2.603244135284921e-01  8.478315680801698e-18

 7.873281099484951e-18 -3.580539070168358e-20 -6.635717427778398e-01
-3.580539070168358e-20  5.568574112674660e-18  2.603294771314789e-01
-6.635717427778398e-01  2.603294771314789e-01  8.478315529698875e-18

 7.873281251587900e-18 -3.571493729172767e-20 -6.635717295652177e-01
-3.571493729172767e-20  5.568573691786093e-18  2.603345561131537e-01
-6.635717295652177e-01  2.603345561131537e-01  8.478315374609430e-18

 7.873281407658204e-18 -3.562424079151426e-20 -6.635717160148890e-01
-3.562424079151426e-20  5.568573241940689e-18  2.603396488683465e-01
-6.635717160148890e-01  2.603396488683465e-01  8.478315215518913e-18

 7.873281567710686e-18 -3.553326171027299e-20 -6.635717021256283e-01
-3.553326171027299e-20  5.568572861945974e-18  2.603447571106253e-01
-6.635717021256283e-01  2.603447571106253e-01  8.478315052412862e-18

 7.873281731760236e-18 -3.544203687870147e-20 -6.635716878962105e-01
-3.544203687870147e-20  5.568572305365177e-18  2.603498792347574e-01
-6.635716878962105e-01  2.603498792347574e-01  8.478314885276748e-18

 7.873281899821790e-18 -3.535052557864570e-20 -6.635716733253976e-01
-3.535052557864570e-20  5.568571615324757e-18  2.603550169541958e-01
-6.635716733253976e-01  2.603550169541958e-01  8.478314714095941e-18

 7.873282071910344e-18 -3.525877326081262e-20 -6.635716584119536e-01
-3.525877326081262e-20  5.568571372293018e-18  2.603601686632322e-01
-6.635716584119536e-01  2.603601686632322e-01  8.478314538855766e-18

 7.873282248040885e-18 -3.516673283833286e-20 -6.635716431546296e-01
-3.516673283833286e-20  5.568570936021727e-18  2.603653360755759e-01
-6.635716431546296e-01  2.603653360755759e-01  8.478314359541477e-18

 7.873282428228621e-18 -3.507444302976354e-20 -6.635716275521767e-01
-3.507444302976354e-20  5.568570456552666e-18  2.603705175850617e-01
-6.635716275521767e-01  2.603705175850617e-01  8.478314176138248e-18

 7.873282612488677e-18 -3.498186279247271e-20 -6.635716116033367e-01
-3.498186279247271e-20  5.568569764666986e-18  2.603757149048352e-01
-6.635716116033367e-01  2.603757149048352e-01  8.478313988631200e-18

 7.873282800836297e-18 -3.488902442864394e-20 -6.635715953068445e-01
-3.488902442864394e-20  5.568569219266059e-18  2.603809268441755e-01
-6.635715953068445e-01  2.603809268441755e-01  8.478313797005371e-18

 7.873282993286717e-18 -3.479592612062377e-20 -6.635715786614345e-01
-3.479592612062377e-20  5.568568764501529e-18  2.603861534561574e-01
-6.635715786614345e-01  2.603861534561574e-01  8.478313601245714e-18

 7.873283189855390e-18 -3.470253523982065e-20 -6.635715616658288e-01
-3.470253523982065e-20  5.568568239214055e-18  2.603913960388513e-01
-6.635715616658288e-01  2.603913960388513e-01  8.478313401337171e-18

 7.873283390557628e-18 -3.460889191819015e-20 -6.635715443187492e-01
-3.460889191819015e-20  5.568567757258814e-18  2.603966529861441e-01
-6.635715443187492e-01  2.603966529861441e-01  8.478313197264549e-18

 7.873283595408934e-18 -3.451495582629372e-20 -6.635715266189056e-01
-3.451495582629372e-20  5.568567263185861e-18  2.604019260104541e-01
-6.635715266189056e-01  2.604019260104541e-01  8.478312989012610e-18

 7.873283804424912e-18 -3.442076253828831e-20 -6.635715085650097e-01
-3.442076253828831e-20  5.568566543045791e-18  2.604072135054616e-01
-6.635715085650097e-01  2.604072135054616e-01  8.478312776566067e-18

 7.873284017621066e-18 -3.432627349561138e-20 -6.635714901557590e-01
-3.432627349561138e-20  5.568565840086906e-18  2.604125171835733e-01
-6.635714901557590e-01  2.604125171835733e-01  8.478312559909502e-18

 7.873284235013145e-18 -3.423153073672275e-20 -6.635714713898523e-01
-3.423153073672275e-20  5.568565350478808e-18  2.604178354381308e-01
-6.635714713898523e-01  2.604178354381308e-01  8.478312339027498e-18

 7.873284456616804e-18 -3.413648945135369e-20 -6.635714522659756e-01
-3.413648945135369e-20  5.568564815389564e-18  2.604231699815181e-01
-6.635714522659756e-01  2.604231699815181e-01  8.478312113904504e-18

 7.873284682447914e-18 -3.404117957885138e-20 -6.635714327828147e-01
-3.404117957885138e-20  5.568564189498043e-18  2.604285196215070e-01
-6.635714327828147e-01  2.604285196215070e-01  8.478311884524947e-18

 7.873284912522274e-18 -3.394559984740238e-20 -6.635714129390473e-01
-3.394559984740238e-20  5.568563497644093e-18  2.604338844109350e-01
-6.635714129390473e-01  2.604338844109350e-01  8.478311650873146e-18

 7.873285146855814e-18 -3.384972005328576e-20 -6.635713927333411e-01
-3.384972005328576e-20  5.568562842112699e-18  2.604392656465020e-01
-6.635713927333411e-01  2.604392656465020e-01  8.478311412933376e-18

 7.873285385464564e-18 -3.375357803109970e-20 -6.635713721643667e-01
-3.375357803109970e-20  5.568562130668033e-18  2.604446617215449e-01
-6.635713721643667e-01  2.604446617215449e-01  8.478311170689803e-18

 7.873285628364543e-18 -3.365713816707214e-20 -6.635713512307762e-01
-3.365713816707214e-20  5.568561704378224e-18  2.604500743474576e-01
-6.635713512307762e-01  2.604500743474576e-01  8.478310924126557e-18

 7.873285875571896e-18 -3.356042977995977e-20 -6.635713299312286e-01
-3.356042977995977e-20  5.568560899162636e-18  2.604555019170222e-01
-6.635713299312286e-01  2.604555019170222e-01  8.478310673227688e-18

 7.873286127102812e-18 -3.346342145706322e-20 -6.635713082643655e-01
-3.346342145706322e-20  5.568560315951367e-18  2.604609461417415e-01
-6.635713082643655e-01  2.604609461417415e-01  8.478310417977128e-18

 7.873286382973530e-18 -3.336614366195916e-20 -6.635712862288318e-01
-3.336614366195916e-20  5.568559446004923e-18  2.604664054141138e-01
-6.635712862288318e-01  2.604664054141138e-01  8.478310158358803e-18

 7.873286643200422e-18 -3.326856255624801e-20 -6.635712638232575e-01
-3.326856255624801e-20  5.568558666912278e-18  2.604718814455247e-01
-6.635712638232575e-01  2.604718814455247e-01  8.478309894356529e-18

 7.873286907799875e-18 -3.317071545388460e-20 -6.635712410462739e-01
-3.317071545388460e-20  5.568558030106711e-18  2.604773726281355e-01
-6.635712410462739e-01  2.604773726281355e-01  8.478309625954023e-18

 7.873287176788311e-18 -3.307255894134635e-20 -6.635712178965005e-01
-3.307255894134635e-20  5.568557241525157e-18  2.604828806732763e-01
-6.635712178965005e-01  2.604828806732763e-01  8.478309353134979e-18

 7.873287450182351e-18 -3.297412482931626e-20 -6.635711943725526e-01
-3.297412482931626e-20  5.568556470176858e-18  2.604884043877345e-01
-6.635711943725526e-01  2.604884043877345e-01  8.478309075882993e-18

 7.873287727998537e-18 -3.287540963014909e-20 -6.635711704730404e-01
-3.287540963014909e-20  5.568555702021502e-18  2.604939438229332e-01
-6.635711704730404e-01  2.604939438229332e-01  8.478308794181559e-18

 7.873288010253533e-18 -3.277638626089736e-20 -6.635711461965635e-01
-3.277638626089736e-20  5.568554969385770e-18  2.604995002751154e-01
-6.635711461965635e-01  2.604995002751154e-01  8.478308508014151e-18

 7.873288296964173e-18 -3.267709113014795e-20 -6.635711215417215e-01
-3.267709113014795e-20  5.568554366084623e-18  2.605050721356720e-01
-6.635711215417215e-01  2.605050721356720e-01  8.478308217364117e-18

 7.873288588147222e-18 -3.257748355051466e-20 -6.635710965071011e-01
-3.257748355051466e-20  5.568553602136646e-18  2.605106611154531e-01
-6.635710965071011e-01  2.605106611154531e-01  8.478307922214749e-18

 7.873288883819588e-18 -3.247759816559701e-20 -6.635710710912872e-01
-3.247759816559701e-20  5.568552480411285e-18  2.605162656062527e-01
-6.635710710912872e-01  2.605162656062527e-01  8.478307622549264e-18

 7.873289183998226e-18 -3.237740532655112e-20 -6.635710452928549e-01
-3.237740532655112e-20  5.568551929658712e-18  2.605218873180842e-01
-6.635710452928549e-01  2.605218873180842e-01  8.478307318350780e-18

 7.873289488700223e-18 -3.227693438059971e-20 -6.635710191103756e-01
-3.227693438059971e-20  5.568551136488087e-18  2.605275246427164e-01
-6.635710191103756e-01  2.605275246427164e-01  8.478307009602386e-18

 7.873289797942671e-18 -3.217614573451850e-20 -6.635709925424130e-01
-3.217614573451850e-20  5.568550119609011e-18  2.605331792900744e-01
-6.635709925424130e-01  2.605331792900744e-01  8.478306696287031e-18

 7.873290111742716e-18 -3.207507270729471e-20 -6.635709655875223e-01
-3.207507270729471e-20  5.568549324384090e-18  2.605388500664944e-01
-6.635709655875223e-01  2.605388500664944e-01  8.478306378387616e-18

 7.873290430117712e-18 -3.197371068540807e-20 -6.635709382442557e-01
-3.197371068540807e-20  5.568548483137045e-18  2.605445370225035e-01
-6.635709382442557e-01  2.605445370225035e-01  8.478306055887004e-18

 7.873290753084900e-18 -3.187202857846972e-20 -6.635709105111556e-01
-3.187202857846972e-20  5.568547504391687e-18  2.605502414528946e-01
-6.635709105111556e-01  2.605502414528946e-01  8.478305728767891e-18

 7.873291080661802e-18 -3.177006723282157e-20 -6.635708823867585e-01
-3.177006723282157e-20  5.568546554593981e-18  2.605559617489419e-01
-6.635708823867585e-01  2.605559617489419e-01  8.478305397012952e-18

 7.873291412865808e-18 -3.166778675240812e-20 -6.635708538695950e-01
-3.166778675240812e-20  5.568545646197428e-18  2.605616996203089e-01
-6.635708538695950e-01  2.605616996203089e-01  8.478305060604789e-18

 7.873291749714580e-18 -3.156522447745350e-20 -6.635708249581895e-01
-3.156522447745350e-20  5.568544734474799e-18  2.605674534575654e-01
-6.635708249581895e-01  2.605674534575654e-01  8.478304719525894e-18

 7.873292091225692e-18 -3.146234144893798e-20 -6.635707956510570e-01
-3.146234144893798e-20  5.568543916776921e-18  2.605732249703053e-01
-6.635707956510570e-01  2.605732249703053e-01  8.478304373758673e-18

 7.873292437416921e-18 -3.135917008679976e-20 -6.635707659467093e-01
-3.135917008679976e-20  5.568542678792841e-18  2.605790125491794e-01
-6.635707659467093e-01  2.605790125491794e-01  8.478304023285498e-18

 7.873292788306034e-18 -3.125568063418910e-20 -6.635707358436468e-01
-3.125568063418910e-20  5.568541987933461e-18  2.605848179033964e-01
-6.635707358436468e-01  2.605848179033964e-01  8.478303668088605e-18

 7.873293143910950e-18 -3.115190055177904e-20 -6.635707053403676e-01
-3.115190055177904e-20  5.568540789744912e-18  2.605906394234973e-01
-6.635707053403676e-01  2.605906394234973e-01  8.478303308150178e-18

 7.873293504249591e-18 -3.104779825678230e-20 -6.635706744353593e-01
-3.104779825678230e-20  5.568539877721161e-18  2.605964788183430e-01
-6.635706744353593e-01  2.605964788183430e-01  8.478302943452299e-18

 7.873293869340049e-18 -3.094339781714335e-20 -6.635706431271050e-01
-3.094339781714335e-20  5.568538856786689e-18  2.606023348931970e-01
-6.635706431271050e-01  2.606023348931970e-01  8.478302573977012e-18

 7.873294239200404e-18 -3.083870258154080e-20 -6.635706114140799e-01
-3.083870258154080e-20  5.568538088330908e-18  2.606082076974595e-01
-6.635706114140799e-01  2.606082076974595e-01  8.478302199706207e-18

 7.873294613848857e-18 -3.073367455706585e-20 -6.635705792947498e-01
-3.073367455706585e-20  5.568536873336031e-18  2.606140985252398e-01
-6.635705792947498e-01  2.606140985252398e-01  8.478301820621769e-18

 7.873294993303718e-18 -3.062835809458800e-20 -6.635705467675789e-01
-3.062835809458800e-20  5.568535822212031e-18  2.606200057662450e-01
-6.635705467675789e-01  2.606200057662450e-01  8.478301436705415e-18

 7.873295377583345e-18 -3.052271234170119e-20 -6.635705138310188e-01
-3.052271234170119e-20  5.568534809957535e-18  2.606259311292894e-01
-6.635705138310188e-01  2.606259311292894e-01  8.478301047938869e-18

 7.873295766706183e-18 -3.041677255768836e-20 -6.635704804835165e-01
-3.041677255768836e-20  5.568533577106058e-18  2.606318730039482e-01
-6.635704804835165e-01  2.606318730039482e-01  8.478300654303669e-18

 7.873296160690754e-18 -3.031050532456010e-20 -6.635704467235105e-01
-3.031050532456010e-20  5.568532717706689e-18  2.606378330988763e-01
-6.635704467235105e-01  2.606378330988763e-01  8.478300255781356e-18

 7.873296559555712e-18 -3.020394326290232e-20 -6.635704125494362e-01
-3.020394326290232e-20  5.568531710604047e-18  2.606438098033989e-01
-6.635704125494362e-01  2.606438098033989e-01  8.478299852353361e-18

 7.873296963319676e-18 -3.009704403906822e-20 -6.635703779597145e-01
-3.009704403906822e-20  5.568530384560966e-18  2.606498048259787e-01
-6.635703779597145e-01  2.606498048259787e-01  8.478299444000975e-18

 7.873297372001528e-18 -2.998985158079353e-20 -6.635703429527665e-01
-2.998985158079353e-20  5.568529185943106e-18  2.606558165557469e-01
-6.635703429527665e-01  2.606558165557469e-01  8.478299030705472e-18

 7.873297785620067e-18 -2.988232700260217e-20 -6.635703075269991e-01
-2.988232700260217e-20  5.568528287194408e-18  2.606618467010502e-01
-6.635703075269991e-01  2.606618467010502e-01  8.478298612448015e-18

 7.873298204194292e-18 -2.977449528889842e-20 -6.635702716808181e-01
-2.977449528889842e-20  5.568527330933388e-18  2.606678940657435e-01
-6.635702716808181e-01  2.606678940657435e-01  8.478298189209659e-18

 7.873298627743206e-18 -2.966635417717014e-20 -6.635702354126173e-01
-2.966635417717014e-20  5.568526154416638e-18  2.606739586982683e-01
-6.635702354126173e-01  2.606739586982683e-01  8.478297760971385e-18

 7.873299056285944e-18 -2.955787466784964e-20 -6.635701987207845e-01
-2.955787466784964e-20  5.568524985678225e-18  2.606800418917598e-01
-6.635701987207845e-01  2.606800418917598e-01  8.478297327714097e-18

 7.873299489841774e-18 -2.944909362209381e-20 -6.635701616037004e-01
-2.944909362209381e-20  5.568523605438873e-18  2.606861420350381e-01
-6.635701616037004e-01  2.606861420350381e-01  8.478296889418613e-18

 7.873299928429888e-18 -2.933997299871427e-20 -6.635701240597376e-01
-2.933997299871427e-20  5.568522302154088e-18  2.606922608357506e-01
-6.635701240597376e-01  2.606922608357506e-01  8.478296446065597e-18

 7.873300372069788e-18 -2.923055322093097e-20 -6.635700860872616e-01
-2.923055322093097e-20  5.568521051306279e-18  2.606983966826671e-01
-6.635700860872616e-01  2.606983966826671e-01  8.478295997635728e-18

 7.873300820780889e-18 -2.912079396771858e-20 -6.635700476846292e-01
-2.912079396771858e-20  5.568520002470146e-18  2.607045512831012e-01
-6.635700476846292e-01  2.607045512831012e-01  8.478295544109508e-18

 7.873301274582799e-18 -2.901072829505586e-20 -6.635700088501908e-01
-2.901072829505586e-20  5.568518616514462e-18  2.607107230257971e-01
-6.635700088501908e-01  2.607107230257971e-01  8.478295085467384e-18

 7.873301733495124e-18 -2.890032384738849e-20 -6.635699695822880e-01
-2.890032384738849e-20  5.568517554429790e-18  2.607169136180665e-01
-6.635699695822880e-01  2.607169136180665e-01  8.478294621689687e-18

 7.873302197537672e-18 -2.878960088078498e-20 -6.635699298792552e-01
-2.878960088078498e-20  5.568516190192348e-18  2.607231218628958e-01
-6.635699298792552e-01  2.607231218628958e-01  8.478294152756710e-18

 7.873302666730280e-18 -2.867856394057816e-20 -6.635698897394195e-01
-2.867856394057816e-20  5.568514946313383e-18  2.607293478081795e-01
-6.635698897394195e-01  2.607293478081795e-01  8.478293678648602e-18

 7.873303141092823e-18 -2.856718312660249e-20 -6.635698491610977e-01
-2.856718312660249e-20  5.568513839240645e-18  2.607355927461110e-01
-6.635698491610977e-01  2.607355927461110e-01  8.478293199345412e-18

 7.873303620645392e-18 -2.845549348436634e-20 -6.635698081426025e-01
-2.845549348436634e-20  5.568512577412944e-18  2.607418550647876e-01
-6.635698081426025e-01  2.607418550647876e-01  8.478292714827136e-18

 7.873304105408032e-18 -2.834345294539778e-20 -6.635697666822339e-01
-2.834345294539778e-20  5.568510981769769e-18  2.607481364711273e-01
-6.635697666822339e-01  2.607481364711273e-01  8.478292225073635e-18

 7.873304595401084e-18 -2.823110796302057e-20 -6.635697247782882e-01
-2.823110796302057e-20  5.568509808880069e-18  2.607544353529425e-01
-6.635697247782882e-01  2.607544353529425e-01  8.478291730064730e-18

 7.873305090644711e-18 -2.811841224168216e-20 -6.635696824290505e-01
-2.811841224168216e-20  5.568508427163997e-18  2.607607534171386e-01
-6.635696824290505e-01  2.607607534171386e-01  8.478291229780069e-18

 7.873305591159396e-18 -2.800540466354824e-20 -6.635696396328012e-01
-2.800540466354824e-20  5.568506933250282e-18  2.607670890513831e-01
-6.635696396328012e-01  2.607670890513831e-01  8.478290724199278e-18

 7.873306096965619e-18 -2.789204846959064e-20 -6.635695963878089e-01
-2.789204846959064e-20  5.568505648972088e-18  2.607734439622646e-01
-6.635695963878089e-01  2.607734439622646e-01  8.478290213301825e-18

 7.873306608083981e-18 -2.777838042086847e-20 -6.635695526923340e-01
-2.777838042086847e-20  5.568504422177958e-18  2.607798165375110e-01
-6.635695526923340e-01  2.607798165375110e-01  8.478289697067109e-18

 7.873307124535165e-18 -2.766435691608631e-20 -6.635695085446326e-01
-2.766435691608631e-20  5.568502847196708e-18  2.607862084833510e-01
-6.635695085446326e-01  2.607862084833510e-01  8.478289175474444e-18

 7.873307646339955e-18 -2.755001109371786e-20 -6.635694639429491e-01
-2.755001109371786e-20  5.568501417497508e-18  2.607926186024123e-01
-6.635694639429491e-01  2.607926186024123e-01  8.478288648503023e-18

 7.873308173519267e-18 -2.743534101470465e-20 -6.635694188855205e-01
-2.743534101470465e-20  5.568500053271510e-18  2.607990469411525e-01
-6.635694188855205e-01  2.607990469411525e-01  8.478288116131949e-18

 7.873308706094020e-18 -2.732031482719447e-20 -6.635693733705736e-01
-2.732031482719447e-20  5.568498518779052e-18  2.608054947911790e-01
-6.635693733705736e-01  2.608054947911790e-01  8.478287578340206e-18

 7.873309244085346e-18 -2.720497263431426e-20 -6.635693273963301e-01
-2.720497263431426e-20  5.568497072179875e-18  2.608119605395656e-01
-6.635693273963301e-01  2.608119605395656e-01  8.478287035106718e-18

 7.873309787514437e-18 -2.708927371884779e-20 -6.635692809610004e-01
-2.708927371884779e-20  5.568495614928748e-18  2.608184458924927e-01
-6.635692809610004e-01  2.608184458924927e-01  8.478286486410263e-18

 7.873310336402576e-18 -2.697325572004937e-20 -6.635692340627888e-01
-2.697325572004937e-20  5.568494096160979e-18  2.608249492370532e-01
-6.635692340627888e-01  2.608249492370532e-01  8.478285932229554e-18

 7.873310890771088e-18 -2.685687974038154e-20 -6.635691866998863e-01
-2.685687974038154e-20  5.568492519275146e-18  2.608314722790386e-01
-6.635691866998863e-01  2.608314722790386e-01  8.478285372543160e-18

 7.873311450641589e-18 -2.674018535885416e-20 -6.635691388704819e-01
-2.674018535885416e-20  5.568491129361103e-18  2.608380134053849e-01
-6.635691388704819e-01  2.608380134053849e-01  8.478284807329580e-18

 7.873312016035534e-18 -2.662313271194447e-20 -6.635690905727486e-01
-2.662313271194447e-20  5.568489853839410e-18  2.608445743220409e-01
-6.635690905727486e-01  2.608445743220409e-01  8.478284236567207e-18

 7.873312586974692e-18 -2.650574447942997e-20 -6.635690418048563e-01
-2.650574447942997e-20  5.568488140786654e-18  2.608511538303746e-01
-6.635690418048563e-01  2.608511538303746e-01  8.478283660234299e-18

 7.873313163480880e-18 -2.638802213912303e-20 -6.635689925649634e-01
-2.638802213912303e-20  5.568486303926096e-18  2.608577519768503e-01
-6.635689925649634e-01  2.608577519768503e-01  8.478283078309061e-18

 7.873313745575936e-18 -2.626994353959144e-20 -6.635689428512187e-01
-2.626994353959144e-20  5.568485037660091e-18  2.608643700521758e-01
-6.635689428512187e-01  2.608643700521758e-01  8.478282490769525e-18

 7.873314333281942e-18 -2.615153487766929e-20 -6.635688926617657e-01
-2.615153487766929e-20  5.568483220340926e-18  2.608710064426483e-01
-6.635688926617657e-01  2.608710064426483e-01  8.478281897593703e-18

 7.873314926620932e-18 -2.603276443178836e-20 -6.635688419947329e-01
-2.603276443178836e-20  5.568481591212765e-18  2.608776628539437e-01
-6.635688419947329e-01  2.608776628539437e-01  8.478281298759387e-18

 7.873315525615237e-18 -2.591366919667142e-20 -6.635687908482450e-01
-2.591366919667142e-20  5.568480038840404e-18  2.608843376725520e-01
-6.635687908482450e-01  2.608843376725520e-01  8.478280694244367e-18

 7.873316130287106e-18 -2.579420957800588e-20 -6.635687392204151e-01
-2.579420957800588e-20  5.568478591636099e-18  2.608910326036983e-01
-6.635687392204151e-01  2.608910326036983e-01  8.478280084026261e-18

 7.873316740659010e-18 -2.567442078720941e-20 -6.635686871093465e-01
-2.567442078720941e-20  5.568476945842202e-18  2.608977460337477e-01
-6.635686871093465e-01  2.608977460337477e-01  8.478279468082594e-18

 7.873317356753479e-18 -2.555426375744142e-20 -6.635686345131351e-01
-2.555426375744142e-20  5.568475248425643e-18  2.609044796678544e-01
-6.635686345131351e-01  2.609044796678544e-01  8.478278846390781e-18

 7.873317978593216e-18 -2.543377620297329e-20 -6.635685814298662e-01
-2.543377620297329e-20  5.568473473592226e-18  2.609112318922322e-01
-6.635685814298662e-01  2.609112318922322e-01  8.478278218928146e-18

 7.873318606200947e-18 -2.531292068683163e-20 -6.635685278576152e-01
-2.531292068683163e-20  5.568471695049900e-18  2.609180044121642e-01
-6.635685278576152e-01  2.609180044121642e-01  8.478277585671852e-18

 7.873319239599588e-18 -2.519173680322714e-20 -6.635684737944496e-01
-2.519173680322714e-20  5.568470200374882e-18  2.609247956135718e-01
-6.635684737944496e-01  2.609247956135718e-01  8.478276946598986e-18

 7.873319878812110e-18 -2.507018719157257e-20 -6.635684192384264e-01
-2.507018719157257e-20  5.568468158832218e-18  2.609316067864034e-01
-6.635684192384264e-01  2.609316067864034e-01  8.478276301686541e-18

 7.873320523861604e-18 -2.494827852031503e-20 -6.635683641875919e-01
-2.494827852031503e-20  5.568466437754598e-18  2.609384379763965e-01
-6.635683641875919e-01  2.609384379763965e-01  8.478275650911326e-18

 7.873321174771373e-18 -2.482603658354734e-20 -6.635683086399847e-01
-2.482603658354734e-20  5.568464613117577e-18  2.609452879843029e-01
-6.635683086399847e-01  2.609452879843029e-01  8.478274994250109e-18

 7.873321831564682e-18 -2.470343091793475e-20 -6.635682525936319e-01
-2.470343091793475e-20  5.568462836176474e-18  2.609521580999806e-01
-6.635682525936319e-01  2.609521580999806e-01  8.478274331679485e-18

 7.873322494265006e-18 -2.458046948449693e-20 -6.635681960465528e-01
-2.458046948449693e-20  5.568460799346929e-18  2.609590479537250e-01
-6.635681960465528e-01  2.609590479537250e-01  8.478273663175979e-18

 7.873323162895904e-18 -2.445714714677450e-20 -6.635681389967535e-01
-2.445714714677450e-20  5.568459233588884e-18  2.609659580058605e-01
-6.635681389967535e-01  2.609659580058605e-01  8.478272988715962e-18

 7.873323837481095e-18 -2.433348659887842e-20 -6.635680814422333e-01
-2.433348659887842e-20  5.568457481458202e-18  2.609728870569978e-01
-6.635680814422333e-01  2.609728870569978e-01  8.478272308275707e-18

 7.873324518044388e-18 -2.420945356302601e-20 -6.635680233809809e-01
-2.420945356302601e-20  5.568455165540290e-18  2.609798363969302e-01
-6.635680233809809e-01  2.609798363969302e-01  8.478271621831371e-18

 7.873325204609637e-18 -2.408506515088570e-20 -6.635679648109728e-01
-2.408506515088570e-20  5.568453978087888e-18  2.609868060703895e-01
-6.635679648109728e-01  2.609868060703895e-01  8.478270929358964e-18

 7.873325897200995e-18 -2.396032547705779e-20 -6.635679057301787e-01
-2.396032547705779e-20  5.568451617206228e-18  2.609937948782111e-01
-6.635679057301787e-01  2.609937948782111e-01  8.478270230834410e-18

 7.873326595842509e-18 -2.383521127787250e-20 -6.635678461365532e-01
-2.383521127787250e-20  5.568449563503588e-18  2.610008045247250e-01
-6.635678461365532e-01  2.610008045247250e-01  8.478269526233475e-18

 7.873327300558574e-18 -2.370976145857521e-20 -6.635677860280477e-01
-2.370976145857521e-20  5.568448128525527e-18  2.610078333955098e-01
-6.635677860280477e-01  2.610078333955098e-01  8.478268815531848e-18

 7.873328011373531e-18 -2.358392982704753e-20 -6.635677254025945e-01
-2.358392982704753e-20  5.568446491007417e-18  2.610148831949387e-01
-6.635677254025945e-01  2.610148831949387e-01  8.478268098705037e-18

 7.873328728311945e-18 -2.345775319201659e-20 -6.635676642581226e-01
-2.345775319201659e-20  5.568444506478265e-18  2.610219523083379e-01
-6.635676642581226e-01  2.610219523083379e-01  8.478267375728480e-18

 7.873329451398443e-18 -2.333119053616185e-20 -6.635676025925471e-01
-2.333119053616185e-20  5.568442236608766e-18  2.610290424401661e-01
-6.635676025925471e-01  2.610290424401661e-01  8.478266646577449e-18

 7.873330180657879e-18 -2.320428986441757e-20 -6.635675404037742e-01
-2.320428986441757e-20  5.568440416940767e-18  2.610361519756406e-01
-6.635675404037742e-01  2.610361519756406e-01  8.478265911227133e-18

 7.873330916115084e-18 -2.307700106862800e-20 -6.635674776896953e-01
-2.307700106862800e-20  5.568438211341400e-18  2.610432826190642e-01
-6.635674776896953e-01  2.610432826190642e-01  8.478265169652535e-18

 7.873331657795146e-18 -2.294937080098308e-20 -6.635674144481968e-01
-2.294937080098308e-20  5.568436302126453e-18  2.610504327558572e-01
-6.635674144481968e-01  2.610504327558572e-01  8.478264421828590e-18

 7.873332405723185e-18 -2.282135067413788e-20 -6.635673506771506e-01
-2.282135067413788e-20  5.568433977629772e-18  2.610576040899708e-01
-6.635673506771506e-01  2.610576040899708e-01  8.478263667730067e-18

 7.873333159924542e-18 -2.269298857030456e-20 -6.635672863744185e-01
-2.269298857030456e-20  5.568432205650536e-18  2.610647950068385e-01
-6.635672863744185e-01  2.610647950068385e-01  8.478262907331596e-18

 7.873333920424624e-18 -2.256425261792590e-20 -6.635672215378503e-01
-2.256425261792590e-20  5.568430706305339e-18  2.610720067955282e-01
-6.635672215378503e-01  2.610720067955282e-01  8.478262140607752e-18

 7.873334687248975e-18 -2.243512441981517e-20 -6.635671561652879e-01
-2.243512441981517e-20  5.568427781947175e-18  2.610792395008500e-01
-6.635671561652879e-01  2.610792395008500e-01  8.478261367532864e-18

 7.873335460423289e-18 -2.230565814083489e-20 -6.635670902545572e-01
-2.230565814083489e-20  5.568425982860078e-18  2.610864919227697e-01
-6.635670902545572e-01  2.610864919227697e-01  8.478260588081206e-18

 7.873336239973380e-18 -2.217580768318000e-20 -6.635670238034770e-01
-2.217580768318000e-20  5.568423691377005e-18  2.610937653502192e-01
-6.635670238034770e-01  2.610937653502192e-01  8.478259802226886e-18

 7.873337025925196e-18 -2.204558905443219e-20 -6.635669568098532e-01
-2.204558905443219e-20  5.568421608839003e-18  2.611010594132530e-01
-6.635669568098532e-01  2.611010594132530e-01  8.478259009943928e-18

 7.873337818304857e-18 -2.191498815148533e-20 -6.635668892714792e-01
-2.191498815148533e-20  5.568419451716117e-18  2.611083745709954e-01
-6.635668892714792e-01  2.611083745709954e-01  8.478258211206144e-18

 7.873338617138541e-18 -2.178403222981104e-20 -6.635668211861394e-01
-2.178403222981104e-20  5.568417017563566e-18  2.611157096236496e-01
-6.635668211861394e-01  2.611157096236496e-01  8.478257405987260e-18

 7.873339422452681e-18 -2.165270323087430e-20 -6.635667525516027e-01
-2.165270323087430e-20  5.568415618121658e-18  2.611230658600063e-01
-6.635667525516027e-01  2.611230658600063e-01  8.478256594260841e-18

 7.873340234273695e-18 -2.152097552295215e-20 -6.635666833656313e-01
-2.152097552295215e-20  5.568412621434676e-18  2.611304433246544e-01
-6.635666833656313e-01  2.611304433246544e-01  8.478255776000353e-18

 7.873341052628243e-18 -2.138890568656342e-20 -6.635666136259725e-01
-2.138890568656342e-20  5.568410888789759e-18  2.611378408175489e-01
-6.635666136259725e-01  2.611378408175489e-01  8.478254951179065e-18

 7.873341877543130e-18 -2.125643729803538e-20 -6.635665433303602e-01
-2.125643729803538e-20  5.568408891893943e-18  2.611452600424163e-01
-6.635665433303602e-01  2.611452600424163e-01  8.478254119770123e-18

 7.873342709045258e-18 -2.112360996792927e-20 -6.635664724765209e-01
-2.112360996792927e-20  5.568406529810908e-18  2.611526993844819e-01
-6.635664724765209e-01  2.611526993844819e-01  8.478253281746578e-18

 7.873343547161703e-18 -2.099038025522954e-20 -6.635664010621644e-01
-2.099038025522954e-20  5.568403677142849e-18  2.611601605474549e-01
-6.635664010621644e-01  2.611601605474549e-01  8.478252437081271e-18

 7.873344391919682e-18 -2.085680094097335e-20 -6.635663290849938e-01
-2.085680094097335e-20  5.568401655653503e-18  2.611676419162879e-01
-6.635663290849938e-01  2.611676419162879e-01  8.478251585746957e-18

 7.873345243346492e-18 -2.072282524461344e-20 -6.635662565426922e-01
-2.072282524461344e-20  5.568399794446819e-18  2.611751451950844e-01
-6.635662565426922e-01  2.611751451950844e-01  8.478250727716178e-18

 7.873346101469625e-18 -2.058847872130583e-20 -6.635661834329385e-01
-2.058847872130583e-20  5.568396784283350e-18  2.611826687685242e-01
-6.635661834329385e-01  2.611826687685242e-01  8.478249862961404e-18

 7.873346966316798e-18 -2.045374302071076e-20 -6.635661097533934e-01
-2.045374302071076e-20  5.568394881479549e-18  2.611902143406846e-01
-6.635661097533934e-01  2.611902143406846e-01  8.478248991454910e-18

 7.873347837915760e-18 -2.031864126618918e-20 -6.635660355017081e-01
-2.031864126618918e-20  5.568392554695468e-18  2.611977802964007e-01
-6.635660355017081e-01  2.611977802964007e-01  8.478248113168830e-18

 7.873348716294411e-18 -2.018314028580079e-20 -6.635659606755203e-01
-2.018314028580079e-20  5.568390351254644e-18  2.612053683395167e-01
-6.635659606755203e-01  2.612053683395167e-01  8.478247228075168e-18

 7.873349601480893e-18 -2.004726349457428e-20 -6.635658852724549e-01
-2.004726349457428e-20  5.568387867625056e-18  2.612129772699353e-01
-6.635658852724549e-01  2.612129772699353e-01  8.478246336145750e-18

 7.873350493503438e-18 -1.991101022420666e-20 -6.635658092901247e-01
-1.991101022420666e-20  5.568385142637179e-18  2.612206071321406e-01
-6.635658092901247e-01  2.612206071321406e-01  8.478245437352282e-18

 7.873351392390388e-18 -1.977435667934029e-20 -6.635657327261272e-01
-1.977435667934029e-20  5.568382658053084e-18  2.612282592149164e-01
-6.635657327261272e-01  2.612282592149164e-01  8.478244531666272e-18

 7.873352298170350e-18 -1.963733310945261e-20 -6.635656555780514e-01
-1.963733310945261e-20  5.568379773411222e-18  2.612359319033397e-01
-6.635656555780514e-01  2.612359319033397e-01  8.478243619059137e-18

 7.873353210871994e-18 -1.949991223687831e-20 -6.635655778434681e-01
-1.949991223687831e-20  5.568377712592894e-18  2.612436269014790e-01
-6.635655778434681e-01  2.612436269014790e-01  8.478242699502063e-18

 7.873354130524164e-18 -1.936212302864886e-20 -6.635654995199387e-01
-1.936212302864886e-20  5.568375499917296e-18  2.612513425939945e-01
-6.635654995199387e-01  2.612513425939945e-01  8.478241772966136e-18

 7.873355057155904e-18 -1.922392682938337e-20 -6.635654206050084e-01
-1.922392682938337e-20  5.568373236373518e-18  2.612590806850412e-01
-6.635654206050084e-01  2.612590806850412e-01  8.478240839422261e-18

 7.873355990796351e-18 -1.908535517271628e-20 -6.635653410962138e-01
-1.908535517271628e-20  5.568370374973153e-18  2.612668395597122e-01
-6.635653410962138e-01  2.612668395597122e-01  8.478239898841210e-18

 7.873356931474850e-18 -1.894637709630688e-20 -6.635652609910700e-01
-1.894637709630688e-20  5.568367642884974e-18  2.612746209217001e-01
-6.635652609910700e-01  2.612746209217001e-01  8.478238951193539e-18

 7.873357879220922e-18 -1.880702980271998e-20 -6.635651802870872e-01
-1.880702980271998e-20  5.568365089427733e-18  2.612824231563238e-01
-6.635651802870872e-01  2.612824231563238e-01  8.478237996449698e-18

 7.873358834064133e-18 -1.866728048636194e-20 -6.635650989817560e-01
-1.866728048636194e-20  5.568362328176098e-18  2.612902475526814e-01
-6.635650989817560e-01  2.612902475526814e-01  8.478237034579973e-18

 7.873359796034407e-18 -1.852713464021161e-20 -6.635650170725558e-01
-1.852713464021161e-20  5.568360067601273e-18  2.612980941552174e-01
-6.635650170725558e-01  2.612980941552174e-01  8.478236065554422e-18

 7.873360765161650e-18 -1.838661296207318e-20 -6.635649345569504e-01
-1.838661296207318e-20  5.568357427674871e-18  2.613059617639266e-01
-6.635649345569504e-01  2.613059617639266e-01  8.478235089343018e-18

 7.873361741476045e-18 -1.824569137854261e-20 -6.635648514323911e-01
-1.824569137854261e-20  5.568355112320364e-18  2.613138516682268e-01
-6.635648514323911e-01  2.613138516682268e-01  8.478234105915515e-18

 7.873362725007874e-18 -1.810436491075099e-20 -6.635647676963140e-01
-1.810436491075099e-20  5.568351649021453e-18  2.613217634975737e-01
-6.635647676963140e-01  2.613217634975737e-01  8.478233115241534e-18

 7.873363715787671e-18 -1.796264485728658e-20 -6.635646833461426e-01
-1.796264485728658e-20  5.568349322506197e-18  2.613296977118471e-01
-6.635646833461426e-01  2.613296977118471e-01  8.478232117290474e-18

 7.873364713846016e-18 -1.782054396947380e-20 -6.635645983792836e-01
-1.782054396947380e-20  5.568346508405556e-18  2.613376531108610e-01
-6.635645983792836e-01  2.613376531108610e-01  8.478231112031619e-18

 7.873365719213823e-18 -1.767803534515843e-20 -6.635645127931300e-01
-1.767803534515843e-20  5.568343498755266e-18  2.613456309843857e-01
-6.635645127931300e-01  2.613456309843857e-01  8.478230099434080e-18

 7.873366731922022e-18 -1.753513518560022e-20 -6.635644265850602e-01
-1.753513518560022e-20  5.568341065683274e-18  2.613536309619112e-01
-6.635644265850602e-01  2.613536309619112e-01  8.478229079466740e-18

 7.873367752001796e-18 -1.739182912006607e-20 -6.635643397524410e-01
-1.739182912006607e-20  5.568338746987909e-18  2.613616535032771e-01
-6.635643397524410e-01  2.613616535032771e-01  8.478228052098340e-18

 7.873368779484499e-18 -1.724812411133969e-20 -6.635642522926181e-01
-1.724812411133969e-20  5.568335440932116e-18  2.613696978237030e-01
-6.635642522926181e-01  2.613696978237030e-01  8.478227017297480e-18

 7.873369814401662e-18 -1.710403663525496e-20 -6.635641642029280e-01
-1.710403663525496e-20  5.568332946522903e-18  2.613777639681434e-01
-6.635641642029280e-01  2.613777639681434e-01  8.478225975032530e-18

 7.873370856784968e-18 -1.695952572613865e-20 -6.635640754806883e-01
-1.695952572613865e-20  5.568330088498704e-18  2.613858532259259e-01
-6.635640754806883e-01  2.613858532259259e-01  8.478224925271687e-18

 7.873371906666309e-18 -1.681463277830456e-20 -6.635639861232064e-01
-1.681463277830456e-20  5.568327120803938e-18  2.613939639829172e-01
-6.635639861232064e-01  2.613939639829172e-01  8.478223867983002e-18

 7.873372964077716e-18 -1.666932265170067e-20 -6.635638961277643e-01
-1.666932265170067e-20  5.568324540557501e-18  2.614020979433061e-01
-6.635638961277643e-01  2.614020979433061e-01  8.478222803134299e-18

 7.873374029051501e-18 -1.652362106510993e-20 -6.635638054916421e-01
-1.652362106510993e-20  5.568321200108678e-18  2.614102534929139e-01
-6.635638054916421e-01  2.614102534929139e-01  8.478221730693279e-18

 7.873375101620045e-18 -1.637750541119972e-20 -6.635637142120936e-01
-1.637750541119972e-20  5.568318794215700e-18  2.614184323364867e-01
-6.635637142120936e-01  2.614184323364867e-01  8.478220650627375e-18

 7.873376181815957e-18 -1.623099354094511e-20 -6.635636222863625e-01
-1.623099354094511e-20  5.568315164729076e-18  2.614266328598179e-01
-6.635636222863625e-01  2.614266328598179e-01  8.478219562903920e-18

 7.873377269672056e-18 -1.608406268355391e-20 -6.635635297116724e-01
-1.608406268355391e-20  5.568312221940643e-18  2.614348567673315e-01
-6.635635297116724e-01  2.614348567673315e-01  8.478218467490005e-18

 7.873378365221300e-18 -1.593674300666427e-20 -6.635634364852362e-01
-1.593674300666427e-20  5.568310010592845e-18  2.614431028601514e-01
-6.635634364852362e-01  2.614431028601514e-01  8.478217364352539e-18

 7.873379468496943e-18 -1.578901389565924e-20 -6.635633426042455e-01
-1.578901389565924e-20  5.568306488468101e-18  2.614513711835263e-01
-6.635633426042455e-01  2.614513711835263e-01  8.478216253458279e-18

 7.873380579532266e-18 -1.564085854031614e-20 -6.635632480658804e-01
-1.564085854031614e-20  5.568303095041404e-18  2.614596630274836e-01
-6.635632480658804e-01  2.614596630274836e-01  8.478215134773688e-18

 7.873381698360881e-18 -1.549232150562391e-20 -6.635631528673015e-01
-1.549232150562391e-20  5.568300489208184e-18  2.614679767783772e-01
-6.635631528673015e-01  2.614679767783772e-01  8.478214008265192e-18

 7.873382825016511e-18 -1.534335670175989e-20 -6.635630570056535e-01
-1.534335670175989e-20  5.568297953651850e-18  2.614763141409961e-01
-6.635630570056535e-01  2.614763141409961e-01  8.478212873898882e-18

 7.873383959533146e-18 -1.519398995143097e-20 -6.635629604780652e-01
-1.519398995143097e-20  5.568294296733864e-18  2.614846735018665e-01
-6.635629604780652e-01  2.614846735018665e-01  8.478211731640712e-18

 7.873385101944975e-18 -1.504420311929046e-20 -6.635628632816469e-01
-1.504420311929046e-20  5.568291699968572e-18  2.614930565659729e-01
-6.635628632816469e-01  2.614930565659729e-01  8.478210581456435e-18

 7.873386252286268e-18 -1.489401579107440e-20 -6.635627654134975e-01
-1.489401579107440e-20  5.568288278405762e-18  2.615014617198552e-01
-6.635627654134975e-01  2.615014617198552e-01  8.478209423311611e-18

 7.873387410591640e-18 -1.474340135440106e-20 -6.635626668706898e-01
-1.474340135440106e-20  5.568285363828419e-18  2.615098906690699e-01
-6.635626668706898e-01  2.615098906690699e-01  8.478208257171582e-18

 7.873388576895796e-18 -1.459239041837531e-20 -6.635625676502875e-01
-1.459239041837531e-20  5.568282200516846e-18  2.615183417998907e-01
-6.635625676502875e-01  2.615183417998907e-01  8.478207083001467e-18

 7.873389751233725e-18 -1.444093992437509e-20 -6.635624677493326e-01
-1.444093992437509e-20  5.568278434162046e-18  2.615268168179974e-01
-6.635624677493326e-01  2.615268168179974e-01  8.478205900766229e-18

 7.873390933640597e-18 -1.428909170802176e-20 -6.635623671648514e-01
-1.428909170802176e-20  5.568275456257271e-18  2.615353145251347e-01
-6.635623671648514e-01  2.615353145251347e-01  8.478204710430571e-18

 7.873392124151798e-18 -1.363097302237018e-20 -6.635622658938535e-01
-1.363097302237018e-20  5.568272546143949e-18  2.615651540283066e-01
-6.635622658938535e-01  2.615651540283066e-01  8.478203511959049e-18

 7.873393322802894e-18 -1.398415351715765e-20 -6.635621639333280e-01
-1.398415351715765e-20  5.568269288667341e-18  2.615523790212690e-01
-6.635621639333280e-01  2.615523790212690e-01  8.478202305315960e-18

 7.873394529629661e-18 -1.383104915306053e-20 -6.635620612802483e-01
-1.383104915306053e-20  5.568265773891657e-18  2.615609463180877e-01
-6.635620612802483e-01  2.615609463180877e-01  8.478201090465420e-18

 7.873395744668168e-18 -1.367751587714878e-20 -6.635619579315685e-01
-1.367751587714878e-20  5.568262233098936e-18  2.615695373192067e-01
-6.635619579315685e-01  2.615695373192067e-01  8.478199867371277e-18

 7.873696176898316e-18 -7.720796620895953e-20 -6.635368236683462e-01
-7.720796620895953e-20  5.567463698564595e-18  2.579885864098460e-01
-6.635368236683462e-01  2.579885864098460e-01  8.477900896086610e-18

 7.873694376293640e-18 -7.710821452691634e-20 -6.635369756107831e-01
-7.710821452691634e-20  5.567468447393787e-18  2.579942546159233e-01
-6.635369756107831e-01  2.579942546159233e-01  8.477902698912665e-18

 7.873692582643603e-18 -7.700870470165885e-20 -6.635371269657729e-01
-7.700870470165885e-20  5.567473442939772e-18  2.579999086619132e-01
-6.635371269657729e-01  2.579999086619132e-01  8.477904494769165e-18

 7.873690795912709e-18 -7.690947037175880e-20 -6.635372777363178e-01
-7.690947037175880e-20  5.567478257884812e-18  2.580055473611755e-01
-6.635372777363178e-01  2.580055473611755e-01  8.477906283691732e-18

 7.873689016065641e-18 -7.681047029332850e-20 -6.635374279254019e-01
-7.681047029332850e-20  5.567482990315134e-18  2.580111724313858e-01
-6.635374279254019e-01  2.580111724313858e-01  8.477908065715735e-18

 7.873687243067374e-18 -7.671173057562544e-20 -6.635375775359891e-01
-7.671173057562544e-20  5.567487695353206e-18  2.580167826858754e-01
-6.635375775359891e-01  2.580167826858754e-01  8.477909840876414e-18

 7.873685476883051e-18 -7.661325265687183e-20 -6.635377265710213e-01
-7.661325265687183e-20  5.567492399956929e-18  2.580223781818268e-01
-6.635377265710213e-01  2.580223781818268e-01  8.477911609208606e-18

 7.873683717478103e-18 -7.651500664789657e-20 -6.635378750334263e-01
-7.651500664789657e-20  5.567497036633047e-18  2.580279602212499e-01
-6.635378750334263e-01  2.580279602212499e-01  8.477913370747120e-18

 7.873681964818130e-18 -7.641702610713350e-20 -6.635380229261078e-01
-7.641702610713350e-20  5.567501836385247e-18  2.580335272014552e-01
-6.635380229261078e-01  2.580335272014552e-01  8.477915125526375e-18

 7.873680218868989e-18 -7.631927320074347e-20 -6.635381702519562e-01
-7.631927320074347e-20  5.567506566408312e-18  2.580390808387993e-01
-6.635381702519562e-01  2.580390808387993e-01  8.477916873580665e-18

 7.873678479596709e-18 -7.622178835192335e-20 -6.635383170138371e-01
-7.622178835192335e-20  5.567511257597618e-18  2.580446195301089e-01
-6.635383170138371e-01  2.580446195301089e-01  8.477918614944013e-18

 7.873676746967605e-18 -7.612453036187573e-20 -6.635384632146030e-01
-7.612453036187573e-20  5.567515832679076e-18  2.580501449911524e-01
-6.635384632146030e-01  2.580501449911524e-01  8.477920349650271e-18

 7.873675020948210e-18 -7.602753676091750e-20 -6.635386088570845e-01
-7.602753676091750e-20  5.567520444781015e-18  2.580556556183860e-01
-6.635386088570845e-01  2.580556556183860e-01  8.477922077733043e-18

 7.873673301505149e-18 -7.593076685437881e-20 -6.635387539440966e-01
-7.593076685437881e-20  5.567525069587027e-18  2.580611531269059e-01
-6.635387539440966e-01  2.580611531269059e-01  8.477923799225667e-18

 7.873671588605459e-18 -7.583425997262909e-20 -6.635388984784327e-01
-7.583425997262909e-20  5.567529705383553e-18  2.580666359124977e-01
-6.635388984784327e-01  2.580666359124977e-01  8.477925514161390e-18

 7.873669882216211e-18 -7.573797582217946e-20 -6.635390424628714e-01
-7.573797582217946e-20  5.567534354155631e-18  2.580721056901770e-01
-6.635390424628714e-01  2.580721056901770e-01  8.477927222573105e-18

 7.873668182304779e-18 -7.564194423172777e-20 -6.635391859001737e-01
-7.564194423172777e-20  5.567538784666125e-18  2.580775612698930e-01
-6.635391859001737e-01  2.580775612698930e-01  8.477928924493613e-18

 7.873666488838728e-18 -7.554616023352306e-20 -6.635393287930788e-01
-7.554616023352306e-20  5.567543338789899e-18  2.580830027067394e-01
-6.635393287930788e-01  2.580830027067394e-01  8.477930619955403e-18

 7.873664801785845e-18 -7.545060851165407e-20 -6.635394711443127e-01
-7.545060851165407e-20  5.567547751136580e-18  2.580884308845883e-01
-6.635394711443127e-01  2.580884308845883e-01  8.477932308990846e-18

 7.873663121114092e-18 -7.535529217539632e-20 -6.635396129565821e-01
-7.535529217539632e-20  5.567552298279206e-18  2.580938454429407e-01
-6.635396129565821e-01  2.580938454429407e-01  8.477933991632046e-18

 7.873661446791649e-18 -7.526020264916572e-20 -6.635397542325758e-01
-7.526020264916572e-20  5.567556857336777e-18  2.580992468504377e-01
-6.635397542325758e-01  2.580992468504377e-01  8.477935667910918e-18

 7.873659778786908e-18 -7.516536904558183e-20 -6.635398949749666e-01
-7.516536904558183e-20  5.567561466448276e-18  2.581046339163358e-01
-6.635398949749666e-01  2.581046339163358e-01  8.477937337859162e-18

 7.873658117068475e-18 -7.507076618247163e-20 -6.635400351864102e-01
-7.507076618247163e-20  5.567565657029351e-18  2.581100079387866e-01
-6.635400351864102e-01  2.581100079387866e-01  8.477939001508325e-18

 7.873656461605129e-18 -7.497639443863813e-20 -6.635401748695432e-01
-7.497639443863813e-20  5.567570111283272e-18  2.581153685561917e-01
-6.635401748695432e-01  2.581153685561917e-01  8.477940658889673e-18

 7.873654812365846e-18 -7.488224677275990e-20 -6.635403140269887e-01
-7.488224677275990e-20  5.567574572886885e-18  2.581207162363764e-01
-6.635403140269887e-01  2.581207162363764e-01  8.477942310034333e-18

 7.873653169319801e-18 -7.478834037764360e-20 -6.635404526613510e-01
-7.478834037764360e-20  5.567579022349537e-18  2.581260502023468e-01
-6.635404526613510e-01  2.581260502023468e-01  8.477943954973225e-18

 7.873651532436436e-18 -7.469467638856866e-20 -6.635405907752174e-01
-7.469467638856866e-20  5.567583382452204e-18  2.581313705069418e-01
-6.635405907752174e-01  2.581313705069418e-01  8.477945593737035e-18

 7.873649901685288e-18 -7.460122206054240e-20 -6.635407283711602e-01
-7.460122206054240e-20  5.567587906572182e-18  2.581366784468427e-01
-6.635407283711602e-01  2.581366784468427e-01  8.477947226356295e-18

 7.873648277036113e-18 -7.450801899089454e-20 -6.635408654517340e-01
-7.450801899089454e-20  5.567592313717190e-18  2.581419724149632e-01
-6.635408654517340e-01  2.581419724149632e-01  8.477948852861321e-18

 7.873646658458905e-18 -7.441502583705791e-20 -6.635410020194785e-01
-7.441502583705791e-20  5.567596688882828e-18  2.581472541226298e-01
-6.635410020194785e-01  2.581472541226298e-01  8.477950473282262e-18

 7.873645045923805e-18 -7.432228153505201e-20 -6.635411380769154e-01
-7.432228153505201e-20  5.567600893176072e-18  2.581525219619049e-01
-6.635411380769154e-01  2.581525219619049e-01  8.477952087649028e-18

 7.873643439401188e-18 -7.422974379234701e-20 -6.635412736265535e-01
-7.422974379234701e-20  5.567605234281817e-18  2.581577776439896e-01
-6.635412736265535e-01  2.581577776439896e-01  8.477953695991394e-18

 7.873641838861519e-18 -7.413745259836562e-20 -6.635414086708806e-01
-7.413745259836562e-20  5.567609402929704e-18  2.581630195604745e-01
-6.635414086708806e-01  2.581630195604745e-01  8.477955298338905e-18

 7.873640244275577e-18 -7.404536586180794e-20 -6.635415432123758e-01
-7.404536586180794e-20  5.567613723675936e-18  2.581682494220180e-01
-6.635415432123758e-01  2.581682494220180e-01  8.477956894720936e-18

 7.873638655614237e-18 -7.395352396780181e-20 -6.635416772534947e-01
-7.395352396780181e-20  5.567617932384448e-18  2.581734656200720e-01
-6.635416772534947e-01  2.581734656200720e-01  8.477958485166679e-18

 7.873637072848608e-18 -7.386188684099176e-20 -6.635418107966836e-01
-7.386188684099176e-20  5.567622219501822e-18  2.581786698644790e-01
-6.635418107966836e-01  2.581786698644790e-01  8.477960069705110e-18

 7.873635495949942e-18 -7.377047970218959e-20 -6.635419438443703e-01
-7.377047970218959e-20  5.567626580620214e-18  2.581838609612729e-01
-6.635419438443703e-01  2.581838609612729e-01  8.477961648365098e-18

 7.873633924889710e-18 -7.367930921570422e-20 -6.635420763989672e-01
-7.367930921570422e-20  5.567630547148459e-18  2.581890389607496e-01
-6.635420763989672e-01  2.581890389607496e-01  8.477963221175231e-18

 7.873632359639518e-18 -7.358833533839006e-20 -6.635422084628726e-01
-7.358833533839006e-20  5.567634886819340e-18  2.581942051574151e-01
-6.635422084628726e-01  2.581942051574151e-01  8.477964788163989e-18

 7.873630800171206e-18 -7.349760326237330e-20 -6.635423400384690e-01
-7.349760326237330e-20  5.567639105228854e-18  2.581993579415121e-01
-6.635423400384690e-01  2.581993579415121e-01  8.477966349359631e-18

 7.873629246456781e-18 -7.340707117129168e-20 -6.635424711281253e-01
-7.340707117129168e-20  5.567643338777837e-18  2.582044990224166e-01
-6.635424711281253e-01  2.582044990224166e-01  8.477967904790270e-18

 7.873627698468362e-18 -7.331677830133407e-20 -6.635426017341919e-01
-7.331677830133407e-20  5.567647345521615e-18  2.582096267899425e-01
-6.635426017341919e-01  2.582096267899425e-01  8.477969454483819e-18

 7.873626156178311e-18 -7.322667996671891e-20 -6.635427318590089e-01
-7.322667996671891e-20  5.567651659494009e-18  2.582147429527832e-01
-6.635427318590089e-01  2.582147429527832e-01  8.477970998468028e-18

 7.873624619559158e-18 -7.313682234995121e-20 -6.635428615048971e-01
-7.313682234995121e-20  5.567655622025514e-18  2.582198459005094e-01
-6.635428615048971e-01  2.582198459005094e-01  8.477972536770461e-18

 7.873623088583580e-18 -7.304715924466430e-20 -6.635429906741673e-01
-7.304715924466430e-20  5.567659719284698e-18  2.582249373415166e-01
-6.635429906741673e-01  2.582249373415166e-01  8.477974069418499e-18

 7.873621563224419e-18 -7.295772171844981e-20 -6.635431193691123e-01
-7.295772171844981e-20  5.567663825261582e-18  2.582300160798205e-01
-6.635431193691123e-01  2.582300160798205e-01  8.477975596439410e-18

 7.873620043454786e-18 -7.286850713203793e-20 -6.635432475920120e-01
-7.286850713203793e-20  5.567667864855722e-18  2.582350821638648e-01
-6.635432475920120e-01  2.582350821638648e-01  8.477977117860185e-18

 7.873618529247784e-18 -7.277949556253360e-20 -6.635433753451323e-01
-7.277949556253360e-20  5.567671917071134e-18  2.582401364717947e-01
-6.635433753451323e-01  2.582401364717947e-01  8.477978633707774e-18

 7.873617020576842e-18 -7.269069689506838e-20 -6.635435026307239e-01
-7.269069689506838e-20  5.567676068328483e-18  2.582451786366861e-01
-6.635435026307239e-01  2.582451786366861e-01  8.477980144008830e-18

 7.873615517415465e-18 -7.260210059723168e-20 -6.635436294510216e-01
-7.260210059723168e-20  5.567680119944869e-18  2.582502091213422e-01
-6.635436294510216e-01  2.582502091213422e-01  8.477981648789947e-18

 7.873614019737411e-18 -7.251373488488078e-20 -6.635437558082512e-01
-7.251373488488078e-20  5.567684123528148e-18  2.582552267290915e-01
-6.635437558082512e-01  2.582552267290915e-01  8.477983148077478e-18

 7.873612527516479e-18 -7.242556971646689e-20 -6.635438817046211e-01
-7.242556971646689e-20  5.567688168587497e-18  2.582602327518550e-01
-6.635438817046211e-01  2.582602327518550e-01  8.477984641897651e-18

 7.873611040726759e-18 -7.233761131170059e-20 -6.635440071423255e-01
-7.233761131170059e-20  5.567692197774087e-18  2.582652268222814e-01
-6.635440071423255e-01  2.582652268222814e-01  8.477986130276497e-18

 7.873609559342424e-18 -7.224985551794612e-20 -6.635441321235463e-01
-7.224985551794612e-20  5.567696137948245e-18  2.582702094025152e-01
-6.635441321235463e-01  2.582702094025152e-01  8.477987613239937e-18

 7.873608083337796e-18 -7.216232504232277e-20 -6.635442566504508e-01
-7.216232504232277e-20  5.567700049972281e-18  2.582751792949387e-01
-6.635442566504508e-01  2.582751792949387e-01  8.477989090813661e-18

 7.873606612687455e-18 -7.207499242226868e-20 -6.635443807251935e-01
-7.207499242226868e-20  5.567703940263156e-18  2.582801377909076e-01
-6.635443807251935e-01  2.582801377909076e-01  8.477990563023253e-18

 7.873605147366061e-18 -7.198785583531153e-20 -6.635445043499150e-01
-7.198785583531153e-20  5.567707891472662e-18  2.582850849371570e-01
-6.635445043499150e-01  2.582850849371570e-01  8.477992029894118e-18

 7.873603687348410e-18 -7.190094184308042e-20 -6.635446275267427e-01
-7.190094184308042e-20  5.567711929346180e-18  2.582900195357096e-01
-6.635446275267427e-01  2.582900195357096e-01  8.477993491451490e-18

 7.873602232609525e-18 -7.181421515338804e-20 -6.635447502577905e-01
-7.181421515338804e-20  5.567715704759672e-18  2.582949432923334e-01
-6.635447502577905e-01  2.582949432923334e-01  8.477994947720481e-18

 7.873600783124582e-18 -7.172771215259202e-20 -6.635448725451586e-01
-7.172771215259202e-20  5.567719521631115e-18  2.582998545937927e-01
-6.635448725451586e-01  2.582998545937927e-01  8.477996398725980e-18

 7.873599338868850e-18 -7.164138744755738e-20 -6.635449943909358e-01
-7.164138744755738e-20  5.567723532377154e-18  2.583047551454949e-01
-6.635449943909358e-01  2.583047551454949e-01  8.477997844492814e-18

 7.873597899817782e-18 -7.155528902496268e-20 -6.635451157971962e-01
-7.155528902496268e-20  5.567727414223705e-18  2.583096433339632e-01
-6.635451157971962e-01  2.583096433339632e-01  8.477999285045557e-18

 7.873596465947014e-18 -7.146937260998895e-20 -6.635452367660017e-01
-7.146937260998895e-20  5.567731131627026e-18  2.583145208643082e-01
-6.635452367660017e-01  2.583145208643082e-01  8.478000720408721e-18

 7.873595037232326e-18 -7.138367110902511e-20 -6.635453572994007e-01
-7.138367110902511e-20  5.567735107598814e-18  2.583193861225866e-01
-6.635453572994007e-01  2.583193861225866e-01  8.478002150606595e-18

 7.873593613649599e-18 -7.129815661028350e-20 -6.635454773994294e-01
-7.129815661028350e-20  5.567738696376256e-18  2.583242408138258e-01
-6.635454773994294e-01  2.583242408138258e-01  8.478003575663328e-18

 7.873592195174910e-18 -7.121284351661453e-20 -6.635455970681117e-01
-7.121284351661453e-20  5.567742618735649e-18  2.583290837384289e-01
-6.635455970681117e-01  2.583290837384289e-01  8.478004995602994e-18

 7.873590781784494e-18 -7.112774197640255e-20 -6.635457163074575e-01
-7.112774197640255e-20  5.567746459629664e-18  2.583339149417058e-01
-6.635457163074575e-01  2.583339149417058e-01  8.478006410449373e-18

 7.873589373454677e-18 -7.104281575563528e-20 -6.635458351194654e-01
-7.104281575563528e-20  5.567750383696410e-18  2.583387357130899e-01
-6.635458351194654e-01  2.583387357130899e-01  8.478007820226245e-18

 7.873587970162030e-18 -7.095810805546852e-20 -6.635459535061210e-01
-7.095810805546852e-20  5.567754155131481e-18  2.583435444379146e-01
-6.635459535061210e-01  2.583435444379146e-01  8.478009224957131e-18

 7.873586571883177e-18 -7.087357723959626e-20 -6.635460714693989e-01
-7.087357723959626e-20  5.567757732372115e-18  2.583483428202684e-01
-6.635460714693989e-01  2.583483428202684e-01  8.478010624665509e-18

 7.873585178594896e-18 -7.078925906569437e-20 -6.635461890112585e-01
-7.078925906569437e-20  5.567761477109994e-18  2.583531292453013e-01
-6.635461890112585e-01  2.583531292453013e-01  8.478012019374588e-18

 7.873583790274214e-18 -7.070511397960342e-20 -6.635463061336498e-01
-7.070511397960342e-20  5.567765230065693e-18  2.583579054166448e-01
-6.635463061336498e-01  2.583579054166448e-01  8.478013409107552e-18

 7.873582406898167e-18 -7.062118551853057e-20 -6.635464228385087e-01
-7.062118551853057e-20  5.567768819739560e-18  2.583626697192309e-01
-6.635464228385087e-01  2.583626697192309e-01  8.478014793887339e-18

 7.873581028443985e-18 -7.053742858534254e-20 -6.635465391277614e-01
-7.053742858534254e-20  5.567772550271345e-18  2.583674238564501e-01
-6.635465391277614e-01  2.583674238564501e-01  8.478016173736845e-18

 7.873579654889080e-18 -7.045388173925247e-20 -6.635466550033190e-01
-7.045388173925247e-20  5.567776238014752e-18  2.583721662128889e-01
-6.635466550033190e-01  2.583721662128889e-01  8.478017548678723e-18

 7.873578286210946e-18 -7.037050568600770e-20 -6.635467704670839e-01
-7.037050568600770e-20  5.567780036676404e-18  2.583768984917829e-01
-6.635467704670839e-01  2.583768984917829e-01  8.478018918735555e-18

 7.873576922387280e-18 -7.028734107531043e-20 -6.635468855209440e-01
-7.028734107531043e-20  5.567783655912176e-18  2.583816190771576e-01
-6.635468855209440e-01  2.583816190771576e-01  8.478020283929778e-18

 7.873575563395853e-18 -7.020435556041844e-20 -6.635470001667766e-01
-7.020435556041844e-20  5.567787350233747e-18  2.583863292573570e-01
-6.635470001667766e-01  2.583863292573570e-01  8.478021644283624e-18

 7.873574209214603e-18 -7.012154985226229e-20 -6.635471144064482e-01
-7.012154985226229e-20  5.567790837268474e-18  2.583910290756510e-01
-6.635471144064482e-01  2.583910290756510e-01  8.478022999819308e-18

 7.873572859821585e-18 -7.003895227961727e-20 -6.635472282418128e-01
-7.003895227961727e-20  5.567794489308914e-18  2.583957173308044e-01
-6.635472282418128e-01  2.583957173308044e-01  8.478024350558740e-18

 7.873571515195098e-18 -6.995652984195905e-20 -6.635473416747120e-01
-6.995652984195905e-20  5.567798051531347e-18  2.584003953103954e-01
-6.635473416747120e-01  2.584003953103954e-01  8.478025696523871e-18

 7.873570175313388e-18 -6.987429374762880e-20 -6.635474547069764e-01
-6.987429374762880e-20  5.567801805811431e-18  2.584050626427815e-01
-6.635474547069764e-01  2.584050626427815e-01  8.478027037736369e-18

 7.873568840155015e-18 -6.979223518643576e-20 -6.635475673404281e-01
-6.979223518643576e-20  5.567805288621074e-18  2.584097197855029e-01
-6.635475673404281e-01  2.584097197855029e-01  8.478028374217905e-18

 7.873567509698525e-18 -6.971038143031125e-20 -6.635476795768733e-01
-6.971038143031125e-20  5.567808867740193e-18  2.584143655366998e-01
-6.635476795768733e-01  2.584143655366998e-01  8.478029705989856e-18

 7.873566183922765e-18 -6.962869980444025e-20 -6.635477914181090e-01
-6.962869980444025e-20  5.567812580266893e-18  2.584190011837817e-01
-6.635477914181090e-01  2.584190011837817e-01  8.478031033073620e-18

 7.873564862806526e-18 -6.954719458383821e-20 -6.635479028659220e-01
-6.954719458383821e-20  5.567815963755112e-18  2.584236267690929e-01
-6.635479028659220e-01  2.584236267690929e-01  8.478032355490345e-18

 7.873563546328876e-18 -6.946589109146210e-20 -6.635480139220868e-01
-6.946589109146210e-20  5.567819521488672e-18  2.584282410905970e-01
-6.635480139220868e-01  2.584282410905970e-01  8.478033673261120e-18

 7.873562234468965e-18 -6.938474862671262e-20 -6.635481245883681e-01
-6.938474862671262e-20  5.567822988286580e-18  2.584328458498386e-01
-6.635481245883681e-01  2.584328458498386e-01  8.478034986406882e-18

 7.873560927206057e-18 -6.930380650753112e-20 -6.635482348665164e-01
-6.930380650753112e-20  5.567826631821688e-18  2.584374394296526e-01
-6.635482348665164e-01  2.584374394296526e-01  8.478036294948413e-18

 7.873559624519588e-18 -6.922302894025635e-20 -6.635483447582754e-01
-6.922302894025635e-20  5.567829989978674e-18  2.584420235315253e-01
-6.635483447582754e-01  2.584420235315253e-01  8.478037598906410e-18

 7.873558326389049e-18 -6.914244845538640e-20 -6.635484542653752e-01
-6.914244845538640e-20  5.567833496041628e-18  2.584465965378491e-01
-6.635484542653752e-01  2.584465965378491e-01  8.478038898301402e-18

 7.873557032794124e-18 -6.906202626318805e-20 -6.635485633895366e-01
-6.906202626318805e-20  5.567836981499455e-18  2.584511601499483e-01
-6.635485633895366e-01  2.584511601499483e-01  8.478040193153811e-18

 7.873555743714659e-18 -6.898180549157681e-20 -6.635486721324696e-01
-6.898180549157681e-20  5.567840318694316e-18  2.584557127501163e-01
-6.635486721324696e-01  2.584557127501163e-01  8.478041483483941e-18

 7.873554459130486e-18 -6.890173943250759e-20 -6.635487804958723e-01
-6.890173943250759e-20  5.567843894777133e-18  2.584602560391852e-01
-6.635487804958723e-01  2.584602560391852e-01  8.478042769311928e-18

 7.873553179021700e-18 -6.882186883112852e-20 -6.635488884814325e-01
-6.882186883112852e-20  5.567847438580776e-18  2.584647883995449e-01
-6.635488884814325e-01  2.584647883995449e-01  8.478044050657827e-18

 7.873551903368483e-18 -6.874215942132781e-20 -6.635489960908294e-01
-6.874215942132781e-20  5.567850647421205e-18  2.584693115318996e-01
-6.635489960908294e-01  2.584693115318996e-01  8.478045327541565e-18

 7.873550632151108e-18 -6.866264170571549e-20 -6.635491033257290e-01
-6.866264170571549e-20  5.567854130004269e-18  2.584738238178700e-01
-6.635491033257290e-01  2.584738238178700e-01  8.478046599982923e-18

 7.873549365349983e-18 -6.858328844602788e-20 -6.635492101877895e-01
-6.858328844602788e-20  5.567857693538578e-18  2.584783265434838e-01
-6.635492101877895e-01  2.584783265434838e-01  8.478047868001540e-18

 7.873548102945707e-18 -6.850410363574570e-20 -6.635493166786569e-01
-6.850410363574570e-20  5.567860778271527e-18  2.584828197497503e-01
-6.635493166786569e-01  2.584828197497503e-01  8.478049131617008e-18

 7.873546844918852e-18 -6.842510608912982e-20 -6.635494227999664e-01
-6.842510608912982e-20  5.567864405139700e-18  2.584873022329254e-01
-6.635494227999664e-01  2.584873022329254e-01  8.478050390848695e-18

 7.873545591250304e-18 -6.834626392783147e-20 -6.635495285533454e-01
-6.834626392783147e-20  5.567867749249341e-18  2.584917756935768e-01
-6.635495285533454e-01  2.584917756935768e-01  8.478051645715955e-18

 7.873544341920904e-18 -6.826761640850249e-20 -6.635496339404098e-01
-6.826761640850249e-20  5.567871029066812e-18  2.584962385130082e-01
-6.635496339404098e-01  2.584962385130082e-01  8.478052896237931e-18

 7.873543096911716e-18 -6.818911725338562e-20 -6.635497389627656e-01
-6.818911725338562e-20  5.567874312468341e-18  2.585006923910587e-01
-6.635497389627656e-01  2.585006923910587e-01  8.478054142433709e-18

 7.873541856203895e-18 -6.811081003758455e-20 -6.635498436220084e-01
-6.811081003758455e-20  5.567877583182705e-18  2.585051357092944e-01
-6.635498436220084e-01  2.585051357092944e-01  8.478055384322214e-18

 7.873540619778649e-18 -6.803264913557925e-20 -6.635499479197234e-01
-6.803264913557925e-20  5.567880986608892e-18  2.585095701673470e-01
-6.635499479197234e-01  2.585095701673470e-01  8.478056621922265e-18

 7.873539387617425e-18 -6.795466867007690e-20 -6.635500518574868e-01
-6.795466867007690e-20  5.567884332846703e-18  2.585139945613701e-01
-6.635500518574868e-01  2.585139945613701e-01  8.478057855252589e-18

 7.873538159701704e-18 -6.787686599366192e-20 -6.635501554368651e-01
-6.787686599366192e-20  5.567887739175468e-18  2.585184089314538e-01
-6.635501554368651e-01  2.585184089314538e-01  8.478059084331733e-18

 7.873536936013139e-18 -6.779921296899304e-20 -6.635502586594141e-01
-6.779921296899304e-20  5.567890873636925e-18  2.585228145624723e-01
-6.635502586594141e-01  2.585228145624723e-01  8.478060309178241e-18

 7.873535716533386e-18 -6.772174606664005e-20 -6.635503615266806e-01
-6.772174606664005e-20  5.567894107449253e-18  2.585272098350810e-01
-6.635503615266806e-01  2.585272098350810e-01  8.478061529810386e-18

 7.873534501244386e-18 -6.764442665522762e-20 -6.635504640402005e-01
-6.764442665522762e-20  5.567897328408527e-18  2.585315964490307e-01
-6.635504640402005e-01  2.585315964490307e-01  8.478062746246483e-18

 7.873533290128057e-18 -6.756729042193089e-20 -6.635505662015019e-01
-6.756729042193089e-20  5.567900647186902e-18  2.585359727846914e-01
-6.635505662015019e-01  2.585359727846914e-01  8.478063958504596e-18

 7.873532083166498e-18 -6.749029797196813e-20 -6.635506680121018e-01
-6.749029797196813e-20  5.567903924100960e-18  2.585403405415078e-01
-6.635506680121018e-01  2.585403405415078e-01  8.478065166602784e-18

 7.873530880341912e-18 -6.741349363887943e-20 -6.635507694735078e-01
-6.741349363887943e-20  5.567907117835259e-18  2.585446980997668e-01
-6.635507694735078e-01  2.585446980997668e-01  8.478066370558909e-18

 7.873529681636611e-18 -6.733682947290227e-20 -6.635508705872206e-01
-6.733682947290227e-20  5.567910325036181e-18  2.585490471588496e-01
-6.635508705872206e-01  2.585490471588496e-01  8.478067570390816e-18

 7.873528487032998e-18 -6.726034818988395e-20 -6.635509713547260e-01
-6.726034818988395e-20  5.567913640118187e-18  2.585533860987209e-01
-6.635509713547260e-01  2.585533860987209e-01  8.478068766116107e-18

 7.873527296513646e-18 -6.718401226677413e-20 -6.635510717775058e-01
-6.718401226677413e-20  5.567916656246133e-18  2.585577166186372e-01
-6.635510717775058e-01  2.585577166186372e-01  8.478069957752410e-18

 7.873526110061177e-18 -6.710784433257023e-20 -6.635511718570292e-01
-6.710784433257023e-20  5.567919832194717e-18  2.585620375135650e-01
-6.635511718570292e-01  2.585620375135650e-01  8.478071145317150e-18

 7.873524927658336e-18 -6.703184735805553e-20 -6.635512715947579e-01
-6.703184735805553e-20  5.567923054002073e-18  2.585663488228910e-01
-6.635512715947579e-01  2.585663488228910e-01  8.478072328827644e-18

 7.873523749288031e-18 -6.695599225904738e-20 -6.635513709921437e-01
-6.695599225904738e-20  5.567926104726348e-18  2.585706518306199e-01
-6.635513709921437e-01  2.585706518306199e-01  8.478073508301190e-18

 7.873522574933225e-18 -6.688031566354350e-20 -6.635514700506295e-01
-6.688031566354350e-20  5.567929270855314e-18  2.585749449166440e-01
-6.635514700506295e-01  2.585749449166440e-01  8.478074683754853e-18

 7.873521404577008e-18 -6.680477678160647e-20 -6.635515687716470e-01
-6.680477678160647e-20  5.567932456919064e-18  2.585792297796619e-01
-6.635515687716470e-01  2.585792297796619e-01  8.478075855205685e-18

 7.873520238202582e-18 -6.672941364049968e-20 -6.635516671566232e-01
-6.672941364049968e-20  5.567935590001894e-18  2.585835047994461e-01
-6.635516671566232e-01  2.585835047994461e-01  8.478077022670579e-18

 7.873519075793252e-18 -6.665418979177822e-20 -6.635517652069718e-01
-6.665418979177822e-20  5.567938896932498e-18  2.585877716744514e-01
-6.635517652069718e-01  2.585877716744514e-01  8.478078186166358e-18

 7.873517917332419e-18 -6.657914186411483e-20 -6.635518629240990e-01
-6.657914186411483e-20  5.567941998480378e-18  2.585920287843624e-01
-6.635518629240990e-01  2.585920287843624e-01  8.478079345709670e-18

 7.873516762803654e-18 -6.650423410894853e-20 -6.635519603094038e-01
-6.650423410894853e-20  5.567944965543200e-18  2.585962778278732e-01
-6.635519603094038e-01  2.585962778278732e-01  8.478080501317172e-18

 7.873515612190548e-18 -6.642948557192072e-20 -6.635520573642740e-01
-6.642948557192072e-20  5.567948137577240e-18  2.586005175989827e-01
-6.635520573642740e-01  2.586005175989827e-01  8.478081653005300e-18

 7.873514465476834e-18 -6.635490438330833e-20 -6.635521540900885e-01
-6.635490438330833e-20  5.567951180014510e-18  2.586047481367798e-01
-6.635521540900885e-01  2.586047481367798e-01  8.478082800790435e-18

 7.873513322646383e-18 -6.628045810845731e-20 -6.635522504882184e-01
-6.628045810845731e-20  5.567954250515734e-18  2.586089707246662e-01
-6.635522504882184e-01  2.586089707246662e-01  8.478083944688882e-18

 7.873512183683107e-18 -6.620618285646713e-20 -6.635523465600272e-01
-6.620618285646713e-20  5.567957268832609e-18  2.586131837418514e-01
-6.635523465600272e-01  2.586131837418514e-01  8.478085084716773e-18

 7.873511048571110e-18 -6.613203980141768e-20 -6.635524423068662e-01
-6.613203980141768e-20  5.567960387991112e-18  2.586173888867290e-01
-6.635524423068662e-01  2.586173888867290e-01  8.478086220890206e-18

 7.873509917294518e-18 -6.605807140269689e-20 -6.635525377300819e-01
-6.605807140269689e-20  5.567963275123462e-18  2.586215845383898e-01
-6.635525377300819e-01  2.586215845383898e-01  8.478087353225130e-18

 7.873508789837609e-18 -6.598423088276327e-20 -6.635526328310092e-01
-6.598423088276327e-20  5.567966297666475e-18  2.586257723948655e-01
-6.635526328310092e-01  2.586257723948655e-01  8.478088481737425e-18

 7.873507666184704e-18 -6.591056165174039e-20 -6.635527276109777e-01
-6.591056165174039e-20  5.567969428870376e-18  2.586299508353801e-01
-6.635527276109777e-01  2.586299508353801e-01  8.478089606442819e-18

 7.873506546320347e-18 -6.583702289948797e-20 -6.635528220713036e-01
-6.583702289948797e-20  5.567972327206769e-18  2.586341215577398e-01
-6.635528220713036e-01  2.586341215577398e-01  8.478090727357013e-18

 7.873505430229059e-18 -6.576365075810794e-20 -6.635529162132989e-01
-6.576365075810794e-20  5.567975451366990e-18  2.586382829410720e-01
-6.635529162132989e-01  2.586382829410720e-01  8.478091844495529e-18

 7.873504317895530e-18 -6.569040963324300e-20 -6.635530100382656e-01
-6.569040963324300e-20  5.567978334094769e-18  2.586424366833588e-01
-6.635530100382656e-01  2.586424366833588e-01  8.478092957873857e-18

 7.873503209304539e-18 -6.561732408454965e-20 -6.635531035474975e-01
-6.561732408454965e-20  5.567981361006403e-18  2.586465815783631e-01
-6.635531035474975e-01  2.586465815783631e-01  8.478094067507341e-18

 7.873502104440946e-18 -6.554439913079170e-20 -6.635531967422799e-01
-6.554439913079170e-20  5.567984190359323e-18  2.586507176643489e-01
-6.635531967422799e-01  2.586507176643489e-01  8.478095173411210e-18

 7.873501003289792e-18 -6.547159636124715e-20 -6.635532896238888e-01
-6.547159636124715e-20  5.567987217321712e-18  2.586548462242106e-01
-6.635532896238888e-01  2.586548462242106e-01  8.478096275600711e-18

 7.873499905836045e-18 -6.539896159656442e-20 -6.635533821935941e-01
-6.539896159656442e-20  5.567990214252789e-18  2.586589656368504e-01
-6.635533821935941e-01  2.586589656368504e-01  8.478097374090795e-18

 7.873498812065024e-18 -6.532645061279237e-20 -6.635534744526550e-01
-6.532645061279237e-20  5.567993170673822e-18  2.586630775998128e-01
-6.635534744526550e-01  2.586630775998128e-01  8.478098468896531e-18

 7.873497721961906e-18 -6.525410427290868e-20 -6.635535664023248e-01
-6.525410427290868e-20  5.567996051113240e-18  2.586671804920780e-01
-6.635535664023248e-01  2.586671804920780e-01  8.478099560032710e-18

 7.873496635512113e-18 -6.518188382828043e-20 -6.635536580438471e-01
-6.518188382828043e-20  5.567998991700305e-18  2.586712760109903e-01
-6.635536580438471e-01  2.586712760109903e-01  8.478100647514162e-18

 7.873495552701112e-18 -6.510982274417839e-20 -6.635537493784571e-01
-6.510982274417839e-20  5.568001956944394e-18  2.586753625353456e-01
-6.635537493784571e-01  2.586753625353456e-01  8.478101731355507e-18

 7.873494473514486e-18 -6.503788689338067e-20 -6.635538404073840e-01
-6.503788689338067e-20  5.568004750157095e-18  2.586794417627029e-01
-6.635538404073840e-01  2.586794417627029e-01  8.478102811571371e-18

 7.873493397937946e-18 -6.496611206981638e-20 -6.635539311318467e-01
-6.496611206981638e-20  5.568007503771221e-18  2.586835120717004e-01
-6.635539311318467e-01  2.586835120717004e-01  8.478103888176214e-18

 7.873492325957172e-18 -6.489445717474524e-20 -6.635540215530572e-01
-6.489445717474524e-20  5.568010504910222e-18  2.586875751597337e-01
-6.635540215530572e-01  2.586875751597337e-01  8.478104961184423e-18

 7.873491257558182e-18 -6.482295367957490e-20 -6.635541116722191e-01
-6.482295367957490e-20  5.568013395255263e-18  2.586916298202548e-01
-6.635541116722191e-01  2.586916298202548e-01  8.478106030610320e-18

 7.873490192726804e-18 -6.475159978472657e-20 -6.635542014905282e-01
-6.475159978472657e-20  5.568016245147777e-18  2.586956760911642e-01
-6.635542014905282e-01  2.586956760911642e-01  8.478107096468043e-18

 7.873489131449191e-18 -6.468036400325497e-20 -6.635542910091720e-01
-6.468036400325497e-20  5.568019139706437e-18  2.586997152552095e-01
-6.635542910091720e-01  2.586997152552095e-01  8.478108158771781e-18

 7.873488073711498e-18 -6.460928866062964e-20 -6.635543802293324e-01
-6.460928866062964e-20  5.568021844333806e-18  2.587037456906701e-01
-6.635543802293324e-01  2.587037456906701e-01  8.478109217535488e-18

 7.873487019499952e-18 -6.453832754424771e-20 -6.635544691521792e-01
-6.453832754424771e-20  5.568024826900914e-18  2.587077690949560e-01
-6.635544691521792e-01  2.587077690949560e-01  8.478110272773106e-18

 7.873485968800942e-18 -6.446752630691772e-20 -6.635545577788783e-01
-6.446752630691772e-20  5.568027624851047e-18  2.587117838464615e-01
-6.635545577788783e-01  2.587117838464615e-01  8.478111324498445e-18

 7.873484921600908e-18 -6.439683981847328e-20 -6.635546461105863e-01
-6.439683981847328e-20  5.568030404442975e-18  2.587157916427035e-01
-6.635546461105863e-01  2.587157916427035e-01  8.478112372725285e-18

 7.873483877886385e-18 -6.432631060972551e-20 -6.635547341484508e-01
-6.432631060972551e-20  5.568033174668098e-18  2.587197908618248e-01
-6.635547341484508e-01  2.587197908618248e-01  8.478113417467213e-18

 7.873482837644064e-18 -6.425589358015642e-20 -6.635548218936145e-01
-6.425589358015642e-20  5.568035915083720e-18  2.587237832012105e-01
-6.635548218936145e-01  2.587237832012105e-01  8.478114458737827e-18

 7.873481800860637e-18 -6.418562238391284e-20 -6.635549093472104e-01
-6.418562238391284e-20  5.568038754543345e-18  2.587277674540971e-01
-6.635549093472104e-01  2.587277674540971e-01  8.478115496550577e-18

 7.873480767522960e-18 -6.411549493584672e-20 -6.635549965103652e-01
-6.411549493584672e-20  5.568041465439828e-18  2.587317436583500e-01
-6.635549965103652e-01  2.587317436583500e-01  8.478116530918808e-18

 7.873479737617968e-18 -6.404547942670105e-20 -6.635550833841953e-01
-6.404547942670105e-20  5.568044272785543e-18  2.587357130961779e-01
-6.635550833841953e-01  2.587357130961779e-01  8.478117561855865e-18

 7.873478711132646e-18 -6.397562007591144e-20 -6.635551699698137e-01
-6.397562007591144e-20  5.568046964623263e-18  2.587396741460294e-01
-6.635551699698137e-01  2.587396741460294e-01  8.478118589374867e-18

 7.873477688054163e-18 -6.390586749514279e-20 -6.635552562683221e-01
-6.390586749514279e-20  5.568049746914179e-18  2.587436285050416e-01
-6.635552562683221e-01  2.587436285050416e-01  8.478119613488980e-18

 7.873476668369713e-18 -6.383626951726502e-20 -6.635553422808177e-01
-6.383626951726502e-20  5.568052458942185e-18  2.587475745515629e-01
-6.635553422808177e-01  2.587475745515629e-01  8.478120634211190e-18

 7.873475652066568e-18 -6.376677935931212e-20 -6.635554280083870e-01
-6.376677935931212e-20  5.568055285645137e-18  2.587515139828582e-01
-6.635554280083870e-01  2.587515139828582e-01  8.478121651554423e-18

 7.873474639132193e-18 -6.369744139444717e-20 -6.635555134521121e-01
-6.369744139444717e-20  5.568057892877345e-18  2.587554451770046e-01
-6.635555134521121e-01  2.587554451770046e-01  8.478122665531526e-18

 7.873473629553995e-18 -6.362821134512896e-20 -6.635555986130666e-01
-6.362821134512896e-20  5.568060631625343e-18  2.587593698315225e-01
-6.635555986130666e-01  2.587593698315225e-01  8.478123676155254e-18

 7.873472623319632e-18 -6.355912669531071e-20 -6.635556834923163e-01
-6.355912669531071e-20  5.568063435504986e-18  2.587632863242971e-01
-6.635556834923163e-01  2.587632863242971e-01  8.478124683438267e-18

 7.873471620416742e-18 -6.349015407887776e-20 -6.635557680909194e-01
-6.349015407887776e-20  5.568066089559385e-18  2.587671963528674e-01
-6.635557680909194e-01  2.587671963528674e-01  8.478125687393138e-18

 7.873470620833119e-18 -6.342131692009744e-20 -6.635558524099278e-01
-6.342131692009744e-20  5.568068700455768e-18  2.587710987101124e-01
-6.635558524099278e-01  2.587710987101124e-01  8.478126688032369e-18

 7.873469624556608e-18 -6.335261637838189e-20 -6.635559364503862e-01
-6.335261637838189e-20  5.568071460223797e-18  2.587749934339040e-01
-6.635559364503862e-01  2.587749934339040e-01  8.478127685368341e-18

 7.873468631575176e-18 -6.328402112832107e-20 -6.635560202133307e-01
-6.328402112832107e-20  5.568074126210848e-18  2.587788818065627e-01
-6.635560202133307e-01  2.587788818065627e-01  8.478128679413406e-18

 7.873467641876870e-18 -6.321557001838088e-20 -6.635561036997913e-01
-6.321557001838088e-20  5.568076803605033e-18  2.587827622063679e-01
-6.635561036997913e-01  2.587827622063679e-01  8.478129670179778e-18

 7.873466655449821e-18 -6.314722552103423e-20 -6.635561869107902e-01
-6.314722552103423e-20  5.568079320214657e-18  2.587866363303635e-01
-6.635561869107902e-01  2.587866363303635e-01  8.478130657679608e-18

 7.873465672282262e-18 -6.307902333926056e-20 -6.635562698473436e-01
-6.307902333926056e-20  5.568082033208279e-18  2.587905025570468e-01
-6.635562698473436e-01  2.587905025570468e-01  8.478131641924957e-18

 7.873464692362550e-18 -6.301092407913576e-20 -6.635563525104590e-01
-6.301092407913576e-20  5.568084699500898e-18  2.587943625835168e-01
-6.635563525104590e-01  2.587943625835168e-01  8.478132622927834e-18

 7.873463715679048e-18 -6.294296653894444e-20 -6.635564349011372e-01
-6.294296653894444e-20  5.568087254150671e-18  2.587982147880590e-01
-6.635564349011372e-01  2.587982147880590e-01  8.478133600700074e-18

 7.873462742220286e-18 -6.287511283781696e-20 -6.635565170203730e-01
-6.287511283781696e-20  5.568089825520124e-18  2.588020608678486e-01
-6.635565170203730e-01  2.588020608678486e-01  8.478134575253544e-18

 7.873461771974915e-18 -6.280738893059688e-20 -6.635565988691526e-01
-6.280738893059688e-20  5.568092385713874e-18  2.588058996162277e-01
-6.635565988691526e-01  2.588058996162277e-01  8.478135546599969e-18

 7.873460804931523e-18 -6.273979408911016e-20 -6.635566804484563e-01
-6.273979408911016e-20  5.568095140399887e-18  2.588097310709351e-01
-6.635566804484563e-01  2.588097310709351e-01  8.478136514750945e-18

 7.873459841078999e-18 -6.267230171987803e-20 -6.635567617592570e-01
-6.267230171987803e-20  5.568097524172216e-18  2.588135565143729e-01
-6.635567617592570e-01  2.588135565143729e-01  8.478137479718103e-18

 7.873458880406145e-18 -6.260494561718581e-20 -6.635568428025213e-01
-6.260494561718581e-20  5.568100271207305e-18  2.588173743246707e-01
-6.635568428025213e-01  2.588173743246707e-01  8.478138441512853e-18

 7.873457922901961e-18 -6.253769093279295e-20 -6.635569235792059e-01
-6.253769093279295e-20  5.568102736448472e-18  2.588211861995580e-01
-6.635569235792059e-01  2.588211861995580e-01  8.478139400146667e-18

 7.873456968555500e-18 -6.247057214683447e-20 -6.635570040902659e-01
-6.247057214683447e-20  5.568105339750290e-18  2.588249905169727e-01
-6.635570040902659e-01  2.588249905169727e-01  8.478140355630801e-18

 7.873456017355914e-18 -6.240354947144568e-20 -6.635570843366444e-01
-6.240354947144568e-20  5.568107985824225e-18  2.588287889745169e-01
-6.635570843366444e-01  2.588287889745169e-01  8.478141307976532e-18

 7.873455069292469e-18 -6.233666456572715e-20 -6.635571643192808e-01
-6.233666456572715e-20  5.568110343292289e-18  2.588325799506252e-01
-6.635571643192808e-01  2.588325799506252e-01  8.478142257194979e-18

 7.873454124354454e-18 -6.226987528098342e-20 -6.635572440391060e-01
-6.226987528098342e-20  5.568113029111344e-18  2.588363651424177e-01
-6.635572440391060e-01  2.588363651424177e-01  8.478143203297255e-18

 7.873453182531331e-18 -6.220322009321067e-20 -6.635573234970450e-01
-6.220322009321067e-20  5.568115528323253e-18  2.588401429286766e-01
-6.635573234970450e-01  2.588401429286766e-01  8.478144146294305e-18

 7.873452243812604e-18 -6.213666053382040e-20 -6.635574026940153e-01
-6.213666053382040e-20  5.568117932892450e-18  2.588439150067466e-01
-6.635574026940153e-01  2.588439150067466e-01  8.478145086197099e-18

 7.873451308187912e-18 -6.207022272577272e-20 -6.635574816309273e-01
-6.207022272577272e-20  5.568120616685336e-18  2.588476801697105e-01
-6.635574816309273e-01  2.588476801697105e-01  8.478146023016421e-18

 7.873450375646900e-18 -6.200391119131147e-20 -6.635575603086874e-01
-6.200391119131147e-20  5.568122920013207e-18  2.588514384559474e-01
-6.635575603086874e-01  2.588514384559474e-01  8.478146956763020e-18

 7.873449446179436e-18 -6.193768812951340e-20 -6.635576387281903e-01
-6.193768812951340e-20  5.568125572466248e-18  2.588551911479210e-01
-6.635576387281903e-01  2.588551911479210e-01  8.478147887447632e-18

 7.873448519775355e-18 -6.187160114923415e-20 -6.635577168903296e-01
-6.187160114923415e-20  5.568127966712325e-18  2.588589366242118e-01
-6.635577168903296e-01  2.588589366242118e-01  8.478148815080781e-18

 7.873447596424665e-18 -6.180560057258262e-20 -6.635577947959870e-01
-6.180560057258262e-20  5.568130533934050e-18  2.588626765822913e-01
-6.635577947959870e-01  2.588626765822913e-01  8.478149739673026e-18

 7.873446676117449e-18 -6.173973390496265e-20 -6.635578724460425e-01
-6.173973390496265e-20  5.568132914300761e-18  2.588664094010372e-01
-6.635578724460425e-01  2.588664094010372e-01  8.478150661234795e-18

 7.873445758843851e-18 -6.167395508368677e-20 -6.635579498413653e-01
-6.167395508368677e-20  5.568135402994448e-18  2.588701367778234e-01
-6.635579498413653e-01  2.588701367778234e-01  8.478151579776440e-18

 7.873444844594155e-18 -6.160830468743494e-20 -6.635580269828204e-01
-6.160830468743494e-20  5.568137828241062e-18  2.588738570914383e-01
-6.635580269828204e-01  2.588738570914383e-01  8.478152495308252e-18

 7.873443933358701e-18 -6.154274515231334e-20 -6.635581038712652e-01
-6.154274515231334e-20  5.568140282421361e-18  2.588775720397093e-01
-6.635581038712652e-01  2.588775720397093e-01  8.478153407840422e-18

 7.873443025127961e-18 -6.147729992970083e-20 -6.635581805075510e-01
-6.147729992970083e-20  5.568142737562596e-18  2.588812804161074e-01
-6.635581805075510e-01  2.588812804161074e-01  8.478154317383107e-18

 7.873442119892488e-18 -6.141197454468190e-20 -6.635582568925219e-01
-6.141197454468190e-20  5.568145195057699e-18  2.588849822590219e-01
-6.635582568925219e-01  2.588849822590219e-01  8.478155223946310e-18

 7.873441217642889e-18 -6.134673550785419e-20 -6.635583330270166e-01
-6.134673550785419e-20  5.568147600574358e-18  2.588886788511910e-01
-6.635583330270166e-01  2.588886788511910e-01  8.478156127540054e-18

 7.873440318369918e-18 -6.128161963582632e-20 -6.635584089118662e-01
-6.128161963582632e-20  5.568150042040422e-18  2.588923685718519e-01
-6.635584089118662e-01  2.588923685718519e-01  8.478157028174188e-18

 7.873439422064424e-18 -6.121659002488614e-20 -6.635584845478957e-01
-6.121659002488614e-20  5.568152347214863e-18  2.588960531184236e-01
-6.635584845478957e-01  2.588960531184236e-01  8.478157925858572e-18

 7.873438528717317e-18 -6.115168520807458e-20 -6.635585599359241e-01
-6.115168520807458e-20  5.568154752164409e-18  2.588997308702883e-01
-6.635585599359241e-01  2.588997308702883e-01  8.478158820602923e-18

 7.873437638319636e-18 -6.108686335235296e-20 -6.635586350767636e-01
-6.108686335235296e-20  5.568157198343000e-18  2.589034035250932e-01
-6.635586350767636e-01  2.589034035250932e-01  8.478159712416934e-18

 7.873436750862493e-18 -6.102216299075348e-20 -6.635587099712181e-01
-6.102216299075348e-20  5.568159562426364e-18  2.589070694619439e-01
-6.635587099712181e-01  2.589070694619439e-01  8.478160601310166e-18

 7.873435866337155e-18 -6.095754745910380e-20 -6.635587846200895e-01
-6.095754745910380e-20  5.568161977908648e-18  2.589107303791536e-01
-6.635587846200895e-01  2.589107303791536e-01  8.478161487292182e-18

 7.873434984734873e-18 -6.089305167493247e-20 -6.635588590241698e-01
-6.089305167493247e-20  5.568164310723028e-18  2.589143846555031e-01
-6.635588590241698e-01  2.589143846555031e-01  8.478162370372385e-18

 7.873434106047119e-18 -6.082863739047153e-20 -6.635589331842441e-01
-6.082863739047153e-20  5.568166617137156e-18  2.589180339892355e-01
-6.635589331842441e-01  2.589180339892355e-01  8.478163250560156e-18

 7.873433230265411e-18 -6.076433324198772e-20 -6.635590071010948e-01
-6.076433324198772e-20  5.568169068477622e-18  2.589216771746418e-01
-6.635590071010948e-01  2.589216771746418e-01  8.478164127864809e-18

 7.873432357381360e-18 -6.070013864019098e-20 -6.635590807754944e-01
-6.070013864019098e-20  5.568171251521418e-18  2.589253142501849e-01
-6.635590807754944e-01  2.589253142501849e-01  8.478165002295518e-18

 7.873431487386673e-18 -6.063602297261004e-20 -6.635591542082100e-01
-6.063602297261004e-20  5.568173738065081e-18  2.589289464994780e-01
-6.635591542082100e-01  2.589289464994780e-01  8.478165873861474e-18

 7.873430620273231e-18 -6.057202522395470e-20 -6.635592274000045e-01
-6.057202522395470e-20  5.568175982277276e-18  2.589325723018807e-01
-6.635592274000045e-01  2.589325723018807e-01  8.478166742571743e-18

 7.873429756032882e-18 -6.050810361377555e-20 -6.635593003516316e-01
-6.050810361377555e-20  5.568178323280864e-18  2.589361933556333e-01
-6.635593003516316e-01  2.589361933556333e-01  8.478167608435305e-18

 7.873428894657761e-18 -6.044430199607529e-20 -6.635593730638401e-01
-6.044430199607529e-20  5.568180578891561e-18  2.589398080404616e-01
-6.635593730638401e-01  2.589398080404616e-01  8.478168471461099e-18

 7.873428036139937e-18 -6.038057354384783e-20 -6.635594455373732e-01
-6.038057354384783e-20  5.568182786666681e-18  2.589434180544967e-01
-6.635594455373732e-01  2.589434180544967e-01  8.478169331657983e-18

 7.873427180471667e-18 -6.031695982844511e-20 -6.635595177729660e-01
-6.031695982844511e-20  5.568185227568369e-18  2.589470217776971e-01
-6.635595177729660e-01  2.589470217776971e-01  8.478170189034730e-18

 7.873426327645325e-18 -6.025342445187856e-20 -6.635595897713493e-01
-6.025342445187856e-20  5.568187534999827e-18  2.589506209084437e-01
-6.635595897713493e-01  2.589506209084437e-01  8.478171043600033e-18

 7.873425477653388e-18 -6.018998990193399e-20 -6.635596615332463e-01
-6.018998990193399e-20  5.568189802485945e-18  2.589542142413276e-01
-6.635596615332463e-01  2.589542142413276e-01  8.478171895362591e-18

 7.873424630488369e-18 -6.012666005542138e-20 -6.635597330593765e-01
-6.012666005542138e-20  5.568192125873443e-18  2.589578018156737e-01
-6.635597330593765e-01  2.589578018156737e-01  8.478172744330870e-18

 7.873423786143020e-18 -6.006340008339038e-20 -6.635598043504489e-01
-6.006340008339038e-20  5.568194391862738e-18  2.589613849152657e-01
-6.635598043504489e-01  2.589613849152657e-01  8.478173590513463e-18

 7.873422944610097e-18 -6.000025586926166e-20 -6.635598754071708e-01
-6.000025586926166e-20  5.568196540046014e-18  2.589649619200851e-01
-6.635598754071708e-01  2.589649619200851e-01  8.478174433918710e-18

 7.873422105882555e-18 -5.993718037620157e-20 -6.635599462302392e-01
-5.993718037620157e-20  5.568198909971534e-18  2.589685345289359e-01
-6.635599462302392e-01  2.589685345289359e-01  8.478175274555026e-18

 7.873421269953359e-18 -5.987421674203797e-20 -6.635600168203503e-01
-5.987421674203797e-20  5.568201097847701e-18  2.589721011219706e-01
-6.635600168203503e-01  2.589721011219706e-01  8.478176112430645e-18

 7.873420436815716e-18 -5.981132139299487e-20 -6.635600871781886e-01
-5.981132139299487e-20  5.568203340116921e-18  2.589756633979680e-01
-6.635600871781886e-01  2.589756633979680e-01  8.478176947553816e-18

 7.873419606462873e-18 -5.974853516573712e-20 -6.635601573044364e-01
-5.974853516573712e-20  5.568205514610986e-18  2.589792197373316e-01
-6.635601573044364e-01  2.589792197373316e-01  8.478177779932643e-18

 7.873418778888195e-18 -5.968581878106162e-20 -6.635602271997678e-01
-5.968581878106162e-20  5.568207808814999e-18  2.589827718390516e-01
-6.635602271997678e-01  2.589827718390516e-01  8.478178609575219e-18

 7.873417954085236e-18 -5.962320998254400e-20 -6.635602968648515e-01
-5.962320998254400e-20  5.568209923897244e-18  2.589863180833471e-01
-6.635602968648515e-01  2.589863180833471e-01  8.478179436489523e-18

 7.873417132047562e-18 -5.956066790167013e-20 -6.635603663003518e-01
-5.956066790167013e-20  5.568212177039524e-18  2.589898601695846e-01
-6.635603663003518e-01  2.589898601695846e-01  8.478180260683509e-18

 7.873416312769006e-18 -5.949822015620934e-20 -6.635604355069237e-01
-5.949822015620934e-20  5.568214312087693e-18  2.589933968928849e-01
-6.635604355069237e-01  2.589933968928849e-01  8.478181082165025e-18

 7.873415496243441e-18 -5.943586823258883e-20 -6.635605044852192e-01
-5.943586823258883e-20  5.568216681705980e-18  2.589969282933902e-01
-6.635605044852192e-01  2.589969282933902e-01  8.478181900941848e-18

 7.873414682464855e-18 -5.937358418628297e-20 -6.635605732358818e-01
-5.937358418628297e-20  5.568218750571050e-18  2.590004556556021e-01
-6.635605732358818e-01  2.590004556556021e-01  8.478182717021737e-18

 7.873413871427452e-18 -5.931140169039661e-20 -6.635606417595526e-01
-5.931140169039661e-20  5.568221005994325e-18  2.590039773602807e-01
-6.635606417595526e-01  2.590039773602807e-01  8.478183530412315e-18

 7.873413063125503e-18 -5.924928438482817e-20 -6.635607100568615e-01
-5.924928438482817e-20  5.568223056780485e-18  2.590074951067301e-01
-6.635607100568615e-01  2.590074951067301e-01  8.478184341121194e-18

 7.873412257553436e-18 -5.918726813133954e-20 -6.635607781284385e-01
-5.918726813133954e-20  5.568225181552579e-18  2.590110072759702e-01
-6.635607781284385e-01  2.590110072759702e-01  8.478185149155855e-18

 7.873411454705864e-18 -5.912531211069037e-20 -6.635608459749023e-01
-5.912531211069037e-20  5.568227494286424e-18  2.590145155675990e-01
-6.635608459749023e-01  2.590145155675990e-01  8.478185954523800e-18

 7.873410654577463e-18 -5.906346023896957e-20 -6.635609135968683e-01
-5.906346023896957e-20  5.568229587278545e-18  2.590180183627277e-01
-6.635609135968683e-01  2.590180183627277e-01  8.478186757232365e-18

 7.873409857163153e-18 -5.900167046173091e-20 -6.635609809949471e-01
-5.900167046173091e-20  5.568231694591427e-18  2.590215173611106e-01
-6.635609809949471e-01  2.590215173611106e-01  8.478187557288910e-18

 7.873409062457953e-18 -5.893996582663938e-20 -6.635610481697400e-01
-5.893996582663938e-20  5.568233811294359e-18  2.590250113586874e-01
-6.635610481697400e-01  2.590250113586874e-01  8.478188354700658e-18

 7.873408270457012e-18 -5.887835330993653e-20 -6.635611151218459e-01
-5.887835330993653e-20  5.568235967382554e-18  2.590285003959849e-01
-6.635611151218459e-01  2.590285003959849e-01  8.478189149474786e-18

 7.873407481155708e-18 -5.881679830281918e-20 -6.635611818518550e-01
-5.881679830281918e-20  5.568238111336023e-18  2.590319857584979e-01
-6.635611818518550e-01  2.590319857584979e-01  8.478189941618437e-18

 7.873406694549530e-18 -5.875534043690101e-20 -6.635612483603547e-01
-5.875534043690101e-20  5.568240240148948e-18  2.590354658273501e-01
-6.635612483603547e-01  2.590354658273501e-01  8.478190731138645e-18

 7.873405910634162e-18 -5.869394084711697e-20 -6.635613146479228e-01
-5.869394084711697e-20  5.568242348483952e-18  2.590389423028291e-01
-6.635613146479228e-01  2.590389423028291e-01  8.478191518042411e-18

 7.873405129405474e-18 -5.863263561274874e-20 -6.635613807151348e-01
-5.863263561274874e-20  5.568244399297163e-18  2.590424135664770e-01
-6.635613807151348e-01  2.590424135664770e-01  8.478192302336631e-18

 7.873404350859457e-18 -5.857138797908438e-20 -6.635614465625578e-01
-5.857138797908438e-20  5.568246447843508e-18  2.590458813186376e-01
-6.635614465625578e-01  2.590458813186376e-01  8.478193084028204e-18

 7.873403574992357e-18 -5.851023539654891e-20 -6.635615121907549e-01
-5.851023539654891e-20  5.568248591778905e-18  2.590493439411019e-01
-6.635615121907549e-01  2.590493439411019e-01  8.478193863123868e-18

 7.873402801800557e-18 -5.844913265438847e-20 -6.635615776002821e-01
-5.844913265438847e-20  5.568250663344475e-18  2.590528031343189e-01
-6.635615776002821e-01  2.590528031343189e-01  8.478194639630402e-18

 7.873402031280664e-18 -5.838812811659668e-20 -6.635616427916916e-01
-5.838812811659668e-20  5.568252689201613e-18  2.590562572802308e-01
-6.635616427916916e-01  2.590562572802308e-01  8.478195413554431e-18

 7.873401263429466e-18 -5.832717467485014e-20 -6.635617077655257e-01
-5.832717467485014e-20  5.568254806650464e-18  2.590597080794356e-01
-6.635617077655257e-01  2.590597080794356e-01  8.478196184902584e-18

 7.873400498243961e-18 -5.826630141284635e-20 -6.635617725223255e-01
-5.826630141284635e-20  5.568256940383489e-18  2.590631543288142e-01
-6.635617725223255e-01  2.590631543288142e-01  8.478196953681385e-18

 7.873399735721396e-18 -5.820550923384327e-20 -6.635618370626256e-01
-5.820550923384327e-20  5.568258797423494e-18  2.590665960700383e-01
-6.635618370626256e-01  2.590665960700383e-01  8.478197719897295e-18

 7.873398975859154e-18 -5.814476841283880e-20 -6.635619013869510e-01
-5.814476841283880e-20  5.568260910293458e-18  2.590700345891124e-01
-6.635619013869510e-01  2.590700345891124e-01  8.478198483556768e-18

 7.873398218654943e-18 -5.808411824748921e-20 -6.635619654958252e-01
-5.808411824748921e-20  5.568262977291098e-18  2.590734682683657e-01
-6.635619654958252e-01  2.590734682683657e-01  8.478199244666096e-18

 7.873397464106657e-18 -5.802351542666709e-20 -6.635620293897644e-01
-5.802351542666709e-20  5.568264975020785e-18  2.590768988087904e-01
-6.635620293897644e-01  2.590768988087904e-01  8.478200003231638e-18

 7.873396712212455e-18 -5.796299919079032e-20 -6.635620930692796e-01
-5.796299919079032e-20  5.568266975456484e-18  2.590803245931563e-01
-6.635620930692796e-01  2.590803245931563e-01  8.478200759259569e-18

 7.873395962970705e-18 -5.790253239514393e-20 -6.635621565348749e-01
-5.790253239514393e-20  5.568269085031391e-18  2.590837473225759e-01
-6.635621565348749e-01  2.590837473225759e-01  8.478201512756084e-18

 7.873395216380099e-18 -5.784215161076402e-20 -6.635622197870498e-01
-5.784215161076402e-20  5.568271079009165e-18  2.590871653796399e-01
-6.635622197870498e-01  2.590871653796399e-01  8.478202263727279e-18

 7.873394472439558e-18 -5.778181623104474e-20 -6.635622828262981e-01
-5.778181623104474e-20  5.568273024215339e-18  2.590905804661748e-01
-6.635622828262981e-01  2.590905804661748e-01  8.478203012179219e-18

 7.873393731148330e-18 -5.772155824946200e-20 -6.635623456531072e-01
-5.772155824946200e-20  5.568274950525403e-18  2.590939913796091e-01
-6.635623456531072e-01  2.590939913796091e-01  8.478203758117891e-18

 7.873392992505883e-18 -5.766137220013688e-20 -6.635624082679599e-01
-5.766137220013688e-20  5.568277049838072e-18  2.590973981621956e-01
-6.635624082679599e-01  2.590973981621956e-01  8.478204501549186e-18

 7.873392256512106e-18 -5.760122920510003e-20 -6.635624706713320e-01
-5.760122920510003e-20  5.568279070992671e-18  2.591008021010471e-01
-6.635624706713320e-01  2.591008021010471e-01  8.478205242479057e-18

 7.873391523167064e-18 -5.754117098379601e-20 -6.635625328636954e-01
-5.754117098379601e-20  5.568280935273879e-18  2.591042015791125e-01
-6.635625328636954e-01  2.591042015791125e-01  8.478205980913243e-18

 7.873390792471312e-18 -5.748115413890684e-20 -6.635625948455144e-01
-5.748115413890684e-20  5.568282985831680e-18  2.591075982986016e-01
-6.635625948455144e-01  2.591075982986016e-01  8.478206716857566e-18

 7.873390064425656e-18 -5.742121689641540e-20 -6.635626566172490e-01
-5.742121689641540e-20  5.568284948570604e-18  2.591109906427077e-01
-6.635626566172490e-01  2.591109906427077e-01  8.478207450317676e-18

 7.873389339031250e-18 -5.736132199105961e-20 -6.635627181793540e-01
-5.736132199105961e-20  5.568286986471769e-18  2.591143803134699e-01
-6.635627181793540e-01  2.591143803134699e-01  8.478208181299283e-18

 7.873388616289723e-18 -5.730150580118366e-20 -6.635627795322764e-01
-5.730150580118366e-20  5.568288714055318e-18  2.591177656945868e-01
-6.635627795322764e-01  2.591177656945868e-01  8.478208909807931e-18

 7.873387896202968e-18 -5.724172813578527e-20 -6.635628406764610e-01
-5.724172813578527e-20  5.568290659149413e-18  2.591211484883535e-01
-6.635628406764610e-01  2.591211484883535e-01  8.478209635849193e-18

 7.873387178773472e-18 -5.718203025551630e-20 -6.635629016123434e-01
-5.718203025551630e-20  5.568292504967743e-18  2.591245270784443e-01
-6.635629016123434e-01  2.591245270784443e-01  8.478210359428551e-18

 7.873386464003944e-18 -5.712236803321743e-20 -6.635629623403569e-01
-5.712236803321743e-20  5.568294542034089e-18  2.591279031674014e-01
-6.635629623403569e-01  2.591279031674014e-01  8.478211080551435e-18

 7.873385751897735e-18 -5.706277425438036e-20 -6.635630228609251e-01
-5.706277425438036e-20  5.568296609935839e-18  2.591312755540628e-01
-6.635630228609251e-01  2.591312755540628e-01  8.478211799223237e-18

 7.873385042458578e-18 -5.700324467313524e-20 -6.635630831744728e-01
-5.700324467313524e-20  5.568298372592275e-18  2.591346442817167e-01
-6.635630831744728e-01  2.591346442817167e-01  8.478212515449289e-18

 7.873384335690686e-18 -5.694375252317264e-20 -6.635631432814098e-01
-5.694375252317264e-20  5.568300405688528e-18  2.591380106384858e-01
-6.635631432814098e-01  2.591380106384858e-01  8.478213229234881e-18

 7.873383631598939e-18 -5.688433210943291e-20 -6.635632031821505e-01
-5.688433210943291e-20  5.568302210894139e-18  2.591413730083628e-01
-6.635632031821505e-01  2.591413730083628e-01  8.478213940585269e-18

 7.873382930188598e-18 -5.682494624099610e-20 -6.635632628770958e-01
-5.682494624099610e-20  5.568304172503337e-18  2.591447330947467e-01
-6.635632628770958e-01  2.591447330947467e-01  8.478214649505627e-18

 7.873382231465611e-18 -5.676563176237556e-20 -6.635633223666453e-01
-5.676563176237556e-20  5.568306030947734e-18  2.591480892817615e-01
-6.635633223666453e-01  2.591480892817615e-01  8.478215356001088e-18

 7.873381535436514e-18 -5.670634993179588e-20 -6.635633816511919e-01
-5.670634993179588e-20  5.568307947701961e-18  2.591514432728066e-01
-6.635633816511919e-01  2.591514432728066e-01  8.478216060076807e-18

 7.873380842108513e-18 -5.664713974504409e-20 -6.635634407311232e-01
-5.664713974504409e-20  5.568309713582909e-18  2.591547934524470e-01
-6.635634407311232e-01  2.591547934524470e-01  8.478216761737789e-18

 7.873380151489430e-18 -5.658795964317919e-20 -6.635634996068202e-01
-5.658795964317919e-20  5.568311679773910e-18  2.591581415241899e-01
-6.635634996068202e-01  2.591581415241899e-01  8.478217460989084e-18

 7.873379463587906e-18 -5.652883980258040e-20 -6.635635582786609e-01
-5.652883980258040e-20  5.568313414959201e-18  2.591614862876708e-01
-6.635635582786609e-01  2.591614862876708e-01  8.478218157835656e-18

 7.873378778413262e-18 -5.646977660745810e-20 -6.635636167470156e-01
-5.646977660745810e-20  5.568315395076934e-18  2.591648277873116e-01
-6.635636167470156e-01  2.591648277873116e-01  8.478218852282454e-18

 7.873378095975674e-18 -5.641074280695916e-20 -6.635636750122488e-01
-5.641074280695916e-20  5.568317192099057e-18  2.591681673120672e-01
-6.635636750122488e-01  2.591681673120672e-01  8.478219544334387e-18

 7.873377416286120e-18 -5.635177452026694e-20 -6.635637330747226e-01
-5.635177452026694e-20  5.568318865154741e-18  2.591715032469151e-01
-6.635637330747226e-01  2.591715032469151e-01  8.478220233996300e-18

 7.873376739356549e-18 -5.629283428377582e-20 -6.635637909347885e-01
-5.629283428377582e-20  5.568320865932302e-18  2.591748372958984e-01
-6.635637909347885e-01  2.591748372958984e-01  8.478220921273069e-18

 7.873376065199751e-18 -5.623395920537998e-20 -6.635638485927995e-01
-5.623395920537998e-20  5.568322694334118e-18  2.591781678447455e-01
-6.635638485927995e-01  2.591781678447455e-01  8.478221606169459e-18

 7.873375393829658e-18 -5.617510892204132e-20 -6.635639060490955e-01
-5.617510892204132e-20  5.568324474141805e-18  2.591814965972416e-01
-6.635639060490955e-01  2.591814965972416e-01  8.478222288690283e-18

 7.873374725261223e-18 -5.611632122376337e-20 -6.635639633040177e-01
-5.611632122376337e-20  5.568326327312437e-18  2.591848219391149e-01
-6.635639633040177e-01  2.591848219391149e-01  8.478222968840268e-18

 7.873374059510468e-18 -5.605755833492361e-20 -6.635640203578965e-01
-5.605755833492361e-20  5.568327965522911e-18  2.591881455749586e-01
-6.635640203578965e-01  2.591881455749586e-01  8.478223646624155e-18

 7.873373396594730e-18 -5.599885483204854e-20 -6.635640772110619e-01
-5.599885483204854e-20  5.568329815799120e-18  2.591914658903314e-01
-6.635640772110619e-01  2.591914658903314e-01  8.478224322046652e-18

 7.873372736532575e-18 -5.594017592707338e-20 -6.635641338638333e-01
-5.594017592707338e-20  5.568331707640689e-18  2.591947845903388e-01
-6.635641338638333e-01  2.591947845903388e-01  8.478224995112448e-18

 7.873372079410672e-18 -5.588154507873640e-20 -6.635641903165348e-01
-5.588154507873640e-20  5.568333529556572e-18  2.591981004754128e-01
-6.635641903165348e-01  2.591981004754128e-01  8.478225665828872e-18

 7.873371425120304e-18 -5.582296235504346e-20 -6.635642465694651e-01
-5.582296235504346e-20  5.568335182391872e-18  2.592014135911909e-01
-6.635642465694651e-01  2.592014135911909e-01  8.478226334195422e-18

 7.873370773748004e-18 -5.576440148310020e-20 -6.635643026229355e-01
-5.576440148310020e-20  5.568336949795204e-18  2.592047252279256e-01
-6.635643026229355e-01  2.592047252279256e-01  8.478227000219289e-18

 7.873370125318413e-18 -5.570590054169953e-20 -6.635643584772470e-01
-5.570590054169953e-20  5.568338847865751e-18  2.592080337720187e-01
-6.635643584772470e-01  2.592080337720187e-01  8.478227663905112e-18

 7.873369479857905e-18 -5.564741334086612e-20 -6.635644141326941e-01
-5.564741334086612e-20  5.568340528470995e-18  2.592113409285189e-01
-6.635644141326941e-01  2.592113409285189e-01  8.478228325257596e-18

 7.873368837394759e-18 -5.558898359112361e-20 -6.635644695895667e-01
-5.558898359112361e-20  5.568342277638195e-18  2.592146450842858e-01
-6.635644695895667e-01  2.592146450842858e-01  8.478228984281338e-18

 7.873368197959236e-18 -5.553056684937777e-20 -6.635645248481488e-01
-5.553056684937777e-20  5.568343930101841e-18  2.592179479446499e-01
-6.635645248481488e-01  2.592179479446499e-01  8.478229640981086e-18

 7.873367561583858e-18 -5.547220694903600e-20 -6.635645799087189e-01
-5.547220694903600e-20  5.568345709075181e-18  2.592212478964146e-01
-6.635645799087189e-01  2.592212478964146e-01  8.478230295361486e-18

 7.873366928303279e-18 -5.541386273545833e-20 -6.635646347715510e-01
-5.541386273545833e-20  5.568347403827029e-18  2.592245466453533e-01
-6.635646347715510e-01  2.592245466453533e-01  8.478230947427284e-18

 7.873366298154811e-18 -5.535555804643906e-20 -6.635646894369124e-01
-5.535555804643906e-20  5.568349196590207e-18  2.592278429935119e-01
-6.635646894369124e-01  2.592278429935119e-01  8.478231597183192e-18

 7.873365671178270e-18 -5.529729611306349e-20 -6.635647439050675e-01
-5.529729611306349e-20  5.568350847910766e-18  2.592311369871665e-01
-6.635647439050675e-01  2.592311369871665e-01  8.478232244634019e-18

 7.873365047416392e-18 -5.523904555837315e-20 -6.635647981762717e-01
-5.523904555837315e-20  5.568352539932677e-18  2.592344299178547e-01
-6.635647981762717e-01  2.592344299178547e-01  8.478232889784597e-18

 7.873364426914960e-18 -5.518084635600294e-20 -6.635648522507791e-01
-5.518084635600294e-20  5.568354203530233e-18  2.592377201727417e-01
-6.635648522507791e-01  2.592377201727417e-01  8.478233532639767e-18

 7.873363809722968e-18 -5.512265522996369e-20 -6.635649061288338e-01
-5.512265522996369e-20  5.568355962373826e-18  2.592410094583126e-01
-6.635649061288338e-01  2.592410094583126e-01  8.478234173204504e-18

 7.873363195893070e-18 -5.506451355097855e-20 -6.635649598106803e-01
-5.506451355097855e-20  5.568357601082128e-18  2.592442961620876e-01
-6.635649598106803e-01  2.592442961620876e-01  8.478234811483789e-18

 7.873362585481585e-18 -5.500638023050368e-20 -6.635650132965519e-01
-5.500638023050368e-20  5.568359448804968e-18  2.592475819908348e-01
-6.635650132965519e-01  2.592475819908348e-01  8.478235447482740e-18

 7.873361978548968e-18 -5.494828962846510e-20 -6.635650665866816e-01
-5.494828962846510e-20  5.568360985588523e-18  2.592508653321832e-01
-6.635650665866816e-01  2.592508653321832e-01  8.478236081206490e-18

 7.873361375160100e-18 -5.489020860922576e-20 -6.635651196812934e-01
-5.489020860922576e-20  5.568362575804777e-18  2.592541478932376e-01
-6.635651196812934e-01  2.592541478932376e-01  8.478236712660380e-18

 7.873360775384595e-18 -5.483217113528877e-20 -6.635651725806073e-01
-5.483217113528877e-20  5.568364359369822e-18  2.592574280619662e-01
-6.635651725806073e-01  2.592574280619662e-01  8.478237341849743e-18

 7.873360179297172e-18 -5.477414052783784e-20 -6.635652252848395e-01
-5.477414052783784e-20  5.568366016076051e-18  2.592607075455646e-01
-6.635652252848395e-01  2.592607075455646e-01  8.478237968780178e-18

 7.873359586978180e-18 -5.471613796227565e-20 -6.635652777941982e-01
-5.471613796227565e-20  5.568367695146795e-18  2.592639851471668e-01
-6.635652777941982e-01  2.592639851471668e-01  8.478238593457327e-18

 7.873358998513846e-18 -5.465817002550817e-20 -6.635653301088883e-01
-5.465817002550817e-20  5.568369270606909e-18  2.592672609146523e-01
-6.635653301088883e-01  2.592672609146523e-01  8.478239215887049e-18

 7.873358413996978e-18 -5.460020453094445e-20 -6.635653822291088e-01
-5.460020453094445e-20  5.568370932572604e-18  2.592705361409372e-01
-6.635653822291088e-01  2.592705361409372e-01  8.478239836075369e-18

 7.873357833527402e-18 -5.454227871178125e-20 -6.635654341550532e-01
-5.454227871178125e-20  5.568372578125753e-18  2.592738092145372e-01
-6.635654341550532e-01  2.592738092145372e-01  8.478240454028525e-18

 7.873357257212558e-18 -5.448434979256062e-20 -6.635654858869093e-01
-5.448434979256062e-20  5.568374098042011e-18  2.592770818431376e-01
-6.635654858869093e-01  2.592770818431376e-01  8.478241069752993e-18

 7.873356685168176e-18 -5.442646175670081e-20 -6.635655374248615e-01
-5.442646175670081e-20  5.568375626963883e-18  2.592803524161811e-01
-6.635655374248615e-01  2.592803524161811e-01  8.478241683255473e-18

 7.873356117518917e-18 -5.436857005589695e-20 -6.635655887690866e-01
-5.436857005589695e-20  5.568377329122154e-18  2.592836226411462e-01
-6.635655887690866e-01  2.592836226411462e-01  8.478242294542985e-18

 7.873355554399353e-18 -5.431071616496523e-20 -6.635656399197583e-01
-5.431071616496523e-20  5.568378748764021e-18  2.592868909077115e-01
-6.635656399197583e-01  2.592868909077115e-01  8.478242903622829e-18

 7.873354995954537e-18 -5.425285686138179e-20 -6.635656908770418e-01
-5.425285686138179e-20  5.568380484748381e-18  2.592901589242052e-01
-6.635656908770418e-01  2.592901589242052e-01  8.478243510502650e-18

 7.873354442341250e-18 -5.419502392690580e-20 -6.635657416411013e-01
-5.419502392690580e-20  5.568382044139781e-18  2.592934254947781e-01
-6.635657416411013e-01  2.592934254947781e-01  8.478244115190496e-18

 7.873353893728797e-18 -5.413721272375703e-20 -6.635657922120934e-01
-5.413721272375703e-20  5.568383582063245e-18  2.592966906687662e-01
-6.635657922120934e-01  2.592966906687662e-01  8.478244717694822e-18

 7.873353350300308e-18 -5.407939252979597e-20 -6.635658425901685e-01
-5.407939252979597e-20  5.568385018336021e-18  2.592999557401229e-01
-6.635658425901685e-01  2.592999557401229e-01  8.478245318024554e-18

 7.873352812253984e-18 -5.402160817297609e-20 -6.635658927754744e-01
-5.402160817297609e-20  5.568386703984288e-18  2.593032190986924e-01
-6.635658927754744e-01  2.593032190986924e-01  8.478245916189122e-18

 7.873352279804512e-18 -5.396381173132758e-20 -6.635659427681508e-01
-5.396381173132758e-20  5.568388258324849e-18  2.593064824536453e-01
-6.635659427681508e-01  2.593064824536453e-01  8.478246512198544e-18

 7.873351753184534e-18 -5.390604592593017e-20 -6.635659925683348e-01
-5.390604592593017e-20  5.568389575046778e-18  2.593097441951938e-01
-6.635659925683348e-01  2.593097441951938e-01  8.478247106063438e-18

 7.873351232646452e-18 -5.384826667216197e-20 -6.635660421761560e-01
-5.384826667216197e-20  5.568391141322797e-18  2.593130060328179e-01
-6.635660421761560e-01  2.593130060328179e-01  8.478247697795163e-18

 7.873350718464328e-18 -5.379051933837191e-20 -6.635660915917414e-01
-5.379051933837191e-20  5.568392677495399e-18  2.593162663571159e-01
-6.635660915917414e-01  2.593162663571159e-01  8.478248287405773e-18

 7.873350210935938e-18 -5.373275406972354e-20 -6.635661408152089e-01
-5.373275406972354e-20  5.568394110562377e-18  2.593195268776384e-01
-6.635661408152089e-01  2.593195268776384e-01  8.478248874908256e-18

 7.873349710385212e-18 -5.367501610598795e-20 -6.635661898466754e-01
-5.367501610598795e-20  5.568395693758738e-18  2.593227859854693e-01
-6.635661898466754e-01  2.593227859854693e-01  8.478249460316457e-18

 7.873349217164675e-18 -5.361726601617835e-20 -6.635662386862506e-01
-5.361726601617835e-20  5.568397147179960e-18  2.593260453907680e-01
-6.635662386862506e-01  2.593260453907680e-01  8.478250043645342e-18

 7.873348731658585e-18 -5.355952395102350e-20 -6.635662873340381e-01
-5.355952395102350e-20  5.568398562119905e-18  2.593293038995421e-01
-6.635662873340381e-01  2.593293038995421e-01  8.478250624910974e-18

 7.873348254285836e-18 -5.350179666885925e-20 -6.635663357901382e-01
-5.350179666885925e-20  5.568399942879513e-18  2.593325615626751e-01
-6.635663357901382e-01  2.593325615626751e-01  8.478251204130695e-18

 7.873347785503821e-18 -5.344405185683299e-20 -6.635663840546447e-01
-5.344405185683299e-20  5.568401485914120e-18  2.593358196760315e-01
-6.635663840546447e-01  2.593358196760315e-01  8.478251781323277e-18

 7.873347325812275e-18 -5.338632506602803e-20 -6.635664321276462e-01
-5.338632506602803e-20  5.568402912707689e-18  2.593390766314912e-01
-6.635664321276462e-01  2.593390766314912e-01  8.478252356509033e-18

 7.873346875757786e-18 -5.332857894550881e-20 -6.635664800092266e-01
-5.332857894550881e-20  5.568404275331611e-18  2.593423341399732e-01
-6.635664800092266e-01  2.593423341399732e-01  8.478252929710061e-18

 7.873346435938674e-18 -5.327084907012245e-20 -6.635665276994653e-01
-5.327084907012245e-20  5.568405515179285e-18  2.593455905937254e-01
-6.635665276994653e-01  2.593455905937254e-01  8.478253500950318e-18

 7.873346007010696e-18 -5.321309880417680e-20 -6.635665751984349e-01
-5.321309880417680e-20  5.568406953651473e-18  2.593488477044087e-01
-6.635665751984349e-01  2.593488477044087e-01  8.478254070255974e-18

 7.873345589693099e-18 -5.315536211047021e-20 -6.635666225062042e-01
-5.315536211047021e-20  5.568408338088098e-18  2.593521038645066e-01
-6.635666225062042e-01  2.593521038645066e-01  8.478254637655523e-18

 7.873345184775581e-18 -5.309760202975333e-20 -6.635666696228366e-01
-5.309760202975333e-20  5.568409737578124e-18  2.593553607861096e-01
-6.635666696228366e-01  2.593553607861096e-01  8.478255203180145e-18

 7.873344793126166e-18 -5.303984574246665e-20 -6.635667165483893e-01
-5.303984574246665e-20  5.568411060844068e-18  2.593586172773038e-01
-6.635667165483893e-01  2.593586172773038e-01  8.478255766863933e-18

 7.873344415699646e-18 -5.298208944748449e-20 -6.635667632829155e-01
-5.298208944748449e-20  5.568412264966067e-18  2.593618733909927e-01
-6.635667632829155e-01  2.593618733909927e-01  8.478256328744286e-18

 7.873344053547499e-18 -5.292430946184404e-20 -6.635668098264620e-01
-5.292430946184404e-20  5.568413675860649e-18  2.593651304251579e-01
-6.635668098264620e-01  2.593651304251579e-01  8.478256888862239e-18

 7.873343707828594e-18 -5.286653494496235e-20 -6.635668561790723e-01
-5.286653494496235e-20  5.568414963653221e-18  2.593683867738247e-01
-6.635668561790723e-01  2.593683867738247e-01  8.478257447262900e-18

 7.873343379821422e-18 -5.280873100206993e-20 -6.635669023407835e-01
-5.280873100206993e-20  5.568416128144235e-18  2.593716441503245e-01
-6.635669023407835e-01  2.593716441503245e-01  8.478258003995908e-18

 7.873343070937574e-18 -5.275093763950767e-20 -6.635669483116269e-01
-5.275093763950767e-20  5.568417458949161e-18  2.593749009494501e-01
-6.635669483116269e-01  2.593749009494501e-01  8.478258559115976e-18

 7.873342782736915e-18 -5.269311025404061e-20 -6.635669940916303e-01
-5.269311025404061e-20  5.568418574762627e-18  2.593781588853005e-01
-6.635669940916303e-01  2.593781588853005e-01  8.478259112683431e-18

 7.873342516944496e-18 -5.263529126374647e-20 -6.635670396808150e-01
-5.263529126374647e-20  5.568419870930906e-18  2.593814163532027e-01
-6.635670396808150e-01  2.593814163532027e-01  8.478259664764899e-18

 7.873342275469361e-18 -5.257743533423451e-20 -6.635670850791985e-01
-5.257743533423451e-20  5.568420972546684e-18  2.593846750681893e-01
-6.635670850791985e-01  2.593846750681893e-01  8.478260215434051e-18

 7.873342060425350e-18 -5.251958427829576e-20 -6.635671302867922e-01
-5.251958427829576e-20  5.568422010833695e-18  2.593879334266578e-01
-6.635671302867922e-01  2.593879334266578e-01  8.478260764772316e-18

 7.873341874154276e-18 -5.246169835530934e-20 -6.635671753036010e-01
-5.246169835530934e-20  5.568423223998672e-18  2.593911931443958e-01
-6.635671753036010e-01  2.593911931443958e-01  8.478261312869850e-18

 7.873341719251418e-18 -5.240380566920498e-20 -6.635672201296283e-01
-5.240380566920498e-20  5.568424262253794e-18  2.593944530336472e-01
-6.635672201296283e-01  2.593944530336472e-01  8.478261859826538e-18

 7.873341598593425e-18 -5.234590705995366e-20 -6.635672647648694e-01
-5.234590705995366e-20  5.568425313903268e-18  2.593977131518200e-01
-6.635672647648694e-01  2.593977131518200e-01  8.478262405752938e-18

 7.873341515368690e-18 -5.228796720107071e-20 -6.635673092093156e-01
-5.228796720107071e-20  5.568426088927773e-18  2.594009748015266e-01
-6.635673092093156e-01  2.594009748015266e-01  8.478262950771628e-18

 7.873341473110216e-18 -5.223003464970920e-20 -6.635673534629519e-01
-5.223003464970920e-20  5.568427145577902e-18  2.594042363821513e-01
-6.635673534629519e-01  2.594042363821513e-01  8.478263495018289e-18

 7.873341475730380e-18 -5.217206187047147e-20 -6.635673975257600e-01
-5.217206187047147e-20  5.568428017366963e-18  2.594074996124031e-01
-6.635673975257600e-01  2.594074996124031e-01  8.478264038643200e-18

 7.873341527557546e-18 -5.211409302394399e-20 -6.635674413977163e-01
-5.211409302394399e-20  5.568428754208061e-18  2.594107628932872e-01
-6.635674413977163e-01  2.594107628932872e-01  8.478264581812549e-18

 7.873341633373077e-18 -5.205609265491921e-20 -6.635674850787890e-01
-5.205609265491921e-20  5.568429616050472e-18  2.594140279452473e-01
-6.635674850787890e-01  2.594140279452473e-01  8.478265124709880e-18

 7.873341798447959e-18 -5.199809534154491e-20 -6.635675285689461e-01
-5.199809534154491e-20  5.568430325969861e-18  2.594172931709076e-01
-6.635675285689461e-01  2.594172931709076e-01  8.478265667537504e-18

 7.873342028576322e-18 -5.194006825717532e-20 -6.635675718681462e-01
-5.194006825717532e-20  5.568430978776542e-18  2.594205602929235e-01
-6.635675718681462e-01  2.594205602929235e-01  8.478266210517811e-18

 7.873342330103174e-18 -5.188204279529868e-20 -6.635676149763458e-01
-5.188204279529868e-20  5.568431500911678e-18  2.594238281309417e-01
-6.635676149763458e-01  2.594238281309417e-01  8.478266753894288e-18

 7.873342709941623e-18 -5.182402119213116e-20 -6.635676578934950e-01
-5.182402119213116e-20  5.568431950131412e-18  2.594270967508228e-01
-6.635676578934950e-01  2.594270967508228e-01  8.478267297932235e-18

 7.873343175572978e-18 -5.176598425434888e-20 -6.635677006195376e-01
-5.176598425434888e-20  5.568432357738952e-18  2.594303674638456e-01
-6.635677006195376e-01  2.594303674638456e-01  8.478267842918716e-18

 7.873343735020961e-18 -5.170797331334945e-20 -6.635677431544149e-01
-5.170797331334945e-20  5.568432748806648e-18  2.594336386794619e-01
-6.635677431544149e-01  2.594336386794619e-01  8.478268389161622e-18

 7.873344396787268e-18 -5.164996243487940e-20 -6.635677854980614e-01
-5.164996243487940e-20  5.568432932341222e-18  2.594369121276641e-01
-6.635677854980614e-01  2.594369121276641e-01  8.478268936987149e-18

 7.873345169731285e-18 -5.159199694354423e-20 -6.635678276504074e-01
-5.159199694354423e-20  5.568433007126417e-18  2.594401862216433e-01
-6.635678276504074e-01  2.594401862216433e-01  8.478269486735194e-18

 7.873346062870818e-18 -5.153405029249698e-20 -6.635678696113768e-01
-5.153405029249698e-20  5.568432857493366e-18  2.594434626958498e-01
-6.635678696113768e-01  2.594434626958498e-01  8.478270038751682e-18

 7.873347085072564e-18 -5.147618495839550e-20 -6.635679113808901e-01
-5.147618495839550e-20  5.568432705110501e-18  2.594467399692249e-01
-6.635679113808901e-01  2.594467399692249e-01  8.478270593376657e-18

 7.873348244591746e-18 -5.141837801715914e-20 -6.635679529588608e-01
-5.141837801715914e-20  5.568432468243847e-18  2.594500197828818e-01
-6.635679529588608e-01  2.594500197828818e-01  8.478271150926581e-18

 7.873349548408245e-18 -5.136069472133867e-20 -6.635679943452000e-01
-5.136069472133867e-20  5.568432132629834e-18  2.594533005634388e-01
-6.635679943452000e-01  2.594533005634388e-01  8.478271711668827e-18

 7.873351001292961e-18 -5.130311989297294e-20 -6.635680355398111e-01
-5.130311989297294e-20  5.568431299997633e-18  2.594565840625135e-01
-6.635680355398111e-01  2.594565840625135e-01  8.478272275785731e-18

 7.873352604524442e-18 -5.124572619340586e-20 -6.635680765425941e-01
-5.124572619340586e-20  5.568430639387851e-18  2.594598691354085e-01
-6.635680765425941e-01  2.594598691354085e-01  8.478272843325228e-18

 7.873354354162708e-18 -5.118855066068928e-20 -6.635681173534428e-01
-5.118855066068928e-20  5.568429706395056e-18  2.594631558924262e-01
-6.635681173534428e-01  2.594631558924262e-01  8.478273414134478e-18

 7.873356238781372e-18 -5.113161208428797e-20 -6.635681579722463e-01
-5.113161208428797e-20  5.568428683500710e-18  2.594664457028863e-01
-6.635681579722463e-01  2.594664457028863e-01  8.478273987772688e-18

 7.873358236566253e-18 -5.107500368437976e-20 -6.635681983988894e-01
-5.107500368437976e-20  5.568427539219554e-18  2.594697370527903e-01
-6.635681983988894e-01  2.594697370527903e-01  8.478274563399403e-18

 7.873360311723813e-18 -5.101874438801469e-20 -6.635682386332513e-01
-5.101874438801469e-20  5.568426246699667e-18  2.594730317753535e-01
-6.635682386332513e-01  2.594730317753535e-01  8.478275139636500e-18

 7.873362410220367e-18 -5.096294027419684e-20 -6.635682786752055e-01
-5.096294027419684e-20  5.568424952020855e-18  2.594763284260089e-01
-6.635682786752055e-01  2.594763284260089e-01  8.478275714404211e-18

 7.873364455022997e-18 -5.090760814322761e-20 -6.635683185246218e-01
-5.090760814322761e-20  5.568423869222346e-18  2.594796289343378e-01
-6.635683185246218e-01  2.594796289343378e-01  8.478276284738133e-18

 7.873366341256773e-18 -5.085284669274313e-20 -6.635683581813638e-01
-5.085284669274313e-20  5.568422768485682e-18  2.594829319854552e-01
-6.635683581813638e-01  2.594829319854552e-01  8.478276846602953e-18

 7.873367932055591e-18 -5.079866393707511e-20 -6.635683976452904e-01
-5.079866393707511e-20  5.568422006198108e-18  2.594862392581920e-01
-6.635683976452904e-01  2.594862392581920e-01  8.478277394732863e-18

 7.873369056360019e-18 -5.074508438384361e-20 -6.635684369162562e-01
-5.074508438384361e-20  5.568421606386842e-18  2.594895507772717e-01
-6.635684369162562e-01  2.594895507772717e-01  8.478277922546874e-18

 7.873369510442171e-18 -5.069209265735297e-20 -6.635684759941095e-01
-5.069209265735297e-20  5.568421983235184e-18  2.594928667638894e-01
-6.635684759941095e-01  2.594928667638894e-01  8.478278422207449e-18

 7.873369065356519e-18 -5.063958267958051e-20 -6.635685148786945e-01
-5.063958267958051e-20  5.568423265119143e-18  2.594961888050034e-01
-6.635685148786945e-01  2.594961888050034e-01  8.478278884907091e-18

 7.873367482537109e-18 -5.058746809122628e-20 -6.635685535698492e-01
-5.058746809122628e-20  5.568425427330573e-18  2.594995145893512e-01
-6.635685535698492e-01  2.594995145893512e-01  8.478279301468181e-18

 7.873364538988271e-18 -5.053558567654222e-20 -6.635685920674091e-01
-5.053558567654222e-20  5.568429288212063e-18  2.595028418829649e-01
-6.635685920674091e-01  2.595028418829649e-01  8.478279663311979e-18

 7.873360061576898e-18 -5.048397184492876e-20 -6.635686303712035e-01
-5.048397184492876e-20  5.568434375956406e-18  2.595061556120697e-01
-6.635686303712035e-01  2.595061556120697e-01  8.478279963777373e-18

 7.873353966762354e-18 -5.043314853193350e-20 -6.635686684810521e-01
-5.043314853193350e-20  5.568441114363596e-18  2.595094178224235e-01
-6.635686684810521e-01  2.595094178224235e-01  8.478280199649131e-18

 7.873346298294495e-18 -5.038515983920691e-20 -6.635687063967770e-01
-5.038515983920691e-20  5.568449472024853e-18  2.595125238812856e-01
-6.635687063967770e-01  2.595125238812856e-01  8.478280372607712e-18

 7.873337252437952e-18 -5.034421914368868e-20 -6.635687441181919e-01
-5.034421914368868e-20  5.568459228701239e-18  2.595152782600605e-01
-6.635687441181919e-01  2.595152782600605e-01  8.478280490199483e-18

 7.873327180134713e-18 -5.031136699656254e-20 -6.635687816451048e-01
-5.031136699656254e-20  5.568469859639197e-18  2.595176213573838e-01
-6.635687816451048e-01  2.595176213573838e-01  8.478280565919864e-18

 7.873306859902771e-18  5.019365507338438e-20 -6.635688561146351e-01
 5.019365507338438e-20  5.568492528331213e-18  2.651567922140620e-01
-6.635688561146351e-01  2.651567922140620e-01  8.478280384046531e-18

 7.873317472844900e-18  5.026774456440312e-20 -6.635688189773199e-01
 5.026774456440312e-20  5.568481186707239e-18  2.651606925431027e-01
-6.635688189773199e-01  2.651606925431027e-01  8.478280335721596e-18

 7.873296799743987e-18  5.010881306635584e-20 -6.635688930568442e-01
 5.010881306635584e-20  5.568503113419239e-18  2.651525192954666e-01
-6.635688930568442e-01  2.651525192954666e-01  8.478280451223747e-18

 7.873287770656565e-18  5.003201706961614e-20 -6.635689298037386e-01
 5.003201706961614e-20  5.568512777062479e-18  2.651486556251473e-01
-6.635689298037386e-01  2.651486556251473e-01  8.478280555646296e-18

 7.873280123582840e-18  4.996230247117095e-20 -6.635689663550987e-01
 4.996230247117095e-20  5.568521083583832e-18  2.651451448081306e-01
-6.635689663550987e-01  2.651451448081306e-01  8.478280710809287e-18

 7.873274054788043e-18  4.989537719617145e-20 -6.635690027107028e-01
 4.989537719617145e-20  5.568527792102930e-18  2.651417878842156e-01
-6.635690027107028e-01  2.651417878842156e-01  8.478280924258632e-18

 7.873269608022534e-18  4.982926850335338e-20 -6.635690388703284e-01
 4.982926850335338e-20  5.568532984335965e-18  2.651384834269797e-01
-6.635690388703284e-01  2.651384834269797e-01  8.478281197674256e-18

 7.873266699746476e-18  4.976337984835210e-20 -6.635690748337424e-01
 4.976337984835210e-20  5.568536518281337e-18  2.651351900506562e-01
-6.635690748337424e-01  2.651351900506562e-01  8.478281527840232e-18

 7.873265156827605e-18  4.969774823509707e-20 -6.635691106007064e-01
 4.969774823509707e-20  5.568538839370845e-18  2.651318958877324e-01
-6.635691106007064e-01  2.651318958877324e-01  8.478281908094631e-18

 7.873264756271299e-18  4.963245417930008e-20 -6.635691461709811e-01
 4.963245417930008e-20  5.568539972035549e-18  2.651285952727702e-01
-6.635691461709811e-01  2.651285952727702e-01  8.478282329857790e-18

 7.873265259512584e-18  4.956766344892687e-20 -6.635691815443218e-01
 4.956766344892687e-20  5.568540065717577e-18  2.651252891007856e-01
-6.635691815443218e-01  2.651252891007856e-01  8.478282783951064e-18

 7.873266437607264e-18  4.950341154925595e-20 -6.635692167204750e-01
 4.950341154925595e-20  5.568539663521832e-18  2.651219759421654e-01
-6.635692167204750e-01  2.651219759421654e-01  8.478283261565802e-18

 7.873268086828716e-18  4.943973924773757e-20 -6.635692516991865e-01
 4.943973924773757e-20  5.568538580870354e-18  2.651186571499591e-01
-6.635692516991865e-01  2.651186571499591e-01  8.478283754863211e-18

 7.873270036118992e-18  4.937665562680341e-20 -6.635692864801924e-01
 4.937665562680341e-20  5.568537452897557e-18  2.651153338811092e-01
-6.635692864801924e-01  2.651153338811092e-01  8.478284257260885e-18

 7.873272148613562e-18  4.931407491803698e-20 -6.635693210632292e-01
 4.931407491803698e-20  5.568536174490516e-18  2.651120047976857e-01
-6.635693210632292e-01  2.651120047976857e-01  8.478284763491503e-18

 7.873274319439166e-18  4.925197783082998e-20 -6.635693554480249e-01
 4.925197783082998e-20  5.568534605468394e-18  2.651086717911044e-01
-6.635693554480249e-01  2.651086717911044e-01  8.478285269518160e-18

 7.873276471564710e-18  4.919026476693574e-20 -6.635693896343039e-01
 4.919026476693574e-20  5.568533142783534e-18  2.651053333597453e-01
-6.635693896343039e-01  2.651053333597453e-01  8.478285772374646e-18

 7.873278550958445e-18  4.912890924669082e-20 -6.635694236217844e-01
 4.912890924669082e-20  5.568531830454872e-18  2.651019912652142e-01
-6.635694236217844e-01  2.651019912652142e-01  8.478286269979372e-18

 7.873280521828848e-18  4.906780981182520e-20 -6.635694574101801e-01
 4.906780981182520e-20  5.568530418648467e-18  2.650986439095812e-01
-6.635694574101801e-01  2.650986439095812e-01  8.478286760952197e-18

 7.873282362363938e-18  4.900695364709263e-20 -6.635694909992019e-01
 4.900695364709263e-20  5.568529455301600e-18  2.650952929849673e-01
-6.635694909992019e-01  2.650952929849673e-01  8.478287244450597e-18

 7.873284061139604e-18  4.894624766436639e-20 -6.635695243885517e-01
 4.894624766436639e-20  5.568528521967625e-18  2.650919368444732e-01
-6.635695243885517e-01  2.650919368444732e-01  8.478287720031510e-18

 7.873285614218249e-18  4.888567785477728e-20 -6.635695575779316e-01
 4.888567785477728e-20  5.568527512123510e-18  2.650885767305032e-01
-6.635695575779316e-01  2.650885767305032e-01  8.478288187539792e-18

 7.873287022880975e-18  4.882521011345473e-20 -6.635695905670327e-01
 4.882521011345473e-20  5.568526868944472e-18  2.650852126304809e-01
-6.635695905670327e-01  2.650852126304809e-01  8.478288647020871e-18

 7.873288291901293e-18  4.876477891770009e-20 -6.635696233555467e-01
 4.876477891770009e-20  5.568526228165785e-18  2.650818432796379e-01
-6.635696233555467e-01  2.650818432796379e-01  8.478289098654576e-18

 7.873289428261867e-18  4.870439979439492e-20 -6.635696559431566e-01
 4.870439979439492e-20  5.568525665972825e-18  2.650784703111604e-01
-6.635696559431566e-01  2.650784703111604e-01  8.478289542705509e-18

 7.873290440220783e-18  4.864401411903936e-20 -6.635696883295421e-01
 4.864401411903936e-20  5.568525354299465e-18  2.650750920349878e-01
-6.635696883295421e-01  2.650750920349878e-01  8.478289979487351e-18

 7.873291336647743e-18  4.858363763954689e-20 -6.635697205143768e-01
 4.858363763954689e-20  5.568525228633332e-18  2.650717100765846e-01
-6.635697205143768e-01  2.650717100765846e-01  8.478290409337187e-18

 7.873292126563648e-18  4.852321617167369e-20 -6.635697524973331e-01
 4.852321617167369e-20  5.568524939150633e-18  2.650683227393463e-01
-6.635697524973331e-01  2.650683227393463e-01  8.478290832597917e-18

 7.873292818831126e-18  4.846278101430831e-20 -6.635697842780724e-01
 4.846278101430831e-20  5.568525009485492e-18  2.650649316430025e-01
-6.635697842780724e-01  2.650649316430025e-01  8.478291249606223e-18

 7.873293421955259e-18  4.840227370028799e-20 -6.635698158562554e-01
 4.840227370028799e-20  5.568525076265341e-18  2.650615350866438e-01
-6.635698158562554e-01  2.650615350866438e-01  8.478291660685052e-18

 7.873293943963186e-18  4.834173253062603e-20 -6.635698472315378e-01
 4.834173253062603e-20  5.568525161225314e-18  2.650581346862060e-01
-6.635698472315378e-01  2.650581346862060e-01  8.478292066138836e-18

 7.873294392339832e-18  4.828110707915463e-20 -6.635698784035684e-01
 4.828110707915463e-20  5.568525330167126e-18  2.650547287371601e-01
-6.635698784035684e-01  2.650547287371601e-01  8.478292466251144e-18

 7.873294774002015e-18  4.822042189247375e-20 -6.635699093719932e-01
 4.822042189247375e-20  5.568525639072017e-18  2.650513184376695e-01
-6.635699093719932e-01  2.650513184376695e-01  8.478292861283615e-18

 7.873295095298575e-18  4.815966999392047e-20 -6.635699401364497e-01
 4.815966999392047e-20  5.568525986136188e-18  2.650479037399465e-01
-6.635699401364497e-01  2.650479037399465e-01  8.478293251475952e-18

 7.873295362027589e-18  4.809882000300081e-20 -6.635699706965765e-01
 4.809882000300081e-20  5.568526362000958e-18  2.650444833507213e-01
-6.635699706965765e-01  2.650444833507213e-01  8.478293637046683e-18

 7.873295579464091e-18  4.803790416607957e-20 -6.635700010520005e-01
 4.803790416607957e-20  5.568526568553799e-18  2.650410588792734e-01
-6.635700010520005e-01  2.650410588792734e-01  8.478294018194094e-18

 7.873295752393638e-18  4.797688697028419e-20 -6.635700312023493e-01
 4.797688697028419e-20  5.568527199340267e-18  2.650376286156445e-01
-6.635700312023493e-01  2.650376286156445e-01  8.478294395097612e-18

 7.873295885148898e-18  4.791579568724354e-20 -6.635700611472400e-01
 4.791579568724354e-20  5.568527595288297e-18  2.650341941675795e-01
-6.635700611472400e-01  2.650341941675795e-01  8.478294767919174e-18

 7.873295981646663e-18  4.785459681572604e-20 -6.635700908862925e-01
 4.785459681572604e-20  5.568528046925122e-18  2.650307538232636e-01
-6.635700908862925e-01  2.650307538232636e-01  8.478295136804710e-18

 7.873296045424477e-18  4.779332355089012e-20 -6.635701204191123e-01
 4.779332355089012e-20  5.568528707414442e-18  2.650273091892019e-01
-6.635701204191123e-01  2.650273091892019e-01  8.478295501885386e-18

 7.873296079675390e-18  4.773193369418157e-20 -6.635701497453094e-01
 4.773193369418157e-20  5.568529079849300e-18  2.650238585521368e-01
-6.635701497453094e-01  2.650238585521368e-01  8.478295863279202e-18

 7.873296087280829e-18  4.767045952865695e-20 -6.635701788644818e-01
 4.767045952865695e-20  5.568529691774874e-18  2.650204031023925e-01
-6.635701788644818e-01  2.650204031023925e-01  8.478296221092027e-18

 7.873296070840970e-18  4.760889855805367e-20 -6.635702077762262e-01
 4.760889855805367e-20  5.568530415961111e-18  2.650169427852759e-01
-6.635702077762262e-01  2.650169427852759e-01  8.478296575418839e-18

 7.873296032702669e-18  4.754721775180754e-20 -6.635702364801332e-01
 4.754721775180754e-20  5.568531012569945e-18  2.650134763010393e-01
-6.635702364801332e-01  2.650134763010393e-01  8.478296926344896e-18

 7.873295974984855e-18  4.748545618905791e-20 -6.635702649757885e-01
 4.748545618905791e-20  5.568531686110685e-18  2.650100052533627e-01
-6.635702649757885e-01  2.650100052533627e-01  8.478297273946505e-18

 7.873295899601848e-18  4.742357159033541e-20 -6.635702932627743e-01
 4.742357159033541e-20  5.568532161767878e-18  2.650065279267581e-01
-6.635702932627743e-01  2.650065279267581e-01  8.478297618292165e-18

 7.873295808284051e-18  4.736160845734803e-20 -6.635703213406642e-01
 4.736160845734803e-20  5.568533049960802e-18  2.650030459243792e-01
-6.635703213406642e-01  2.650030459243792e-01  8.478297959443176e-18

 7.873295702596849e-18  4.729951844302592e-20 -6.635703492090328e-01
 4.729951844302592e-20  5.568533576623935e-18  2.649995575300440e-01
-6.635703492090328e-01  2.649995575300440e-01  8.478298297454447e-18

 7.873295583957441e-18  4.723734521597387e-20 -6.635703768674442e-01
 4.723734521597387e-20  5.568534238695045e-18  2.649960643459566e-01
-6.635703768674442e-01  2.649960643459566e-01  8.478298632375116e-18

 7.873295453650052e-18  4.717504710163590e-20 -6.635704043154603e-01
 4.717504710163590e-20  5.568534861480733e-18  2.649925646556054e-01
-6.635704043154603e-01  2.649925646556054e-01  8.478298964249159e-18

 7.873295312839340e-18  4.711266389783212e-20 -6.635704315526395e-01
 4.711266389783212e-20  5.568535659384403e-18  2.649890600605938e-01
-6.635704315526395e-01  2.649890600605938e-01  8.478299293115898e-18

 7.873295162582803e-18  4.705015325257877e-20 -6.635704585785296e-01
 4.705015325257877e-20  5.568536404928022e-18  2.649855488438572e-01
-6.635704585785296e-01  2.649855488438572e-01  8.478299619010445e-18

 7.873295003841314e-18  4.698754480527006e-20 -6.635704853926822e-01
 4.698754480527006e-20  5.568537175126201e-18  2.649820321918736e-01
-6.635704853926822e-01  2.649820321918736e-01  8.478299941964182e-18

 7.873294837489080e-18  4.692483541665848e-20 -6.635705119946356e-01
 4.692483541665848e-20  5.568537749037747e-18  2.649785100462376e-01
-6.635705119946356e-01  2.649785100462376e-01  8.478300262005029e-18

 7.873294664322181e-18  4.686199771974093e-20 -6.635705383839285e-01
 4.686199771974093e-20  5.568538453381409e-18  2.649749811043037e-01
-6.635705383839285e-01  2.649749811043037e-01  8.478300579157936e-18

 7.873294485066233e-18  4.679906889288165e-20 -6.635705645600931e-01
 4.679906889288165e-20  5.568539089474589e-18  2.649714469665083e-01
-6.635705645600931e-01  2.649714469665083e-01  8.478300893444971e-18

 7.873294300383597e-18  4.673601070171891e-20 -6.635705905226559e-01
 4.673601070171891e-20  5.568539923314027e-18  2.649679059148615e-01
-6.635705905226559e-01  2.649679059148615e-01  8.478301204885817e-18

 7.873294110879262e-18  4.667285871905185e-20 -6.635706162711400e-01
 4.667285871905185e-20  5.568540618237719e-18  2.649643595499317e-01
-6.635706162711400e-01  2.649643595499317e-01  8.478301513497784e-18

 7.873293917106623e-18  4.660957445079180e-20 -6.635706418050634e-01
 4.660957445079180e-20  5.568541319873021e-18  2.649608061530849e-01
-6.635706418050634e-01  2.649608061530849e-01  8.478301819296271e-18

 7.873293719572341e-18  4.654619383704912e-20 -6.635706671239375e-01
 4.654619383704912e-20  5.568541926889697e-18  2.649572473246148e-01
-6.635706671239375e-01  2.649572473246148e-01  8.478302122294665e-18

 7.873293518740795e-18  4.648268295176509e-20 -6.635706922272715e-01
 4.648268295176509e-20  5.568542848196685e-18  2.649536813456425e-01
-6.635706922272715e-01  2.649536813456425e-01  8.478302422504802e-18

 7.873293315038117e-18  4.641906161640922e-20 -6.635707171145671e-01
 4.641906161640922e-20  5.568543438171015e-18  2.649501094015230e-01
-6.635707171145671e-01  2.649501094015230e-01  8.478302719936895e-18

 7.873293108855787e-18  4.635533548322461e-20 -6.635707417853244e-01
 4.635533548322461e-20  5.568544160257828e-18  2.649465314326765e-01
-6.635707417853244e-01  2.649465314326765e-01  8.478303014599790e-18

 7.873292900553772e-18  4.629147114367805e-20 -6.635707662390345e-01
 4.629147114367805e-20  5.568544857208816e-18  2.649429461347955e-01
-6.635707662390345e-01  2.649429461347955e-01  8.478303306501119e-18

 7.873292690463465e-18  4.622750844407792e-20 -6.635707904751885e-01
 4.622750844407792e-20  5.568545601017081e-18  2.649393551075980e-01
-6.635707904751885e-01  2.649393551075980e-01  8.478303595647250e-18

 7.873292478890305e-18  4.616340452343550e-20 -6.635708144932664e-01
 4.616340452343550e-20  5.568546080224805e-18  2.649357566319279e-01
-6.635708144932664e-01  2.649357566319279e-01  8.478303882043595e-18

 7.873292266116115e-18  4.609920367121231e-20 -6.635708382927489e-01
 4.609920367121231e-20  5.568546942741683e-18  2.649321523072041e-01
-6.635708382927489e-01  2.649321523072041e-01  8.478304165694499e-18

 7.873292052401152e-18  4.603486061704449e-20 -6.635708618731097e-01
 4.603486061704449e-20  5.568547688142402e-18  2.649285404140776e-01
-6.635708618731097e-01  2.649285404140776e-01  8.478304446603533e-18

 7.873291837986103e-18  4.597041464893635e-20 -6.635708852338176e-01
 4.597041464893635e-20  5.568548429282036e-18  2.649249225518545e-01
-6.635708852338176e-01  2.649249225518545e-01  8.478304724773320e-18

 7.873291623093671e-18  4.590582516443151e-20 -6.635709083743363e-01
 4.590582516443151e-20  5.568549138279352e-18  2.649212970010048e-01
-6.635709083743363e-01  2.649212970010048e-01  8.478305000205868e-18

 7.873291407930397e-18  4.584112928202368e-20 -6.635709312941266e-01
 4.584112928202368e-20  5.568549567695161e-18  2.649176653610385e-01
-6.635709312941266e-01  2.649176653610385e-01  8.478305272902399e-18

 7.873291192687659e-18  4.577628991589350e-20 -6.635709539926410e-01
 4.577628991589350e-20  5.568550299802400e-18  2.649140259118105e-01
-6.635709539926410e-01  2.649140259118105e-01  8.478305542863562e-18

 7.873290977543359e-18  4.571133481525609e-20 -6.635709764693298e-01
 4.571133481525609e-20  5.568550956235202e-18  2.649103798379215e-01
-6.635709764693298e-01  2.649103798379215e-01  8.478305810089361e-18

 7.873290762662754e-18  4.564626194664584e-20 -6.635709987236373e-01
 4.564626194664584e-20  5.568551578213676e-18  2.649067270789472e-01
-6.635709987236373e-01  2.649067270789472e-01  8.478306074579314e-18

 7.873290548199687e-18  4.558104351510077e-20 -6.635710207550050e-01
 4.558104351510077e-20  5.568552322780441e-18  2.649030663296748e-01
-6.635710207550050e-01  2.649030663296748e-01  8.478306336332419e-18

 7.873290334297484e-18  4.551571283113716e-20 -6.635710425628657e-01
 4.551571283113716e-20  5.568552907944706e-18  2.648993991893770e-01
-6.635710425628657e-01  2.648993991893770e-01  8.478306595347205e-18

 7.873290121089824e-18  4.545023577885487e-20 -6.635710641466505e-01
 4.545023577885487e-20  5.568553715297505e-18  2.648957239379651e-01
-6.635710641466505e-01  2.648957239379651e-01  8.478306851621767e-18

 7.873289908701520e-18  4.538464563537389e-20 -6.635710855057849e-01
 4.538464563537389e-20  5.568554375490334e-18  2.648920421744418e-01
-6.635710855057849e-01  2.648920421744418e-01  8.478307105153805e-18

 7.873289697249102e-18  4.531890393911921e-20 -6.635711066396894e-01
 4.531890393911921e-20  5.568555021049468e-18  2.648883521786550e-01
-6.635711066396894e-01  2.648883521786550e-01  8.478307355940649e-18

 7.873289486841833e-18  4.525304452493676e-20 -6.635711275477789e-01
 4.525304452493676e-20  5.568555398165406e-18  2.648846555495291e-01
-6.635711275477789e-01  2.648846555495291e-01  8.478307603979273e-18

 7.873289277581836e-18  4.518703693881687e-20 -6.635711482294645e-01
 4.518703693881687e-20  5.568556134420586e-18  2.648809505668850e-01
-6.635711482294645e-01  2.648809505668850e-01  8.478307849266330e-18

 7.873289069564992e-18  4.512090073257517e-20 -6.635711686841536e-01
 4.512090073257517e-20  5.568556614445726e-18  2.648772384146794e-01
-6.635711686841536e-01  2.648772384146794e-01  8.478308091798184e-18

 7.873288862881249e-18  4.505464089641257e-20 -6.635711889112443e-01
 4.505464089641257e-20  5.568557381349469e-18  2.648735190322637e-01
-6.635711889112443e-01  2.648735190322637e-01  8.478308331570840e-18

 7.873288657615147e-18  4.498822502664329e-20 -6.635712089101357e-01
 4.498822502664329e-20  5.568558147918668e-18  2.648697911140538e-01
-6.635712089101357e-01  2.648697911140538e-01  8.478308568580176e-18

 7.873288453846206e-18  4.492168920296790e-20 -6.635712286802179e-01
 4.492168920296790e-20  5.568558751441292e-18  2.648660562589702e-01
-6.635712286802179e-01  2.648660562589702e-01  8.478308802821658e-18

 7.873288251649341e-18  4.485499410719304e-20 -6.635712482208765e-01
 4.485499410719304e-20  5.568559259239108e-18  2.648623127466976e-01
-6.635712482208765e-01  2.648623127466976e-01  8.478309034290620e-18

 7.873288051095166e-18  4.478817911054675e-20 -6.635712675314954e-01
 4.478817911054675e-20  5.568559906867710e-18  2.648585621758562e-01
-6.635712675314954e-01  2.648585621758562e-01  8.478309262982156e-18

 7.873287852250244e-18  4.472120348729253e-20 -6.635712866114507e-01
 4.472120348729253e-20  5.568560490581192e-18  2.648548028262148e-01
-6.635712866114507e-01  2.648548028262148e-01  8.478309488891099e-18

 7.873287655177649e-18  4.465410110007734e-20 -6.635713054601131e-01
 4.465410110007734e-20  5.568560818351856e-18  2.648510362962176e-01
-6.635713054601131e-01  2.648510362962176e-01  8.478309712012130e-18

 7.873287459936859e-18  4.458683957868710e-20 -6.635713240768516e-01
 4.458683957868710e-20  5.568561434855143e-18  2.648472608658599e-01
-6.635713240768516e-01  2.648472608658599e-01  8.478309932339730e-18

 7.873287266584343e-18  4.451945525872889e-20 -6.635713424610283e-01
 4.451945525872889e-20  5.568562139676462e-18  2.648434781333760e-01
-6.635713424610283e-01  2.648434781333760e-01  8.478310149868176e-18

 7.873287075173494e-18  4.445190521453813e-20 -6.635713606119986e-01
 4.445190521453813e-20  5.568562785712753e-18  2.648396863786125e-01
-6.635713606119986e-01  2.648396863786125e-01  8.478310364591590e-18

 7.873286885755131e-18  4.438421636006599e-20 -6.635713785291179e-01
 4.438421636006599e-20  5.568563236139047e-18  2.648358867850456e-01
-6.635713785291179e-01  2.648358867850456e-01  8.478310576503947e-18

 7.873286698377458e-18  4.431639076839565e-20 -6.635713962117329e-01
 4.431639076839565e-20  5.568563770623550e-18  2.648320792920701e-01
-6.635713962117329e-01  2.648320792920701e-01  8.478310785599030e-18

 7.873286513086291e-18  4.424839820945008e-20 -6.635714136591859e-01
 4.424839820945008e-20  5.568564366876012e-18  2.648282625939124e-01
-6.635714136591859e-01  2.648282625939124e-01  8.478310991870499e-18

 7.873286329925404e-18  4.418027477979767e-20 -6.635714308708163e-01
 4.418027477979767e-20  5.568564891250993e-18  2.648244382891731e-01
-6.635714308708163e-01  2.648244382891731e-01  8.478311195311843e-18

 7.873286148936371e-18  4.411198106580779e-20 -6.635714478459569e-01
 4.411198106580779e-20  5.568565360911736e-18  2.648206046576213e-01
-6.635714478459569e-01  2.648206046576213e-01  8.478311395916443e-18

 7.873285970158988e-18  4.404355388642077e-20 -6.635714645839358e-01
 4.404355388642077e-20  5.568565772606781e-18  2.648167632974715e-01
-6.635714645839358e-01  2.648167632974715e-01  8.478311593677536e-18

 7.873285793631185e-18  4.397495825163306e-20 -6.635714810840768e-01
 4.397495825163306e-20  5.568566391628659e-18  2.648129124884505e-01
-6.635714810840768e-01  2.648129124884505e-01  8.478311788588210e-18

 7.873285619389397e-18  4.390622543002287e-20 -6.635714973456992e-01
 4.390622543002287e-20  5.568566845490603e-18  2.648090538293378e-01
-6.635714973456992e-01  2.648090538293378e-01  8.478311980641476e-18

 7.873285447531912e-18  4.383731916672287e-20 -6.635715133681234e-01
 4.383731916672287e-20  5.568567282399144e-18  2.648051855992785e-01
-6.635715133681234e-01  2.648051855992785e-01  8.478312169832702e-18

 7.873285277962063e-18  4.376827013777870e-20 -6.635715291506447e-01
 4.376827013777870e-20  5.568568014432527e-18  2.648013089822138e-01
-6.635715291506447e-01  2.648013089822138e-01  8.478312356149510e-18

 7.873285110778551e-18  4.369906925326759e-20 -6.635715446925763e-01
 4.369906925326759e-20  5.568568361167567e-18  2.647974239171454e-01
-6.635715446925763e-01  2.647974239171454e-01  8.478312539587134e-18

 7.873284946012128e-18  4.362969588132201e-20 -6.635715599932126e-01
 4.362969588132201e-20  5.568569052610137e-18  2.647935290985540e-01
-6.635715599932126e-01  2.647935290985540e-01  8.478312720138147e-18

 7.873284783692532e-18  4.356017723149656e-20 -6.635715750518548e-01
 4.356017723149656e-20  5.568569300737448e-18  2.647896261250106e-01
-6.635715750518548e-01  2.647896261250106e-01  8.478312897794966e-18

 7.873284623848192e-18  4.349048176690163e-20 -6.635715898677859e-01
 4.349048176690163e-20  5.568569760864692e-18  2.647857132760403e-01
-6.635715898677859e-01  2.647857132760403e-01  8.478313072549902e-18

 7.873284466506652e-18  4.342064539322909e-20 -6.635716044402966e-01
 4.342064539322909e-20  5.568570165382760e-18  2.647817921501818e-01
-6.635716044402966e-01  2.647817921501818e-01  8.478313244395193e-18

 7.873284311694469e-18  4.335062919522447e-20 -6.635716187686627e-01
 4.335062919522447e-20  5.568570848901331e-18  2.647778610272655e-01
-6.635716187686627e-01  2.647778610272655e-01  8.478313413322988e-18

 7.873284159437346e-18  4.328046486539112e-20 -6.635716328521611e-01
 4.328046486539112e-20  5.568571099708050e-18  2.647739215057036e-01
-6.635716328521611e-01  2.647739215057036e-01  8.478313579325285e-18

 7.873284009760118e-18  4.321011796650437e-20 -6.635716466900623e-01
 4.321011796650437e-20  5.568571414797462e-18  2.647699718652405e-01
-6.635716466900623e-01  2.647699718652405e-01  8.478313742394059e-18

 7.873283862686863e-18  4.313962699559463e-20 -6.635716602816316e-01
 4.313962699559463e-20  5.568571917020840e-18  2.647660137044018e-01
-6.635716602816316e-01  2.647660137044018e-01  8.478313902521150e-18

 7.873283718240845e-18  4.306895008301789e-20 -6.635716736261297e-01
 4.306895008301789e-20  5.568572375968063e-18  2.647620453029664e-01
-6.635716736261297e-01  2.647620453029664e-01  8.478314059698328e-18

 7.873283576444830e-18  4.299811459329217e-20 -6.635716867228114e-01
 4.299811459329217e-20  5.568572745964094e-18  2.647580678446126e-01
-6.635716867228114e-01  2.647580678446126e-01  8.478314213917296e-18

 7.873283437320788e-18  4.292712146815038e-20 -6.635716995709293e-01
 4.292712146815038e-20  5.568573186518744e-18  2.647540812685586e-01
-6.635716995709293e-01  2.647540812685586e-01  8.478314365169591e-18

 7.873283300890109e-18  4.285593743354213e-20 -6.635717121697278e-01
 4.285593743354213e-20  5.568573467758055e-18  2.647500842695698e-01
-6.635717121697278e-01  2.647500842695698e-01  8.478314513446819e-18

 7.873283167173685e-18  4.278460496345037e-20 -6.635717245184489e-01
 4.278460496345037e-20  5.568573954433944e-18  2.647460784460157e-01
-6.635717245184489e-01  2.647460784460157e-01  8.478314658740317e-18

 7.873283036191823e-18  4.271308014202154e-20 -6.635717366163283e-01
 4.271308014202154e-20  5.568574338254716e-18  2.647420620781026e-01
-6.635717366163283e-01  2.647420620781026e-01  8.478314801041505e-18

 7.873282907964449e-18  4.264140077529301e-20 -6.635717484625993e-01
 4.264140077529301e-20  5.568574625623451e-18  2.647380367641217e-01
-6.635717484625993e-01  2.647380367641217e-01  8.478314940341634e-18

 7.873282782510776e-18  4.256952963364283e-20 -6.635717600564853e-01
 4.256952963364283e-20  5.568575038164635e-18  2.647340007842852e-01
-6.635717600564853e-01  2.647340007842852e-01  8.478315076631875e-18

 7.873282659849952e-18  4.249750383987546e-20 -6.635717713972110e-01
 4.249750383987546e-20  5.568575480857565e-18  2.647299557371157e-01
-6.635717713972110e-01  2.647299557371157e-01  8.478315209903377e-18

 7.873282540000387e-18  4.242528087672246e-20 -6.635717824839913e-01
 4.242528087672246e-20  5.568575722862084e-18  2.647258999026992e-01
-6.635717824839913e-01  2.647258999026992e-01  8.478315340147184e-18

 7.873282422980297e-18  4.235289209167735e-20 -6.635717933160398e-01
 4.235289209167735e-20  5.568576087155581e-18  2.647218344648919e-01
-6.635717933160398e-01  2.647218344648919e-01  8.478315467354262e-18

 7.873282308807523e-18  4.228033381744904e-20 -6.635718038925622e-01
 4.228033381744904e-20  5.568576365445904e-18  2.647177593630546e-01
-6.635718038925622e-01  2.647177593630546e-01  8.478315591515481e-18

 7.873282197499425e-18  4.220758120068449e-20 -6.635718142127605e-01
 4.220758120068449e-20  5.568576960884580e-18  2.647136732921898e-01
-6.635718142127605e-01  2.647136732921898e-01  8.478315712621690e-18

 7.873282089073316e-18  4.213466285889144e-20 -6.635718242758336e-01
 4.213466285889144e-20  5.568577171266256e-18  2.647095778511572e-01
-6.635718242758336e-01  2.647095778511572e-01  8.478315830663629e-18

 7.873281983545978e-18  4.206154600348352e-20 -6.635718340809716e-01
 4.206154600348352e-20  5.568577508397638e-18  2.647054713198052e-01
-6.635718340809716e-01  2.647054713198052e-01  8.478315945631975e-18

 7.873281880934073e-18  4.198826472090705e-20 -6.635718436273643e-01
 4.198826472090705e-20  5.568577704267221e-18  2.647013552973614e-01
-6.635718436273643e-01  2.647013552973614e-01  8.478316057517331e-18

 7.873281781253888e-18  4.191478177238261e-20 -6.635718529141935e-01
 4.191478177238261e-20  5.568577961286802e-18  2.646972280638220e-01
-6.635718529141935e-01  2.646972280638220e-01  8.478316166310260e-18

 7.873281684521592e-18  4.184113321424426e-20 -6.635718619406362e-01
 4.184113321424426e-20  5.568578183659837e-18  2.646930912182076e-01
-6.635718619406362e-01  2.646930912182076e-01  8.478316272001191e-18

 7.873281590752995e-18  4.176728163885197e-20 -6.635718707058660e-01
 4.176728163885197e-20  5.568578578916978e-18  2.646889430408497e-01
-6.635718707058660e-01  2.646889430408497e-01  8.478316374580551e-18

 7.873281499963843e-18  4.169326332985034e-20 -6.635718792090506e-01
 4.169326332985034e-20  5.568578904630984e-18  2.646847851307320e-01
-6.635718792090506e-01  2.646847851307320e-01  8.478316474038638e-18

 7.873281412169561e-18  4.161903450365350e-20 -6.635718874493527e-01
 4.161903450365350e-20  5.568579027059870e-18  2.646806157681731e-01
-6.635718874493527e-01  2.646806157681731e-01  8.478316570365753e-18

 7.873281327385495e-18  4.154463036557516e-20 -6.635718954259315e-01
 4.154463036557516e-20  5.568579398935810e-18  2.646764361374107e-01
-6.635718954259315e-01  2.646764361374107e-01  8.478316663552089e-18

 7.873281245626732e-18  4.147004457973065e-20 -6.635719031379400e-01
 4.147004457973065e-20  5.568579563200340e-18  2.646722461782612e-01
-6.635719031379400e-01  2.646722461782612e-01  8.478316753587719e-18

 7.873281166908228e-18  4.139524822609554e-20 -6.635719105845244e-01
 4.139524822609554e-20  5.568579777773084e-18  2.646680445862113e-01
-6.635719105845244e-01  2.646680445862113e-01  8.478316840462770e-18

 7.873281091244893e-18  4.132028013688906e-20 -6.635719177648306e-01
 4.132028013688906e-20  5.568579985723118e-18  2.646638329602427e-01
-6.635719177648306e-01  2.646638329602427e-01  8.478316924167197e-18

 7.873281018651292e-18  4.124510141467023e-20 -6.635719246779946e-01
 4.124510141467023e-20  5.568580331121470e-18  2.646596095808881e-01
-6.635719246779946e-01  2.646596095808881e-01  8.478317004690938e-18

 7.873280949142049e-18  4.116974701459277e-20 -6.635719313231517e-01
 4.116974701459277e-20  5.568580540184105e-18  2.646553760477623e-01
-6.635719313231517e-01  2.646553760477623e-01  8.478317082023848e-18

 7.873280882731587e-18  4.109417681095670e-20 -6.635719376994303e-01
 4.109417681095670e-20  5.568580604698183e-18  2.646511306412985e-01
-6.635719376994303e-01  2.646511306412985e-01  8.478317156155742e-18

 7.873280819434222e-18  4.101842994162897e-20 -6.635719438059536e-01
 4.101842994162897e-20  5.568580725895000e-18  2.646468749608836e-01
-6.635719438059536e-01  2.646468749608836e-01  8.478317227076343e-18

 7.873280759264181e-18  4.094247068265746e-20 -6.635719496418397e-01
 4.094247068265746e-20  5.568581114244368e-18  2.646426072872258e-01
-6.635719496418397e-01  2.646426072872258e-01  8.478317294775289e-18

 7.873280702235605e-18  4.086631874375202e-20 -6.635719552062028e-01
 4.086631874375202e-20  5.568581109235812e-18  2.646383288052142e-01
-6.635719552062028e-01  2.646383288052142e-01  8.478317359242247e-18

 7.873280648362547e-18  4.078997957671824e-20 -6.635719604981528e-01
 4.078997957671824e-20  5.568581331468748e-18  2.646340394548453e-01
-6.635719604981528e-01  2.646340394548453e-01  8.478317420466685e-18

 7.873280597658907e-18  4.071341965316194e-20 -6.635719655167904e-01
 4.071341965316194e-20  5.568581463886955e-18  2.646297379318659e-01
-6.635719655167904e-01  2.646297379318659e-01  8.478317478438116e-18

 7.873280550138662e-18  4.063667905372748e-20 -6.635719702612175e-01
 4.063667905372748e-20  5.568581641822775e-18  2.646254258360257e-01
-6.635719702612175e-01  2.646254258360257e-01  8.478317533145937e-18

 7.873280505815559e-18  4.055971730714802e-20 -6.635719747305254e-01
 4.055971730714802e-20  5.568581874653444e-18  2.646211014482038e-01
-6.635719747305254e-01  2.646211014482038e-01  8.478317584579500e-18

 7.873280464703416e-18  4.048257119665778e-20 -6.635719789238049e-01
 4.048257119665778e-20  5.568582033562201e-18  2.646167663682976e-01
-6.635719789238049e-01  2.646167663682976e-01  8.478317632728073e-18

 7.873280426815923e-18  4.040519760542458e-20 -6.635719828401390e-01
 4.040519760542458e-20  5.568581908980214e-18  2.646124188772263e-01
-6.635719828401390e-01  2.646124188772263e-01  8.478317677580898e-18

 7.873280392166730e-18  4.032764289134554e-20 -6.635719864786054e-01
 4.032764289134554e-20  5.568582203685272e-18  2.646080605750002e-01
-6.635719864786054e-01  2.646080605750002e-01  8.478317719127090e-18

 7.873280360769430e-18  4.024986091376370e-20 -6.635719898382798e-01
 4.024986091376370e-20  5.568582378724567e-18  2.646036897426365e-01
-6.635719898382798e-01  2.646036897426365e-01  8.478317757355784e-18

 7.873280332637627e-18  4.017188766884259e-20 -6.635719929182298e-01
 4.017188766884259e-20  5.568582227523207e-18  2.645993079804960e-01
-6.635719929182298e-01  2.645993079804960e-01  8.478317792255967e-18

 7.873280307784820e-18  4.009369110204001e-20 -6.635719957175197e-01
 4.009369110204001e-20  5.568582467611907e-18  2.645949135693992e-01
-6.635719957175197e-01  2.645949135693992e-01  8.478317823816622e-18

 7.873280286224550e-18  4.001529307050679e-20 -6.635719982352085e-01
 4.001529307050679e-20  5.568582633614561e-18  2.645905076950924e-01
-6.635719982352085e-01  2.645905076950924e-01  8.478317852026676e-18

 7.873280267970287e-18  3.993669095124209e-20 -6.635720004703501e-01
 3.993669095124209e-20  5.568582463566970e-18  2.645860902981236e-01
-6.635720004703501e-01  2.645860902981236e-01  8.478317876874918e-18

 7.873280253035446e-18  3.985786178681840e-20 -6.635720024219915e-01
 3.985786178681840e-20  5.568582640261508e-18  2.645816600747342e-01
-6.635720024219915e-01  2.645816600747342e-01  8.478317898350152e-18

 7.873280241433513e-18  3.977883793761933e-20 -6.635720040891787e-01
 3.977883793761933e-20  5.568582680024291e-18  2.645772186254809e-01
-6.635720040891787e-01  2.645772186254809e-01  8.478317916441084e-18

 7.873280233177836e-18  3.969958062717435e-20 -6.635720054709475e-01
 3.969958062717435e-20  5.568582688941512e-18  2.645727642317068e-01
-6.635720054709475e-01  2.645727642317068e-01  8.478317931136361e-18

 7.873280228281929e-18  3.962012908206841e-20 -6.635720065663343e-01
 3.962012908206841e-20  5.568582811939453e-18  2.645682984939990e-01
-6.635720065663343e-01  2.645682984939990e-01  8.478317942424581e-18

 7.873280226759046e-18  3.954044201485185e-20 -6.635720073743656e-01
 3.954044201485185e-20  5.568582920890802e-18  2.645638196940723e-01
-6.635720073743656e-01  2.645638196940723e-01  8.478317950294236e-18

 7.873280228622711e-18  3.946055553908210e-20 -6.635720078940663e-01
 3.946055553908210e-20  5.568582808698553e-18  2.645593294324466e-01
-6.635720078940663e-01  2.645593294324466e-01  8.478317954733831e-18

 7.873280233886194e-18  3.938043324703226e-20 -6.635720081244532e-01
 3.938043324703226e-20  5.568582781827503e-18  2.645548259908094e-01
-6.635720081244532e-01  2.645548259908094e-01  8.478317955731726e-18

 7.873280242562969e-18  3.930010208830597e-20 -6.635720080645408e-01
 3.930010208830597e-20  5.568582864526400e-18  2.645503105554333e-01
-6.635720080645408e-01  2.645503105554333e-01  8.478317953276283e-18

 7.873280254666356e-18  3.921956064826221e-20 -6.635720077133364e-01
 3.921956064826221e-20  5.568582891900857e-18  2.645457830672987e-01
-6.635720077133364e-01  2.645457830672987e-01  8.478317947355728e-18

 7.873280270209772e-18  3.913877807538961e-20 -6.635720070698429e-01
 3.913877807538961e-20  5.568582865241820e-18  2.645412422234268e-01
-6.635720070698429e-01  2.645412422234268e-01  8.478317937958351e-18

 7.873280289206657e-18  3.905779181512023e-20 -6.635720061330596e-01
 3.905779181512023e-20  5.568582708817437e-18  2.645366896247417e-01
-6.635720061330596e-01  2.645366896247417e-01  8.478317925072222e-18

 7.873280311670339e-18  3.897656433454446e-20 -6.635720049019758e-01
 3.897656433454446e-20  5.568582674183796e-18  2.645321235534120e-01
-6.635720049019758e-01  2.645321235534120e-01  8.478317908685467e-18

 7.873280337614253e-18  3.889513164123197e-20 -6.635720033755834e-01
 3.889513164123197e-20  5.568582602534178e-18  2.645275456106229e-01
-6.635720033755834e-01  2.645275456106229e-01  8.478317888786089e-18

 7.873280367051870e-18  3.881345583740767e-20 -6.635720015528614e-01
 3.881345583740767e-20  5.568582634575295e-18  2.645229540783680e-01
-6.635720015528614e-01  2.645229540783680e-01  8.478317865362052e-18

 7.873280399996634e-18  3.873157180719425e-20 -6.635719994327892e-01
 3.873157180719425e-20  5.568582521968214e-18  2.645183505580997e-01
-6.635719994327892e-01  2.645183505580997e-01  8.478317838401242e-18

 7.873280436461979e-18  3.864944227842761e-20 -6.635719970143384e-01
 3.864944227842761e-20  5.568582482384772e-18  2.645137333320697e-01
-6.635719970143384e-01  2.645137333320697e-01  8.478317807891506e-18

 7.873280476461403e-18  3.856710454754275e-20 -6.635719942964757e-01
 3.856710454754275e-20  5.568582510270090e-18  2.645091040019849e-01
-6.635719942964757e-01  2.645091040019849e-01  8.478317773820594e-18

 7.873280520008393e-18  3.848451671120248e-20 -6.635719912781624e-01
 3.848451671120248e-20  5.568582376462153e-18  2.645044608500436e-01
-6.635719912781624e-01  2.645044608500436e-01  8.478317736176227e-18

 7.873280567116531e-18  3.840170849050123e-20 -6.635719879583559e-01
 3.840170849050123e-20  5.568582271695349e-18  2.644998050631550e-01
-6.635719879583559e-01  2.644998050631550e-01  8.478317694946050e-18

 7.873280617799298e-18  3.831867622144928e-20 -6.635719843360077e-01
 3.831867622144928e-20  5.568581930413983e-18  2.644951365833099e-01
-6.635719843360077e-01  2.644951365833099e-01  8.478317650117605e-18

 7.873280672070347e-18  3.823539702535017e-20 -6.635719804100624e-01
 3.823539702535017e-20  5.568581978973923e-18  2.644904541082371e-01
-6.635719804100624e-01  2.644904541082371e-01  8.478317601678470e-18

 7.873280729943245e-18  3.815190218054380e-20 -6.635719761794625e-01
 3.815190218054380e-20  5.568581885955642e-18  2.644857592397473e-01
-6.635719761794625e-01  2.644857592397473e-01  8.478317549616040e-18

 7.873280791431593e-18  3.806815372633008e-20 -6.635719716431422e-01
 3.806815372633008e-20  5.568581775153436e-18  2.644810502606484e-01
-6.635719716431422e-01  2.644810502606484e-01  8.478317493917732e-18

 7.873280856549155e-18  3.798418681896742e-20 -6.635719668000339e-01
 3.798418681896742e-20  5.568581449916301e-18  2.644763287728554e-01
-6.635719668000339e-01  2.644763287728554e-01  8.478317434570871e-18

 7.873280925309524e-18  3.789996719496858e-20 -6.635719616490598e-01
 3.789996719496858e-20  5.568581402847919e-18  2.644715930597443e-01
-6.635719616490598e-01  2.644715930597443e-01  8.478317371562698e-18

 7.873280997726521e-18  3.781552712273664e-20 -6.635719561891422e-01
 3.781552712273664e-20  5.568581054736253e-18  2.644668447229932e-01
-6.635719561891422e-01  2.644668447229932e-01  8.478317304880434e-18

 7.873281073813847e-18  3.773083340999961e-20 -6.635719504191945e-01
 3.773083340999961e-20  5.568581099805922e-18  2.644620820461688e-01
-6.635719504191945e-01  2.644620820461688e-01  8.478317234511197e-18

 7.873281153585352e-18  3.764590548714474e-20 -6.635719443381259e-01
 3.764590548714474e-20  5.568580736430528e-18  2.644573062164189e-01
-6.635719443381259e-01  2.644573062164189e-01  8.478317160442071e-18

 7.873281237054851e-18  3.756074976810966e-20 -6.635719379448418e-01
 3.756074976810966e-20  5.568580627625530e-18  2.644525171767191e-01
-6.635719379448418e-01  2.644525171767191e-01  8.478317082660024e-18

 7.873281324236228e-18  3.747533138733456e-20 -6.635719312382371e-01
 3.747533138733456e-20  5.568580329279442e-18  2.644477136252932e-01
-6.635719312382371e-01  2.644477136252932e-01  8.478317001152056e-18

 7.873281415143383e-18  3.738969194041757e-20 -6.635719242172092e-01
 3.738969194041757e-20  5.568580168469057e-18  2.644428971649057e-01
-6.635719242172092e-01  2.644428971649057e-01  8.478316915904982e-18

 7.873281509790311e-18  3.730378665244797e-20 -6.635719168806431e-01
 3.730378665244797e-20  5.568579805143376e-18  2.644380660789330e-01
-6.635719168806431e-01  2.644380660789330e-01  8.478316826905673e-18

 7.873281608190990e-18  3.721766055614159e-20 -6.635719092274225e-01
 3.721766055614159e-20  5.568579713438201e-18  2.644332219702077e-01
-6.635719092274225e-01  2.644332219702077e-01  8.478316734140826e-18

 7.873281710359449e-18  3.713126652351391e-20 -6.635719012564234e-01
 3.713126652351391e-20  5.568579376524950e-18  2.644283631222608e-01
-6.635719012564234e-01  2.644283631222608e-01  8.478316637597155e-18

 7.873281816309787e-18  3.704464778235129e-20 -6.635718929665194e-01
 3.704464778235129e-20  5.568579183521824e-18  2.644234911383587e-01
-6.635718929665194e-01  2.644234911383587e-01  8.478316537261251e-18

 7.873281926056133e-18  3.695776116932645e-20 -6.635718843565744e-01
 3.695776116932645e-20  5.568578986284460e-18  2.644186043021131e-01
-6.635718843565744e-01  2.644186043021131e-01  8.478316433119696e-18

 7.873282039612697e-18  3.687064343033098e-20 -6.635718754254514e-01
 3.687064343033098e-20  5.568578489811287e-18  2.644137042165968e-01
-6.635718754254514e-01  2.644137042165968e-01  8.478316325158958e-18

 7.873282156993610e-18  3.678326067243551e-20 -6.635718661720038e-01
 3.678326067243551e-20  5.568578381880842e-18  2.644087891661695e-01
-6.635718661720038e-01  2.644087891661695e-01  8.478316213365456e-18

 7.873282278213214e-18  3.669563423316932e-20 -6.635718565950820e-01
 3.669563423316932e-20  5.568578008493030e-18  2.644038603388599e-01
-6.635718565950820e-01  2.644038603388599e-01  8.478316097725553e-18

 7.873282403285782e-18  3.660776710138795e-20 -6.635718466935322e-01
 3.660776710138795e-20  5.568577585587049e-18  2.643989176785664e-01
-6.635718466935322e-01  2.643989176785664e-01  8.478315978225524e-18

 7.873282532225706e-18  3.651962838651481e-20 -6.635718364661903e-01
 3.651962838651481e-20  5.568577244035127e-18  2.643939598845750e-01
-6.635718364661903e-01  2.643939598845750e-01  8.478315854851623e-18

 7.873282665047393e-18  3.643125823522092e-20 -6.635718259118923e-01
 3.643125823522092e-20  5.568577154716902e-18  2.643889885602669e-01
-6.635718259118923e-01  2.643889885602669e-01  8.478315727589996e-18

 7.873282801765270e-18  3.634261200294313e-20 -6.635718150294636e-01
 3.634261200294313e-20  5.568576756570067e-18  2.643840019902447e-01
-6.635718150294636e-01  2.643840019902447e-01  8.478315596426729e-18

 7.873282942393913e-18  3.625372684834351e-20 -6.635718038177296e-01
 3.625372684834351e-20  5.568576175113880e-18  2.643790017782742e-01
-6.635718038177296e-01  2.643790017782742e-01  8.478315461347852e-18

 7.873283086947813e-18  3.616456939034411e-20 -6.635717922755042e-01
 3.616456939034411e-20  5.568575830723109e-18  2.643739862087507e-01
-6.635717922755042e-01  2.643739862087507e-01  8.478315322339323e-18

 7.873283235441629e-18  3.607517583107452e-20 -6.635717804015996e-01
 3.607517583107452e-20  5.568575664335593e-18  2.643689568858343e-01
-6.635717804015996e-01  2.643689568858343e-01  8.478315179387026e-18

 7.873283387890030e-18  3.598550059252563e-20 -6.635717681948214e-01
 3.598550059252563e-20  5.568575104591240e-18  2.643639120941914e-01
-6.635717681948214e-01  2.643639120941914e-01  8.478315032476800e-18

 7.873283544307723e-18  3.589557850828430e-20 -6.635717556539698e-01
 3.589557850828430e-20  5.568574799067482e-18  2.643588530230174e-01
-6.635717556539698e-01  2.643588530230174e-01  8.478314881594406e-18

 7.873283704709493e-18  3.580540617717101e-20 -6.635717427778398e-01
 3.580540617717101e-20  5.568574463362612e-18  2.643537796170211e-01
-6.635717427778398e-01  2.643537796170211e-01  8.478314726725499e-18

 7.873283869110172e-18  3.571495279888804e-20 -6.635717295652173e-01
 3.571495279888804e-20  5.568574044092370e-18  2.643486905761069e-01
-6.635717295652173e-01  2.643486905761069e-01  8.478314567855754e-18

 7.873284037524649e-18  3.562425633027396e-20 -6.635717160148890e-01
 3.562425633027396e-20  5.568573595871318e-18  2.643435875045164e-01
-6.635717160148890e-01  2.643435875045164e-01  8.478314404970696e-18

 7.873284209967845e-18  3.553327728055726e-20 -6.635717021256280e-01
 3.553327728055726e-20  5.568573217507011e-18  2.643384686877543e-01
-6.635717021256280e-01  2.643384686877543e-01  8.478314238055805e-18

 7.873284386454791e-18  3.544205248043433e-20 -6.635716878962105e-01
 3.544205248043433e-20  5.568572662562681e-18  2.643333357301157e-01
-6.635716878962105e-01  2.643333357301157e-01  8.478314067096526e-18

 7.873284567000527e-18  3.535054121175035e-20 -6.635716733253976e-01
 3.535054121175035e-20  5.568571974164814e-18  2.643281869172107e-01
-6.635716733253976e-01  2.643281869172107e-01  8.478313892078189e-18

 7.873284751620181e-18  3.525878892521121e-20 -6.635716584119539e-01
 3.525878892521121e-20  5.568571732781727e-18  2.643230238538013e-01
-6.635716584119539e-01  2.643230238538013e-01  8.478313712986085e-18

 7.873284940328867e-18  3.516674853394715e-20 -6.635716431546296e-01
 3.516674853394715e-20  5.568571298165196e-18  2.643178448252330e-01
-6.635716431546296e-01  2.643178448252330e-01  8.478313529805425e-18

 7.873285133141904e-18  3.507445875651392e-20 -6.635716275521767e-01
 3.507445875651392e-20  5.568570820357032e-18  2.643126514367165e-01
-6.635716275521767e-01  2.643126514367165e-01  8.478313342521353e-18

 7.873285330074540e-18  3.498187855027779e-20 -6.635716116033362e-01
 3.498187855027779e-20  5.568570130138392e-18  2.643074419741496e-01
-6.635716116033362e-01  2.643074419741496e-01  8.478313151118953e-18

 7.873285531142139e-18  3.488904021742256e-20 -6.635715953068445e-01
 3.488904021742256e-20  5.568569586410666e-18  2.643022176272926e-01
-6.635715953068445e-01  2.643022176272926e-01  8.478312955583215e-18

 7.873285736360070e-18  3.479594194029417e-20 -6.635715786614345e-01
 3.479594194029417e-20  5.568569133325520e-18  2.642969783421032e-01
-6.635715786614345e-01  2.642969783421032e-01  8.478312755899065e-18

 7.873285945743891e-18  3.470255109029735e-20 -6.635715616658288e-01
 3.470255109029735e-20  5.568568609723618e-18  2.642917228195433e-01
-6.635715616658288e-01  2.642917228195433e-01  8.478312552051397e-18

 7.873286159309052e-18  3.460890779939011e-20 -6.635715443187492e-01
 3.460890779939011e-20  5.568568129460163e-18  2.642864526647465e-01
-6.635715443187492e-01  2.642864526647465e-01  8.478312344024992e-18

 7.873286377071166e-18  3.451497173813065e-20 -6.635715266189056e-01
 3.451497173813065e-20  5.568567637085228e-18  2.642811661643216e-01
-6.635715266189056e-01  2.642811661643216e-01  8.478312131804566e-18

 7.873286599045957e-18  3.442077848067536e-20 -6.635715085650097e-01
 3.442077848067536e-20  5.568566918649415e-18  2.642758649235991e-01
-6.635715085650097e-01  2.642758649235991e-01  8.478311915374798e-18

 7.873286825249071e-18  3.432628946846080e-20 -6.635714901557590e-01
 3.432628946846080e-20  5.568566217401045e-18  2.642705472291867e-01
-6.635714901557590e-01  2.642705472291867e-01  8.478311694720235e-18

 7.873287055696356e-18  3.423154673994562e-20 -6.635714713898523e-01
 3.423154673994562e-20  5.568565729509739e-18  2.642652146867477e-01
-6.635714713898523e-01  2.642652146867477e-01  8.478311469825417e-18

 7.873287290403604e-18  3.413650548486142e-20 -6.635714522659756e-01
 3.413650548486142e-20  5.568565196143581e-18  2.642598655829022e-01
-6.635714522659756e-01  2.642598655829022e-01  8.478311240674761e-18

 7.873287529386796e-18  3.404119564255202e-20 -6.635714327828147e-01
 3.404119564255202e-20  5.568564571981455e-18  2.642545011088759e-01
-6.635714327828147e-01  2.642545011088759e-01  8.478311007252648e-18

 7.873287772661860e-18  3.394561594120428e-20 -6.635714129390473e-01
 3.394561594120428e-20  5.568563881863224e-18  2.642491212108230e-01
-6.635714129390473e-01  2.642491212108230e-01  8.478310769543369e-18

 7.873288020244856e-18  3.384973617709662e-20 -6.635713927333411e-01
 3.384973617709662e-20  5.568563228073892e-18  2.642437245910353e-01
-6.635713927333411e-01  2.642437245910353e-01  8.478310527531154e-18

 7.873288272151926e-18  3.375359418482618e-20 -6.635713721643662e-01
 3.375359418482618e-20  5.568562518377642e-18  2.642383128551550e-01
-6.635713721643662e-01  2.642383128551550e-01  8.478310281200140e-18

 7.873288528399213e-18  3.365715435061836e-20 -6.635713512307762e-01
 3.365715435061836e-20  5.568562093842620e-18  2.642328842907713e-01
-6.635713512307762e-01  2.642328842907713e-01  8.478310030534404e-18

 7.873288789002995e-18  3.356044599323039e-20 -6.635713299312286e-01
 3.356044599323039e-20  5.568561290388215e-18  2.642274405040751e-01
-6.635713299312286e-01  2.642274405040751e-01  8.478309775517969e-18

 7.873289053979563e-18  3.346343769996096e-20 -6.635713082643655e-01
 3.346343769996096e-20  5.568560708944533e-18  2.642219797825335e-01
-6.635713082643655e-01  2.642219797825335e-01  8.478309516134731e-18

 7.873289323345308e-18  3.336615993438569e-20 -6.635712862288318e-01
 3.336615993438569e-20  5.568559840772100e-18  2.642165037326115e-01
-6.635712862288318e-01  2.642165037326115e-01  8.478309252368579e-18

 7.873289597116696e-18  3.326857885810432e-20 -6.635712638232575e-01
 3.326857885810432e-20  5.568559063459908e-18  2.642110106418877e-01
-6.635712638232575e-01  2.642110106418877e-01  8.478308984203283e-18

 7.873289875310254e-18  3.317073178507175e-20 -6.635712410462739e-01
 3.317073178507175e-20  5.568558428441249e-18  2.642055021171535e-01
-6.635712410462739e-01  2.642055021171535e-01  8.478308711622521e-18

 7.873290157942522e-18  3.307257530176152e-20 -6.635712178965005e-01
 3.307257530176152e-20  5.568557641653075e-18  2.641999764460297e-01
-6.635712178965005e-01  2.641999764460297e-01  8.478308434609958e-18

 7.873290445030245e-18  3.297414121885757e-20 -6.635711943725526e-01
 3.297414121885757e-20  5.568556872104644e-18  2.641944348206733e-01
-6.635711943725526e-01  2.641944348206733e-01  8.478308153149151e-18

 7.873290736590089e-18  3.287542604871378e-20 -6.635711704730404e-01
 3.287542604871378e-20  5.568556105755663e-18  2.641888771886041e-01
-6.635711704730404e-01  2.641888771886041e-01  8.478307867223554e-18

 7.873291032638845e-18  3.277640270838110e-20 -6.635711461965635e-01
 3.277640270838110e-20  5.568555374932828e-18  2.641833022525159e-01
-6.635711461965635e-01  2.641833022525159e-01  8.478307576816599e-18

 7.873291333193462e-18  3.267710760644471e-20 -6.635711215417215e-01
 3.267710760644471e-20  5.568554773451115e-18  2.641777116199454e-01
-6.635711215417215e-01  2.641777116199454e-01  8.478307281911606e-18

 7.873291638270831e-18  3.257750005551785e-20 -6.635710965071011e-01
 3.257750005551785e-20  5.568554011329132e-18  2.641721035789742e-01
-6.635710965071011e-01  2.641721035789742e-01  8.478306982491812e-18

 7.873291947887994e-18  3.247761469919943e-20 -6.635710710912874e-01
 3.247761469919943e-20  5.568552891436334e-18  2.641664797367236e-01
-6.635710710912874e-01  2.641664797367236e-01  8.478306678540411e-18

 7.873292262062018e-18  3.237742188864384e-20 -6.635710452928549e-01
 3.237742188864384e-20  5.568552342522910e-18  2.641608383821028e-01
-6.635710452928549e-01  2.641608383821028e-01  8.478306370040478e-18

 7.873292580810106e-18  3.227695097107274e-20 -6.635710191103761e-01
 3.227695097107274e-20  5.568551551198042e-18  2.641551811222485e-01
-6.635710191103761e-01  2.641551811222485e-01  8.478306056975065e-18

 7.873292904149488e-18  3.217616235326130e-20 -6.635709925424130e-01
 3.217616235326130e-20  5.568550536171342e-18  2.641495062461471e-01
-6.635709925424130e-01  2.641495062461471e-01  8.478305739327085e-18

 7.873293232097434e-18  3.207508935419558e-20 -6.635709655875223e-01
 3.207508935419558e-20  5.568549742805438e-18  2.641438149463597e-01
-6.635709655875223e-01  2.641438149463597e-01  8.478305417079395e-18

 7.873293564671417e-18  3.197372736035398e-20 -6.635709382442557e-01
 3.197372736035398e-20  5.568548903424063e-18  2.641381071712567e-01
-6.635709382442557e-01  2.641381071712567e-01  8.478305090214818e-18

 7.873293901888797e-18  3.187204528134576e-20 -6.635709105111556e-01
 3.187204528134576e-20  5.568547926551050e-18  2.641323816249393e-01
-6.635709105111556e-01  2.641323816249393e-01  8.478304758716017e-18

 7.873294243767230e-18  3.177008396351217e-20 -6.635708823867585e-01
 3.177008396351217e-20  5.568546978632374e-18  2.641266399150138e-01
-6.635708823867585e-01  2.641266399150138e-01  8.478304422565631e-18

 7.873294590324225e-18  3.166780351079738e-20 -6.635708538695950e-01
 3.166780351079738e-20  5.568546072121556e-18  2.641208803307034e-01
-6.635708538695950e-01  2.641208803307034e-01  8.478304081746220e-18

 7.873294941577570e-18  3.156524126342372e-20 -6.635708249581893e-01
 3.156524126342372e-20  5.568545162291387e-18  2.641151044803094e-01
-6.635708249581893e-01  2.641151044803094e-01  8.478303736240237e-18

 7.873295297544960e-18  3.146235826237093e-20 -6.635707956510570e-01
 3.146235826237093e-20  5.568544346492704e-18  2.641093106531135e-01
-6.635707956510570e-01  2.641093106531135e-01  8.478303386030048e-18

 7.873295658244303e-18  3.135918692757452e-20 -6.635707659467093e-01
 3.135918692757452e-20  5.568543110414575e-18  2.641035004573243e-01
-6.635707659467093e-01  2.641035004573243e-01  8.478303031097995e-18

 7.873296023693490e-18  3.125569750218584e-20 -6.635707358436468e-01
 3.125569750218584e-20  5.568542421467919e-18  2.640976721825999e-01
-6.635707358436468e-01  2.640976721825999e-01  8.478302671426268e-18

 7.873296393910556e-18  3.115191744687602e-20 -6.635707053403679e-01
 3.115191744687602e-20  5.568541225198884e-18  2.640918274372496e-01
-6.635707053403679e-01  2.640918274372496e-01  8.478302306997018e-18

 7.873296768913550e-18  3.104781517885532e-20 -6.635706744353593e-01
 3.104781517885532e-20  5.568540315101447e-18  2.640859645112634e-01
-6.635706744353593e-01  2.640859645112634e-01  8.478301937792285e-18

 7.873297148720687e-18  3.094341476606939e-20 -6.635706431271050e-01
 3.094341476606939e-20  5.568539296100117e-18  2.640800845982226e-01
-6.635706431271050e-01  2.640800845982226e-01  8.478301563794077e-18

 7.873297533350178e-18  3.083871955719314e-20 -6.635706114140799e-01
 3.083871955719314e-20  5.568538529584316e-18  2.640741876475640e-01
-6.635706114140799e-01  2.640741876475640e-01  8.478301184984242e-18

 7.873297922820342e-18  3.073369155931847e-20 -6.635705792947498e-01
 3.073369155931847e-20  5.568537316536269e-18  2.640682723640168e-01
-6.635705792947498e-01  2.640682723640168e-01  8.478300801344625e-18

 7.873298317149628e-18  3.062837512331356e-20 -6.635705467675789e-01
 3.062837512331356e-20  5.568536267365978e-18  2.640623403566960e-01
-6.635705467675789e-01  2.640623403566960e-01  8.478300412856917e-18

 7.873298716356501e-18  3.052272939676994e-20 -6.635705138310186e-01
 3.052272939676994e-20  5.568535257072078e-18  2.640563899156157e-01
-6.635705138310186e-01  2.640563899156157e-01  8.478300019502788e-18

 7.873299120459538e-18  3.041678963897096e-20 -6.635704804835165e-01
 3.041678963897096e-20  5.568534026188105e-18  2.640504226500129e-01
-6.635704804835165e-01  2.640504226500129e-01  8.478299621263749e-18

 7.873299529477389e-18  3.031052243192431e-20 -6.635704467235105e-01
 3.031052243192431e-20  5.568533168763161e-18  2.640444368500496e-01
-6.635704467235105e-01  2.640444368500496e-01  8.478299218121294e-18

 7.873299943428833e-18  3.020396039621716e-20 -6.635704125494363e-01
 3.020396039621716e-20  5.568532163641888e-18  2.640384341252019e-01
-6.635704125494363e-01  2.640384341252019e-01  8.478298810056826e-18

 7.873300362332603e-18  3.009706119819974e-20 -6.635703779597145e-01
 3.009706119819974e-20  5.568530839587130e-18  2.640324127658117e-01
-6.635703779597145e-01  2.640324127658117e-01  8.478298397051582e-18

 7.873300786207711e-18  2.998986876560725e-20 -6.635703429527665e-01
 2.998986876560725e-20  5.568529642964563e-18  2.640263743815418e-01
-6.635703429527665e-01  2.640263743815418e-01  8.478297979086807e-18

 7.873301215073093e-18  2.988234421296145e-20 -6.635703075269987e-01
 2.988234421296145e-20  5.568528746218155e-18  2.640203172628349e-01
-6.635703075269987e-01  2.640203172628349e-01  8.478297556143626e-18

 7.873301648947859e-18  2.977451252466688e-20 -6.635702716808176e-01
 2.977451252466688e-20  5.568527791966433e-18  2.640142426046202e-01
-6.635702716808176e-01  2.640142426046202e-01  8.478297128203054e-18

 7.873302087851140e-18  2.966637143820970e-20 -6.635702354126173e-01
 2.966637143820970e-20  5.568526617466000e-18  2.640081503572337e-01
-6.635702354126173e-01  2.640081503572337e-01  8.478296695246034e-18

 7.873302531802195e-18  2.955789195402007e-20 -6.635701987207845e-01
 2.955789195402007e-20  5.568525450750951e-18  2.640020392263137e-01
-6.635701987207845e-01  2.640020392263137e-01  8.478296257253429e-18

 7.873302980820429e-18  2.944911093325563e-20 -6.635701616037004e-01
 2.944911093325563e-20  5.568524072542021e-18  2.639959108218070e-01
-6.635701616037004e-01  2.639959108218070e-01  8.478295814206021e-18

 7.873303434925146e-18  2.933999033472426e-20 -6.635701240597376e-01
 2.933999033472426e-20  5.568522771294734e-18  2.639897634348279e-01
-6.635701240597376e-01  2.639897634348279e-01  8.478295366084435e-18

 7.873303894135977e-18  2.923057058164741e-20 -6.635700860872616e-01
 2.923057058164741e-20  5.568521522491519e-18  2.639835986753592e-01
-6.635700860872616e-01  2.639835986753592e-01  8.478294912869313e-18

 7.873304358472458e-18  2.912081135299647e-20 -6.635700476846292e-01
 2.912081135299647e-20  5.568520475707082e-18  2.639774148348407e-01
-6.635700476846292e-01  2.639774148348407e-01  8.478294454541113e-18

 7.873304827954327e-18  2.901074570475095e-20 -6.635700088501910e-01
 2.901074570475095e-20  5.568519091810226e-18  2.639712135232679e-01
-6.635700088501910e-01  2.639712135232679e-01  8.478293991080247e-18

 7.873305302601323e-18  2.890034128135329e-20 -6.635699695822876e-01
 2.890034128135329e-20  5.568518031791521e-18  2.639649930320686e-01
-6.635699695822876e-01  2.639649930320686e-01  8.478293522467005e-18

 7.873305782433370e-18  2.878961833887201e-20 -6.635699298792552e-01
 2.878961833887201e-20  5.568516669627217e-18  2.639587545569890e-01
-6.635699298792552e-01  2.639587545569890e-01  8.478293048681646e-18

 7.873306267470434e-18  2.867858142263953e-20 -6.635698897394199e-01
 2.867858142263953e-20  5.568515427828560e-18  2.639524980488578e-01
-6.635698897394199e-01  2.639524980488578e-01  8.478292569704280e-18

 7.873306757732508e-18  2.856720063248626e-20 -6.635698491610977e-01
 2.856720063248626e-20  5.568514322843325e-18  2.639462222142049e-01
-6.635698491610977e-01  2.639462222142049e-01  8.478292085514912e-18

 7.873307253239828e-18  2.845551101392241e-20 -6.635698081426025e-01
 2.845551101392241e-20  5.568513063110341e-18  2.639399286636418e-01
-6.635698081426025e-01  2.639399286636418e-01  8.478291596093507e-18

 7.873307754012539e-18  2.834347049847236e-20 -6.635697666822334e-01
 2.834347049847236e-20  5.568511469569113e-18  2.639336156889633e-01
-6.635697666822334e-01  2.639336156889633e-01  8.478291101419876e-18

 7.873308260071118e-18  2.823112553946098e-20 -6.635697247782882e-01
 2.823112553946098e-20  5.568510298788602e-18  2.639272849010528e-01
-6.635697247782882e-01  2.639272849010528e-01  8.478290601473807e-18

 7.873308771435865e-18  2.811842984133237e-20 -6.635696824290505e-01
 2.811842984133237e-20  5.568508919188990e-18  2.639209345917076e-01
-6.635696824290505e-01  2.639209345917076e-01  8.478290096234911e-18

 7.873309288127381e-18  2.800542228625253e-20 -6.635696396328012e-01
 2.800542228625253e-20  5.568507427399012e-18  2.639145663719417e-01
-6.635696396328012e-01  2.639145663719417e-01  8.478289585682776e-18

 7.873309810166266e-18  2.789206611519090e-20 -6.635695963878089e-01
 2.789206611519090e-20  5.568506145251849e-18  2.639081785338547e-01
-6.635695963878089e-01  2.639081785338547e-01  8.478289069796821e-18

 7.873310337573248e-18  2.777839808920716e-20 -6.635695526923340e-01
 2.777839808920716e-20  5.568504920596071e-18  2.639017726883917e-01
-6.635695526923340e-01  2.639017726883917e-01  8.478288548556425e-18

 7.873310870369141e-18  2.766437460700217e-20 -6.635695085446326e-01
 2.766437460700217e-20  5.568503347760501e-18  2.638953471279974e-01
-6.635695085446326e-01  2.638953471279974e-01  8.478288021940840e-18

 7.873311408574846e-18  2.755002880704998e-20 -6.635694639429491e-01
 2.755002880704998e-20  5.568501920214332e-18  2.638889030487054e-01
-6.635694639429491e-01  2.638889030487054e-01  8.478287489929243e-18

 7.873311952211424e-18  2.743535875029091e-20 -6.635694188855205e-01
 2.743535875029091e-20  5.568500558148729e-18  2.638824404027176e-01
-6.635694188855205e-01  2.638824404027176e-01  8.478286952500683e-18

 7.873312501299903e-18  2.732033258487023e-20 -6.635693733705736e-01
 2.732033258487023e-20  5.568499025824050e-18  2.638759578970775e-01
-6.635693733705736e-01  2.638759578970775e-01  8.478286409634110e-18

 7.873313055861536e-18  2.720499041391541e-20 -6.635693273963301e-01
 2.720499041391541e-20  5.568497581400056e-18  2.638694571433531e-01
-6.635693273963301e-01  2.638694571433531e-01  8.478285861308404e-18

 7.873313615917662e-18  2.708929152020704e-20 -6.635692809610004e-01
 2.708929152020704e-20  5.568496126331531e-18  2.638629364340057e-01
-6.635692809610004e-01  2.638629364340057e-01  8.478285307502314e-18

 7.873314181489671e-18  2.697327354300023e-20 -6.635692340627888e-01
 2.697327354300023e-20  5.568494609753794e-18  2.638563973805716e-01
-6.635692340627888e-01  2.638563973805716e-01  8.478284748194513e-18

 7.873314752599027e-18  2.685689758475487e-20 -6.635691866998863e-01
 2.685689758475487e-20  5.568493035065451e-18  2.638498382758870e-01
-6.635691866998863e-01  2.638498382758870e-01  8.478284183363523e-18

 7.873315329267460e-18  2.674020322447879e-20 -6.635691388704816e-01
 2.674020322447879e-20  5.568491647356367e-18  2.638432607316311e-01
-6.635691388704816e-01  2.638432607316311e-01  8.478283612987808e-18

 7.873315911516564e-18  2.662315059865145e-20 -6.635690905727486e-01
 2.662315059865145e-20  5.568490374047116e-18  2.638366630404664e-01
-6.635690905727486e-01  2.638366630404664e-01  8.478283037045724e-18

 7.873316499368224e-18  2.650576238704444e-20 -6.635690418048563e-01
 2.650576238704444e-20  5.568488663214311e-18  2.638300463996343e-01
-6.635690418048563e-01  2.638300463996343e-01  8.478282455515495e-18

 7.873317092844388e-18  2.638804006747261e-20 -6.635689925649632e-01
 2.638804006747261e-20  5.568486828581226e-18  2.638234107612635e-01
-6.635689925649632e-01  2.638234107612635e-01  8.478281868375275e-18

 7.873317691967022e-18  2.626996148849942e-20 -6.635689428512187e-01
 2.626996148849942e-20  5.568485564550232e-18  2.638167548332411e-01
-6.635689428512187e-01  2.638167548332411e-01  8.478281275603055e-18

 7.873318296758322e-18  2.615155284696020e-20 -6.635688926617657e-01
 2.615155284696020e-20  5.568483749473634e-18  2.638100802278520e-01
-6.635688926617657e-01  2.638100802278520e-01  8.478280677176820e-18

 7.873318907240462e-18  2.603278242128351e-20 -6.635688419947329e-01
 2.603278242128351e-20  5.568482122595616e-18  2.638033852380001e-01
-6.635688419947329e-01  2.638033852380001e-01  8.478280073074318e-18

 7.873319523435890e-18  2.591368720619300e-20 -6.635687908482450e-01
 2.591368720619300e-20  5.568480572480989e-18  2.637966714757630e-01
-6.635687908482450e-01  2.637966714757630e-01  8.478279463273307e-18

 7.873320145366991e-18  2.579422760737284e-20 -6.635687392204151e-01
 2.579422760737284e-20  5.568479127542022e-18  2.637899372344825e-01
-6.635687392204151e-01  2.637899372344825e-01  8.478278847751351e-18

 7.873320773056350e-18  2.567443883624018e-20 -6.635686871093465e-01
 2.567443883624018e-20  5.568477484021096e-18  2.637831841263467e-01
-6.635686871093465e-01  2.637831841263467e-01  8.478278226485948e-18

 7.873321406526636e-18  2.555428182595264e-20 -6.635686345131351e-01
 2.555428182595264e-20  5.568475788885145e-18  2.637764104447528e-01
-6.635686345131351e-01  2.637764104447528e-01  8.478277599454472e-18

 7.873322045800669e-18  2.543379429078140e-20 -6.635685814298662e-01
 2.543379429078140e-20  5.568474016340001e-18  2.637696178020306e-01
-6.635685814298662e-01  2.637696178020306e-01  8.478276966634201e-18

 7.873322690901302e-18  2.531293879375134e-20 -6.635685278576152e-01
 2.531293879375134e-20  5.568472240093625e-18  2.637628044914277e-01
-6.635685278576152e-01  2.637628044914277e-01  8.478276328002269e-18

 7.873323341851587e-18  2.519175492907047e-20 -6.635684737944496e-01
 2.519175492907047e-20  5.568470747722252e-18  2.637559721255542e-01
-6.635684737944496e-01  2.637559721255542e-01  8.478275683535715e-18

 7.873323998674608e-18  2.507020533615211e-20 -6.635684192384264e-01
 2.507020533615211e-20  5.568468708490945e-18  2.637491194129827e-01
-6.635684192384264e-01  2.637491194129827e-01  8.478275033211502e-18

 7.873324661393589e-18  2.494829668344049e-20 -6.635683641875919e-01
 2.494829668344049e-20  5.568466989732417e-18  2.637422463064868e-01
-6.635683641875919e-01  2.637422463064868e-01  8.478274377006393e-18

 7.873325330031956e-18  2.482605476502830e-20 -6.635683086399847e-01
 2.482605476502830e-20  5.568465167422230e-18  2.637353540038212e-01
-6.635683086399847e-01  2.637353540038212e-01  8.478273714897120e-18

 7.873326004613105e-18  2.470344911757973e-20 -6.635682525936319e-01
 2.470344911757973e-20  5.568463392815731e-18  2.637284412136267e-01
-6.635682525936319e-01  2.637284412136267e-01  8.478273046860240e-18

 7.873326685160633e-18  2.458048770211120e-20 -6.635681960465528e-01
 2.458048770211120e-20  5.568461358328568e-18  2.637215083040982e-01
-6.635681960465528e-01  2.637215083040982e-01  8.478272372872231e-18

 7.873327371698230e-18  2.445716538216350e-20 -6.635681389967533e-01
 2.445716538216350e-20  5.568459794920710e-18  2.637145548133945e-01
-6.635681389967533e-01  2.637145548133945e-01  8.478271692909437e-18

 7.873328064249730e-18  2.433350485184604e-20 -6.635680814422333e-01
 2.433350485184604e-20  5.568458045148030e-18  2.637075819393815e-01
-6.635680814422333e-01  2.637075819393815e-01  8.478271006948081e-18

 7.873328762839080e-18  2.420947183337510e-20 -6.635680233809809e-01
 2.420947183337510e-20  5.568455731595955e-18  2.637005883907342e-01
-6.635680233809809e-01  2.637005883907342e-01  8.478270314964289e-18

 7.873329467490262e-18  2.408508343841762e-20 -6.635679648109728e-01
 2.408508343841762e-20  5.568454546517242e-18  2.636935741211804e-01
-6.635679648109728e-01  2.636935741211804e-01  8.478269616934028e-18

 7.873330178227546e-18  2.396034378157125e-20 -6.635679057301784e-01
 2.396034378157125e-20  5.568452188017143e-18  2.636865403283377e-01
-6.635679057301784e-01  2.636865403283377e-01  8.478268912833189e-18

 7.873330895075110e-18  2.383522959916681e-20 -6.635678461365532e-01
 2.383522959916681e-20  5.568450136703950e-18  2.636794853063204e-01
-6.635678461365532e-01  2.636794853063204e-01  8.478268202637486e-18

 7.873331618057469e-18  2.370977979644728e-20 -6.635677860280477e-01
 2.370977979644728e-20  5.568448704123244e-18  2.636724106679878e-01
-6.635677860280477e-01  2.636724106679878e-01  8.478267486322580e-18

 7.873332347199103e-18  2.358394818129295e-20 -6.635677254025945e-01
 2.358394818129295e-20  5.568447069010409e-18  2.636653147073942e-01
-6.635677254025945e-01  2.636653147073942e-01  8.478266763863929e-18

 7.873333082524696e-18  2.345777156243027e-20 -6.635676642581226e-01
 2.345777156243027e-20  5.568445086894474e-18  2.636581990376354e-01
-6.635676642581226e-01  2.636581990376354e-01  8.478266035236953e-18

 7.873333824059001e-18  2.333120892253561e-20 -6.635676025925473e-01
 2.333120892253561e-20  5.568442819446146e-18  2.636510619526680e-01
-6.635676025925473e-01  2.636510619526680e-01  8.478265300416867e-18

 7.873334571827001e-18  2.320430826654364e-20 -6.635675404037742e-01
 2.320430826654364e-20  5.568441002207299e-18  2.636439050656743e-01
-6.635675404037742e-01  2.636439050656743e-01  8.478264559378827e-18

 7.873335325853644e-18  2.307701948629702e-20 -6.635674776896953e-01
 2.307701948629702e-20  5.568438799045071e-18  2.636367266707530e-01
-6.635674776896953e-01  2.636367266707530e-01  8.478263812097794e-18

 7.873336086164154e-18  2.294938923398295e-20 -6.635674144481968e-01
 2.294938923398295e-20  5.568436892275274e-18  2.636295283808712e-01
-6.635674144481968e-01  2.636295283808712e-01  8.478263058548666e-18

 7.873336852783778e-18  2.282136912225667e-20 -6.635673506771506e-01
 2.282136912225667e-20  5.568434570231773e-18  2.636223084904559e-01
-6.635673506771506e-01  2.636223084904559e-01  8.478262298706171e-18

 7.873337625737968e-18  2.269300703332852e-20 -6.635672863744185e-01
 2.269300703332852e-20  5.568432800713764e-18  2.636150686124482e-01
-6.635672863744185e-01  2.636150686124482e-01  8.478261532544899e-18

 7.873338405052276e-18  2.256427109563999e-20 -6.635672215378503e-01
 2.256427109563999e-20  5.568431303837856e-18  2.636078074561419e-01
-6.635672215378503e-01  2.636078074561419e-01  8.478260760039394e-18

 7.873339190752367e-18  2.243514291200243e-20 -6.635671561652875e-01
 2.243514291200243e-20  5.568428381957059e-18  2.636005249750833e-01
-6.635671561652875e-01  2.636005249750833e-01  8.478259981163941e-18

 7.873339982864060e-18  2.230567664727705e-20 -6.635670902545572e-01
 2.230567664727705e-20  5.568426585355432e-18  2.635932223676515e-01
-6.635670902545572e-01  2.635932223676515e-01  8.478259195892769e-18

 7.873340781413294e-18  2.217582620365800e-20 -6.635670238034768e-01
 2.217582620365800e-20  5.568424296365940e-18  2.635858983432539e-01
-6.635670238034768e-01  2.635858983432539e-01  8.478258404199952e-18

 7.873341586426139e-18  2.204560758872542e-20 -6.635669568098532e-01
 2.204560758872542e-20  5.568422216329658e-18  2.635785532701652e-01
-6.635669568098532e-01  2.635785532701652e-01  8.478257606059482e-18

 7.873342397928853e-18  2.191500669937126e-20 -6.635668892714794e-01
 2.191500669937126e-20  5.568420061716642e-18  2.635711866875817e-01
-6.635668892714794e-01  2.635711866875817e-01  8.478256801445117e-18

 7.873343215947729e-18  2.178405079106612e-20 -6.635668211861394e-01
 2.178405079106612e-20  5.568417630082129e-18  2.635637997936123e-01
-6.635668211861394e-01  2.635637997936123e-01  8.478255990330552e-18

 7.873344040509332e-18  2.165272180527227e-20 -6.635667525516027e-01
 2.165272180527227e-20  5.568416233166444e-18  2.635563912977672e-01
-6.635667525516027e-01  2.635563912977672e-01  8.478255172689318e-18

 7.873344871640206e-18  2.152099411026842e-20 -6.635666833656313e-01
 2.152099411026842e-20  5.568413239013892e-18  2.635489611537548e-01
-6.635666833656313e-01  2.635489611537548e-01  8.478254348494829e-18

 7.873345709367134e-18  2.138892428656942e-20 -6.635666136259725e-01
 2.138892428656942e-20  5.568411508911624e-18  2.635415105599035e-01
-6.635666136259725e-01  2.635415105599035e-01  8.478253517720327e-18

 7.873346553717046e-18  2.125645591050140e-20 -6.635665433303602e-01
 2.125645591050140e-20  5.568409514566691e-18  2.635340378107627e-01
-6.635665433303602e-01  2.635340378107627e-01  8.478252680338920e-18

 7.873347404716974e-18  2.112362859262485e-20 -6.635664724765209e-01
 2.112362859262485e-20  5.568407155042806e-18  2.635265445193755e-01
-6.635664724765209e-01  2.635265445193755e-01  8.478251836323606e-18

 7.873348262394117e-18  2.099039889192272e-20 -6.635664010621644e-01
 2.099039889192272e-20  5.568404304942169e-18  2.635190289802879e-01
-6.635664010621644e-01  2.635190289802879e-01  8.478250985647195e-18

 7.873349126775823e-18  2.085681958943065e-20 -6.635663290849938e-01
 2.085681958943065e-20  5.568402286028536e-18  2.635114928067997e-01
-6.635663290849938e-01  2.635114928067997e-01  8.478250128282411e-18

 7.873349997889507e-18  2.072284390460021e-20 -6.635662565426922e-01
 2.072284390460021e-20  5.568400427405878e-18  2.635039342930423e-01
-6.635662565426922e-01  2.635039342930423e-01  8.478249264201736e-18

 7.873350875762795e-18  2.058849739258492e-20 -6.635661834329385e-01
 2.058849739258492e-20  5.568397419834758e-18  2.634963550525691e-01
-6.635661834329385e-01  2.634963550525691e-01  8.478248393377628e-18

 7.873351760423529e-18  2.045376170304430e-20 -6.635661097533930e-01
 2.045376170304430e-20  5.568395519631657e-18  2.634887533795222e-01
-6.635661097533930e-01  2.634887533795222e-01  8.478247515782303e-18

 7.873352651899578e-18  2.031865995933834e-20 -6.635660355017081e-01
 2.031865995933834e-20  5.568393195456635e-18  2.634811308872775e-01
-6.635660355017081e-01  2.634811308872775e-01  8.478246631387870e-18

 7.873353550218969e-18  2.018315898952471e-20 -6.635659606755203e-01
 2.018315898952471e-20  5.568390994633253e-18  2.634734858701910e-01
-6.635659606755203e-01  2.634734858701910e-01  8.478245740166281e-18

 7.873354455409973e-18  2.004728220863094e-20 -6.635658852724549e-01
 2.004728220863094e-20  5.568388513629509e-18  2.634658195265538e-01
-6.635658852724549e-01  2.634658195265538e-01  8.478244842089332e-18

 7.873355367500947e-18  1.991102894835234e-20 -6.635658092901247e-01
 1.991102894835234e-20  5.568385791275886e-18  2.634581318100616e-01
-6.635658092901247e-01  2.634581318100616e-01  8.478243937128677e-18

 7.873356286520360e-18  1.977437541332995e-20 -6.635657327261272e-01
 1.977437541332995e-20  5.568383309334477e-18  2.634504214301029e-01
-6.635657327261272e-01  2.634504214301029e-01  8.478243025255800e-18

 7.873357212496941e-18  1.963735185303957e-20 -6.635656555780514e-01
 1.963735185303957e-20  5.568380427343753e-18  2.634426899997649e-01
-6.635656555780514e-01  2.634426899997649e-01  8.478242106442071e-18

 7.873358145459491e-18  1.949993098981433e-20 -6.635655778434681e-01
 1.949993098981433e-20  5.568378369185038e-18  2.634349358131296e-01
-6.635655778434681e-01  2.634349358131296e-01  8.478241180658643e-18

 7.873359085436973e-18  1.936214179068560e-20 -6.635654995199387e-01
 1.936214179068560e-20  5.568376159177540e-18  2.634271604836773e-01
-6.635654995199387e-01  2.634271604836773e-01  8.478240247876561e-18

 7.873360032458566e-18  1.922394560026883e-20 -6.635654206050084e-01
 1.922394560026883e-20  5.568373898310365e-18  2.634193623053880e-01
-6.635654206050084e-01  2.634193623053880e-01  8.478239308066691e-18

 7.873360986553526e-18  1.908537395219812e-20 -6.635653410962138e-01
 1.908537395219812e-20  5.568371039595127e-18  2.634115428912902e-01
-6.635653410962138e-01  2.634115428912902e-01  8.478238361199753e-18

 7.873361947751323e-18  1.894639588413187e-20 -6.635652609910700e-01
 1.894639588413187e-20  5.568368310200613e-18  2.634037005358003e-01
-6.635652609910700e-01  2.634037005358003e-01  8.478237407246289e-18

 7.873362916081607e-18  1.880704859863219e-20 -6.635651802870872e-01
 1.880704859863219e-20  5.568365759445593e-18  2.633958368517031e-01
-6.635651802870872e-01  2.633958368517031e-01  8.478236446176686e-18

 7.873363891574069e-18  1.866729929010538e-20 -6.635650989817560e-01
 1.866729929010538e-20  5.568363000904762e-18  2.633879505479895e-01
-6.635650989817560e-01  2.633879505479895e-01  8.478235477961211e-18

 7.873364874258757e-18  1.852715345152764e-20 -6.635650170725556e-01
 1.852715345152764e-20  5.568360743049331e-18  2.633800415782962e-01
-6.635650170725556e-01  2.633800415782962e-01  8.478234502569873e-18

 7.873365864165695e-18  1.838663178070239e-20 -6.635649345569506e-01
 1.838663178070239e-20  5.568358105850936e-18  2.633721111406981e-01
-6.635649345569506e-01  2.633721111406981e-01  8.478233519972601e-18

 7.873366861325205e-18  1.824571020422234e-20 -6.635648514323914e-01
 1.824571020422234e-20  5.568355793233068e-18  2.633641579438343e-01
-6.635648514323914e-01  2.633641579438343e-01  8.478232530139120e-18

 7.873367865767689e-18  1.810438374321991e-20 -6.635647676963140e-01
 1.810438374321991e-20  5.568352332679441e-18  2.633561823562995e-01
-6.635647676963140e-01  2.633561823562995e-01  8.478231533039010e-18

 7.873368877523799e-18  1.796266369627962e-20 -6.635646833461426e-01
 1.796266369627962e-20  5.568350008918131e-18  2.633481839162504e-01
-6.635646833461426e-01  2.633481839162504e-01  8.478230528641626e-18

 7.873369896624260e-18  1.782056281472610e-20 -6.635645983792836e-01
 1.782056281472610e-20  5.568347197580123e-18  2.633401638218987e-01
-6.635645983792836e-01  2.633401638218987e-01  8.478229516916218e-18

 7.873370923100089e-18  1.767805419640200e-20 -6.635645127931300e-01
 1.767805419640200e-20  5.568344190701165e-18  2.633321207814902e-01
-6.635645127931300e-01  2.633321207814902e-01  8.478228497831855e-18

 7.873371956982353e-18  1.753515404256702e-20 -6.635644265850599e-01
 1.753515404256702e-20  5.568341760409227e-18  2.633240551635381e-01
-6.635644265850599e-01  2.633240551635381e-01  8.478227471357383e-18

 7.873372998302354e-18  1.739184798248543e-20 -6.635643397524410e-01
 1.739184798248543e-20  5.568339444502644e-18  2.633159665061964e-01
-6.635643397524410e-01  2.633159665061964e-01  8.478226437461504e-18

 7.873374047091576e-18  1.724814297894015e-20 -6.635642522926181e-01
 1.724814297894015e-20  5.568336141244393e-18  2.633078555922267e-01
-6.635642522926181e-01  2.633078555922267e-01  8.478225396112776e-18

 7.873375103381671e-18  1.710405550776297e-20 -6.635641642029283e-01
 1.710405550776297e-20  5.568333649641496e-18  2.632997223746447e-01
-6.635641642029283e-01  2.632997223746447e-01  8.478224347279531e-18

 7.873376167204452e-18  1.695954460328043e-20 -6.635640754806883e-01
 1.695954460328043e-20  5.568330794432396e-18  2.632915655620814e-01
-6.635640754806883e-01  2.632915655620814e-01  8.478223290929942e-18

 7.873377238591929e-18  1.681465165980290e-20 -6.635639861232064e-01
 1.681465165980290e-20  5.568327829561543e-18  2.632833867666183e-01
-6.635639861232064e-01  2.632833867666183e-01  8.478222227032002e-18

 7.873378317576267e-18  1.666934153727849e-20 -6.635638961277643e-01
 1.666934153727849e-20  5.568325252147841e-18  2.632751842820005e-01
-6.635638961277643e-01  2.632751842820005e-01  8.478221155553500e-18

 7.873379404189897e-18  1.652363995448713e-20 -6.635638054916421e-01
 1.652363995448713e-20  5.568321914540599e-18  2.632669597203300e-01
-6.635638054916421e-01  2.632669597203300e-01  8.478220076462108e-18

 7.873380498465325e-18  1.637752430409492e-20 -6.635637142120936e-01
 1.637752430409492e-20  5.568319511498059e-18  2.632587113747754e-01
-6.635637142120936e-01  2.632587113747754e-01  8.478218989725205e-18

 7.873381600435284e-18  1.623101243707737e-20 -6.635636222863625e-01
 1.623101243707737e-20  5.568315884870757e-18  2.632504408574417e-01
-6.635636222863625e-01  2.632504408574417e-01  8.478217895310094e-18

 7.873382710132717e-18  1.608408158263938e-20 -6.635635297116724e-01
 1.608408158263938e-20  5.568312944950538e-18  2.632421464617913e-01
-6.635635297116724e-01  2.632421464617913e-01  8.478216793183832e-18

 7.873383827590711e-18  1.593676190841638e-20 -6.635634364852362e-01
 1.593676190841638e-20  5.568310736479872e-18  2.632338293845782e-01
-6.635634364852362e-01  2.632338293845782e-01  8.478215683313287e-18

 7.873384952842644e-18  1.578903279979166e-20 -6.635633426042455e-01
 1.578903279979166e-20  5.568307217241189e-18  2.632254895784146e-01
-6.635633426042455e-01  2.632254895784146e-01  8.478214565665168e-18

 7.873386085921914e-18  1.564087744654062e-20 -6.635632480658804e-01
 1.564087744654062e-20  5.568303826709506e-18  2.632171257511265e-01
-6.635632480658804e-01  2.632171257511265e-01  8.478213440205911e-18

 7.873387226862269e-18  1.549234041365028e-20 -6.635631528673018e-01
 1.549234041365028e-20  5.568301223780270e-18  2.632087395141998e-01
-6.635631528673018e-01  2.632087395141998e-01  8.478212306901892e-18

 7.873388375697545e-18  1.534337561129674e-20 -6.635630570056535e-01
 1.534337561129674e-20  5.568298691136900e-18  2.632003291606679e-01
-6.635630570056535e-01  2.632003291606679e-01  8.478211165719176e-18

 7.873389532461860e-18  1.519400886218496e-20 -6.635629604780652e-01
 1.519400886218496e-20  5.568295037140883e-18  2.631918963018202e-01
-6.635629604780652e-01  2.631918963018202e-01  8.478210016623676e-18

 7.873390697189532e-18  1.504422203096733e-20 -6.635628632816469e-01
 1.504422203096733e-20  5.568292443306582e-18  2.631834392304729e-01
-6.635628632816469e-01  2.631834392304729e-01  8.478208859581101e-18

 7.873391869914952e-18  1.489403470337719e-20 -6.635627654134972e-01
 1.489403470337719e-20  5.568289024683807e-18  2.631749595578743e-01
-6.635627654134972e-01  2.631749595578743e-01  8.478207694556970e-18

 7.873393050672853e-18  1.474342026703364e-20 -6.635626668706898e-01
 1.474342026703364e-20  5.568286113055556e-18  2.631664555762421e-01
-6.635626668706898e-01  2.631664555762421e-01  8.478206521516592e-18

 7.873394239498075e-18  1.459240933103608e-20 -6.635625676502875e-01
 1.459240933103608e-20  5.568282952702147e-18  2.631579288970650e-01
-6.635625676502875e-01  2.631579288970650e-01  8.478205340425050e-18

 7.873395436425727e-18  1.444095883676427e-20 -6.635624677493328e-01
 1.444095883676427e-20  5.568279189314605e-18  2.631493778124115e-01
-6.635624677493328e-01  2.631493778124115e-01  8.478204151247261e-18

 7.873396641491097e-18  1.428911061983677e-20 -6.635623671648517e-01
 1.428911061983677e-20  5.568276214386201e-18  2.631408035182723e-01
-6.635623671648517e-01  2.631408035182723e-01  8.478202953947895e-18

 7.873397854729697e-18  1.363099193330740e-20 -6.635622658938535e-01
 1.363099193330740e-20  5.568273307258373e-18  2.631108869053664e-01
-6.635622658938535e-01  2.631108869053664e-01  8.478201748491461e-18

 7.873399076177223e-18  1.398417242691124e-20 -6.635621639333280e-01
 1.398417242691124e-20  5.568270052776413e-18  2.631235842776443e-01
-6.635621639333280e-01  2.631235842776443e-01  8.478200534842233e-18

 7.873400305869569e-18  1.383106806132273e-20 -6.635620612802483e-01
 1.383106806132273e-20  5.568266541004536e-18  2.631149388187387e-01
-6.635620612802483e-01  2.631149388187387e-01  8.478199312964274e-18

 7.873401543842929e-18  1.367753478361105e-20 -6.635619579315685e-01
 1.367753478361105e-20  5.568263003224809e-18  2.631062691258841e-01
-6.635619579315685e-01  2.631062691258841e-01  8.478198082821400e-18

 7.873696235824982e-18  7.720796743085826e-20 -6.635368236683462e-01
 7.720796743085826e-20  5.567463707724795e-18  2.666680821942062e-01
-6.635368236683462e-01  2.666680821942062e-01  8.477900877590838e-18

 7.873694435775275e-18  7.710821575675900e-20 -6.635369756107831e-01
 7.710821575675900e-20  5.567468456635200e-18  2.666625296813887e-01
-6.635369756107831e-01  2.666625296813887e-01  8.477902680244075e-18

 7.873692642683977e-18  7.700870593948917e-20 -6.635371269657729e-01
 7.700870593948917e-20  5.567473452262922e-18  2.666569908813536e-01
-6.635371269657729e-01  2.666569908813536e-01  8.477904475926586e-18

 7.873690856515617e-18  7.690947161761998e-20 -6.635372777363178e-01
 7.690947161761998e-20  5.567478267290237e-18  2.666514669830287e-01
-6.635372777363178e-01  2.666514669830287e-01  8.477906264673994e-18

 7.873689077234902e-18  7.681047154726346e-20 -6.635374279254019e-01
 7.681047154726346e-20  5.567482999803368e-18  2.666459562710092e-01
-6.635374279254019e-01  2.666459562710092e-01  8.477908046521651e-18

 7.873687304806830e-18  7.671173183767760e-20 -6.635375775359891e-01
 7.671173183767760e-20  5.567487704924791e-18  2.666404599342216e-01
-6.635375775359891e-01  2.666404599342216e-01  8.477909821504790e-18

 7.873685539196573e-18  7.661325392708394e-20 -6.635377265710213e-01
 7.661325392708394e-20  5.567492409612403e-18  2.666349779177234e-01
-6.635377265710213e-01  2.666349779177234e-01  8.477911589658250e-18

 7.873683780369581e-18  7.651500792631319e-20 -6.635378750334263e-01
 7.651500792631319e-20  5.567497046372958e-18  2.666295089217346e-01
-6.635378750334263e-01  2.666295089217346e-01  8.477913351016822e-18

 7.873682028291476e-18  7.641702739379888e-20 -6.635380229261075e-01
 7.641702739379888e-20  5.567501846210142e-18  2.666240545511547e-01
-6.635380229261075e-01  2.666240545511547e-01  8.477915105614926e-18

 7.873680282928157e-18  7.631927449570111e-20 -6.635381702519558e-01
 7.631927449570111e-20  5.567506576318746e-18  2.666186130918277e-01
-6.635381702519558e-01  2.666186130918277e-01  8.477916853486843e-18

 7.873678544245662e-18  7.622178965521815e-20 -6.635383170138371e-01
 7.622178965521815e-20  5.567511267594148e-18  2.666131861491108e-01
-6.635383170138371e-01  2.666131861491108e-01  8.477918594666588e-18

 7.873676812210334e-18  7.612453167355127e-20 -6.635384632146030e-01
 7.612453167355127e-20  5.567515842762255e-18  2.666077720094058e-01
-6.635384632146030e-01  2.666077720094058e-01  8.477920329188013e-18

 7.873675086788731e-18  7.602753808101863e-20 -6.635386088570845e-01
 7.602753808101863e-20  5.567520454951413e-18  2.666023722784137e-01
-6.635386088570845e-01  2.666023722784137e-01  8.477922057084698e-18

 7.873673367947507e-18  7.593076818295010e-20 -6.635387539440963e-01
 7.593076818295010e-20  5.567525079845205e-18  2.665969852431789e-01
-6.635387539440963e-01  2.665969852431789e-01  8.477923778389991e-18

 7.873671655653719e-18  7.583426130971545e-20 -6.635388984784331e-01
 7.583426130971545e-20  5.567529715730079e-18  2.665916125100470e-01
-6.635388984784331e-01  2.665916125100470e-01  8.477925493137119e-18

 7.873669949874468e-18  7.573797716782614e-20 -6.635390424628712e-01
 7.573797716782614e-20  5.567534364591081e-18  2.665862523661151e-01
-6.635390424628712e-01  2.665862523661151e-01  8.477927201358973e-18

 7.873668250577155e-18  7.564194558597996e-20 -6.635391859001735e-01
 7.564194558597996e-20  5.567538795191070e-18  2.665809060035356e-01
-6.635391859001735e-01  2.665809060035356e-01  8.477928903088341e-18

 7.873666557729359e-18  7.554616159642664e-20 -6.635393287930791e-01
 7.554616159642664e-20  5.567543349404923e-18  2.665755733693031e-01
-6.635393287930791e-01  2.665755733693031e-01  8.477930598357709e-18

 7.873664871298904e-18  7.545060988325341e-20 -6.635394711443127e-01
 7.545060988325341e-20  5.567547761842261e-18  2.665702535816213e-01
-6.635394711443127e-01  2.665702535816213e-01  8.477932287199446e-18

 7.873663191253778e-18  7.535529355573720e-20 -6.635396129565821e-01
 7.535529355573720e-20  5.567552309076133e-18  2.665649470030476e-01
-6.635396129565821e-01  2.665649470030476e-01  8.477933969645634e-18

 7.873661517562186e-18  7.526020403829424e-20 -6.635397542325758e-01
 7.526020403829424e-20  5.567556868225539e-18  2.665596531669908e-01
-6.635397542325758e-01  2.665596531669908e-01  8.477935645728186e-18

 7.873659850192543e-18  7.516537044354411e-20 -6.635398949749662e-01
 7.516537044354411e-20  5.567561477429467e-18  2.665543732662289e-01
-6.635398949749662e-01  2.665543732662289e-01  8.477937315478798e-18

 7.873658189113488e-18  7.507076758931359e-20 -6.635400351864102e-01
 7.507076758931359e-20  5.567565668103566e-18  2.665491060046322e-01
-6.635400351864102e-01  2.665491060046322e-01  8.477938978929007e-18

 7.873656534293815e-18  7.497639585440644e-20 -6.635401748695432e-01
 7.497639585440644e-20  5.567570122451108e-18  2.665438517458076e-01
-6.635401748695432e-01  2.665438517458076e-01  8.477940636110071e-18

 7.873654885702537e-18  7.488224819750090e-20 -6.635403140269887e-01
 7.488224819750090e-20  5.567574584148952e-18  2.665386100239249e-01
-6.635403140269887e-01  2.665386100239249e-01  8.477942287053103e-18

 7.873653243308854e-18  7.478834181140275e-20 -6.635404526613510e-01
 7.478834181140275e-20  5.567579033706437e-18  2.665333816179637e-01
-6.635404526613510e-01  2.665333816179637e-01  8.477943931789016e-18

 7.873651607082233e-18  7.469467783139438e-20 -6.635405907752174e-01
 7.469467783139438e-20  5.567583393904551e-18  2.665281664770534e-01
-6.635405907752174e-01  2.665281664770534e-01  8.477945570348493e-18

 7.873649976992240e-18  7.460122351248048e-20 -6.635407283711602e-01
 7.460122351248048e-20  5.567587918120587e-18  2.665229633064733e-01
-6.635407283711602e-01  2.665229633064733e-01  8.477947202762060e-18

 7.873648353008657e-18  7.450802045199264e-20 -6.635408654517340e-01
 7.450802045199264e-20  5.567592325362272e-18  2.665177737152527e-01
-6.635408654517340e-01  2.665177737152527e-01  8.477948829060018e-18

 7.873646735101500e-18  7.441502730736226e-20 -6.635410020194785e-01
 7.441502730736226e-20  5.567596700625208e-18  2.665125959939999e-01
-6.635410020194785e-01  2.665125959939999e-01  8.477950449272510e-18

 7.873645123240940e-18  7.432228301461154e-20 -6.635411380769154e-01
 7.432228301461154e-20  5.567600905016375e-18  2.665074317525739e-01
-6.635411380769154e-01  2.665074317525739e-01  8.477952063429431e-18

 7.873643517397388e-18  7.422974528120774e-20 -6.635412736265535e-01
 7.422974528120774e-20  5.567605246220668e-18  2.665022792816821e-01
-6.635412736265535e-01  2.665022792816821e-01  8.477953671560559e-18

 7.873641917541330e-18  7.413745409657635e-20 -6.635414086708806e-01
 7.413745409657635e-20  5.567609414967742e-18  2.664971401916293e-01
-6.635414086708806e-01  2.664971401916293e-01  8.477955273695423e-18

 7.873640323643565e-18  7.404536736941648e-20 -6.635415432123758e-01
 7.404536736941648e-20  5.567613735813795e-18  2.664920127736437e-01
-6.635415432123758e-01  2.664920127736437e-01  8.477956869863391e-18

 7.873638735675010e-18  7.395352548485583e-20 -6.635416772534947e-01
 7.395352548485583e-20  5.567617944622765e-18  2.664868986381456e-01
-6.635416772534947e-01  2.664868986381456e-01  8.477958460093652e-18

 7.873637153606798e-18  7.386188836754006e-20 -6.635418107966836e-01
 7.386188836754006e-20  5.567622231841242e-18  2.664817960771534e-01
-6.635418107966836e-01  2.664817960771534e-01  8.477960044415168e-18

 7.873635577410207e-18  7.377048123827907e-20 -6.635419438443703e-01
 7.377048123827907e-20  5.567626593061381e-18  2.664767062864812e-01
-6.635419438443703e-01  2.664767062864812e-01  8.477961622856792e-18

 7.873634007056732e-18  7.367931076138499e-20 -6.635420763989672e-01
 7.367931076138499e-20  5.567630559692029e-18  2.664716292176718e-01
-6.635420763989672e-01  2.664716292176718e-01  8.477963195447118e-18

 7.873632442518009e-18  7.358833689370962e-20 -6.635422084628729e-01
 7.358833689370962e-20  5.567634899465964e-18  2.664665635780451e-01
-6.635422084628729e-01  2.664665635780451e-01  8.477964762214613e-18

 7.873630883765914e-18  7.349760482738063e-20 -6.635423400384690e-01
 7.349760482738063e-20  5.567639117979192e-18  2.664615109791708e-01
-6.635423400384690e-01  2.664615109791708e-01  8.477966323187520e-18

 7.873629330772480e-18  7.340707274603681e-20 -6.635424711281253e-01
 7.340707274603681e-20  5.567643351632549e-18  2.664564697134789e-01
-6.635424711281253e-01  2.664564697134789e-01  8.477967878393951e-18

 7.873627783509849e-18  7.331677988586561e-20 -6.635426017341917e-01
 7.331677988586561e-20  5.567647358481365e-18  2.664514413929447e-01
-6.635426017341917e-01  2.664514413929447e-01  8.477969427861803e-18

 7.873626241950416e-18  7.322668156108597e-20 -6.635427318590089e-01
 7.322668156108597e-20  5.567651672559472e-18  2.664464243106542e-01
-6.635427318590089e-01  2.664464243106542e-01  8.477970971618822e-18

 7.873624706066742e-18  7.313682395420311e-20 -6.635428615048971e-01
 7.313682395420311e-20  5.567655635197358e-18  2.664414200788095e-01
-6.635428615048971e-01  2.664414200788095e-01  8.477972509692567e-18

 7.873623175831534e-18  7.304716085885097e-20 -6.635429906741673e-01
 7.304716085885097e-20  5.567659732563603e-18  2.664364269907694e-01
-6.635429906741673e-01  2.664364269907694e-01  8.477974042110402e-18

 7.873621651217652e-18  7.295772334262151e-20 -6.635431193691123e-01
 7.295772334262151e-20  5.567663838648229e-18  2.664314462442662e-01
-6.635431193691123e-01  2.664314462442662e-01  8.477975568899589e-18

 7.873620132198249e-18  7.286850876624300e-20 -6.635432475920120e-01
 7.286850876624300e-20  5.567667878350797e-18  2.664264777925905e-01
-6.635432475920120e-01  2.664264777925905e-01  8.477977090087112e-18

 7.873618618746451e-18  7.277949720682285e-20 -6.635433753451323e-01
 7.277949720682285e-20  5.567671930675323e-18  2.664215207593263e-01
-6.635433753451323e-01  2.664215207593263e-01  8.477978605699905e-18

 7.873617110835720e-18  7.269069854949305e-20 -6.635435026307239e-01
 7.269069854949305e-20  5.567676082042482e-18  2.664165755131070e-01
-6.635435026307239e-01  2.664165755131070e-01  8.477980115764618e-18

 7.873615608439594e-18  7.260210226184132e-20 -6.635436294510216e-01
 7.260210226184132e-20  5.567680133769369e-18  2.664116415928344e-01
-6.635436294510216e-01  2.664116415928344e-01  8.477981620307840e-18

 7.873614111531847e-18  7.251373655972517e-20 -6.635437558082512e-01
 7.251373655972517e-20  5.567684137463855e-18  2.664067201968740e-01
-6.635437558082512e-01  2.664067201968740e-01  8.477983119355904e-18

 7.873612620086333e-18  7.242557140159844e-20 -6.635438817046211e-01
 7.242557140159844e-20  5.567688182635116e-18  2.664018100349854e-01
-6.635438817046211e-01  2.664018100349854e-01  8.477984612935039e-18

 7.873611134077145e-18  7.233761300716864e-20 -6.635440071423259e-01
 7.233761300716864e-20  5.567692211934322e-18  2.663969114761922e-01
-6.635440071423259e-01  2.663969114761922e-01  8.477986101071259e-18

 7.873609653478502e-18  7.224985722380283e-20 -6.635441321235463e-01
 7.224985722380283e-20  5.567696152221809e-18  2.663920240600093e-01
-6.635441321235463e-01  2.663920240600093e-01  8.477987583790477e-18

 7.873608178264754e-18  7.216232675861856e-20 -6.635442566504508e-01
 7.216232675861856e-20  5.567700064359896e-18  2.663871489857069e-01
-6.635442566504508e-01  2.663871489857069e-01  8.477989061118382e-18

 7.873606708410511e-18  7.207499414905510e-20 -6.635443807251935e-01
 7.207499414905510e-20  5.567703954765537e-18  2.663822849635694e-01
-6.635443807251935e-01  2.663822849635694e-01  8.477990533080537e-18

 7.873605243890465e-18  7.198785757264031e-20 -6.635445043499150e-01
 7.198785757264031e-20  5.567707906090536e-18  2.663774319484903e-01
-6.635445043499150e-01  2.663774319484903e-01  8.477991999702345e-18

 7.873603784679440e-18  7.190094359100308e-20 -6.635446275267427e-01
 7.190094359100308e-20  5.567711944080275e-18  2.663725911400676e-01
-6.635446275267427e-01  2.663725911400676e-01  8.477993461009024e-18

 7.873602330752489e-18  7.181421691195689e-20 -6.635447502577906e-01
 7.181421691195689e-20  5.567715719610723e-18  2.663677608341444e-01
-6.635447502577906e-01  2.663677608341444e-01  8.477994917025678e-18

 7.873600882084823e-18  7.172771392185741e-20 -6.635448725451586e-01
 7.172771392185741e-20  5.567719536599851e-18  2.663629426455530e-01
-6.635448725451586e-01  2.663629426455530e-01  8.477996367777198e-18

 7.873599438651741e-18  7.164138922757239e-20 -6.635449943909358e-01
 7.164138922757239e-20  5.567723547464322e-18  2.663581348704784e-01
-6.635449943909358e-01  2.663581348704784e-01  8.477997813288381e-18

 7.873598000428728e-18  7.155529081577971e-20 -6.635451157971962e-01
 7.155529081577971e-20  5.567727429430046e-18  2.663533391239760e-01
-6.635451157971962e-01  2.663533391239760e-01  8.477999253583820e-18

 7.873596567391449e-18  7.146937441166003e-20 -6.635452367660017e-01
 7.146937441166003e-20  5.567731146953294e-18  2.663485537025049e-01
-6.635452367660017e-01  2.663485537025049e-01  8.478000688687982e-18

 7.873595139515723e-18  7.138367292160308e-20 -6.635453572994005e-01
 7.138367292160308e-20  5.567735123045760e-18  2.663437802215696e-01
-6.635453572994005e-01  2.663437802215696e-01  8.478002118625166e-18

 7.873593716777455e-18  7.129815843382161e-20 -6.635454773994294e-01
 7.129815843382161e-20  5.567738711944640e-18  2.663390169776921e-01
-6.635454773994294e-01  2.663390169776921e-01  8.478003543419516e-18

 7.873592299152756e-18  7.121284535116464e-20 -6.635455970681117e-01
 7.121284535116464e-20  5.567742634426229e-18  2.663342651720111e-01
-6.635455970681117e-01  2.663342651720111e-01  8.478004963095085e-18

 7.873590886617898e-18  7.112774382201849e-20 -6.635457163074575e-01
 7.112774382201849e-20  5.567746475443207e-18  2.663295247607454e-01
-6.635457163074575e-01  2.663295247607454e-01  8.478006377675650e-18

 7.873589479149238e-18  7.104281761236916e-20 -6.635458351194654e-01
 7.104281761236916e-20  5.567750399633692e-18  2.663247944559863e-01
-6.635458351194654e-01  2.663247944559863e-01  8.478007787184974e-18

 7.873588076723370e-18  7.095810992337507e-20 -6.635459535061210e-01
 7.095810992337507e-20  5.567754171193263e-18  2.663200758739094e-01
-6.635459535061210e-01  2.663200758739094e-01  8.478009191646579e-18

 7.873586679316962e-18  7.087357911872794e-20 -6.635460714693993e-01
 7.087357911872794e-20  5.567757748559187e-18  2.663153673119324e-01
-6.635460714693993e-01  2.663153673119324e-01  8.478010591083926e-18

 7.873585286906817e-18  7.078926095610480e-20 -6.635461890112583e-01
 7.078926095610480e-20  5.567761493423134e-18  2.663106703863952e-01
-6.635461890112583e-01  2.663106703863952e-01  8.478011985520211e-18

 7.873583899469999e-18  7.070511588134690e-20 -6.635463061336498e-01
 7.070511588134690e-20  5.567765246505691e-18  2.663059833951527e-01
-6.635463061336498e-01  2.663059833951527e-01  8.478013374978615e-18

 7.873582516983575e-18  7.062118743166141e-20 -6.635464228385087e-01
 7.062118743166141e-20  5.567768836307205e-18  2.663013079547470e-01
-6.635464228385087e-01  2.663013079547470e-01  8.478014759482056e-18

 7.873581139424810e-18  7.053743050991381e-20 -6.635465391277614e-01
 7.053743050991381e-20  5.567772566967432e-18  2.662966423632528e-01
-6.635465391277614e-01  2.662966423632528e-01  8.478016139053434e-18

 7.873579766771149e-18  7.045388367531939e-20 -6.635466550033190e-01
 7.045388367531939e-20  5.567776254840082e-18  2.662919882375404e-01
-6.635466550033190e-01  2.662919882375404e-01  8.478017513715381e-18

 7.873578399000124e-18  7.037050763362378e-20 -6.635467704670839e-01
 7.037050763362378e-20  5.567780053631786e-18  2.662873438758213e-01
-6.635467704670839e-01  2.662873438758213e-01  8.478018883490470e-18

 7.873577036089453e-18  7.028734303453093e-20 -6.635468855209440e-01
 7.028734303453093e-20  5.567783672998412e-18  2.662827108955098e-01
-6.635468855209440e-01  2.662827108955098e-01  8.478020248401133e-18

 7.873575678016953e-18  7.020435753129774e-20 -6.635470001667766e-01
 7.020435753129774e-20  5.567787367451654e-18  2.662780880096891e-01
-6.635470001667766e-01  2.662780880096891e-01  8.478021608469581e-18

 7.873574324760593e-18  7.012155183485507e-20 -6.635471144064482e-01
 7.012155183485507e-20  5.567790854618867e-18  2.662734751765120e-01
-6.635471144064482e-01  2.662734751765120e-01  8.478022963718027e-18

 7.873572976298456e-18  7.003895427397857e-20 -6.635472282418128e-01
 7.003895427397857e-20  5.567794506792622e-18  2.662688735986235e-01
-6.635472282418128e-01  2.662688735986235e-01  8.478024314168373e-18

 7.873571632608884e-18  6.995653184814397e-20 -6.635473416747116e-01
 6.995653184814397e-20  5.567798069149191e-18  2.662642819898511e-01
-6.635473416747116e-01  2.662642819898511e-01  8.478025659842554e-18

 7.873570293670155e-18  6.987429576569330e-20 -6.635474547069764e-01
 6.987429576569330e-20  5.567801823564243e-18  2.662597007232296e-01
-6.635474547069764e-01  2.662597007232296e-01  8.478027000762227e-18

 7.873568959460855e-18  6.979223721643440e-20 -6.635475673404281e-01
 6.979223721643440e-20  5.567805306509686e-18  2.662551293426050e-01
-6.635475673404281e-01  2.662551293426050e-01  8.478028336949057e-18

 7.873567629959569e-18  6.971038347230021e-20 -6.635476795768733e-01
 6.971038347230021e-20  5.567808885765453e-18  2.662505690512133e-01
-6.635476795768733e-01  2.662505690512133e-01  8.478029668424408e-18

 7.873566305145185e-18  6.962870185847421e-20 -6.635477914181090e-01
 6.962870185847421e-20  5.567812598429639e-18  2.662460185630142e-01
-6.635477914181090e-01  2.662460185630142e-01  8.478030995209662e-18

 7.873564984996523e-18  6.954719664997477e-20 -6.635479028659222e-01
 6.954719664997477e-20  5.567815982056194e-18  2.662414778370233e-01
-6.635479028659222e-01  2.662414778370233e-01  8.478032317325962e-18

 7.873563669492691e-18  6.946589316975525e-20 -6.635480139220868e-01
 6.946589316975525e-20  5.567819539928945e-18  2.662369480766277e-01
-6.635480139220868e-01  2.662369480766277e-01  8.478033634794392e-18

 7.873562358612868e-18  6.938475071722054e-20 -6.635481245883681e-01
 6.938475071722054e-20  5.567823006866903e-18  2.662324275816279e-01
-6.635481245883681e-01  2.662324275816279e-01  8.478034947635871e-18

 7.873561052336359e-18  6.930380861030916e-20 -6.635482348665160e-01
 6.930380861030916e-20  5.567826650542923e-18  2.662279179705205e-01
-6.635482348665160e-01  2.662279179705205e-01  8.478036255871162e-18

 7.873559750642628e-18  6.922303105536105e-20 -6.635483447582754e-01
 6.922303105536105e-20  5.567830008841691e-18  2.662234175431486e-01
-6.635483447582754e-01  2.662234175431486e-01  8.478037559520970e-18

 7.873558453511210e-18  6.914245058287473e-20 -6.635484542653752e-01
 6.914245058287473e-20  5.567833515047296e-18  2.662189279184354e-01
-6.635484542653752e-01  2.662189279184354e-01  8.478038858605801e-18

 7.873557160921821e-18  6.906202840311534e-20 -6.635485633895369e-01
 6.906202840311534e-20  5.567837000648652e-18  2.662144473963692e-01
-6.635485633895369e-01  2.662144473963692e-01  8.478040153146065e-18

 7.873555872854341e-18  6.898180764400137e-20 -6.635486721324696e-01
 6.898180764400137e-20  5.567840337987923e-18  2.662099775959560e-01
-6.635486721324696e-01  2.662099775959560e-01  8.478041443162061e-18

 7.873554589288641e-18  6.890174159748645e-20 -6.635487804958720e-01
 6.890174159748645e-20  5.567843914216036e-18  2.662055168176596e-01
-6.635487804958720e-01  2.662055168176596e-01  8.478042728673912e-18

 7.873553310204853e-18  6.882187100871839e-20 -6.635488884814325e-01
 6.882187100871839e-20  5.567847458165867e-18  2.662010666803724e-01
-6.635488884814325e-01  2.662010666803724e-01  8.478044009701656e-18

 7.873552035583189e-18  6.874216161158678e-20 -6.635489960908294e-01
 6.874216161158678e-20  5.567850667153382e-18  2.661966254846716e-01
-6.635489960908294e-01  2.661966254846716e-01  8.478045286265220e-18

 7.873550765403971e-18  6.866264390870008e-20 -6.635491033257290e-01
 6.866264390870008e-20  5.567854149884428e-18  2.661921948502035e-01
-6.635491033257290e-01  2.661921948502035e-01  8.478046558384360e-18

 7.873549499647634e-18  6.858329066179646e-20 -6.635492101877895e-01
 6.858329066179646e-20  5.567857713567627e-18  2.661877734922027e-01
-6.635492101877895e-01  2.661877734922027e-01  8.478047826078715e-18

 7.873548238294811e-18  6.850410586435595e-20 -6.635493166786569e-01
 6.850410586435595e-20  5.567860798450375e-18  2.661833613709151e-01
-6.635493166786569e-01  2.661833613709151e-01  8.478049089367865e-18

 7.873546981326116e-18  6.842510833063913e-20 -6.635494227999664e-01
 6.842510833063913e-20  5.567864425469258e-18  2.661789596913281e-01
-6.635494227999664e-01  2.661789596913281e-01  8.478050348271159e-18

 7.873545728722478e-18  6.834626618229748e-20 -6.635495285533456e-01
 6.834626618229748e-20  5.567867769730537e-18  2.661745667541148e-01
-6.635495285533456e-01  2.661745667541148e-01  8.478051602807942e-18

 7.873544480464767e-18  6.826761867598449e-20 -6.635496339404098e-01
 6.826761867598449e-20  5.567871049700568e-18  2.661701841792015e-01
-6.635496339404098e-01  2.661701841792015e-01  8.478052852997351e-18

 7.873543236534087e-18  6.818911953394178e-20 -6.635497389627656e-01
 6.818911953394178e-20  5.567874333255582e-18  2.661658102679713e-01
-6.635497389627656e-01  2.661658102679713e-01  8.478054098858459e-18

 7.873541996911628e-18  6.811081233127299e-20 -6.635498436220084e-01
 6.811081233127299e-20  5.567877604124367e-18  2.661614466400736e-01
-6.635498436220084e-01  2.661614466400736e-01  8.478055340410179e-18

 7.873540761578639e-18  6.803265144245873e-20 -6.635499479197234e-01
 6.803265144245873e-20  5.567881007705913e-18  2.661570915970840e-01
-6.635499479197234e-01  2.661570915970840e-01  8.478056577671317e-18

 7.873539530516604e-18  6.795467099020535e-20 -6.635500518574868e-01
 6.795467099020535e-20  5.567884354100029e-18  2.661527463440495e-01
-6.635500518574868e-01  2.661527463440495e-01  8.478057810660588e-18

 7.873538303707042e-18  6.787686832709891e-20 -6.635501554368651e-01
 6.787686832709891e-20  5.567887760586045e-18  2.661484108420706e-01
-6.635501554368651e-01  2.661484108420706e-01  8.478059039396522e-18

 7.873537081131646e-18  6.779921531579791e-20 -6.635502586594141e-01
 6.779921531579791e-20  5.567890895205714e-18  2.661440838074617e-01
-6.635502586594141e-01  2.661440838074617e-01  8.478060263897664e-18

 7.873535862772108e-18  6.772174842687137e-20 -6.635503615266806e-01
 6.772174842687137e-20  5.567894129177205e-18  2.661397668607416e-01
-6.635503615266806e-01  2.661397668607416e-01  8.478061484182266e-18

 7.873534648610409e-18  6.764442902894457e-20 -6.635504640402005e-01
 6.764442902894457e-20  5.567897350296613e-18  2.661354583033318e-01
-6.635504640402005e-01  2.661354583033318e-01  8.478062700268624e-18

 7.873533438628502e-18  6.756729280919421e-20 -6.635505662015019e-01
 6.756729280919421e-20  5.567900669236084e-18  2.661311597560234e-01
-6.635505662015019e-01  2.661311597560234e-01  8.478063912174815e-18

 7.873532232808526e-18  6.749030037283702e-20 -6.635506680121018e-01
 6.749030037283702e-20  5.567903946312212e-18  2.661268695205301e-01
-6.635506680121018e-01  2.661268695205301e-01  8.478065119918861e-18

 7.873531031132729e-18  6.741349605341278e-20 -6.635507694735081e-01
 6.741349605341278e-20  5.567907140209564e-18  2.661225892177099e-01
-6.635507694735081e-01  2.661225892177099e-01  8.478066323518631e-18

 7.873529833583458e-18  6.733683190115966e-20 -6.635508705872206e-01
 6.733683190115966e-20  5.567910347574523e-18  2.661183171493264e-01
-6.635508705872206e-01  2.661183171493264e-01  8.478067522991939e-18

 7.873528640143158e-18  6.726035063192683e-20 -6.635509713547260e-01
 6.726035063192683e-20  5.567913662821555e-18  2.661140549365451e-01
-6.635509713547260e-01  2.661140549365451e-01  8.478068718356389e-18

 7.873527450794424e-18  6.718401472266085e-20 -6.635510717775058e-01
 6.718401472266085e-20  5.567916679115521e-18  2.661098008812389e-01
-6.635510717775058e-01  2.661098008812389e-01  8.478069909629593e-18

 7.873526265519944e-18  6.710784680236264e-20 -6.635511718570292e-01
 6.710784680236264e-20  5.567919855231125e-18  2.661055561895592e-01
-6.635511718570292e-01  2.661055561895592e-01  8.478071096828963e-18

 7.873525084302489e-18  6.703184984181301e-20 -6.635512715947579e-01
 6.703184984181301e-20  5.567923077206503e-18  2.661013208232323e-01
-6.635512715947579e-01  2.661013208232323e-01  8.478072279971802e-18

 7.873523907125012e-18  6.695599475683068e-20 -6.635513709921437e-01
 6.695599475683068e-20  5.567926128099809e-18  2.660970934993608e-01
-6.635513709921437e-01  2.660970934993608e-01  8.478073459075399e-18

 7.873522733970506e-18  6.688031817541374e-20 -6.635514700506295e-01
 6.688031817541374e-20  5.567929294398822e-18  2.660928758391484e-01
-6.635514700506295e-01  2.660928758391484e-01  8.478074634156811e-18

 7.873521564822113e-18  6.680477930762285e-20 -6.635515687716470e-01
 6.680477930762285e-20  5.567932480633641e-18  2.660886661449895e-01
-6.635515687716470e-01  2.660886661449895e-01  8.478075805233066e-18

 7.873520399663067e-18  6.672941618072484e-20 -6.635516671566234e-01
 6.672941618072484e-20  5.567935613888564e-18  2.660844660381968e-01
-6.635516671566234e-01  2.660844660381968e-01  8.478076972321053e-18

 7.873519238476718e-18  6.665419234627266e-20 -6.635517652069718e-01
 6.665419234627266e-20  5.567938920992291e-18  2.660802738213923e-01
-6.635517652069718e-01  2.660802738213923e-01  8.478078135437579e-18

 7.873518081246511e-18  6.657914443294010e-20 -6.635518629240990e-01
 6.657914443294010e-20  5.567942022714326e-18  2.660760911159624e-01
-6.635518629240990e-01  2.660760911159624e-01  8.478079294599280e-18

 7.873516927956050e-18  6.650423669216477e-20 -6.635519603094038e-01
 6.650423669216477e-20  5.567944989952349e-18  2.660719162242783e-01
-6.635519603094038e-01  2.660719162242783e-01  8.478080449822805e-18

 7.873515778588968e-18  6.642948816959061e-20 -6.635520573642740e-01
 6.642948816959061e-20  5.567948162162637e-18  2.660677503533971e-01
-6.635520573642740e-01  2.660677503533971e-01  8.478081601124571e-18

 7.873514633129050e-18  6.635490699549302e-20 -6.635521540900885e-01
 6.635490699549302e-20  5.567951204777208e-18  2.660635934652808e-01
-6.635521540900885e-01  2.660635934652808e-01  8.478082748520950e-18

 7.873513491560191e-18  6.628046073521828e-20 -6.635522504882184e-01
 6.628046073521828e-20  5.567954275456787e-18  2.660594442775728e-01
-6.635522504882184e-01  2.660594442775728e-01  8.478083892028236e-18

 7.873512353866367e-18  6.620618549786660e-20 -6.635523465600269e-01
 6.620618549786660e-20  5.567957293953081e-18  2.660553044120992e-01
-6.635523465600269e-01  2.660553044120992e-01  8.478085031662546e-18

 7.873511220031695e-18  6.613204245751685e-20 -6.635524423068662e-01
 6.613204245751685e-20  5.567960413292069e-18  2.660511721714984e-01
-6.635524423068662e-01  2.660511721714984e-01  8.478086167439963e-18

 7.873510090040365e-18  6.605807407355847e-20 -6.635525377300819e-01
 6.605807407355847e-20  5.567963300605980e-18  2.660470491777034e-01
-6.635525377300819e-01  2.660470491777034e-01  8.478087299376428e-18

 7.873508963876693e-18  6.598423356844840e-20 -6.635526328310095e-01
 6.598423356844840e-20  5.567966323331626e-18  2.660429337336998e-01
-6.635526328310095e-01  2.660429337336998e-01  8.478088427487801e-18

 7.873507841525039e-18  6.591056435231264e-20 -6.635527276109777e-01
 6.591056435231264e-20  5.567969454719254e-18  2.660388274612743e-01
-6.635527276109777e-01  2.660388274612743e-01  8.478089551789801e-18

 7.873506722969991e-18  6.583702561500906e-20 -6.635528220713036e-01
 6.583702561500906e-20  5.567972353240455e-18  2.660347286636264e-01
-6.635528220713036e-01  2.660347286636264e-01  8.478090672298117e-18

 7.873505608196110e-18  6.576365348864137e-20 -6.635529162132989e-01
 6.576365348864137e-20  5.567975477586584e-18  2.660306389626249e-01
-6.635529162132989e-01  2.660306389626249e-01  8.478091789028260e-18

 7.873504497188124e-18  6.569041237885008e-20 -6.635530100382656e-01
 6.569041237885008e-20  5.567978360501369e-18  2.660265566612809e-01
-6.635530100382656e-01  2.660265566612809e-01  8.478092901995701e-18

 7.873503389930865e-18  6.561732684529430e-20 -6.635531035474975e-01
 6.561732684529430e-20  5.567981387601115e-18  2.660224829668151e-01
-6.635531035474975e-01  2.660224829668151e-01  8.478094011215777e-18

 7.873502286409235e-18  6.554440190673564e-20 -6.635531967422799e-01
 6.554440190673564e-20  5.567984217143260e-18  2.660184178419432e-01
-6.635531967422799e-01  2.660184178419432e-01  8.478095116703701e-18

 7.873501186608309e-18  6.547159915245443e-20 -6.635532896238888e-01
 6.547159915245443e-20  5.567987244295989e-18  2.660143600047440e-01
-6.635532896238888e-01  2.660143600047440e-01  8.478096218474703e-18

 7.873500090513112e-18  6.539896440309765e-20 -6.635533821935936e-01
 6.539896440309765e-20  5.567990241418534e-18  2.660103110772792e-01
-6.635533821935936e-01  2.660103110772792e-01  8.478097316543725e-18

 7.873498998108997e-18  6.532645343471554e-20 -6.635534744526548e-01
 6.532645343471554e-20  5.567993198032160e-18  2.660062693629672e-01
-6.635534744526548e-01  2.660062693629672e-01  8.478098410925826e-18

 7.873497909381184e-18  6.525410711028421e-20 -6.635535664023248e-01
 6.525410711028421e-20  5.567996078665307e-18  2.660022364837796e-01
-6.635535664023248e-01  2.660022364837796e-01  8.478099501635779e-18

 7.873496824315138e-18  6.518188668117211e-20 -6.635536580438471e-01
 6.518188668117211e-20  5.567999019447238e-18  2.659982107433194e-01
-6.635536580438471e-01  2.659982107433194e-01  8.478100588688398e-18

 7.873495742896378e-18  6.510982561265101e-20 -6.635537493784571e-01
 6.510982561265101e-20  5.568001984887337e-18  2.659941937637323e-01
-6.635537493784571e-01  2.659941937637323e-01  8.478101672098298e-18

 7.873494665110528e-18  6.503788977749697e-20 -6.635538404073840e-01
 6.503788977749697e-20  5.568004778297204e-18  2.659901838483950e-01
-6.635538404073840e-01  2.659901838483950e-01  8.478102751880080e-18

 7.873493590943338e-18  6.496611496964025e-20 -6.635539311318467e-01
 6.496611496964025e-20  5.568007532109647e-18  2.659861826195970e-01
-6.635539311318467e-01  2.659861826195970e-01  8.478103828048202e-18

 7.873492520380535e-18  6.489446009034023e-20 -6.635540215530570e-01
 6.489446009034023e-20  5.568010533448133e-18  2.659821883808663e-01
-6.635540215530570e-01  2.659821883808663e-01  8.478104900617029e-18

 7.873491453408182e-18  6.482295661100591e-20 -6.635541116722191e-01
 6.482295661100591e-20  5.568013423993824e-18  2.659782023396681e-01
-6.635541116722191e-01  2.659782023396681e-01  8.478105969600872e-18

 7.873490390012157e-18  6.475160273205757e-20 -6.635542014905282e-01
 6.475160273205757e-20  5.568016274088163e-18  2.659742244590106e-01
-6.635542014905282e-01  2.659742244590106e-01  8.478107035013857e-18

 7.873489330178648e-18  6.468036696654971e-20 -6.635542910091720e-01
 6.468036696654971e-20  5.568019168849828e-18  2.659702534570536e-01
-6.635542910091720e-01  2.659702534570536e-01  8.478108096870155e-18

 7.873488273893867e-18  6.460929163995337e-20 -6.635543802293324e-01
 6.460929163995337e-20  5.568021873681388e-18  2.659662909564148e-01
-6.635543802293324e-01  2.659662909564148e-01  8.478109155183713e-18

 7.873487221144071e-18  6.453833053966415e-20 -6.635544691521792e-01
 6.453833053966415e-20  5.568024856453877e-18  2.659623352605779e-01
-6.635544691521792e-01  2.659623352605779e-01  8.478110209968452e-18

 7.873486171915714e-18  6.446752931849189e-20 -6.635545577788783e-01
 6.446752931849189e-20  5.568027654610586e-18  2.659583879920343e-01
-6.635545577788783e-01  2.659583879920343e-01  8.478111261238176e-18

 7.873485126195266e-18  6.439684284627003e-20 -6.635546461105863e-01
 6.439684284627003e-20  5.568030434410297e-18  2.659544474541496e-01
-6.635546461105863e-01  2.659544474541496e-01  8.478112309006639e-18

 7.873484083969314e-18  6.432631365380981e-20 -6.635547341484508e-01
 6.432631365380981e-20  5.568033204844413e-18  2.659505152696546e-01
-6.635547341484508e-01  2.659505152696546e-01  8.478113353287424e-18

 7.873483045224593e-18  6.425589664059348e-20 -6.635548218936144e-01
 6.425589664059348e-20  5.568035945470240e-18  2.659465897420340e-01
-6.635548218936144e-01  2.659465897420340e-01  8.478114394094112e-18

 7.873482009947841e-18  6.418562546076703e-20 -6.635549093472104e-01
 6.418562546076703e-20  5.568038785141294e-18  2.659426720789143e-01
-6.635549093472104e-01  2.659426720789143e-01  8.478115431440139e-18

 7.873480978125965e-18  6.411549802918354e-20 -6.635549965103652e-01
 6.411549802918354e-20  5.568041496250429e-18  2.659387622432874e-01
-6.635549965103652e-01  2.659387622432874e-01  8.478116465338837e-18

 7.873479949745938e-18  6.404548253658630e-20 -6.635550833841953e-01
 6.404548253658630e-20  5.568044303810032e-18  2.659348589537981e-01
-6.635550833841953e-01  2.659348589537981e-01  8.478117495803537e-18

 7.873478924794805e-18  6.397562320240992e-20 -6.635551699698137e-01
 6.397562320240992e-20  5.568046995862878e-18  2.659309638328418e-01
-6.635551699698137e-01  2.659309638328418e-01  8.478118522847340e-18

 7.873477903259767e-18  6.390587063831947e-20 -6.635552562683221e-01
 6.390587063831947e-20  5.568049778370164e-18  2.659270751841226e-01
-6.635552562683221e-01  2.659270751841226e-01  8.478119546483393e-18

 7.873476885128070e-18  6.383627267718621e-20 -6.635553422808175e-01
 6.383627267718621e-20  5.568052490615794e-18  2.659231946301273e-01
-6.635553422808175e-01  2.659231946301273e-01  8.478120566724685e-18

 7.873475870387035e-18  6.376678253604336e-20 -6.635554280083870e-01
 6.376678253604336e-20  5.568055317537624e-18  2.659193204744194e-01
-6.635554280083870e-01  2.659193204744194e-01  8.478121583584111e-18

 7.873474859024179e-18  6.369744458805392e-20 -6.635555134521123e-01
 6.369744458805392e-20  5.568057924989971e-18  2.659154543397446e-01
-6.635555134521123e-01  2.659154543397446e-01  8.478122597074511e-18

 7.873473851026952e-18  6.362821455567710e-20 -6.635555986130666e-01
 6.362821455567710e-20  5.568060663959379e-18  2.659115945294017e-01
-6.635555986130666e-01  2.659115945294017e-01  8.478123607208625e-18

 7.873472846383054e-18  6.355912992286717e-20 -6.635556834923163e-01
 6.355912992286717e-20  5.568063468061710e-18  2.659077426663146e-01
-6.635556834923163e-01  2.659077426663146e-01  8.478124613999090e-18

 7.873471845080175e-18  6.349015732350790e-20 -6.635557680909192e-01
 6.349015732350790e-20  5.568066122340076e-18  2.659038970537538e-01
-6.635557680909192e-01  2.659038970537538e-01  8.478125617458477e-18

 7.873470847106163e-18  6.342132018186782e-20 -6.635558524099278e-01
 6.342132018186782e-20  5.568068733461714e-18  2.659000588996392e-01
-6.635558524099278e-01  2.659000588996392e-01  8.478126617599265e-18

 7.873469852448909e-18  6.335261965735849e-20 -6.635559364503862e-01
 6.335261965735849e-20  5.568071493456295e-18  2.658962281668954e-01
-6.635559364503862e-01  2.658962281668954e-01  8.478127614433828e-18

 7.873468861096417e-18  6.328402442457012e-20 -6.635560202133307e-01
 6.328402442457012e-20  5.568074159671193e-18  2.658924035739920e-01
-6.635560202133307e-01  2.658924035739920e-01  8.478128607974491e-18

 7.873467873036796e-18  6.321557333196958e-20 -6.635561036997913e-01
 6.321557333196958e-20  5.568076837294533e-18  2.658885867434329e-01
-6.635561036997913e-01  2.658885867434329e-01  8.478129598233463e-18

 7.873466888258221e-18  6.314722885202866e-20 -6.635561869107902e-01
 6.314722885202866e-20  5.568079354134628e-18  2.658847759789533e-01
-6.635561869107902e-01  2.658847759789533e-01  8.478130585222879e-18

 7.873465906748973e-18  6.307902668772702e-20 -6.635562698473436e-01
 6.307902668772702e-20  5.568082067360036e-18  2.658809729028304e-01
-6.635562698473436e-01  2.658809729028304e-01  8.478131568954785e-18

 7.873464928497462e-18  6.301092744514078e-20 -6.635563525104593e-01
 6.301092744514078e-20  5.568084733885768e-18  2.658771758187328e-01
-6.635563525104593e-01  2.658771758187328e-01  8.478132549441170e-18

 7.873463953492093e-18  6.294296992255638e-20 -6.635564349011372e-01
 6.294296992255638e-20  5.568087288769984e-18  2.658733863491368e-01
-6.635564349011372e-01  2.658733863491368e-01  8.478133526693858e-18

 7.873462981721447e-18  6.287511623910134e-20 -6.635565170203727e-01
 6.287511623910134e-20  5.568089860375220e-18  2.658696027976246e-01
-6.635565170203727e-01  2.658696027976246e-01  8.478134500724700e-18

 7.873462013174230e-18  6.280739234962115e-20 -6.635565988691526e-01
 6.280739234962115e-20  5.568092420806094e-18  2.658658263716070e-01
-6.635565988691526e-01  2.658658263716070e-01  8.478135471545407e-18

 7.873461047839079e-18  6.273979752594129e-20 -6.635566804484563e-01
 6.273979752594129e-20  5.568095175730585e-18  2.658620570340904e-01
-6.635566804484563e-01  2.658620570340904e-01  8.478136439167555e-18

 7.873460085704926e-18  6.267230517458362e-20 -6.635567617592570e-01
 6.267230517458362e-20  5.568097559742743e-18  2.658582935034149e-01
-6.635567617592570e-01  2.658582935034149e-01  8.478137403602766e-18

 7.873459126760634e-18  6.260494908983315e-20 -6.635568428025213e-01
 6.260494908983315e-20  5.568100307019033e-18  2.658545374021865e-01
-6.635568428025213e-01  2.658545374021865e-01  8.478138364862431e-18

 7.873458170995244e-18  6.253769442344869e-20 -6.635569235792059e-01
 6.253769442344869e-20  5.568102772502763e-18  2.658507870334064e-01
-6.635569235792059e-01  2.658507870334064e-01  8.478139322958010e-18

 7.873457218397864e-18  6.247057565556657e-20 -6.635570040902659e-01
 6.247057565556657e-20  5.568105376048525e-18  2.658470440198622e-01
-6.635570040902659e-01  2.658470440198622e-01  8.478140277900733e-18

 7.873456268957698e-18  6.240355299832182e-20 -6.635570843366444e-01
 6.240355299832182e-20  5.568108022367785e-18  2.658433066646712e-01
-6.635570843366444e-01  2.658433066646712e-01  8.478141229701883e-18

 7.873455322664061e-18  6.233666811081483e-20 -6.635571643192810e-01
 6.233666811081483e-20  5.568110380082568e-18  2.658395765901151e-01
-6.635571643192810e-01  2.658395765901151e-01  8.478142178372540e-18

 7.873454379506287e-18  6.226987884435006e-20 -6.635572440391060e-01
 6.226987884435006e-20  5.568113066149732e-18  2.658358520997825e-01
-6.635572440391060e-01  2.658358520997825e-01  8.478143123923810e-18

 7.873453439473896e-18  6.220322367492480e-20 -6.635573234970453e-01
 6.220322367492480e-20  5.568115565611154e-18  2.658321348155967e-01
-6.635573234970453e-01  2.658321348155967e-01  8.478144066366629e-18

 7.873452502556445e-18  6.213666413394884e-20 -6.635574026940153e-01
 6.213666413394884e-20  5.568117970431273e-18  2.658284230409103e-01
-6.635574026940153e-01  2.658284230409103e-01  8.478145005711942e-18

 7.873451568743620e-18  6.207022634438451e-20 -6.635574816309273e-01
 6.207022634438451e-20  5.568120654476497e-18  2.658247179833362e-01
-6.635574816309273e-01  2.658247179833362e-01  8.478145941970523e-18

 7.873450638025120e-18  6.200391482847348e-20 -6.635575603086874e-01
 6.200391482847348e-20  5.568122958058129e-18  2.658210196051848e-01
-6.635575603086874e-01  2.658210196051848e-01  8.478146875153106e-18

 7.873449710390863e-18  6.193769178529354e-20 -6.635576387281903e-01
 6.193769178529354e-20  5.568125610766358e-18  2.658173266246753e-01
-6.635576387281903e-01  2.658173266246753e-01  8.478147805270404e-18

 7.873448785830739e-18  6.187160482370187e-20 -6.635577168903296e-01
 6.187160482370187e-20  5.568128005269059e-18  2.658136406639077e-01
-6.635577168903296e-01  2.658136406639077e-01  8.478148732332933e-18

 7.873447864334800e-18  6.180560426580490e-20 -6.635577947959870e-01
 6.180560426580490e-20  5.568130572748853e-18  2.658099600260825e-01
-6.635577947959870e-01  2.658099600260825e-01  8.478149656351232e-18

 7.873446945893194e-18  6.173973761700899e-20 -6.635578724460425e-01
 6.173973761700899e-20  5.568132953375081e-18  2.658062863329921e-01
-6.635578724460425e-01  2.658062863329921e-01  8.478150577335710e-18

 7.873446030496111e-18  6.167395881462432e-20 -6.635579498413655e-01
 6.167395881462432e-20  5.568135442329738e-18  2.658026178879264e-01
-6.635579498413655e-01  2.658026178879264e-01  8.478151495296708e-18

 7.873445118133892e-18  6.160830843733385e-20 -6.635580269828204e-01
 6.160830843733385e-20  5.568137867838790e-18  2.657989563127549e-01
-6.635580269828204e-01  2.657989563127549e-01  8.478152410244495e-18

 7.873444208796920e-18  6.154274892124037e-20 -6.635581038712650e-01
 6.154274892124037e-20  5.568140322282989e-18  2.657952999103038e-01
-6.635581038712650e-01  2.657952999103038e-01  8.478153322189253e-18

 7.873443302475726e-18  6.147730371772596e-20 -6.635581805075510e-01
 6.147730371772596e-20  5.568142777689606e-18  2.657916498877519e-01
-6.635581805075510e-01  2.657916498877519e-01  8.478154231141120e-18

 7.873442399160921e-18  6.141197835187219e-20 -6.635582568925219e-01
 6.141197835187219e-20  5.568145235451572e-18  2.657880062073522e-01
-6.635582568925219e-01  2.657880062073522e-01  8.478155137110081e-18

 7.873441498843159e-18  6.134673933427993e-20 -6.635583330270166e-01
 6.134673933427993e-20  5.568147641236584e-18  2.657843675870070e-01
-6.635583330270166e-01  2.657843675870070e-01  8.478156040106146e-18

 7.873440601513248e-18  6.128162348155577e-20 -6.635584089118662e-01
 6.128162348155577e-20  5.568150082972495e-18  2.657807356481123e-01
-6.635584089118662e-01  2.657807356481123e-01  8.478156940139140e-18

 7.873439707162100e-18  6.121659388998791e-20 -6.635584845478957e-01
 6.121659388998791e-20  5.568152388418290e-18  2.657771086938777e-01
-6.635584845478957e-01  2.657771086938777e-01  8.478157837218910e-18

 7.873438815780668e-18  6.115168909261793e-20 -6.635585599359241e-01
 6.115168909261793e-20  5.568154793640699e-18  2.657734883455462e-01
-6.635585599359241e-01  2.657734883455462e-01  8.478158731355166e-18

 7.873437927360052e-18  6.108686725640600e-20 -6.635586350767636e-01
 6.108686725640600e-20  5.568157240093668e-18  2.657698729060881e-01
-6.635586350767636e-01  2.657698729060881e-01  8.478159622557573e-18

 7.873437041891413e-18  6.102216691438497e-20 -6.635587099712181e-01
 6.102216691438497e-20  5.568159604452940e-18  2.657662639970133e-01
-6.635587099712181e-01  2.657662639970133e-01  8.478160510835678e-18

 7.873436159366071e-18  6.095755140238425e-20 -6.635587846200893e-01
 6.095755140238425e-20  5.568162020212657e-18  2.657626599206185e-01
-6.635587846200893e-01  2.657626599206185e-01  8.478161396199027e-18

 7.873435279775347e-18  6.089305563793045e-20 -6.635588590241698e-01
 6.089305563793045e-20  5.568164353306013e-18  2.657590622987267e-01
-6.635588590241698e-01  2.657590622987267e-01  8.478162278657008e-18

 7.873434403110747e-18  6.082864137325647e-20 -6.635589331842441e-01
 6.082864137325647e-20  5.568166660000661e-18  2.657554694336945e-01
-6.635589331842441e-01  2.657554694336945e-01  8.478163158218983e-18

 7.873433529363862e-18  6.076433724462731e-20 -6.635590071010946e-01
 6.076433724462731e-20  5.568169111623201e-18  2.657518825318263e-01
-6.635590071010946e-01  2.657518825318263e-01  8.478164034894252e-18

 7.873432658526343e-18  6.070014266275668e-20 -6.635590807754944e-01
 6.070014266275668e-20  5.568171294950630e-18  2.657483015552494e-01
-6.635590807754944e-01  2.657483015552494e-01  8.478164908691974e-18

 7.873431790589964e-18  6.063602701516975e-20 -6.635591542082100e-01
 6.063602701516975e-20  5.568173781779489e-18  2.657447252209365e-01
-6.635591542082100e-01  2.657447252209365e-01  8.478165779621315e-18

 7.873430925546656e-18  6.057202928657913e-20 -6.635592274000043e-01
 6.057202928657913e-20  5.568176026278459e-18  2.657411551501079e-01
-6.635592274000043e-01  2.657411551501079e-01  8.478166647691329e-18

 7.873430063388330e-18  6.050810769653311e-20 -6.635593003516319e-01
 6.050810769653311e-20  5.568178367570398e-18  2.657375896451001e-01
-6.635593003516319e-01  2.657375896451001e-01  8.478167512910980e-18

 7.873429204107168e-18  6.044430609903614e-20 -6.635593730638401e-01
 6.044430609903614e-20  5.568180623471042e-18  2.657340303267574e-01
-6.635593730638401e-01  2.657340303267574e-01  8.478168375289188e-18

 7.873428347695298e-18  6.038057766708009e-20 -6.635594455373732e-01
 6.038057766708009e-20  5.568182831537694e-18  2.657304754975167e-01
-6.635594455373732e-01  2.657304754975167e-01  8.478169234834793e-18

 7.873427494145037e-18  6.031696397202031e-20 -6.635595177729660e-01
 6.031696397202031e-20  5.568185272732522e-18  2.657269267779799e-01
-6.635595177729660e-01  2.657269267779799e-01  8.478170091556550e-18

 7.873426643448811e-18  6.025342861586539e-20 -6.635595897713490e-01
 6.025342861586539e-20  5.568187580458731e-18  2.657233824703238e-01
-6.635595897713490e-01  2.657233824703238e-01  8.478170945463142e-18

 7.873425795599160e-18  6.018999408640200e-20 -6.635596615332466e-01
 6.018999408640200e-20  5.568189848241213e-18  2.657198437805103e-01
-6.635596615332466e-01  2.657198437805103e-01  8.478171796563237e-18

 7.873424950588647e-18  6.012666426044045e-20 -6.635597330593768e-01
 6.012666426044045e-20  5.568192171926704e-18  2.657163106697614e-01
-6.635597330593768e-01  2.657163106697614e-01  8.478172644865297e-18

 7.873424108410084e-18  6.006340430903036e-20 -6.635598043504488e-01
 6.006340430903036e-20  5.568194438215618e-18  2.657127818548371e-01
-6.635598043504488e-01  2.657127818548371e-01  8.478173490377888e-18

 7.873423269056285e-18  6.000026011559244e-20 -6.635598754071708e-01
 6.000026011559244e-20  5.568196586700156e-18  2.657092589562938e-01
-6.635598754071708e-01  2.657092589562938e-01  8.478174333109340e-18

 7.873422432520261e-18  5.993718464329261e-20 -6.635599462302392e-01
 5.993718464329261e-20  5.568198956928583e-18  2.657057402758626e-01
-6.635599462302392e-01  2.657057402758626e-01  8.478175173068043e-18

 7.873421598795040e-18  5.987422102995958e-20 -6.635600168203503e-01
 5.987422102995958e-20  5.568201145109312e-18  2.657022274339200e-01
-6.635600168203503e-01  2.657022274339200e-01  8.478176010262219e-18

 7.873420767873880e-18  5.981132570181620e-20 -6.635600871781886e-01
 5.981132570181620e-20  5.568203387684753e-18  2.656987187322111e-01
-6.635600871781886e-01  2.656987187322111e-01  8.478176844700096e-18

 7.873419939750087e-18  5.974853949552895e-20 -6.635601573044364e-01
 5.974853949552895e-20  5.568205562486707e-18  2.656952157908534e-01
-6.635601573044364e-01  2.656952157908534e-01  8.478177676389760e-18

 7.873419114417091e-18  5.968582313189407e-20 -6.635602271997678e-01
 5.968582313189407e-20  5.568207857000286e-18  2.656917169113724e-01
-6.635602271997678e-01  2.656917169113724e-01  8.478178505339293e-18

 7.873418291868499e-18  5.962321435448692e-20 -6.635602968648515e-01
 5.962321435448692e-20  5.568209972393779e-18  2.656882237140583e-01
-6.635602968648515e-01  2.656882237140583e-01  8.478179331556650e-18

 7.873417472097933e-18  5.956067229479296e-20 -6.635603663003518e-01
 5.956067229479296e-20  5.568212225848999e-18  2.656847345000539e-01
-6.635603663003518e-01  2.656847345000539e-01  8.478180155049764e-18

 7.873416655099290e-18  5.949822457058235e-20 -6.635604355069237e-01
 5.949822457058235e-20  5.568214361211807e-18  2.656812504747387e-01
-6.635604355069237e-01  2.656812504747387e-01  8.478180975826469e-18

 7.873415840866499e-18  5.943587266828266e-20 -6.635605044852192e-01
 5.943587266828266e-20  5.568216731146441e-18  2.656777715984679e-01
-6.635605044852192e-01  2.656777715984679e-01  8.478181793894519e-18

 7.873415029393611e-18  5.937358864336743e-20 -6.635605732358818e-01
 5.937358864336743e-20  5.568218800329566e-18  2.656742965872341e-01
-6.635605732358818e-01  2.656742965872341e-01  8.478182609261667e-18

 7.873414220674887e-18  5.931140616894222e-20 -6.635606417595524e-01
 5.931140616894222e-20  5.568221056072624e-18  2.656708270607647e-01
-6.635606417595524e-01  2.656708270607647e-01  8.478183421935511e-18

 7.873413414704651e-18  5.924928888490443e-20 -6.635607100568615e-01
 5.924928888490443e-20  5.568223107180289e-18  2.656673613202412e-01
-6.635607100568615e-01  2.656673613202412e-01  8.478184231923640e-18

 7.873412611477407e-18  5.918727265301727e-20 -6.635607781284385e-01
 5.918727265301727e-20  5.568225232275626e-18  2.656639009851214e-01
-6.635607781284385e-01  2.656639009851214e-01  8.478185039233524e-18

 7.873411810987817e-18  5.912531665403916e-20 -6.635608459749023e-01
 5.912531665403916e-20  5.568227545334462e-18  2.656604443562839e-01
-6.635608459749023e-01  2.656604443562839e-01  8.478185843872639e-18

 7.873411013230614e-18  5.906346480405979e-20 -6.635609135968683e-01
 5.906346480405979e-20  5.568229638653323e-18  2.656569930530880e-01
-6.635609135968683e-01  2.656569930530880e-01  8.478186645848308e-18

 7.873410218200786e-18  5.900167504863310e-20 -6.635609809949471e-01
 5.900167504863310e-20  5.568231746294703e-18  2.656535453762460e-01
-6.635609809949471e-01  2.656535453762460e-01  8.478187445167872e-18

 7.873409425893404e-18  5.893997043542380e-20 -6.635610481697400e-01
 5.893997043542380e-20  5.568233863327900e-18  2.656501025302795e-01
-6.635610481697400e-01  2.656501025302795e-01  8.478188241838534e-18

 7.873408636303689e-18  5.887835794067417e-20 -6.635611151218459e-01
 5.887835794067417e-20  5.568236019748136e-18  2.656466644751200e-01
-6.635611151218459e-01  2.656466644751200e-01  8.478189035867454e-18

 7.873407849427074e-18  5.881680295557874e-20 -6.635611818518550e-01
 5.881680295557874e-20  5.568238164035429e-18  2.656432299257270e-01
-6.635611818518550e-01  2.656432299257270e-01  8.478189827261760e-18

 7.873407065259108e-18  5.875534511175374e-20 -6.635612483603547e-01
 5.875534511175374e-20  5.568240293183968e-18  2.656398005014237e-01
-6.635612483603547e-01  2.656398005014237e-01  8.478190616028459e-18

 7.873406283795540e-18  5.869394554413335e-20 -6.635613146479228e-01
 5.869394554413335e-20  5.568242401856387e-18  2.656363745023690e-01
-6.635613146479228e-01  2.656363745023690e-01  8.478191402174534e-18

 7.873405505032299e-18  5.863264033200002e-20 -6.635613807151348e-01
 5.863264033200002e-20  5.568244453008816e-18  2.656329535474597e-01
-6.635613807151348e-01  2.656329535474597e-01  8.478192185706874e-18

 7.873404728965433e-18  5.857139272063910e-20 -6.635614465625578e-01
 5.857139272063910e-20  5.568246501896191e-18  2.656295359367892e-01
-6.635614465625578e-01  2.656295359367892e-01  8.478192966632337e-18

 7.873403955591257e-18  5.851024016047851e-20 -6.635615121907549e-01
 5.851024016047851e-20  5.568248646174440e-18  2.656261232889977e-01
-6.635615121907549e-01  2.656261232889977e-01  8.478193744957665e-18

 7.873403184906214e-18  5.844913744076245e-20 -6.635615776002821e-01
 5.844913744076245e-20  5.568250718084697e-18  2.656227139040636e-01
-6.635615776002821e-01  2.656227139040636e-01  8.478194520689603e-18

 7.873402416906974e-18  5.838813292548680e-20 -6.635616427916914e-01
 5.838813292548680e-20  5.568252744288360e-18  2.656193094004685e-01
-6.635616427916914e-01  2.656193094004685e-01  8.478195293834765e-18

 7.873401651590384e-18  5.832717950632496e-20 -6.635617077655257e-01
 5.832717950632496e-20  5.568254862085574e-18  2.656159080780329e-01
-6.635617077655257e-01  2.656159080780329e-01  8.478196064399754e-18

 7.873400888953512e-18  5.826630626697744e-20 -6.635617725223255e-01
 5.826630626697744e-20  5.568256996168823e-18  2.656125111402908e-01
-6.635617725223255e-01  2.656125111402908e-01  8.478196832391079e-18

 7.873400128993659e-18  5.820551411070070e-20 -6.635618370626259e-01
 5.820551411070070e-20  5.568258853560908e-18  2.656091185459818e-01
-6.635618370626259e-01  2.656091185459818e-01  8.478197597815194e-18

 7.873399371708272e-18  5.814477331249237e-20 -6.635619013869510e-01
 5.814477331249237e-20  5.568260966784827e-18  2.656057290095066e-01
-6.635619013869510e-01  2.656057290095066e-01  8.478198360678510e-18

 7.873398617095131e-18  5.808412317001021e-20 -6.635619654958252e-01
 5.808412317001021e-20  5.568263034138293e-18  2.656023441489385e-01
-6.635619654958252e-01  2.656023441489385e-01  8.478199120987316e-18

 7.873397865152189e-18  5.802352037212543e-20 -6.635620293897644e-01
 5.802352037212543e-20  5.568265032225699e-18  2.655989622636849e-01
-6.635620293897644e-01  2.655989622636849e-01  8.478199878747942e-18

 7.873397115877658e-18  5.796300415925668e-20 -6.635620930692793e-01
 5.796300415925668e-20  5.568267033021008e-18  2.655955849713685e-01
-6.635620930692793e-01  2.655955849713685e-01  8.478200633966552e-18

 7.873396369269986e-18  5.790253738668793e-20 -6.635621565348746e-01
 5.790253738668793e-20  5.568269142957424e-18  2.655922105712665e-01
-6.635621565348746e-01  2.655922105712665e-01  8.478201386649318e-18

 7.873395625327919e-18  5.784215662545670e-20 -6.635622197870499e-01
 5.784215662545670e-20  5.568271137298622e-18  2.655888406811761e-01
-6.635622197870499e-01  2.655888406811761e-01  8.478202136802310e-18

 7.873394884050444e-18  5.778182126895548e-20 -6.635622828262981e-01
 5.778182126895548e-20  5.568273082870135e-18  2.655854735996495e-01
-6.635622828262981e-01  2.655854735996495e-01  8.478202884431583e-18

 7.873394145436882e-18  5.772156331066209e-20 -6.635623456531072e-01
 5.772156331066209e-20  5.568275009547465e-18  2.655821105296391e-01
-6.635623456531072e-01  2.655821105296391e-01  8.478203629543099e-18

 7.873393409486751e-18  5.766137728469546e-20 -6.635624082679599e-01
 5.766137728469546e-20  5.568277109229334e-18  2.655787514292623e-01
-6.635624082679599e-01  2.655787514292623e-01  8.478204372142733e-18

 7.873392676200012e-18  5.760123431308840e-20 -6.635624706713320e-01
 5.760123431308840e-20  5.568279130755080e-18  2.655753950117788e-01
-6.635624706713320e-01  2.655753950117788e-01  8.478205112236416e-18

 7.873391945576795e-18  5.754117611528376e-20 -6.635625328636954e-01
 5.754117611528376e-20  5.568280995409383e-18  2.655720428946040e-01
-6.635625328636954e-01  2.655720428946040e-01  8.478205849829867e-18

 7.873391217617724e-18  5.748115929396438e-20 -6.635625948455144e-01
 5.748115929396438e-20  5.568283046342242e-18  2.655686933758908e-01
-6.635625948455144e-01  2.655686933758908e-01  8.478206584928883e-18

 7.873390492323663e-18  5.742122207511374e-20 -6.635626566172490e-01
 5.742122207511374e-20  5.568285009458188e-18  2.655653480728019e-01
-6.635626566172490e-01  2.655653480728019e-01  8.478207317539104e-18

 7.873389769695835e-18  5.736132719346795e-20 -6.635627181793540e-01
 5.736132719346795e-20  5.568287047738351e-18  2.655620052836543e-01
-6.635627181793540e-01  2.655620052836543e-01  8.478208047666214e-18

 7.873389049735935e-18  5.730151102737250e-20 -6.635627795322764e-01
 5.730151102737250e-20  5.568288775702886e-18  2.655586666250979e-01
-6.635627795322764e-01  2.655586666250979e-01  8.478208775315742e-18

 7.873388332445922e-18  5.724173338582428e-20 -6.635628406764614e-01
 5.724173338582428e-20  5.568290721179960e-18  2.655553303951848e-01
-6.635628406764614e-01  2.655553303951848e-01  8.478209500493230e-18

 7.873387617828349e-18  5.718203552947664e-20 -6.635629016123434e-01
 5.718203552947664e-20  5.568292567383269e-18  2.655519982105817e-01
-6.635629016123434e-01  2.655519982105817e-01  8.478210223204148e-18

 7.873386905885987e-18  5.712237333116858e-20 -6.635629623403569e-01
 5.712237333116858e-20  5.568294604836604e-18  2.655486683690866e-01
-6.635629623403569e-01  2.655486683690866e-01  8.478210943453912e-18

 7.873386196622259e-18  5.706277957639113e-20 -6.635630228609254e-01
 5.706277957639113e-20  5.568296673127360e-18  2.655453420721951e-01
-6.635630228609254e-01  2.655453420721951e-01  8.478211661247877e-18

 7.873385490040961e-18  5.700325001927784e-20 -6.635630831744723e-01
 5.700325001927784e-20  5.568298436174833e-18  2.655420192769500e-01
-6.635630831744723e-01  2.655420192769500e-01  8.478212376591368e-18

 7.873384786146380e-18  5.694375789351478e-20 -6.635631432814098e-01
 5.694375789351478e-20  5.568300469664159e-18  2.655386986955567e-01
-6.635631432814098e-01  2.655386986955567e-01  8.478213089489647e-18

 7.873384084943455e-18  5.688433750404636e-20 -6.635632031821505e-01
 5.688433750404636e-20  5.568302275264880e-18  2.655353819443458e-01
-6.635632031821505e-01  2.655353819443458e-01  8.478213799947954e-18

 7.873383386437510e-18  5.682495165994972e-20 -6.635632628770958e-01
 5.682495165994972e-20  5.568304237271244e-18  2.655320673202394e-01
-6.635632628770958e-01  2.655320673202394e-01  8.478214507971441e-18

 7.873382690634576e-18  5.676563720573986e-20 -6.635633223666453e-01
 5.676563720573986e-20  5.568306096114869e-18  2.655287564394286e-01
-6.635633223666453e-01  2.655287564394286e-01  8.478215213565223e-18

 7.873381997541248e-18  5.670635539964006e-20 -6.635633816511922e-01
 5.670635539964006e-20  5.568308013270391e-18  2.655254475988282e-01
-6.635633816511922e-01  2.655254475988282e-01  8.478215916734429e-18

 7.873381307164793e-18  5.664714523743835e-20 -6.635634407311232e-01
 5.664714523743835e-20  5.568309779554715e-18  2.655221424141824e-01
-6.635634407311232e-01  2.655221424141824e-01  8.478216617484046e-18

 7.873380619513111e-18  5.658796516019335e-20 -6.635634996068202e-01
 5.658796516019335e-20  5.568311746151178e-18  2.655188391822900e-01
-6.635634996068202e-01  2.655188391822900e-01  8.478217315819102e-18

 7.873379934594911e-18  5.652884534428299e-20 -6.635635582786609e-01
 5.652884534428299e-20  5.568313481744026e-18  2.655155391038184e-01
-6.635635582786609e-01  2.655155391038184e-01  8.478218011744542e-18

 7.873379252419578e-18  5.646978217392015e-20 -6.635636167470156e-01
 5.646978217392015e-20  5.568315462271425e-18  2.655122421346449e-01
-6.635636167470156e-01  2.655122421346449e-01  8.478218705265293e-18

 7.873378572997357e-18  5.641074839824933e-20 -6.635636750122488e-01
 5.641074839824933e-20  5.568317259705324e-18  2.655089469861118e-01
-6.635636750122488e-01  2.655089469861118e-01  8.478219396386244e-18

 7.873377896339294e-18  5.635178013645463e-20 -6.635637330747224e-01
 5.635178013645463e-20  5.568318933174902e-18  2.655056552735335e-01
-6.635637330747224e-01  2.655056552735335e-01  8.478220085112216e-18

 7.873377222457414e-18  5.629283992493098e-20 -6.635637909347885e-01
 5.629283992493098e-20  5.568320934368494e-18  2.655023652931583e-01
-6.635637909347885e-01  2.655023652931583e-01  8.478220771448065e-18

 7.873376551364564e-18  5.623396487157148e-20 -6.635638485927995e-01
 5.623396487157148e-20  5.568322763188479e-18  2.654990786595421e-01
-6.635638485927995e-01  2.654990786595421e-01  8.478221455398540e-18

 7.873375883074760e-18  5.617511461333929e-20 -6.635639060490955e-01
 5.617511461333929e-20  5.568324543416478e-18  2.654957936691863e-01
-6.635639060490955e-01  2.654957936691863e-01  8.478222136968418e-18

 7.873375217603020e-18  5.611632694023575e-20 -6.635639633040177e-01
 5.611632694023575e-20  5.568326397009587e-18  2.654925119366416e-01
-6.635639633040177e-01  2.654925119366416e-01  8.478222816162429e-18

 7.873374554965425e-18  5.605756407664040e-20 -6.635640203578965e-01
 5.605756407664040e-20  5.568328035644697e-18  2.654892317575945e-01
-6.635640203578965e-01  2.654892317575945e-01  8.478223492985272e-18

 7.873373895179394e-18  5.599886059907872e-20 -6.635640772110619e-01
 5.599886059907872e-20  5.568329886347725e-18  2.654859547467605e-01
-6.635640772110619e-01  2.654859547467605e-01  8.478224167441640e-18

 7.873373238263558e-18  5.594018171948740e-20 -6.635641338638328e-01
 5.594018171948740e-20  5.568331778618288e-18  2.654826791993073e-01
-6.635641338638328e-01  2.654826791993073e-01  8.478224839536201e-18

 7.873372584304659e-18  5.588155089660167e-20 -6.635641903165348e-01
 5.588155089660167e-20  5.568333600965364e-18  2.654794063151614e-01
-6.635641903165348e-01  2.654794063151614e-01  8.478225509276261e-18

 7.873371933194049e-18  5.582296819842924e-20 -6.635642465694651e-01
 5.582296819842924e-20  5.568335254234059e-18  2.654761360487806e-01
-6.635642465694651e-01  2.654761360487806e-01  8.478226176661298e-18

 7.873371285018325e-18  5.576440735207504e-20 -6.635643026229355e-01
 5.576440735207504e-20  5.568337022072994e-18  2.654728671102649e-01
-6.635643026229355e-01  2.654728671102649e-01  8.478226841698486e-18

 7.873370639802216e-18  5.570590643633311e-20 -6.635643584772470e-01
 5.570590643633311e-20  5.568338920581365e-18  2.654696011134711e-01
-6.635643584772470e-01  2.654696011134711e-01  8.478227504392436e-18

 7.873369997572147e-18  5.564741926122681e-20 -6.635644141326941e-01
 5.564741926122681e-20  5.568340601626661e-18  2.654663363536175e-01
-6.635644141326941e-01  2.654663363536175e-01  8.478228164747826e-18

 7.873369358356483e-18  5.558898953727909e-20 -6.635644695895667e-01
 5.558898953727909e-20  5.568342351236154e-18  2.654630744441001e-01
-6.635644695895667e-01  2.654630744441001e-01  8.478228822769246e-18

 7.873368722185553e-18  5.553057282139819e-20 -6.635645248481488e-01
 5.553057282139819e-20  5.568344004144341e-18  2.654598136798483e-01
-6.635645248481488e-01  2.654598136798483e-01  8.478229478461406e-18

 7.873368089091943e-18  5.547221294698838e-20 -6.635645799087189e-01
 5.547221294698838e-20  5.568345783564475e-18  2.654565556743142e-01
-6.635645799087189e-01  2.654565556743142e-01  8.478230131828941e-18

 7.873367459110392e-18  5.541386875941183e-20 -6.635646347715510e-01
 5.541386875941183e-20  5.568347478765383e-18  2.654532987219799e-01
-6.635646347715510e-01  2.654532987219799e-01  8.478230782876569e-18

 7.873366832278273e-18  5.535556409646125e-20 -6.635646894369124e-01
 5.535556409646125e-20  5.568349271979897e-18  2.654500440210538e-01
-6.635646894369124e-01  2.654500440210538e-01  8.478231431608987e-18

 7.873366208635487e-18  5.529730218922440e-20 -6.635647439050675e-01
 5.529730218922440e-20  5.568350923754073e-18  2.654467915255127e-01
-6.635647439050675e-01  2.654467915255127e-01  8.478232078030976e-18

 7.873365588224828e-18  5.523905166073894e-20 -6.635647981762717e-01
 5.523905166073894e-20  5.568352616231893e-18  2.654435399440717e-01
-6.635647981762717e-01  2.654435399440717e-01  8.478232722147350e-18

 7.873364971092160e-18  5.518085248464286e-20 -6.635648522507791e-01
 5.518085248464286e-20  5.568354280287668e-18  2.654402908898169e-01
-6.635648522507791e-01  2.654402908898169e-01  8.478233363962921e-18

 7.873364357286546e-18  5.512266138494557e-20 -6.635649061288338e-01
 5.512266138494557e-20  5.568356039591785e-18  2.654370426565168e-01
-6.635649061288338e-01  2.654370426565168e-01  8.478234003482647e-18

 7.873363746860719e-18  5.506451973236900e-20 -6.635649598106803e-01
 5.506451973236900e-20  5.568357678762932e-18  2.654337968569019e-01
-6.635649598106803e-01  2.654337968569019e-01  8.478234640711486e-18

 7.873363139871061e-18  5.500638643837124e-20 -6.635650132965519e-01
 5.500638643837124e-20  5.568359526950948e-18  2.654305517844585e-01
-6.635650132965519e-01  2.654305517844585e-01  8.478235275654527e-18

 7.873362536378113e-18  5.494829586287773e-20 -6.635650665866816e-01
 5.494829586287773e-20  5.568361064202024e-18  2.654273090518097e-01
-6.635650665866816e-01  2.654273090518097e-01  8.478235908316893e-18

 7.873361936446819e-18  5.489021487025111e-20 -6.635651196812931e-01
 5.489021487025111e-20  5.568362654888142e-18  2.654240669521070e-01
-6.635651196812931e-01  2.654240669521070e-01  8.478236538703896e-18

 7.873361340146877e-18  5.483217742299392e-20 -6.635651725806073e-01
 5.483217742299392e-20  5.568364438925408e-18  2.654208270976381e-01
-6.635651725806073e-01  2.654208270976381e-01  8.478237166820844e-18

 7.873360747553065e-18  5.477414684229026e-20 -6.635652252848395e-01
 5.477414684229026e-20  5.568366096106226e-18  2.654175877814671e-01
-6.635652252848395e-01  2.654175877814671e-01  8.478237792673316e-18

 7.873360158745826e-18  5.471614430354211e-20 -6.635652777941982e-01
 5.471614430354211e-20  5.568367775653941e-18  2.654143502007212e-01
-6.635652777941982e-01  2.654143502007212e-01  8.478238416266930e-18

 7.873359573811444e-18  5.465817639365699e-20 -6.635653301088883e-01
 5.465817639365699e-20  5.568369351593410e-18  2.654111143077869e-01
-6.635653301088883e-01  2.654111143077869e-01  8.478239037607521e-18

 7.873358992842813e-18  5.460021092604264e-20 -6.635653822291088e-01
 5.460021092604264e-20  5.568371014040857e-18  2.654078788100157e-01
-6.635653822291088e-01  2.654078788100157e-01  8.478239656701096e-18

 7.873358415939826e-18  5.454228513389415e-20 -6.635654341550529e-01
 5.454228513389415e-20  5.568372660078162e-18  2.654046453191662e-01
-6.635654341550529e-01  2.654046453191662e-01  8.478240273553868e-18

 7.873357843210005e-18  5.448435624175639e-20 -6.635654858869096e-01
 5.448435624175639e-20  5.568374180480994e-18  2.654014121278320e-01
-6.635654858869096e-01  2.654014121278320e-01  8.478240888172288e-18

 7.873357274769151e-18  5.442646823304473e-20 -6.635655374248615e-01
 5.442646823304473e-20  5.568375709891868e-18  2.653981808468549e-01
-6.635655374248615e-01  2.653981808468549e-01  8.478241500563035e-18

 7.873356710741999e-18  5.436857655945692e-20 -6.635655887690866e-01
 5.436857655945692e-20  5.568377412541568e-18  2.653949497690493e-01
-6.635655887690866e-01  2.653949497690493e-01  8.478242110733101e-18

 7.873356151263205e-18  5.431072269580706e-20 -6.635656399197583e-01
 5.431072269580706e-20  5.568378832677316e-18  2.653917205050356e-01
-6.635656399197583e-01  2.653917205050356e-01  8.478242718689767e-18

 7.873355596477890e-18  5.425286341957164e-20 -6.635656908770418e-01
 5.425286341957164e-20  5.568380569158003e-18  2.653884913467950e-01
-6.635656908770418e-01  2.653884913467950e-01  8.478243324440654e-18

 7.873355046542912e-18  5.419503051250989e-20 -6.635657416411013e-01
 5.419503051250989e-20  5.568382129048200e-18  2.653852634904961e-01
-6.635657416411013e-01  2.653852634904961e-01  8.478243927993795e-18

 7.873354501627660e-18  5.413721933684189e-20 -6.635657922120934e-01
 5.413721933684189e-20  5.568383667472933e-18  2.653820368871339e-01
-6.635657922120934e-01  2.653820368871339e-01  8.478244529357610e-18

 7.873353961915323e-18  5.407939917042637e-20 -6.635658425901685e-01
 5.407939917042637e-20  5.568385104249455e-18  2.653788102430972e-01
-6.635658425901685e-01  2.653788102430972e-01  8.478245128541008e-18

 7.873353427604194e-18  5.402161484121904e-20 -6.635658927754744e-01
 5.402161484121904e-20  5.568386790403962e-18  2.653755851689021e-01
-6.635658927754744e-01  2.653755851689021e-01  8.478245725553389e-18

 7.873352898909034e-18  5.396381842724747e-20 -6.635659427681508e-01
 5.396381842724747e-20  5.568388345253268e-18  2.653723599557515e-01
-6.635659427681508e-01  2.653723599557515e-01  8.478246320404751e-18

 7.873352376062557e-18  5.390605264959420e-20 -6.635659925683348e-01
 5.390605264959420e-20  5.568389662486453e-18  2.653691362138255e-01
-6.635659925683348e-01  2.653691362138255e-01  8.478246913105696e-18

 7.873351859317247e-18  5.384827342363414e-20 -6.635660421761560e-01
 5.384827342363414e-20  5.568391229276251e-18  2.653659122340576e-01
-6.635660421761560e-01  2.653659122340576e-01  8.478247503667543e-18

 7.873351348947242e-18  5.379052611771733e-20 -6.635660915917414e-01
 5.379052611771733e-20  5.568392765965168e-18  2.653626896262858e-01
-6.635660915917414e-01  2.653626896262858e-01  8.478248092102338e-18

 7.873350845250396e-18  5.373276087700773e-20 -6.635661408152089e-01
 5.373276087700773e-20  5.568394199550997e-18  2.653594666814179e-01
-6.635661408152089e-01  2.653594666814179e-01  8.478248678423030e-18

 7.873350348550718e-18  5.367502294127609e-20 -6.635661898466754e-01
 5.367502294127609e-20  5.568395783268761e-18  2.653562450088621e-01
-6.635661898466754e-01  2.653562450088621e-01  8.478249262643460e-18

 7.873349859200801e-18  5.361727287953442e-20 -6.635662386862506e-01
 5.361727287953442e-20  5.568397237213952e-18  2.653530228989773e-01
-6.635662386862506e-01  2.653530228989773e-01  8.478249844778555e-18

 7.873349377584995e-18  5.355953084251373e-20 -6.635662873340381e-01
 5.355953084251373e-20  5.568398652680432e-18  2.653498015463118e-01
-6.635662873340381e-01  2.653498015463118e-01  8.478250424844361e-18

 7.873348904122271e-18  5.350180358854696e-20 -6.635663357901382e-01
 5.350180358854696e-20  5.568400033969162e-18  2.653465809005772e-01
-6.635663357901382e-01  2.653465809005772e-01  8.478251002858188e-18

 7.873348439270095e-18  5.344405880478220e-20 -6.635663840546447e-01
 5.344405880478220e-20  5.568401577535476e-18  2.653433596665457e-01
-6.635663840546447e-01  2.653433596665457e-01  8.478251578838792e-18

 7.873347983528278e-18  5.338633204230362e-20 -6.635664321276462e-01
 5.338633204230362e-20  5.568403004863359e-18  2.653401394530229e-01
-6.635664321276462e-01  2.653401394530229e-01  8.478252152806455e-18

 7.873347537443493e-18  5.332858595017429e-20 -6.635664800092266e-01
 5.332858595017429e-20  5.568404368024206e-18  2.653369185498313e-01
-6.635664800092266e-01  2.653369185498313e-01  8.478252724783260e-18

 7.873347101614137e-18  5.327085610324226e-20 -6.635665276994653e-01
 5.327085610324226e-20  5.568405608411423e-18  2.653336985655199e-01
-6.635665276994653e-01  2.653336985655199e-01  8.478253294793134e-18

 7.873346676696049e-18  5.321310586581405e-20 -6.635665751984349e-01
 5.321310586581405e-20  5.568407047425789e-18  2.653304777892964e-01
-6.635665751984349e-01  2.653304777892964e-01  8.478253862862218e-18

 7.873346263408553e-18  5.315536920068900e-20 -6.635666225062042e-01
 5.315536920068900e-20  5.568408432407232e-18  2.653272578296165e-01
-6.635666225062042e-01  2.653272578296165e-01  8.478254429018994e-18

 7.873345862541423e-18  5.309760914861712e-20 -6.635666696228369e-01
 5.309760914861712e-20  5.568409832444732e-18  2.653240369754151e-01
-6.635666696228369e-01  2.653240369754151e-01  8.478254993294605e-18

 7.873345474962773e-18  5.303985289003785e-20 -6.635667165483893e-01
 5.303985289003785e-20  5.568411156260813e-18  2.653208164197204e-01
-6.635667165483893e-01  2.653208164197204e-01  8.478255555723128e-18

 7.873345101627466e-18  5.298209662382651e-20 -6.635667632829155e-01
 5.298209662382651e-20  5.568412360935612e-18  2.653175961108488e-01
-6.635667632829155e-01  2.653175961108488e-01  8.478256116341929e-18

 7.873344743587065e-18  5.292431666701936e-20 -6.635668098264620e-01
 5.292431666701936e-20  5.568413772385683e-18  2.653143747521541e-01
-6.635668098264620e-01  2.653143747521541e-01  8.478256675192032e-18

 7.873344402000522e-18  5.286654217903453e-20 -6.635668561790723e-01
 5.286654217903453e-20  5.568415060736438e-18  2.653111539510742e-01
-6.635668561790723e-01  2.653111539510742e-01  8.478257232318504e-18

 7.873344078146401e-18  5.280873826510080e-20 -6.635669023407835e-01
 5.280873826510080e-20  5.568416225788339e-18  2.653079319958837e-01
-6.635669023407835e-01  2.653079319958837e-01  8.478257787770978e-18

 7.873343773436376e-18  5.275094493156042e-20 -6.635669483116269e-01
 5.275094493156042e-20  5.568417557156864e-18  2.653047104935579e-01
-6.635669483116269e-01  2.653047104935579e-01  8.478258341604129e-18

 7.873343489430397e-18  5.269311757517654e-20 -6.635669940916303e-01
 5.269311757517654e-20  5.568418673536651e-18  2.653014877319432e-01
-6.635669940916303e-01  2.653014877319432e-01  8.478258893878256e-18

 7.873343227853595e-18  5.263529861402715e-20 -6.635670396808150e-01
 5.263529861402715e-20  5.568419970273988e-18  2.652982653178594e-01
-6.635670396808150e-01  2.652982653178594e-01  8.478259444659968e-18

 7.873342990615091e-18  5.257744271372159e-20 -6.635670850791985e-01
 5.257744271372159e-20  5.568421072461569e-18  2.652950415386421e-01
-6.635670850791985e-01  2.652950415386421e-01  8.478259994022907e-18

 7.873342779828814e-18  5.251959168705238e-20 -6.635671302867922e-01
 5.251959168705238e-20  5.568422111323136e-18  2.652918180005129e-01
-6.635671302867922e-01  2.652918180005129e-01  8.478260542048482e-18

 7.873342597836655e-18  5.246170579339493e-20 -6.635671753036010e-01
 5.246170579339493e-20  5.568423325065435e-18  2.652885929905775e-01
-6.635671753036010e-01  2.652885929905775e-01  8.478261088826822e-18

 7.873342447233980e-18  5.240381313668230e-20 -6.635672201296283e-01
 5.240381313668230e-20  5.568424363900654e-18  2.652853676997982e-01
-6.635672201296283e-01  2.652853676997982e-01  8.478261634457778e-18

 7.873342330897510e-18  5.234591455688256e-20 -6.635672647648694e-01
 5.234591455688256e-20  5.568425416133016e-18  2.652821420743128e-01
-6.635672647648694e-01  2.652821420743128e-01  8.478262179051897e-18

 7.873342252015732e-18  5.228797472751149e-20 -6.635673092093156e-01
 5.228797472751149e-20  5.568426191743202e-18  2.652789148154393e-01
-6.635673092093156e-01  2.652789148154393e-01  8.478262722731722e-18

 7.873342214121719e-18  5.223004220572280e-20 -6.635673534629519e-01
 5.223004220572280e-20  5.568427248981819e-18  2.652756875281393e-01
-6.635673534629519e-01  2.652756875281393e-01  8.478263265632916e-18

 7.873342221127946e-18  5.217206945611923e-20 -6.635673975257600e-01
 5.217206945611923e-20  5.568428121362183e-18  2.652724584985209e-01
-6.635673975257600e-01  2.652724584985209e-01  8.478263807905726e-18

 7.873342277362848e-18  5.211410063928576e-20 -6.635674413977163e-01
 5.211410063928576e-20  5.568428858797420e-18  2.652692293309007e-01
-6.635674413977163e-01  2.652692293309007e-01  8.478264349716315e-18

 7.873342387607874e-18  5.205610030001386e-20 -6.635674850787890e-01
 5.205610030001386e-20  5.568429721236806e-18  2.652659983107137e-01
-6.635674850787890e-01  2.652659983107137e-01  8.478264891248208e-18

 7.873342557134095e-18  5.199810301645210e-20 -6.635675285689461e-01
 5.199810301645210e-20  5.568430431756022e-18  2.652627670418127e-01
-6.635675285689461e-01  2.652627670418127e-01  8.478265432703679e-18

 7.873342791735728e-18  5.194007596195598e-20 -6.635675718681461e-01
 5.194007596195598e-20  5.568431085165389e-18  2.652595338086650e-01
-6.635675718681461e-01  2.652595338086650e-01  8.478265974305104e-18

 7.873343097757859e-18  5.188205053001117e-20 -6.635676149763458e-01
 5.188205053001117e-20  5.568431607906079e-18  2.652562997994185e-01
-6.635676149763458e-01  2.652562997994185e-01  8.478266516295936e-18

 7.873343482113684e-18  5.182402895683534e-20 -6.635676578934947e-01
 5.182402895683534e-20  5.568432057734251e-18  2.652530649567069e-01
-6.635676578934947e-01  2.652530649567069e-01  8.478267058941459e-18

 7.873343952284595e-18  5.176599204910302e-20 -6.635677006195376e-01
 5.176599204910302e-20  5.568432465953125e-18  2.652498279784418e-01
-6.635677006195376e-01  2.652498279784418e-01  8.478267602528704e-18

 7.873344516294400e-18  5.170798113821120e-20 -6.635677431544151e-01
 5.170798113821120e-20  5.568432857635053e-18  2.652465904650273e-01
-6.635677431544151e-01  2.652465904650273e-01  8.478268147365536e-18

 7.873345182644869e-18  5.164997028990874e-20 -6.635677854980614e-01
 5.164997028990874e-20  5.568433041786775e-18  2.652433506969135e-01
-6.635677854980614e-01  2.652433506969135e-01  8.478268693778125e-18

 7.873345960195496e-18  5.159200482879862e-20 -6.635678276504074e-01
 5.159200482879862e-20  5.568433117192047e-18  2.652401102717898e-01
-6.635678276504074e-01  2.652401102717898e-01  8.478269242106342e-18

 7.873346857964150e-18  5.153405820803452e-20 -6.635678696113768e-01
 5.153405820803452e-20  5.568432968182005e-18  2.652368674662754e-01
-6.635678696113768e-01  2.652368674662754e-01  8.478269792696090e-18

 7.873347884817622e-18  5.147619290427316e-20 -6.635679113808901e-01
 5.147619290427316e-20  5.568432816425093e-18  2.652336238723115e-01
-6.635679113808901e-01  2.652336238723115e-01  8.478270345887384e-18

 7.873349049011213e-18  5.141838599343495e-20 -6.635679529588612e-01
 5.141838599343495e-20  5.568432580187356e-18  2.652303777589057e-01
-6.635679529588612e-01  2.652303777589057e-01  8.478270901996660e-18

 7.873350357524906e-18  5.136070272806952e-20 -6.635679943452000e-01
 5.136070272806952e-20  5.568432245205225e-18  2.652271307079853e-01
-6.635679943452000e-01  2.652271307079853e-01  8.478271461291264e-18

 7.873351815129672e-18  5.130312793021660e-20 -6.635680355398109e-01
 5.130312793021660e-20  5.568431413207885e-18  2.652238809737459e-01
-6.635680355398109e-01  2.652238809737459e-01  8.478272023953509e-18

 7.873353423104150e-18  5.124573426121929e-20 -6.635680765425941e-01
 5.124573426121929e-20  5.568430753235952e-18  2.652206297023849e-01
-6.635680765425941e-01  2.652206297023849e-01  8.478272590031292e-18

 7.873355177508446e-18  5.118855875912850e-20 -6.635681173534428e-01
 5.118855875912850e-20  5.568429820884016e-18  2.652173767786558e-01
-6.635681173534428e-01  2.652173767786558e-01  8.478273159371764e-18

 7.873357066916254e-18  5.113162021340925e-20 -6.635681579722466e-01
 5.113162021340925e-20  5.568428798633532e-18  2.652141208190512e-01
-6.635681579722466e-01  2.652141208190512e-01  8.478273731534093e-18

 7.873359069513495e-18  5.107501184423938e-20 -6.635681983988894e-01
 5.107501184423938e-20  5.568427654999268e-18  2.652108633105549e-01
-6.635681983988894e-01  2.652108633105549e-01  8.478274305677809e-18

 7.873361149506700e-18  5.101875257866647e-20 -6.635682386332513e-01
 5.101875257866647e-20  5.568426363129303e-18  2.652076023756850e-01
-6.635682386332513e-01  2.652076023756850e-01  8.478274880424748e-18

 7.873363252862286e-18  5.096294849569679e-20 -6.635682786752055e-01
 5.096294849569679e-20  5.568425069103465e-18  2.652043393922217e-01
-6.635682786752055e-01  2.652043393922217e-01  8.478275453695125e-18

 7.873365302547417e-18  5.090761639563162e-20 -6.635683185246218e-01
 5.090761639563162e-20  5.568423986960979e-18  2.652010723354095e-01
-6.635683185246218e-01  2.652010723354095e-01  8.478276022524506e-18

 7.873367193687238e-18  5.085285497611021e-20 -6.635683581813638e-01
 5.085285497611021e-20  5.568422886883410e-18  2.651978023905938e-01
-6.635683581813638e-01  2.651978023905938e-01  8.478276582877556e-18

 7.873368789415749e-18  5.079867225145510e-20 -6.635683976452904e-01
 5.079867225145510e-20  5.568422125258012e-18  2.651945277099164e-01
-6.635683976452904e-01  2.651945277099164e-01  8.478277129488442e-18

 7.873369918673598e-18  5.074509272929254e-20 -6.635684369162562e-01
 5.074509272929254e-20  5.568421726112013e-18  2.651912480574232e-01
-6.635684369162562e-01  2.651912480574232e-01  8.478277655776140e-18

 7.873370377732992e-18  5.069210103392347e-20 -6.635684759941092e-01
 5.069210103392347e-20  5.568422103628721e-18  2.651879629603630e-01
-6.635684759941092e-01  2.651879629603630e-01  8.478278153903087e-18

 7.873369937648487e-18  5.063959108731748e-20 -6.635685148786945e-01
 5.063959108731748e-20  5.568423386184161e-18  2.651846705490973e-01
-6.635685148786945e-01  2.651846705490973e-01  8.478278615061761e-18

 7.873368359854217e-18  5.058747653019141e-20 -6.635685535698492e-01
 5.058747653019141e-20  5.568425549070192e-18  2.651813728403288e-01
-6.635685535698492e-01  2.651813728403288e-01  8.478279030074519e-18

 7.873365421354602e-18  5.053559414679051e-20 -6.635685920674091e-01
 5.053559414679051e-20  5.568429410629419e-18  2.651780717926803e-01
-6.635685920674091e-01  2.651780717926803e-01  8.478279390362590e-18

 7.873360949016611e-18  5.048398034651244e-20 -6.635686303712035e-01
 5.048398034651244e-20  5.568434499054645e-18  2.651747822661146e-01
-6.635686303712035e-01  2.651747822661146e-01  8.478279689264836e-18

 7.873354859299728e-18  5.043315706490620e-20 -6.635686684810521e-01
 5.043315706490620e-20  5.568441238145878e-18  2.651715421116347e-01
-6.635686684810521e-01  2.651715421116347e-01  8.478279923565998e-18

 7.873347195953865e-18  5.038516840361975e-20 -6.635687063967770e-01
 5.038516840361975e-20  5.568449596494346e-18  2.651684560158344e-01
-6.635687063967770e-01  2.651684560158344e-01  8.478280094946503e-18

 7.873338155243764e-18  5.034422773959490e-20 -6.635687441181919e-01
 5.034422773959490e-20  5.568459353861123e-18  2.651657197493914e-01
-6.635687441181919e-01  2.651657197493914e-01  8.478280210952701e-18

 7.873328088111495e-18  5.031137562401429e-20 -6.635687816451048e-01
 5.031137562401429e-20  5.568469985492662e-18  2.651633933466485e-01
-6.635687816451048e-01  2.651633933466485e-01  8.478280285079977e-18

-1.574661318983186e-17 -5.024018973437922e-20  6.635688561146351e-01
-5.024018973437922e-20 -1.113698498326360e-17  2.595242540755101e-01
 6.635688561146351e-01  2.595242540755101e-01 -1.695656093199918e-17

-1.574663441870356e-17 -5.030819516097332e-20  6.635688189773199e-01
-5.030819516097332e-20 -1.113696230041599e-17  2.595203380279010e-01
 6.635688189773199e-01  2.595203380279010e-01 -1.695656083442902e-17

-1.574659306651279e-17 -5.016382274004432e-20  6.635688930568442e-01
-5.016382274004432e-20 -1.113700615303749e-17  2.595285432434822e-01
 6.635688930568442e-01  2.595285432434822e-01 -1.695656106727822e-17

-1.574657500532234e-17 -5.008888347860751e-20  6.635689298037386e-01
-5.008888347860751e-20 -1.113702547991997e-17  2.595324242841154e-01
 6.635689298037386e-01  2.595324242841154e-01 -1.695656127705226e-17

-1.574655970814516e-17 -5.001547168276040e-20  6.635689663550987e-01
-5.001547168276040e-20 -1.113704209255684e-17  2.595359540253387e-01
 6.635689663550987e-01  2.595359540253387e-01 -1.695656158831151e-17

-1.574654756751164e-17 -4.994210538933729e-20  6.635690027107028e-01
-4.994210538933729e-20 -1.113705550918735e-17  2.595393316694113e-01
 6.635690027107028e-01  2.595393316694113e-01 -1.695656201614783e-17

-1.574653867092240e-17 -4.986846647571498e-20  6.635690388703284e-01
-4.986846647571498e-20 -1.113706589324388e-17  2.595426586965748e-01
 6.635690388703284e-01  2.595426586965748e-01 -1.695656256392109e-17

-1.574653285129776e-17 -4.979484749335609e-20  6.635690748337424e-01
-4.979484749335609e-20 -1.113707296072322e-17  2.595459763893146e-01
 6.635690748337424e-01  2.595459763893146e-01 -1.695656322519945e-17

-1.574652976237314e-17 -4.972175239146212e-20  6.635691106007064e-01
-4.972175239146212e-20 -1.113707760248898e-17  2.595492964012812e-01
 6.635691106007064e-01  2.595492964012812e-01 -1.695656398665906e-17

-1.574652895815925e-17 -4.964954676620366e-20  6.635691461709811e-01
-4.964954676620366e-20 -1.113707986740325e-17  2.595526241225107e-01
 6.635691461709811e-01  2.595526241225107e-01 -1.695656483114061e-17

-1.574652996152606e-17 -4.957852949797049e-20  6.635691815443218e-01
-4.957852949797049e-20 -1.113708005435028e-17  2.595559583633630e-01
 6.635691815443218e-01  2.595559583633630e-01 -1.695656574028684e-17

-1.574653231458517e-17 -4.950881902907446e-20  6.635692167204750e-01
-4.950881902907446e-20 -1.113707924953990e-17  2.595593002706984e-01
 6.635692167204750e-01  2.595593002706984e-01 -1.695656669648044e-17

-1.574653560988325e-17 -4.944044364075263e-20  6.635692516991865e-01
-4.944044364075263e-20 -1.113707708381614e-17  2.595626482398328e-01
 6.635692516991865e-01  2.595626482398328e-01 -1.695656768404386e-17

-1.574653950530438e-17 -4.937337440907569e-20  6.635692864801924e-01
-4.937337440907569e-20 -1.113707482744786e-17  2.595660009025033e-01
 6.635692864801924e-01  2.595660009025033e-01 -1.695656868981229e-17

-1.574654372711942e-17 -4.930748130036326e-20  6.635693210632292e-01
-4.930748130036326e-20 -1.113707227020919e-17  2.595693594275195e-01
 6.635693210632292e-01  2.595693594275195e-01 -1.695656970325112e-17

-1.574654806558181e-17 -4.924265249454857e-20  6.635693554480249e-01
-4.924265249454857e-20 -1.113706913173843e-17  2.595727217938204e-01
 6.635693554480249e-01  2.595727217938204e-01 -1.695657071628654e-17

-1.574655236662932e-17 -4.917873675746076e-20  6.635693896343039e-01
-4.917873675746076e-20 -1.113706620594028e-17  2.595760894077431e-01
 6.635693896343039e-01  2.595760894077431e-01 -1.695657172298614e-17

-1.574655652219840e-17 -4.911561349173328e-20  6.635694236217844e-01
-4.911561349173328e-20 -1.113706358085260e-17  2.595794604407771e-01
 6.635694236217844e-01  2.595794604407771e-01 -1.695657271918678e-17

-1.574656046070593e-17 -4.905313229176666e-20  6.635694574101801e-01
-4.905313229176666e-20 -1.113706075680751e-17  2.595828364464586e-01
 6.635694574101801e-01  2.595828364464586e-01 -1.695657370212818e-17

-1.574656413852792e-17 -4.899120348895563e-20  6.635694909992019e-01
-4.899120348895563e-20 -1.113705882967956e-17  2.595862157055203e-01
 6.635694909992019e-01  2.595862157055203e-01 -1.695657467012530e-17

-1.574656753281608e-17 -4.892969621290471e-20  6.635695243885517e-01
-4.892969621290471e-20 -1.113705696257544e-17  2.595895998505317e-01
 6.635695243885517e-01  2.595895998505317e-01 -1.695657562229205e-17

-1.574657063569518e-17 -4.886853535163372e-20  6.635695575779316e-01
-4.886853535163372e-20 -1.113705494244908e-17  2.595929876339967e-01
 6.635695575779316e-01  2.595929876339967e-01 -1.695657655831816e-17

-1.574657344972735e-17 -4.880765064038525e-20  6.635695905670327e-01
-4.880765064038525e-20 -1.113705365565093e-17  2.595963790698328e-01
 6.635695905670327e-01  2.595963790698328e-01 -1.695657747829448e-17

-1.574657598445958e-17 -4.874695385645859e-20  6.635696233555467e-01
-4.874695385645859e-20 -1.113705237365151e-17  2.595997754284617e-01
 6.635696233555467e-01  2.595997754284617e-01 -1.695657838258070e-17

-1.574657825385713e-17 -4.868641598474432e-20  6.635696559431566e-01
-4.868641598474432e-20 -1.113705124882158e-17  2.596031750850680e-01
 6.635696559431566e-01  2.596031750850680e-01 -1.695657927170604e-17

-1.574658027443614e-17 -4.862597819530178e-20  6.635696883295421e-01
-4.862597819530178e-20 -1.113705062502886e-17  2.596065797396569e-01
 6.635696883295421e-01  2.596065797396569e-01 -1.695658014629787e-17

-1.574658206393592e-17 -4.856561255888033e-20  6.635697205143768e-01
-4.856561255888033e-20 -1.113705037324862e-17  2.596099877774553e-01
 6.635697205143768e-01  2.596099877774553e-01 -1.695658100703038e-17

-1.574658364039827e-17 -4.850526965374571e-20  6.635697524973331e-01
-4.850526965374571e-20 -1.113704979383325e-17  2.596134009059498e-01
 6.635697524973331e-01  2.596134009059498e-01 -1.695658185458939e-17

-1.574658502154837e-17 -4.844495309076727e-20  6.635697842780724e-01
-4.844495309076727e-20 -1.113704993405100e-17  2.596168175160827e-01
 6.635697842780724e-01  2.596168175160827e-01 -1.695658268964828e-17

-1.574658622439633e-17 -4.838460521799154e-20  6.635698158562554e-01
-4.838460521799154e-20 -1.113705006715672e-17  2.596202393190002e-01
 6.635698158562554e-01  2.596202393190002e-01 -1.695658351285295e-17

-1.574658726499638e-17 -4.832424392871893e-20  6.635698472315378e-01
-4.832424392871893e-20 -1.113705023662068e-17  2.596236647084020e-01
 6.635698472315378e-01  2.596236647084020e-01 -1.695658432481229e-17

-1.574658815831830e-17 -4.826382789225579e-20  6.635698784035684e-01
-4.826382789225579e-20 -1.113705057404630e-17  2.596270953977857e-01
 6.635698784035684e-01  2.596270953977857e-01 -1.695658512609346e-17

-1.574658891819570e-17 -4.820336244666999e-20  6.635699093719932e-01
-4.820336244666999e-20 -1.113705119139605e-17  2.596305301972483e-01
 6.635699093719932e-01  2.596305301972483e-01 -1.695658591721973e-17

-1.574658955732619e-17 -4.814283425724396e-20  6.635699401364497e-01
-4.814283425724396e-20 -1.113705188506232e-17  2.596339691621330e-01
 6.635699401364497e-01  2.596339691621330e-01 -1.695658669867055e-17

-1.574659008730587e-17 -4.808222553206965e-20  6.635699706965765e-01
-4.808222553206965e-20 -1.113705263632777e-17  2.596374135925850e-01
 6.635699706965765e-01  2.596374135925850e-01 -1.695658747088298e-17

-1.574659051868475e-17 -4.802154243874887e-20  6.635700010520005e-01
-4.802154243874887e-20 -1.113705304896729e-17  2.596408618855437e-01
 6.635700010520005e-01  2.596408618855437e-01 -1.695658823425361e-17

-1.574659086103391e-17 -4.796077377739068e-20  6.635700312023493e-01
-4.796077377739068e-20 -1.113705431007203e-17  2.596443157565850e-01
 6.635700312023493e-01  2.596443157565850e-01 -1.695658898914131e-17

-1.574659112301862e-17 -4.789991583834780e-20  6.635700611472400e-01
-4.789991583834780e-20 -1.113705510149781e-17  2.596477736030150e-01
 6.635700611472400e-01  2.596477736030150e-01 -1.695658973586997e-17

-1.574659131247240e-17 -4.783896152321466e-20  6.635700908862925e-01
-4.783896152321466e-20 -1.113705600429913e-17  2.596512371411874e-01
 6.635700908862925e-01  2.596512371411874e-01 -1.695659047473146e-17

-1.574659143647030e-17 -4.777791902110670e-20  6.635701204191123e-01
-4.777791902110670e-20 -1.113705732480336e-17  2.596547047686560e-01
 6.635701204191123e-01  2.596547047686560e-01 -1.695659120598815e-17

-1.574659150139837e-17 -4.771676389373417e-20  6.635701497453094e-01
-4.771676389373417e-20 -1.113705806919660e-17  2.596581782023188e-01
 6.635701497453094e-01  2.596581782023188e-01 -1.695659192987603e-17

-1.574659151301939e-17 -4.765551732085288e-20  6.635701788644818e-01
-4.765551732085288e-20 -1.113705929256917e-17  2.596616562550926e-01
 6.635701788644818e-01  2.596616562550926e-01 -1.695659264660687e-17

-1.574659147653367e-17 -4.759417523542747e-20  6.635702077762262e-01
-4.759417523542747e-20 -1.113706074046097e-17  2.596651389845656e-01
 6.635702077762262e-01  2.596651389845656e-01 -1.695659335637064e-17

-1.574659139663486e-17 -4.753271681528578e-20  6.635702364801332e-01
-4.753271681528578e-20 -1.113706193319586e-17  2.596686276930705e-01
 6.635702364801332e-01  2.596686276930705e-01 -1.695659405933787e-17

-1.574659127756078e-17 -4.747116211545941e-20  6.635702649757885e-01
-4.747116211545941e-20 -1.113706327979246e-17  2.596721207792118e-01
 6.635702649757885e-01  2.596721207792118e-01 -1.695659475566120e-17

-1.574659112314000e-17 -4.740948660913828e-20  6.635702932627743e-01
-4.740948660913828e-20 -1.113706423061986e-17  2.596756199605249e-01
 6.635702932627743e-01  2.596756199605249e-01 -1.695659544547763e-17

-1.574659093683327e-17 -4.734772121095753e-20  6.635703213406642e-01
-4.734772121095753e-20 -1.113706600651658e-17  2.596791236356550e-01
 6.635703213406642e-01  2.596791236356550e-01 -1.695659612890978e-17

-1.574659072177131e-17 -4.728582927839260e-20  6.635703492090328e-01
-4.728582927839260e-20 -1.113706705935160e-17  2.596826335223896e-01
 6.635703492090328e-01  2.596826335223896e-01 -1.695659680606750e-17

-1.574659048078847e-17 -4.722384008858061e-20  6.635703768674442e-01
-4.722384008858061e-20 -1.113706838300043e-17  2.596861480199305e-01
 6.635703768674442e-01  2.596861480199305e-01 -1.695659747704905e-17

-1.574659021645313e-17 -4.716173035080381e-20  6.635704043154603e-01
-4.716173035080381e-20 -1.113706962807628e-17  2.596896688460404e-01
 6.635704043154603e-01  2.596896688460404e-01 -1.695659814194244e-17

-1.574658993109457e-17 -4.709952161655022e-20  6.635704315526395e-01
-4.709952161655022e-20 -1.113707122338593e-17  2.596931944002033e-01
 6.635704315526395e-01  2.596931944002033e-01 -1.695659880082630e-17

-1.574658962682773e-17 -4.703718925483366e-20  6.635704585785296e-01
-4.703718925483366e-20 -1.113707271397334e-17  2.596967264004455e-01
 6.635704585785296e-01  2.596967264004455e-01 -1.695659945377089e-17

-1.574658930557427e-17 -4.697474927074032e-20  6.635704853926822e-01
-4.697474927074032e-20 -1.113707425386769e-17  2.597002636611213e-01
 6.635704853926822e-01  2.597002636611213e-01 -1.695660010083897e-17

-1.574658896908259e-17 -4.691219641794282e-20  6.635705119946356e-01
-4.691219641794282e-20 -1.113707540118660e-17  2.597038062413577e-01
 6.635705119946356e-01  2.597038062413577e-01 -1.695660074208643e-17

-1.574658861894477e-17 -4.684952127800551e-20  6.635705383839285e-01
-4.684952127800551e-20 -1.113707680936758e-17  2.597073554444276e-01
 6.635705383839285e-01  2.597073554444276e-01 -1.695660137756316e-17

-1.574658825661198e-17 -4.678674019308153e-20  6.635705645600931e-01
-4.678674019308153e-20 -1.113707808104539e-17  2.597109096704220e-01
 6.635705645600931e-01  2.597109096704220e-01 -1.695660200731332e-17

-1.574658788340893e-17 -4.672383678868007e-20  6.635705905226559e-01
-4.672383678868007e-20 -1.113707974821353e-17  2.597144706377870e-01
 6.635705905226559e-01  2.597144706377870e-01 -1.695660263137628e-17

-1.574658750054548e-17 -4.666082418685648e-20  6.635706162711400e-01
-4.666082418685648e-20 -1.113708113754798e-17  2.597180367463250e-01
 6.635706162711400e-01  2.597180367463250e-01 -1.695660324978670e-17

-1.574658710912841e-17 -4.659768551245286e-20  6.635706418050634e-01
-4.659768551245286e-20 -1.113708254030344e-17  2.597216097149826e-01
 6.635706418050634e-01  2.597216097149826e-01 -1.695660386257539e-17

-1.574658671017096e-17 -4.653443462806700e-20  6.635706671239375e-01
-4.653443462806700e-20 -1.113708375381943e-17  2.597251879437107e-01
 6.635706671239375e-01  2.597251879437107e-01 -1.695660446976913e-17

-1.574658630460186e-17 -4.647106379981412e-20  6.635706922272715e-01
-4.647106379981412e-20 -1.113708559591382e-17  2.597287731515796e-01
 6.635706922272715e-01  2.597287731515796e-01 -1.695660507139162e-17

-1.574658589327329e-17 -4.640756941786562e-20  6.635707171145671e-01
-4.640756941786562e-20 -1.113708677534067e-17  2.597323641533757e-01
 6.635707171145671e-01  2.597323641533757e-01 -1.695660566746330e-17

-1.574658547696817e-17 -4.634396384308175e-20  6.635707417853244e-01
-4.634396384308175e-20 -1.113708821899024e-17  2.597359610087695e-01
 6.635707417853244e-01  2.597359610087695e-01 -1.695660625800186e-17

-1.574658505640639e-17 -4.628022561582743e-20  6.635707662390345e-01
-4.628022561582743e-20 -1.113708961236593e-17  2.597395650221255e-01
 6.635707662390345e-01  2.597395650221255e-01 -1.695660684302262e-17

-1.574658463225064e-17 -4.621637642340341e-20  6.635707904751885e-01
-4.621637642340341e-20 -1.113709109945392e-17  2.597431745937288e-01
 6.635707904751885e-01  2.597431745937288e-01 -1.695660742253830e-17

-1.574658420511177e-17 -4.615239066389997e-20  6.635708144932664e-01
-4.615239066389997e-20 -1.113709205733857e-17  2.597467914427198e-01
 6.635708144932664e-01  2.597467914427198e-01 -1.695660799655976e-17

-1.574658377555335e-17 -4.608829891888634e-20  6.635708382927489e-01
-4.608829891888634e-20 -1.113709378183926e-17  2.597504139696169e-01
 6.635708382927489e-01  2.597504139696169e-01 -1.695660856509570e-17

-1.574658334409587e-17 -4.602407077175238e-20  6.635708618731097e-01
-4.602407077175238e-20 -1.113709527210535e-17  2.597540438936872e-01
 6.635708618731097e-01  2.597540438936872e-01 -1.695660912815329e-17

-1.574658291122062e-17 -4.595972680266421e-20  6.635708852338176e-01
-4.595972680266421e-20 -1.113709675384700e-17  2.597576796155047e-01
 6.635708852338176e-01  2.597576796155047e-01 -1.695660968573777e-17

-1.574658247737296e-17 -4.589524593497272e-20  6.635709083743363e-01
-4.589524593497272e-20 -1.113709817130172e-17  2.597613228544614e-01
 6.635709083743363e-01  2.597613228544614e-01 -1.695661023785320e-17

-1.574658204296592e-17 -4.583064440032151e-20  6.635709312941266e-01
-4.583064440032151e-20 -1.113709902959114e-17  2.597649720108806e-01
 6.635709312941266e-01  2.597649720108806e-01 -1.695661078450202e-17

-1.574658160838219e-17 -4.576590817512930e-20  6.635709539926410e-01
-4.576590817512930e-20 -1.113710049326111e-17  2.597686288047211e-01
 6.635709539926410e-01  2.597686288047211e-01 -1.695661132568555e-17

-1.574658117397751e-17 -4.570104951812093e-20  6.635709764693298e-01
-4.570104951812093e-20 -1.113710180557990e-17  2.597722920511748e-01
 6.635709764693298e-01  2.597722920511748e-01 -1.695661186140382e-17

-1.574658074008235e-17 -4.563606543494496e-20  6.635709987236373e-01
-4.563606543494496e-20 -1.113710304898772e-17  2.597759618104370e-01
 6.635709987236373e-01  2.597759618104370e-01 -1.695661239165588e-17

-1.574658030700432e-17 -4.557094571278156e-20  6.635710207550050e-01
-4.557094571278156e-20 -1.113710453756979e-17  2.597796393874786e-01
 6.635710207550050e-01  2.597796393874786e-01 -1.695661291643976e-17

-1.574657987503005e-17 -4.550569897057087e-20  6.635710425628657e-01
-4.550569897057087e-20 -1.113710570734453e-17  2.597833231827621e-01
 6.635710425628657e-01  2.597833231827621e-01 -1.695661343575252e-17

-1.574657944442682e-17 -4.544031711859649e-20  6.635710641466505e-01
-4.544031711859649e-20 -1.113710732149401e-17  2.597870149161015e-01
 6.635710641466505e-01  2.597870149161015e-01 -1.695661394959036e-17

-1.574657901544418e-17 -4.537480871727568e-20  6.635710855057849e-01
-4.537480871727568e-20 -1.113710864132119e-17  2.597907129882007e-01
 6.635710855057849e-01  2.597907129882007e-01 -1.695661445794871e-17

-1.574657858831516e-17 -4.530915698607099e-20  6.635711066396894e-01
-4.530915698607099e-20 -1.113710993187863e-17  2.597944191189064e-01
 6.635711066396894e-01  2.597944191189064e-01 -1.695661496082224e-17

-1.574657816325822e-17 -4.524337160215559e-20  6.635711275477789e-01
-4.524337160215559e-20 -1.113711068554731e-17  2.597981317089760e-01
 6.635711275477789e-01  2.597981317089760e-01 -1.695661545820494e-17

-1.574657774047754e-17 -4.517745180023951e-20  6.635711482294645e-01
-4.517745180023951e-20 -1.113711215749212e-17  2.598018524782548e-01
 6.635711482294645e-01  2.598018524782548e-01 -1.695661595009010e-17

-1.574657732016483e-17 -4.511139345971870e-20  6.635711686841536e-01
-4.511139345971870e-20 -1.113711311697446e-17  2.598055802424467e-01
 6.635711686841536e-01  2.598055802424467e-01 -1.695661643647047e-17

-1.574657690249994e-17 -4.504520763566540e-20  6.635711889112443e-01
-4.504520763566540e-20 -1.113711465021163e-17  2.598093150618427e-01
 6.635711889112443e-01  2.598093150618427e-01 -1.695661691733810e-17

-1.574657648765187e-17 -4.497887490468692e-20  6.635712089101357e-01
-4.497887490468692e-20 -1.113711618277733e-17  2.598130582416681e-01
 6.635712089101357e-01  2.598130582416681e-01 -1.695661739268475e-17

-1.574657607577963e-17 -4.491240943132351e-20  6.635712286802179e-01
-4.491240943132351e-20 -1.113711738924747e-17  2.598168081826196e-01
 6.635712286802179e-01  2.598168081826196e-01 -1.695661786250137e-17

-1.574657566703296e-17 -4.484579272369075e-20  6.635712482208765e-01
-4.484579272369075e-20 -1.113711840426559e-17  2.598205666046384e-01
 6.635712482208765e-01  2.598205666046384e-01 -1.695661832677866e-17

-1.574657526155306e-17 -4.477904553914463e-20  6.635712675314954e-01
-4.477904553914463e-20 -1.113711969894287e-17  2.598243319087047e-01
 6.635712675314954e-01  2.598243319087047e-01 -1.695661878550680e-17

-1.574657485947296e-17 -4.471214656708345e-20  6.635712866114507e-01
-4.471214656708345e-20 -1.113712086578748e-17  2.598281058146529e-01
 6.635712866114507e-01  2.598281058146529e-01 -1.695661923867549e-17

-1.574657446091880e-17 -4.464510555296812e-20  6.635713054601131e-01
-4.464510555296812e-20 -1.113712152074404e-17  2.598318867236245e-01
 6.635713054601131e-01  2.598318867236245e-01 -1.695661968627410e-17

-1.574657406600942e-17 -4.457791788873088e-20  6.635713240768516e-01
-4.457791788873088e-20 -1.113712275316339e-17  2.598356763552117e-01
 6.635713240768516e-01  2.598356763552117e-01 -1.695662012829163e-17

-1.574657367485774e-17 -4.451059827294297e-20  6.635713424610283e-01
-4.451059827294297e-20 -1.113712416221638e-17  2.598394731107488e-01
 6.635713424610283e-01  2.598394731107488e-01 -1.695662056471664e-17

-1.574657328757048e-17 -4.444312099090292e-20  6.635713606119986e-01
-4.444312099090292e-20 -1.113712545369684e-17  2.598432787099633e-01
 6.635713606119986e-01  2.598432787099633e-01 -1.695662099553739e-17

-1.574657290424921e-17 -4.437549665956825e-20  6.635713785291179e-01
-4.437549665956825e-20 -1.113712635395487e-17  2.598470919689330e-01
 6.635713785291179e-01  2.598470919689330e-01 -1.695662142074183e-17

-1.574657252499029e-17 -4.430773049407256e-20  6.635713962117329e-01
-4.430773049407256e-20 -1.113712742232684e-17  2.598509129478204e-01
 6.635713962117329e-01  2.598509129478204e-01 -1.695662184031759e-17

-1.574657214988528e-17 -4.423980742165494e-20  6.635714136591859e-01
-4.423980742165494e-20 -1.113712861423226e-17  2.598547429519453e-01
 6.635714136591859e-01  2.598547429519453e-01 -1.695662225425196e-17

-1.574657177902167e-17 -4.417174164867514e-20  6.635714308708163e-01
-4.417174164867514e-20 -1.113712966238022e-17  2.598585803822444e-01
 6.635714308708163e-01  2.598585803822444e-01 -1.695662266253196e-17

-1.574657141248257e-17 -4.410351448648816e-20  6.635714478459569e-01
-4.410351448648816e-20 -1.113713060109723e-17  2.598624269584880e-01
 6.635714478459569e-01  2.598624269584880e-01 -1.695662306514437e-17

-1.574657105034749e-17 -4.403514159972285e-20  6.635714645839358e-01
-4.403514159972285e-20 -1.113713142388035e-17  2.598662810819826e-01
 6.635714645839358e-01  2.598662810819826e-01 -1.695662346207569e-17

-1.574657069269224e-17 -4.396661314868240e-20  6.635714810840768e-01
-4.396661314868240e-20 -1.113713266131462e-17  2.598701444725310e-01
 6.635714810840768e-01  2.598701444725310e-01 -1.695662385331210e-17

-1.574657033958964e-17 -4.389793367677865e-20  6.635714973456992e-01
-4.389793367677865e-20 -1.113713356842652e-17  2.598740155308623e-01
 6.635714973456992e-01  2.598740155308623e-01 -1.695662423883964e-17

-1.574656999123617e-17 -4.382909083765773e-20  6.635715133681234e-01
-4.382909083765773e-20 -1.113713444162908e-17  2.598778959774331e-01
 6.635715133681234e-01  2.598778959774331e-01 -1.695662461864907e-17

-1.574656964743847e-17 -4.376010274977558e-20  6.635715291506447e-01
-4.376010274977558e-20 -1.113713590507881e-17  2.598817846276283e-01
 6.635715291506447e-01  2.598817846276283e-01 -1.695662499271565e-17

-1.574656930839389e-17 -4.369095231805301e-20  6.635715446925763e-01
-4.369095231805301e-20 -1.113713659792931e-17  2.598856815420380e-01
 6.635715446925763e-01  2.598856815420380e-01 -1.695662536102987e-17

-1.574656897416384e-17 -4.362164365705546e-20  6.635715599932126e-01
-4.362164365705546e-20 -1.113713798019233e-17  2.598895880256748e-01
 6.635715599932126e-01  2.598895880256748e-01 -1.695662572357689e-17

-1.574656864480776e-17 -4.355217319969365e-20  6.635715750518548e-01
-4.355217319969365e-20 -1.113713847582227e-17  2.598935024794571e-01
 6.635715750518548e-01  2.598935024794571e-01 -1.695662608034156e-17

-1.574656832038245e-17 -4.348253801969705e-20  6.635715898677859e-01
-4.348253801969705e-20 -1.113713939544953e-17  2.598974266233433e-01
 6.635715898677859e-01  2.598974266233433e-01 -1.695662643130853e-17

-1.574656800094291e-17 -4.341275194418501e-20  6.635716044402966e-01
-4.341275194418501e-20 -1.113714020385587e-17  2.599013588582730e-01
 6.635716044402966e-01  2.599013588582730e-01 -1.695662677646229e-17

-1.574656768654223e-17 -4.334279727919517e-20  6.635716187686627e-01
-4.334279727919517e-20 -1.113714157026064e-17  2.599053009038911e-01
 6.635716187686627e-01  2.599053009038911e-01 -1.695662711578714e-17

-1.574656737723175e-17 -4.327267943006529e-20  6.635716328521611e-01
-4.327267943006529e-20 -1.113714207123912e-17  2.599092511612546e-01
 6.635716328521611e-01  2.599092511612546e-01 -1.695662744926712e-17

-1.574656707306104e-17 -4.320238966267186e-20  6.635716466900623e-01
-4.320238966267186e-20 -1.113714270078039e-17  2.599132113500820e-01
 6.635716466900623e-01  2.599132113500820e-01 -1.695662777688618e-17

-1.574656677407826e-17 -4.313194698784339e-20  6.635716602816316e-01
-4.313194698784339e-20 -1.113714370458701e-17  2.599171798713066e-01
 6.635716602816316e-01  2.599171798713066e-01 -1.695662809862804e-17

-1.574656648032983e-17 -4.306132780565567e-20  6.635716736261297e-01
-4.306132780565567e-20 -1.113714462183870e-17  2.599211584446082e-01
 6.635716736261297e-01  2.599211584446082e-01 -1.695662841447624e-17

-1.574656619186124e-17 -4.299054362781064e-20  6.635716867228114e-01
-4.299054362781064e-20 -1.113714536118541e-17  2.599251458857544e-01
 6.635716867228114e-01  2.599251458857544e-01 -1.695662872441420e-17

-1.574656590871636e-17 -4.291959741429171e-20  6.635716995709293e-01
-4.291959741429171e-20 -1.113714624164671e-17  2.599291422549754e-01
 6.635716995709293e-01  2.599291422549754e-01 -1.695662902842503e-17

-1.574656563093792e-17 -4.284846798666188e-20  6.635717121697278e-01
-4.284846798666188e-20 -1.113714680347472e-17  2.599331488569475e-01
 6.635717121697278e-01  2.599331488569475e-01 -1.695662932649196e-17

-1.574656535856761e-17 -4.277718231684362e-20  6.635717245184489e-01
-4.277718231684362e-20 -1.113714777617326e-17  2.599371640927342e-01
 6.635717245184489e-01  2.599371640927342e-01 -1.695662961859766e-17

-1.574656509164604e-17 -4.270571269863230e-20  6.635717366163283e-01
-4.270571269863230e-20 -1.113714854315890e-17  2.599411896815667e-01
 6.635717366163283e-01  2.599411896815667e-01 -1.695662990472501e-17

-1.574656483021296e-17 -4.263407677136596e-20  6.635717484625993e-01
-4.263407677136596e-20 -1.113714911723783e-17  2.599452240245781e-01
 6.635717484625993e-01  2.599452240245781e-01 -1.695663018485652e-17

-1.574656457430675e-17 -4.256226020214161e-20  6.635717600564853e-01
-4.256226020214161e-20 -1.113714994165898e-17  2.599492688409821e-01
 6.635717600564853e-01  2.599492688409821e-01 -1.695663045897457e-17

-1.574656432396564e-17 -4.249027925632683e-20  6.635717713972110e-01
-4.249027925632683e-20 -1.113715082638096e-17  2.599533225316738e-01
 6.635717713972110e-01  2.599533225316738e-01 -1.695663072706146e-17

-1.574656407922639e-17 -4.241810903089056e-20  6.635717824839913e-01
-4.241810903089056e-20 -1.113715130972345e-17  2.599573868159828e-01
 6.635717824839913e-01  2.599573868159828e-01 -1.695663098909929e-17

-1.574656384012537e-17 -4.234576900059954e-20  6.635717933160398e-01
-4.234576900059954e-20 -1.113715203764121e-17  2.599614605094640e-01
 6.635717933160398e-01  2.599614605094640e-01 -1.695663124507001e-17

-1.574656360669821e-17 -4.227325290551691e-20  6.635718038925622e-01
-4.227325290551691e-20 -1.113715259354991e-17  2.599655436721611e-01
 6.635718038925622e-01  2.599655436721611e-01 -1.695663149495540e-17

-1.574656337897956e-17 -4.220055640427348e-20  6.635718142127605e-01
-4.220055640427348e-20 -1.113715378375263e-17  2.599696376084781e-01
 6.635718142127605e-01  2.599696376084781e-01 -1.695663173873717e-17

-1.574656315700398e-17 -4.212767874166617e-20  6.635718242758336e-01
-4.212767874166617e-20 -1.113715420383865e-17  2.599737407189486e-01
 6.635718242758336e-01  2.599737407189486e-01 -1.695663197639681e-17

-1.574656294080498e-17 -4.205461448326596e-20  6.635718340809716e-01
-4.205461448326596e-20 -1.113715487742135e-17  2.599778547231239e-01
 6.635718340809716e-01  2.599778547231239e-01 -1.695663220791569e-17

-1.574656273041582e-17 -4.198137379990220e-20  6.635718436273643e-01
-4.198137379990220e-20 -1.113715526847774e-17  2.599819780211599e-01
 6.635718436273643e-01  2.599819780211599e-01 -1.695663243327505e-17

-1.574656252586901e-17 -4.190794235251854e-20  6.635718529141935e-01
-4.190794235251854e-20 -1.113715578183138e-17  2.599861123324514e-01
 6.635718529141935e-01  2.599861123324514e-01 -1.695663265245603e-17

-1.574656232719683e-17 -4.183433426030711e-20  6.635718619406362e-01
-4.183433426030711e-20 -1.113715622588919e-17  2.599902560573557e-01
 6.635718619406362e-01  2.599902560573557e-01 -1.695663286543948e-17

-1.574656213443082e-17 -4.176053483568690e-20  6.635718707058660e-01
-4.176053483568690e-20 -1.113715701571247e-17  2.599944109149224e-01
 6.635718707058660e-01  2.599944109149224e-01 -1.695663307220633e-17

-1.574656194760245e-17 -4.168655865511033e-20  6.635718792090506e-01
-4.168655865511033e-20 -1.113715766644672e-17  2.599985753055377e-01
 6.635718792090506e-01  2.599985753055377e-01 -1.695663327273715e-17

-1.574656176674248e-17 -4.161237828046326e-20  6.635718874493527e-01
-4.161237828046326e-20 -1.113715791060797e-17  2.600027509482568e-01
 6.635718874493527e-01  2.600027509482568e-01 -1.695663346701256e-17

-1.574656159188154e-17 -4.153802089508191e-20  6.635718954259315e-01
-4.153802089508191e-20 -1.113715865366055e-17  2.600069366582022e-01
 6.635718954259315e-01  2.600069366582022e-01 -1.695663365501299e-17

-1.574656142304975e-17 -4.146347489206015e-20  6.635719031379400e-01
-4.146347489206015e-20 -1.113715898148753e-17  2.600111324949244e-01
 6.635719031379400e-01  2.600111324949244e-01 -1.695663383671859e-17

-1.574656126027695e-17 -4.138872778571566e-20  6.635719105845244e-01
-4.138872778571566e-20 -1.113715940992815e-17  2.600153397622894e-01
 6.635719105845244e-01  2.600153397622894e-01 -1.695663401210963e-17

-1.574656110359291e-17 -4.131379925340412e-20  6.635719177648306e-01
-4.131379925340412e-20 -1.113715982512055e-17  2.600195568606704e-01
 6.635719177648306e-01  2.600195568606704e-01 -1.695663418116605e-17

-1.574656095302669e-17 -4.123867162537723e-20  6.635719246779946e-01
-4.123867162537723e-20 -1.113716051520678e-17  2.600237855088861e-01
 6.635719246779946e-01  2.600237855088861e-01 -1.695663434386774e-17

-1.574656080860748e-17 -4.116335680346450e-20  6.635719313231517e-01
-4.116335680346450e-20 -1.113716093261877e-17  2.600280241066648e-01
 6.635719313231517e-01  2.600280241066648e-01 -1.695663450019443e-17

-1.574656067036407e-17 -4.108783466653920e-20  6.635719376994303e-01
-4.108783466653920e-20 -1.113716106093082e-17  2.600322743729149e-01
 6.635719376994303e-01  2.600322743729149e-01 -1.695663465012577e-17

-1.574656053832500e-17 -4.101212549160112e-20  6.635719438059536e-01
-4.101212549160112e-20 -1.113716130260552e-17  2.600365347075888e-01
 6.635719438059536e-01  2.600365347075888e-01 -1.695663479364121e-17

-1.574656041251869e-17 -4.093621795314236e-20  6.635719496418397e-01
-4.093621795314236e-20 -1.113716207858248e-17  2.600408068293107e-01
 6.635719496418397e-01  2.600408068293107e-01 -1.695663493072008e-17

-1.574656029297336e-17 -4.086010822610140e-20  6.635719552062028e-01
-4.086010822610140e-20 -1.113716206784074e-17  2.600450895525206e-01
 6.635719552062028e-01  2.600450895525206e-01 -1.695663506134170e-17

-1.574656017971703e-17 -4.078380827980893e-20  6.635719604981528e-01
-4.078380827980893e-20 -1.113716251157914e-17  2.600493829365469e-01
 6.635719604981528e-01  2.600493829365469e-01 -1.695663518548505e-17

-1.574656007277746e-17 -4.070729640988370e-20  6.635719655167904e-01
-4.070729640988370e-20 -1.113716277568522e-17  2.600536882849658e-01
 6.635719655167904e-01  2.600536882849658e-01 -1.695663530312916e-17

-1.574655997218254e-17 -4.063059477015661e-20  6.635719702612175e-01
-4.063059477015661e-20 -1.113716313082365e-17  2.600580039973440e-01
 6.635719702612175e-01  2.600580039973440e-01 -1.695663541425283e-17

-1.574655987795968e-17 -4.055368253843893e-20  6.635719747305254e-01
-4.055368253843893e-20 -1.113716359574890e-17  2.600623317921186e-01
 6.635719747305254e-01  2.600623317921186e-01 -1.695663551883480e-17

-1.574655979013650e-17 -4.047657527028969e-20  6.635719789238049e-01
-4.047657527028969e-20 -1.113716391282744e-17  2.600666700686983e-01
 6.635719789238049e-01  2.600666700686983e-01 -1.695663561685364e-17

-1.574655970874025e-17 -4.039924685258868e-20  6.635719828401390e-01
-4.039924685258868e-20 -1.113716366292160e-17  2.600710205454739e-01
 6.635719828401390e-01  2.600710205454739e-01 -1.695663570828783e-17

-1.574655963379821e-17 -4.032173198842217e-20  6.635719864786054e-01
-4.032173198842217e-20 -1.113716425158694e-17  2.600753816217322e-01
 6.635719864786054e-01  2.600753816217322e-01 -1.695663579311563e-17

-1.574655956533749e-17 -4.024399851545527e-20  6.635719898382798e-01
-4.024399851545527e-20 -1.113716460091784e-17  2.600797550157603e-01
 6.635719898382798e-01  2.600797550157603e-01 -1.695663587131533e-17

-1.574655950338525e-17 -4.016606040234916e-20  6.635719929182298e-01
-4.016606040234916e-20 -1.113716429776452e-17  2.600841391264842e-01
 6.635719929182298e-01  2.600841391264842e-01 -1.695663594286492e-17

-1.574655944796840e-17 -4.008791366841022e-20  6.635719957175197e-01
-4.008791366841022e-20 -1.113716477718839e-17  2.600885356723781e-01
 6.635719957175197e-01  2.600885356723781e-01 -1.695663600774238e-17

-1.574655939911398e-17 -4.000955876318306e-20  6.635719982352085e-01
-4.000955876318306e-20 -1.113716510843723e-17  2.600929434669814e-01
 6.635719982352085e-01  2.600929434669814e-01 -1.695663606592560e-17

-1.574655935684886e-17 -3.993099149710603e-20  6.635720004703501e-01
-3.993099149710603e-20 -1.113716476758262e-17  2.600973625690270e-01
 6.635720004703501e-01  2.600973625690270e-01 -1.695663611739215e-17

-1.574655932119980e-17 -3.985221130086703e-20  6.635720024219915e-01
-3.985221130086703e-20 -1.113716512020933e-17  2.601017942815539e-01
 6.635720024219915e-01  2.601017942815539e-01 -1.695663616211968e-17

-1.574655929219371e-17 -3.977322486950670e-20  6.635720040891787e-01
-3.977322486950670e-20 -1.113716519896956e-17  2.601062370032750e-01
 6.635720040891787e-01  2.601062370032750e-01 -1.695663620008562e-17

-1.574655926985723e-17 -3.969401476486514e-20  6.635720054709475e-01
-3.969401476486514e-20 -1.113716521603571e-17  2.601106924521229e-01
 6.635720054709475e-01  2.601106924521229e-01 -1.695663623126727e-17

-1.574655925421732e-17 -3.961460141584583e-20  6.635720065663343e-01
-3.961460141584583e-20 -1.113716546126031e-17  2.601151590267745e-01
 6.635720065663343e-01  2.601151590267745e-01 -1.695663625564186e-17

-1.574655924530041e-17 -3.953496235105861e-20  6.635720073743656e-01
-3.953496235105861e-20 -1.113716567838874e-17  2.601196384447776e-01
 6.635720073743656e-01  2.601196384447776e-01 -1.695663627318639e-17

-1.574655924313351e-17 -3.945511177790120e-20  6.635720078940663e-01
-3.945511177790120e-20 -1.113716545322699e-17  2.601241291048706e-01
 6.635720078940663e-01  2.601241291048706e-01 -1.695663628387790e-17

-1.574655924774309e-17 -3.937503698788789e-20  6.635720081244532e-01
-3.937503698788789e-20 -1.113716539870462e-17  2.601286327246214e-01
 6.635720081244532e-01  2.601286327246214e-01 -1.695663628769311e-17

-1.574655925915601e-17 -3.929474860675912e-20  6.635720080645408e-01
-3.929474860675912e-20 -1.113716556331913e-17  2.601331481170081e-01
 6.635720080645408e-01  2.601331481170081e-01 -1.695663628460877e-17

-1.574655927739889e-17 -3.921424485604976e-20  6.635720077133364e-01
-3.921424485604976e-20 -1.113716561728175e-17  2.601376753402951e-01
 6.635720077133364e-01  2.601376753402951e-01 -1.695663627460135e-17

-1.574655930249844e-17 -3.913350936025708e-20  6.635720070698429e-01
-3.913350936025708e-20 -1.113716556317435e-17  2.601422156967075e-01
 6.635720070698429e-01  2.601422156967075e-01 -1.695663625764746e-17

-1.574655933448153e-17 -3.905255898191493e-20  6.635720061330596e-01
-3.905255898191493e-20 -1.113716524953322e-17  2.601467675845555e-01
 6.635720061330596e-01  2.601467675845555e-01 -1.695663623372325e-17

-1.574655937337472e-17 -3.897137875085532e-20  6.635720049019758e-01
-3.897137875085532e-20 -1.113716517947052e-17  2.601513327209095e-01
 6.635720049019758e-01  2.601513327209095e-01 -1.695663620280500e-17

-1.574655941920483e-17 -3.888998264686762e-20  6.635720033755834e-01
-3.888998264686762e-20 -1.113716503537282e-17  2.601559095038116e-01
 6.635720033755834e-01  2.601559095038116e-01 -1.695663616486871e-17

-1.574655947199875e-17 -3.880835497881524e-20  6.635720015528614e-01
-3.880835497881524e-20 -1.113716509865353e-17  2.601604996504987e-01
 6.635720015528614e-01  2.601604996504987e-01 -1.695663611989036e-17

-1.574655953178327e-17 -3.872650747249541e-20  6.635719994327892e-01
-3.872650747249541e-20 -1.113716487263478e-17  2.601651015587353e-01
 6.635719994327892e-01  2.601651015587353e-01 -1.695663606784573e-17

-1.574655959858522e-17 -3.864442568127534e-20  6.635719970143384e-01
-3.864442568127534e-20 -1.113716479266021e-17  2.601697169454963e-01
 6.635719970143384e-01  2.601697169454963e-01 -1.695663600871055e-17

-1.574655967243151e-17 -3.856212614910631e-20  6.635719942964757e-01
-3.856212614910631e-20 -1.113716484762009e-17  2.601743442082839e-01
 6.635719942964757e-01  2.601743442082839e-01 -1.695663594246031e-17

-1.574655975334908e-17 -3.847958517130603e-20  6.635719912781624e-01
-3.847958517130603e-20 -1.113716457919035e-17  2.601789850641141e-01
 6.635719912781624e-01  2.601789850641141e-01 -1.695663586907048e-17

-1.574655984136500e-17 -3.839681890749075e-20  6.635719879583559e-01
-3.839681890749075e-20 -1.113716436883977e-17  2.601836383252806e-01
 6.635719879583559e-01  2.601836383252806e-01 -1.695663578851638e-17

-1.574655993650618e-17 -3.831382105805691e-20  6.635719843360077e-01
-3.831382105805691e-20 -1.113716368545696e-17  2.601883040489989e-01
 6.635719843360077e-01  2.601883040489989e-01 -1.695663570077312e-17

-1.574656003879986e-17 -3.823059118204968e-20  6.635719804100624e-01
-3.823059118204968e-20 -1.113716378175364e-17  2.601929835367397e-01
 6.635719804100624e-01  2.601929835367397e-01 -1.695663560581585e-17

-1.574656014827309e-17 -3.814713378973360e-20  6.635719761794625e-01
-3.814713378973360e-20 -1.113716359489075e-17  2.601976751858809e-01
 6.635719761794625e-01  2.601976751858809e-01 -1.695663550361939e-17

-1.574656026495305e-17 -3.806343304685426e-20  6.635719716431422e-01
-3.806343304685426e-20 -1.113716337245687e-17  2.602023807128128e-01
 6.635719716431422e-01  2.602023807128128e-01 -1.695663539415861e-17

-1.574656038886717e-17 -3.797950121858536e-20  6.635719668000339e-01
-3.797950121858536e-20 -1.113716272114998e-17  2.602070985148021e-01
 6.635719668000339e-01  2.602070985148021e-01 -1.695663527740817e-17

-1.574656052004259e-17 -3.789532984763092e-20  6.635719616490598e-01
-3.789532984763092e-20 -1.113716262617743e-17  2.602118303076597e-01
 6.635719616490598e-01  2.602118303076597e-01 -1.695663515334258e-17

-1.574656065850687e-17 -3.781092543472481e-20  6.635719561891422e-01
-3.781092543472481e-20 -1.113716192911517e-17  2.602165744888811e-01
 6.635719561891422e-01  2.602165744888811e-01 -1.695663502193628e-17

-1.574656080428735e-17 -3.772628166076718e-20  6.635719504191945e-01
-3.772628166076718e-20 -1.113716201841239e-17  2.602213327740792e-01
 6.635719504191945e-01  2.602213327740792e-01 -1.695663488316354e-17

-1.574656095741167e-17 -3.764139410733656e-20  6.635719443381259e-01
-3.764139410733656e-20 -1.113716129081630e-17  2.602261039752722e-01
 6.635719443381259e-01  2.602261039752722e-01 -1.695663473699854e-17

-1.574656111790739e-17 -3.755627660816245e-20  6.635719379448418e-01
-3.755627660816245e-20 -1.113716107235782e-17  2.602308881486536e-01
 6.635719379448418e-01  2.602308881486536e-01 -1.695663458341526e-17

-1.574656128580221e-17 -3.747090474282709e-20  6.635719312382371e-01
-3.747090474282709e-20 -1.113716047481395e-17  2.602356865951617e-01
 6.635719312382371e-01  2.602356865951617e-01 -1.695663442238771e-17

-1.574656146112388e-17 -3.738530363510251e-20  6.635719242172092e-01
-3.738530363510251e-20 -1.113716015233830e-17  2.602404977111869e-01
 6.635719242172092e-01  2.602404977111869e-01 -1.695663425388951e-17

-1.574656164390032e-17 -3.729944381405582e-20  6.635719168806431e-01
-3.729944381405582e-20 -1.113715942482882e-17  2.602453232125116e-01
 6.635719168806431e-01  2.602453232125116e-01 -1.695663407789446e-17

-1.574656183415940e-17 -3.721335727843968e-20  6.635719092274225e-01
-3.721335727843968e-20 -1.113715924055713e-17  2.602501614954493e-01
 6.635719092274225e-01  2.602501614954493e-01 -1.695663389437595e-17

-1.574656203192914e-17 -3.712700984845086e-20  6.635719012564234e-01
-3.712700984845086e-20 -1.113715856586606e-17  2.602550142756186e-01
 6.635719012564234e-01  2.602550142756186e-01 -1.695663370330745e-17

-1.574656223723765e-17 -3.704042990024767e-20  6.635718929665194e-01
-3.704042990024767e-20 -1.113715817899200e-17  2.602598799488898e-01
 6.635718929665194e-01  2.602598799488898e-01 -1.695663350466213e-17

-1.574656245011314e-17 -3.695359118357698e-20  6.635718843565744e-01
-3.695359118357698e-20 -1.113715778364620e-17  2.602647602307947e-01
 6.635718843565744e-01  2.602647602307947e-01 -1.695663329841321e-17

-1.574656267058396e-17 -3.686650912053799e-20  6.635718754254514e-01
-3.686650912053799e-20 -1.113715678982554e-17  2.602696535173887e-01
 6.635718754254514e-01  2.602696535173887e-01 -1.695663308453364e-17

-1.574656289867829e-17 -3.677917597827660e-20  6.635718661720038e-01
-3.677917597827660e-20 -1.113715657308705e-17  2.602745615234436e-01
 6.635718661720038e-01  2.602745615234436e-01 -1.695663286299626e-17

-1.574656313442477e-17 -3.669159113728095e-20  6.635718565950820e-01
-3.669159113728095e-20 -1.113715582543056e-17  2.602794830600533e-01
 6.635718565950820e-01  2.602794830600533e-01 -1.695663263377381e-17

-1.574656337785186e-17 -3.660376156445049e-20  6.635718466935322e-01
-3.660376156445049e-20 -1.113715497873444e-17  2.602844181824440e-01
 6.635718466935322e-01  2.602844181824440e-01 -1.695663239683890e-17

-1.574656362898830e-17 -3.651567076749045e-20  6.635718364661903e-01
-3.651567076749045e-20 -1.113715429474314e-17  2.602893681904451e-01
 6.635718364661903e-01  2.602893681904451e-01 -1.695663215216402e-17

-1.574656388786282e-17 -3.642734096659768e-20  6.635718259118923e-01
-3.642734096659768e-20 -1.113715411521594e-17  2.602943314797844e-01
 6.635718259118923e-01  2.602943314797844e-01 -1.695663189972150e-17

-1.574656415450422e-17 -3.633874292456390e-20  6.635718150294636e-01
-3.633874292456390e-20 -1.113715331802820e-17  2.602993097649723e-01
 6.635718150294636e-01  2.602993097649723e-01 -1.695663163948353e-17

-1.574656442894158e-17 -3.624989287447027e-20  6.635718038177296e-01
-3.624989287447027e-20 -1.113715215421844e-17  2.603043014413426e-01
 6.635718038177296e-01  2.603043014413426e-01 -1.695663137142218e-17

-1.574656471120382e-17 -3.616078411697404e-20  6.635717922755042e-01
-3.616078411697404e-20 -1.113715146453618e-17  2.603093082236044e-01
 6.635717922755042e-01  2.603093082236044e-01 -1.695663109550939e-17

-1.574656500132019e-17 -3.607143096126858e-20  6.635717804015996e-01
-3.607143096126858e-20 -1.113715113085709e-17  2.603143285066873e-01
 6.635717804015996e-01  2.603143285066873e-01 -1.695663081171696e-17

-1.574656529931996e-17 -3.598180230700765e-20  6.635717681948214e-01
-3.598180230700765e-20 -1.113715001046098e-17  2.603193640050215e-01
 6.635717681948214e-01  2.603193640050215e-01 -1.695663052001658e-17

-1.574656560523248e-17 -3.589192449934679e-20  6.635717556539698e-01
-3.589192449934679e-20 -1.113714939850270e-17  2.603244135284929e-01
 6.635717556539698e-01  2.603244135284929e-01 -1.695663022037980e-17

-1.574656591908723e-17 -3.580179170987653e-20  6.635717427778398e-01
-3.580179170987653e-20 -1.113714872617884e-17  2.603294771314804e-01
 6.635717427778398e-01  2.603294771314804e-01 -1.695662991277795e-17

-1.574656624091386e-17 -3.571138761902539e-20  6.635717295652173e-01
-3.571138761902539e-20 -1.113714788672085e-17  2.603345561131550e-01
 6.635717295652173e-01  2.603345561131550e-01 -1.695662959718239e-17

-1.574656657074203e-17 -3.562073005046921e-20  6.635717160148890e-01
-3.562073005046921e-20 -1.113714698935787e-17  2.603396488683477e-01
 6.635717160148890e-01  2.603396488683477e-01 -1.695662927356418e-17

-1.574656690860154e-17 -3.552980005641805e-20  6.635717021256280e-01
-3.552980005641805e-20 -1.113714623170498e-17  2.603447571106265e-01
 6.635717021256280e-01  2.603447571106265e-01 -1.695662894189433e-17

-1.574656725452238e-17 -3.543861320976037e-20  6.635716878962105e-01
-3.543861320976037e-20 -1.113714512088865e-17  2.603498792347589e-01
 6.635716878962105e-01  2.603498792347589e-01 -1.695662860214375e-17

-1.574656760853458e-17 -3.534714810723887e-20  6.635716733253976e-01
-3.534714810723887e-20 -1.113714374316183e-17  2.603550169541971e-01
 6.635716733253976e-01  2.603550169541971e-01 -1.695662825428308e-17

-1.574656797066831e-17 -3.525543754855114e-20  6.635716584119539e-01
-3.525543754855114e-20 -1.113714325946115e-17  2.603601686632332e-01
 6.635716584119539e-01  2.603601686632332e-01 -1.695662789828295e-17

-1.574656834095373e-17 -3.516344740552285e-20  6.635716431546296e-01
-3.516344740552285e-20 -1.113714238929016e-17  2.603653360755774e-01
 6.635716431546296e-01  2.603653360755774e-01 -1.695662753411382e-17

-1.574656871942141e-17 -3.507119700037858e-20  6.635716275521767e-01
-3.507119700037858e-20 -1.113714143273247e-17  2.603705175850626e-01
 6.635716275521767e-01  2.603705175850626e-01 -1.695662716174597e-17

-1.574656910610179e-17 -3.497866427724172e-20  6.635716116033362e-01
-3.497866427724172e-20 -1.113714005135038e-17  2.603757149048369e-01
 6.635716116033362e-01  2.603757149048369e-01 -1.695662678114961e-17

-1.574656950102554e-17 -3.488587051601409e-20  6.635715953068445e-01
-3.488587051601409e-20 -1.113713896294667e-17  2.603809268441765e-01
 6.635715953068445e-01  2.603809268441765e-01 -1.695662639229471e-17

-1.574656990422331e-17 -3.479281302825106e-20  6.635715786614345e-01
-3.479281302825106e-20 -1.113713805582465e-17  2.603861534561589e-01
 6.635715786614345e-01  2.603861534561589e-01 -1.695662599515117e-17

-1.574657031572616e-17 -3.469947181767223e-20  6.635715616658288e-01
-3.469947181767223e-20 -1.113713700766565e-17  2.603913960388522e-01
 6.635715616658288e-01  2.603913960388522e-01 -1.695662558968880e-17

-1.574657073556490e-17 -3.460586904439931e-20  6.635715443187492e-01
-3.460586904439931e-20 -1.113713604618006e-17  2.603966529861457e-01
 6.635715443187492e-01  2.603966529861457e-01 -1.695662517587717e-17

-1.574657116377074e-17 -3.451198406170186e-20  6.635715266189056e-01
-3.451198406170186e-20 -1.113713506046802e-17  2.604019260104554e-01
 6.635715266189056e-01  2.604019260104554e-01 -1.695662475368573e-17

-1.574657160037503e-17 -3.441782991013511e-20  6.635715085650097e-01
-3.441782991013511e-20 -1.113713362263073e-17  2.604072135054627e-01
 6.635715085650097e-01  2.604072135054627e-01 -1.695662432308386e-17

-1.574657204540898e-17 -3.432338948789788e-20  6.635714901557590e-01
-3.432338948789788e-20 -1.113713221916482e-17  2.604125171835743e-01
 6.635714901557590e-01  2.604125171835743e-01 -1.695662388404069e-17

-1.574657249890425e-17 -3.422868875595503e-20  6.635714713898523e-01
-3.422868875595503e-20 -1.113713124240953e-17  2.604178354381321e-01
 6.635714713898523e-01  2.604178354381321e-01 -1.695662343652531e-17

-1.574657296089233e-17 -3.413369811169834e-20  6.635714522659756e-01
-3.413369811169834e-20 -1.113713017470100e-17  2.604231699815198e-01
 6.635714522659756e-01  2.604231699815198e-01 -1.695662298050657e-17

-1.574657343140514e-17 -3.403843407190709e-20  6.635714327828147e-01
-3.403843407190709e-20 -1.113712892539700e-17  2.604285196215081e-01
 6.635714327828147e-01  2.604285196215081e-01 -1.695662251595325e-17

-1.574657391047445e-17 -3.394289504759511e-20  6.635714129390473e-01
-3.394289504759511e-20 -1.113712754417725e-17  2.604338844109366e-01
 6.635714129390473e-01  2.604338844109366e-01 -1.695662204283396e-17

-1.574657439813232e-17 -3.384706585957192e-20  6.635713927333411e-01
-3.384706585957192e-20 -1.113712623561174e-17  2.604392656465028e-01
 6.635713927333411e-01  2.604392656465028e-01 -1.695662156111720e-17

-1.574657489441096e-17 -3.375096406973315e-20  6.635713721643662e-01
-3.375096406973315e-20 -1.113712481522883e-17  2.604446617215467e-01
 6.635713721643662e-01  2.604446617215467e-01 -1.695662107077123e-17

-1.574657539934260e-17 -3.365457844276586e-20  6.635713512307762e-01
-3.365457844276586e-20 -1.113712396516482e-17  2.604500743474589e-01
 6.635713512307762e-01  2.604500743474589e-01 -1.695662057176425e-17

-1.574657591295971e-17 -3.355790949220022e-20  6.635713299312286e-01
-3.355790949220022e-20 -1.113712235725846e-17  2.604555019170239e-01
 6.635713299312286e-01  2.604555019170239e-01 -1.695662006406431e-17

-1.574657643529483e-17 -3.346095439271786e-20  6.635713082643655e-01
-3.346095439271786e-20 -1.113712119336995e-17  2.604609461417421e-01
 6.635713082643655e-01  2.604609461417421e-01 -1.695661954763923e-17

-1.574657696638065e-17 -3.336371594085810e-20  6.635712862288318e-01
-3.336371594085810e-20 -1.113711945602035e-17  2.604664054141154e-01
 6.635712862288318e-01  2.604664054141154e-01 -1.695661902245680e-17

-1.574657750625005e-17 -3.326618645930527e-20  6.635712638232575e-01
-3.326618645930527e-20 -1.113711790038762e-17  2.604718814455261e-01
 6.635712638232575e-01  2.604718814455261e-01 -1.695661848848460e-17

-1.574657805493601e-17 -3.316838243729913e-20  6.635712410462739e-01
-3.316838243729913e-20 -1.113711662933835e-17  2.604773726281361e-01
 6.635712410462739e-01  2.604773726281361e-01 -1.695661794568999e-17

-1.574657861247156e-17 -3.307027704844174e-20  6.635712178965005e-01
-3.307027704844174e-20 -1.113711505474641e-17  2.604828806732774e-01
 6.635712178965005e-01  2.604828806732774e-01 -1.695661739404033e-17

-1.574657917889011e-17 -3.297189053704245e-20  6.635711943725526e-01
-3.297189053704245e-20 -1.113711351463034e-17  2.604884043877354e-01
 6.635711943725526e-01  2.604884043877354e-01 -1.695661683350276e-17

-1.574657975422490e-17 -3.287321685161091e-20  6.635711704730404e-01
-3.287321685161091e-20 -1.113711198090951e-17  2.604939438229348e-01
 6.635711704730404e-01  2.604939438229348e-01 -1.695661626404418e-17

-1.574658033850948e-17 -3.277424705880878e-20  6.635711461965635e-01
-3.277424705880878e-20 -1.113711051823733e-17  2.604995002751166e-01
 6.635711461965635e-01  2.604995002751166e-01 -1.695661568563151e-17

-1.574658093177766e-17 -3.267499581865849e-20  6.635711215417215e-01
-3.267499581865849e-20 -1.113710931424374e-17  2.605050721356739e-01
 6.635711215417215e-01  2.605050721356739e-01 -1.695661509823139e-17

-1.574658153406317e-17 -3.257544174918526e-20  6.635710965071011e-01
-3.257544174918526e-20 -1.113710778896593e-17  2.605106611154541e-01
 6.635710965071011e-01  2.605106611154541e-01 -1.695661450181033e-17

-1.574658214540000e-17 -3.247559599853649e-20  6.635710710912874e-01
-3.247559599853649e-20 -1.113710554814281e-17  2.605162656062543e-01
 6.635710710912874e-01  2.605162656062543e-01 -1.695661389633472e-17

-1.574658276582225e-17 -3.237545923578787e-20  6.635710452928549e-01
-3.237545923578787e-20 -1.113710444927476e-17  2.605218873180850e-01
 6.635710452928549e-01  2.605218873180850e-01 -1.695661328177075e-17

-1.574658339536424e-17 -3.227503201896771e-20  6.635710191103761e-01
-3.227503201896771e-20 -1.113710286558012e-17  2.605275246427177e-01
 6.635710191103761e-01  2.605275246427177e-01 -1.695661265808453e-17

-1.574658403406037e-17 -3.217429512851449e-20  6.635709925424130e-01
-3.217429512851449e-20 -1.113710083447811e-17  2.605331792900755e-01
 6.635709925424130e-01  2.605331792900755e-01 -1.695661202524191e-17

-1.574658468194510e-17 -3.207327182555870e-20  6.635709655875223e-01
-3.207327182555870e-20 -1.113709924669397e-17  2.605388500664950e-01
 6.635709655875223e-01  2.605388500664950e-01 -1.695661138320861e-17

-1.574658533905332e-17 -3.197195379124356e-20  6.635709382442557e-01
-3.197195379124356e-20 -1.113709756687517e-17  2.605445370225057e-01
 6.635709382442557e-01  2.605445370225057e-01 -1.695661073195034e-17

-1.574658600541967e-17 -3.187032404146840e-20  6.635709105111556e-01
-3.187032404146840e-20 -1.113709561206936e-17  2.605502414528949e-01
 6.635709105111556e-01  2.605502414528949e-01 -1.695661007143241e-17

-1.574658668107940e-17 -3.176840612436250e-20  6.635708823867585e-01
-3.176840612436250e-20 -1.113709371516848e-17  2.605559617489437e-01
 6.635708823867585e-01  2.605559617489437e-01 -1.695660940162014e-17

-1.574658736606746e-17 -3.166618021422496e-20  6.635708538695950e-01
-3.166618021422496e-20 -1.113709190107957e-17  2.605616996203096e-01
 6.635708538695950e-01  2.605616996203096e-01 -1.695660872247865e-17

-1.574658806041936e-17 -3.156366282524103e-20  6.635708249581893e-01
-3.156366282524103e-20 -1.113709008034819e-17  2.605674534575676e-01
 6.635708249581893e-01  2.605674534575676e-01 -1.695660803397288e-17

-1.574658876417041e-17 -3.146083600677039e-20  6.635707956510570e-01
-3.146083600677039e-20 -1.113708844767601e-17  2.605732249703062e-01
 6.635707956510570e-01  2.605732249703062e-01 -1.695660733606758e-17

-1.574658947735637e-17 -3.135770643884530e-20  6.635707659467093e-01
-3.135770643884530e-20 -1.113708597444116e-17  2.605790125491810e-01
 6.635707659467093e-01  2.605790125491810e-01 -1.695660662872746e-17

-1.574659020001297e-17 -3.125427456528184e-20  6.635707358436468e-01
-3.125427456528184e-20 -1.113708459546547e-17  2.605848179033973e-01
 6.635707358436468e-01  2.605848179033973e-01 -1.695660591191691e-17

-1.574659093217617e-17 -3.115053714690845e-20  6.635707053403679e-01
-3.115053714690845e-20 -1.113708220184123e-17  2.605906394234984e-01
 6.635707053403679e-01  2.605906394234984e-01 -1.695660518560027e-17

-1.574659167388204e-17 -3.104649096694782e-20  6.635706744353593e-01
-3.104649096694782e-20 -1.113708038055637e-17  2.605964788183450e-01
 6.635706744353593e-01  2.605964788183450e-01 -1.695660444974162e-17

-1.574659242516692e-17 -3.094214076533980e-20  6.635706431271050e-01
-3.094214076533980e-20 -1.113707834145991e-17  2.606023348931976e-01
 6.635706431271050e-01  2.606023348931976e-01 -1.695660370430502e-17

-1.574659318606717e-17 -3.083749412736767e-20  6.635706114140799e-01
-3.083749412736767e-20 -1.113707680733068e-17  2.606082076974611e-01
 6.635706114140799e-01  2.606082076974611e-01 -1.695660294925416e-17

-1.574659395661937e-17 -3.073252025855751e-20  6.635705792947498e-01
-3.073252025855751e-20 -1.113707438013314e-17  2.606140985252406e-01
 6.635705792947498e-01  2.606140985252406e-01 -1.695660218455278e-17

-1.574659473686032e-17 -3.062724967967290e-20  6.635705467675789e-01
-3.062724967967290e-20 -1.113707228068724e-17  2.606200057662465e-01
 6.635705467675789e-01  2.606200057662465e-01 -1.695660141016426e-17

-1.574659552682692e-17 -3.052166064135976e-20  6.635705138310186e-01
-3.052166064135976e-20 -1.113707025899029e-17  2.606259311292899e-01
 6.635705138310186e-01  2.606259311292899e-01 -1.695660062605197e-17

-1.574659632655623e-17 -3.041576547960363e-20  6.635704804835165e-01
-3.041576547960363e-20 -1.113706779610932e-17  2.606318730039502e-01
 6.635704804835165e-01  2.606318730039502e-01 -1.695659983217896e-17

-1.574659713608548e-17 -3.030955731176898e-20  6.635704467235105e-01
-3.030955731176898e-20 -1.113706608014255e-17  2.606378330988769e-01
 6.635704467235105e-01  2.606378330988769e-01 -1.695659902850824e-17

-1.574659795545216e-17 -3.020304319100039e-20  6.635704125494363e-01
-3.020304319100039e-20 -1.113706406877922e-17  2.606438098034001e-01
 6.635704125494363e-01  2.606438098034001e-01 -1.695659821500260e-17

-1.574659878469369e-17 -3.009619839956591e-20  6.635703779597145e-01
-3.009619839956591e-20 -1.113706141954504e-17  2.606498048259799e-01
 6.635703779597145e-01  2.606498048259799e-01 -1.695659739162459e-17

-1.574659962384801e-17 -2.998905260164549e-20  6.635703429527665e-01
-2.998905260164549e-20 -1.113705902517135e-17  2.606558165557490e-01
 6.635703429527665e-01  2.606558165557490e-01 -1.695659655833669e-17

-1.574660047295291e-17 -2.988158797529912e-20  6.635703075269987e-01
-2.988158797529912e-20 -1.113705723054606e-17  2.606618467010517e-01
 6.635703075269987e-01  2.606618467010517e-01 -1.695659571510118e-17

-1.574660133204657e-17 -2.977381106207492e-20  6.635702716808176e-01
-2.977381106207492e-20 -1.113705532090623e-17  2.606678940657448e-01
 6.635702716808176e-01  2.606678940657448e-01 -1.695659486188011e-17

-1.574660220116716e-17 -2.966571820919141e-20  6.635702354126173e-01
-2.966571820919141e-20 -1.113705297076505e-17  2.606739586982703e-01
 6.635702354126173e-01  2.606739586982703e-01 -1.695659399863537e-17

-1.574660308035316e-17 -2.955729659303657e-20  6.635701987207845e-01
-2.955729659303657e-20 -1.113705063619070e-17  2.606800418917607e-01
 6.635701987207845e-01  2.606800418917607e-01 -1.695659312532873e-17

-1.574660396964326e-17 -2.944856174164743e-20  6.635701616037004e-01
-2.944856174164743e-20 -1.113704787862464e-17  2.606861420350403e-01
 6.635701616037004e-01  2.606861420350403e-01 -1.695659224192177e-17

-1.574660486907606e-17 -2.933949750489123e-20  6.635701240597376e-01
-2.933949750489123e-20 -1.113704527497791e-17  2.606922608357514e-01
 6.635701240597376e-01  2.606922608357514e-01 -1.695659134837576e-17

-1.574660577869071e-17 -2.923012653675321e-20  6.635700860872616e-01
-2.923012653675321e-20 -1.113704277621536e-17  2.606983966826689e-01
 6.635700860872616e-01  2.606983966826689e-01 -1.695659044465199e-17

-1.574660669852624e-17 -2.912042811845460e-20  6.635700476846292e-01
-2.912042811845460e-20 -1.113704068148640e-17  2.607045512831019e-01
 6.635700476846292e-01  2.607045512831019e-01 -1.695658953071142e-17

-1.574660762862203e-17 -2.901041017137091e-20  6.635700088501910e-01
-2.901041017137091e-20 -1.113703791252861e-17  2.607107230257986e-01
 6.635700088501910e-01  2.607107230257986e-01 -1.695658860651489e-17

-1.574660856901750e-17 -2.890006791147761e-20  6.635699695822876e-01
-2.890006791147761e-20 -1.113703579132313e-17  2.607169136180678e-01
 6.635699695822876e-01  2.607169136180678e-01 -1.695658767202301e-17

-1.574660951975245e-17 -2.878939840684054e-20  6.635699298792552e-01
-2.878939840684054e-20 -1.113703306582245e-17  2.607231218628963e-01
 6.635699298792552e-01  2.607231218628963e-01 -1.695658672719628e-17

-1.574661048086672e-17 -2.867841161576026e-20  6.635698897394199e-01
-2.867841161576026e-20 -1.113703058104905e-17  2.607293478081815e-01
 6.635698897394199e-01  2.607293478081815e-01 -1.695658577199496e-17

-1.574661145240024e-17 -2.856709289425466e-20  6.635698491610977e-01
-2.856709289425466e-20 -1.113702836989849e-17  2.607355927461122e-01
 6.635698491610977e-01  2.607355927461122e-01 -1.695658480637911e-17

-1.574661243439339e-17 -2.845545412746491e-20  6.635698081426025e-01
-2.845545412746491e-20 -1.113702584924838e-17  2.607418550647891e-01
 6.635698081426025e-01  2.607418550647891e-01 -1.695658383030865e-17

-1.574661342688642e-17 -2.834347109879633e-20  6.635697666822334e-01
-2.834347109879633e-20 -1.113702266097776e-17  2.607481364711279e-01
 6.635697666822334e-01  2.607481364711279e-01 -1.695658284374323e-17

-1.574661442992021e-17 -2.823117850237230e-20  6.635697247782882e-01
-2.823117850237230e-20 -1.113702031822451e-17  2.607544353529447e-01
 6.635697247782882e-01  2.607544353529447e-01 -1.695658184664246e-17

-1.574661544353528e-17 -2.811854366984525e-20  6.635696824290505e-01
-2.811854366984525e-20 -1.113701755782901e-17  2.607607534171394e-01
 6.635696824290505e-01  2.607607534171394e-01 -1.695658083896557e-17

-1.574661646777277e-17 -2.800558615052309e-20  6.635696396328012e-01
-2.800558615052309e-20 -1.113701457304870e-17  2.607670890513848e-01
 6.635696396328012e-01  2.607670890513848e-01 -1.695657982067175e-17

-1.574661750267382e-17 -2.789229234119130e-20  6.635695963878089e-01
-2.789229234119130e-20 -1.113701200754996e-17  2.607734439622659e-01
 6.635695963878089e-01  2.607734439622659e-01 -1.695657879171988e-17

-1.574661854827979e-17 -2.777867755386955e-20  6.635695526923340e-01
-2.777867755386955e-20 -1.113700955702989e-17  2.607798165375128e-01
 6.635695526923340e-01  2.607798165375128e-01 -1.695657775206872e-17

-1.574661960463227e-17 -2.766471449080343e-20  6.635695085446326e-01
-2.766471449080343e-20 -1.113700641014614e-17  2.607862084833523e-01
 6.635695085446326e-01  2.607862084833523e-01 -1.695657670167682e-17

-1.574662067177298e-17 -2.755042598918405e-20  6.635694639429491e-01
-2.755042598918405e-20 -1.113700355383709e-17  2.607926186024129e-01
 6.635694639429491e-01  2.607926186024129e-01 -1.695657564050252e-17

-1.574662174974397e-17 -2.743580900319763e-20  6.635694188855205e-01
-2.743580900319763e-20 -1.113700082848507e-17  2.607990469411542e-01
 6.635694188855205e-01  2.607990469411542e-01 -1.695657456850398e-17

-1.574662283858723e-17 -2.732084498101152e-20  6.635693733705736e-01
-2.732084498101152e-20 -1.113699776261076e-17  2.608054947911795e-01
 6.635693733705736e-01  2.608054947911795e-01 -1.695657348563909e-17

-1.574662393834521e-17 -2.720555590259567e-20  6.635693273963301e-01
-2.720555590259567e-20 -1.113699487253369e-17  2.608119605395679e-01
 6.635693273963301e-01  2.608119605395679e-01 -1.695657239186564e-17

-1.574662504906049e-17 -2.708992024360096e-20  6.635692809610004e-01
-2.708992024360096e-20 -1.113699196116341e-17  2.608184458924928e-01
 6.635692809610004e-01  2.608184458924928e-01 -1.695657128714115e-17

-1.574662617077581e-17 -2.697395505974771e-20  6.635692340627888e-01
-2.697395505974771e-20 -1.113698892677056e-17  2.608249492370552e-01
 6.635692340627888e-01  2.608249492370552e-01 -1.695657017142298e-17

-1.574662730353402e-17 -2.685764245510712e-20  6.635691866998863e-01
-2.685764245510712e-20 -1.113698577615233e-17  2.608314722790395e-01
 6.635691866998863e-01  2.608314722790395e-01 -1.695656904466820e-17

-1.574662844737851e-17 -2.674100336173464e-20  6.635691388704816e-01
-2.674100336173464e-20 -1.113698299948845e-17  2.608380134053869e-01
 6.635691388704816e-01  2.608380134053869e-01 -1.695656790683378e-17

-1.574662960235238e-17 -2.662401796006572e-20  6.635690905727486e-01
-2.662401796006572e-20 -1.113698045162006e-17  2.608445743220425e-01
 6.635690905727486e-01  2.608445743220425e-01 -1.695656675787642e-17

-1.574663076849937e-17 -2.650668813681534e-20  6.635690418048563e-01
-2.650668813681534e-20 -1.113697702870036e-17  2.608511538303755e-01
 6.635690418048563e-01  2.608511538303755e-01 -1.695656559775259e-17

-1.574663194586329e-17 -2.638901769241091e-20  6.635689925649632e-01
-2.638901769241091e-20 -1.113697335817591e-17  2.608577519768519e-01
 6.635689925649632e-01  2.608577519768519e-01 -1.695656442641865e-17

-1.574663313448798e-17 -2.627100745580248e-20  6.635689428512187e-01
-2.627100745580248e-20 -1.113697082885143e-17  2.608643700521780e-01
 6.635689428512187e-01  2.608643700521780e-01 -1.695656324383059e-17

-1.574663433441781e-17 -2.615265157827683e-20  6.635688926617657e-01
-2.615265157827683e-20 -1.113696719743152e-17  2.608710064426501e-01
 6.635688926617657e-01  2.608710064426501e-01 -1.695656204994441e-17

-1.574663554569701e-17 -2.603394652061452e-20  6.635688419947329e-01
-2.603394652061452e-20 -1.113696394240455e-17  2.608776628539448e-01
 6.635688419947329e-01  2.608776628539448e-01 -1.695656084471559e-17

-1.574663676837045e-17 -2.591490803945292e-20  6.635687908482450e-01
-2.591490803945292e-20 -1.113696084090011e-17  2.608843376725542e-01
 6.635687908482450e-01  2.608843376725542e-01 -1.695655962809970e-17

-1.574663800248280e-17 -2.579551683629225e-20  6.635687392204151e-01
-2.579551683629225e-20 -1.113695794974276e-17  2.608910326036998e-01
 6.635687392204151e-01  2.608910326036998e-01 -1.695655840005190e-17

-1.574663924807918e-17 -2.567578509893029e-20  6.635686871093465e-01
-2.567578509893029e-20 -1.113695466141722e-17  2.608977460337498e-01
 6.635686871093465e-01  2.608977460337498e-01 -1.695655716052718e-17

-1.574664050520484e-17 -2.555569458352594e-20  6.635686345131351e-01
-2.555569458352594e-20 -1.113695126985738e-17  2.609044796678561e-01
 6.635686345131351e-01  2.609044796678561e-01 -1.695655590948030e-17

-1.574664177390537e-17 -2.543526248045083e-20  6.635685814298662e-01
-2.543526248045083e-20 -1.113694772347486e-17  2.609112318922345e-01
 6.635685814298662e-01  2.609112318922345e-01 -1.695655464686588e-17

-1.574664305422641e-17 -2.531447381286016e-20  6.635685278576152e-01
-2.531447381286016e-20 -1.113694416968561e-17  2.609180044121657e-01
 6.635685278576152e-01  2.609180044121657e-01 -1.695655337263818e-17

-1.574664434621397e-17 -2.519334952269123e-20  6.635684737944496e-01
-2.519334952269123e-20 -1.113694118364206e-17  2.609247956135723e-01
 6.635684737944496e-01  2.609247956135723e-01 -1.695655208675130e-17

-1.574664564991418e-17 -2.507186000471942e-20  6.635684192384264e-01
-2.507186000471942e-20 -1.113693710387434e-17  2.609316067864053e-01
 6.635684192384264e-01  2.609316067864053e-01 -1.695655078915919e-17

-1.574664696537338e-17 -2.495001942866987e-20  6.635683641875919e-01
-2.495001942866987e-20 -1.113693366504787e-17  2.609384379763971e-01
 6.635683641875919e-01  2.609384379763971e-01 -1.695654947981541e-17

-1.574664829263840e-17 -2.482783590443464e-20  6.635683086399847e-01
-2.482783590443464e-20 -1.113693001911375e-17  2.609452879843056e-01
 6.635683086399847e-01  2.609452879843056e-01 -1.695654815867343e-17

-1.574664963175593e-17 -2.470529362112379e-20  6.635682525936319e-01
-2.470529362112379e-20 -1.113692646858267e-17  2.609521580999814e-01
 6.635682525936319e-01  2.609521580999814e-01 -1.695654682568638e-17

-1.574665098277310e-17 -2.458239455002212e-20  6.635681960465528e-01
-2.458239455002212e-20 -1.113692239828593e-17  2.609590479537270e-01
 6.635681960465528e-01  2.609590479537270e-01 -1.695654548080724e-17

-1.574665234573723e-17 -2.445914401098037e-20  6.635681389967533e-01
-2.445914401098037e-20 -1.113691927014344e-17  2.609659580058614e-01
 6.635681389967533e-01  2.609659580058614e-01 -1.695654412398875e-17

-1.574665372069592e-17 -2.433554391260275e-20  6.635680814422333e-01
-2.433554391260275e-20 -1.113691576926695e-17  2.609728870569998e-01
 6.635680814422333e-01  2.609728870569998e-01 -1.695654275518333e-17

-1.574665510769699e-17 -2.421157081668360e-20  6.635680233809809e-01
-2.421157081668360e-20 -1.113691114082730e-17  2.609798363969321e-01
 6.635680233809809e-01  2.609798363969321e-01 -1.695654137434329e-17

-1.574665650678833e-17 -2.408725975064132e-20  6.635679648109728e-01
-2.408725975064132e-20 -1.113690876932999e-17  2.609868060703916e-01
 6.635679648109728e-01  2.609868060703916e-01 -1.695653998142057e-17

-1.574665791801842e-17 -2.396257547410342e-20  6.635679057301784e-01
-2.396257547410342e-20 -1.113690405098552e-17  2.609937948782126e-01
 6.635679057301784e-01  2.609937948782126e-01 -1.695653857636698e-17

-1.574665934143555e-17 -2.383753133477836e-20  6.635678461365532e-01
-2.383753133477836e-20 -1.113689994701047e-17  2.610008045247268e-01
 6.635678461365532e-01  2.610008045247268e-01 -1.695653715913395e-17

-1.574666077708868e-17 -2.371214689571659e-20  6.635677860280477e-01
-2.371214689571659e-20 -1.113689708049597e-17  2.610078333955116e-01
 6.635677860280477e-01  2.610078333955116e-01 -1.695653572967285e-17

-1.574666222502669e-17 -2.358638965027851e-20  6.635677254025945e-01
-2.358638965027851e-20 -1.113689380891280e-17  2.610148831949397e-01
 6.635677254025945e-01  2.610148831949397e-01 -1.695653428793461e-17

-1.574666368529888e-17 -2.346027496130129e-20  6.635676642581226e-01
-2.346027496130129e-20 -1.113688984331900e-17  2.610219523083403e-01
 6.635676642581226e-01  2.610219523083403e-01 -1.695653283387006e-17

-1.574666515795472e-17 -2.333378067616829e-20  6.635676025925473e-01
-2.333378067616829e-20 -1.113688530705598e-17  2.610290424401672e-01
 6.635676025925473e-01  2.610290424401672e-01 -1.695653136742970e-17

-1.574666664304405e-17 -2.320694454811469e-20  6.635675404037742e-01
-2.320694454811469e-20 -1.113688167120747e-17  2.610361519756424e-01
 6.635675404037742e-01  2.610361519756424e-01 -1.695652988856382e-17

-1.574666814061676e-17 -2.307972623841608e-20  6.635674776896953e-01
-2.307972623841608e-20 -1.113687726350774e-17  2.610432826190650e-01
 6.635674776896953e-01  2.610432826190650e-01 -1.695652839722241e-17

-1.574666965072317e-17 -2.295216080351124e-20  6.635674144481968e-01
-2.295216080351124e-20 -1.113687344858842e-17  2.610504327558594e-01
 6.635674144481968e-01  2.610504327558594e-01 -1.695652689335524e-17

-1.574667117341375e-17 -2.282421133515121e-20  6.635673506771506e-01
-2.282421133515121e-20 -1.113686880311720e-17  2.610576040899726e-01
 6.635673506771506e-01  2.610576040899726e-01 -1.695652537691183e-17

-1.574667270873933e-17 -2.269591535130287e-20  6.635672863744185e-01
-2.269591535130287e-20 -1.113686526269248e-17  2.610647950068394e-01
 6.635672863744185e-01  2.610647950068394e-01 -1.695652384784135e-17

-1.574667425675092e-17 -2.256725421030700e-20  6.635672215378503e-01
-2.256725421030700e-20 -1.113686226754747e-17  2.610720067955299e-01
 6.635672215378503e-01  2.610720067955299e-01 -1.695652230609291e-17

-1.574667581749979e-17 -2.243819193299466e-20  6.635671561652875e-01
-2.243819193299466e-20 -1.113685642238818e-17  2.610792395008507e-01
 6.635671561652875e-01  2.610792395008507e-01 -1.695652075161511e-17

-1.574667739103753e-17 -2.230879335906633e-20  6.635670902545572e-01
-2.230879335906633e-20 -1.113685282778271e-17  2.610864919227718e-01
 6.635670902545572e-01  2.610864919227718e-01 -1.695651918435644e-17

-1.574667897741593e-17 -2.217901139058314e-20  6.635670238034768e-01
-2.217901139058314e-20 -1.113684824839699e-17  2.610937653502203e-01
 6.635670238034768e-01  2.610937653502203e-01 -1.695651760426506e-17

-1.574668057668706e-17 -2.204886409809660e-20  6.635669568098532e-01
-2.204886409809660e-20 -1.113684408691314e-17  2.611010594132549e-01
 6.635669568098532e-01  2.611010594132549e-01 -1.695651601128897e-17

-1.574668218890337e-17 -2.191833883943625e-20  6.635668892714794e-01
-2.191833883943625e-20 -1.113683977627130e-17  2.611083745709963e-01
 6.635668892714794e-01  2.611083745709963e-01 -1.695651440537570e-17

-1.574668381411739e-17 -2.178744664521773e-20  6.635668211861394e-01
-2.178744664521773e-20 -1.113683491158190e-17  2.611157096236517e-01
 6.635668211861394e-01  2.611157096236517e-01 -1.695651278647270e-17

-1.574668545238217e-17 -2.165619649343640e-20  6.635667525516027e-01
-2.165619649343640e-20 -1.113683211632559e-17  2.611230658600078e-01
 6.635667525516027e-01  2.611230658600078e-01 -1.695651115452700e-17

-1.574668710375072e-17 -2.152453793132764e-20  6.635666833656313e-01
-2.152453793132764e-20 -1.113682612659098e-17  2.611304433246557e-01
 6.635666833656313e-01  2.611304433246557e-01 -1.695650950948548e-17

-1.574668876827657e-17 -2.139254063242379e-20  6.635666136259725e-01
-2.139254063242379e-20 -1.113682266495236e-17  2.611378408175506e-01
 6.635666136259725e-01  2.611378408175506e-01 -1.695650785129464e-17

-1.574669044601346e-17 -2.126015161341350e-20  6.635665433303602e-01
-2.126015161341350e-20 -1.113681867482382e-17  2.611452600424174e-01
 6.635665433303602e-01  2.611452600424174e-01 -1.695650617990072e-17

-1.574669213701544e-17 -2.112739184693296e-20  6.635664724765209e-01
-2.112739184693296e-20 -1.113681395433277e-17  2.611526993844834e-01
 6.635664724765209e-01  2.611526993844834e-01 -1.695650449524973e-17

-1.574669384133680e-17 -2.099423431510218e-20  6.635664010621644e-01
-2.099423431510218e-20 -1.113680825268360e-17  2.611601605474557e-01
 6.635664010621644e-01  2.611601605474557e-01 -1.695650279728732e-17

-1.574669555903220e-17 -2.086072632248434e-20  6.635663290849938e-01
-2.086072632248434e-20 -1.113680421340383e-17  2.611676419162905e-01
 6.635663290849938e-01  2.611676419162905e-01 -1.695650108595895e-17

-1.574669729015636e-17 -2.072683418684361e-20  6.635662565426922e-01
-2.072683418684361e-20 -1.113680049470136e-17  2.611751451950852e-01
 6.635662565426922e-01  2.611751451950852e-01 -1.695649936120963e-17

-1.574669903476451e-17 -2.059255075076655e-20  6.635661834329385e-01
-2.059255075076655e-20 -1.113679447809734e-17  2.611826687685259e-01
 6.635661834329385e-01  2.611826687685259e-01 -1.695649762298425e-17

-1.574670079291223e-17 -2.045789919242028e-20  6.635661097533930e-01
-2.045789919242028e-20 -1.113679067622470e-17  2.611902143406859e-01
 6.635661097533930e-01  2.611902143406859e-01 -1.695649587122731e-17

-1.574670256465521e-17 -2.032286749662492e-20  6.635660355017081e-01
-2.032286749662492e-20 -1.113678602640356e-17  2.611977802964023e-01
 6.635660355017081e-01  2.611977802964023e-01 -1.695649410588301e-17

-1.574670435004943e-17 -2.018744918992886e-20  6.635659606755203e-01
-2.018744918992886e-20 -1.113678162328104e-17  2.612053683395184e-01
 6.635659606755203e-01  2.612053683395184e-01 -1.695649232689531e-17

-1.574670614915137e-17 -2.005164761406600e-20  6.635658852724549e-01
-2.005164761406600e-20 -1.113677665979311e-17  2.612129772699369e-01
 6.635658852724549e-01  2.612129772699369e-01 -1.695649053420780e-17

-1.574670796201767e-17 -1.991546224196339e-20  6.635658092901247e-01
-1.991546224196339e-20 -1.113677121360074e-17  2.612206071321424e-01
 6.635658092901247e-01  2.612206071321424e-01 -1.695648872776383e-17

-1.574670978870519e-17 -1.977889058045416e-20  6.635657327261272e-01
-1.977889058045416e-20 -1.113676624822810e-17  2.612282592149178e-01
 6.635657327261272e-01  2.612282592149178e-01 -1.695648690750637e-17

-1.574671162927134e-17 -1.964193487526633e-20  6.635656555780514e-01
-1.964193487526633e-20 -1.113676048275213e-17  2.612359319033417e-01
 6.635656555780514e-01  2.612359319033417e-01 -1.695648507337818e-17

-1.574671348377363e-17 -1.950460044945255e-20  6.635655778434681e-01
-1.950460044945255e-20 -1.113675636493545e-17  2.612436269014803e-01
 6.635655778434681e-01  2.612436269014803e-01 -1.695648322532161e-17

-1.574671535226994e-17 -1.936688696904473e-20  6.635654995199387e-01
-1.936688696904473e-20 -1.113675194341647e-17  2.612513425939963e-01
 6.635654995199387e-01  2.612513425939963e-01 -1.695648136327874e-17

-1.574671723481854e-17 -1.922877700418828e-20  6.635654206050084e-01
-1.922877700418828e-20 -1.113674742017341e-17  2.612590806850421e-01
 6.635654206050084e-01  2.612590806850421e-01 -1.695647948719134e-17

-1.574671913147789e-17 -1.909027536903663e-20  6.635653410962138e-01
-1.909027536903663e-20 -1.113674170122948e-17  2.612668395597136e-01
 6.635653410962138e-01  2.612668395597136e-01 -1.695647759700087e-17

-1.574672104230685e-17 -1.895138000325753e-20  6.635652609910700e-01
-1.895138000325753e-20 -1.113673624092223e-17  2.612746209217019e-01
 6.635652609910700e-01  2.612746209217019e-01 -1.695647569264843e-17

-1.574672296736466e-17 -1.881210706663023e-20  6.635651802870872e-01
-1.881210706663023e-20 -1.113673113788922e-17  2.612824231563243e-01
 6.635651802870872e-01  2.612824231563243e-01 -1.695647377407483e-17

-1.574672490671062e-17 -1.867243605498670e-20  6.635650989817560e-01
-1.867243605498670e-20 -1.113672561927980e-17  2.612902475526829e-01
 6.635650989817560e-01  2.612902475526829e-01 -1.695647184122061e-17

-1.574672686040478e-17 -1.853237876079001e-20  6.635650170725556e-01
-1.853237876079001e-20 -1.113672110203640e-17  2.612980941552184e-01
 6.635650170725556e-01  2.612980941552184e-01 -1.695646989402581e-17

-1.574672882850712e-17 -1.839193309268821e-20  6.635649345569506e-01
-1.839193309268821e-20 -1.113671582610228e-17  2.613059617639290e-01
 6.635649345569506e-01  2.613059617639290e-01 -1.695646793243033e-17

-1.574673081107820e-17 -1.825109602130293e-20  6.635648514323914e-01
-1.825109602130293e-20 -1.113671119932439e-17  2.613138516682270e-01
 6.635648514323914e-01  2.613138516682270e-01 -1.695646595637362e-17

-1.574673280817876e-17 -1.810984362327047e-20  6.635647676963140e-01
-1.810984362327047e-20 -1.113670427667018e-17  2.613217634975759e-01
 6.635647676963140e-01  2.613217634975759e-01 -1.695646396579486e-17

-1.574673481987004e-17 -1.796821408752741e-20  6.635646833461426e-01
-1.796821408752741e-20 -1.113669962759580e-17  2.613296977118480e-01
 6.635646833461426e-01  2.613296977118480e-01 -1.695646196063279e-17

-1.574673684621341e-17 -1.782618942116862e-20  6.635645983792836e-01
-1.782618942116862e-20 -1.113669400336317e-17  2.613376531108627e-01
 6.635645983792836e-01  2.613376531108627e-01 -1.695645994082593e-17

-1.574673888727086e-17 -1.768376094791016e-20  6.635645127931300e-01
-1.768376094791016e-20 -1.113668798804380e-17  2.613456309843873e-01
 6.635645127931300e-01  2.613456309843873e-01 -1.695645790631243e-17

-1.574674094310443e-17 -1.754094710438483e-20  6.635644265850599e-01
-1.754094710438483e-20 -1.113668312589362e-17  2.613536309619127e-01
 6.635644265850599e-01  2.613536309619127e-01 -1.695645585703001e-17

-1.574674301377668e-17 -1.739773473652545e-20  6.635643397524410e-01
-1.739773473652545e-20 -1.113667849250929e-17  2.613616535032785e-01
 6.635643397524410e-01  2.613616535032785e-01 -1.695645379291610e-17

-1.574674509935049e-17 -1.725410905731084e-20  6.635642522926181e-01
-1.725410905731084e-20 -1.113667188441674e-17  2.613696978237041e-01
 6.635642522926181e-01  2.613696978237041e-01 -1.695645171390784e-17

-1.574674719988912e-17 -1.711010383818295e-20  6.635641642029283e-01
-1.711010383818295e-20 -1.113666689963003e-17  2.613777639681450e-01
 6.635641642029283e-01  2.613777639681450e-01 -1.695644961994190e-17

-1.574674931545609e-17 -1.696568225647764e-20  6.635640754806883e-01
-1.696568225647764e-20 -1.113666118762602e-17  2.613858532259272e-01
 6.635640754806883e-01  2.613858532259272e-01 -1.695644751095465e-17

-1.574675144611538e-17 -1.682086886781371e-20  6.635639861232064e-01
-1.682086886781371e-20 -1.113665525629360e-17  2.613939639829197e-01
 6.635639861232064e-01  2.613939639829197e-01 -1.695644538688210e-17

-1.574675359193125e-17 -1.667565326552732e-20  6.635638961277643e-01
-1.667565326552732e-20 -1.113665009987057e-17  2.614020979433072e-01
 6.635638961277643e-01  2.614020979433072e-01 -1.695644324765986e-17

-1.574675575296851e-17 -1.653002865026698e-20  6.635638054916421e-01
-1.653002865026698e-20 -1.113664342305554e-17  2.614102534929154e-01
 6.635638054916421e-01  2.614102534929154e-01 -1.695644109322327e-17

-1.574675792929208e-17 -1.638400969919744e-20  6.635637142120936e-01
-1.638400969919744e-20 -1.113663861536499e-17  2.614184323364880e-01
 6.635637142120936e-01  2.614184323364880e-01 -1.695643892350714e-17

-1.574676012096736e-17 -1.623757387466152e-20  6.635636222863625e-01
-1.623757387466152e-20 -1.113663136049997e-17  2.614266328598196e-01
 6.635636222863625e-01  2.614266328598196e-01 -1.695643673844608e-17

-1.574676232806018e-17 -1.609073551344590e-20  6.635635297116724e-01
-1.609073551344590e-20 -1.113662547904418e-17  2.614348567673329e-01
 6.635635297116724e-01  2.614348567673329e-01 -1.695643453797422e-17

-1.574676455063665e-17 -1.594351149228871e-20  6.635634364852362e-01
-1.594351149228871e-20 -1.113662106048252e-17  2.614431028601520e-01
 6.635634364852362e-01  2.614431028601520e-01 -1.695643232202532e-17

-1.574676678876342e-17 -1.579586140337994e-20  6.635633426042455e-01
-1.579586140337994e-20 -1.113661402037986e-17  2.614513711835283e-01
 6.635633426042455e-01  2.614513711835283e-01 -1.695643009053282e-17

-1.574676904250728e-17 -1.564779675199739e-20  6.635632480658804e-01
-1.564779675199739e-20 -1.113660723768622e-17  2.614596630274842e-01
 6.635632480658804e-01  2.614596630274842e-01 -1.695642784342962e-17

-1.574677131193561e-17 -1.549934844371430e-20  6.635631528673018e-01
-1.549934844371430e-20 -1.113660203019249e-17  2.614679767783792e-01
 6.635631528673018e-01  2.614679767783792e-01 -1.695642558064849e-17

-1.574677359711604e-17 -1.535048418449130e-20  6.635630570056535e-01
-1.535048418449130e-20 -1.113659696326550e-17  2.614763141409967e-01
 6.635630570056535e-01  2.614763141409967e-01 -1.695642330212158e-17

-1.574677589811674e-17 -1.520119739849548e-20  6.635629604780652e-01
-1.520119739849548e-20 -1.113658965362820e-17  2.614846735018689e-01
 6.635629604780652e-01  2.614846735018689e-01 -1.695642100778072e-17

-1.574677821500627e-17 -1.505151170566651e-20  6.635628632816469e-01
-1.505151170566651e-20 -1.113658446430931e-17  2.614930565659736e-01
 6.635628632816469e-01  2.614930565659736e-01 -1.695641869755737e-17

-1.574678054785332e-17 -1.490140805410534e-20  6.635627654134972e-01
-1.490140805410534e-20 -1.113657762540845e-17  2.615014617198570e-01
 6.635627654134972e-01  2.615014617198570e-01 -1.695641637138258e-17

-1.574678289672734e-17 -1.475089312723376e-20  6.635626668706898e-01
-1.475089312723376e-20 -1.113657180049160e-17  2.615098906690713e-01
 6.635626668706898e-01  2.615098906690713e-01 -1.695641402918700e-17

-1.574678526169790e-17 -1.459996990798063e-20  6.635625676502875e-01
-1.459996990798063e-20 -1.113656547811939e-17  2.615183417998924e-01
 6.635625676502875e-01  2.615183417998924e-01 -1.695641167090080e-17

-1.574678764283517e-17 -1.444861218839177e-20  6.635624677493328e-01
-1.444861218839177e-20 -1.113655794967385e-17  2.615268168179988e-01
 6.635624677493328e-01  2.615268168179988e-01 -1.695640929645386e-17

-1.574679004020966e-17 -1.429686018967919e-20  6.635623671648517e-01
-1.429686018967919e-20 -1.113655199814152e-17  2.615353145251355e-01
 6.635623671648517e-01  2.615353145251355e-01 -1.695640690577552e-17

-1.574679245389234e-17 -1.389176549377267e-20  6.635622658938535e-01
-1.389176549377267e-20 -1.113654618220528e-17  2.615651540283082e-01
 6.635622658938535e-01  2.615651540283082e-01 -1.695640449879482e-17

-1.574679488395450e-17 -1.399210907667444e-20  6.635621639333280e-01
-1.399210907667444e-20 -1.113653967155568e-17  2.615523790212697e-01
 6.635621639333280e-01  2.615523790212697e-01 -1.695640207544032e-17

-1.574679733046790e-17 -1.383909764702327e-20  6.635620612802483e-01
-1.383909764702327e-20 -1.113653264632115e-17  2.615609463180897e-01
 6.635620612802483e-01  2.615609463180897e-01 -1.695639963564019e-17

-1.574679979350482e-17 -1.368566247346960e-20  6.635619579315685e-01
-1.368566247346960e-20 -1.113652556906582e-17  2.615695373192076e-01
 6.635619579315685e-01  2.615695373192076e-01 -1.695639717932208e-17

-1.574739243612648e-17 -7.717568002505803e-20  6.635368236683462e-01
-7.717568002505803e-20 -1.113492740994870e-17  2.579885864098472e-01
 6.635368236683462e-01  2.579885864098472e-01 -1.695580176632590e-17

-1.574738883570650e-17 -7.707604864383724e-20  6.635369756107831e-01
-7.707604864383724e-20 -1.113493690772258e-17  2.579942546159237e-01
 6.635369756107831e-01  2.579942546159237e-01 -1.695580537173220e-17

-1.574738524920113e-17 -7.697666020705169e-20  6.635371269657729e-01
-7.697666020705169e-20 -1.113494689893079e-17  2.579999086619141e-01
 6.635371269657729e-01  2.579999086619141e-01 -1.695580896319774e-17

-1.574738167653942e-17 -7.687753869968351e-20  6.635372777363178e-01
-7.687753869968351e-20 -1.113495652893787e-17  2.580055473611768e-01
 6.635372777363178e-01  2.580055473611768e-01 -1.695581254079376e-17

-1.574737811765078e-17 -7.677866171840532e-20  6.635374279254019e-01
-7.677866171840532e-20 -1.113496599391627e-17  2.580111724313873e-01
 6.635374279254019e-01  2.580111724313873e-01 -1.695581610459095e-17

-1.574737457246519e-17 -7.668003819803042e-20  6.635375775359891e-01
-7.668003819803042e-20 -1.113497540411094e-17  2.580167826858763e-01
 6.635375775359891e-01  2.580167826858763e-01 -1.695581965465982e-17

-1.574737104091298e-17 -7.658167200842960e-20  6.635377265710213e-01
-7.658167200842960e-20 -1.113498481343767e-17  2.580223781818277e-01
 6.635377265710213e-01  2.580223781818277e-01 -1.695582319107002e-17

-1.574736752292502e-17 -7.648354867557658e-20  6.635378750334263e-01
-7.648354867557658e-20 -1.113499408690997e-17  2.580279602212510e-01
 6.635378750334263e-01  2.580279602212510e-01 -1.695582671389115e-17

-1.574736401843257e-17 -7.638567724016619e-20  6.635380229261075e-01
-7.638567724016619e-20 -1.113500368653522e-17  2.580335272014563e-01
 6.635380229261075e-01  2.580335272014563e-01 -1.695583022319205e-17

-1.574736052736738e-17 -7.628804209605047e-20  6.635381702519558e-01
-7.628804209605047e-20 -1.113501314670298e-17  2.580390808388012e-01
 6.635381702519558e-01  2.580390808388012e-01 -1.695583371904128e-17

-1.574735704966153e-17 -7.619066600610384e-20  6.635383170138371e-01
-7.619066600610384e-20 -1.113502252920401e-17  2.580446195301097e-01
 6.635383170138371e-01  2.580446195301097e-01 -1.695583720150689e-17

-1.574735358524769e-17 -7.609352662245385e-20  6.635384632146030e-01
-7.609352662245385e-20 -1.113503167949013e-17  2.580501449911539e-01
 6.635384632146030e-01  2.580501449911539e-01 -1.695584067065656e-17

-1.574735013405897e-17 -7.599664091831697e-20  6.635386088570845e-01
-7.599664091831697e-20 -1.113504090381802e-17  2.580556556183871e-01
 6.635386088570845e-01  2.580556556183871e-01 -1.695584412655750e-17

-1.574734669602864e-17 -7.589998753946174e-20  6.635387539440963e-01
-7.589998753946174e-20 -1.113505015355485e-17  2.580611531269066e-01
 6.635387539440963e-01  2.580611531269066e-01 -1.695584756927637e-17

-1.574734327109083e-17 -7.580358704442470e-20  6.635388984784331e-01
-7.580358704442470e-20 -1.113505942527352e-17  2.580666359124988e-01
 6.635388984784331e-01  2.580666359124988e-01 -1.695585099887964e-17

-1.574733985917970e-17 -7.570741888772120e-20  6.635390424628712e-01
-7.570741888772120e-20 -1.113506872294411e-17  2.580721056901783e-01
 6.635390424628712e-01  2.580721056901783e-01 -1.695585441543311e-17

-1.574733646023005e-17 -7.561149937455635e-20  6.635391859001735e-01
-7.561149937455635e-20 -1.113507758409233e-17  2.580775612698936e-01
 6.635391859001735e-01  2.580775612698936e-01 -1.695585781900235e-17

-1.574733307417703e-17 -7.551581953913506e-20  6.635393287930791e-01
-7.551581953913506e-20 -1.113508669246796e-17  2.580830027067402e-01
 6.635393287930791e-01  2.580830027067402e-01 -1.695586120965233e-17

-1.574732970095626e-17 -7.542037922242171e-20  6.635394711443127e-01
-7.542037922242171e-20 -1.113509551729021e-17  2.580884308845895e-01
 6.635394711443127e-01  2.580884308845895e-01 -1.695586458744781e-17

-1.574732634050371e-17 -7.532517082942780e-20  6.635396129565821e-01
-7.532517082942780e-20 -1.113510461170519e-17  2.580938454429412e-01
 6.635396129565821e-01  2.580938454429412e-01 -1.695586795245293e-17

-1.574732299275576e-17 -7.523019291117241e-20  6.635397542325758e-01
-7.523019291117241e-20 -1.113511372995089e-17  2.580992468504387e-01
 6.635397542325758e-01  2.580992468504387e-01 -1.695587130473155e-17

-1.574731965764925e-17 -7.513546033807358e-20  6.635398949749662e-01
-7.513546033807358e-20 -1.113512294830530e-17  2.581046339163369e-01
 6.635398949749662e-01  2.581046339163369e-01 -1.695587464434706e-17

-1.574731633512142e-17 -7.504096798082474e-20  6.635400351864102e-01
-7.504096798082474e-20 -1.113513132959970e-17  2.581100079387879e-01
 6.635400351864102e-01  2.581100079387879e-01 -1.695587797136253e-17

-1.574731302510986e-17 -7.494670276164697e-20  6.635401748695432e-01
-7.494670276164697e-20 -1.113514023824064e-17  2.581153685561931e-01
 6.635401748695432e-01  2.581153685561931e-01 -1.695588128584048e-17

-1.574730972755256e-17 -7.485266628803367e-20  6.635403140269887e-01
-7.485266628803367e-20 -1.113514916158183e-17  2.581207162363779e-01
 6.635403140269887e-01  2.581207162363779e-01 -1.695588458784314e-17

-1.574730644238793e-17 -7.475886433367642e-20  6.635404526613510e-01
-7.475886433367642e-20 -1.113515806064195e-17  2.581260502023481e-01
 6.635404526613510e-01  2.581260502023481e-01 -1.695588787743236e-17

-1.574730316955488e-17 -7.466530009738601e-20  6.635405907752174e-01
-7.466530009738601e-20 -1.113516678098298e-17  2.581313705069431e-01
 6.635405907752174e-01  2.581313705069431e-01 -1.695589115466949e-17

-1.574729990899252e-17 -7.457195329248592e-20  6.635407283711602e-01
-7.457195329248592e-20 -1.113517582935949e-17  2.581366784468441e-01
 6.635407283711602e-01  2.581366784468441e-01 -1.695589441961559e-17

-1.574729666064039e-17 -7.447884896936262e-20  6.635408654517340e-01
-7.447884896936262e-20 -1.113518464378694e-17  2.581419724149641e-01
 6.635408654517340e-01  2.581419724149641e-01 -1.695589767233126e-17

-1.574729342443853e-17 -7.438596441241417e-20  6.635410020194785e-01
-7.438596441241417e-20 -1.113519339425654e-17  2.581472541226310e-01
 6.635410020194785e-01  2.581472541226310e-01 -1.695590091287682e-17

-1.574729020032725e-17 -7.429331932697232e-20  6.635411380769154e-01
-7.429331932697232e-20 -1.113520180298223e-17  2.581525219619058e-01
 6.635411380769154e-01  2.581525219619058e-01 -1.695590414131204e-17

-1.574728698824736e-17 -7.420088910107218e-20  6.635412736265535e-01
-7.420088910107218e-20 -1.113521048533382e-17  2.581577776439909e-01
 6.635412736265535e-01  2.581577776439909e-01 -1.695590735769648e-17

-1.574728378813981e-17 -7.410869553790051e-20  6.635414086708806e-01
-7.410869553790051e-20 -1.113521882277059e-17  2.581630195604759e-01
 6.635414086708806e-01  2.581630195604759e-01 -1.695591056208921e-17

-1.574728059994620e-17 -7.401671441645489e-20  6.635415432123758e-01
-7.401671441645489e-20 -1.113522746440495e-17  2.581682494220181e-01
 6.635415432123758e-01  2.581682494220181e-01 -1.695591375454899e-17

-1.574727742360834e-17 -7.392496833407191e-20  6.635416772534947e-01
-7.392496833407191e-20 -1.113523588196478e-17  2.581734656200739e-01
 6.635416772534947e-01  2.581734656200739e-01 -1.695591693513415e-17

-1.574727425906845e-17 -7.383343708037059e-20  6.635418107966836e-01
-7.383343708037059e-20 -1.113524445634325e-17  2.581786698644799e-01
 6.635418107966836e-01  2.581786698644799e-01 -1.695592010390267e-17

-1.574727110626912e-17 -7.374212768738667e-20  6.635419438443703e-01
-7.374212768738667e-20 -1.113525317872467e-17  2.581838609612738e-01
 6.635419438443703e-01  2.581838609612738e-01 -1.695592326091224e-17

-1.574726796515329e-17 -7.365105436462603e-20  6.635420763989672e-01
-7.365105436462603e-20 -1.113526111192672e-17  2.581890389607505e-01
 6.635420763989672e-01  2.581890389607505e-01 -1.695592640622006e-17

-1.574726483566424e-17 -7.356018219407453e-20  6.635422084628729e-01
-7.356018219407453e-20 -1.113526979141498e-17  2.581942051574167e-01
 6.635422084628729e-01  2.581942051574167e-01 -1.695592953988306e-17

-1.574726171774569e-17 -7.346954336300048e-20  6.635423400384690e-01
-7.346954336300048e-20 -1.113527822838143e-17  2.581993579415128e-01
 6.635423400384690e-01  2.581993579415128e-01 -1.695593266195773e-17

-1.574725861134168e-17 -7.337911418079684e-20  6.635424711281253e-01
-7.337911418079684e-20 -1.113528669562777e-17  2.582044990224175e-01
 6.635424711281253e-01  2.582044990224175e-01 -1.695593577250031e-17

-1.574725551639649e-17 -7.328891491443291e-20  6.635426017341917e-01
-7.328891491443291e-20 -1.113529470926463e-17  2.582096267899430e-01
 6.635426017341917e-01  2.582096267899430e-01 -1.695593887156660e-17

-1.574725243285490e-17 -7.319891611737304e-20  6.635427318590089e-01
-7.319891611737304e-20 -1.113530333735968e-17  2.582147429527848e-01
 6.635427318590089e-01  2.582147429527848e-01 -1.695594195921209e-17

-1.574724936066201e-17 -7.310915194798592e-20  6.635428615048971e-01
-7.310915194798592e-20 -1.113531126257391e-17  2.582198459005103e-01
 6.635428615048971e-01  2.582198459005103e-01 -1.695594503549189e-17

-1.574724629976319e-17 -7.301958991479339e-20  6.635429906741673e-01
-7.301958991479339e-20 -1.113531945724446e-17  2.582249373415172e-01
 6.635429906741673e-01  2.582249373415172e-01 -1.695594810046076e-17

-1.574724325010420e-17 -7.293024870434336e-20  6.635431193691123e-01
-7.293024870434336e-20 -1.113532766935138e-17  2.582300160798220e-01
 6.635431193691123e-01  2.582300160798220e-01 -1.695595115417321e-17

-1.574724021163128e-17 -7.284112388469849e-20  6.635432475920120e-01
-7.284112388469849e-20 -1.113533574869379e-17  2.582350821638652e-01
 6.635432475920120e-01  2.582350821638652e-01 -1.695595419668323e-17

-1.574723718429068e-17 -7.275220599123668e-20  6.635433753451323e-01
-7.275220599123668e-20 -1.113534385327971e-17  2.582401364717961e-01
 6.635433753451323e-01  2.582401364717961e-01 -1.695595722804466e-17

-1.574723416802933e-17 -7.266350086411399e-20  6.635435026307239e-01
-7.266350086411399e-20 -1.113535215595049e-17  2.582451786366872e-01
 6.635435026307239e-01  2.582451786366872e-01 -1.695596024831085e-17

-1.574723116279426e-17 -7.257500304328614e-20  6.635436294510216e-01
-7.257500304328614e-20 -1.113536025934033e-17  2.582502091213439e-01
 6.635436294510216e-01  2.582502091213439e-01 -1.695596325753494e-17

-1.574722816853300e-17 -7.248672550397869e-20  6.635437558082512e-01
-7.248672550397869e-20 -1.113536826666496e-17  2.582552267290921e-01
 6.635437558082512e-01  2.582552267290921e-01 -1.695596625576964e-17

-1.574722518519325e-17 -7.239865328498704e-20  6.635438817046211e-01
-7.239865328498704e-20 -1.113537635694273e-17  2.582602327518564e-01
 6.635438817046211e-01  2.582602327518564e-01 -1.695596924306739e-17

-1.574722221272319e-17 -7.231078489303278e-20  6.635440071423259e-01
-7.231078489303278e-20 -1.113538441547600e-17  2.582652268222829e-01
 6.635440071423259e-01  2.582652268222829e-01 -1.695597221948023e-17

-1.574721925107123e-17 -7.222312761785668e-20  6.635441321235463e-01
-7.222312761785668e-20 -1.113539229598540e-17  2.582702094025157e-01
 6.635441321235463e-01  2.582702094025157e-01 -1.695597518505999e-17

-1.574721630018604e-17 -7.213568339593102e-20  6.635442566504508e-01
-7.213568339593102e-20 -1.113540012019558e-17  2.582751792949403e-01
 6.635442566504508e-01  2.582751792949403e-01 -1.695597813985805e-17

-1.574721336001685e-17 -7.204844241688411e-20  6.635443807251935e-01
-7.204844241688411e-20 -1.113540790094046e-17  2.582801377909090e-01
 6.635443807251935e-01  2.582801377909090e-01 -1.695598108392555e-17

-1.574721043051301e-17 -7.196140185424659e-20  6.635445043499150e-01
-7.196140185424659e-20 -1.113541580352364e-17  2.582850849371581e-01
 6.635445043499150e-01  2.582850849371581e-01 -1.695598401731329e-17

-1.574720751162414e-17 -7.187457135041626e-20  6.635446275267427e-01
-7.187457135041626e-20 -1.113542387943588e-17  2.582900195357108e-01
 6.635446275267427e-01  2.582900195357108e-01 -1.695598694007172e-17

-1.574720460330036e-17 -7.178794019479913e-20  6.635447502577906e-01
-7.178794019479913e-20 -1.113543143042910e-17  2.582949432923352e-01
 6.635447502577906e-01  2.582949432923352e-01 -1.695598985225106e-17

-1.574720170549204e-17 -7.170152290547495e-20  6.635448725451586e-01
-7.170152290547495e-20 -1.113543906433927e-17  2.582998545937931e-01
 6.635448725451586e-01  2.582998545937931e-01 -1.695599275390108e-17

-1.574719881814978e-17 -7.161528856252878e-20  6.635449943909358e-01
-7.161528856252878e-20 -1.113544708599969e-17  2.583047551454961e-01
 6.635449943909358e-01  2.583047551454961e-01 -1.695599564507139e-17

-1.574719594122453e-17 -7.152927488258605e-20  6.635451157971962e-01
-7.152927488258605e-20 -1.113545484986219e-17  2.583096433339642e-01
 6.635451157971962e-01  2.583096433339642e-01 -1.695599852581117e-17

-1.574719307466760e-17 -7.144345317786830e-20  6.635452367660017e-01
-7.144345317786830e-20 -1.113546228483930e-17  2.583145208643097e-01
 6.635452367660017e-01  2.583145208643097e-01 -1.695600139616939e-17

-1.574719021843060e-17 -7.135783099268593e-20  6.635453572994005e-01
-7.135783099268593e-20 -1.113547023695441e-17  2.583193861225871e-01
 6.635453572994005e-01  2.583193861225871e-01 -1.695600425619463e-17

-1.574718737246533e-17 -7.127241236903142e-20  6.635454773994294e-01
-7.127241236903142e-20 -1.113547741468191e-17  2.583242408138264e-01
 6.635454773994294e-01  2.583242408138264e-01 -1.695600710593518e-17

-1.574718453672400e-17 -7.118718259698787e-20  6.635455970681117e-01
-7.118718259698787e-20 -1.113548525957439e-17  2.583290837384302e-01
 6.635455970681117e-01  2.583290837384302e-01 -1.695600994543915e-17

-1.574718171115912e-17 -7.110216277109066e-20  6.635457163074575e-01
-7.110216277109066e-20 -1.113549294153721e-17  2.583339149417070e-01
 6.635457163074575e-01  2.583339149417070e-01 -1.695601277475412e-17

-1.574717889572339e-17 -7.101732550428843e-20  6.635458351194654e-01
-7.101732550428843e-20 -1.113550078984658e-17  2.583387357130916e-01
 6.635458351194654e-01  2.583387357130916e-01 -1.695601559392760e-17

-1.574717609037001e-17 -7.093269891932337e-20  6.635459535061210e-01
-7.093269891932337e-20 -1.113550833289369e-17  2.583435444379151e-01
 6.635459535061210e-01  2.583435444379151e-01 -1.695601840300666e-17

-1.574717329505225e-17 -7.084825958854696e-20  6.635460714693993e-01
-7.084825958854696e-20 -1.113551548755304e-17  2.583483428202700e-01
 6.635460714693993e-01  2.583483428202700e-01 -1.695602120203820e-17

-1.574717050972374e-17 -7.076402074646598e-20  6.635461890112583e-01
-7.076402074646598e-20 -1.113552297720801e-17  2.583531292453024e-01
 6.635461890112583e-01  2.583531292453024e-01 -1.695602399106865e-17

-1.574716773433854e-17 -7.067996311894148e-20  6.635463061336498e-01
-7.067996311894148e-20 -1.113553048329973e-17  2.583579054166463e-01
 6.635463061336498e-01  2.583579054166463e-01 -1.695602677014436e-17

-1.574716496885082e-17 -7.059611549725495e-20  6.635464228385087e-01
-7.059611549725495e-20 -1.113553766282890e-17  2.583626697192316e-01
 6.635464228385087e-01  2.583626697192316e-01 -1.695602953931117e-17

-1.574716221321505e-17 -7.051244751774757e-20  6.635465391277614e-01
-7.051244751774757e-20 -1.113554512407505e-17  2.583674238564507e-01
 6.635465391277614e-01  2.583674238564507e-01 -1.695603229861489e-17

-1.574715946738612e-17 -7.042897800823872e-20  6.635466550033190e-01
-7.042897800823872e-20 -1.113555249974558e-17  2.583721662128905e-01
 6.635466550033190e-01  2.583721662128905e-01 -1.695603504810078e-17

-1.574715673131908e-17 -7.034568821073275e-20  6.635467704670839e-01
-7.034568821073275e-20 -1.113556009725374e-17  2.583768984917841e-01
 6.635467704670839e-01  2.583768984917841e-01 -1.695603778781401e-17

-1.574715400496933e-17 -7.026260111916579e-20  6.635468855209440e-01
-7.026260111916579e-20 -1.113556733591129e-17  2.583816190771592e-01
 6.635468855209440e-01  2.583816190771592e-01 -1.695604051779944e-17

-1.574715128829249e-17 -7.017969710851160e-20  6.635470001667766e-01
-7.017969710851160e-20 -1.113557472474160e-17  2.583863292573579e-01
 6.635470001667766e-01  2.583863292573579e-01 -1.695604323810151e-17

-1.574714858124448e-17 -7.009697835630944e-20  6.635471144064482e-01
-7.009697835630944e-20 -1.113558169899938e-17  2.583910290756524e-01
 6.635471144064482e-01  2.583910290756524e-01 -1.695604594876463e-17

-1.574714588378145e-17 -7.001445798349955e-20  6.635472282418128e-01
-7.001445798349955e-20 -1.113558900326977e-17  2.583957173308053e-01
 6.635472282418128e-01  2.583957173308053e-01 -1.695604864983263e-17

-1.574714319586006e-17 -6.993211503717454e-20  6.635473416747116e-01
-6.993211503717454e-20 -1.113559612790530e-17  2.584003953103969e-01
 6.635473416747116e-01  2.584003953103969e-01 -1.695605134134937e-17

-1.574714051743685e-17 -6.984995792950335e-20  6.635474547069764e-01
-6.984995792950335e-20 -1.113560363665734e-17  2.584050626427823e-01
 6.635474547069764e-01  2.584050626427823e-01 -1.695605402335818e-17

-1.574713784846898e-17 -6.976798455011383e-20  6.635475673404281e-01
-6.976798455011383e-20 -1.113561060246966e-17  2.584097197855035e-01
 6.635475673404281e-01  2.584097197855035e-01 -1.695605669590239e-17

-1.574713518891359e-17 -6.968620589317722e-20  6.635476795768733e-01
-6.968620589317722e-20 -1.113561776090214e-17  2.584143655367008e-01
 6.635476795768733e-01  2.584143655367008e-01 -1.695605935902473e-17

-1.574713253872843e-17 -6.960460166066896e-20  6.635477914181090e-01
-6.960460166066896e-20 -1.113562518615098e-17  2.584190011837830e-01
 6.635477914181090e-01  2.584190011837830e-01 -1.695606201276800e-17

-1.574712989787114e-17 -6.952318114176078e-20  6.635479028659222e-01
-6.952318114176078e-20 -1.113563195332407e-17  2.584236267690944e-01
 6.635479028659222e-01  2.584236267690944e-01 -1.695606465717446e-17

-1.574712726629989e-17 -6.944195143313772e-20  6.635480139220868e-01
-6.944195143313772e-20 -1.113563906898905e-17  2.584282410905987e-01
 6.635480139220868e-01  2.584282410905987e-01 -1.695606729228628e-17

-1.574712464397304e-17 -6.936089093162115e-20  6.635481245883681e-01
-6.936089093162115e-20 -1.113564600278396e-17  2.584328458498400e-01
 6.635481245883681e-01  2.584328458498400e-01 -1.695606991814533e-17

-1.574712203084916e-17 -6.928001995302416e-20  6.635482348665160e-01
-6.928001995302416e-20 -1.113565329005448e-17  2.584374394296534e-01
 6.635482348665160e-01  2.584374394296534e-01 -1.695607253479314e-17

-1.574711942688718e-17 -6.919932671059551e-20  6.635483447582754e-01
-6.919932671059551e-20 -1.113566000657000e-17  2.584420235315265e-01
 6.635483447582754e-01  2.584420235315265e-01 -1.695607514227109e-17

-1.574711683204614e-17 -6.911881793304100e-20  6.635484542653752e-01
-6.911881793304100e-20 -1.113566701889870e-17  2.584465965378504e-01
 6.635484542653752e-01  2.584465965378504e-01 -1.695607774062023e-17

-1.574711424628545e-17 -6.903847583998089e-20  6.635485633895369e-01
-6.903847583998089e-20 -1.113567399001839e-17  2.584511601499502e-01
 6.635485633895369e-01  2.584511601499502e-01 -1.695608032988140e-17

-1.574711166956485e-17 -6.895832835594884e-20  6.635486721324696e-01
-6.895832835594884e-20 -1.113568066461340e-17  2.584557127501168e-01
 6.635486721324696e-01  2.584557127501168e-01 -1.695608291009517e-17

-1.574710910184406e-17 -6.887834184999031e-20  6.635487804958720e-01
-6.887834184999031e-20 -1.113568781698559e-17  2.584602560391856e-01
 6.635487804958720e-01  2.584602560391856e-01 -1.695608548130180e-17

-1.574710654308332e-17 -6.879853948852467e-20  6.635488884814325e-01
-6.879853948852467e-20 -1.113569490480069e-17  2.584647883995457e-01
 6.635488884814325e-01  2.584647883995457e-01 -1.695608804354140e-17

-1.574710399324305e-17 -6.871891252426964e-20  6.635489960908294e-01
-6.871891252426964e-20 -1.113570132269065e-17  2.584693115319010e-01
 6.635489960908294e-01  2.584693115319010e-01 -1.695609059685380e-17

-1.574710145228386e-17 -6.863946361463162e-20  6.635491033257290e-01
-6.863946361463162e-20 -1.113570828806715e-17  2.584738238178712e-01
 6.635491033257290e-01  2.584738238178712e-01 -1.695609314127852e-17

-1.574709892016660e-17 -6.856018331241319e-20  6.635492101877895e-01
-6.856018331241319e-20 -1.113571541534743e-17  2.584783265434848e-01
 6.635492101877895e-01  2.584783265434848e-01 -1.695609567685486e-17

-1.574709639685251e-17 -6.848108032259133e-20  6.635493166786569e-01
-6.848108032259133e-20 -1.113572158502629e-17  2.584828197497511e-01
 6.635493166786569e-01  2.584828197497511e-01 -1.695609820362198e-17

-1.574709388230281e-17 -6.840214868920250e-20  6.635494227999664e-01
-6.840214868920250e-20 -1.113572883897690e-17  2.584873022329260e-01
 6.635494227999664e-01  2.584873022329260e-01 -1.695610072161859e-17

-1.574709137647933e-17 -6.832338444501825e-20  6.635495285533456e-01
-6.832338444501825e-20 -1.113573552741176e-17  2.584917756935789e-01
 6.635495285533456e-01  2.584917756935789e-01 -1.695610323088336e-17

-1.574708887934378e-17 -6.824480775380903e-20  6.635496339404098e-01
-6.824480775380903e-20 -1.113574208726359e-17  2.584962385130085e-01
 6.635496339404098e-01  2.584962385130085e-01 -1.695610573145460e-17

-1.574708639085836e-17 -6.816638582634155e-20  6.635497389627656e-01
-6.816638582634155e-20 -1.113574865428485e-17  2.585006923910595e-01
 6.635497389627656e-01  2.585006923910595e-01 -1.695610822337047e-17

-1.574708391098543e-17 -6.808814747640308e-20  6.635498436220084e-01
-6.808814747640308e-20 -1.113575519593311e-17  2.585051357092953e-01
 6.635498436220084e-01  2.585051357092953e-01 -1.695611070666876e-17

-1.574708143968746e-17 -6.801006121525258e-20  6.635499479197234e-01
-6.801006121525258e-20 -1.113576200300636e-17  2.585095701673483e-01
 6.635499479197234e-01  2.585095701673483e-01 -1.695611318138713e-17

-1.574707897692739e-17 -6.793215171131294e-20  6.635500518574868e-01
-6.793215171131294e-20 -1.113576869570421e-17  2.585139945613719e-01
 6.635500518574868e-01  2.585139945613719e-01 -1.695611564756299e-17

-1.574707652266825e-17 -6.785441436868127e-20  6.635501554368651e-01
-6.785441436868127e-20 -1.113577550858531e-17  2.585184089314552e-01
 6.635501554368651e-01  2.585184089314552e-01 -1.695611810523343e-17

-1.574707407687338e-17 -6.777683791802028e-20  6.635502586594141e-01
-6.777683791802028e-20 -1.113578177773315e-17  2.585228145624735e-01
 6.635502586594141e-01  2.585228145624735e-01 -1.695612055443553e-17

-1.574707163950618e-17 -6.769943693941462e-20  6.635503615266806e-01
-6.769943693941462e-20 -1.113578824558410e-17  2.585272098350818e-01
 6.635503615266806e-01  2.585272098350818e-01 -1.695612299520579e-17

-1.574706921053056e-17 -6.762219394508590e-20  6.635504640402005e-01
-6.762219394508590e-20 -1.113579468773031e-17  2.585315964490325e-01
 6.635504640402005e-01  2.585315964490325e-01 -1.695612542758085e-17

-1.574706678991042e-17 -6.754512194112168e-20  6.635505662015019e-01
-6.754512194112168e-20 -1.113580132551611e-17  2.585359727846920e-01
 6.635505662015019e-01  2.585359727846920e-01 -1.695612785159682e-17

-1.574706437761001e-17 -6.746820190502946e-20  6.635506680121018e-01
-6.746820190502946e-20 -1.113580787957465e-17  2.585403405415090e-01
 6.635506680121018e-01  2.585403405415090e-01 -1.695613026728979e-17

-1.574706197359380e-17 -6.739146413609417e-20  6.635507694735081e-01
-6.739146413609417e-20 -1.113581426727508e-17  2.585446980997673e-01
 6.635507694735081e-01  2.585446980997673e-01 -1.695613267469548e-17

-1.574705957782646e-17 -6.731487250192406e-20  6.635508705872206e-01
-6.731487250192406e-20 -1.113582068191015e-17  2.585490471588501e-01
 6.635508705872206e-01  2.585490471588501e-01 -1.695613507384954e-17

-1.574705719027286e-17 -6.723845405794182e-20  6.635509713547260e-01
-6.723845405794182e-20 -1.113582731230880e-17  2.585533860987218e-01
 6.635509713547260e-01  2.585533860987218e-01 -1.695613746478718e-17

-1.574705481089818e-17 -6.716219352396107e-20  6.635510717775058e-01
-6.716219352396107e-20 -1.113583334480074e-17  2.585577166186380e-01
 6.635510717775058e-01  2.585577166186380e-01 -1.695613984754363e-17

-1.574705243966776e-17 -6.708609255468710e-20  6.635511718570292e-01
-6.708609255468710e-20 -1.113583969693539e-17  2.585620375135659e-01
 6.635511718570292e-01  2.585620375135659e-01 -1.695614222215372e-17

-1.574705007654713e-17 -6.701015778201123e-20  6.635512715947579e-01
-6.701015778201123e-20 -1.113584614078901e-17  2.585663488228924e-01
 6.635512715947579e-01  2.585663488228924e-01 -1.695614458865206e-17

-1.574704772150216e-17 -6.693437602773544e-20  6.635513709921437e-01
-6.693437602773544e-20 -1.113585224247789e-17  2.585706518306208e-01
 6.635513709921437e-01  2.585706518306208e-01 -1.695614694707324e-17

-1.574704537449881e-17 -6.685876217515715e-20  6.635514700506295e-01
-6.685876217515715e-20 -1.113585857497761e-17  2.585749449166448e-01
 6.635514700506295e-01  2.585749449166448e-01 -1.695614929745138e-17

-1.574704303550337e-17 -6.678329439706818e-20  6.635515687716470e-01
-6.678329439706818e-20 -1.113586494734836e-17  2.585792297796633e-01
 6.635515687716470e-01  2.585792297796633e-01 -1.695615163982054e-17

-1.574704070448226e-17 -6.670799037351047e-20  6.635516671566234e-01
-6.670799037351047e-20 -1.113587121375872e-17  2.585835047994463e-01
 6.635516671566234e-01  2.585835047994463e-01 -1.695615397421452e-17

-1.574703838140216e-17 -6.663283695423532e-20  6.635517652069718e-01
-6.663283695423532e-20 -1.113587782786609e-17  2.585877716744528e-01
 6.635517652069718e-01  2.585877716744528e-01 -1.695615630066692e-17

-1.574703606622994e-17 -6.655784902128639e-20  6.635518629240990e-01
-6.655784902128639e-20 -1.113588403120950e-17  2.585920287843633e-01
 6.635518629240990e-01  2.585920287843633e-01 -1.695615861921103e-17

-1.574703375893280e-17 -6.648301483496947e-20  6.635519603094038e-01
-6.648301483496947e-20 -1.113588996558427e-17  2.585962778278741e-01
 6.635519603094038e-01  2.585962778278741e-01 -1.695616092988015e-17

-1.574703145947795e-17 -6.640832885962109e-20  6.635520573642740e-01
-6.640832885962109e-20 -1.113589630990297e-17  2.586005175989839e-01
 6.635520573642740e-01  2.586005175989839e-01 -1.695616323270713e-17

-1.574702916783295e-17 -6.633380804648536e-20  6.635521540900885e-01
-6.633380804648536e-20 -1.113590239502962e-17  2.586047481367818e-01
 6.635521540900885e-01  2.586047481367818e-01 -1.695616552772471e-17

-1.574702688396558e-17 -6.625943250543527e-20  6.635522504882184e-01
-6.625943250543527e-20 -1.113590853628570e-17  2.586089707246669e-01
 6.635522504882184e-01  2.586089707246669e-01 -1.695616781496549e-17

-1.574702460784376e-17 -6.618521606780064e-20  6.635523465600269e-01
-6.618521606780064e-20 -1.113591457317459e-17  2.586131837418525e-01
 6.635523465600269e-01  2.586131837418525e-01 -1.695617009446173e-17

-1.574702233943570e-17 -6.611114083387958e-20  6.635524423068662e-01
-6.611114083387958e-20 -1.113592081174825e-17  2.586173888867306e-01
 6.635524423068662e-01  2.586173888867306e-01 -1.695617236624556e-17

-1.574702007870976e-17 -6.603723333354884e-20  6.635525377300819e-01
-6.603723333354884e-20 -1.113592658627113e-17  2.586215845383909e-01
 6.635525377300819e-01  2.586215845383909e-01 -1.695617463034890e-17

-1.574701782563452e-17 -6.596345975252718e-20  6.635526328310095e-01
-6.596345975252718e-20 -1.113593263161688e-17  2.586257723948666e-01
 6.635526328310095e-01  2.586257723948666e-01 -1.695617688680349e-17

-1.574701558017872e-17 -6.588984852901964e-20  6.635527276109777e-01
-6.588984852901964e-20 -1.113593889428596e-17  2.586299508353805e-01
 6.635527276109777e-01  2.586299508353805e-01 -1.695617913564075e-17

-1.574701334231149e-17 -6.581637777738672e-20  6.635528220713036e-01
-6.581637777738672e-20 -1.113594469122156e-17  2.586341215577411e-01
 6.635528220713036e-01  2.586341215577411e-01 -1.695618137689207e-17

-1.574701111200193e-17 -6.574306137786173e-20  6.635529162132989e-01
-6.574306137786173e-20 -1.113595093980639e-17  2.586382829410732e-01
 6.635529162132989e-01  2.586382829410732e-01 -1.695618361058849e-17

-1.574700888921947e-17 -6.566988788475450e-20  6.635530100382656e-01
-6.566988788475450e-20 -1.113595670552789e-17  2.586424366833596e-01
 6.635530100382656e-01  2.586424366833596e-01 -1.695618583676093e-17

-1.574700667393375e-17 -6.559686279280603e-20  6.635531035474975e-01
-6.559686279280603e-20 -1.113596275961869e-17  2.586465815783643e-01
 6.635531035474975e-01  2.586465815783643e-01 -1.695618805544011e-17

-1.574700446611455e-17 -6.552399681097146e-20  6.635531967422799e-01
-6.552399681097146e-20 -1.113596841859363e-17  2.586507176643506e-01
 6.635531967422799e-01  2.586507176643506e-01 -1.695619026665644e-17

-1.574700226573199e-17 -6.545125808860443e-20  6.635532896238888e-01
-6.545125808860443e-20 -1.113597447278911e-17  2.586548462242118e-01
 6.635532896238888e-01  2.586548462242118e-01 -1.695619247044040e-17

-1.574700007275611e-17 -6.537867987953866e-20  6.635533821935936e-01
-6.537867987953866e-20 -1.113598046692357e-17  2.586589656368516e-01
 6.635533821935936e-01  2.586589656368516e-01 -1.695619466682188e-17

-1.574699788715759e-17 -6.530623346674835e-20  6.635534744526548e-01
-6.530623346674835e-20 -1.113598638003954e-17  2.586630775998144e-01
 6.635534744526548e-01  2.586630775998144e-01 -1.695619685583100e-17

-1.574699570890683e-17 -6.523394219253879e-20  6.635535664023248e-01
-6.523394219253879e-20 -1.113599214119391e-17  2.586671804920788e-01
 6.635535664023248e-01  2.586671804920788e-01 -1.695619903749731e-17

-1.574699353797475e-17 -6.516178828518547e-20  6.635536580438471e-01
-6.516178828518547e-20 -1.113599802264518e-17  2.586712760109913e-01
 6.635536580438471e-01  2.586712760109913e-01 -1.695620121185045e-17

-1.574699137433235e-17 -6.508978028594797e-20  6.635537493784571e-01
-6.508978028594797e-20 -1.113600395341214e-17  2.586753625353465e-01
 6.635537493784571e-01  2.586753625353465e-01 -1.695620337891965e-17

-1.574698921795085e-17 -6.501790967500141e-20  6.635538404073840e-01
-6.501790967500141e-20 -1.113600954011797e-17  2.586794417627042e-01
 6.635538404073840e-01  2.586794417627042e-01 -1.695620553873415e-17

-1.574698706880175e-17 -6.494618964679308e-20  6.635539311318467e-01
-6.494618964679308e-20 -1.113601504762828e-17  2.586835120717015e-01
 6.635539311318467e-01  2.586835120717015e-01 -1.695620769132283e-17

-1.574698492685646e-17 -6.487459773339301e-20  6.635540215530570e-01
-6.487459773339301e-20 -1.113602105019002e-17  2.586875751597352e-01
 6.635540215530570e-01  2.586875751597352e-01 -1.695620983671447e-17

-1.574698279208708e-17 -6.480315324974438e-20  6.635541116722191e-01
-6.480315324974438e-20 -1.113602683116549e-17  2.586916298202553e-01
 6.635541116722191e-01  2.586916298202553e-01 -1.695621197493765e-17

-1.574698066446535e-17 -6.473185326208868e-20  6.635542014905282e-01
-6.473185326208868e-20 -1.113603253123759e-17  2.586956760911660e-01
 6.635542014905282e-01  2.586956760911660e-01 -1.695621410602068e-17

-1.574697854396361e-17 -6.466067976936463e-20  6.635542910091720e-01
-6.466067976936463e-20 -1.113603832064365e-17  2.586997152552113e-01
 6.635542910091720e-01  2.586997152552113e-01 -1.695621622999189e-17

-1.574697643055426e-17 -6.458965901924423e-20  6.635543802293324e-01
-6.458965901924423e-20 -1.113604373018883e-17  2.587037456906714e-01
 6.635543802293324e-01  2.587037456906714e-01 -1.695621834687917e-17

-1.574697432420980e-17 -6.451875831887588e-20  6.635544691521792e-01
-6.451875831887588e-20 -1.113604969561518e-17  2.587077690949575e-01
 6.635544691521792e-01  2.587077690949575e-01 -1.695622045671038e-17

-1.574697222490309e-17 -6.444801057585169e-20  6.635545577788783e-01
-6.444801057585169e-20 -1.113605529180929e-17  2.587117838464627e-01
 6.635545577788783e-01  2.587117838464627e-01 -1.695622255951314e-17

-1.574697013260707e-17 -6.437738526664426e-20  6.635546461105863e-01
-6.437738526664426e-20 -1.113606085128870e-17  2.587157916427050e-01
 6.635546461105863e-01  2.587157916427050e-01 -1.695622465531496e-17

-1.574696804729487e-17 -6.430690904675410e-20  6.635547341484508e-01
-6.430690904675410e-20 -1.113606639203623e-17  2.587197908618267e-01
 6.635547341484508e-01  2.587197908618267e-01 -1.695622674414301e-17

-1.574696596893994e-17 -6.423655144796139e-20  6.635548218936144e-01
-6.423655144796139e-20 -1.113607187316649e-17  2.587237832012118e-01
 6.635548218936144e-01  2.587237832012118e-01 -1.695622882602447e-17

-1.574696389751575e-17 -6.416633614718181e-20  6.635549093472104e-01
-6.416633614718181e-20 -1.113607755238649e-17  2.587277674540990e-01
 6.635549093472104e-01  2.587277674540990e-01 -1.695623090098622e-17

-1.574696183299604e-17 -6.409625964175435e-20  6.635549965103652e-01
-6.409625964175435e-20 -1.113608297448196e-17  2.587317436583517e-01
 6.635549965103652e-01  2.587317436583517e-01 -1.695623296905492e-17

-1.574695977535476e-17 -6.402630327016269e-20  6.635550833841953e-01
-6.402630327016269e-20 -1.113608858947766e-17  2.587357130961793e-01
 6.635550833841953e-01  2.587357130961793e-01 -1.695623503025726e-17

-1.574695772456598e-17 -6.395649707754159e-20  6.635551699698137e-01
-6.395649707754159e-20 -1.113609397345913e-17  2.587396741460313e-01
 6.635551699698137e-01  2.587396741460313e-01 -1.695623708461943e-17

-1.574695568060407e-17 -6.388680201243192e-20  6.635552562683221e-01
-6.388680201243192e-20 -1.113609953834877e-17  2.587436285050435e-01
 6.635552562683221e-01  2.587436285050435e-01 -1.695623913216775e-17

-1.574695364344348e-17 -6.381725534386470e-20  6.635553422808175e-01
-6.381725534386470e-20 -1.113610496271437e-17  2.587475745515641e-01
 6.635553422808175e-01  2.587475745515641e-01 -1.695624117292818e-17

-1.574695161305885e-17 -6.374782323633018e-20  6.635554280083870e-01
-6.374782323633018e-20 -1.113611061643165e-17  2.587515139828597e-01
 6.635554280083870e-01  2.587515139828597e-01 -1.695624320692655e-17

-1.574694958942516e-17 -6.367853602981152e-20  6.635555134521123e-01
-6.367853602981152e-20 -1.113611583120925e-17  2.587554451770062e-01
 6.635555134521123e-01  2.587554451770062e-01 -1.695624523418853e-17

-1.574694757251729e-17 -6.360936490930723e-20  6.635555986130666e-01
-6.360936490930723e-20 -1.113612130902024e-17  2.587593698315241e-01
 6.635555986130666e-01  2.587593698315241e-01 -1.695624725473960e-17

-1.574694556231063e-17 -6.354032642933615e-20  6.635556834923163e-01
-6.354032642933615e-20 -1.113612691709633e-17  2.587632863242987e-01
 6.635556834923163e-01  2.587632863242987e-01 -1.695624926860507e-17

-1.574694355878054e-17 -6.347141359924993e-20  6.635557680909192e-01
-6.347141359924993e-20 -1.113613222552376e-17  2.587671963528691e-01
 6.635557680909192e-01  2.587671963528691e-01 -1.695625127581006e-17

-1.574694156190265e-17 -6.340262962479063e-20  6.635558524099278e-01
-6.340262962479063e-20 -1.113613744763701e-17  2.587710987101131e-01
 6.635558524099278e-01  2.587710987101131e-01 -1.695625327637956e-17

-1.574693957165274e-17 -6.333397749459749e-20  6.635559364503862e-01
-6.333397749459749e-20 -1.113614296749539e-17  2.587749934339064e-01
 6.635559364503862e-01  2.587749934339064e-01 -1.695625527033831e-17

-1.574693758800680e-17 -6.326543952052858e-20  6.635560202133307e-01
-6.326543952052858e-20 -1.113614829979366e-17  2.587788818065650e-01
 6.635560202133307e-01  2.587788818065650e-01 -1.695625725771098e-17

-1.574693561094100e-17 -6.319703500044861e-20  6.635561036997913e-01
-6.319703500044861e-20 -1.113615365490807e-17  2.587827622063689e-01
 6.635561036997913e-01  2.587827622063689e-01 -1.695625923852200e-17

-1.574693364043166e-17 -6.312874860317235e-20  6.635561869107902e-01
-6.312874860317235e-20 -1.113615868845523e-17  2.587866363303650e-01
 6.635561869107902e-01  2.587866363303650e-01 -1.695626121279563e-17

-1.574693167645533e-17 -6.306059334306615e-20  6.635562698473436e-01
-6.306059334306615e-20 -1.113616411477227e-17  2.587905025570483e-01
 6.635562698473436e-01  2.587905025570483e-01 -1.695626318055597e-17

-1.574692971898880e-17 -6.299255015781659e-20  6.635563525104593e-01
-6.299255015781659e-20 -1.113616944768918e-17  2.587943625835184e-01
 6.635563525104593e-01  2.587943625835184e-01 -1.695626514182703e-17

-1.574692776800884e-17 -6.292463824501479e-20  6.635564349011372e-01
-6.292463824501479e-20 -1.113617455732231e-17  2.587982147880604e-01
 6.635564349011372e-01  2.587982147880604e-01 -1.695626709663245e-17

-1.574692582349260e-17 -6.285684157086074e-20  6.635565170203727e-01
-6.285684157086074e-20 -1.113617970039670e-17  2.588020608678502e-01
 6.635565170203727e-01  2.588020608678502e-01 -1.695626904499595e-17

-1.574692388541745e-17 -6.278916841862835e-20  6.635565988691526e-01
-6.278916841862835e-20 -1.113618482112161e-17  2.588058996162296e-01
 6.635565988691526e-01  2.588058996162296e-01 -1.695627098694094e-17

-1.574692195376065e-17 -6.272161799628617e-20  6.635566804484563e-01
-6.272161799628617e-20 -1.113619033083297e-17  2.588097310709371e-01
 6.635566804484563e-01  2.588097310709371e-01 -1.695627292249061e-17

-1.574692002850002e-17 -6.265418208169544e-20  6.635567617592570e-01
-6.265418208169544e-20 -1.113619509871889e-17  2.588135565143744e-01
 6.635567617592570e-01  2.588135565143744e-01 -1.695627485166819e-17

-1.574691810961327e-17 -6.258686985792333e-20  6.635568428025213e-01
-6.258686985792333e-20 -1.113620059313229e-17  2.588173743246725e-01
 6.635568428025213e-01  2.588173743246725e-01 -1.695627677449648e-17

-1.574691619707845e-17 -6.251967137549848e-20  6.635569235792059e-01
-6.251967137549848e-20 -1.113620552395979e-17  2.588211861995598e-01
 6.635569235792059e-01  2.588211861995598e-01 -1.695627869099840e-17

-1.574691429087375e-17 -6.245259718165017e-20  6.635570040902659e-01
-6.245259718165017e-20 -1.113621073091056e-17  2.588249905169742e-01
 6.635570040902659e-01  2.588249905169742e-01 -1.695628060119644e-17

-1.574691239097754e-17 -6.238562744245392e-20  6.635570843366444e-01
-6.238562744245392e-20 -1.113621602340754e-17  2.588287889745187e-01
 6.635570843366444e-01  2.588287889745187e-01 -1.695628250511315e-17

-1.574691049736843e-17 -6.231878708063580e-20  6.635571643192810e-01
-6.231878708063580e-20 -1.113622073869475e-17  2.588325799506266e-01
 6.635571643192810e-01  2.588325799506266e-01 -1.695628440277071e-17

-1.574690861002506e-17 -6.225205152261690e-20  6.635572440391060e-01
-6.225205152261690e-20 -1.113622611068593e-17  2.588363651424188e-01
 6.635572440391060e-01  2.588363651424188e-01 -1.695628629419135e-17

-1.574690672892643e-17 -6.218543933654088e-20  6.635573234970453e-01
-6.218543933654088e-20 -1.113623110946483e-17  2.588401429286786e-01
 6.635573234970453e-01  2.588401429286786e-01 -1.695628817939693e-17

-1.574690485405164e-17 -6.211893331645603e-20  6.635574026940153e-01
-6.211893331645603e-20 -1.113623591896032e-17  2.588439150067482e-01
 6.635574026940153e-01  2.588439150067482e-01 -1.695629005840937e-17

-1.574690298538002e-17 -6.205254206957284e-20  6.635574816309273e-01
-6.205254206957284e-20 -1.113624128690520e-17  2.588476801697114e-01
 6.635574816309273e-01  2.588476801697114e-01 -1.695629193125021e-17

-1.574690112289094e-17 -6.198627532441235e-20  6.635575603086874e-01
-6.198627532441235e-20 -1.113624589392208e-17  2.588514384559498e-01
 6.635575603086874e-01  2.588514384559498e-01 -1.695629379794094e-17

-1.574689926656421e-17 -6.192010244223199e-20  6.635576387281903e-01
-6.192010244223199e-20 -1.113625119919134e-17  2.588551911479230e-01
 6.635576387281903e-01  2.588551911479230e-01 -1.695629565850298e-17

-1.574689741637959e-17 -6.185406024805767e-20  6.635577168903296e-01
-6.185406024805767e-20 -1.113625598804872e-17  2.588589366242133e-01
 6.635577168903296e-01  2.588589366242133e-01 -1.695629751295739e-17

-1.574689557231714e-17 -6.178810911927256e-20  6.635577947959870e-01
-6.178810911927256e-20 -1.113626112285946e-17  2.588626765822930e-01
 6.635577947959870e-01  2.588626765822930e-01 -1.695629936132524e-17

-1.574689373435714e-17 -6.172228568355919e-20  6.635578724460425e-01
-6.172228568355919e-20 -1.113626588396224e-17  2.588664094010387e-01
 6.635578724460425e-01  2.588664094010387e-01 -1.695630120362738e-17

-1.574689190247991e-17 -6.165655754441105e-20  6.635579498413655e-01
-6.165655754441105e-20 -1.113627086172105e-17  2.588701367778253e-01
 6.635579498413655e-01  2.588701367778253e-01 -1.695630303988447e-17

-1.574689007666614e-17 -6.159094747149932e-20  6.635580269828204e-01
-6.159094747149932e-20 -1.113627571258780e-17  2.588738570914403e-01
 6.635580269828204e-01  2.588738570914403e-01 -1.695630487011708e-17

-1.574688825689655e-17 -6.152544008145410e-20  6.635581038712650e-01
-6.152544008145410e-20 -1.113628062132401e-17  2.588775720397115e-01
 6.635581038712650e-01  2.588775720397115e-01 -1.695630669434556e-17

-1.574688644315218e-17 -6.146003864736781e-20  6.635581805075510e-01
-6.146003864736781e-20 -1.113628553198421e-17  2.588812804161086e-01
 6.635581805075510e-01  2.588812804161086e-01 -1.695630851259022e-17

-1.574688463541420e-17 -6.139475489937715e-20  6.635582568925219e-01
-6.139475489937715e-20 -1.113629044735426e-17  2.588849822590246e-01
 6.635582568925219e-01  2.588849822590246e-01 -1.695631032487103e-17

-1.574688283366390e-17 -6.132956682690226e-20  6.635583330270166e-01
-6.132956682690226e-20 -1.113629525876954e-17  2.588886788511928e-01
 6.635583330270166e-01  2.588886788511928e-01 -1.695631213120803e-17

-1.574688103788288e-17 -6.126448968832915e-20  6.635584089118662e-01
-6.126448968832915e-20 -1.113630014208576e-17  2.588923685718535e-01
 6.635584089118662e-01  2.588923685718535e-01 -1.695631393162086e-17

-1.574687924805292e-17 -6.119950940300299e-20  6.635584845478957e-01
-6.119950940300299e-20 -1.113630475282089e-17  2.588960531184253e-01
 6.635584845478957e-01  2.588960531184253e-01 -1.695631572612924e-17

-1.574687746415590e-17 -6.113464466596870e-20  6.635585599359241e-01
-6.113464466596870e-20 -1.113630956310839e-17  2.588997308702897e-01
 6.635585599359241e-01  2.588997308702897e-01 -1.695631751475257e-17

-1.574687568617397e-17 -6.106987154446678e-20  6.635586350767636e-01
-6.106987154446678e-20 -1.113631445585614e-17  2.589034035250954e-01
 6.635586350767636e-01  2.589034035250954e-01 -1.695631929751023e-17

-1.574687391408944e-17 -6.100520872230170e-20  6.635587099712181e-01
-6.100520872230170e-20 -1.113631918441562e-17  2.589070694619457e-01
 6.635587099712181e-01  2.589070694619457e-01 -1.695632107442130e-17

-1.574687214788493e-17 -6.094064262691569e-20  6.635587846200893e-01
-6.094064262691569e-20 -1.113632401577512e-17  2.589107303791557e-01
 6.635587846200893e-01  2.589107303791557e-01 -1.695632284550488e-17

-1.574687038754302e-17 -6.087618469786548e-20  6.635588590241698e-01
-6.087618469786548e-20 -1.113632868180101e-17  2.589143846555054e-01
 6.635588590241698e-01  2.589143846555054e-01 -1.695632461077977e-17

-1.574686863304673e-17 -6.081181819131563e-20  6.635589331842441e-01
-6.081181819131563e-20 -1.113633329502860e-17  2.589180339892379e-01
 6.635589331842441e-01  2.589180339892379e-01 -1.695632637026470e-17

-1.574686688437917e-17 -6.074755677187415e-20  6.635590071010946e-01
-6.074755677187415e-20 -1.113633819811109e-17  2.589216771746441e-01
 6.635590071010946e-01  2.589216771746441e-01 -1.695632812397825e-17

-1.574686514152364e-17 -6.068339993539188e-20  6.635590807754944e-01
-6.068339993539188e-20 -1.113634256460246e-17  2.589253142501871e-01
 6.635590807754944e-01  2.589253142501871e-01 -1.695632987193879e-17

-1.574686340446363e-17 -6.061933144831136e-20  6.635591542082100e-01
-6.061933144831136e-20 -1.113634753809580e-17  2.589289464994801e-01
 6.635591542082100e-01  2.589289464994801e-01 -1.695633161416465e-17

-1.574686167318301e-17 -6.055537090135110e-20  6.635592274000043e-01
-6.055537090135110e-20 -1.113635202692846e-17  2.589325723018824e-01
 6.635592274000043e-01  2.589325723018824e-01 -1.695633335067392e-17

-1.574685994766553e-17 -6.049149448071291e-20  6.635593003516319e-01
-6.049149448071291e-20 -1.113635670934615e-17  2.589361933556358e-01
 6.635593003516319e-01  2.589361933556358e-01 -1.695633508148457e-17

-1.574685822789555e-17 -6.042773152726668e-20  6.635593730638401e-01
-6.042773152726668e-20 -1.113636122098034e-17  2.589398080404633e-01
 6.635593730638401e-01  2.589398080404633e-01 -1.695633680661444e-17

-1.574685651385726e-17 -6.036404812809789e-20  6.635594455373732e-01
-6.036404812809789e-20 -1.113636563694564e-17  2.589434180544988e-01
 6.635594455373732e-01  2.589434180544988e-01 -1.695633852608122e-17

-1.574685480553532e-17 -6.030046906514945e-20  6.635595177729660e-01
-6.030046906514945e-20 -1.113637051916637e-17  2.589470217776995e-01
 6.635595177729660e-01  2.589470217776995e-01 -1.695634023990242e-17

-1.574685310291450e-17 -6.023698129107263e-20  6.635595897713490e-01
-6.023698129107263e-20 -1.113637513444894e-17  2.589506209084463e-01
 6.635595897713490e-01  2.589506209084463e-01 -1.695634194809543e-17

-1.574685140597986e-17 -6.017358617596746e-20  6.635596615332466e-01
-6.017358617596746e-20 -1.113637966984314e-17  2.589542142413295e-01
 6.635596615332466e-01  2.589542142413295e-01 -1.695634365067760e-17

-1.574684971471651e-17 -6.011029217056392e-20  6.635597330593768e-01
-6.011029217056392e-20 -1.113638431704242e-17  2.589578018156762e-01
 6.635597330593768e-01  2.589578018156762e-01 -1.695634534766584e-17

-1.574684802911002e-17 -6.004707460575337e-20  6.635598043504488e-01
-6.004707460575337e-20 -1.113638884944761e-17  2.589613849152677e-01
 6.635598043504488e-01  2.589613849152677e-01 -1.695634703907730e-17

-1.574684634914600e-17 -5.998396688364020e-20  6.635598754071708e-01
-5.998396688364020e-20 -1.113639314624312e-17  2.589649619200871e-01
 6.635598754071708e-01  2.589649619200871e-01 -1.695634872492867e-17

-1.574684467481042e-17 -5.992093468871839e-20  6.635599462302392e-01
-5.992093468871839e-20 -1.113639788652547e-17  2.589685345289381e-01
 6.635599462302392e-01  2.589685345289381e-01 -1.695635040523672e-17

-1.574684300608933e-17 -5.985800593573978e-20  6.635600168203503e-01
-5.985800593573978e-20 -1.113640226271147e-17  2.589721011219726e-01
 6.635600168203503e-01  2.589721011219726e-01 -1.695635208001790e-17

-1.574684134296921e-17 -5.979515323252004e-20  6.635600871781886e-01
-5.979515323252004e-20 -1.113640674768594e-17  2.589756633979706e-01
 6.635600871781886e-01  2.589756633979706e-01 -1.695635374928870e-17

-1.574683968543662e-17 -5.973239989806354e-20  6.635601573044364e-01
-5.973239989806354e-20 -1.113641109711249e-17  2.589792197373336e-01
 6.635601573044364e-01  2.589792197373336e-01 -1.695635541306528e-17

-1.574683803347839e-17 -5.966972713484116e-20  6.635602271997678e-01
-5.966972713484116e-20 -1.113641568596133e-17  2.589827718390533e-01
 6.635602271997678e-01  2.589827718390533e-01 -1.695635707136381e-17

-1.574683638708171e-17 -5.960715206681247e-20  6.635602968648515e-01
-5.960715206681247e-20 -1.113641991656904e-17  2.589863180833494e-01
 6.635602968648515e-01  2.589863180833494e-01 -1.695635872420023e-17

-1.574683474623381e-17 -5.954465272881164e-20  6.635603663003518e-01
-5.954465272881164e-20 -1.113642442329923e-17  2.589898601695868e-01
 6.635603663003518e-01  2.589898601695868e-01 -1.695636037159041e-17

-1.574683311092240e-17 -5.948224075805763e-20  6.635604355069237e-01
-5.948224075805763e-20 -1.113642869384363e-17  2.589933968928864e-01
 6.635604355069237e-01  2.589933968928864e-01 -1.695636201355003e-17

-1.574683148113536e-17 -5.941991984152302e-20  6.635605044852192e-01
-5.941991984152302e-20 -1.113643343353071e-17  2.589969282933927e-01
 6.635605044852192e-01  2.589969282933927e-01 -1.695636365009460e-17

-1.574682985686072e-17 -5.935767909261188e-20  6.635605732358818e-01
-5.935767909261188e-20 -1.113643757171379e-17  2.590004556556037e-01
 6.635605732358818e-01  2.590004556556037e-01 -1.695636528123965e-17

-1.574682823808699e-17 -5.929552750740120e-20  6.635606417595524e-01
-5.929552750740120e-20 -1.113644208301575e-17  2.590039773602829e-01
 6.635606417595524e-01  2.590039773602829e-01 -1.695636690700036e-17

-1.574682662480277e-17 -5.923345212955498e-20  6.635607100568615e-01
-5.923345212955498e-20 -1.113644618504594e-17  2.590074951067319e-01
 6.635607100568615e-01  2.590074951067319e-01 -1.695636852739194e-17

-1.574682501699704e-17 -5.917146633947409e-20  6.635607781284385e-01
-5.917146633947409e-20 -1.113645043505047e-17  2.590110072759723e-01
 6.635607781284385e-01  2.590110072759723e-01 -1.695637014242934e-17

-1.574682341465910e-17 -5.910954827020357e-20  6.635608459749023e-01
-5.910954827020357e-20 -1.113645506098101e-17  2.590145155676006e-01
 6.635608459749023e-01  2.590145155676006e-01 -1.695637175212752e-17

-1.574682181777836e-17 -5.904772741184202e-20  6.635609135968683e-01
-5.904772741184202e-20 -1.113645924743060e-17  2.590180183627301e-01
 6.635609135968683e-01  2.590180183627301e-01 -1.695637335650112e-17

-1.574682022634479e-17 -5.898597943005951e-20  6.635609809949471e-01
-5.898597943005951e-20 -1.113646346252422e-17  2.590215173611130e-01
 6.635609809949471e-01  2.590215173611130e-01 -1.695637495556486e-17

-1.574681864034848e-17 -5.892430683956576e-20  6.635610481697400e-01
-5.892430683956576e-20 -1.113646769640048e-17  2.590250113586893e-01
 6.635610481697400e-01  2.590250113586893e-01 -1.695637654933313e-17

-1.574681705977984e-17 -5.886272430946960e-20  6.635611151218459e-01
-5.886272430946960e-20 -1.113647200904978e-17  2.590285003959870e-01
 6.635611151218459e-01  2.590285003959870e-01 -1.695637813782028e-17

-1.574681548462969e-17 -5.880120764808545e-20  6.635611818518550e-01
-5.880120764808545e-20 -1.113647629743219e-17  2.590319857584998e-01
 6.635611818518550e-01  2.590319857584998e-01 -1.695637972104056e-17

-1.574681391488912e-17 -5.873977777006708e-20  6.635612483603547e-01
-5.873977777006708e-20 -1.113648055553606e-17  2.590354658273517e-01
 6.635612483603547e-01  2.590354658273517e-01 -1.695638129900801e-17

-1.574681235054958e-17 -5.867841673232266e-20  6.635613146479228e-01
-5.867841673232266e-20 -1.113648477268667e-17  2.590389423028313e-01
 6.635613146479228e-01  2.590389423028313e-01 -1.695638287173661e-17

-1.574681079160287e-17 -5.861713835681388e-20  6.635613807151348e-01
-5.861713835681388e-20 -1.113648887479627e-17  2.590424135664786e-01
 6.635613807151348e-01  2.590424135664786e-01 -1.695638443924013e-17

-1.574680923804110e-17 -5.855592892028466e-20  6.635614465625578e-01
-5.855592892028466e-20 -1.113649297237472e-17  2.590458813186398e-01
 6.635614465625578e-01  2.590458813186398e-01 -1.695638600153232e-17

-1.574680768985683e-17 -5.849480499310484e-20  6.635615121907549e-01
-5.849480499310484e-20 -1.113649726073389e-17  2.590493439411034e-01
 6.635615121907549e-01  2.590493439411034e-01 -1.695638755862664e-17

-1.574680614704292e-17 -5.843373594056569e-20  6.635615776002821e-01
-5.843373594056569e-20 -1.113650140435602e-17  2.590528031343211e-01
 6.635615776002821e-01  2.590528031343211e-01 -1.695638911053662e-17

-1.574680460959267e-17 -5.837276016314522e-20  6.635616427916914e-01
-5.837276016314522e-20 -1.113650545656391e-17  2.590562572802326e-01
 6.635616427916914e-01  2.590562572802326e-01 -1.695639065727550e-17

-1.574680307749974e-17 -5.831184323319170e-20  6.635617077655257e-01
-5.831184323319170e-20 -1.113650969195786e-17  2.590597080794375e-01
 6.635617077655257e-01  2.590597080794375e-01 -1.695639219885648e-17

-1.574680155075824e-17 -5.825099975586428e-20  6.635617725223255e-01
-5.825099975586428e-20 -1.113651395992281e-17  2.590631543288157e-01
 6.635617725223255e-01  2.590631543288157e-01 -1.695639373529259e-17

-1.574680002936273e-17 -5.819023227901735e-20  6.635618370626259e-01
-5.819023227901735e-20 -1.113651767450438e-17  2.590665960700405e-01
 6.635618370626259e-01  2.590665960700405e-01 -1.695639526659675e-17

-1.574679851330808e-17 -5.812952638134168e-20  6.635619013869510e-01
-5.812952638134168e-20 -1.113652190074854e-17  2.590700345891137e-01
 6.635619013869510e-01  2.590700345891137e-01 -1.695639679278181e-17

-1.574679700258979e-17 -5.806890233636449e-20  6.635619654958252e-01
-5.806890233636449e-20 -1.113652603525074e-17  2.590734682683673e-01
 6.635619654958252e-01  2.590734682683673e-01 -1.695639831386035e-17

-1.574679549720375e-17 -5.800833331757308e-20  6.635620293897644e-01
-5.800833331757308e-20 -1.113653003121972e-17  2.590768988087925e-01
 6.635620293897644e-01  2.590768988087925e-01 -1.695639982984503e-17

-1.574679399714634e-17 -5.794783949674620e-20  6.635620930692793e-01
-5.794783949674620e-20 -1.113653403260344e-17  2.590803245931583e-01
 6.635620930692793e-01  2.590803245931583e-01 -1.695640134074819e-17

-1.574679250241442e-17 -5.788740638167627e-20  6.635621565348746e-01
-5.788740638167627e-20 -1.113653825226829e-17  2.590837473225774e-01
 6.635621565348746e-01  2.590837473225774e-01 -1.695640284658220e-17

-1.574679101300544e-17 -5.782704879562288e-20  6.635622197870499e-01
-5.782704879562288e-20 -1.113654224074161e-17  2.590871653796419e-01
 6.635622197870499e-01  2.590871653796419e-01 -1.695640434735920e-17

-1.574678952891737e-17 -5.776674534478025e-20  6.635622828262981e-01
-5.776674534478025e-20 -1.113654613167447e-17  2.590905804661769e-01
 6.635622828262981e-01  2.590905804661769e-01 -1.695640584309132e-17

-1.574678805014876e-17 -5.770651645941997e-20  6.635623456531072e-01
-5.770651645941997e-20 -1.113654998481786e-17  2.590939913796108e-01
 6.635623456531072e-01  2.590939913796108e-01 -1.695640733379049e-17

-1.574678657669867e-17 -5.764635195540682e-20  6.635624082679599e-01
-5.764635195540682e-20 -1.113655418396923e-17  2.590973981621980e-01
 6.635624082679599e-01  2.590973981621980e-01 -1.695640881946846e-17

-1.574678510856696e-17 -5.758623913069751e-20  6.635624706713320e-01
-5.758623913069751e-20 -1.113655822680723e-17  2.591008021010484e-01
 6.635624706713320e-01  2.591008021010484e-01 -1.695641030013712e-17

-1.574678364575383e-17 -5.752620311040375e-20  6.635625328636954e-01
-5.752620311040375e-20 -1.113656195590124e-17  2.591042015791144e-01
 6.635625328636954e-01  2.591042015791144e-01 -1.695641177580790e-17

-1.574678218826052e-17 -5.746621692449846e-20  6.635625948455144e-01
-5.746621692449846e-20 -1.113656605755124e-17  2.591075982986034e-01
 6.635625948455144e-01  2.591075982986034e-01 -1.695641324649243e-17

-1.574678073608872e-17 -5.740629871630745e-20  6.635626566172490e-01
-5.740629871630745e-20 -1.113656998356630e-17  2.591109906427100e-01
 6.635626566172490e-01  2.591109906427100e-01 -1.695641471220199e-17

-1.574677928924082e-17 -5.734643377074901e-20  6.635627181793540e-01
-5.734643377074901e-20 -1.113657405990867e-17  2.591143803134714e-01
 6.635627181793540e-01  2.591143803134714e-01 -1.695641617294795e-17

-1.574677784772020e-17 -5.728663655056181e-20  6.635627795322764e-01
-5.728663655056181e-20 -1.113657751561864e-17  2.591177656945887e-01
 6.635627795322764e-01  2.591177656945887e-01 -1.695641762874138e-17

-1.574677641153071e-17 -5.722688649464505e-20  6.635628406764614e-01
-5.722688649464505e-20 -1.113658140635255e-17  2.591211484883548e-01
 6.635628406764614e-01  2.591211484883548e-01 -1.695641907959340e-17

-1.574677498067744e-17 -5.716720782627325e-20  6.635629016123434e-01
-5.716720782627325e-20 -1.113658509853780e-17  2.591245270784465e-01
 6.635629016123434e-01  2.591245270784465e-01 -1.695642052551493e-17

-1.574677355516589e-17 -5.710757211721962e-20  6.635629623403569e-01
-5.710757211721962e-20 -1.113658917322196e-17  2.591279031674026e-01
 6.635629623403569e-01  2.591279031674026e-01 -1.695642196651683e-17

-1.574677213500288e-17 -5.704800141366354e-20  6.635630228609254e-01
-5.704800141366354e-20 -1.113659330957980e-17  2.591312755540648e-01
 6.635630228609254e-01  2.591312755540648e-01 -1.695642340260983e-17

-1.574677072019594e-17 -5.698848798987893e-20  6.635630831744723e-01
-5.698848798987893e-20 -1.113659683544992e-17  2.591346442817184e-01
 6.635630831744723e-01  2.591346442817184e-01 -1.695642483380456e-17

-1.574676931075361e-17 -5.692902338425754e-20  6.635631432814098e-01
-5.692902338425754e-20 -1.113660090220258e-17  2.591380106384874e-01
 6.635631432814098e-01  2.591380106384874e-01 -1.695642626011160e-17

-1.574676790668576e-17 -5.686961791080193e-20  6.635632031821505e-01
-5.686961791080193e-20 -1.113660451317687e-17  2.591413730083647e-01
 6.635632031821505e-01  2.591413730083647e-01 -1.695642768154140e-17

-1.574676650800297e-17 -5.681025703586698e-20  6.635632628770958e-01
-5.681025703586698e-20 -1.113660843696128e-17  2.591447330947488e-01
 6.635632628770958e-01  2.591447330947488e-01 -1.695642909810429e-17

-1.574676511471728e-17 -5.675095615382036e-20  6.635633223666453e-01
-5.675095615382036e-20 -1.113661215441903e-17  2.591480892817630e-01
 6.635633223666453e-01  2.591480892817630e-01 -1.695643050981053e-17

-1.574676372684182e-17 -5.669169762561705e-20  6.635633816511922e-01
-5.669169762561705e-20 -1.113661598849940e-17  2.591514432728080e-01
 6.635633816511922e-01  2.591514432728080e-01 -1.695643191667036e-17

-1.574676234439112e-17 -5.663250116032921e-20  6.635634407311232e-01
-5.663250116032921e-20 -1.113661952083619e-17  2.591547934524493e-01
 6.635634407311232e-01  2.591547934524493e-01 -1.695643331869379e-17

-1.574676096738092e-17 -5.657334348458137e-20  6.635634996068202e-01
-5.657334348458137e-20 -1.113662345379606e-17  2.591581415241913e-01
 6.635634996068202e-01  2.591581415241913e-01 -1.695643471589087e-17

-1.574675959582859e-17 -5.651424143839779e-20  6.635635582786609e-01
-5.651424143839779e-20 -1.113662692474752e-17  2.591614862876724e-01
 6.635635582786609e-01  2.591614862876724e-01 -1.695643610827151e-17

-1.574675822975289e-17 -5.645518858016195e-20  6.635636167470156e-01
-5.645518858016195e-20 -1.113663088556688e-17  2.591648277873134e-01
 6.635636167470156e-01  2.591648277873134e-01 -1.695643749584557e-17

-1.574675686917425e-17 -5.639617549253752e-20  6.635636750122488e-01
-5.639617549253752e-20 -1.113663448019802e-17  2.591681673120684e-01
 6.635636750122488e-01  2.591681673120684e-01 -1.695643887862286e-17

-1.574675551411472e-17 -5.633721613661161e-20  6.635637330747224e-01
-5.633721613661161e-20 -1.113663782689933e-17  2.591715032469166e-01
 6.635637330747224e-01  2.591715032469166e-01 -1.695644025661301e-17

-1.574675416459833e-17 -5.627829543964234e-20  6.635637909347885e-01
-5.627829543964234e-20 -1.113664182904744e-17  2.591748372959001e-01
 6.635637909347885e-01  2.591748372959001e-01 -1.695644162982576e-17

-1.574675282065073e-17 -5.621942936319083e-20  6.635638485927995e-01
-5.621942936319083e-20 -1.113664548644712e-17  2.591781678447468e-01
 6.635638485927995e-01  2.591781678447468e-01 -1.695644299827060e-17

-1.574675148229990e-17 -5.616059702258770e-20  6.635639060490955e-01
-5.616059702258770e-20 -1.113664904666161e-17  2.591814965972433e-01
 6.635639060490955e-01  2.591814965972433e-01 -1.695644436195712e-17

-1.574675014957584e-17 -5.610181573970990e-20  6.635639633040177e-01
-5.610181573970990e-20 -1.113665275360508e-17  2.591848219391165e-01
 6.635639633040177e-01  2.591848219391165e-01 -1.695644572089478e-17

-1.574674882251068e-17 -5.604306982977201e-20  6.635640203578965e-01
-5.604306982977201e-20 -1.113665603063134e-17  2.591881455749601e-01
 6.635640203578965e-01  2.591881455749601e-01 -1.695644707509298e-17

-1.574674750113922e-17 -5.598437017762814e-20  6.635640772110619e-01
-5.598437017762814e-20 -1.113665973179217e-17  2.591914658903335e-01
 6.635640772110619e-01  2.591914658903335e-01 -1.695644842456114e-17

-1.574674618549868e-17 -5.592570708812176e-20  6.635641338638328e-01
-5.592570708812176e-20 -1.113666351608684e-17  2.591947845903402e-01
 6.635641338638328e-01  2.591947845903402e-01 -1.695644976930859e-17

-1.574674487576250e-17 -5.586708397007123e-20  6.635641903165348e-01
-5.586708397007123e-20 -1.113666716053328e-17  2.591981004754144e-01
 6.635641903165348e-01  2.591981004754144e-01 -1.695645110934996e-17

-1.574674357171334e-17 -5.580850177718788e-20  6.635642465694651e-01
-5.580850177718788e-20 -1.113667046682172e-17  2.592014135911924e-01
 6.635642465694651e-01  2.592014135911924e-01 -1.695645244468422e-17

-1.574674227352438e-17 -5.574995307051410e-20  6.635643026229355e-01
-5.574995307051410e-20 -1.113667400224937e-17  2.592047252279270e-01
 6.635643026229355e-01  2.592047252279270e-01 -1.695645377532573e-17

-1.574674098124501e-17 -5.569145575983935e-20  6.635643584772470e-01
-5.569145575983935e-20 -1.113667779901462e-17  2.592080337720208e-01
 6.635643584772470e-01  2.592080337720208e-01 -1.695645510128372e-17

-1.574673969492806e-17 -5.563297733337576e-20  6.635644141326941e-01
-5.563297733337576e-20 -1.113668116085246e-17  2.592113409285205e-01
 6.635644141326941e-01  2.592113409285205e-01 -1.695645642256757e-17

-1.574673841463021e-17 -5.557454697714305e-20  6.635644695895667e-01
-5.557454697714305e-20 -1.113668465981742e-17  2.592146450842871e-01
 6.635644695895667e-01  2.592146450842871e-01 -1.695645773918645e-17

-1.574673714041208e-17 -5.551613567927444e-20  6.635645248481488e-01
-5.551613567927444e-20 -1.113668796537849e-17  2.592179479446510e-01
 6.635645248481488e-01  2.592179479446510e-01 -1.695645905114981e-17

-1.574673587233879e-17 -5.545777286527412e-20  6.635645799087189e-01
-5.545777286527412e-20 -1.113669152396216e-17  2.592212478964165e-01
 6.635645799087189e-01  2.592212478964165e-01 -1.695646035846694e-17

-1.574673461047978e-17 -5.539943611221022e-20  6.635646347715510e-01
-5.539943611221022e-20 -1.113669491410610e-17  2.592245466453545e-01
 6.635646347715510e-01  2.592245466453545e-01 -1.695646166114727e-17

-1.574673335490978e-17 -5.534112962907890e-20  6.635646894369124e-01
-5.534112962907890e-20 -1.113669850027595e-17  2.592278429935131e-01
 6.635646894369124e-01  2.592278429935131e-01 -1.695646295920021e-17

-1.574673210570853e-17 -5.528286069503076e-20  6.635647439050675e-01
-5.528286069503076e-20 -1.113670180356383e-17  2.592311369871683e-01
 6.635647439050675e-01  2.592311369871683e-01 -1.695646425263534e-17

-1.574673086296158e-17 -5.522461169262815e-20  6.635647981762717e-01
-5.522461169262815e-20 -1.113670518825769e-17  2.592344299178556e-01
 6.635647981762717e-01  2.592344299178556e-01 -1.695646554146229e-17

-1.574672962676061e-17 -5.516640433009582e-20  6.635648522507791e-01
-5.516640433009582e-20 -1.113670851610614e-17  2.592377201727430e-01
 6.635648522507791e-01  2.592377201727430e-01 -1.695646682569073e-17

-1.574672839720374e-17 -5.510821195644495e-20  6.635649061288338e-01
-5.510821195644495e-20 -1.113671203444997e-17  2.592410094583142e-01
 6.635649061288338e-01  2.592410094583142e-01 -1.695646810533054e-17

-1.574672717439635e-17 -5.505005908259402e-20  6.635649598106803e-01
-5.505005908259402e-20 -1.113671531252654e-17  2.592442961620887e-01
 6.635649598106803e-01  2.592442961620887e-01 -1.695646938039167e-17

-1.574672595845119e-17 -5.499192343837466e-20  6.635650132965519e-01
-5.499192343837466e-20 -1.113671900863552e-17  2.592475819908361e-01
 6.635650132965519e-01  2.592475819908361e-01 -1.695647065088432e-17

-1.574672474948928e-17 -5.493381551233274e-20  6.635650665866816e-01
-5.493381551233274e-20 -1.113672208286929e-17  2.592508653321846e-01
 6.635650665866816e-01  2.592508653321846e-01 -1.695647191681874e-17

-1.574672354764049e-17 -5.487572894818303e-20  6.635651196812931e-01
-5.487572894818303e-20 -1.113672526397180e-17  2.592541478932391e-01
 6.635651196812931e-01  2.592541478932391e-01 -1.695647317820557e-17

-1.574672235304415e-17 -5.481767344719962e-20  6.635651725806073e-01
-5.481767344719962e-20 -1.113672883177527e-17  2.592574280619684e-01
 6.635651725806073e-01  2.592574280619684e-01 -1.695647443505544e-17

-1.574672116584981e-17 -5.475963556554277e-20  6.635652252848395e-01
-5.475963556554277e-20 -1.113673214586451e-17  2.592607075455662e-01
 6.635652252848395e-01  2.592607075455662e-01 -1.695647568737950e-17

-1.574671998621827e-17 -5.470161420237531e-20  6.635652777941982e-01
-5.470161420237531e-20 -1.113673550468617e-17  2.592639851471678e-01
 6.635652777941982e-01  2.592639851471678e-01 -1.695647693518903e-17

-1.574671881432210e-17 -5.464362338205196e-20  6.635653301088883e-01
-5.464362338205196e-20 -1.113673865629000e-17  2.592672609146546e-01
 6.635653301088883e-01  2.592672609146546e-01 -1.695647817849570e-17

-1.574671765034700e-17 -5.458564389274883e-20  6.635653822291088e-01
-5.458564389274883e-20 -1.113674198090841e-17  2.592705361409387e-01
 6.635653822291088e-01  2.592705361409387e-01 -1.695647941731154e-17

-1.574671649449276e-17 -5.452769198566929e-20  6.635654341550529e-01
-5.452769198566929e-20 -1.113674527270517e-17  2.592738092145391e-01
 6.635654341550529e-01  2.592738092145391e-01 -1.695648065164897e-17

-1.574671534697436e-17 -5.446974202935801e-20  6.635654858869096e-01
-5.446974202935801e-20 -1.113674831323161e-17  2.592770818431390e-01
 6.635654858869096e-01  2.592770818431390e-01 -1.695648188152092e-17

-1.574671420802334e-17 -5.441182380416688e-20  6.635655374248615e-01
-5.441182380416688e-20 -1.113675137177275e-17  2.592803524161826e-01
 6.635655374248615e-01  2.592803524161826e-01 -1.695648310694077e-17

-1.574671307788917e-17 -5.435390812069145e-20  6.635655887690866e-01
-5.435390812069145e-20 -1.113675477679016e-17  2.592836226411478e-01
 6.635655887690866e-01  2.592836226411478e-01 -1.695648432792250e-17

-1.574671195684109e-17 -5.429601974575483e-20  6.635656399197583e-01
-5.429601974575483e-20 -1.113675761677827e-17  2.592868909077134e-01
 6.635656399197583e-01  2.592868909077134e-01 -1.695648554448069e-17

-1.574671084516931e-17 -5.423813216705838e-20  6.635656908770418e-01
-5.423813216705838e-20 -1.113676108945487e-17  2.592901589242070e-01
 6.635656908770418e-01  2.592901589242070e-01 -1.695648675663061e-17

-1.574670974318749e-17 -5.418026551236933e-20  6.635657416411013e-01
-5.418026551236933e-20 -1.113676420894909e-17  2.592934254947798e-01
 6.635657416411013e-01  2.592934254947798e-01 -1.695648796438831e-17

-1.574670865123438e-17 -5.412241138658677e-20  6.635657922120934e-01
-5.412241138658677e-20 -1.113676728551097e-17  2.592966906687673e-01
 6.635657922120934e-01  2.592966906687673e-01 -1.695648916777066e-17

-1.574670756967632e-17 -5.406455352254284e-20  6.635658425901685e-01
-5.406455352254284e-20 -1.113677015877503e-17  2.592999557401249e-01
 6.635658425901685e-01  2.592999557401249e-01 -1.695649036679550e-17

-1.574670649890984e-17 -5.400672338680008e-20  6.635658927754744e-01
-5.400672338680008e-20 -1.113677353079364e-17  2.593032190986935e-01
 6.635658927754744e-01  2.593032190986935e-01 -1.695649156148162e-17

-1.574670543936442e-17 -5.394888508556839e-20  6.635659427681508e-01
-5.394888508556839e-20 -1.113677664020043e-17  2.593064824536472e-01
 6.635659427681508e-01  2.593064824536472e-01 -1.695649275184906e-17

-1.574670439150545e-17 -5.389106587974476e-20  6.635659925683348e-01
-5.389106587974476e-20 -1.113677927437353e-17  2.593097441951946e-01
 6.635659925683348e-01  2.593097441951946e-01 -1.695649393791901e-17

-1.574670335583785e-17 -5.383323755592573e-20  6.635660421761560e-01
-5.383323755592573e-20 -1.113678240765844e-17  2.593130060328195e-01
 6.635660421761560e-01  2.593130060328195e-01 -1.695649511971413e-17

-1.574670233290985e-17 -5.377543267805346e-20  6.635660915917414e-01
-5.377543267805346e-20 -1.113678548074013e-17  2.593162663571171e-01
 6.635660915917414e-01  2.593162663571171e-01 -1.695649629725853e-17

-1.574670132331713e-17 -5.371761148931410e-20  6.635661408152089e-01
-5.371761148931410e-20 -1.113678834761421e-17  2.593195268776395e-01
 6.635661408152089e-01  2.593195268776395e-01 -1.695649747057812e-17

-1.574670032770764e-17 -5.365980630808105e-20  6.635661898466754e-01
-5.365980630808105e-20 -1.113679151475072e-17  2.593227859854714e-01
 6.635661898466754e-01  2.593227859854714e-01 -1.695649863970060e-17

-1.574669934678656e-17 -5.360199824195205e-20  6.635662386862506e-01
-5.360199824195205e-20 -1.113679442234062e-17  2.593260453907698e-01
 6.635662386862506e-01  2.593260453907698e-01 -1.695649980465582e-17

-1.574669838132250e-17 -5.354418419270681e-20  6.635662873340381e-01
-5.354418419270681e-20 -1.113679725297164e-17  2.593293038995426e-01
 6.635662873340381e-01  2.593293038995426e-01 -1.695650096547589e-17

-1.574669743215339e-17 -5.348637858350326e-20  6.635663357901382e-01
-5.348637858350326e-20 -1.113680001524568e-17  2.593325615626778e-01
 6.635663357901382e-01  2.593325615626778e-01 -1.695650212219546e-17

-1.574669650019411e-17 -5.342856200335175e-20  6.635663840546447e-01
-5.342856200335175e-20 -1.113680310207344e-17  2.593358196760326e-01
 6.635663840546447e-01  2.593358196760326e-01 -1.695650327485204e-17

-1.574669558644423e-17 -5.337074740636549e-20  6.635664321276462e-01
-5.337074740636549e-20 -1.113680595642284e-17  2.593390766314932e-01
 6.635664321276462e-01  2.593390766314932e-01 -1.695650442348621e-17

-1.574669469199707e-17 -5.331292007215969e-20  6.635664800092266e-01
-5.331292007215969e-20 -1.113680868243669e-17  2.593423341399739e-01
 6.635664800092266e-01  2.593423341399739e-01 -1.695650556814215e-17

-1.574669381804936e-17 -5.325509300922426e-20  6.635665276994653e-01
-5.325509300922426e-20 -1.113681116290179e-17  2.593455905937274e-01
 6.635665276994653e-01  2.593455905937274e-01 -1.695650670886774e-17

-1.574669296591274e-17 -5.319725294749403e-20  6.635665751984349e-01
-5.319725294749403e-20 -1.113681404061970e-17  2.593488477044096e-01
 6.635665751984349e-01  2.593488477044096e-01 -1.695650784571526e-17

-1.574669213702581e-17 -5.313940967296315e-20  6.635666225062042e-01
-5.313940967296315e-20 -1.113681681027026e-17  2.593521038645085e-01
 6.635666225062042e-01  2.593521038645085e-01 -1.695650897874169e-17

-1.574669133296808e-17 -5.308154927718220e-20  6.635666696228369e-01
-5.308154927718220e-20 -1.113681961003143e-17  2.593553607861109e-01
 6.635666696228369e-01  2.593553607861109e-01 -1.695651010800934e-17

-1.574669055547573e-17 -5.302368276691284e-20  6.635667165483893e-01
-5.302368276691284e-20 -1.113682225734823e-17  2.593586172773049e-01
 6.635667165483893e-01  2.593586172773049e-01 -1.695651123358636e-17

-1.574668980645844e-17 -5.296580348822810e-20  6.635667632829155e-01
-5.296580348822810e-20 -1.113682466638097e-17  2.593618733909946e-01
 6.635667632829155e-01  2.593618733909946e-01 -1.695651235554752e-17

-1.574668908801930e-17 -5.290790933560838e-20  6.635668098264620e-01
-5.290790933560838e-20 -1.113682748896273e-17  2.593651304251594e-01
 6.635668098264620e-01  2.593651304251594e-01 -1.695651347397486e-17

-1.574668840247616e-17 -5.285000052526053e-20  6.635668561790723e-01
-5.285000052526053e-20 -1.113683006534432e-17  2.593683867738257e-01
 6.635668561790723e-01  2.593683867738257e-01 -1.695651458895854e-17

-1.574668775238610e-17 -5.279206730411147e-20  6.635669023407835e-01
-5.279206730411147e-20 -1.113683239512667e-17  2.593716441503263e-01
 6.635669023407835e-01  2.593716441503263e-01 -1.695651570059782e-17

-1.574668714057243e-17 -5.273413160275983e-20  6.635669483116269e-01
-5.273413160275983e-20 -1.113683505754073e-17  2.593749009494519e-01
 6.635669483116269e-01  2.593749009494519e-01 -1.695651680900209e-17

-1.574668657015500e-17 -5.267616427083866e-20  6.635669940916303e-01
-5.267616427083866e-20 -1.113683728997576e-17  2.593781588853019e-01
 6.635669940916303e-01  2.593781588853019e-01 -1.695651791429195e-17

-1.574668604458403e-17 -5.261819207445391e-20  6.635670396808150e-01
-5.261819207445391e-20 -1.113683988312434e-17  2.593814163532042e-01
 6.635670396808150e-01  2.593814163532042e-01 -1.695651901660064e-17

-1.574668556767773e-17 -5.256018442728951e-20  6.635670850791985e-01
-5.256018442728951e-20 -1.113684208717185e-17  2.593846750681909e-01
 6.635670850791985e-01  2.593846750681909e-01 -1.695652011607544e-17

-1.574668514366389e-17 -5.250216691649944e-20  6.635671302867922e-01
-5.250216691649944e-20 -1.113684416456578e-17  2.593879334266592e-01
 6.635671302867922e-01  2.593879334266592e-01 -1.695652121287920e-17

-1.574668477722625e-17 -5.244412016458905e-20  6.635671753036010e-01
-5.244412016458905e-20 -1.113684659171959e-17  2.593911931443973e-01
 6.635671753036010e-01  2.593911931443973e-01 -1.695652230719218e-17

-1.574668447355549e-17 -5.238605713664166e-20  6.635672201296283e-01
-5.238605713664166e-20 -1.113684866905767e-17  2.593944530336484e-01
 6.635672201296283e-01  2.593944530336484e-01 -1.695652339921411e-17

-1.574668423840504e-17 -5.232798058686876e-20  6.635672647648694e-01
-5.232798058686876e-20 -1.113685077318845e-17  2.593977131518214e-01
 6.635672647648694e-01  2.593977131518214e-01 -1.695652448916608e-17

-1.574668407815177e-17 -5.226986525486611e-20  6.635673092093156e-01
-5.226986525486611e-20 -1.113685232407330e-17  2.594009748015279e-01
 6.635673092093156e-01  2.594009748015279e-01 -1.695652557729320e-17

-1.574668399986184e-17 -5.221175031630269e-20  6.635673534629519e-01
-5.221175031630269e-20 -1.113685443821342e-17  2.594042363821517e-01
 6.635673534629519e-01  2.594042363821517e-01 -1.695652666386680e-17

-1.574668401136011e-17 -5.215360090500414e-20  6.635673975257600e-01
-5.215360090500414e-20 -1.113685618263543e-17  2.594074996124036e-01
 6.635673975257600e-01  2.594074996124036e-01 -1.695652774918741e-17

-1.574668412130342e-17 -5.209544746669826e-20  6.635674413977163e-01
-5.209544746669826e-20 -1.113685765716557e-17  2.594107628932857e-01
 6.635674413977163e-01  2.594107628932857e-01 -1.695652883358737e-17

-1.574668433925463e-17 -5.203727936854577e-20  6.635674850787890e-01
-5.203727936854577e-20 -1.113685938170241e-17  2.594140279452468e-01
 6.635674850787890e-01  2.594140279452468e-01 -1.695652991743371e-17

-1.574668467575583e-17 -5.197910796487970e-20  6.635675285689461e-01
-5.197910796487970e-20 -1.113686080239728e-17  2.594172931709067e-01
 6.635675285689461e-01  2.594172931709067e-01 -1.695653100113104e-17

-1.574668514239540e-17 -5.192092798287223e-20  6.635675718681461e-01
-5.192092798287223e-20 -1.113686210887085e-17  2.594205602929238e-01
 6.635675718681461e-01  2.594205602929238e-01 -1.695653208512408e-17

-1.574668575186346e-17 -5.186275928467357e-20  6.635676149763458e-01
-5.186275928467357e-20 -1.113686315400542e-17  2.594238281309417e-01
 6.635676149763458e-01  2.594238281309417e-01 -1.695653316989978e-17

-1.574668651798637e-17 -5.180460780042979e-20  6.635676578934947e-01
-5.180460780042979e-20 -1.113686405331332e-17  2.594270967508232e-01
 6.635676578934947e-01  2.594270967508232e-01 -1.695653425598870e-17

-1.574668745572686e-17 -5.174648096505051e-20  6.635677006195376e-01
-5.174648096505051e-20 -1.113686486940100e-17  2.594303674638460e-01
 6.635677006195376e-01  2.594303674638460e-01 -1.695653534396495e-17

-1.574668858113249e-17 -5.168840402639234e-20  6.635677431544151e-01
-5.168840402639234e-20 -1.113686565241313e-17  2.594336386794612e-01
 6.635677431544151e-01  2.594336386794612e-01 -1.695653643444424e-17

-1.574668991120678e-17 -5.163038594976542e-20  6.635677854980614e-01
-5.163038594976542e-20 -1.113686602036319e-17  2.594369121276643e-01
 6.635677854980614e-01  2.594369121276643e-01 -1.695653752807894e-17

-1.574669146366865e-17 -5.157246024435806e-20  6.635678276504074e-01
-5.157246024435806e-20 -1.113686617081869e-17  2.594401862216429e-01
 6.635678276504074e-01  2.594401862216429e-01 -1.695653862554882e-17

-1.574669325655379e-17 -5.151463499043353e-20  6.635678696113768e-01
-5.151463499043353e-20 -1.113686587244191e-17  2.594434626958497e-01
 6.635678696113768e-01  2.594434626958497e-01 -1.695653972754567e-17

-1.574669530759573e-17 -5.145697843899492e-20  6.635679113808901e-01
-5.145697843899492e-20 -1.113686556856971e-17  2.594467399692236e-01
 6.635679113808901e-01  2.594467399692236e-01 -1.695654083474956e-17

-1.574669763330505e-17 -5.139950644684406e-20  6.635679529588612e-01
-5.139950644684406e-20 -1.113686509573419e-17  2.594500197828813e-01
 6.635679529588612e-01  2.594500197828813e-01 -1.695654194779336e-17

-1.574670024764163e-17 -5.134229345818261e-20  6.635679943452000e-01
-5.134229345818261e-20 -1.113686442540819e-17  2.594533005634376e-01
 6.635679943452000e-01  2.594533005634376e-01 -1.695654306721180e-17

-1.574670316014739e-17 -5.128537165380529e-20  6.635680355398109e-01
-5.128537165380529e-20 -1.113686276105008e-17  2.594565840625128e-01
 6.635680355398109e-01  2.594565840625128e-01 -1.695654419336947e-17

-1.574670637337956e-17 -5.122884611576389e-20  6.635680765425941e-01
-5.122884611576389e-20 -1.113686144074110e-17  2.594598691354079e-01
 6.635680765425941e-01  2.594598691354079e-01 -1.695654532636225e-17

-1.574670987945829e-17 -5.117279571843874e-20  6.635681173534428e-01
-5.117279571843874e-20 -1.113685957567040e-17  2.594631558924250e-01
 6.635681173534428e-01  2.594631558924250e-01 -1.695654646588441e-17

-1.574671365553094e-17 -5.111730808743592e-20  6.635681579722466e-01
-5.111730808743592e-20 -1.113685753080091e-17  2.594664457028857e-01
 6.635681579722466e-01  2.594664457028857e-01 -1.695654761105430e-17

-1.574671765796928e-17 -5.106251758569525e-20  6.635681983988894e-01
-5.106251758569525e-20 -1.113685524316213e-17  2.594697370527889e-01
 6.635681983988894e-01  2.594697370527889e-01 -1.695654876019101e-17

-1.574672181518634e-17 -5.100852967649873e-20  6.635682386332513e-01
-5.100852967649873e-20 -1.113685265905024e-17  2.594730317753532e-01
 6.635682386332513e-01  2.594730317753532e-01 -1.695654991053823e-17

-1.574672601911489e-17 -5.095550803774754e-20  6.635682786752055e-01
-5.095550803774754e-20 -1.113685007062487e-17  2.594763284260071e-01
 6.635682786752055e-01  2.594763284260071e-01 -1.695655105793640e-17

-1.574673011568922e-17 -5.090355842955770e-20  6.635683185246218e-01
-5.090355842955770e-20 -1.113684790596448e-17  2.594796289343375e-01
 6.635683185246218e-01  2.594796289343375e-01 -1.695655219645665e-17

-1.574673389515958e-17 -5.085283536292981e-20  6.635683581813638e-01
-5.085283536292981e-20 -1.113684570543218e-17  2.594829319854545e-01
 6.635683581813638e-01  2.594829319854545e-01 -1.695655331802835e-17

-1.574673708379391e-17 -5.080341873330286e-20  6.635683976452904e-01
-5.080341873330286e-20 -1.113684418180248e-17  2.594862392581915e-01
 6.635683976452904e-01  2.594862392581915e-01 -1.695655441211983e-17

-1.574673933947346e-17 -5.075536234309879e-20  6.635684369162562e-01
-5.075536234309879e-20 -1.113684338312981e-17  2.594895507772714e-01
 6.635684369162562e-01  2.594895507772714e-01 -1.695655546556908e-17

-1.574674025474258e-17 -5.070864640529271e-20  6.635684759941092e-01
-5.070864640529271e-20 -1.113684413778082e-17  2.594928667638887e-01
 6.635684759941092e-01  2.594928667638887e-01 -1.695655646270097e-17

-1.574673937171036e-17 -5.066311669522658e-20  6.635685148786945e-01
-5.066311669522658e-20 -1.113684670250752e-17  2.594961888050035e-01
 6.635685148786945e-01  2.594961888050035e-01 -1.695655738590046e-17

-1.574673621324502e-17 -5.061851702713894e-20  6.635685535698492e-01
-5.061851702713894e-20 -1.113685102789363e-17  2.594995145893515e-01
 6.635685535698492e-01  2.594995145893515e-01 -1.695655821681232e-17

-1.574673033335532e-17 -5.057443653456914e-20  6.635685920674091e-01
-5.057443653456914e-20 -1.113685875062436e-17  2.595028418829649e-01
 6.635685920674091e-01  2.595028418829649e-01 -1.695655893827897e-17

-1.574672138577516e-17 -5.053040197241172e-20  6.635686303712035e-01
-5.053040197241172e-20 -1.113686892708531e-17  2.595061556120702e-01
 6.635686303712035e-01  2.595061556120702e-01 -1.695655953697819e-17

-1.574670920342346e-17 -5.048609170383592e-20  6.635686684810521e-01
-5.048609170383592e-20 -1.113688240487647e-17  2.595094178224233e-01
 6.635686684810521e-01  2.595094178224233e-01 -1.695656000647949e-17

-1.574669387380000e-17 -5.044185044763353e-20  6.635687063967770e-01
-5.044185044763353e-20 -1.113689912118031e-17  2.595125238812864e-01
 6.635687063967770e-01  2.595125238812864e-01 -1.695656035014369e-17

-1.574667578943422e-17 -5.039912290591099e-20  6.635687441181919e-01
-5.039912290591099e-20 -1.113691863551897e-17  2.595152782600604e-01
 6.635687441181919e-01  2.595152782600604e-01 -1.695656058306353e-17

-1.574665565221019e-17 -5.035784509745807e-20  6.635687816451048e-01
-5.035784509745807e-20 -1.113693989838535e-17  2.595176213573856e-01
 6.635687816451048e-01  2.595176213573856e-01 -1.695656073222979e-17

-1.574661227143917e-17  5.024014772172950e-20  6.635688561146351e-01
 5.024014772172950e-20 -1.113698485601342e-17  2.651567922140595e-01
 6.635688561146351e-01  2.651567922140595e-01 -1.695656121604792e-17

-1.574663350553118e-17  5.030815335687461e-20  6.635688189773197e-01
 5.030815335687461e-20 -1.113696217386580e-17  2.651606925431010e-01
 6.635688189773197e-01  2.651606925431010e-01 -1.695656111686952e-17

-1.574659214287501e-17  5.016378051802162e-20  6.635688930568442e-01
 5.016378051802162e-20 -1.113700602508408e-17  2.651525192954681e-01
 6.635688930568442e-01  2.651525192954681e-01 -1.695656135294283e-17

-1.574657407641458e-17  5.008884104638507e-20  6.635689298037386e-01
 5.008884104638507e-20 -1.113702535126010e-17  2.651486556251501e-01
 6.635689298037386e-01  2.651486556251501e-01 -1.695656156434035e-17

-1.574655877394244e-17  5.001542903950796e-20  6.635689663550990e-01
 5.001542903950796e-20 -1.113704196318725e-17  2.651451448081334e-01
 6.635689663550990e-01  2.651451448081334e-01 -1.695656187723078e-17

-1.574654662798886e-17  4.994206253422532e-20  6.635690027107028e-01
 4.994206253422532e-20 -1.113705537910478e-17  2.651417878842180e-01
 6.635690027107028e-01  2.651417878842180e-01 -1.695656230670598e-17

-1.574653772605444e-17  4.986842340790985e-20  6.635690388703284e-01
 4.986842340790985e-20 -1.113706576244506e-17  2.651384834269814e-01
 6.635690388703284e-01  2.651384834269814e-01 -1.695656285612585e-17

-1.574653190105937e-17  4.979480421202341e-20  6.635690748337424e-01
 4.979480421202341e-20 -1.113707282920487e-17  2.651351900506541e-01
 6.635690748337424e-01  2.651351900506541e-01 -1.695656351905855e-17

-1.574652880673898e-17  4.972170889575514e-20  6.635691106007064e-01
 4.972170889575514e-20 -1.113707747024779e-17  2.651318958877311e-01
 6.635691106007064e-01  2.651318958877311e-01 -1.695656428218033e-17

-1.574652799710386e-17  4.964950305529252e-20  6.635691461709811e-01
 4.964950305529252e-20 -1.113707973443592e-17  2.651285952727677e-01
 6.635691461709811e-01  2.651285952727677e-01 -1.695656512833181e-17

-1.574652899502395e-17  4.957848557101704e-20  6.635691815443222e-01
 4.957848557101704e-20 -1.113707992065350e-17  2.651252891007851e-01
 6.635691815443222e-01  2.651252891007851e-01 -1.695656603915579e-17

-1.574653134261071e-17  4.950877488523165e-20  6.635692167204752e-01
 4.950877488523165e-20 -1.113707911511031e-17  2.651219759421634e-01
 6.635692167204752e-01  2.651219759421634e-01 -1.695656699703502e-17

-1.574653463241074e-17  4.944039927917953e-20  6.635692516991865e-01
 4.944039927917953e-20 -1.113707694865043e-17  2.651186571499576e-01
 6.635692516991865e-01  2.651186571499576e-01 -1.695656798629195e-17

-1.574653852230800e-17  4.937332982892214e-20  6.635692864801924e-01
 4.937332982892214e-20 -1.113707469154265e-17  2.651153338811080e-01
 6.635692864801924e-01  2.651153338811080e-01 -1.695656899376182e-17

-1.574654273857329e-17  4.930743650078389e-20  6.635693210632295e-01
 4.930743650078389e-20 -1.113707213356113e-17  2.651120047976839e-01
 6.635693210632295e-01  2.651120047976839e-01 -1.695657000891002e-17

-1.574654707145995e-17  4.924260747468592e-20  6.635693554480253e-01
 4.924260747468592e-20 -1.113706899434414e-17  2.651086717911036e-01
 6.635693554480253e-01  2.651086717911036e-01 -1.695657102366281e-17

-1.574655136690564e-17  4.917869151646746e-20  6.635693896343039e-01
 4.917869151646746e-20 -1.113706606779638e-17  2.651053333597438e-01
 6.635693896343039e-01  2.651053333597438e-01 -1.695657203208778e-17

-1.574655551684673e-17  4.911556802874845e-20  6.635694236217844e-01
 4.911556802874845e-20 -1.113706344195567e-17  2.651019912652133e-01
 6.635694236217844e-01  2.651019912652133e-01 -1.695657303002183e-17

-1.574655944970002e-17  4.905308660592736e-20  6.635694574101801e-01
 4.905308660592736e-20 -1.113706061715415e-17  2.650986439095802e-01
 6.635694574101801e-01  2.650986439095802e-01 -1.695657401470469e-17

-1.574656312184141e-17  4.899115757940721e-20  6.635694909992019e-01
 4.899115757940721e-20 -1.113705868926633e-17  2.650952929849667e-01
 6.635694909992019e-01  2.650952929849667e-01 -1.695657498445137e-17

-1.574656651042251e-17  4.892965007878492e-20  6.635695243885517e-01
 4.892965007878492e-20 -1.113705682139891e-17  2.650919368444715e-01
 6.635695243885517e-01  2.650919368444715e-01 -1.695657593837579e-17

-1.574656960756800e-17  4.886848899207346e-20  6.635695575779316e-01
 4.886848899207346e-20 -1.113705480050580e-17  2.650885767305016e-01
 6.635695575779316e-01  2.650885767305016e-01 -1.695657687616770e-17

-1.574657241583994e-17  4.880760405451990e-20  6.635695905670327e-01
 4.880760405451990e-20 -1.113705351293743e-17  2.650852126304798e-01
 6.635695905670327e-01  2.650852126304798e-01 -1.695657779791803e-17

-1.574657494478520e-17  4.874690704341866e-20  6.635696233555465e-01
 4.874690704341866e-20 -1.113705223016433e-17  2.650818432796359e-01
 6.635696233555465e-01  2.650818432796359e-01 -1.695657870398645e-17

-1.574657720836896e-17  4.868636894365760e-20  6.635696559431564e-01
 4.868636894365760e-20 -1.113705110455723e-17  2.650784703111588e-01
 6.635696559431564e-01  2.650784703111588e-01 -1.695657959490222e-17

-1.574657922310725e-17  4.862593092529672e-20  6.635696883295421e-01
 4.862593092529672e-20 -1.113705047998385e-17  2.650750920349856e-01
 6.635696883295421e-01  2.650750920349856e-01 -1.695658047129275e-17

-1.574658100673932e-17  4.856556505907892e-20  6.635697205143766e-01
 4.856556505907892e-20 -1.113705022741942e-17  2.650717100765840e-01
 6.635697205143766e-01  2.650717100765840e-01 -1.695658133383225e-17

-1.574658257730684e-17  4.850522192327154e-20  6.635697524973331e-01
 4.850522192327154e-20 -1.113704964721634e-17  2.650683227393441e-01
 6.635697524973331e-01  2.650683227393441e-01 -1.695658218320657e-17

-1.574658395253489e-17  4.844490512874197e-20  6.635697842780721e-01
 4.844490512874197e-20 -1.113704978664286e-17  2.650649316430006e-01
 6.635697842780721e-01  2.650649316430006e-01 -1.695658302008911e-17

-1.574658514943351e-17  4.838455702353047e-20  6.635698158562559e-01
 4.838455702353047e-20 -1.113704991895380e-17  2.650615350866421e-01
 6.635698158562559e-01  2.650615350866421e-01 -1.695658384512583e-17

-1.574658618405682e-17  4.832419550093856e-20  6.635698472315380e-01
 4.832419550093856e-20 -1.113705008761942e-17  2.650581346862051e-01
 6.635698472315380e-01  2.650581346862051e-01 -1.695658465892563e-17

-1.574658707137451e-17  4.826377923027286e-20  6.635698784035684e-01
 4.826377923027286e-20 -1.113705042424313e-17  2.650547287371582e-01
 6.635698784035684e-01  2.650547287371582e-01 -1.695658546205566e-17

-1.574658782522010e-17  4.820331354959304e-20  6.635699093719932e-01
 4.820331354959304e-20 -1.113705104078739e-17  2.650513184376673e-01
 6.635699093719932e-01  2.650513184376673e-01 -1.695658625503928e-17

-1.574658845829108e-17  4.814278512418284e-20  6.635699401364499e-01
 4.814278512418284e-20 -1.113705173364457e-17  2.650479037399447e-01
 6.635699401364499e-01  2.650479037399447e-01 -1.695658703835596e-17

-1.574658898218350e-17  4.808217616213149e-20  6.635699706965765e-01
 4.808217616213149e-20 -1.113705248409731e-17  2.650444833507189e-01
 6.635699706965765e-01  2.650444833507189e-01 -1.695658781244277e-17

-1.574658940744724e-17  4.802149283103636e-20  6.635700010520005e-01
 4.802149283103636e-20 -1.113705289592053e-17  2.650410588792723e-01
 6.635700010520005e-01  2.650410588792723e-01 -1.695658857769633e-17

-1.574658974365329e-17  4.796072393101023e-20  6.635700312023493e-01
 4.796072393101023e-20 -1.113705415620531e-17  2.650376286156426e-01
 6.635700312023493e-01  2.650376286156426e-01 -1.695658933447554e-17

-1.574658999946681e-17  4.789986575239866e-20  6.635700611472400e-01
 4.789986575239866e-20 -1.113705494680750e-17  2.650341941675783e-01
 6.635700611472400e-01  2.650341941675783e-01 -1.695659008310434e-17

-1.574659018272125e-17  4.783891119679844e-20  6.635700908862925e-01
 4.783891119679844e-20 -1.113705584878157e-17  2.650307538232619e-01
 6.635700908862925e-01  2.650307538232619e-01 -1.695659082387460e-17

-1.574659030049155e-17  4.777786845331539e-20  6.635701204191123e-01
 4.777786845331539e-20 -1.113705716845489e-17  2.650273091892010e-01
 6.635701204191123e-01  2.650273091892010e-01 -1.695659155704874e-17

-1.574659035916365e-17  4.771671308366321e-20  6.635701497453094e-01
 4.771671308366321e-20 -1.113705791201352e-17  2.650238585521346e-01
 6.635701497453094e-01  2.650238585521346e-01 -1.695659228286277e-17

-1.574659036450024e-17  4.765546626759456e-20  6.635701788644818e-01
 4.765546626759456e-20 -1.113705913454779e-17  2.650204031023907e-01
 6.635701788644818e-01  2.650204031023907e-01 -1.695659300152849e-17

-1.574659032170156e-17  4.759412393807037e-20  6.635702077762262e-01
 4.759412393807037e-20 -1.113706058159759e-17  2.650169427852744e-01
 6.635702077762262e-01  2.650169427852744e-01 -1.695659371323590e-17

-1.574659023546113e-17  4.753266527291913e-20  6.635702364801332e-01
 4.753266527291913e-20 -1.113706177348676e-17  2.650134763010367e-01
 6.635702364801332e-01  2.650134763010367e-01 -1.695659441815557e-17

-1.574659011001669e-17  4.747111032716899e-20  6.635702649757885e-01
 4.747111032716899e-20 -1.113706311923391e-17  2.650100052533612e-01
 6.635702649757885e-01  2.650100052533612e-01 -1.695659511644015e-17

-1.574658994919669e-17  4.740943457400680e-20  6.635702932627741e-01
 4.740943457400680e-20 -1.113706406920812e-17  2.650065279267561e-01
 6.635702932627741e-01  2.650065279267561e-01 -1.695659580822671e-17

-1.574658975646181e-17  4.734766892806667e-20  6.635703213406642e-01
 4.734766892806667e-20 -1.113706584424788e-17  2.650030459243780e-01
 6.635703213406642e-01  2.650030459243780e-01 -1.695659649363787e-17

-1.574658953494266e-17  4.728577674682188e-20  6.635703492090328e-01
 4.728577674682188e-20 -1.113706689622217e-17  2.649995575300422e-01
 6.635703492090328e-01  2.649995575300422e-01 -1.695659717278349e-17

-1.574658928747348e-17  4.722378730740624e-20  6.635703768674442e-01
 4.722378730740624e-20 -1.113706821900651e-17  2.649960643459554e-01
 6.635703768674442e-01  2.649960643459554e-01 -1.695659784576191e-17

-1.574658901662256e-17  4.716167731909851e-20  6.635704043154603e-01
 4.716167731909851e-20 -1.113706946321405e-17  2.649925646556035e-01
 6.635704043154603e-01  2.649925646556035e-01 -1.695659851266113e-17

-1.574658872471908e-17  4.709946833338943e-20  6.635704315526395e-01
 4.709946833338943e-20 -1.113707105765160e-17  2.649890600605924e-01
 6.635704315526395e-01  2.649890600605924e-01 -1.695659917355982e-17

-1.574658841387788e-17  4.703713571928803e-20  6.635704585785296e-01
 4.703713571928803e-20 -1.113707254736307e-17  2.649855488438559e-01
 6.635704585785296e-01  2.649855488438559e-01 -1.695659982852828e-17

-1.574658808602055e-17  4.697469548187775e-20  6.635704853926822e-01
 4.697469548187775e-20 -1.113707408637766e-17  2.649820321918719e-01
 6.635704853926822e-01  2.649820321918719e-01 -1.695660047762930e-17

-1.574658774289533e-17  4.691214237482916e-20  6.635705119946356e-01
 4.691214237482916e-20 -1.113707523281296e-17  2.649785100462358e-01
 6.635705119946356e-01  2.649785100462358e-01 -1.695660112091878e-17

-1.574658738609425e-17  4.684946697970448e-20  6.635705383839285e-01
 4.684946697970448e-20 -1.113707664010647e-17  2.649749811043017e-01
 6.635705383839285e-01  2.649749811043017e-01 -1.695660175844666e-17

-1.574658701706837e-17  4.678668563865485e-20  6.635705645600931e-01
 4.678668563865485e-20 -1.113707791089295e-17  2.649714469665072e-01
 6.635705645600931e-01  2.649714469665072e-01 -1.695660239025713e-17

-1.574658663714228e-17  4.672378197718944e-20  6.635705905226557e-01
 4.672378197718944e-20 -1.113707957716587e-17  2.649679059148596e-01
 6.635705905226557e-01  2.649679059148596e-01 -1.695660301638959e-17

-1.574658624752576e-17  4.666076911735739e-20  6.635706162711400e-01
 4.666076911735739e-20 -1.113708096560120e-17  2.649643595499306e-01
 6.635706162711400e-01  2.649643595499306e-01 -1.695660363687873e-17

-1.574658584932549e-17  4.659763018400153e-20  6.635706418050634e-01
 4.659763018400153e-20 -1.113708236745363e-17  2.649608061530833e-01
 6.635706418050634e-01  2.649608061530833e-01 -1.695660425175538e-17

-1.574658544355460e-17  4.653437903971581e-20  6.635706671239375e-01
 4.653437903971581e-20 -1.113708358006267e-17  2.649572473246133e-01
 6.635706671239375e-01  2.649572473246133e-01 -1.695660486104637e-17

-1.574658503114172e-17  4.647100795061580e-20  6.635706922272715e-01
 4.647100795061580e-20 -1.113708542124617e-17  2.649536813456410e-01
 6.635706922272715e-01  2.649536813456410e-01 -1.695660546477541e-17

-1.574658461293893e-17  4.640751330686709e-20  6.635707171145671e-01
 4.640751330686709e-20 -1.113708659975819e-17  2.649501094015210e-01
 6.635707171145671e-01  2.649501094015210e-01 -1.695660606296297e-17

-1.574658418972906e-17  4.634390746933024e-20  6.635707417853244e-01
 4.634390746933024e-20 -1.113708804248896e-17  2.649465314326751e-01
 6.635707417853244e-01  2.649465314326751e-01 -1.695660665562682e-17

-1.574658376223188e-17  4.628016897836742e-20  6.635707662390345e-01
 4.628016897836742e-20 -1.113708943494188e-17  2.649429461347931e-01
 6.635707662390345e-01  2.649429461347931e-01 -1.695660724278224e-17

-1.574658333110999e-17  4.621631952127874e-20  6.635707904751885e-01
 4.621631952127874e-20 -1.113709092110311e-17  2.649393551075968e-01
 6.635707904751885e-01  2.649393551075968e-01 -1.695660782444204e-17

-1.574658289697413e-17  4.615233349614993e-20  6.635708144932660e-01
 4.615233349614993e-20 -1.113709187805699e-17  2.649357566319263e-01
 6.635708144932660e-01  2.649357566319263e-01 -1.695660840061706e-17

-1.574658246038779e-17  4.608824148454921e-20  6.635708382927489e-01
 4.608824148454921e-20 -1.113709360162290e-17  2.649321523072032e-01
 6.635708382927489e-01  2.649321523072032e-01 -1.695660897131607e-17

-1.574658202187134e-17  4.602401306986269e-20  6.635708618731097e-01
 4.602401306986269e-20 -1.113709509095019e-17  2.649285404140763e-01
 6.635708618731097e-01  2.649285404140763e-01 -1.695660953654624e-17

-1.574658158190597e-17  4.595966883225818e-20  6.635708852338174e-01
 4.595966883225818e-20 -1.113709657174900e-17  2.649249225518536e-01
 6.635708852338174e-01  2.649249225518536e-01 -1.695661009631287e-17

-1.574658114093694e-17  4.589518769508105e-20  6.635709083743363e-01
 4.589518769508105e-20 -1.113709798825683e-17  2.649212970010033e-01
 6.635709083743363e-01  2.649212970010033e-01 -1.695661065062004e-17

-1.574658069937717e-17  4.583058588997427e-20  6.635709312941265e-01
 4.583058588997427e-20 -1.113709884559528e-17  2.649176653610374e-01
 6.635709312941265e-01  2.649176653610374e-01 -1.695661119947022e-17

-1.574658025760925e-17  4.576584939335443e-20  6.635709539926407e-01
 4.576584939335443e-20 -1.113710030831022e-17  2.649140259118097e-01
 6.635709539926407e-01  2.649140259118097e-01 -1.695661174286476e-17

-1.574657981598884e-17  4.570099046394294e-20  6.635709764693296e-01
 4.570099046394294e-20 -1.113710161966987e-17  2.649103798379199e-01
 6.635709764693296e-01  2.649103798379199e-01 -1.695661228080374e-17

-1.574657937484628e-17  4.563600610738668e-20  6.635709987236373e-01
 4.563600610738668e-20 -1.113710286211444e-17  2.649067270789454e-01
 6.635709987236373e-01  2.649067270789454e-01 -1.695661281328622e-17

-1.574657893448910e-17  4.557088611086267e-20  6.635710207550050e-01
 4.557088611086267e-20 -1.113710434972916e-17  2.649030663296731e-01
 6.635710207550050e-01  2.649030663296731e-01 -1.695661334031026e-17

-1.574657849520378e-17  4.550563909331350e-20  6.635710425628654e-01
 4.550563909331350e-20 -1.113710551853241e-17  2.648993991893761e-01
 6.635710425628654e-01  2.648993991893761e-01 -1.695661386187296e-17

-1.574657805725755e-17  4.544025696501483e-20  6.635710641466505e-01
 4.544025696501483e-20 -1.113710713170624e-17  2.648957239379641e-01
 6.635710641466505e-01  2.648957239379641e-01 -1.695661437797055e-17

-1.574657762089984e-17  4.537474828638668e-20  6.635710855057849e-01
 4.537474828638668e-20 -1.113710845055363e-17  2.648920421744406e-01
 6.635710855057849e-01  2.648920421744406e-01 -1.695661488859851e-17

-1.574657718636356e-17  4.530909627688544e-20  6.635711066396894e-01
 4.530909627688544e-20 -1.113710974012710e-17  2.648883521786534e-01
 6.635711066396894e-01  2.648883521786534e-01 -1.695661539375153e-17

-1.574657675386707e-17  4.524331061368282e-20  6.635711275477789e-01
 4.524331061368282e-20 -1.113711049280764e-17  2.648846555495278e-01
 6.635711275477789e-01  2.648846555495278e-01 -1.695661589342360e-17

-1.574657632361449e-17  4.517739053149098e-20  6.635711482294642e-01
 4.517739053149098e-20 -1.113711196376008e-17  2.648809505668835e-01
 6.635711482294642e-01  2.648809505668835e-01 -1.695661638760809e-17

-1.574657589579736e-17  4.511133190969690e-20  6.635711686841533e-01
 4.511133190969690e-20 -1.113711292224586e-17  2.648772384146776e-01
 6.635711686841533e-01  2.648772384146776e-01 -1.695661687629775e-17

-1.574657547059545e-17  4.504514580337487e-20  6.635711889112443e-01
 4.504514580337487e-20 -1.113711445448223e-17  2.648735190322622e-01
 6.635711889112443e-01  2.648735190322622e-01 -1.695661735948468e-17

-1.574657504817769e-17  4.497881278913020e-20  6.635712089101354e-01
 4.497881278913020e-20 -1.113711598604289e-17  2.648697911140513e-01
 6.635712089101354e-01  2.648697911140513e-01 -1.695661783716066e-17

-1.574657462870292e-17  4.491234703150169e-20  6.635712286802177e-01
 4.491234703150169e-20 -1.113711719150375e-17  2.648660562589693e-01
 6.635712286802177e-01  2.648660562589693e-01 -1.695661830931668e-17

-1.574657421232083e-17  4.484573003859809e-20  6.635712482208769e-01
 4.484573003859809e-20 -1.113711820550832e-17  2.648623127466957e-01
 6.635712482208769e-01  2.648623127466957e-01 -1.695661877594346e-17

-1.574657379917247e-17  4.477898256777808e-20  6.635712675314954e-01
 4.477898256777808e-20 -1.113711949916776e-17  2.648585621758553e-01
 6.635712675314954e-01  2.648585621758553e-01 -1.695661923703122e-17

-1.574657338939083e-17  4.471208330843450e-20  6.635712866114510e-01
 4.471208330843450e-20 -1.113712066499025e-17  2.648548028262131e-01
 6.635712866114510e-01  2.648548028262131e-01 -1.695661969256970e-17

-1.574657298310187e-17  4.464504200602962e-20  6.635713054601131e-01
 4.464504200602962e-20 -1.113712131892036e-17  2.648510362962168e-01
 6.635713054601131e-01  2.648510362962168e-01 -1.695662014254830e-17

-1.574657258042439e-17  4.457785405249020e-20  6.635713240768516e-01
 4.457785405249020e-20 -1.113712255030896e-17  2.648472608658580e-01
 6.635713240768516e-01  2.648472608658580e-01 -1.695662058695604e-17

-1.574657218147116e-17  4.451053414638951e-20  6.635713424610281e-01
 4.451053414638951e-20 -1.113712395832685e-17  2.648434781333749e-01
 6.635713424610281e-01  2.648434781333749e-01 -1.695662102578152e-17

-1.574657178634881e-17  4.444305657301924e-20  6.635713606119985e-01
 4.444305657301924e-20 -1.113712524876788e-17  2.648396863786107e-01
 6.635713606119985e-01  2.648396863786107e-01 -1.695662145901303e-17

-1.574657139515880e-17  4.437543194933613e-20  6.635713785291179e-01
 4.437543194933613e-20 -1.113712614798210e-17  2.648358867850444e-01
 6.635713785291179e-01  2.648358867850444e-01 -1.695662188663857e-17

-1.574657100799736e-17  4.430766549047320e-20  6.635713962117329e-01
 4.430766549047320e-20 -1.113712721530589e-17  2.648320792920688e-01
 6.635713962117329e-01  2.648320792920688e-01 -1.695662230864577e-17

-1.574657062495600e-17  4.423974212366606e-20  6.635714136591856e-01
 4.423974212366606e-20 -1.113712840615874e-17  2.648282625939108e-01
 6.635714136591856e-01  2.648282625939108e-01 -1.695662272502198e-17

-1.574657024612207e-17  4.417167605527373e-20  6.635714308708160e-01
 4.417167605527373e-20 -1.113712945324974e-17  2.648244382891722e-01
 6.635714308708160e-01  2.648244382891722e-01 -1.695662313575424e-17

-1.574656987157857e-17  4.410344859664783e-20  6.635714478459569e-01
 4.410344859664783e-20 -1.113713039090535e-17  2.648206046576200e-01
 6.635714478459569e-01  2.648206046576200e-01 -1.695662354082938e-17

-1.574656950140492e-17  4.403507541241509e-20  6.635714645839358e-01
 4.403507541241509e-20 -1.113713121262265e-17  2.648167632974707e-01
 6.635714645839358e-01  2.648167632974707e-01 -1.695662394023390e-17

-1.574656913567681e-17  4.396654666287735e-20  6.635714810840770e-01
 4.396654666287735e-20 -1.113713244898666e-17  2.648129124884490e-01
 6.635714810840770e-01  2.648129124884490e-01 -1.695662433395404e-17

-1.574656877446692e-17  4.389786689144370e-20  6.635714973456990e-01
 4.389786689144370e-20 -1.113713335502383e-17  2.648090538293367e-01
 6.635714973456990e-01  2.648090538293367e-01 -1.695662472197587e-17

-1.574656841797170e-17  4.382902375175820e-20  6.635715133681234e-01
 4.382902375175820e-20 -1.113713422714720e-17  2.648051855992761e-01
 6.635715133681234e-01  2.648051855992761e-01 -1.695662510429017e-17

-1.574656806599762e-17  4.376003536227610e-20  6.635715291506447e-01
 4.376003536227610e-20 -1.113713568951324e-17  2.648013089822125e-01
 6.635715291506447e-01  2.648013089822125e-01 -1.695662548087225e-17

-1.574656771874195e-17  4.369088462791205e-20  6.635715446925763e-01
 4.369088462791205e-20 -1.113713638127555e-17  2.647974239171439e-01
 6.635715446925763e-01  2.647974239171439e-01 -1.695662585171263e-17

-1.574656737626599e-17  4.362157566323279e-20  6.635715599932126e-01
 4.362157566323279e-20 -1.113713776244587e-17  2.647935290985522e-01
 6.635715599932126e-01  2.647935290985522e-01 -1.695662621679648e-17

-1.574656703862905e-17  4.355210490114773e-20  6.635715750518548e-01
 4.355210490114773e-20 -1.113713825697859e-17  2.647896261250093e-01
 6.635715750518548e-01  2.647896261250093e-01 -1.695662657610870e-17

-1.574656670588784e-17  4.348246941538357e-20  6.635715898677856e-01
 4.348246941538357e-20 -1.113713917550408e-17  2.647857132760390e-01
 6.635715898677856e-01  2.647857132760390e-01 -1.695662692963398e-17

-1.574656637809727e-17  4.341268303305411e-20  6.635716044402966e-01
 4.341268303305411e-20 -1.113713998280409e-17  2.647817921501807e-01
 6.635716044402966e-01  2.647817921501807e-01 -1.695662727735682e-17

-1.574656605531029e-17  4.334272806019774e-20  6.635716187686627e-01
 4.334272806019774e-20 -1.113714134809797e-17  2.647778610272638e-01
 6.635716187686627e-01  2.647778610272638e-01 -1.695662761926159e-17

-1.574656573757813e-17  4.327260990215148e-20  6.635716328521611e-01
 4.327260990215148e-20 -1.113714184796097e-17  2.647739215057022e-01
 6.635716328521611e-01  2.647739215057022e-01 -1.695662795533234e-17

-1.574656542495029e-17  4.320231982478635e-20  6.635716466900623e-01
 4.320231982478635e-20 -1.113714247638217e-17  2.647699718652392e-01
 6.635716466900623e-01  2.647699718652392e-01 -1.695662828555306e-17

-1.574656511747477e-17  4.313187683893221e-20  6.635716602816316e-01
 4.313187683893221e-20 -1.113714347906409e-17  2.647660137044009e-01
 6.635716602816316e-01  2.647660137044009e-01 -1.695662860990749e-17

-1.574656481519791e-17  4.306125734466077e-20  6.635716736261297e-01
 4.306125734466077e-20 -1.113714439518647e-17  2.647620453029647e-01
 6.635716736261297e-01  2.647620453029647e-01 -1.695662892837922e-17

-1.574656451816509e-17  4.299047285367184e-20  6.635716867228114e-01
 4.299047285367184e-20 -1.113714513339921e-17  2.647580678446116e-01
 6.635716867228114e-01  2.647580678446116e-01 -1.695662924095170e-17

-1.574656422642005e-17  4.291952632594681e-20  6.635716995709293e-01
 4.291952632594681e-20 -1.113714601272191e-17  2.647540812685573e-01
 6.635716995709293e-01  2.647540812685573e-01 -1.695662954760807e-17

-1.574656394000545e-17  4.284839658304661e-20  6.635717121697278e-01
 4.284839658304661e-20 -1.113714657340664e-17  2.647500842695684e-01
 6.635717121697278e-01  2.647500842695684e-01 -1.695662984833156e-17

-1.574656365896286e-17  4.277711059689159e-20  6.635717245184489e-01
 4.277711059689159e-20 -1.113714754495720e-17  2.647460784460146e-01
 6.635717245184489e-01  2.647460784460146e-01 -1.695663014310496e-17

-1.574656338333274e-17  4.270564066127377e-20  6.635717366163283e-01
 4.270564066127377e-20 -1.113714831079018e-17  2.647420620781012e-01
 6.635717366163283e-01  2.647420620781012e-01 -1.695663043191109e-17

-1.574656311315477e-17  4.263400441553318e-20  6.635717484625993e-01
 4.263400441553318e-20 -1.113714888371172e-17  2.647380367641209e-01
 6.635717484625993e-01  2.647380367641209e-01 -1.695663071473255e-17

-1.574656284846723e-17  4.256218752676066e-20  6.635717600564853e-01
 4.256218752676066e-20 -1.113714970697078e-17  2.647340007842838e-01
 6.635717600564853e-01  2.647340007842838e-01 -1.695663099155174e-17

-1.574656258930819e-17  4.249020626032585e-20  6.635717713972110e-01
 4.249020626032585e-20 -1.113715059052592e-17  2.647299557371147e-01
 6.635717713972110e-01  2.647299557371147e-01 -1.695663126235098e-17

-1.574656233571435e-17  4.241803571318875e-20  6.635717824839913e-01
 4.241803571318875e-20 -1.113715107269680e-17  2.647258999026975e-01
 6.635717824839913e-01  2.647258999026975e-01 -1.695663152711244e-17

-1.574656208772192e-17  4.234569536012229e-20  6.635717933160401e-01
 4.234569536012229e-20 -1.113715179943819e-17  2.647218344648910e-01
 6.635717933160401e-01  2.647218344648910e-01 -1.695663178581807e-17

-1.574656184536645e-17  4.227317894117932e-20  6.635718038925622e-01
 4.227317894117932e-20 -1.113715235416575e-17  2.647177593630538e-01
 6.635718038925622e-01  2.647177593630538e-01 -1.695663203844970e-17

-1.574656160868248e-17  4.220048211499537e-20  6.635718142127605e-01
 4.220048211499537e-20 -1.113715354318252e-17  2.647136732921881e-01
 6.635718142127605e-01  2.647136732921881e-01 -1.695663228498905e-17

-1.574656137770446e-17  4.212760412636061e-20  6.635718242758336e-01
 4.212760412636061e-20 -1.113715396207777e-17  2.647095778511567e-01
 6.635718242758336e-01  2.647095778511567e-01 -1.695663252541767e-17

-1.574656115246578e-17  4.205453954084729e-20  6.635718340809716e-01
 4.205453954084729e-20 -1.113715463446488e-17  2.647054713198043e-01
 6.635718340809716e-01  2.647054713198043e-01 -1.695663275971697e-17

-1.574656093299958e-17  4.198129852927931e-20  6.635718436273643e-01
 4.198129852927931e-20 -1.113715502432085e-17  2.647013552973600e-01
 6.635718436273643e-01  2.647013552973600e-01 -1.695663298786819e-17

-1.574656071933829e-17  4.190786675260167e-20  6.635718529141935e-01
 4.190786675260167e-20 -1.113715553646920e-17  2.646972280638211e-01
 6.635718529141935e-01  2.646972280638211e-01 -1.695663320985253e-17

-1.574656051151404e-17  4.183425833000373e-20  6.635718619406362e-01
 4.183425833000373e-20 -1.113715597931686e-17  2.646930912182070e-01
 6.635718619406362e-01  2.646930912182070e-01 -1.695663342565089e-17

-1.574656030955831e-17  4.176045857389972e-20  6.635718707058660e-01
 4.176045857389972e-20 -1.113715676792509e-17  2.646889430408484e-01
 6.635718707058660e-01  2.646889430408484e-01 -1.695663363524418e-17

-1.574656011350239e-17  4.168648206074268e-20  6.635718792090506e-01
 4.168648206074268e-20 -1.113715741743940e-17  2.646847851307314e-01
 6.635718792090506e-01  2.646847851307314e-01 -1.695663383861306e-17

-1.574655992337698e-17  4.161230135241439e-20  6.635718874493527e-01
 4.161230135241439e-20 -1.113715766037579e-17  2.646806157681717e-01
 6.635718874493527e-01  2.646806157681717e-01 -1.695663403573816e-17

-1.574655973921256e-17  4.153794363225171e-20  6.635718954259315e-01
 4.153794363225171e-20 -1.113715840219859e-17  2.646764361374100e-01
 6.635718954259315e-01  2.646764361374100e-01 -1.695663422659995e-17

-1.574655956103918e-17  4.146339729334514e-20  6.635719031379397e-01
 4.146339729334514e-20 -1.113715872879084e-17  2.646722461782594e-01
 6.635719031379397e-01  2.646722461782594e-01 -1.695663441117861e-17

-1.574655938888655e-17  4.138864985000820e-20  6.635719105845239e-01
 4.138864985000820e-20 -1.113715915599178e-17  2.646680445862105e-01
 6.635719105845239e-01  2.646680445862105e-01 -1.695663458945445e-17

-1.574655922278432e-17  4.131372097959790e-20  6.635719177648306e-01
 4.131372097959790e-20 -1.113715956993952e-17  2.646638329602419e-01
 6.635719177648306e-01  2.646638329602419e-01 -1.695663476140743e-17

-1.574655906276143e-17  4.123859301236117e-20  6.635719246779946e-01
 4.123859301236117e-20 -1.113716025877611e-17  2.646596095808873e-01
 6.635719246779946e-01  2.646596095808873e-01 -1.695663492701749e-17

-1.574655890884698e-17  4.116327785012819e-20  6.635719313231520e-01
 4.116327785012819e-20 -1.113716067493345e-17  2.646553760477609e-01
 6.635719313231520e-01  2.646553760477609e-01 -1.695663508626440e-17

-1.574655876106963e-17  4.108775537176673e-20  6.635719376994303e-01
 4.108775537176673e-20 -1.113716080198583e-17  2.646511306412977e-01
 6.635719376994303e-01  2.646511306412977e-01 -1.695663523912780e-17

-1.574655861945782e-17  4.101204585427864e-20  6.635719438059536e-01
 4.101204585427864e-20 -1.113716104239583e-17  2.646468749608829e-01
 6.635719438059536e-01  2.646468749608829e-01 -1.695663538558726e-17

-1.574655848403984e-17  4.093613797214914e-20  6.635719496418396e-01
 4.093613797214914e-20 -1.113716181710306e-17  2.646426072872239e-01
 6.635719496418396e-01  2.646426072872239e-01 -1.695663552562205e-17

-1.574655835484381e-17  4.086002790032084e-20  6.635719552062028e-01
 4.086002790032084e-20 -1.113716180508652e-17  2.646383288052132e-01
 6.635719552062028e-01  2.646383288052132e-01 -1.695663565921158e-17

-1.574655823189764e-17  4.078372760811411e-20  6.635719604981528e-01
 4.078372760811411e-20 -1.113716224754504e-17  2.646340394548439e-01
 6.635719604981528e-01  2.646340394548439e-01 -1.695663578633486e-17

-1.574655811522895e-17  4.070721539115527e-20  6.635719655167904e-01
 4.070721539115527e-20 -1.113716251036615e-17  2.646297379318644e-01
 6.635719655167904e-01  2.646297379318644e-01 -1.695663590697094e-17

-1.574655800486553e-17  4.063051340326349e-20  6.635719702612177e-01
 4.063051340326349e-20 -1.113716286421451e-17  2.646254258360243e-01
 6.635719702612177e-01  2.646254258360243e-01 -1.695663602109867e-17

-1.574655790083470e-17  4.055360082225558e-20  6.635719747305254e-01
 4.055360082225558e-20 -1.113716332784455e-17  2.646211014482031e-01
 6.635719747305254e-01  2.646211014482031e-01 -1.695663612869683e-17

-1.574655780316392e-17  4.047649320368504e-20  6.635719789238049e-01
 4.047649320368504e-20 -1.113716364362276e-17  2.646167663682965e-01
 6.635719789238049e-01  2.646167663682965e-01 -1.695663622974399e-17

-1.574655771188037e-17  4.039916443443035e-20  6.635719828401390e-01
 4.039916443443035e-20 -1.113716339241144e-17  2.646124188772259e-01
 6.635719828401390e-01  2.646124188772259e-01 -1.695663632421869e-17

-1.574655762701121e-17  4.032164921757558e-20  6.635719864786054e-01
 4.032164921757558e-20 -1.113716397976614e-17  2.646080605749996e-01
 6.635719864786054e-01  2.646080605749996e-01 -1.695663641209923e-17

-1.574655754858340e-17  4.024391539078458e-20  6.635719898382794e-01
 4.024391539078458e-20 -1.113716432778122e-17  2.646036897426350e-01
 6.635719898382794e-01  2.646036897426350e-01 -1.695663649336392e-17

-1.574655747662401e-17  4.016597692271438e-20  6.635719929182301e-01
 4.016597692271438e-20 -1.113716402330688e-17  2.645993079804958e-01
 6.635719929182301e-01  2.645993079804958e-01 -1.695663656799081e-17

-1.574655741115985e-17  4.008782983267201e-20  6.635719957175197e-01
 4.008782983267201e-20 -1.113716450140451e-17  2.645949135693982e-01
 6.635719957175197e-01  2.645949135693982e-01 -1.695663663595789e-17

-1.574655735221781e-17  4.000947457019799e-20  6.635719982352085e-01
 4.000947457019799e-20 -1.113716483132190e-17  2.645905076950916e-01
 6.635719982352085e-01  2.645905076950916e-01 -1.695663669724309e-17

-1.574655729982467e-17  3.993090694573066e-20  6.635720004703501e-01
 3.993090694573066e-20 -1.113716448913060e-17  2.645860902981219e-01
 6.635720004703501e-01  2.645860902981219e-01 -1.695663675182403e-17

-1.574655725400708e-17  3.985212638995376e-20  6.635720024219915e-01
 3.985212638995376e-20 -1.113716484041536e-17  2.645816600747330e-01
 6.635720024219915e-01  2.645816600747330e-01 -1.695663679967839e-17

-1.574655721479181e-17  3.977313959790726e-20  6.635720040891787e-01
 3.977313959790726e-20 -1.113716491782837e-17  2.645772186254794e-01
 6.635720040891787e-01  2.645772186254794e-01 -1.695663684078362e-17

-1.574655718220539e-17  3.969392913142851e-20  6.635720054709475e-01
 3.969392913142851e-20 -1.113716493354201e-17  2.645727642317061e-01
 6.635720054709475e-01  2.645727642317061e-01 -1.695663687511708e-17

-1.574655715627467e-17  3.961451541942032e-20  6.635720065663343e-01
 3.961451541942032e-20 -1.113716517740881e-17  2.645682984939974e-01
 6.635720065663343e-01  2.645682984939974e-01 -1.695663690265601e-17

-1.574655713702599e-17  3.953487599048835e-20  6.635720073743656e-01
 3.953487599048835e-20 -1.113716539317412e-17  2.645638196940707e-01
 6.635720073743656e-01  2.645638196940707e-01 -1.695663692337747e-17

-1.574655712448621e-17  3.945502505203038e-20  6.635720078940660e-01
 3.945502505203038e-20 -1.113716516664390e-17  2.645593294324456e-01
 6.635720078940660e-01  2.645593294324456e-01 -1.695663693725850e-17

-1.574655711868168e-17  3.937494989555859e-20  6.635720081244532e-01
 3.937494989555859e-20 -1.113716511074775e-17  2.645548259908080e-01
 6.635720081244532e-01  2.645548259908080e-01 -1.695663694427589e-17

-1.574655711963919e-17  3.929466114681134e-20  6.635720080645408e-01
 3.929466114681134e-20 -1.113716527398310e-17  2.645503105554323e-01
 6.635720080645408e-01  2.645503105554323e-01 -1.695663694440641e-17

-1.574655712738518e-17  3.921415702731738e-20  6.635720077133364e-01
 3.921415702731738e-20 -1.113716532656119e-17  2.645457830672966e-01
 6.635720077133364e-01  2.645457830672966e-01 -1.695663693762658e-17

-1.574655714194629e-17  3.913342116157667e-20  6.635720070698429e-01
 3.913342116157667e-20 -1.113716527106385e-17  2.645412422234258e-01
 6.635720070698429e-01  2.645412422234258e-01 -1.695663692391303e-17

-1.574655716334925e-17  3.905247041212099e-20  6.635720061330596e-01
 3.905247041212099e-20 -1.113716495602739e-17  2.645366896247405e-01
 6.635720061330596e-01  2.645366896247405e-01 -1.695663690324195e-17

-1.574655719162053e-17  3.897128980877829e-20  6.635720049019760e-01
 3.897128980877829e-20 -1.113716488456394e-17  2.645321235534112e-01
 6.635720049019760e-01  2.645321235534112e-01 -1.695663687558965e-17

-1.574655722678681e-17  3.888989333133784e-20  6.635720033755834e-01
 3.888989333133784e-20 -1.113716473906005e-17  2.645275456106213e-01
 6.635720033755834e-01  2.645275456106213e-01 -1.695663684093220e-17

-1.574655726887485e-17  3.880826528865831e-20  6.635720015528614e-01
 3.880826528865831e-20 -1.113716480092910e-17  2.645229540783671e-01
 6.635720015528614e-01  2.645229540783671e-01 -1.695663679924556e-17

-1.574655731791135e-17  3.872641740653827e-20  6.635719994327892e-01
 3.872641740653827e-20 -1.113716457349323e-17  2.645183505580992e-01
 6.635719994327892e-01  2.645183505580992e-01 -1.695663675050559e-17

-1.574655737392302e-17  3.864433523834013e-20  6.635719970143384e-01
 3.864433523834013e-20 -1.113716449209608e-17  2.645137333320686e-01
 6.635719970143384e-01  2.645137333320686e-01 -1.695663669468803e-17

-1.574655743693666e-17  3.856203532801654e-20  6.635719942964757e-01
 3.856203532801654e-20 -1.113716454562785e-17  2.645091040019840e-01
 6.635719942964757e-01  2.645091040019840e-01 -1.695663663176843e-17

-1.574655750697907e-17  3.847949397088105e-20  6.635719912781624e-01
 3.847949397088105e-20 -1.113716427576450e-17  2.645044608500424e-01
 6.635719912781624e-01  2.645044608500424e-01 -1.695663656172228e-17

-1.574655758407721e-17  3.839672732654584e-20  6.635719879583559e-01
 3.839672732654584e-20 -1.113716406397478e-17  2.644998050631542e-01
 6.635719879583559e-01  2.644998050631542e-01 -1.695663648452493e-17

-1.574655766825790e-17  3.831372909541003e-20  6.635719843360077e-01
 3.831372909541003e-20 -1.113716337914728e-17  2.644951365833086e-01
 6.635719843360077e-01  2.644951365833086e-01 -1.695663640015154e-17

-1.574655775954821e-17  3.823049883651201e-20  6.635719804100624e-01
 3.823049883651201e-20 -1.113716347399371e-17  2.644904541082358e-01
 6.635719804100624e-01  2.644904541082358e-01 -1.695663630857731e-17

-1.574655785797512e-17  3.814704106011758e-20  6.635719761794625e-01
 3.814704106011758e-20 -1.113716328567499e-17  2.644857592397457e-01
 6.635719761794625e-01  2.644857592397457e-01 -1.695663620977706e-17

-1.574655796356565e-17  3.806333993196966e-20  6.635719716431422e-01
 3.806333993196966e-20 -1.113716306177970e-17  2.644810502606476e-01
 6.635719716431422e-01  2.644810502606476e-01 -1.695663610372570e-17

-1.574655807634714e-17  3.797940771723984e-20  6.635719668000339e-01
 3.797940771723984e-20 -1.113716240900578e-17  2.644763287728551e-01
 6.635719668000339e-01  2.644763287728551e-01 -1.695663599039795e-17

-1.574655819634661e-17  3.789523595862939e-20  6.635719616490598e-01
 3.789523595862939e-20 -1.113716231256059e-17  2.644715930597430e-01
 6.635719616490598e-01  2.644715930597430e-01 -1.695663586976835e-17

-1.574655832359150e-17  3.781083115687360e-20  6.635719561891422e-01
 3.781083115687360e-20 -1.113716161402004e-17  2.644668447229927e-01
 6.635719561891422e-01  2.644668447229927e-01 -1.695663574181137e-17

-1.574655845810903e-17  3.772618699286636e-20  6.635719504191945e-01
 3.772618699286636e-20 -1.113716170183333e-17  2.644620820461674e-01
 6.635719504191945e-01  2.644620820461674e-01 -1.695663560650133e-17

-1.574655859992672e-17  3.764129904818900e-20  6.635719443381264e-01
 3.764129904818900e-20 -1.113716097274764e-17  2.644573062164188e-01
 6.635719443381264e-01  2.644573062164188e-01 -1.695663546381244e-17

-1.574655874907201e-17  3.755618115656202e-20  6.635719379448418e-01
 3.755618115656202e-20 -1.113716075279386e-17  2.644525171767176e-01
 6.635719379448418e-01  2.644525171767176e-01 -1.695663531371870e-17

-1.574655890557251e-17  3.747080889757325e-20  6.635719312382371e-01
 3.747080889757325e-20 -1.113716015374900e-17  2.644477136252916e-01
 6.635719312382371e-01  2.644477136252916e-01 -1.695663515619415e-17

-1.574655906945580e-17  3.738520739498641e-20  6.635719242172097e-01
 3.738520739498641e-20 -1.113715982976663e-17  2.644428971649044e-01
 6.635719242172097e-01  2.644428971649044e-01 -1.695663499121249e-17

-1.574655924074971e-17  3.729934717787134e-20  6.635719168806431e-01
 3.729934717787134e-20 -1.113715910074471e-17  2.644380660789322e-01
 6.635719168806431e-01  2.644380660789322e-01 -1.695663481874751e-17

-1.574655941948200e-17  3.721326024497592e-20  6.635719092274225e-01
 3.721326024497592e-20 -1.113715891495483e-17  2.644332219702061e-01
 6.635719092274225e-01  2.644332219702061e-01 -1.695663463877267e-17

-1.574655960568054e-17  3.712691241649692e-20  6.635719012564234e-01
 3.712691241649692e-20 -1.113715823873982e-17  2.644283631222594e-01
 6.635719012564234e-01  2.644283631222594e-01 -1.695663445126147e-17

-1.574655979937335e-17  3.704033206858985e-20  6.635718929665191e-01
 3.704033206858985e-20 -1.113715785033602e-17  2.644234911383582e-01
 6.635718929665191e-01  2.644234911383582e-01 -1.695663425618711e-17

-1.574656000058850e-17  3.695349295099958e-20  6.635718843565744e-01
 3.695349295099958e-20 -1.113715745345470e-17  2.644186043021114e-01
 6.635718843565744e-01  2.644186043021114e-01 -1.695663405352285e-17

-1.574656020935424e-17  3.686641048582526e-20  6.635718754254510e-01
 3.686641048582526e-20 -1.113715645809269e-17  2.644137042165953e-01
 6.635718754254510e-01  2.644137042165953e-01 -1.695663384324166e-17

-1.574656042569862e-17  3.677907694020662e-20  6.635718661720038e-01
 3.677907694020662e-20 -1.113715623980705e-17  2.644087891661675e-01
 6.635718661720038e-01  2.644087891661675e-01 -1.695663362531643e-17

-1.574656064965017e-17  3.669149169463384e-20  6.635718565950820e-01
 3.669149169463384e-20 -1.113715549059754e-17  2.644038603388592e-01
 6.635718565950820e-01  2.644038603388592e-01 -1.695663339971995e-17

-1.574656088123721e-17  3.660366171600504e-20  6.635718466935322e-01
 3.660366171600504e-20 -1.113715464234256e-17  2.643989176785648e-01
 6.635718466935322e-01  2.643989176785648e-01 -1.695663316642485e-17

-1.574656112048838e-17  3.651557051201923e-20  6.635718364661903e-01
 3.651557051201923e-20 -1.113715395678652e-17  2.643939598845738e-01
 6.635718364661903e-01  2.643939598845738e-01 -1.695663292540367e-17

-1.574656136743229e-17  3.642724030287390e-20  6.635718259118927e-01
 3.642724030287390e-20 -1.113715377568868e-17  2.643889885602650e-01
 6.635718259118927e-01  2.643889885602650e-01 -1.695663267662875e-17

-1.574656162209759e-17  3.633864185135811e-20  6.635718150294636e-01
 3.633864185135811e-20 -1.113715297692441e-17  2.643840019902438e-01
 6.635718150294636e-01  2.643840019902438e-01 -1.695663242007235e-17

-1.574656188451327e-17  3.624979139055431e-20  6.635718038177296e-01
 3.624979139055431e-20 -1.113715181153219e-17  2.643790017782729e-01
 6.635718038177296e-01  2.643790017782729e-01 -1.695663215570656e-17

-1.574656215470812e-17  3.616068222111153e-20  6.635717922755042e-01
 3.616068222111153e-20 -1.113715112026153e-17  2.643739862087496e-01
 6.635717922755042e-01  2.643739862087496e-01 -1.695663188350337e-17

-1.574656243271127e-17  3.607132865223005e-20  6.635717804015996e-01
 3.607132865223005e-20 -1.113715078498810e-17  2.643689568858328e-01
 6.635717804015996e-01  2.643689568858328e-01 -1.695663160343460e-17

-1.574656271855188e-17  3.598169958355390e-20  6.635717681948214e-01
 3.598169958355390e-20 -1.113714966299166e-17  2.643639120941899e-01
 6.635717681948214e-01  2.643639120941899e-01 -1.695663131547198e-17

-1.574656301225917e-17  3.589182136024152e-20  6.635717556539695e-01
 3.589182136024152e-20 -1.113714904942709e-17  2.643588530230165e-01
 6.635717556539695e-01  2.643588530230165e-01 -1.695663101958711e-17

-1.574656331386250e-17  3.580168815387711e-20  6.635717427778398e-01
 3.580168815387711e-20 -1.113714837549092e-17  2.643537796170200e-01
 6.635717427778398e-01  2.643537796170200e-01 -1.695663071575134e-17

-1.574656362339139e-17  3.571128364489130e-20  6.635717295652177e-01
 3.571128364489130e-20 -1.113714753441461e-17  2.643486905761054e-01
 6.635717295652177e-01  2.643486905761054e-01 -1.695663040393608e-17

-1.574656394087538e-17  3.562062565695649e-20  6.635717160148890e-01
 3.562062565695649e-20 -1.113714663542726e-17  2.643435875045153e-01
 6.635717160148890e-01  2.643435875045153e-01 -1.695663008411243e-17

-1.574656426634418e-17  3.552969524228205e-20  6.635717021256283e-01
 3.552969524228205e-20 -1.113714587614397e-17  2.643384686877531e-01
 6.635717021256283e-01  2.643384686877531e-01 -1.695662975625141e-17

-1.574656459982763e-17  3.543850797375167e-20  6.635716878962105e-01
 3.543850797375167e-20 -1.113714476369117e-17  2.643333357301145e-01
 6.635716878962105e-01  2.643333357301145e-01 -1.695662942032398e-17

-1.574656494135563e-17  3.534704244810868e-20  6.635716733253976e-01
 3.534704244810868e-20 -1.113714338432180e-17  2.643281869172094e-01
 6.635716733253976e-01  2.643281869172094e-01 -1.695662907630086e-17

-1.574656529095825e-17  3.525533146505065e-20  6.635716584119536e-01
 3.525533146505065e-20 -1.113714289897247e-17  2.643230238538004e-01
 6.635716584119536e-01  2.643230238538004e-01 -1.695662872415266e-17

-1.574656564866553e-17  3.516334089639645e-20  6.635716431546296e-01
 3.516334089639645e-20 -1.113714202714672e-17  2.643178448252316e-01
 6.635716431546296e-01  2.643178448252316e-01 -1.695662836384989e-17

-1.574656601450791e-17  3.507109006437263e-20  6.635716275521767e-01
 3.507109006437263e-20 -1.113714106892812e-17  2.643126514367155e-01
 6.635716275521767e-01  2.643126514367155e-01 -1.695662799536288e-17

-1.574656638851572e-17  3.497855691309854e-20  6.635716116033367e-01
 3.497855691309854e-20 -1.113713968587899e-17  2.643074419741481e-01
 6.635716116033367e-01  2.643074419741481e-01 -1.695662761866187e-17

-1.574656677071948e-17  3.488576272247868e-20  6.635715953068445e-01
 3.488576272247868e-20 -1.113713859580208e-17  2.643022176272915e-01
 6.635715953068445e-01  2.643022176272915e-01 -1.695662723371689e-17

-1.574656716114973e-17  3.479270480405948e-20  6.635715786614345e-01
 3.479270480405948e-20 -1.113713768700068e-17  2.642969783421021e-01
 6.635715786614345e-01  2.642969783421021e-01 -1.695662684049785e-17

-1.574656755983744e-17  3.469936316156404e-20  6.635715616658288e-01
 3.469936316156404e-20 -1.113713663715610e-17  2.642917228195424e-01
 6.635715616658288e-01  2.642917228195424e-01 -1.695662643897460e-17

-1.574656796681327e-17  3.460575995510851e-20  6.635715443187492e-01
 3.460575995510851e-20 -1.113713567397874e-17  2.642864526647452e-01
 6.635715443187492e-01  2.642864526647452e-01 -1.695662602911674e-17

-1.574656838210829e-17  3.451187453796315e-20  6.635715266189056e-01
 3.451187453796315e-20 -1.113713468656868e-17  2.642811661643205e-01
 6.635715266189056e-01  2.642811661643205e-01 -1.695662561089380e-17

-1.574656880575375e-17  3.441771995068386e-20  6.635715085650097e-01
 3.441771995068386e-20 -1.113713324702713e-17  2.642758649235984e-01
 6.635715085650097e-01  2.642758649235984e-01 -1.695662518427515e-17

-1.574656923778075e-17  3.432327909146196e-20  6.635714901557590e-01
 3.432327909146196e-20 -1.113713184185070e-17  2.642705472291859e-01
 6.635714901557590e-01  2.642705472291859e-01 -1.695662474922997e-17

-1.574656967822080e-17  3.422857792126359e-20  6.635714713898523e-01
 3.422857792126359e-20 -1.113713086337861e-17  2.642652146867464e-01
 6.635714713898523e-01  2.642652146867464e-01 -1.695662430572740e-17

-1.574657012710529e-17  3.413358683747924e-20  6.635714522659756e-01
 3.413358683747924e-20 -1.113712979394699e-17  2.642598655829007e-01
 6.635714522659756e-01  2.642598655829007e-01 -1.695662385373632e-17

-1.574657058446601e-17  3.403832235688538e-20  6.635714327828147e-01
 3.403832235688538e-20 -1.113712854291360e-17  2.642545011088748e-01
 6.635714327828147e-01  2.642545011088748e-01 -1.695662339322557e-17

-1.574657105033460e-17  3.394278289049310e-20  6.635714129390473e-01
 3.394278289049310e-20 -1.113712715995813e-17  2.642491212108219e-01
 6.635714129390473e-01  2.642491212108219e-01 -1.695662292416377e-17

-1.574657152474302e-17  3.384695325911258e-20  6.635713927333411e-01
 3.384695325911258e-20 -1.113712584965056e-17  2.642437245910345e-01
 6.635713927333411e-01  2.642437245910345e-01 -1.695662244651943e-17

-1.574657200772334e-17  3.375085102463468e-20  6.635713721643667e-01
 3.375085102463468e-20 -1.113712442751924e-17  2.642383128551535e-01
 6.635713721643667e-01  2.642383128551535e-01 -1.695662196026092e-17

-1.574657249930767e-17  3.365446495175057e-20  6.635713512307762e-01
 3.365446495175057e-20 -1.113712357570043e-17  2.642328842907701e-01
 6.635713512307762e-01  2.642328842907701e-01 -1.695662146535642e-17

-1.574657299952836e-17  3.355779555397941e-20  6.635713299312286e-01
 3.355779555397941e-20 -1.113712196603289e-17  2.642274405040738e-01
 6.635713299312286e-01  2.642274405040738e-01 -1.695662096177404e-17

-1.574657350841782e-17  3.346084000600970e-20  6.635713082643655e-01
 3.346084000600970e-20 -1.113712080037679e-17  2.642219797825331e-01
 6.635713082643655e-01  2.642219797825331e-01 -1.695662044948163e-17

-1.574657402600862e-17  3.336360110437528e-20  6.635712862288318e-01
 3.336360110437528e-20 -1.113711906125318e-17  2.642165037326100e-01
 6.635712862288318e-01  2.642165037326100e-01 -1.695661992844703e-17

-1.574657455233353e-17  3.326607117175565e-20  6.635712638232575e-01
 3.326607117175565e-20 -1.113711750384000e-17  2.642110106418866e-01
 6.635712638232575e-01  2.642110106418866e-01 -1.695661939863785e-17

-1.574657508742539e-17  3.316826669739466e-20  6.635712410462739e-01
 3.316826669739466e-20 -1.113711623100382e-17  2.642055021171529e-01
 6.635712410462739e-01  2.642055021171529e-01 -1.695661886002150e-17

-1.574657563131710e-17  3.307016085488825e-20  6.635712178965005e-01
 3.307016085488825e-20 -1.113711465461850e-17  2.641999764460287e-01
 6.635712178965005e-01  2.641999764460287e-01 -1.695661831256535e-17

-1.574657618404195e-17  3.297177388854982e-20  6.635711943725526e-01
 3.297177388854982e-20 -1.113711311270255e-17  2.641944348206723e-01
 6.635711943725526e-01  2.641944348206723e-01 -1.695661775623659e-17

-1.574657674563309e-17  3.287309974687740e-20  6.635711704730404e-01
 3.287309974687740e-20 -1.113711157717535e-17  2.641888771886029e-01
 6.635711704730404e-01  2.641888771886029e-01 -1.695661719100219e-17

-1.574657731612390e-17  3.277412949654154e-20  6.635711461965635e-01
 3.277412949654154e-20 -1.113711011269027e-17  2.641833022525149e-01
 6.635711461965635e-01  2.641833022525149e-01 -1.695661661682906e-17

-1.574657789554810e-17  3.267487779755503e-20  6.635711215417215e-01
 3.267487779755503e-20 -1.113710890687724e-17  2.641777116199440e-01
 6.635711215417215e-01  2.641777116199440e-01 -1.695661603368391e-17

-1.574657848393929e-17  3.257532326794726e-20  6.635710965071011e-01
 3.257532326794726e-20 -1.113710737977344e-17  2.641721035789733e-01
 6.635710965071011e-01  2.641721035789733e-01 -1.695661544153325e-17

-1.574657908133133e-17  3.247547705585940e-20  6.635710710912872e-01
 3.247547705585940e-20 -1.113710513711776e-17  2.641664797367222e-01
 6.635710710912872e-01  2.641664797367222e-01 -1.695661484034356e-17

-1.574657968775819e-17  3.237533983036716e-20  6.635710452928549e-01
 3.237533983036716e-20 -1.113710403641055e-17  2.641608383821023e-01
 6.635710452928549e-01  2.641608383821023e-01 -1.695661423008103e-17

-1.574658030325409e-17  3.227491214949817e-20  6.635710191103756e-01
 3.227491214949817e-20 -1.113710245087015e-17  2.641551811222474e-01
 6.635710191103756e-01  2.641551811222474e-01 -1.695661361071183e-17

-1.574658092785328e-17  3.217417479368605e-20  6.635709925424130e-01
 3.217417479368605e-20 -1.113710041791576e-17  2.641495062461460e-01
 6.635709925424130e-01  2.641495062461460e-01 -1.695661298220183e-17

-1.574658156159010e-17  3.207315102406546e-20  6.635709655875223e-01
 3.207315102406546e-20 -1.113709882827261e-17  2.641438149463591e-01
 6.635709655875223e-01  2.641438149463591e-01 -1.695661234451683e-17

-1.574658220449933e-17  3.197183252176994e-20  6.635709382442557e-01
 3.197183252176994e-20 -1.113709714658814e-17  2.641381071712551e-01
 6.635709382442557e-01  2.641381071712551e-01 -1.695661169762252e-17

-1.574658285661548e-17  3.187020230270305e-20  6.635709105111556e-01
 3.187020230270305e-20 -1.113709518990998e-17  2.641323816249390e-01
 6.635709105111556e-01  2.641323816249390e-01 -1.695661104148428e-17

-1.574658351797367e-17  3.176828391499052e-20  6.635708823867585e-01
 3.176828391499052e-20 -1.113709329113007e-17  2.641266399150123e-01
 6.635708823867585e-01  2.641266399150123e-01 -1.695661037606746e-17

-1.574658418860874e-17  3.166605753293216e-20  6.635708538695950e-01
 3.166605753293216e-20 -1.113709147515543e-17  2.641208803307027e-01
 6.635708538695950e-01  2.641208803307027e-01 -1.695660970133721e-17

-1.574658486855607e-17  3.156353967070704e-20  6.635708249581895e-01
 3.156353967070704e-20 -1.113708965253159e-17  2.641151044803077e-01
 6.635708249581895e-01  2.641151044803077e-01 -1.695660901725853e-17

-1.574658555785084e-17  3.146071237767486e-20  6.635707956510570e-01
 3.146071237767486e-20 -1.113708801796022e-17  2.641093106531128e-01
 6.635707956510570e-01  2.641093106531128e-01 -1.695660832379620e-17

-1.574658625652869e-17  3.135758233386852e-20  6.635707659467093e-01
 3.135758233386852e-20 -1.113708554281942e-17  2.641035004573228e-01
 6.635707659467093e-01  2.641035004573228e-01 -1.695660762091496e-17

-1.574658696462521e-17  3.125414998310001e-20  6.635707358436468e-01
 3.125414998310001e-20 -1.113708416193100e-17  2.640976721825993e-01
 6.635707358436468e-01  2.640976721825993e-01 -1.695660690857925e-17

-1.574658768217627e-17  3.115041208619640e-20  6.635707053403676e-01
 3.115041208619640e-20 -1.113708176638724e-17  2.640918274372486e-01
 6.635707053403676e-01  2.640918274372486e-01 -1.695660618675343e-17

-1.574658840921778e-17  3.104636542637895e-20  6.635706744353593e-01
 3.104636542637895e-20 -1.113707994317607e-17  2.640859645112616e-01
 6.635706744353593e-01  2.640859645112616e-01 -1.695660545540164e-17

-1.574658914578598e-17  3.094201474358894e-20  6.635706431271050e-01
 3.094201474358894e-20 -1.113707790214647e-17  2.640800845982217e-01
 6.635706431271050e-01  2.640800845982217e-01 -1.695660471448795e-17

-1.574658989191710e-17  3.083736762310069e-20  6.635706114140799e-01
 3.083736762310069e-20 -1.113707636607725e-17  2.640741876475626e-01
 6.635706114140799e-01  2.640741876475626e-01 -1.695660396397614e-17

-1.574659064764758e-17  3.073239327044647e-20  6.635705792947498e-01
 3.073239327044647e-20 -1.113707393693288e-17  2.640682723640158e-01
 6.635705792947498e-01  2.640682723640158e-01 -1.695660320382993e-17

-1.574659141301412e-17  3.062712220638158e-20  6.635705467675789e-01
 3.062712220638158e-20 -1.113707183553328e-17  2.640623403566946e-01
 6.635705467675789e-01  2.640623403566946e-01 -1.695660243401278e-17

-1.574659218805346e-17  3.052153268155884e-20  6.635705138310188e-01
 3.052153268155884e-20 -1.113706981187573e-17  2.640563899156153e-01
 6.635705138310188e-01  2.640563899156153e-01 -1.695660165448807e-17

-1.574659297280256e-17  3.041563703195210e-20  6.635704804835165e-01
 3.041563703195210e-20 -1.113706734702725e-17  2.640504226500113e-01
 6.635704804835165e-01  2.640504226500113e-01 -1.695660086521890e-17

-1.574659376729853e-17  3.030942837492995e-20  6.635704467235105e-01
 3.030942837492995e-20 -1.113706562908605e-17  2.640444368500490e-01
 6.635704467235105e-01  2.640444368500490e-01 -1.695660006616831e-17

-1.574659457157874e-17  3.020291376363417e-20  6.635704125494362e-01
 3.020291376363417e-20 -1.113706361574136e-17  2.640384341252007e-01
 6.635704125494362e-01  2.640384341252007e-01 -1.695659925729916e-17

-1.574659538568046e-17  3.009606848033153e-20  6.635703779597145e-01
 3.009606848033153e-20 -1.113706096451885e-17  2.640324127658105e-01
 6.635703779597145e-01  2.640324127658105e-01 -1.695659843857400e-17

-1.574659620964152e-17  2.998892218920192e-20  6.635703429527665e-01
 2.998892218920192e-20 -1.113705856814986e-17  2.640263743815399e-01
 6.635703429527665e-01  2.640263743815399e-01 -1.695659760995538e-17

-1.574659704349959e-17  2.988145706830049e-20  6.635703075269991e-01
 2.988145706830049e-20 -1.113705677152229e-17  2.640203172628335e-01
 6.635703075269991e-01  2.640203172628335e-01 -1.695659677140558e-17

-1.574659788729271e-17  2.977367965917819e-20  6.635702716808181e-01
 2.977367965917819e-20 -1.113705485987315e-17  2.640142426046188e-01
 6.635702716808181e-01  2.640142426046188e-01 -1.695659592288673e-17

-1.574659874105894e-17  2.966558630904451e-20  6.635702354126173e-01
 2.966558630904451e-20 -1.113705250771565e-17  2.640081503572320e-01
 6.635702354126173e-01  2.640081503572320e-01 -1.695659506436074e-17

-1.574659960483661e-17  2.955716419429642e-20  6.635701987207845e-01
 2.955716419429642e-20 -1.113705017111794e-17  2.640020392263127e-01
 6.635701987207845e-01  2.640020392263127e-01 -1.695659419578942e-17

-1.574660047866433e-17  2.944842884295785e-20  6.635701616037004e-01
 2.944842884295785e-20 -1.113704741152145e-17  2.639959108218050e-01
 6.635701616037004e-01  2.639959108218050e-01 -1.695659331713438e-17

-1.574660136258052e-17  2.933936410490227e-20  6.635701240597376e-01
 2.933936410490227e-20 -1.113704480583723e-17  2.639897634348271e-01
 6.635701240597376e-01  2.639897634348271e-01 -1.695659242835693e-17

-1.574660225662423e-17  2.922999263411008e-20  6.635700860872616e-01
 2.922999263411008e-20 -1.113704230503008e-17  2.639835986753578e-01
 6.635700860872616e-01  2.639835986753578e-01 -1.695659152941843e-17

-1.574660316083438e-17  2.912029371180177e-20  6.635700476846292e-01
 2.912029371180177e-20 -1.113704020824942e-17  2.639774148348398e-01
 6.635700476846292e-01  2.639774148348398e-01 -1.695659062027983e-17

-1.574660407525022e-17  2.901027525935293e-20  6.635700088501908e-01
 2.901027525935293e-20 -1.113703743723280e-17  2.639712135232666e-01
 6.635700088501908e-01  2.639712135232666e-01 -1.695658970090203e-17

-1.574660499991102e-17  2.889993249273558e-20  6.635699695822880e-01
 2.889993249273558e-20 -1.113703531396136e-17  2.639649930320673e-01
 6.635699695822880e-01  2.639649930320673e-01 -1.695658877124569e-17

-1.574660593485646e-17  2.878926248001693e-20  6.635699298792552e-01
 2.878926248001693e-20 -1.113703258638754e-17  2.639587545569884e-01
 6.635699298792552e-01  2.639587545569884e-01 -1.695658783127135e-17

-1.574660688012627e-17  2.867827517948990e-20  6.635698897394195e-01
 2.867827517948990e-20 -1.113703009953384e-17  2.639524980488564e-01
 6.635698897394195e-01  2.639524980488564e-01 -1.695658688093930e-17

-1.574660783576025e-17  2.856695594717591e-20  6.635698491610977e-01
 2.856695594717591e-20 -1.113702788629576e-17  2.639462222142036e-01
 6.635698491610977e-01  2.639462222142036e-01 -1.695658592020963e-17

-1.574660880179866e-17  2.845531666821265e-20  6.635698081426025e-01
 2.845531666821265e-20 -1.113702536355094e-17  2.639399286636401e-01
 6.635698081426025e-01  2.639399286636401e-01 -1.695658494904229e-17

-1.574660977828163e-17  2.834333312600681e-20  6.635697666822339e-01
 2.834333312600681e-20 -1.113702217317837e-17  2.639336156889625e-01
 6.635697666822339e-01  2.639336156889625e-01 -1.695658396739701e-17

-1.574661076524988e-17  2.823104001467421e-20  6.635697247782882e-01
 2.823104001467421e-20 -1.113701982831594e-17  2.639272849010509e-01
 6.635697247782882e-01  2.639272849010509e-01 -1.695658297523341e-17

-1.574661176274383e-17  2.811840466587004e-20  6.635696824290505e-01
 2.811840466587004e-20 -1.113701706580397e-17  2.639209345917068e-01
 6.635696824290505e-01  2.639209345917068e-01 -1.695658197251076e-17

-1.574661277080449e-17  2.800544662890357e-20  6.635696396328012e-01
 2.800544662890357e-20 -1.113701407889993e-17  2.639145663719398e-01
 6.635696396328012e-01  2.639145663719398e-01 -1.695658095918828e-17

-1.574661378947288e-17  2.789215230055272e-20  6.635695963878089e-01
 2.789215230055272e-20 -1.113701151127015e-17  2.639081785338535e-01
 6.635695963878089e-01  2.639081785338535e-01 -1.695657993522492e-17

-1.574661481879023e-17  2.777853699283853e-20  6.635695526923340e-01
 2.777853699283853e-20 -1.113700905861173e-17  2.639017726883899e-01
 6.635695526923340e-01  2.639017726883899e-01 -1.695657890057944e-17

-1.574661585879801e-17  2.766457340800452e-20  6.635695085446326e-01
 2.766457340800452e-20 -1.113700590958230e-17  2.638953471279964e-01
 6.635695085446326e-01  2.638953471279964e-01 -1.695657785521046e-17

-1.574661690953781e-17  2.755028438324181e-20  6.635694639429491e-01
 2.755028438324181e-20 -1.113700305112022e-17  2.638889030487047e-01
 6.635694639429491e-01  2.638889030487047e-01 -1.695657679907635e-17

-1.574661797105153e-17  2.743566687273319e-20  6.635694188855205e-01
 2.743566687273319e-20 -1.113700032360779e-17  2.638824404027163e-01
 6.635694188855205e-01  2.638824404027163e-01 -1.695657573213528e-17

-1.574661904338107e-17  2.732070232464736e-20  6.635693733705736e-01
 2.732070232464736e-20 -1.113699725556571e-17  2.638759578970771e-01
 6.635693733705736e-01  2.638759578970771e-01 -1.695657465434523e-17

-1.574662012656873e-17  2.720541271894671e-20  6.635693273963301e-01
 2.720541271894671e-20 -1.113699436331345e-17  2.638694571433510e-01
 6.635693273963301e-01  2.638694571433510e-01 -1.695657356566400e-17

-1.574662122065699e-17  2.708977653128762e-20  6.635692809610004e-01
 2.708977653128762e-20 -1.113699144976057e-17  2.638629364340053e-01
 6.635692809610004e-01  2.638629364340053e-01 -1.695657246604914e-17

-1.574662232568844e-17  2.697381081738561e-20  6.635692340627888e-01
 2.697381081738561e-20 -1.113698841317768e-17  2.638563973805698e-01
 6.635692340627888e-01  2.638563973805698e-01 -1.695657135545806e-17

-1.574662344170579e-17  2.685749768131186e-20  6.635691866998863e-01
 2.685749768131186e-20 -1.113698526036197e-17  2.638498382758863e-01
 6.635691866998863e-01  2.638498382758863e-01 -1.695657023384789e-17

-1.574662456875236e-17  2.674085805511770e-20  6.635691388704819e-01
 2.674085805511770e-20 -1.113698248149313e-17  2.638432607316291e-01
 6.635691388704819e-01  2.638432607316291e-01 -1.695656910117559e-17

-1.574662570687108e-17  2.662387211923961e-20  6.635690905727486e-01
 2.662387211923961e-20 -1.113697993141229e-17  2.638366630404650e-01
 6.635690905727486e-01  2.638366630404650e-01 -1.695656795739796e-17

-1.574662685610556e-17  2.650654176039119e-20  6.635690418048563e-01
 2.650654176039119e-20 -1.113697650627265e-17  2.638300463996334e-01
 6.635690418048563e-01  2.638300463996334e-01 -1.695656680247147e-17

-1.574662801649949e-17  2.638887077899572e-20  6.635689925649634e-01
 2.638887077899572e-20 -1.113697283352072e-17  2.638234107612623e-01
 6.635689925649634e-01  2.638234107612623e-01 -1.695656563635252e-17

-1.574662918809662e-17  2.627086000400464e-20  6.635689428512187e-01
 2.627086000400464e-20 -1.113697030196124e-17  2.638167548332391e-01
 6.635689428512187e-01  2.638167548332391e-01 -1.695656445899715e-17

-1.574663037094113e-17  2.615250358670093e-20  6.635688926617657e-01
 2.615250358670093e-20 -1.113696666829876e-17  2.638100802278504e-01
 6.635688926617657e-01  2.638100802278504e-01 -1.695656327036137e-17

-1.574663156507719e-17  2.603379798786720e-20  6.635688419947329e-01
 2.603379798786720e-20 -1.113696341102165e-17  2.638033852379993e-01
 6.635688419947329e-01  2.638033852379993e-01 -1.695656207040075e-17

-1.574663277054950e-17  2.591475896413605e-20  6.635687908482450e-01
 2.591475896413605e-20 -1.113696030725948e-17  2.637966714757613e-01
 6.635687908482450e-01  2.637966714757613e-01 -1.695656085907087e-17

-1.574663398740261e-17  2.579536721700833e-20  6.635687392204151e-01
 2.579536721700833e-20 -1.113695741383679e-17  2.637899372344809e-01
 6.635687392204151e-01  2.637899372344809e-01 -1.695655963632690e-17

-1.574663521568154e-17  2.567563493428117e-20  6.635686871093465e-01
 2.567563493428117e-20 -1.113695412323828e-17  2.637831841263449e-01
 6.635686871093465e-01  2.637831841263449e-01 -1.695655840212391e-17

-1.574663645543138e-17  2.555554387210728e-20  6.635686345131351e-01
 2.555554387210728e-20 -1.113695072939783e-17  2.637764104447514e-01
 6.635686345131351e-01  2.637764104447514e-01 -1.695655715641671e-17

-1.574663770669761e-17  2.543511122086238e-20  6.635685814298662e-01
 2.543511122086238e-20 -1.113694718072705e-17  2.637696178020282e-01
 6.635685814298662e-01  2.637696178020282e-01 -1.695655589915992e-17

-1.574663896952573e-17  2.531432200369896e-20  6.635685278576152e-01
 2.531432200369896e-20 -1.113694362464184e-17  2.637628044914262e-01
 6.635685278576152e-01  2.637628044914262e-01 -1.695655463030785e-17

-1.574664024396165e-17  2.519319716255154e-20  6.635684737944496e-01
 2.519319716255154e-20 -1.113694063629465e-17  2.637559721255534e-01
 6.635684737944496e-01  2.637559721255534e-01 -1.695655334981466e-17

-1.574664153005135e-17  2.507170709219550e-20  6.635684192384264e-01
 2.507170709219550e-20 -1.113693655421557e-17  2.637491194129807e-01
 6.635684192384264e-01  2.637491194129807e-01 -1.695655205763432e-17

-1.574664282784109e-17  2.494986596235324e-20  6.635683641875919e-01
 2.494986596235324e-20 -1.113693311306999e-17  2.637422463064865e-01
 6.635683641875919e-01  2.637422463064865e-01 -1.695655075372042e-17

-1.574664413737750e-17  2.482768188291613e-20  6.635683086399847e-01
 2.482768188291613e-20 -1.113692946480905e-17  2.637353540038191e-01
 6.635683086399847e-01  2.637353540038191e-01 -1.695654943802649e-17

-1.574664545870719e-17  2.470513904299353e-20  6.635682525936319e-01
 2.470513904299353e-20 -1.113692591194337e-17  2.637284412136259e-01
 6.635682525936319e-01  2.637284412136259e-01 -1.695654811050571e-17

-1.574664679187716e-17  2.458223941386611e-20  6.635681960465528e-01
 2.458223941386611e-20 -1.113692183930424e-17  2.637215083040961e-01
 6.635681960465528e-01  2.637215083040961e-01 -1.695654677111108e-17

-1.574664813693460e-17  2.445898831538807e-20  6.635681389967535e-01
 2.445898831538807e-20 -1.113691870881157e-17  2.637145548133938e-01
 6.635681389967535e-01  2.637145548133938e-01 -1.695654541979536e-17

-1.574664949392698e-17  2.433538765615809e-20  6.635680814422333e-01
 2.433538765615809e-20 -1.113691520557708e-17  2.637075819393798e-01
 6.635680814422333e-01  2.637075819393798e-01 -1.695654405651104e-17

-1.574665086290199e-17  2.421141399797190e-20  6.635680233809809e-01
 2.421141399797190e-20 -1.113691057477159e-17  2.637005883907324e-01
 6.635680233809809e-01  2.637005883907324e-01 -1.695654268121046e-17

-1.574665224390741e-17  2.408710236824446e-20  6.635679648109728e-01
 2.408710236824446e-20 -1.113690820090059e-17  2.636935741211788e-01
 6.635679648109728e-01  2.636935741211788e-01 -1.695654129384559e-17

-1.574665363699159e-17  2.396241752660327e-20  6.635679057301787e-01
 2.396241752660327e-20 -1.113690348017456e-17  2.636865403283364e-01
 6.635679057301787e-01  2.636865403283364e-01 -1.695653989436827e-17

-1.574665504220267e-17  2.383737282075543e-20  6.635678461365532e-01
 2.383737282075543e-20 -1.113689937381006e-17  2.636794853063190e-01
 6.635678461365532e-01  2.636794853063190e-01 -1.695653848273001e-17

-1.574665645958951e-17  2.371198781375068e-20  6.635677860280477e-01
 2.371198781375068e-20 -1.113689650489820e-17  2.636724106679860e-01
 6.635677860280477e-01  2.636724106679860e-01 -1.695653705888217e-17

-1.574665788920083e-17  2.358622999894668e-20  6.635677254025945e-01
 2.358622999894668e-20 -1.113689323090976e-17  2.636653147073935e-01
 6.635677254025945e-01  2.636653147073935e-01 -1.695653562277576e-17

-1.574665933108585e-17  2.346011473917853e-20  6.635676642581226e-01
 2.346011473917853e-20 -1.113688926290275e-17  2.636581990376333e-01
 6.635676642581226e-01  2.636581990376333e-01 -1.695653417436165e-17

-1.574666078529387e-17  2.333361988183235e-20  6.635676025925471e-01
 2.333361988183235e-20 -1.113688472421855e-17  2.636510619526672e-01
 6.635676025925471e-01  2.636510619526672e-01 -1.695653271359033e-17

-1.574666225187464e-17  2.320678318013850e-20  6.635675404037742e-01
 2.320678318013850e-20 -1.113688108594089e-17  2.636439050656723e-01
 6.635675404037742e-01  2.636439050656723e-01 -1.695653124041219e-17

-1.574666373087790e-17  2.307956429537187e-20  6.635674776896953e-01
 2.307956429537187e-20 -1.113687667580402e-17  2.636367266707522e-01
 6.635674776896953e-01  2.636367266707522e-01 -1.695652975477721e-17

-1.574666522235387e-17  2.295199828396918e-20  6.635674144481968e-01
 2.295199828396918e-20 -1.113687285843954e-17  2.636295283808692e-01
 6.635674144481968e-01  2.636295283808692e-01 -1.695652825663523e-17

-1.574666672635286e-17  2.282404823768561e-20  6.635673506771506e-01
 2.282404823768561e-20 -1.113686821051513e-17  2.636223084904545e-01
 6.635673506771506e-01  2.636223084904545e-01 -1.695652674593579e-17

-1.574666824292558e-17  2.269575167447839e-20  6.635672863744185e-01
 2.269575167447839e-20 -1.113686466762919e-17  2.636150686124475e-01
 6.635672863744185e-01  2.636150686124475e-01 -1.695652522262811e-17

-1.574666977212295e-17  2.256708995269313e-20  6.635672215378503e-01
 2.256708995269313e-20 -1.113686167001489e-17  2.636078074561403e-01
 6.635672215378503e-01  2.636078074561403e-01 -1.695652368666133e-17

-1.574667131399608e-17  2.243802709315675e-20  6.635671561652879e-01
 2.243802709315675e-20 -1.113685582237823e-17  2.636005249750829e-01
 6.635671561652879e-01  2.636005249750829e-01 -1.695652213798410e-17

-1.574667286859644e-17  2.230862793557179e-20  6.635670902545572e-01
 2.230862793557179e-20 -1.113685222528729e-17  2.635932223676496e-01
 6.635670902545572e-01  2.635932223676496e-01 -1.695652057654494e-17

-1.574667443597569e-17  2.217884538199527e-20  6.635670238034770e-01
 2.217884538199527e-20 -1.113684764340798e-17  2.635858983432528e-01
 6.635670238034770e-01  2.635858983432528e-01 -1.695651900229204e-17

-1.574667601618579e-17  2.204869750297731e-20  6.635669568098532e-01
 2.204869750297731e-20 -1.113684347942243e-17  2.635785532701633e-01
 6.635669568098532e-01  2.635785532701633e-01 -1.695651741517346e-17

-1.574667760927905e-17  2.191817165634607e-20  6.635668892714792e-01
 2.191817165634607e-20 -1.113683916627071e-17  2.635711866875809e-01
 6.635668892714792e-01  2.635711866875809e-01 -1.695651581513678e-17

-1.574667921530786e-17  2.178727887271858e-20  6.635668211861394e-01
 2.178727887271858e-20 -1.113683429906327e-17  2.635637997936104e-01
 6.635668211861394e-01  2.635637997936104e-01 -1.695651420212944e-17

-1.574668083432517e-17  2.165602813008881e-20  6.635667525516027e-01
 2.165602813008881e-20 -1.113683150128075e-17  2.635563912977658e-01
 6.635667525516027e-01  2.635563912977658e-01 -1.695651257609855e-17

-1.574668246638387e-17  2.152436897568802e-20  6.635666833656313e-01
 2.152436897568802e-20 -1.113682550901171e-17  2.635489611537533e-01
 6.635666833656313e-01  2.635489611537533e-01 -1.695651093699103e-17

-1.574668411153733e-17  2.139237108304854e-20  6.635666136259725e-01
 2.139237108304854e-20 -1.113682204483044e-17  2.635415105599021e-01
 6.635666136259725e-01  2.635415105599021e-01 -1.695650928475341e-17

-1.574668576983921e-17  2.125998146885902e-20  6.635665433303602e-01
 2.125998146885902e-20 -1.113681805215100e-17  2.635340378107617e-01
 6.635665433303602e-01  2.635340378107617e-01 -1.695650761933195e-17

-1.574668744134338e-17  2.112722110575498e-20  6.635664724765209e-01
 2.112722110575498e-20 -1.113681332910081e-17  2.635265445193737e-01
 6.635664724765209e-01  2.635265445193737e-01 -1.695650594067274e-17

-1.574668912610405e-17  2.099406297585295e-20  6.635664010621644e-01
 2.099406297585295e-20 -1.113680762488422e-17  2.635190289802872e-01
 6.635664010621644e-01  2.635190289802872e-01 -1.695650424872143e-17

-1.574669082417572e-17  2.086055438371546e-20  6.635663290849938e-01
 2.086055438371546e-20 -1.113680358302873e-17  2.635114928067975e-01
 6.635663290849938e-01  2.635114928067975e-01 -1.695650254342354e-17

-1.574669253561302e-17  2.072666164710736e-20  6.635662565426922e-01
 2.072666164710736e-20 -1.113679986174225e-17  2.635039342930416e-01
 6.635662565426922e-01  2.635039342930416e-01 -1.695650082472409e-17

-1.574669426047101e-17  2.059237760861176e-20  6.635661834329385e-01
 2.059237760861176e-20 -1.113679384254587e-17  2.634963550525672e-01
 6.635661834329385e-01  2.634963550525672e-01 -1.695649909256806e-17

-1.574669599880518e-17  2.045772544639716e-20  6.635661097533934e-01
 2.045772544639716e-20 -1.113679003807253e-17  2.634887533795208e-01
 6.635661097533934e-01  2.634887533795208e-01 -1.695649734689994e-17

-1.574669775067108e-17  2.032269314528022e-20  6.635660355017081e-01
 2.032269314528022e-20 -1.113678538564234e-17  2.634811308872760e-01
 6.635660355017081e-01  2.634811308872760e-01 -1.695649558766401e-17

-1.574669951612456e-17  2.018727423181074e-20  6.635659606755203e-01
 2.018727423181074e-20 -1.113678097990237e-17  2.634734858701895e-01
 6.635659606755203e-01  2.634734858701895e-01 -1.695649381480422e-17

-1.574670129522197e-17  2.005147204771709e-20  6.635658852724549e-01
 2.005147204771709e-20 -1.113677601378861e-17  2.634658195265523e-01
 6.635658852724549e-01  2.634658195265523e-01 -1.695649202826426e-17

-1.574670308801984e-17  1.991528606593046e-20  6.635658092901247e-01
 1.991528606593046e-20 -1.113677056496198e-17  2.634581318100600e-01
 6.635658092901247e-01  2.634581318100600e-01 -1.695649022798747e-17

-1.574670489457490e-17  1.977871379327915e-20  6.635657327261272e-01
 1.977871379327915e-20 -1.113676559694665e-17  2.634504214301016e-01
 6.635657327261272e-01  2.634504214301016e-01 -1.695648841391687e-17

-1.574670671494442e-17  1.964175747549051e-20  6.635656555780514e-01
 1.964175747549051e-20 -1.113675982881954e-17  2.634426899997629e-01
 6.635656555780514e-01  2.634426899997629e-01 -1.695648658599528e-17

-1.574670854918580e-17  1.950442243561993e-20  6.635655778434681e-01
 1.950442243561993e-20 -1.113675570834325e-17  2.634349358131283e-01
 6.635655778434681e-01  2.634349358131283e-01 -1.695648474416505e-17

-1.574671039735679e-17  1.936670833969312e-20  6.635654995199387e-01
 1.936670833969312e-20 -1.113675128415617e-17  2.634271604836754e-01
 6.635654995199387e-01  2.634271604836754e-01 -1.695648288836834e-17

-1.574671225951554e-17  1.922859775785826e-20  6.635654206050084e-01
 1.922859775785826e-20 -1.113674675823651e-17  2.634193623053872e-01
 6.635654206050084e-01  2.634193623053872e-01 -1.695648101854694e-17

-1.574671413572037e-17  1.909009550426464e-20  6.635653410962138e-01
 1.909009550426464e-20 -1.113674103660744e-17  2.634115428912889e-01
 6.635653410962138e-01  2.634115428912889e-01 -1.695647913464237e-17

-1.574671602603004e-17  1.895119951858207e-20  6.635652609910700e-01
 1.895119951858207e-20 -1.113673557360653e-17  2.634037005357986e-01
 6.635652609910700e-01  2.634037005357986e-01 -1.695647723659572e-17

-1.574671793050364e-17  1.881192596058568e-20  6.635651802870872e-01
 1.881192596058568e-20 -1.113673046787129e-17  2.633958368517028e-01
 6.635651802870872e-01  2.633958368517028e-01 -1.695647532434789e-17

-1.574671984920037e-17  1.867225432610881e-20  6.635650989817560e-01
 1.867225432610881e-20 -1.113672494655108e-17  2.633879505479881e-01
 6.635650989817560e-01  2.633879505479881e-01 -1.695647339783942e-17

-1.574672178218011e-17  1.853219640761384e-20  6.635650170725558e-01
 1.853219640761384e-20 -1.113672042658828e-17  2.633800415782953e-01
 6.635650170725558e-01  2.633800415782953e-01 -1.695647145701041e-17

-1.574672372950275e-17  1.839175011374264e-20  6.635649345569504e-01
 1.839175011374264e-20 -1.113671514792615e-17  2.633721111406961e-01
 6.635649345569504e-01  2.633721111406961e-01 -1.695646950180079e-17

-1.574672569122872e-17  1.825091241512440e-20  6.635648514323911e-01
 1.825091241512440e-20 -1.113671051841164e-17  2.633641579438338e-01
 6.635648514323911e-01  2.633641579438338e-01 -1.695646753215005e-17

-1.574672766741862e-17  1.810965938838577e-20  6.635647676963140e-01
 1.810965938838577e-20 -1.113670359301215e-17  2.633561823562974e-01
 6.635647676963140e-01  2.633561823562974e-01 -1.695646554799743e-17

-1.574672965813358e-17  1.796802922246954e-20  6.635646833461426e-01
 1.796802922246954e-20 -1.113669894118381e-17  2.633481839162496e-01
 6.635646833461426e-01  2.633481839162496e-01 -1.695646354928168e-17

-1.574673166343483e-17  1.782600392446371e-20  6.635645983792836e-01
 1.782600392446371e-20 -1.113669331418855e-17  2.633401638218973e-01
 6.635645983792836e-01  2.633401638218973e-01 -1.695646153594137e-17

-1.574673368338426e-17  1.768357481808844e-20  6.635645127931300e-01
 1.768357481808844e-20 -1.113668729609785e-17  2.633321207814887e-01
 6.635645127931300e-01  2.633321207814887e-01 -1.695645950791469e-17

-1.574673571804378e-17  1.754076033997035e-20  6.635644265850602e-01
 1.754076033997035e-20 -1.113668243116762e-17  2.633240551635365e-01
 6.635644265850602e-01  2.633240551635365e-01 -1.695645746513940e-17

-1.574673776747579e-17  1.739754733604639e-20  6.635643397524410e-01
 1.739754733604639e-20 -1.113667779499450e-17  2.633159665061950e-01
 6.635643397524410e-01  2.633159665061950e-01 -1.695645540755297e-17

-1.574673983174308e-17  1.725392101929126e-20  6.635642522926181e-01
 1.725392101929126e-20 -1.113667118410442e-17  2.633078555922259e-01
 6.635642522926181e-01  2.633078555922259e-01 -1.695645333509257e-17

-1.574674191090877e-17  1.710991516114689e-20  6.635641642029280e-01
 1.710991516114689e-20 -1.113666619651139e-17  2.632997223746427e-01
 6.635641642029280e-01  2.632997223746427e-01 -1.695645124769491e-17

-1.574674400503627e-17  1.696549293894708e-20  6.635640754806883e-01
 1.696549293894708e-20 -1.113666048169228e-17  2.632915655620802e-01
 6.635640754806883e-01  2.632915655620802e-01 -1.695644914529641e-17

-1.574674611418944e-17  1.682067890831133e-20  6.635639861232064e-01
 1.682067890831133e-20 -1.113665454753594e-17  2.632833867666161e-01
 6.635639861232064e-01  2.632833867666161e-01 -1.695644702783312e-17

-1.574674823843239e-17  1.667546266257372e-20  6.635638961277643e-01
 1.667546266257372e-20 -1.113664938828018e-17  2.632751842819996e-01
 6.635638961277643e-01  2.632751842819996e-01 -1.695644489524068e-17

-1.574675037782979e-17  1.652983740238278e-20  6.635638054916421e-01
 1.652983740238278e-20 -1.113664270862357e-17  2.632669597203280e-01
 6.635638054916421e-01  2.632669597203280e-01 -1.695644274745446e-17

-1.574675253244648e-17  1.638381780490186e-20  6.635637142120936e-01
 1.638381780490186e-20 -1.113663789808258e-17  2.632587113747741e-01
 6.635637142120936e-01  2.632587113747741e-01 -1.695644058440933e-17

-1.574675470234772e-17  1.623738133247448e-20  6.635636222863625e-01
 1.623738133247448e-20 -1.113663064035824e-17  2.632504408574401e-01
 6.635636222863625e-01  2.632504408574401e-01 -1.695643840603992e-17

-1.574675688759921e-17  1.609054232188182e-20  6.635635297116724e-01
 1.609054232188182e-20 -1.113662475603422e-17  2.632421464617898e-01
 6.635635297116724e-01  2.632421464617898e-01 -1.695643621228040e-17

-1.574675908826693e-17  1.594331764986543e-20  6.635634364852362e-01
 1.594331764986543e-20 -1.113662033459543e-17  2.632338293845775e-01
 6.635634364852362e-01  2.632338293845775e-01 -1.695643400306458e-17

-1.574676130441742e-17  1.579566690861256e-20  6.635633426042455e-01
 1.579566690861256e-20 -1.113661329160670e-17  2.632254895784128e-01
 6.635633426042455e-01  2.632254895784128e-01 -1.695643177832594e-17

-1.574676353611732e-17  1.564760160340240e-20  6.635632480658804e-01
 1.564760160340240e-20 -1.113660650601806e-17  2.632171257511259e-01
 6.635632480658804e-01  2.632171257511259e-01 -1.695642953799741e-17

-1.574676578343392e-17  1.549915263980335e-20  6.635631528673015e-01
 1.549915263980335e-20 -1.113660129562034e-17  2.632087395141980e-01
 6.635631528673015e-01  2.632087395141980e-01 -1.695642728201180e-17

-1.574676804643470e-17  1.535028772377880e-20  6.635630570056535e-01
 1.535028772377880e-20 -1.113659622578037e-17  2.632003291606672e-01
 6.635630570056535e-01  2.632003291606672e-01 -1.695642501030129e-17

-1.574677032518771e-17  1.520100027949240e-20  6.635629604780652e-01
 1.520100027949240e-20 -1.113658891322110e-17  2.631918963018181e-01
 6.635629604780652e-01  2.631918963018181e-01 -1.695642272279776e-17

-1.574677261976139e-17  1.505131392688658e-20  6.635628632816469e-01
 1.505131392688658e-20 -1.113658372097123e-17  2.631834392304722e-01
 6.635628632816469e-01  2.631834392304722e-01 -1.695642041943271e-17

-1.574677493022433e-17  1.490120961405607e-20  6.635627654134975e-01
 1.490120961405607e-20 -1.113657687913033e-17  2.631749595578723e-01
 6.635627654134975e-01  2.631749595578723e-01 -1.695641810013724e-17

-1.574677725664581e-17  1.475069402442407e-20  6.635626668706898e-01
 1.475069402442407e-20 -1.113657105126438e-17  2.631664555762408e-01
 6.635626668706898e-01  2.631664555762408e-01 -1.695641576484200e-17

-1.574677959909531e-17  1.459977014092218e-20  6.635625676502875e-01
 1.459977014092218e-20 -1.113656472593400e-17  2.631579288970634e-01
 6.635625676502875e-01  2.631579288970634e-01 -1.695641341347723e-17

-1.574678195764287e-17  1.444841175559207e-20  6.635624677493326e-01
 1.444841175559207e-20 -1.113655719452122e-17  2.631493778124101e-01
 6.635624677493326e-01  2.631493778124101e-01 -1.695641104597284e-17

-1.574678433235886e-17  1.429665908964440e-20  6.635623671648514e-01
 1.429665908964440e-20 -1.113655124001252e-17  2.631408035182718e-01
 6.635623671648514e-01  2.631408035182718e-01 -1.695640866225821e-17

-1.574678672331412e-17  1.389156372501033e-20  6.635622658938535e-01
 1.389156372501033e-20 -1.113654542109077e-17  2.631108869053649e-01
 6.635622658938535e-01  2.631108869053649e-01 -1.695640626226243e-17

-1.574678913057985e-17  1.399190663769069e-20  6.635621639333280e-01
 1.399190663769069e-20 -1.113653890744652e-17  2.631235842776440e-01
 6.635621639333280e-01  2.631235842776440e-01 -1.695640384591407e-17

-1.574679155422765e-17  1.383889453632150e-20  6.635620612802483e-01
 1.383889453632150e-20 -1.113653187920819e-17  2.631149388187369e-01
 6.635620612802483e-01  2.631149388187369e-01 -1.695640141314136e-17

-1.574679399432973e-17  1.368545868955184e-20  6.635619579315685e-01
 1.368545868955184e-20 -1.113652479893986e-17  2.631062691258831e-01
 6.635619579315685e-01  2.631062691258831e-01 -1.695639896387197e-17

-1.574739237719985e-17  7.717567591532879e-20  6.635368236683462e-01
 7.717567591532879e-20 -1.113492740078853e-17  2.666680821942048e-01
 6.635368236683462e-01  2.666680821942048e-01 -1.695580178482177e-17

-1.574738877622489e-17  7.707604450572007e-20  6.635369756107831e-01
 7.707604450572007e-20 -1.113493689848119e-17  2.666625296813878e-01
 6.635369756107831e-01  2.666625296813878e-01 -1.695580539040089e-17

-1.574738518916079e-17  7.697665604035792e-20  6.635371269657729e-01
 7.697665604035792e-20 -1.113494688960766e-17  2.666569908813525e-01
 6.635371269657729e-01  2.666569908813525e-01 -1.695580898204042e-17

-1.574738161593655e-17  7.687753450422243e-20  6.635372777363178e-01
 7.687753450422243e-20 -1.113495651953247e-17  2.666514669830277e-01
 6.635372777363178e-01  2.666514669830277e-01 -1.695581255981159e-17

-1.574737805648156e-17  7.677865749398353e-20  6.635374279254019e-01
 7.677865749398353e-20 -1.113496598442806e-17  2.666459562710079e-01
 6.635374279254019e-01  2.666459562710079e-01 -1.695581612378513e-17

-1.574737451072576e-17  7.668003394445588e-20  6.635375775359891e-01
 7.668003394445588e-20 -1.113497539453938e-17  2.666404599342207e-01
 6.635375775359891e-01  2.666404599342207e-01 -1.695581967403154e-17

-1.574737097859949e-17  7.658166772550746e-20  6.635377265710213e-01
 7.658166772550746e-20 -1.113498480378222e-17  2.666349779177223e-01
 6.635377265710213e-01  2.666349779177223e-01 -1.695582321062046e-17

-1.574736746003357e-17  7.648354436311270e-20  6.635378750334263e-01
 7.648354436311270e-20 -1.113499407717008e-17  2.666295089217335e-01
 6.635378750334263e-01  2.666295089217335e-01 -1.695582673362153e-17

-1.574736395495925e-17  7.638567289796231e-20  6.635380229261078e-01
 7.638567289796231e-20 -1.113500367671034e-17  2.666240545511537e-01
 6.635380229261078e-01  2.666240545511537e-01 -1.695583024310357e-17

-1.574736046330824e-17  7.628803772391176e-20  6.635381702519562e-01
 7.628803772391176e-20 -1.113501313679256e-17  2.666186130918258e-01
 6.635381702519562e-01  2.666186130918258e-01 -1.695583373913519e-17

-1.574735698501260e-17  7.619066160383207e-20  6.635383170138371e-01
 7.619066160383207e-20 -1.113502251920750e-17  2.666131861491102e-01
 6.635383170138371e-01  2.666131861491102e-01 -1.695583722178439e-17

-1.574735352000498e-17  7.609352218984935e-20  6.635384632146030e-01
 7.609352218984935e-20 -1.113503166940697e-17  2.666077720094044e-01
 6.635384632146030e-01  2.666077720094044e-01 -1.695584069111890e-17

-1.574735006821846e-17  7.599663645517910e-20  6.635386088570845e-01
 7.599663645517910e-20 -1.113504089364764e-17  2.666023722784125e-01
 6.635386088570845e-01  2.666023722784125e-01 -1.695584414720592e-17

-1.574734662958630e-17  7.589998304558878e-20  6.635387539440966e-01
 7.589998304558878e-20 -1.113505014329669e-17  2.665969852431782e-01
 6.635387539440966e-01  2.665969852431782e-01 -1.695584759011212e-17

-1.574734320404258e-17  7.580358251961460e-20  6.635388984784327e-01
 7.580358251961460e-20 -1.113505941492701e-17  2.665916125100458e-01
 6.635388984784327e-01  2.665916125100458e-01 -1.695585101990400e-17

-1.574733979152145e-17  7.570741433177429e-20  6.635390424628714e-01
 7.570741433177429e-20 -1.113506871250867e-17  2.665862523661136e-01
 6.635390424628714e-01  2.665862523661136e-01 -1.695585443664732e-17

-1.574733639195769e-17  7.561149478726407e-20  6.635391859001737e-01
 7.561149478726407e-20 -1.113507757356740e-17  2.665809060035348e-01
 6.635391859001737e-01  2.665809060035348e-01 -1.695585784040769e-17

-1.574733300528641e-17  7.551581492029642e-20  6.635393287930788e-01
 7.551581492029642e-20 -1.113508668185295e-17  2.665755733693024e-01
 6.635393287930788e-01  2.665755733693024e-01 -1.695586123125010e-17

-1.574732963144321e-17  7.542037457182809e-20  6.635394711443127e-01
 7.542037457182809e-20 -1.113509550658454e-17  2.665702535816199e-01
 6.635394711443127e-01  2.665702535816199e-01 -1.695586460923928e-17

-1.574732627036402e-17  7.532516614687270e-20  6.635396129565821e-01
 7.532516614687270e-20 -1.113510460090828e-17  2.665649470030471e-01
 6.635396129565821e-01  2.665649470030471e-01 -1.695586797443943e-17

-1.574732292198523e-17  7.523018819644654e-20  6.635397542325758e-01
 7.523018819644654e-20 -1.113511371906214e-17  2.665596531669896e-01
 6.635397542325758e-01  2.665596531669896e-01 -1.695587132691435e-17

-1.574731958624362e-17  7.513545559096901e-20  6.635398949749666e-01
 7.513545559096901e-20 -1.113512293732412e-17  2.665543732662278e-01
 6.635398949749666e-01  2.665543732662278e-01 -1.695587466672750e-17

-1.574731626307640e-17  7.504096320113018e-20  6.635400351864102e-01
 7.504096320113018e-20 -1.113513131852549e-17  2.665491060046308e-01
 6.635400351864102e-01  2.665491060046308e-01 -1.695587799394191e-17

-1.574731295242116e-17  7.494669794915241e-20  6.635401748695432e-01
 7.494669794915241e-20 -1.113514022707281e-17  2.665438517458061e-01
 6.635401748695432e-01  2.665438517458061e-01 -1.695588130862015e-17

-1.574730965421586e-17  7.485266144252507e-20  6.635403140269887e-01
 7.485266144252507e-20 -1.113514915031977e-17  2.665386100239235e-01
 6.635403140269887e-01  2.665386100239235e-01 -1.695588461082444e-17

-1.574730636839887e-17  7.475885945493963e-20  6.635404526613510e-01
 7.475885945493963e-20 -1.113515804928506e-17  2.665333816179627e-01
 6.635404526613510e-01  2.665333816179627e-01 -1.695588790061662e-17

-1.574730309490906e-17  7.466529518520629e-20  6.635405907752174e-01
 7.466529518520629e-20 -1.113516676953064e-17  2.665281664770525e-01
 6.635405907752174e-01  2.665281664770525e-01 -1.695589117805808e-17

-1.574729983368554e-17  7.457194834665052e-20  6.635407283711602e-01
 7.457194834665052e-20 -1.113517581781109e-17  2.665229633064717e-01
 6.635407283711602e-01  2.665229633064717e-01 -1.695589444320988e-17

-1.574729658466782e-17  7.447884398965263e-20  6.635408654517340e-01
 7.447884398965263e-20 -1.113518463214187e-17  2.665177737152517e-01
 6.635408654517340e-01  2.665177737152517e-01 -1.695589769613262e-17

-1.574729334779591e-17  7.438595939861202e-20  6.635410020194785e-01
 7.438595939861202e-20 -1.113519338251416e-17  2.665125959939990e-01
 6.635410020194785e-01  2.665125959939990e-01 -1.695590093688662e-17

-1.574729012301008e-17  7.429331427885986e-20  6.635411380769154e-01
 7.429331427885986e-20 -1.113520179114193e-17  2.665074317525731e-01
 6.635411380769154e-01  2.665074317525731e-01 -1.695590416553168e-17

-1.574728691025112e-17  7.420088401842838e-20  6.635412736265535e-01
 7.420088401842838e-20 -1.113521047339496e-17  2.665022792816807e-01
 6.635412736265535e-01  2.665022792816807e-01 -1.695590738212736e-17

-1.574728370945997e-17  7.410869042050508e-20  6.635414086708806e-01
 7.410869042050508e-20 -1.113521881073254e-17  2.664971401916277e-01
 6.635414086708806e-01  2.664971401916277e-01 -1.695591058673274e-17

-1.574728052057817e-17  7.401670926408688e-20  6.635415432123758e-01
 7.401670926408688e-20 -1.113522745226709e-17  2.664920127736434e-01
 6.635415432123758e-01  2.664920127736434e-01 -1.695591377940656e-17

-1.574727734354752e-17  7.392496314650620e-20  6.635416772534947e-01
 7.392496314650620e-20 -1.113523586972647e-17  2.664868986381437e-01
 6.635416772534947e-01  2.664868986381437e-01 -1.695591696020722e-17

-1.574727417831022e-17  7.383343185738309e-20  6.635418107966836e-01
 7.383343185738309e-20 -1.113524444400383e-17  2.664817960771524e-01
 6.635418107966836e-01  2.664817960771524e-01 -1.695592012919266e-17

-1.574727102480881e-17  7.374212242875365e-20  6.635419438443703e-01
 7.374212242875365e-20 -1.113525316628351e-17  2.664767062864801e-01
 6.635419438443703e-01  2.664767062864801e-01 -1.695592328642058e-17

-1.574726788298622e-17  7.365104907011930e-20  6.635420763989672e-01
 7.365104907011930e-20 -1.113526109938316e-17  2.664716292176711e-01
 6.635420763989672e-01  2.664716292176711e-01 -1.695592643194820e-17

-1.574726475278569e-17  7.356017686346826e-20  6.635422084628726e-01
 7.356017686346826e-20 -1.113526977876836e-17  2.664665635780437e-01
 6.635422084628726e-01  2.664665635780437e-01 -1.695592956583246e-17

-1.574726163415092e-17  7.346953799606406e-20  6.635423400384690e-01
 7.346953799606406e-20 -1.113527821563110e-17  2.664615109791698e-01
 6.635423400384690e-01  2.664615109791698e-01 -1.695593268812987e-17

-1.574725852702592e-17  7.337910877730175e-20  6.635424711281253e-01
 7.337910877730175e-20 -1.113528668277306e-17  2.664564697134778e-01
 6.635424711281253e-01  2.664564697134778e-01 -1.695593579889665e-17

-1.574725543135494e-17  7.328890947414641e-20  6.635426017341919e-01
 7.328890947414641e-20 -1.113529469630489e-17  2.664514413929441e-01
 6.635426017341919e-01  2.664514413929441e-01 -1.695593889818863e-17

-1.574725234708273e-17  7.319891064006730e-20  6.635427318590089e-01
 7.319891064006730e-20 -1.113530332429424e-17  2.664464243106527e-01
 6.635427318590089e-01  2.664464243106527e-01 -1.695594198606130e-17

-1.574724927415436e-17  7.310914643342275e-20  6.635428615048971e-01
 7.310914643342275e-20 -1.113531124940208e-17  2.664414200788084e-01
 6.635428615048971e-01  2.664414200788084e-01 -1.695594506256981e-17

-1.574724621251519e-17  7.301958436274216e-20  6.635429906741673e-01
 7.301958436274216e-20 -1.113531944396558e-17  2.664364269907686e-01
 6.635429906741673e-01  2.664364269907686e-01 -1.695594812776887e-17

-1.574724316211091e-17  7.293024311456661e-20  6.635431193691123e-01
 7.293024311456661e-20 -1.113532765596476e-17  2.664314462442648e-01
 6.635431193691123e-01  2.664314462442648e-01 -1.695595118171305e-17

-1.574724012288777e-17  7.284111825695937e-20  6.635432475920120e-01
 7.284111825695937e-20 -1.113533573519873e-17  2.664264777925901e-01
 6.635432475920120e-01  2.664264777925901e-01 -1.695595422445632e-17

-1.574723709479198e-17  7.275220032529977e-20  6.635433753451323e-01
 7.275220032529977e-20 -1.113534383967554e-17  2.664215207593252e-01
 6.635433753451323e-01  2.664215207593252e-01 -1.695595725605256e-17

-1.574723407777040e-17  7.266349515973972e-20  6.635435026307239e-01
 7.266349515973972e-20 -1.113535214223652e-17  2.664165755131060e-01
 6.635435026307239e-01  2.664165755131060e-01 -1.695596027655508e-17

-1.574723107177008e-17  7.257499730023422e-20  6.635436294510216e-01
 7.257499730023422e-20 -1.113536024551586e-17  2.664116415928329e-01
 6.635436294510216e-01  2.664116415928329e-01 -1.695596328601709e-17

-1.574722807673853e-17  7.248671972200823e-20  6.635437558082512e-01
 7.248671972200823e-20 -1.113536825272929e-17  2.664067201968733e-01
 6.635437558082512e-01  2.664067201968733e-01 -1.695596628449124e-17

-1.574722509262337e-17  7.239864746385637e-20  6.635438817046211e-01
 7.239864746385637e-20 -1.113537634289516e-17  2.664018100349839e-01
 6.635438817046211e-01  2.664018100349839e-01 -1.695596927203004e-17

-1.574722211937278e-17  7.231077903249819e-20  6.635440071423255e-01
 7.231077903249819e-20 -1.113538440131580e-17  2.663969114761908e-01
 6.635440071423255e-01  2.663969114761908e-01 -1.695597224868550e-17

-1.574721915693512e-17  7.222312171767312e-20  6.635441321235463e-01
 7.222312171767312e-20 -1.113539228171188e-17  2.663920240600089e-01
 6.635441321235463e-01  2.663920240600089e-01 -1.695597521450949e-17

-1.574721620525907e-17  7.213567745585205e-20  6.635442566504508e-01
 7.213567745585205e-20 -1.113540010580801e-17  2.663871489857054e-01
 6.635442566504508e-01  2.663871489857054e-01 -1.695597816955337e-17

-1.574721326429377e-17  7.204843643666260e-20  6.635443807251935e-01
 7.204843643666260e-20 -1.113540788643813e-17  2.663822849635682e-01
 6.635443807251935e-01  2.663822849635682e-01 -1.695598111386830e-17

-1.574721033398857e-17  7.196139583363746e-20  6.635445043499150e-01
 7.196139583363746e-20 -1.113541578890581e-17  2.663774319484893e-01
 6.635445043499150e-01  2.663774319484893e-01 -1.695598404750510e-17

-1.574720741429310e-17  7.187456528916821e-20  6.635446275267427e-01
 7.187456528916821e-20 -1.113542386470182e-17  2.663725911400665e-01
 6.635446275267427e-01  2.663725911400665e-01 -1.695598697051423e-17

-1.574720450515737e-17  7.178793409266160e-20  6.635447502577905e-01
 7.178793409266160e-20 -1.113543141557810e-17  2.663677608341429e-01
 6.635447502577905e-01  2.663677608341429e-01 -1.695598988294591e-17

-1.574720160653178e-17  7.170151676219600e-20  6.635448725451586e-01
 7.170151676219600e-20 -1.113543904937059e-17  2.663629426455526e-01
 6.635448725451586e-01  2.663629426455526e-01 -1.695599278484992e-17

-1.574719871836687e-17  7.161528237785570e-20  6.635449943909358e-01
 7.161528237785570e-20 -1.113544707091257e-17  2.663581348704769e-01
 6.635449943909358e-01  2.663581348704769e-01 -1.695599567627588e-17

-1.574719584061356e-17  7.152926865626625e-20  6.635451157971962e-01
 7.152926865626625e-20 -1.113545483465589e-17  2.663533391239750e-01
 6.635451157971962e-01  2.663533391239750e-01 -1.695599855727297e-17

-1.574719297322314e-17  7.144344690964535e-20  6.635452367660017e-01
 7.144344690964535e-20 -1.113546226951307e-17  2.663485537025037e-01
 6.635452367660017e-01  2.663485537025037e-01 -1.695600142789019e-17

-1.574719011614717e-17  7.135782468230373e-20  6.635453572994007e-01
 7.135782468230373e-20 -1.113547022150751e-17  2.663437802215687e-01
 6.635453572994007e-01  2.663437802215687e-01 -1.695600428817611e-17

-1.574718726933745e-17  7.127240601623351e-20  6.635454773994294e-01
 7.127240601623351e-20 -1.113547739911357e-17  2.663390169776915e-01
 6.635454773994294e-01  2.663390169776915e-01 -1.695600713817904e-17

-1.574718443274613e-17  7.118717620151507e-20  6.635455970681117e-01
 7.118717620151507e-20 -1.113548524388385e-17  2.663342651720100e-01
 6.635455970681117e-01  2.663342651720100e-01 -1.695600997794712e-17

-1.574718160632569e-17  7.110215633268212e-20  6.635457163074575e-01
 7.110215633268212e-20 -1.113549292572371e-17  2.663295247607443e-01
 6.635457163074575e-01  2.663295247607443e-01 -1.695601280752790e-17

-1.574717879002882e-17  7.101731902268354e-20  6.635458351194654e-01
 7.101731902268354e-20 -1.113550077390935e-17  2.663247944559846e-01
 6.635458351194654e-01  2.663247944559846e-01 -1.695601562696893e-17

-1.574717598380865e-17  7.093269239426054e-20  6.635459535061210e-01
 7.093269239426054e-20 -1.113550831683195e-17  2.663200758739087e-01
 6.635459535061210e-01  2.663200758739087e-01 -1.695601843631726e-17

-1.574717318761845e-17  7.084825301976114e-20  6.635460714693989e-01
 7.084825301976114e-20 -1.113551547136603e-17  2.663153673119310e-01
 6.635460714693989e-01  2.663153673119310e-01 -1.695602123561985e-17

-1.574717040141180e-17  7.076401413369283e-20  6.635461890112585e-01
 7.076401413369283e-20 -1.113552296089492e-17  2.663106703863946e-01
 6.635461890112585e-01  2.663106703863946e-01 -1.695602402492309e-17

-1.574716762514275e-17  7.067995646191597e-20  6.635463061336498e-01
 7.067995646191597e-20 -1.113553046685978e-17  2.663059833951510e-01
 6.635463061336498e-01  2.663059833951510e-01 -1.695602680427336e-17

-1.574716485876540e-17  7.059610879570793e-20  6.635464228385087e-01
 7.059610879570793e-20 -1.113553764626130e-17  2.663013079547465e-01
 6.635464228385087e-01  2.663013079547465e-01 -1.695602957371651e-17

-1.574716210223422e-17  7.051244077141118e-20  6.635465391277614e-01
 7.051244077141118e-20 -1.113554510737901e-17  2.662966423632523e-01
 6.635465391277614e-01  2.662966423632523e-01 -1.695603233329837e-17

-1.574715935550405e-17  7.042897121684525e-20  6.635466550033190e-01
 7.042897121684525e-20 -1.113555248292029e-17  2.662919882375390e-01
 6.635466550033190e-01  2.662919882375390e-01 -1.695603508306419e-17

-1.574715661852989e-17  7.034568137401024e-20  6.635467704670839e-01
 7.034568137401024e-20 -1.113556008029841e-17  2.662873438758199e-01
 6.635467704670839e-01  2.662873438758199e-01 -1.695603782305917e-17

-1.574715389126714e-17  7.026259423684094e-20  6.635468855209440e-01
 7.026259423684094e-20 -1.113556731882510e-17  2.662827108955083e-01
 6.635468855209440e-01  2.662827108955083e-01 -1.695604055332816e-17

-1.574715117367138e-17  7.017969018031041e-20  6.635470001667766e-01
 7.017969018031041e-20 -1.113557470752374e-17  2.662780880096881e-01
 6.635470001667766e-01  2.662780880096881e-01 -1.695604327391562e-17

-1.574714846569849e-17  7.009697138195797e-20  6.635471144064482e-01
 7.009697138195797e-20 -1.113558168164904e-17  2.662734751765106e-01
 6.635471144064482e-01  2.662734751765106e-01 -1.695604598486598e-17

-1.574714576730458e-17  7.001445096272100e-20  6.635472282418128e-01
 7.001445096272100e-20 -1.113558898578611e-17  2.662688735986226e-01
 6.635472282418128e-01  2.662688735986226e-01 -1.695604868622306e-17

-1.574714307844629e-17  6.993210796969497e-20  6.635473416747120e-01
 6.993210796969497e-20 -1.113559611028751e-17  2.662642819898496e-01
 6.635473416747120e-01  2.662642819898496e-01 -1.695605137803075e-17

-1.574714039908009e-17  6.984995081504115e-20  6.635474547069764e-01
 6.984995081504115e-20 -1.113560361890457e-17  2.662597007232286e-01
 6.635474547069764e-01  2.662597007232286e-01 -1.695605406033240e-17

-1.574713772916314e-17  6.976797738838820e-20  6.635475673404281e-01
 6.976797738838820e-20 -1.113561058458109e-17  2.662551293426044e-01
 6.635475673404281e-01  2.662551293426044e-01 -1.695605673317131e-17

-1.574713506865254e-17  6.968619868390997e-20  6.635476795768733e-01
 6.968619868390997e-20 -1.113561774287693e-17  2.662505690512124e-01
 6.635476795768733e-01  2.662505690512124e-01 -1.695605939659026e-17

-1.574713241750601e-17  6.960459440357826e-20  6.635477914181090e-01
 6.960459440357826e-20 -1.113562516798828e-17  2.662460185630131e-01
 6.635477914181090e-01  2.662460185630131e-01 -1.695606205063202e-17

-1.574712977568114e-17  6.952317383655950e-20  6.635479028659220e-01
 6.952317383655950e-20 -1.113563193502302e-17  2.662414778370220e-01
 6.635479028659220e-01  2.662414778370220e-01 -1.695606469533890e-17

-1.574712714313608e-17  6.944194407954465e-20  6.635480139220868e-01
 6.944194407954465e-20 -1.113563905054882e-17  2.662369480766264e-01
 6.635480139220868e-01  2.662369480766264e-01 -1.695606733075308e-17

-1.574712451982914e-17  6.936088352934718e-20  6.635481245883681e-01
 6.936088352934718e-20 -1.113564598420367e-17  2.662324275816267e-01
 6.635481245883681e-01  2.662324275816267e-01 -1.695606995691641e-17

-1.574712190571887e-17  6.928001250178427e-20  6.635482348665164e-01
 6.928001250178427e-20 -1.113565327133329e-17  2.662279179705198e-01
 6.635482348665164e-01  2.662279179705198e-01 -1.695607257387045e-17

-1.574711930076415e-17  6.919931921009925e-20  6.635483447582754e-01
 6.919931921009925e-20 -1.113565998770703e-17  2.662234175431473e-01
 6.635483447582754e-01  2.662234175431473e-01 -1.695607518165660e-17

-1.574711670492398e-17  6.911881038299710e-20  6.635484542653752e-01
 6.911881038299710e-20 -1.113566699989307e-17  2.662189279184344e-01
 6.635484542653752e-01  2.662189279184344e-01 -1.695607778031590e-17

-1.574711411815776e-17  6.903846824010094e-20  6.635485633895366e-01
 6.903846824010094e-20 -1.113567397086923e-17  2.662144473963675e-01
 6.635485633895366e-01  2.662144473963675e-01 -1.695608036988921e-17

-1.574711154042518e-17  6.895832070593817e-20  6.635486721324696e-01
 6.895832070593817e-20 -1.113568064531983e-17  2.662099775959552e-01
 6.635486721324696e-01  2.662099775959552e-01 -1.695608295041711e-17

-1.574710897168591e-17  6.887833414955640e-20  6.635487804958723e-01
 6.887833414955640e-20 -1.113568779754672e-17  2.662055168176587e-01
 6.635487804958723e-01  2.662055168176587e-01 -1.695608552193989e-17

-1.574710641190019e-17  6.879853173737077e-20  6.635488884814325e-01
 6.879853173737077e-20 -1.113569488521564e-17  2.662010666803712e-01
 6.635488884814325e-01  2.662010666803712e-01 -1.695608808449763e-17

-1.574710386102836e-17  6.871890472209977e-20  6.635489960908294e-01
 6.871890472209977e-20 -1.113570130295851e-17  2.661966254846705e-01
 6.635489960908294e-01  2.661966254846705e-01 -1.695609063813020e-17

-1.574710131903100e-17  6.863945576114837e-20  6.635491033257290e-01
 6.863945576114837e-20 -1.113570826818703e-17  2.661921948502022e-01
 6.635491033257290e-01  2.661921948502022e-01 -1.695609318287715e-17

-1.574709878586895e-17  6.856017540731707e-20  6.635492101877895e-01
 6.856017540731707e-20 -1.113571539531842e-17  2.661877734922019e-01
 6.635492101877895e-01  2.661877734922019e-01 -1.695609571877775e-17

-1.574709626150342e-17  6.848107236558157e-20  6.635493166786569e-01
 6.848107236558157e-20 -1.113572156484748e-17  2.661833613709141e-01
 6.635493166786569e-01  2.661833613709141e-01 -1.695609824587119e-17

-1.574709374589555e-17  6.840214067997821e-20  6.635494227999664e-01
 6.840214067997821e-20 -1.113572881864737e-17  2.661789596913278e-01
 6.635494227999664e-01  2.661789596913278e-01 -1.695610076419618e-17

-1.574709123900716e-17  6.832337638327552e-20  6.635495285533454e-01
 6.832337638327552e-20 -1.113573550693059e-17  2.661745667541127e-01
 6.635495285533454e-01  2.661745667541127e-01 -1.695610327379143e-17

-1.574708874079992e-17  6.824479963924149e-20  6.635496339404098e-01
 6.824479963924149e-20 -1.113574206662987e-17  2.661701841792014e-01
 6.635496339404098e-01  2.661701841792014e-01 -1.695610577469524e-17

-1.574708625123599e-17  6.816637765864598e-20  6.635497389627656e-01
 6.816637765864598e-20 -1.113574863349764e-17  2.661658102679705e-01
 6.635497389627656e-01  2.661658102679705e-01 -1.695610826694577e-17

-1.574708377027770e-17  6.808813925526969e-20  6.635498436220084e-01
 6.808813925526969e-20 -1.113575517499149e-17  2.661614466400729e-01
 6.635498436220084e-01  2.661614466400729e-01 -1.695611075058086e-17

-1.574708129788746e-17  6.801005294037365e-20  6.635499479197234e-01
 6.801005294037365e-20 -1.113576198190938e-17  2.661570915970826e-01
 6.635499479197234e-01  2.661570915970826e-01 -1.695611322563814e-17

-1.574707883402820e-17  6.793214338238007e-20  6.635500518574868e-01
 6.793214338238007e-20 -1.113576867445091e-17  2.661527463440480e-01
 6.635500518574868e-01  2.661527463440480e-01 -1.695611569215505e-17

-1.574707637866289e-17  6.785440598538261e-20  6.635501554368651e-01
 6.785440598538261e-20 -1.113577548717476e-17  2.661484108420694e-01
 6.635501554368651e-01  2.661484108420694e-01 -1.695611815016870e-17

-1.574707393175486e-17  6.777682948004395e-20  6.635502586594141e-01
 6.777682948004395e-20 -1.113578175616440e-17  2.661440838074606e-01
 6.635502586594141e-01  2.661440838074606e-01 -1.695612059971616e-17

-1.574707149326743e-17  6.769942844644332e-20  6.635503615266806e-01
 6.769942844644332e-20 -1.113578822385618e-17  2.661397668607409e-01
 6.635503615266806e-01  2.661397668607409e-01 -1.695612304083398e-17

-1.574706906316452e-17  6.762218539680706e-20  6.635504640402005e-01
 6.762218539680706e-20 -1.113579466584227e-17  2.661354583033301e-01
 6.635504640402005e-01  2.661354583033301e-01 -1.695612547355876e-17

-1.574706664140995e-17  6.754511333721655e-20  6.635505662015019e-01
 6.754511333721655e-20 -1.113580130346696e-17  2.661311597560229e-01
 6.635505662015019e-01  2.661311597560229e-01 -1.695612789792666e-17

-1.574706422796795e-17  6.746819324518138e-20  6.635506680121018e-01
 6.746819324518138e-20 -1.113580785736344e-17  2.661268695205290e-01
 6.635506680121018e-01  2.661268695205290e-01 -1.695613031397376e-17

-1.574706182280295e-17  6.739145541998235e-20  6.635507694735078e-01
 6.739145541998235e-20 -1.113581424490081e-17  2.661225892177096e-01
 6.635507694735078e-01  2.661225892177096e-01 -1.695613272173581e-17

-1.574705942587958e-17  6.731486372922841e-20  6.635508705872206e-01
 6.731486372922841e-20 -1.113582065937185e-17  2.661183171493260e-01
 6.635508705872206e-01  2.661183171493260e-01 -1.695613512124847e-17

-1.574705703716268e-17  6.723844522834011e-20  6.635509713547260e-01
 6.723844522834011e-20 -1.113582728960547e-17  2.661140549365441e-01
 6.635509713547260e-01  2.661140549365441e-01 -1.695613751254694e-17

-1.574705465661738e-17  6.716218463712844e-20  6.635510717775058e-01
 6.716218463712844e-20 -1.113583332193140e-17  2.661098008812384e-01
 6.635510717775058e-01  2.661098008812384e-01 -1.695613989566648e-17

-1.574705228420897e-17  6.708608361030067e-20  6.635511718570292e-01
 6.708608361030067e-20 -1.113583967389903e-17  2.661055561895583e-01
 6.635511718570292e-01  2.661055561895583e-01 -1.695614227064195e-17

-1.574704991990295e-17  6.701014877974191e-20  6.635512715947579e-01
 6.701014877974191e-20 -1.113584611758462e-17  2.661013208232310e-01
 6.635512715947579e-01  2.661013208232310e-01 -1.695614463750795e-17

-1.574704756366516e-17  6.693436696725832e-20  6.635513709921437e-01
 6.693436696725832e-20 -1.113585221910448e-17  2.660970934993598e-01
 6.635513709921437e-01  2.660970934993598e-01 -1.695614699629908e-17

-1.574704521546151e-17  6.685875305614176e-20  6.635514700506295e-01
 6.685875305614176e-20 -1.113585855143416e-17  2.660928758391478e-01
 6.635514700506295e-01  2.660928758391478e-01 -1.695614934704947e-17

-1.574704287525825e-17  6.678328521918204e-20  6.635515687716470e-01
 6.678328521918204e-20 -1.113586492363383e-17  2.660886661449883e-01
 6.635515687716470e-01  2.660886661449883e-01 -1.695615168979322e-17

-1.574704054302176e-17  6.670798113642245e-20  6.635516671566232e-01
 6.670798113642245e-20 -1.113587118987210e-17  2.660844660381968e-01
 6.635516671566232e-01  2.660844660381968e-01 -1.695615402456411e-17

-1.574703821871868e-17  6.663282765761086e-20  6.635517652069718e-01
 6.663282765761086e-20 -1.113587780380635e-17  2.660802738213910e-01
 6.635517652069718e-01  2.660802738213910e-01 -1.695615635139576e-17

-1.574703590231584e-17  6.655783966479159e-20  6.635518629240990e-01
 6.655783966479159e-20 -1.113588400697559e-17  2.660760911159616e-01
 6.635518629240990e-01  2.660760911159616e-01 -1.695615867032148e-17

-1.574703359378038e-17  6.648300541826845e-20  6.635519603094038e-01
 6.648300541826845e-20 -1.113588994117517e-17  2.660719162242773e-01
 6.635519603094038e-01  2.660719162242773e-01 -1.695616098137459e-17

-1.574703129307951e-17  6.640831938237507e-20  6.635520573642740e-01
 6.640831938237507e-20 -1.113589628531762e-17  2.660677503533960e-01
 6.635520573642740e-01  2.660677503533960e-01 -1.695616328458793e-17

-1.574702900018072e-17  6.633379850835638e-20  6.635521540900885e-01
 6.633379850835638e-20 -1.113590237026698e-17  2.660635934652792e-01
 6.635521540900885e-01  2.660635934652792e-01 -1.695616557999428e-17

-1.574702671505176e-17  6.625942290608120e-20  6.635522504882184e-01
 6.625942290608120e-20 -1.113590851134470e-17  2.660594442775718e-01
 6.635522504882184e-01  2.660594442775718e-01 -1.695616786762622e-17

-1.574702443766049e-17  6.618520640687929e-20  6.635523465600272e-01
 6.618520640687929e-20 -1.113591454805416e-17  2.660553044120985e-01
 6.635523465600272e-01  2.660553044120985e-01 -1.695617014751604e-17

-1.574702216797511e-17  6.611113111104885e-20  6.635524423068662e-01
 6.611113111104885e-20 -1.113592078644734e-17  2.660511721714967e-01
 6.635524423068662e-01  2.660511721714967e-01 -1.695617241969590e-17

-1.574701990596389e-17  6.603722354846317e-20  6.635525377300819e-01
 6.603722354846317e-20 -1.113592656078867e-17  2.660470491777027e-01
 6.635525377300819e-01  2.660470491777027e-01 -1.695617468419771e-17

-1.574701765159544e-17  6.596344990483819e-20  6.635526328310092e-01
 6.596344990483819e-20 -1.113593260595178e-17  2.660429337336987e-01
 6.635526328310092e-01  2.660429337336987e-01 -1.695617694105320e-17

-1.574701540483838e-17  6.588983861838245e-20  6.635527276109777e-01
 6.588983861838245e-20 -1.113593886843713e-17  2.660388274612739e-01
 6.635527276109777e-01  2.660388274612739e-01 -1.695617919029386e-17

-1.574701316566184e-17  6.581636780344955e-20  6.635528220713036e-01
 6.581636780344955e-20 -1.113594466518792e-17  2.660347286636252e-01
 6.635528220713036e-01  2.660347286636252e-01 -1.695618143195106e-17

-1.574701093403487e-17  6.574305134027485e-20  6.635529162132989e-01
 6.574305134027485e-20 -1.113595091358684e-17  2.660306389626236e-01
 6.635529162132989e-01  2.660306389626236e-01 -1.695618366605584e-17

-1.574700870992687e-17  6.566987778316618e-20  6.635530100382656e-01
 6.566987778316618e-20 -1.113595667912133e-17  2.660265566612802e-01
 6.635530100382656e-01  2.660265566612802e-01 -1.695618589263919e-17

-1.574700649330741e-17  6.559685262686311e-20  6.635531035474975e-01
 6.559685262686311e-20 -1.113596273302401e-17  2.660224829668139e-01
 6.635531035474975e-01  2.660224829668139e-01 -1.695618811173177e-17

-1.574700428414625e-17  6.552398658031451e-20  6.635531967422799e-01
 6.552398658031451e-20 -1.113596839180973e-17  2.660184178419419e-01
 6.635531967422799e-01  2.660184178419419e-01 -1.695619032336405e-17

-1.574700208241347e-17  6.545124779287902e-20  6.635532896238888e-01
 6.545124779287902e-20 -1.113597444581487e-17  2.660143600047429e-01
 6.635532896238888e-01  2.660143600047429e-01 -1.695619252756650e-17

-1.574699988807904e-17  6.537866951838677e-20  6.635533821935941e-01
 6.537866951838677e-20 -1.113598043975786e-17  2.660103110772783e-01
 6.635533821935941e-01  2.660103110772783e-01 -1.695619472436904e-17

-1.574699770111360e-17  6.530622303981267e-20  6.635534744526550e-01
 6.530622303981267e-20 -1.113598635268125e-17  2.660062693629656e-01
 6.635534744526550e-01  2.660062693629656e-01 -1.695619691380179e-17

-1.574699552148754e-17  6.523393169945451e-20  6.635535664023248e-01
 6.523393169945451e-20 -1.113599211364188e-17  2.660022364837791e-01
 6.635535664023248e-01  2.660022364837791e-01 -1.695619909589433e-17

-1.574699334917171e-17  6.516177772558978e-20  6.635536580438471e-01
 6.516177772558978e-20 -1.113599799489829e-17  2.659982107433185e-01
 6.635536580438471e-01  2.659982107433185e-01 -1.695620127067630e-17

-1.574699118413705e-17  6.508976965947945e-20  6.635537493784571e-01
 6.508976965947945e-20 -1.113600392546923e-17  2.659941937637314e-01
 6.635537493784571e-01  2.659941937637314e-01 -1.695620343817695e-17

-1.574698902635479e-17  6.501789898129108e-20  6.635538404073840e-01
 6.501789898129108e-20 -1.113600951197790e-17  2.659901838483937e-01
 6.635538404073840e-01  2.659901838483937e-01 -1.695620559842551e-17

-1.574698687579633e-17  6.494617888547677e-20  6.635539311318467e-01
 6.494617888547677e-20 -1.113601501928990e-17  2.659861826195959e-01
 6.635539311318467e-01  2.659861826195959e-01 -1.695620775145092e-17

-1.574698473243308e-17  6.487458690409897e-20  6.635540215530572e-01
 6.487458690409897e-20 -1.113602102165215e-17  2.659821883808648e-01
 6.635540215530572e-01  2.659821883808648e-01 -1.695620989728192e-17

-1.574698259623706e-17  6.480314235210709e-20  6.635541116722191e-01
 6.480314235210709e-20 -1.113602680242698e-17  2.659782023396674e-01
 6.635541116722191e-01  2.659782023396674e-01 -1.695621203594717e-17

-1.574698046717997e-17  6.473184229573227e-20  6.635542014905282e-01
 6.473184229573227e-20 -1.113603250229725e-17  2.659742244590092e-01
 6.635542014905282e-01  2.659742244590092e-01 -1.695621416747494e-17

-1.574697834523413e-17  6.466066873391662e-20  6.635542910091720e-01
 6.466066873391662e-20 -1.113603829150031e-17  2.659702534570517e-01
 6.635542910091720e-01  2.659702534570517e-01 -1.695621629189357e-17

-1.574697623037187e-17  6.458964791433084e-20  6.635543802293324e-01
 6.458964791433084e-20 -1.113604370084130e-17  2.659662909564139e-01
 6.635543802293324e-01  2.659662909564139e-01 -1.695621840923100e-17

-1.574697412256566e-17  6.451874714412056e-20  6.635544691521792e-01
 6.451874714412056e-20 -1.113604966606227e-17  2.659623352605764e-01
 6.635544691521792e-01  2.659623352605764e-01 -1.695622051951509e-17

-1.574697202178830e-17  6.444799933087511e-20  6.635545577788783e-01
 6.444799933087511e-20 -1.113605526204980e-17  2.659583879920335e-01
 6.635545577788783e-01  2.659583879920335e-01 -1.695622262277346e-17

-1.574696992801270e-17  6.437737395106783e-20  6.635546461105863e-01
 6.437737395106783e-20 -1.113606082132143e-17  2.659544474541480e-01
 6.635546461105863e-01  2.659544474541480e-01 -1.695622471903366e-17

-1.574696784121192e-17  6.430689766019776e-20  6.635547341484508e-01
 6.430689766019776e-20 -1.113606636185997e-17  2.659505152696528e-01
 6.635547341484508e-01  2.659505152696528e-01 -1.695622680832286e-17

-1.574696576135939e-17  6.423653999004313e-20  6.635548218936145e-01
 6.423653999004313e-20 -1.113607184278003e-17  2.659465897420328e-01
 6.635548218936145e-01  2.659465897420328e-01 -1.695622889066825e-17

-1.574696368842851e-17  6.416632461751814e-20  6.635549093472104e-01
 6.416632461751814e-20 -1.113607752178861e-17  2.659426720789125e-01
 6.635549093472104e-01  2.659426720789125e-01 -1.695623096609673e-17

-1.574696162239301e-17  6.409624803995566e-20  6.635549965103652e-01
 6.409624803995566e-20 -1.113608294367142e-17  2.659387622432861e-01
 6.635549965103652e-01  2.659387622432861e-01 -1.695623303463497e-17

-1.574695956322677e-17  6.402629159584690e-20  6.635550833841953e-01
 6.402629159584690e-20 -1.113608855845322e-17  2.659348589537966e-01
 6.635550833841953e-01  2.659348589537966e-01 -1.695623509630965e-17

-1.574695751090379e-17  6.395648533031700e-20  6.635551699698137e-01
 6.395648533031700e-20 -1.113609394221957e-17  2.659309638328403e-01
 6.635551699698137e-01  2.659309638328403e-01 -1.695623715114703e-17

-1.574695546539843e-17  6.388679019190820e-20  6.635552562683221e-01
 6.388679019190820e-20 -1.113609950689283e-17  2.659270751841208e-01
 6.635552562683221e-01  2.659270751841208e-01 -1.695623919917340e-17

-1.574695342668509e-17  6.381724344965221e-20  6.635553422808177e-01
 6.381724344965221e-20 -1.113610493104081e-17  2.659231946301264e-01
 6.635553422808177e-01  2.659231946301264e-01 -1.695624124041476e-17

-1.574695139473834e-17  6.374781126803241e-20  6.635554280083870e-01
 6.374781126803241e-20 -1.113611058453922e-17  2.659193204744180e-01
 6.635554280083870e-01  2.659193204744180e-01 -1.695624327489693e-17

-1.574694936953314e-17  6.367852398703602e-20  6.635555134521121e-01
 6.367852398703602e-20 -1.113611579909668e-17  2.659154543397432e-01
 6.635555134521121e-01  2.659154543397432e-01 -1.695624530264561e-17

-1.574694735104431e-17  6.360935279165615e-20  6.635555986130666e-01
 6.360935279165615e-20 -1.113612127668625e-17  2.659115945294001e-01
 6.635555986130666e-01  2.659115945294001e-01 -1.695624732368631e-17

-1.574694533924718e-17  6.354031423641367e-20  6.635556834923163e-01
 6.354031423641367e-20 -1.113612688453966e-17  2.659077426663128e-01
 6.635556834923163e-01  2.659077426663128e-01 -1.695624933804432e-17

-1.574694333411707e-17  6.347140133065398e-20  6.635557680909194e-01
 6.347140133065398e-20 -1.113613219274313e-17  2.659038970537523e-01
 6.635557680909194e-01  2.659038970537523e-01 -1.695625134574479e-17

-1.574694133562957e-17  6.340261728012261e-20  6.635558524099278e-01
 6.340261728012261e-20 -1.113613741463112e-17  2.659000588996385e-01
 6.635558524099278e-01  2.659000588996385e-01 -1.695625334681273e-17

-1.574693934376041e-17  6.333396507345196e-20  6.635559364503862e-01
 6.333396507345196e-20 -1.113614293426295e-17  2.658962281668935e-01
 6.635559364503862e-01  2.658962281668935e-01 -1.695625534127290e-17

-1.574693735848552e-17  6.326542702250213e-20  6.635560202133307e-01
 6.326542702250213e-20 -1.113614826633337e-17  2.658924035739898e-01
 6.635560202133307e-01  2.658924035739898e-01 -1.695625732914998e-17

-1.574693537978103e-17  6.319702242513506e-20  6.635561036997913e-01
 6.319702242513506e-20 -1.113615362121862e-17  2.658885867434321e-01
 6.635561036997913e-01  2.658885867434321e-01 -1.695625931046839e-17

-1.574693340762323e-17  6.312873595016279e-20  6.635561869107902e-01
 6.312873595016279e-20 -1.113615865453532e-17  2.658847759789519e-01
 6.635561869107902e-01  2.658847759789519e-01 -1.695626128525243e-17

-1.574693144198859e-17  6.306058061195377e-20  6.635562698473436e-01
 6.306058061195377e-20 -1.113616408062057e-17  2.658809729028291e-01
 6.635562698473436e-01  2.658809729028291e-01 -1.695626325352622e-17

-1.574692948285385e-17  6.299253734818964e-20  6.635563525104590e-01
 6.299253734818964e-20 -1.113616941330437e-17  2.658771758187312e-01
 6.635563525104590e-01  2.658771758187312e-01 -1.695626521531377e-17

-1.574692753019576e-17  6.292462535646238e-20  6.635564349011372e-01
 6.292462535646238e-20 -1.113617452270305e-17  2.658733863491354e-01
 6.635564349011372e-01  2.658733863491354e-01 -1.695626717063874e-17

-1.574692558399140e-17  6.285682860296702e-20  6.635565170203730e-01
 6.285682860296702e-20 -1.113617966554166e-17  2.658696027976230e-01
 6.635565170203730e-01  2.658696027976230e-01 -1.695626911952486e-17

-1.574692364421811e-17  6.278915537097959e-20  6.635565988691526e-01
 6.278915537097959e-20 -1.113618478602945e-17  2.658658263716052e-01
 6.635565988691526e-01  2.658658263716052e-01 -1.695627106199557e-17

-1.574692171085306e-17  6.272160486846242e-20  6.635566804484563e-01
 6.272160486846242e-20 -1.113619029550233e-17  2.658620570340887e-01
 6.635566804484563e-01  2.658620570340887e-01 -1.695627299807406e-17

-1.574691978387407e-17  6.265416887327956e-20  6.635567617592570e-01
 6.265416887327956e-20 -1.113619506314842e-17  2.658582935034133e-01
 6.635567617592570e-01  2.658582935034133e-01 -1.695627492778359e-17

-1.574691786325876e-17  6.258685656849261e-20  6.635568428025213e-01
 6.258685656849261e-20 -1.113620055732062e-17  2.658545374021849e-01
 6.635568428025213e-01  2.658545374021849e-01 -1.695627685114698e-17

-1.574691594898515e-17  6.251965800463508e-20  6.635569235792059e-01
 6.251965800463508e-20 -1.113620548790555e-17  2.658507870334044e-01
 6.635569235792059e-01  2.658507870334044e-01 -1.695627876818713e-17

-1.574691404103137e-17  6.245258372892724e-20  6.635570040902659e-01
 6.245258372892724e-20 -1.113621069461238e-17  2.658470440198608e-01
 6.635570040902659e-01  2.658470440198608e-01 -1.695628067892658e-17

-1.574691213937573e-17  6.238561390744470e-20  6.635570843366444e-01
 6.238561390744470e-20 -1.113621598686403e-17  2.658433066646694e-01
 6.635570843366444e-01  2.658433066646694e-01 -1.695628258338788e-17

-1.574691024399681e-17  6.231877346291618e-20  6.635571643192808e-01
 6.231877346291618e-20 -1.113622070190453e-17  2.658395765901137e-01
 6.635571643192808e-01  2.658395765901137e-01 -1.695628448159323e-17

-1.574690835487320e-17  6.225203782175662e-20  6.635572440391060e-01
 6.225203782175662e-20 -1.113622607364760e-17  2.658358520997813e-01
 6.635572440391060e-01  2.658358520997813e-01 -1.695628637356487e-17

-1.574690647198384e-17  6.218542555210973e-20  6.635573234970450e-01
 6.218542555210973e-20 -1.113623107217699e-17  2.658321348155944e-01
 6.635573234970450e-01  2.658321348155944e-01 -1.695628825932468e-17

-1.574690459530777e-17  6.211891944802235e-20  6.635574026940153e-01
 6.211891944802235e-20 -1.113623588142155e-17  2.658284230409088e-01
 6.635574026940153e-01  2.658284230409088e-01 -1.695629013889460e-17

-1.574690272482428e-17  6.205252811670362e-20  6.635574816309273e-01
 6.205252811670362e-20 -1.113624124911410e-17  2.658247179833352e-01
 6.635574816309273e-01  2.658247179833352e-01 -1.695629201229618e-17

-1.574690086051269e-17  6.198626128667043e-20  6.635575603086874e-01
 6.198626128667043e-20 -1.113624585587722e-17  2.658210196051829e-01
 6.635575603086874e-01  2.658210196051829e-01 -1.695629387955094e-17

-1.574689900235276e-17  6.192008831918510e-20  6.635576387281903e-01
 6.192008831918510e-20 -1.113625116089130e-17  2.658173266246734e-01
 6.635576387281903e-01  2.658173266246734e-01 -1.695629574068029e-17

-1.574689715032417e-17  6.185404603926243e-20  6.635577168903296e-01
 6.185404603926243e-20 -1.113625594949205e-17  2.658136406639066e-01
 6.635577168903296e-01  2.658136406639066e-01 -1.695629759570531e-17

-1.574689530440698e-17  6.178809482428840e-20  6.635577947959870e-01
 6.178809482428840e-20 -1.113626108404472e-17  2.658099600260808e-01
 6.635577947959870e-01  2.658099600260808e-01 -1.695629944464710e-17

-1.574689346458136e-17  6.172227130194622e-20  6.635578724460425e-01
 6.172227130194622e-20 -1.113626584488799e-17  2.658062863329909e-01
 6.635578724460425e-01  2.658062863329909e-01 -1.695630128752652e-17

-1.574689163082763e-17  6.165654307572525e-20  6.635579498413653e-01
 6.165654307572525e-20 -1.113627082238581e-17  2.658026178879245e-01
 6.635579498413653e-01  2.658026178879245e-01 -1.695630312436426e-17

-1.574688980312637e-17  6.159093291529528e-20  6.635580269828204e-01
 6.159093291529528e-20 -1.113627567299014e-17  2.657989563127529e-01
 6.635580269828204e-01  2.657989563127529e-01 -1.695630495518089e-17

-1.574688798145830e-17  6.152542543728642e-20  6.635581038712652e-01
 6.152542543728642e-20 -1.113628058146244e-17  2.657952999103018e-01
 6.635581038712652e-01  2.657952999103018e-01 -1.695630677999679e-17

-1.574688616580438e-17  6.146002391478696e-20  6.635581805075510e-01
 6.146002391478696e-20 -1.113628549185726e-17  2.657916498877506e-01
 6.635581805075510e-01  2.657916498877506e-01 -1.695630859883227e-17

-1.574688435614575e-17  6.139474007792948e-20  6.635582568925219e-01
 6.139474007792948e-20 -1.113629040696044e-17  2.657880062073499e-01
 6.635582568925219e-01  2.657880062073499e-01 -1.695631041170734e-17

-1.574688255246361e-17  6.132955191613956e-20  6.635583330270166e-01
 6.132955191613956e-20 -1.113629521810737e-17  2.657843675870047e-01
 6.635583330270166e-01  2.657843675870047e-01 -1.695631221864200e-17

-1.574688075473952e-17  6.126447468779643e-20  6.635584089118662e-01
 6.126447468779643e-20 -1.113630010115374e-17  2.657807356481108e-01
 6.635584089118662e-01  2.657807356481108e-01 -1.695631401965597e-17

-1.574687896295521e-17  6.119949431224455e-20  6.635584845478957e-01
 6.119949431224455e-20 -1.113630471161753e-17  2.657771086938758e-01
 6.635584845478957e-01  2.657771086938758e-01 -1.695631581476896e-17

-1.574687717709250e-17  6.113462948452672e-20  6.635585599359241e-01
 6.113462948452672e-20 -1.113630952163216e-17  2.657734883455450e-01
 6.635585599359241e-01  2.657734883455450e-01 -1.695631760400039e-17

-1.574687539713352e-17  6.106985627188275e-20  6.635586350767636e-01
 6.106985627188275e-20 -1.113631441410553e-17  2.657698729060857e-01
 6.635586350767636e-01  2.657698729060857e-01 -1.695631938736965e-17

-1.574687362306049e-17  6.100519335811646e-20  6.635587099712181e-01
 6.100519335811646e-20 -1.113631914238911e-17  2.657662639970116e-01
 6.635587099712181e-01  2.657662639970116e-01 -1.695632116489584e-17

-1.574687185485597e-17  6.094062717066323e-20  6.635587846200895e-01
 6.094062717066323e-20 -1.113632397347117e-17  2.657626599206165e-01
 6.635587846200895e-01  2.657626599206165e-01 -1.695632293659810e-17

-1.574687009250252e-17  6.087616914908589e-20  6.635588590241698e-01
 6.087616914908589e-20 -1.113632863921808e-17  2.657590622987241e-01
 6.635588590241698e-01  2.657590622987241e-01 -1.695632470249520e-17

-1.574686833598306e-17  6.081180254954151e-20  6.635589331842441e-01
 6.081180254954151e-20 -1.113633325216515e-17  2.657554694336924e-01
 6.635589331842441e-01  2.657554694336924e-01 -1.695632646260593e-17

-1.574686658528068e-17  6.074754103663807e-20  6.635590071010948e-01
 6.074754103663807e-20 -1.113633815496557e-17  2.657518825318237e-01
 6.635590071010948e-01  2.657518825318237e-01 -1.695632821694886e-17

-1.574686484037861e-17  6.068338410622503e-20  6.635590807754944e-01
 6.068338410622503e-20 -1.113634252117330e-17  2.657483015552474e-01
 6.635590807754944e-01  2.657483015552474e-01 -1.695632996554239e-17

-1.574686310126031e-17  6.061931552474354e-20  6.635591542082100e-01
 6.061931552474354e-20 -1.113634749438145e-17  2.657447252209341e-01
 6.635591542082100e-01  2.657447252209341e-01 -1.695633170840486e-17

-1.574686136790954e-17  6.055535488290730e-20  6.635592274000045e-01
 6.055535488290730e-20 -1.113635198292733e-17  2.657411551501063e-01
 6.635592274000045e-01  2.657411551501063e-01 -1.695633344555439e-17

-1.574685964031004e-17  6.049147836692020e-20  6.635593003516316e-01
 6.049147836692020e-20 -1.113635666505667e-17  2.657375896450975e-01
 6.635593003516316e-01  2.657375896450975e-01 -1.695633517700895e-17

-1.574685791844610e-17  6.042771531764941e-20  6.635593730638401e-01
 6.042771531764941e-20 -1.113636117640091e-17  2.657340303267557e-01
 6.635593730638401e-01  2.657340303267557e-01 -1.695633690278641e-17

-1.574685620230187e-17  6.036403182217619e-20  6.635594455373732e-01
 6.036403182217619e-20 -1.113636559207468e-17  2.657304754975144e-01
 6.635594455373732e-01  2.657304754975144e-01 -1.695633862290446e-17

-1.574685449186191e-17  6.030045266244560e-20  6.635595177729660e-01
 6.030045266244560e-20 -1.113637047400227e-17  2.657269267779775e-01
 6.635595177729660e-01  2.657269267779775e-01 -1.695634033738066e-17

-1.574685278711097e-17  6.023696479110540e-20  6.635595897713493e-01
 6.023696479110540e-20 -1.113637508899009e-17  2.657233824703211e-01
 6.635595897713493e-01  2.657233824703211e-01 -1.695634204623238e-17

-1.574685108803405e-17  6.017356957825360e-20  6.635596615332463e-01
 6.017356957825360e-20 -1.113637962408792e-17  2.657198437805080e-01
 6.635596615332463e-01  2.657198437805080e-01 -1.695634374947700e-17

-1.574684939461618e-17  6.011027547461741e-20  6.635597330593765e-01
 6.011027547461741e-20 -1.113638427098921e-17  2.657163106697591e-01
 6.635597330593765e-01  2.657163106697591e-01 -1.695634544713145e-17

-1.574684770684291e-17  6.004705781108957e-20  6.635598043504489e-01
 6.004705781108957e-20 -1.113638880309479e-17  2.657127818548349e-01
 6.635598043504489e-01  2.657127818548349e-01 -1.695634713921292e-17

-1.574684602469976e-17  5.998394998976760e-20  6.635598754071708e-01
 5.998394998976760e-20 -1.113639309958904e-17  2.657092589562919e-01
 6.635598754071708e-01  2.657092589562919e-01 -1.695634882573808e-17

-1.574684434817268e-17  5.992091769514957e-20  6.635599462302392e-01
 5.992091769514957e-20 -1.113639783956847e-17  2.657057402758602e-01
 6.635599462302392e-01  2.657057402758602e-01 -1.695635050672374e-17

-1.574684267724761e-17  5.985798884198119e-20  6.635600168203503e-01
 5.985798884198119e-20 -1.113640221544991e-17  2.657022274339180e-01
 6.635600168203503e-01  2.657022274339180e-01 -1.695635218218637e-17

-1.574684101191100e-17  5.979513603807804e-20  6.635600871781886e-01
 5.979513603807804e-20 -1.113640670011816e-17  2.656987187322085e-01
 6.635600871781886e-01  2.656987187322085e-01 -1.695635385214245e-17

-1.574683935214936e-17  5.973238260244318e-20  6.635601573044364e-01
 5.973238260244318e-20 -1.113641104923682e-17  2.656952157908513e-01
 6.635601573044364e-01  2.656952157908513e-01 -1.695635551660820e-17

-1.574683769794946e-17  5.966970973754473e-20  6.635602271997678e-01
 5.966970973754473e-20 -1.113641563777610e-17  2.656917169113705e-01
 6.635602271997678e-01  2.656917169113705e-01 -1.695635717559978e-17

-1.574683604929841e-17  5.960713456734223e-20  6.635602968648515e-01
 5.960713456734223e-20 -1.113641986807256e-17  2.656882237140555e-01
 6.635602968648515e-01  2.656882237140555e-01 -1.695635882913314e-17

-1.574683440618340e-17  5.954463512666577e-20  6.635603663003518e-01
 5.954463512666577e-20 -1.113642437448982e-17  2.656847345000517e-01
 6.635603663003518e-01  2.656847345000517e-01 -1.695636047722419e-17

-1.574683276859209e-17  5.948222305273356e-20  6.635604355069237e-01
 5.948222305273356e-20 -1.113642864471958e-17  2.656812504747369e-01
 6.635604355069237e-01  2.656812504747369e-01 -1.695636211988862e-17

-1.574683113651228e-17  5.941990203251617e-20  6.635605044852192e-01
 5.941990203251617e-20 -1.113643338409030e-17  2.656777715984657e-01
 6.635605044852192e-01  2.656777715984657e-01 -1.695636375714197e-17

-1.574682950993193e-17  5.935766117941692e-20  6.635605732358818e-01
 5.935766117941692e-20 -1.113643752195532e-17  2.656742965872327e-01
 6.635605732358818e-01  2.656742965872327e-01 -1.695636538899974e-17

-1.574682788883953e-17  5.929550948950737e-20  6.635606417595526e-01
 5.929550948950737e-20 -1.113644203293750e-17  2.656708270607626e-01
 6.635606417595526e-01  2.656708270607626e-01 -1.695636701547718e-17

-1.574682627322360e-17  5.923343400645425e-20  6.635607100568615e-01
 5.923343400645425e-20 -1.113644613464618e-17  2.656673613202394e-01
 6.635607100568615e-01  2.656673613202394e-01 -1.695636863658951e-17

-1.574682466307305e-17  5.917144811065699e-20  6.635607781284385e-01
 5.917144811065699e-20 -1.113645038432747e-17  2.656639009851193e-01
 6.635607781284385e-01  2.656639009851193e-01 -1.695637025235168e-17

-1.574682305837712e-17  5.910952993515381e-20  6.635608459749023e-01
 5.910952993515381e-20 -1.113645500993303e-17  2.656604443562823e-01
 6.635608459749023e-01  2.656604443562823e-01 -1.695637186277869e-17

-1.574682145912518e-17  5.904770897004673e-20  6.635609135968683e-01
 5.904770897004673e-20 -1.113645919605588e-17  2.656569930530854e-01
 6.635609135968683e-01  2.656569930530854e-01 -1.695637346788519e-17

-1.574681986530712e-17  5.898596088099966e-20  6.635609809949471e-01
 5.898596088099966e-20 -1.113646341082100e-17  2.656535453762437e-01
 6.635609809949471e-01  2.656535453762437e-01 -1.695637506768590e-17

-1.574681827691300e-17  5.892428818272293e-20  6.635610481697400e-01
 5.892428818272293e-20 -1.113646764436698e-17  2.656501025302774e-01
 6.635610481697400e-01  2.656501025302774e-01 -1.695637666219526e-17

-1.574681669393313e-17  5.886270554432267e-20  6.635611151218459e-01
 5.886270554432267e-20 -1.113647195668425e-17  2.656466644751183e-01
 6.635611151218459e-01  2.656466644751183e-01 -1.695637825142763e-17

-1.574681511635831e-17  5.880118877411262e-20  6.635611818518550e-01
 5.880118877411262e-20 -1.113647624473284e-17  2.656432299257248e-01
 6.635611818518550e-01  2.656432299257248e-01 -1.695637983539726e-17

-1.574681354417951e-17  5.873975878674380e-20  6.635612483603547e-01
 5.873975878674380e-20 -1.113648050250110e-17  2.656398005014222e-01
 6.635612483603547e-01  2.656398005014222e-01 -1.695638141411822e-17

-1.574681197738817e-17  5.867839763912297e-20  6.635613146479228e-01
 5.867839763912297e-20 -1.113648471931430e-17  2.656363745023667e-01
 6.635613146479228e-01  2.656363745023667e-01 -1.695638298760450e-17

-1.574681041597602e-17  5.861711915320837e-20  6.635613807151348e-01
 5.861711915320837e-20 -1.113648882108468e-17  2.656329535474582e-01
 6.635613807151348e-01  2.656329535474582e-01 -1.695638455586990e-17

-1.574680885993509e-17  5.855590960574466e-20  6.635614465625578e-01
 5.855590960574466e-20 -1.113649291832210e-17  2.656295359367867e-01
 6.635614465625578e-01  2.656295359367867e-01 -1.695638611892819e-17

-1.574680730925790e-17  5.849478556710026e-20  6.635615121907549e-01
 5.849478556710026e-20 -1.113649720633842e-17  2.656261232889959e-01
 6.635615121907549e-01  2.656261232889959e-01 -1.695638767679286e-17

-1.574680576393723e-17  5.843371640255958e-20  6.635615776002821e-01
 5.843371640255958e-20 -1.113650134961586e-17  2.656227139040612e-01
 6.635615776002821e-01  2.656227139040612e-01 -1.695638922947743e-17

-1.574680422396633e-17  5.837274051260476e-20  6.635616427916916e-01
 5.837274051260476e-20 -1.113650540147723e-17  2.656193094004664e-01
 6.635616427916916e-01  2.656193094004664e-01 -1.695639077699518e-17

-1.574680268933880e-17  5.831182346957852e-20  6.635617077655257e-01
 5.831182346957852e-20 -1.113650963652281e-17  2.656159080780310e-01
 6.635617077655257e-01  2.656159080780310e-01 -1.695639231935931e-17

-1.574680116004867e-17  5.825097987864077e-20  6.635617725223255e-01
 5.825097987864077e-20 -1.113651390413754e-17  2.656125111402889e-01
 6.635617725223255e-01  2.656125111402889e-01 -1.695639385658291e-17

-1.574679963609044e-17  5.819021228764099e-20  6.635618370626256e-01
 5.819021228764099e-20 -1.113651761836703e-17  2.656091185459797e-01
 6.635618370626256e-01  2.656091185459797e-01 -1.695639538867887e-17

-1.574679811745893e-17  5.812950627526937e-20  6.635619013869510e-01
 5.812950627526937e-20 -1.113652184425725e-17  2.656057290095050e-01
 6.635619013869510e-01  2.656057290095050e-01 -1.695639691566008e-17

-1.574679660414958e-17  5.806888211505305e-20  6.635619654958252e-01
 5.806888211505305e-20 -1.113652597840361e-17  2.656023441489366e-01
 6.635619654958252e-01  2.656023441489366e-01 -1.695639843753914e-17

-1.574679509615819e-17  5.800831298047455e-20  6.635620293897644e-01
 5.800831298047455e-20 -1.113652997401488e-17  2.655989622636823e-01
 6.635620293897644e-01  2.655989622636823e-01 -1.695639995432873e-17

-1.574679359348112e-17  5.794781904331329e-20  6.635620930692796e-01
 5.794781904331329e-20 -1.113653397503899e-17  2.655955849713663e-01
 6.635620930692796e-01  2.655955849713663e-01 -1.695640146604122e-17

-1.574679209611512e-17  5.788738581135892e-20  6.635621565348749e-01
 5.788738581135892e-20 -1.113653819434233e-17  2.655922105712647e-01
 6.635621565348749e-01  2.655922105712647e-01 -1.695640297268898e-17

-1.574679060405762e-17  5.782702810786831e-20  6.635622197870498e-01
 5.782702810786831e-20 -1.113654218245222e-17  2.655888406811737e-01
 6.635622197870498e-01  2.655888406811737e-01 -1.695640447428419e-17

-1.574678911730647e-17  5.776672453903497e-20  6.635622828262981e-01
 5.776672453903497e-20 -1.113654607301974e-17  2.655854735996470e-01
 6.635622828262981e-01  2.655854735996470e-01 -1.695640597083896e-17

-1.574678763586021e-17  5.770649553512774e-20  6.635623456531072e-01
 5.770649553512774e-20 -1.113654992579586e-17  2.655821105296370e-01
 6.635623456531072e-01  2.655821105296370e-01 -1.695640746236529e-17

-1.574678615971780e-17  5.764633091201006e-20  6.635624082679599e-01
 5.764633091201006e-20 -1.113655412457803e-17  2.655787514292598e-01
 6.635624082679599e-01  2.655787514292598e-01 -1.695640894887491e-17

-1.574678468887904e-17  5.758621796763791e-20  6.635624706713320e-01
 5.758621796763791e-20 -1.113655816704489e-17  2.655753950117769e-01
 6.635624706713320e-01  2.655753950117769e-01 -1.695641043037975e-17

-1.574678322334409e-17  5.752618182711680e-20  6.635625328636954e-01
 5.752618182711680e-20 -1.113656189576581e-17  2.655720428946022e-01
 6.635625328636954e-01  2.655720428946022e-01 -1.695641190689127e-17

-1.574678176311410e-17  5.746619552042313e-20  6.635625948455144e-01
 5.746619552042313e-20 -1.113656599704076e-17  2.655686933758886e-01
 6.635625948455144e-01  2.655686933758886e-01 -1.695641337842111e-17

-1.574678030819070e-17  5.740627719087781e-20  6.635626566172490e-01
 5.740627719087781e-20 -1.113656992267879e-17  2.655653480727995e-01
 6.635626566172490e-01  2.655653480727995e-01 -1.695641484498056e-17

-1.574677885857623e-17  5.734641212339787e-20  6.635627181793540e-01
 5.734641212339787e-20 -1.113657399864216e-17  2.655620052836525e-01
 6.635627181793540e-01  2.655620052836525e-01 -1.695641630658100e-17

-1.574677741427397e-17  5.728661478071985e-20  6.635627795322764e-01
 5.728661478071985e-20 -1.113657745397114e-17  2.655586666250959e-01
 6.635627795322764e-01  2.655586666250959e-01 -1.695641776323356e-17

-1.574677597528775e-17  5.722686460174222e-20  6.635628406764610e-01
 5.722686460174222e-20 -1.113658134432208e-17  2.655553303951832e-01
 6.635628406764610e-01  2.655553303951832e-01 -1.695641921494935e-17

-1.574677454162256e-17  5.716718580973477e-20  6.635629016123434e-01
 5.716718580973477e-20 -1.113658503612235e-17  2.655519982105792e-01
 6.635629016123434e-01  2.655519982105792e-01 -1.695642066173933e-17

-1.574677311328384e-17  5.710754997647204e-20  6.635629623403569e-01
 5.710754997647204e-20 -1.113658911041951e-17  2.655486683690851e-01
 6.635629623403569e-01  2.655486683690851e-01 -1.695642210361434e-17

-1.574677169027834e-17  5.704797914812859e-20  6.635630228609251e-01
 5.704797914812859e-20 -1.113659324638835e-17  2.655453420721928e-01
 6.635630228609251e-01  2.655453420721928e-01 -1.695642354058517e-17

-1.574677027261355e-17  5.698846559898074e-20  6.635630831744728e-01
 5.698846559898074e-20 -1.113659677186743e-17  2.655420192769481e-01
 6.635630831744728e-01  2.655420192769481e-01 -1.695642497266247e-17

-1.574676886029791e-17  5.692900086741302e-20  6.635631432814098e-01
 5.692900086741302e-20 -1.113660083822703e-17  2.655386986955548e-01
 6.635631432814098e-01  2.655386986955548e-01 -1.695642639985682e-17

-1.574676745334124e-17  5.686959526743045e-20  6.635632031821505e-01
 5.686959526743045e-20 -1.113660444880621e-17  2.655353819443438e-01
 6.635632031821505e-01  2.655353819443438e-01 -1.695642782217870e-17

-1.574676605175406e-17  5.681023426538406e-20  6.635632628770958e-01
 5.681023426538406e-20 -1.113660837219345e-17  2.655320673202368e-01
 6.635632628770958e-01  2.655320673202368e-01 -1.695642923963847e-17

-1.574676465554831e-17  5.675093325563876e-20  6.635633223666453e-01
 5.675093325563876e-20 -1.113661208925198e-17  2.655287564394269e-01
 6.635633223666453e-01  2.655287564394269e-01 -1.695643065224638e-17

-1.574676326473709e-17  5.669167459914823e-20  6.635633816511919e-01
 5.669167459914823e-20 -1.113661592293105e-17  2.655254475988262e-01
 6.635633816511919e-01  2.655254475988262e-01 -1.695643206001273e-17

-1.574676187933484e-17  5.663247800498454e-20  6.635634407311232e-01
 5.663247800498454e-20 -1.113661945486446e-17  2.655221424141797e-01
 6.635634407311232e-01  2.655221424141797e-01 -1.695643346294751e-17

-1.574676049935723e-17  5.657332019976952e-20  6.635634996068202e-01
 5.657332019976952e-20 -1.113662338741888e-17  2.655188391822881e-01
 6.635634996068202e-01  2.655188391822881e-01 -1.695643486106084e-17

-1.574675912482158e-17  5.651421802352327e-20  6.635635582786609e-01
 5.651421802352327e-20 -1.113662685796277e-17  2.655155391038163e-01
 6.635635582786609e-01  2.655155391038163e-01 -1.695643625436262e-17

-1.574675775574656e-17  5.645516503462726e-20  6.635636167470156e-01
 5.645516503462726e-20 -1.113663081837246e-17  2.655122421346429e-01
 6.635636167470156e-01  2.655122421346429e-01 -1.695643764286274e-17

-1.574675639215255e-17  5.639615181574712e-20  6.635636750122488e-01
 5.639615181574712e-20 -1.113663441259184e-17  2.655089469861100e-01
 6.635636750122488e-01  2.655089469861100e-01 -1.695643902657099e-17

-1.574675503406153e-17  5.633719232796388e-20  6.635637330747226e-01
 5.633719232796388e-20 -1.113663775887924e-17  2.655056552735318e-01
 6.635637330747226e-01  2.655056552735318e-01 -1.695644040549709e-17

-1.574675368149745e-17  5.627827149853699e-20  6.635637909347885e-01
 5.627827149853699e-20 -1.113664176061132e-17  2.655023652931562e-01
 6.635637909347885e-01  2.655023652931562e-01 -1.695644177965076e-17

-1.574675233448590e-17  5.621940528902341e-20  6.635638485927995e-01
 5.621940528902341e-20 -1.113664541759284e-17  2.654990786595404e-01
 6.635638485927995e-01  2.654990786595404e-01 -1.695644314904151e-17

-1.574675099305478e-17  5.616057281475241e-20  6.635639060490955e-01
 5.616057281475241e-20 -1.113664897738701e-17  2.654957936691844e-01
 6.635639060490955e-01  2.654957936691844e-01 -1.695644451367897e-17

-1.574674965723404e-17  5.610179139760028e-20  6.635639633040177e-01
 5.610179139760028e-20 -1.113665268390801e-17  2.654925119366396e-01
 6.635639633040177e-01  2.654925119366396e-01 -1.695644587357261e-17

-1.574674832705572e-17  5.604304535277743e-20  6.635640203578965e-01
 5.604304535277743e-20 -1.113665596050961e-17  2.654892317575928e-01
 6.635640203578965e-01  2.654892317575928e-01 -1.695644722873186e-17

-1.574674700255455e-17  5.598434556513795e-20  6.635640772110619e-01
 5.598434556513795e-20 -1.113665966124364e-17  2.654859547467578e-01
 6.635640772110619e-01  2.654859547467578e-01 -1.695644857916613e-17

-1.574674568376770e-17  5.592568233952054e-20  6.635641338638333e-01
 5.592568233952054e-20 -1.113666344510931e-17  2.654826791993060e-01
 6.635641338638333e-01  2.654826791993060e-01 -1.695644992488483e-17

-1.574674437086852e-17  5.586705908474700e-20  6.635641903165348e-01
 5.586705908474700e-20 -1.113666708912457e-17  2.654794063151594e-01
 6.635641903165348e-01  2.654794063151594e-01 -1.695645126590256e-17

-1.574674306363961e-17  5.580847675451903e-20  6.635642465694651e-01
 5.580847675451903e-20 -1.113667039497960e-17  2.654761360487791e-01
 6.635642465694651e-01  2.654761360487791e-01 -1.695645260221833e-17

-1.574674176225407e-17  5.574992790988374e-20  6.635643026229355e-01
 5.574992790988374e-20 -1.113667392997165e-17  2.654728671102628e-01
 6.635643026229355e-01  2.654728671102628e-01 -1.695645393384652e-17

-1.574674046676122e-17  5.569143046062522e-20  6.635643584772470e-01
 5.569143046062522e-20 -1.113667772629908e-17  2.654696011134691e-01
 6.635643584772470e-01  2.654696011134691e-01 -1.695645526079639e-17

-1.574673917721383e-17  5.563295189495413e-20  6.635644141326941e-01
 5.563295189495413e-20 -1.113668108769687e-17  2.654663363536157e-01
 6.635644141326941e-01  2.654663363536157e-01 -1.695645658307733e-17

-1.574673789366850e-17  5.557452139889021e-20  6.635644695895667e-01
 5.557452139889021e-20 -1.113668458621953e-17  2.654630744440986e-01
 6.635644695895667e-01  2.654630744440986e-01 -1.695645790069854e-17

-1.574673661618577e-17  5.551610996056052e-20  6.635645248481488e-01
 5.551610996056052e-20 -1.113668789133606e-17  2.654598136798465e-01
 6.635645248481488e-01  2.654598136798465e-01 -1.695645921366949e-17

-1.574673534483072e-17  5.545774700547266e-20  6.635645799087189e-01
 5.545774700547266e-20 -1.113669144947295e-17  2.654565556743119e-01
 6.635645799087189e-01  2.654565556743119e-01 -1.695646052199948e-17

-1.574673407967268e-17  5.539941011068855e-20  6.635646347715510e-01
 5.539941011068855e-20 -1.113669483916783e-17  2.654532987219783e-01
 6.635646347715510e-01  2.654532987219783e-01 -1.695646182569797e-17

-1.574673282078633e-17  5.534110348520440e-20  6.635646894369124e-01
 5.534110348520440e-20 -1.113669842488634e-17  2.654500440210521e-01
 6.635646894369124e-01  2.654500440210521e-01 -1.695646312477441e-17

-1.574673156825133e-17  5.528283440816733e-20  6.635647439050675e-01
 5.528283440816733e-20 -1.113670172772059e-17  2.654467915255105e-01
 6.635647439050675e-01  2.654467915255105e-01 -1.695646441923838e-17

-1.574673032215316e-17  5.522458526213971e-20  6.635647981762717e-01
 5.522458526213971e-20 -1.113670511195855e-17  2.654435399440702e-01
 6.635647981762717e-01  2.654435399440702e-01 -1.695646570909954e-17

-1.574672908258344e-17  5.516637775534348e-20  6.635648522507791e-01
 5.516637775534348e-20 -1.113670843934879e-17  2.654402908898154e-01
 6.635648522507791e-01  2.654402908898154e-01 -1.695646699436756e-17

-1.574672784964017e-17  5.510818523678649e-20  6.635649061288338e-01
 5.510818523678649e-20 -1.113671195723209e-17  2.654370426565149e-01
 6.635649061288338e-01  2.654370426565149e-01 -1.695646827505239e-17

-1.574672662342871e-17  5.505003221738576e-20  6.635649598106803e-01
 5.505003221738576e-20 -1.113671523484581e-17  2.654337968569004e-01
 6.635649598106803e-01  2.654337968569004e-01 -1.695646955116397e-17

-1.574672540406172e-17  5.499189642697221e-20  6.635650132965519e-01
 5.499189642697221e-20 -1.113671893048962e-17  2.654305517844567e-01
 6.635650132965519e-01  2.654305517844567e-01 -1.695647082271253e-17

-1.574672419166015e-17  5.493378835408833e-20  6.635650665866816e-01
 5.493378835408833e-20 -1.113672200425586e-17  2.654273090518076e-01
 6.635650665866816e-01  2.654273090518076e-01 -1.695647208970834e-17

-1.574672298635379e-17  5.487570164244821e-20  6.635651196812934e-01
 5.487570164244821e-20 -1.113672518488851e-17  2.654240669521051e-01
 6.635651196812934e-01  2.654240669521051e-01 -1.695647335216205e-17

-1.574672178828189e-17  5.481764599332380e-20  6.635651725806073e-01
 5.481764599332380e-20 -1.113672875221976e-17  2.654208270976358e-01
 6.635651725806073e-01  2.654208270976358e-01 -1.695647461008433e-17

-1.574672059759393e-17  5.475960796287129e-20  6.635652252848395e-01
 5.475960796287129e-20 -1.113673206583440e-17  2.654175877814653e-01
 6.635652252848395e-01  2.654175877814653e-01 -1.695647586348637e-17

-1.574671941445065e-17  5.470158645025348e-20  6.635652777941982e-01
 5.470158645025348e-20 -1.113673542417909e-17  2.654143502007198e-01
 6.635652777941982e-01  2.654143502007198e-01 -1.695647711237943e-17

-1.574671823902452e-17  5.464359547982473e-20  6.635653301088883e-01
 5.464359547982473e-20 -1.113673857530356e-17  2.654111143077844e-01
 6.635653301088883e-01  2.654111143077844e-01 -1.695647835677523e-17

-1.574671707150120e-17  5.458561583975330e-20  6.635653822291088e-01
 5.458561583975330e-20 -1.113674189944022e-17  2.654078788100135e-01
 6.635653822291088e-01  2.654078788100135e-01 -1.695647959668580e-17

-1.574671591208037e-17  5.452766378124768e-20  6.635654341550532e-01
 5.452766378124768e-20 -1.113674519075282e-17  2.654046453191641e-01
 6.635654341550532e-01  2.654046453191641e-01 -1.695648083212361e-17

-1.574671476097694e-17  5.446971367284396e-20  6.635654858869093e-01
 5.446971367284396e-20 -1.113674823079269e-17  2.654014121278301e-01
 6.635654858869093e-01  2.654014121278301e-01 -1.695648206310162e-17

-1.574671361842240e-17  5.441179529489741e-20  6.635655374248615e-01
 5.441179529489741e-20 -1.113675128884483e-17  2.653981808468531e-01
 6.635655374248615e-01  2.653981808468531e-01 -1.695648328963319e-17

-1.574671248466611e-17  5.435387945799745e-20  6.635655887690866e-01
 5.435387945799745e-20 -1.113675469337081e-17  2.653949497690474e-01
 6.635655887690866e-01  2.653949497690474e-01 -1.695648451173237e-17

-1.574671135997727e-17  5.429599092896922e-20  6.635656399197583e-01
 5.429599092896922e-20 -1.113675753286505e-17  2.653917205050332e-01
 6.635656399197583e-01  2.653917205050332e-01 -1.695648572941373e-17

-1.574671024464598e-17  5.423810319550722e-20  6.635656908770418e-01
 5.423810319550722e-20 -1.113676100504532e-17  2.653884913467928e-01
 6.635656908770418e-01  2.653884913467928e-01 -1.695648694269257e-17

-1.574670913898586e-17  5.418023638538072e-20  6.635657416411013e-01
 5.418023638538072e-20 -1.113676412404075e-17  2.653852634904939e-01
 6.635657416411013e-01  2.653852634904939e-01 -1.695648815158499e-17

-1.574670804333554e-17  5.412238210348608e-20  6.635657922120934e-01
 5.412238210348608e-20 -1.113676720010137e-17  2.653820368871324e-01
 6.635657922120934e-01  2.653820368871324e-01 -1.695648935610786e-17

-1.574670695806133e-17  5.406452408265198e-20  6.635658425901685e-01
 5.406452408265198e-20 -1.113677007286168e-17  2.653788102430951e-01
 6.635658425901685e-01  2.653788102430951e-01 -1.695649055627903e-17

-1.574670588355965e-17  5.400669378943820e-20  6.635658927754744e-01
 5.400669378943820e-20 -1.113677344437404e-17  2.653755851689008e-01
 6.635658927754744e-01  2.653755851689008e-01 -1.695649175211735e-17

-1.574670482025992e-17  5.394885533005467e-20  6.635659427681508e-01
 5.394885533005467e-20 -1.113677655327208e-17  2.653723599557494e-01
 6.635659427681508e-01  2.653723599557494e-01 -1.695649294364284e-17

-1.574670376862744e-17  5.389103596539561e-20  6.635659925683348e-01
 5.389103596539561e-20 -1.113677918693393e-17  2.653691362138242e-01
 6.635659925683348e-01  2.653691362138242e-01 -1.695649413087674e-17

-1.574670272916707e-17  5.383320748205478e-20  6.635660421761560e-01
 5.383320748205478e-20 -1.113678231970506e-17  2.653659122340555e-01
 6.635660421761560e-01  2.653659122340555e-01 -1.695649531384174e-17

-1.574670170242696e-17  5.377540244397646e-20  6.635660915917414e-01
 5.377540244397646e-20 -1.113678539227044e-17  2.653626896262841e-01
 6.635660915917414e-01  2.653626896262841e-01 -1.695649649256195e-17

-1.574670068900269e-17  5.371758109433712e-20  6.635661408152089e-01
 5.371758109433712e-20 -1.113678825862567e-17  2.653594666814164e-01
 6.635661408152089e-01  2.653594666814164e-01 -1.695649766706334e-17

-1.574669968954216e-17  5.365977575151500e-20  6.635661898466754e-01
 5.365977575151500e-20 -1.113679142524078e-17  2.653562450088596e-01
 6.635661898466754e-01  2.653562450088596e-01 -1.695649883737357e-17

-1.574669870475044e-17  5.360196752310304e-20  6.635662386862506e-01
 5.360196752310304e-20 -1.113679433230671e-17  2.653530228989753e-01
 6.635662386862506e-01  2.653530228989753e-01 -1.695650000352258e-17

-1.574669773539611e-17  5.354415331088018e-20  6.635662873340381e-01
 5.354415331088018e-20 -1.113679716241119e-17  2.653498015463107e-01
 6.635662873340381e-01  2.653498015463107e-01 -1.695650116554248e-17

-1.574669678231697e-17  5.348634753799752e-20  6.635663357901382e-01
 5.348634753799752e-20 -1.113679992415612e-17  2.653465809005744e-01
 6.635663357901382e-01  2.653465809005744e-01 -1.695650232346794e-17

-1.574669584642784e-17  5.342853079346956e-20  6.635663840546447e-01
 5.342853079346956e-20 -1.113680301045216e-17  2.653433596665441e-01
 6.635663840546447e-01  2.653433596665441e-01 -1.695650347733650e-17

-1.574669492872824e-17  5.337071603140127e-20  6.635664321276462e-01
 5.337071603140127e-20 -1.113680586426725e-17  2.653401394530206e-01
 6.635664321276462e-01  2.653401394530206e-01 -1.695650462718877e-17

-1.574669403031137e-17  5.331288853141396e-20  6.635664800092266e-01
 5.331288853141396e-20 -1.113680858974418e-17  2.653369185498299e-01
 6.635664800092266e-01  2.653369185498299e-01 -1.695650577306894e-17

-1.574669315237389e-17  5.325506130198729e-20  6.635665276994653e-01
 5.325506130198729e-20 -1.113681106966973e-17  2.653336985655176e-01
 6.635665276994653e-01  2.653336985655176e-01 -1.695650691502490e-17

-1.574669229622738e-17  5.319722107306018e-20  6.635665751984349e-01
 5.319722107306018e-20 -1.113681394684546e-17  2.653304777892949e-01
 6.635665751984349e-01  2.653304777892949e-01 -1.695650805310899e-17

-1.574669146331037e-17  5.313937763062133e-20  6.635666225062042e-01
 5.313937763062133e-20 -1.113681671595121e-17  2.653272578296141e-01
 6.635666225062042e-01  2.653272578296141e-01 -1.695650918737820e-17

-1.574669065520224e-17  5.308151706621917e-20  6.635666696228366e-01
 5.308151706621917e-20 -1.113681951516490e-17  2.653240369754132e-01
 6.635666696228366e-01  2.653240369754132e-01 -1.695651031789485e-17

-1.574668987363912e-17  5.302365038661475e-20  6.635667165483893e-01
 5.302365038661475e-20 -1.113682216193157e-17  2.653208164197187e-01
 6.635667165483893e-01  2.653208164197187e-01 -1.695651144472714e-17

-1.574668912053063e-17  5.296577093787970e-20  6.635667632829155e-01
 5.296577093787970e-20 -1.113682457041151e-17  2.653175961108463e-01
 6.635667632829155e-01  2.653175961108463e-01 -1.695651256794985e-17

-1.574668839797974e-17  5.290787661448891e-20  6.635668098264620e-01
 5.290787661448891e-20 -1.113682739243777e-17  2.653143747521519e-01
 6.635668098264620e-01  2.653143747521519e-01 -1.695651368764505e-17

-1.574668770830423e-17  5.284996763265123e-20  6.635668561790723e-01
 5.284996763265123e-20 -1.113682996826119e-17  2.653111539510727e-01
 6.635668561790723e-01  2.653111539510727e-01 -1.695651480390290e-17

-1.574668705406113e-17  5.279203423928888e-20  6.635669023407835e-01
 5.279203423928888e-20 -1.113683229748265e-17  2.653079319958815e-01
 6.635669023407835e-01  2.653079319958815e-01 -1.695651591682273e-17

-1.574668643807364e-17  5.273409836500040e-20  6.635669483116269e-01
 5.273409836500040e-20 -1.113683495933311e-17  2.653047104935556e-01
 6.635669483116269e-01  2.653047104935556e-01 -1.695651702651391e-17

-1.574668586346154e-17  5.267613085941409e-20  6.635669940916303e-01
 5.267613085941409e-20 -1.113683719120182e-17  2.653014877319413e-01
 6.635669940916303e-01  2.653014877319413e-01 -1.695651813309710e-17

-1.574668533367494e-17  5.261815848863377e-20  6.635670396808150e-01
 5.261815848863377e-20 -1.113683978378134e-17  2.652982653178571e-01
 6.635670396808150e-01  2.652982653178571e-01 -1.695651923670554e-17

-1.574668485253201e-17  5.256015066634545e-20  6.635670850791985e-01
 5.256015066634545e-20 -1.113684198725706e-17  2.652950415386400e-01
 6.635670850791985e-01  2.652950415386400e-01 -1.695652033748655e-17

-1.574668442426042e-17  5.250213297969800e-20  6.635671302867922e-01
 5.250213297969800e-20 -1.113684406407643e-17  2.652918180005106e-01
 6.635671302867922e-01  2.652918180005106e-01 -1.695652143560300e-17

-1.574668405354387e-17  5.244408605119567e-20  6.635671753036010e-01
 5.244408605119567e-20 -1.113684649065292e-17  2.652885929905753e-01
 6.635671753036010e-01  2.652885929905753e-01 -1.695652253123518e-17

-1.574668374557293e-17  5.238602284591665e-20  6.635672201296283e-01
 5.238602284591665e-20 -1.113684856741090e-17  2.652853676997964e-01
 6.635672201296283e-01  2.652853676997964e-01 -1.695652362458283e-17

-1.574668350610094e-17  5.232794611807344e-20  6.635672647648694e-01
 5.232794611807344e-20 -1.113685067095879e-17  2.652821420743108e-01
 6.635672647648694e-01  2.652821420743108e-01 -1.695652471586709e-17

-1.574668334150473e-17  5.226983060726010e-20  6.635673092093156e-01
 5.226983060726010e-20 -1.113685222125795e-17  2.652789148154377e-01
 6.635673092093156e-01  2.652789148154377e-01 -1.695652580533307e-17

-1.574668325885032e-17  5.221171548914253e-20  6.635673534629519e-01
 5.221171548914253e-20 -1.113685433480958e-17  2.652756875281376e-01
 6.635673534629519e-01  2.652756875281376e-01 -1.695652689325215e-17

-1.574668326596255e-17  5.215356589754186e-20  6.635673975257600e-01
 5.215356589754186e-20 -1.113685607864028e-17  2.652724584985187e-01
 6.635673975257600e-01  2.652724584985187e-01 -1.695652797992486e-17

-1.574668337149812e-17  5.209541227818830e-20  6.635674413977163e-01
 5.209541227818830e-20 -1.113685755257628e-17  2.652692293308992e-01
 6.635674413977163e-01  2.652692293308992e-01 -1.695652906568356e-17

-1.574668358501982e-17  5.203724399823641e-20  6.635674850787890e-01
 5.203724399823641e-20 -1.113685927651615e-17  2.652659983107127e-01
 6.635674850787890e-01  2.652659983107127e-01 -1.695653015089536e-17

-1.574668391706968e-17  5.197907241202158e-20  6.635675285689461e-01
 5.197907241202158e-20 -1.113686069661120e-17  2.652627670418105e-01
 6.635675285689461e-01  2.652627670418105e-01 -1.695653123596482e-17

-1.574668437923598e-17  5.192089224670950e-20  6.635675718681462e-01
 5.192089224670950e-20 -1.113686200248208e-17  2.652595338086630e-01
 6.635675718681462e-01  2.652595338086630e-01 -1.695653232133675e-17

-1.574668498420876e-17  5.186272336444863e-20  6.635676149763458e-01
 5.186272336444863e-20 -1.113686304701110e-17  2.652562997994173e-01
 6.635676149763458e-01  2.652562997994173e-01 -1.695653340749809e-17

-1.574668574581429e-17  5.180457169538810e-20  6.635676578934950e-01
 5.180457169538810e-20 -1.113686394571056e-17  2.652530649567054e-01
 6.635676578934950e-01  2.652530649567054e-01 -1.695653449497945e-17

-1.574668667901523e-17  5.174644467442802e-20  6.635677006195376e-01
 5.174644467442802e-20 -1.113686476118689e-17  2.652498279784403e-01
 6.635677006195376e-01  2.652498279784403e-01 -1.695653558435492e-17

-1.574668779985904e-17  5.168836754943034e-20  6.635677431544149e-01
 5.168836754943034e-20 -1.113686554358479e-17  2.652465904650259e-01
 6.635677431544149e-01  2.652465904650259e-01 -1.695653667624029e-17

-1.574668912534916e-17  5.163034928569844e-20  6.635677854980614e-01
 5.163034928569844e-20 -1.113686591091771e-17  2.652433506969117e-01
 6.635677854980614e-01  2.652433506969117e-01 -1.695653777128794e-17

-1.574669067320442e-17  5.157242339241852e-20  6.635678276504074e-01
 5.157242339241852e-20 -1.113686606075314e-17  2.652401102717882e-01
 6.635678276504074e-01  2.652401102717882e-01 -1.695653887017764e-17

-1.574669246146043e-17  5.151459794985315e-20  6.635678696113768e-01
 5.151459794985315e-20 -1.113686576175334e-17  2.652368674662743e-01
 6.635678696113768e-01  2.652368674662743e-01 -1.695653997360122e-17

-1.574669450785065e-17  5.145694120900372e-20  6.635679113808901e-01
 5.145694120900372e-20 -1.113686545725519e-17  2.652336238723100e-01
 6.635679113808901e-01  2.652336238723100e-01 -1.695654108223880e-17

-1.574669682888555e-17  5.139946902666689e-20  6.635679529588608e-01
 5.139946902666689e-20 -1.113686498379074e-17  2.652303777589039e-01
 6.635679529588608e-01  2.652303777589039e-01 -1.695654219672326e-17

-1.574669943852495e-17  5.134225584704573e-20  6.635679943452000e-01
 5.134225584704573e-20 -1.113686431283287e-17  2.652271307079835e-01
 6.635679943452000e-01  2.652271307079835e-01 -1.695654331758932e-17

-1.574670234631066e-17  5.128533385092867e-20  6.635680355398111e-01
 5.128533385092867e-20 -1.113686264783990e-17  2.652238809737448e-01
 6.635680355398111e-01  2.652238809737448e-01 -1.695654444520167e-17

-1.574670555479983e-17  5.122880812037173e-20  6.635680765425941e-01
 5.122880812037173e-20 -1.113686132689307e-17  2.652206297023843e-01
 6.635680765425941e-01  2.652206297023843e-01 -1.695654557965615e-17

-1.574670905611253e-17  5.117275752974971e-20  6.635681173534428e-01
 5.117275752974971e-20 -1.113685946118152e-17  2.652173767786551e-01
 6.635681173534428e-01  2.652173767786551e-01 -1.695654672064709e-17

-1.574671282739603e-17  5.111726970466519e-20  6.635681579722463e-01
 5.111726970466519e-20 -1.113685741566815e-17  2.652141208190497e-01
 6.635681579722463e-01  2.652141208190497e-01 -1.695654786729287e-17

-1.574671682502201e-17  5.106247900805463e-20  6.635681983988894e-01
 5.106247900805463e-20 -1.113685512738249e-17  2.652108633105542e-01
 6.635681983988894e-01  2.652108633105542e-01 -1.695654901791259e-17

-1.574672097740342e-17  5.100849090320239e-20  6.635682386332513e-01
 5.100849090320239e-20 -1.113685254262067e-17  2.652076023756835e-01
 6.635682386332513e-01  2.652076023756835e-01 -1.695655016974995e-17

-1.574672517647295e-17  5.095546906800378e-20  6.635682786752055e-01
 5.095546906800378e-20 -1.113684995354233e-17  2.652043393922208e-01
 6.635682786752055e-01  2.652043393922208e-01 -1.695655131864546e-17

-1.574672926816478e-17  5.090351926257520e-20  6.635683185246218e-01
 5.090351926257520e-20 -1.113684778822592e-17  2.652010723354082e-01
 6.635683185246218e-01  2.652010723354082e-01 -1.695655245867026e-17

-1.574673304272909e-17  5.085279599791074e-20  6.635683581813638e-01
 5.085279599791074e-20 -1.113684558703453e-17  2.651978023905914e-01
 6.635683581813638e-01  2.651978023905914e-01 -1.695655358175373e-17

-1.574673622643372e-17  5.080337916945654e-20  6.635683976452904e-01
 5.080337916945654e-20 -1.113684406274265e-17  2.651945277099156e-01
 6.635683976452904e-01  2.651945277099156e-01 -1.695655467736424e-17

-1.574673847715985e-17  5.075532257962804e-20  6.635684369162562e-01
 5.075532257962804e-20 -1.113684326340472e-17  2.651912480574211e-01
 6.635684369162562e-01  2.651912480574211e-01 -1.695655573233979e-17

-1.574673938745174e-17  5.070860644139764e-20  6.635684759941095e-01
 5.070860644139764e-20 -1.113684401738735e-17  2.651879629603622e-01
 6.635684759941095e-01  2.651879629603622e-01 -1.695655673100531e-17

-1.574673849941837e-17  5.066307653011412e-20  6.635685148786945e-01
 5.066307653011412e-20 -1.113684658144257e-17  2.651846705490962e-01
 6.635685148786945e-01  2.651846705490962e-01 -1.695655765574577e-17

-1.574673533592787e-17  5.061847665999470e-20  6.635685535698492e-01
 5.061847665999470e-20 -1.113685090615409e-17  2.651813728403318e-01
 6.635685535698492e-01  2.651813728403318e-01 -1.695655848820595e-17

-1.574672945098894e-17  5.057439596458251e-20  6.635685920674091e-01
 5.057439596458251e-20 -1.113685862820708e-17  2.651780717926832e-01
 6.635685920674091e-01  2.651780717926832e-01 -1.695655921122835e-17

-1.574672049833542e-17  5.053036119877724e-20  6.635686303712035e-01
 5.053036119877724e-20 -1.113686880398714e-17  2.651747822661170e-01
 6.635686303712035e-01  2.651747822661170e-01 -1.695655981149070e-17

-1.574670831088605e-17  5.048605072573963e-20  6.635686684810521e-01
 5.048605072573963e-20 -1.113688228109427e-17  2.651715421116369e-01
 6.635686684810521e-01  2.651715421116369e-01 -1.695656028256256e-17

-1.574669297614060e-17  5.044180926426232e-20  6.635687063967770e-01
 5.044180926426232e-20 -1.113689899671089e-17  2.651684560158369e-01
 6.635687063967770e-01  2.651684560158369e-01 -1.695656062780483e-17

-1.574667488662838e-17  5.039908151644745e-20  6.635687441181919e-01
 5.039908151644745e-20 -1.113691851035917e-17  2.651657197493907e-01
 6.635687441181919e-01  2.651657197493907e-01 -1.695656086231025e-17

-1.574665474423338e-17  5.035780350108638e-20  6.635687816451048e-01
 5.035780350108638e-20 -1.113693977253196e-17  2.651633933466461e-01
 6.635687816451048e-01  2.651633933466461e-01 -1.695656101306961e-17


CELL_DATA 3096
SCALARS dislocation_index int
LOOKUP_TABLE default
0
1
2
3
4
5
6
7
8
9
10
11
12
13
14
15
16
17
18
19
20
21
22
23
24
25
26
27
28
29
30
31
32
33
34
35
36
37
38
39
40
41
42
43
44
45
46
47
48
49
50
51
52
53
54
55
56
57
58
59
60
61
62
63
64
65
66
67
68
69
70
71
72
73
74
75
76
77
78
79
80
81
82
83
84
85
86
87
88
89
90
91
92
93
94
95
96
97
98
99
100
101
102
103
104
105
106
107
108
109
110
111
112
113
114
115
116
117
118
119
120
121
122
123
124
125
126
127
128
129
130
131
132
133
134
135
136
137
138
139
140
141
142
143
144
145
146
147
148
149
150
151
152
153
154
155
156
157
158
159
160
161
162
163
164
165
166
167
168
169
170
171
172
173
174
175
176
177
178
179
180
181
182
183
184
185
186
187
188
189
190
191
192
193
194
195
196
197
198
199
200
201
202
203
204
205
206
207
208
209
210
211
212
213
214
215
216
217
218
219
220
221
222
223
224
225
226
227
228
229
230
231
232
233
234
235
236
237
238
239
240
241
242
243
244
245
246
247
248
249
250
251
252
253
254
255
256
257
258
259
260
261
262
263
264
265
266
267
268
269
270
271
272
273
274
275
276
277
278
279
280
281
282
283
284
285
286
287
288
289
290
291
292
293
294
295
296
297
298
299
300
301
302
303
304
305
306
307
308
309
310
311
312
313
314
315
316
317
318
319
320
321
322
323
324
325
326
327
328
329
330
331
332
333
334
335
336
337
338
339
340
341
342
343
344
345
346
347
348
349
350
351
352
353
354
355
356
357
358
359
360
361
362
363
364
365
366
367
368
369
370
371
372
373
374
375
376
377
378
379
380
381
382
383
384
385
386
387
388
389
390
391
392
393
394
395
396
397
398
399
400
401
402
403
404
405
406
407
408
409
410
411
412
413
414
415
416
417
418
419
420
421
422
423
424
425
426
427
428
429
430
431
432
433
434
435
436
437
438
439
440
441
442
443
444
445
446
447
448
449
450
451
452
453
454
455
456
457
458
459
460
461
462
463
464
465
466
467
468
469
470
471
472
473
474
475
476
477
478
479
480
481
482
483
484
485
486
487
488
489
490
491
492
493
494
495
496
497
498
499
500
501
502
503
504
505
506
507
508
509
510
511
512
513
514
515
516
517
518
519
520
521
522
523
524
525
526
527
528
529
530
531
532
533
534
535
536
537
538
539
540
541
542
543
544
545
546
547
548
549
550
551
552
553
554
555
556
557
558
559
560
561
562
563
564
565
566
567
568
569
570
571
572
573
574
575
576
577
578
579
580
581
582
583
584
585
586
587
588
589
590
591
592
593
594
595
596
597
598
599
600
601
602
603
604
605
606
607
608
609
610
611
612
613
614
615
616
617
618
619
620
621
622
623
624
625
626
627
628
629
630
631
632
633
634
635
636
637
638
639
640
641
642
643
644
645
646
647
648
649
650
651
652
653
654
655
656
657
658
659
660
661
662
663
664
665
666
667
668
669
670
671
672
673
674
675
676
677
678
679
680
681
682
683
684
685
686
687
688
689
690
691
692
693
694
695
696
697
698
699
700
701
702
703
704
705
706
707
708
709
710
711
712
713
714
715
716
717
718
719
720
721
722
723
724
725
726
727
728
729
730
731
732
733
734
735
736
737
738
739
740
741
742
743
744
745
746
747
748
749
750
751
752
753
754
755
756
757
758
759
760
761
762
763
764
765
766
767
768
769
770
771
772
773
774
775
776
777
778
779
780
781
782
783
784
785
786
787
788
789
790
791
792
793
794
795
796
797
798
799
800
801
802
803
804
805
806
807
808
809
810
811
812
813
814
815
816
817
818
819
820
821
822
823
824
825
826
827
828
829
830
831
832
833
834
835
836
837
838
839
840
841
842
843
844
845
846
847
848
849
850
851
852
853
854
855
856
857
858
859
860
861
862
863
864
865
866
867
868
869
870
871
872
873
874
875
876
877
878
879
880
881
882
883
884
885
886
887
888
889
890
891
892
893
894
895
896
897
898
899
900
901
902
903
904
905
906
907
908
909
910
911
912
913
914
915
916
917
918
919
920
921
922
923
924
925
926
927
928
929
930
931
932
933
934
935
936
937
938
939
940
941
942
943
944
945
946
947
948
949
950
951
952
953
954
955
956
957
958
959
960
961
962
963
964
965
966
967
968
969
970
971
972
973
974
975
976
977
978
979
980
981
982
983
984
985
986
987
988
989
990
991
992
993
994
995
996
997
998
999
1000
1001
1002
1003
1004
1005
1006
1007
1008
1009
1010
1011
1012
1013
1014
1015
1016
1017
1018
1019
1020
1021
1022
1023
1024
1025
1026
1027
1028
1029
1030
1031
1032
1033
1034
1035
1036
1037
1038
1039
1040
1041
1042
1043
1044
1045
1046
1047
1048
1049
1050
1051
1052
1053
1054
1055
1056
1057
1058
1059
1060
1061
1062
1063
1064
1065
1066
1067
1068
1069
1070
1071
1072
1073
1074
1075
1076
1077
1078
1079
1080
1081
1082
1083
1084
1085
1086
1087
1088
1089
1090
1091
1092
1093
1094
1095
1096
1097
1098
1099
1100
1101
1102
1103
1104
1105
1106
1107
1108
1109
1110
1111
1112
1113
1114
1115
1116
1117
1118
1119
1120
1121
1122
1123
1124
1125
1126
1127
1128
1129
1130
1131
1132
1133
1134
1135
1136
1137
1138
1139
1140
1141
1142
1143
1144
1145
1146
1147
1148
1149
1150
1151
1152
1153
1154
1155
1156
1157
1158
1159
1160
1161
1162
1163
1164
1165
1166
1167
1168
1169
1170
1171
1172
1173
1174
1175
1176
1177
1178
1179
1180
1181
1182
1183
1184
1185
1186
1187
1188
1189
1190
1191
1192
1193
1194
1195
1196
1197
1198
1199
1200
1201
1202
1203
1204
1205
1206
1207
1208
1209
1210
1211
1212
1213
1214
1215
1216
1217
1218
1219
1220
1221
1222
1223
1224
1225
1226
1227
1228
1229
1230
1231
1232
1233
1234
1235
1236
1237
1238
1239
1240
1241
1242
1243
1244
1245
1246
1247
1248
1249
1250
1251
1252
1253
1254
1255
1256
1257
1258
1259
1260
1261
1262
1263
1264
1265
1266
1267
1268
1269
1270
1271
1272
1273
1274
1275
1276
1277
1278
1279
1280
1281
1282
1283
1284
1285
1286
1287
1288
1289
1290
1291
1292
1293
1294
1295
1296
1297
1298
1299
1300
1301
1302
1303
1304
1305
1306
1307
1308
1309
1310
1311
1312
1313
1314
1315
1316
1317
1318
1319
1320
1321
1322
1323
1324
1325
1326
1327
1328
1329
1330
1331
1332
1333
1334
1335
1336
1337
1338
1339
1340
1341
1342
1343
1344
1345
1346
1347
1348
1349
1350
1351
1352
1353
1354
1355
1356
1357
1358
1359
1360
1361
1362
1363
1364
1365
1366
1367
1368
1369
1370
1371
1372
1373
1374
1375
1376
1377
1378
1379
1380
1381
1382
1383
1384
1385
1386
1387
1388
1389
1390
1391
1392
1393
1394
1395
1396
1397
1398
1399
1400
1401
1402
1403
1404
1405
1406
1407
1408
1409
1410
1411
1412
1413
1414
1415
1416
1417
1418
1419
1420
1421
1422
1423
1424
1425
1426
1427
1428
1429
1430
1431
1432
1433
1434
1435
1436
1437
1438
1439
1440
1441
1442
1443
1444
1445
1446
1447
1448
1449
1450
1451
1452
1453
1454
1455
1456
1457
1458
1459
1460
1461
1462
1463
1464
1465
1466
1467
1468
1469
1470
1471
1472
1473
1474
1475
1476
1477
1478
1479
1480
1481
1482
1483
1484
1485
1486
1487
1488
1489
1490
1491
1492
1493
1494
1495
1496
1497
1498
1499
1500
1501
1502
1503
1504
1505
1506
1507
1508
1509
1510
1511
1512
1513
1514
1515
1516
1517
1518
1519
1520
1521
1522
1523
1524
1525
1526
1527
1528
1529
1530
1531
1532
1533
1534
1535
1536
1537
1538
1539
1540
1541
1542
1543
1544
1545
1546
1547
1548
1549
1550
1551
1552
1553
1554
1555
1556
1557
1558
1559
1560
1561
1562
1563
1564
1565
1566
1567
1568
1569
1570
1571
1572
1573
1574
1575
1576
1577
1578
1579
1580
1581
1582
1583
1584
1585
1586
1587
1588
1589
1590
1591
1592
1593
1594
1595
1596
1597
1598
1599
1600
1601
1602
1603
1604
1605
1606
1607
1608
1609
1610
1611
1612
1613
1614
1615
1616
1617
1618
1619
1620
1621
1622
1623
1624
1625
1626
1627
1628
1629
1630
1631
1632
1633
1634
1635
1636
1637
1638
1639
1640
1641
1642
1643
1644
1645
1646
1647
1648
1649
1650
1651
1652
1653
1654
1655
1656
1657
1658
1659
1660
1661
1662
1663
1664
1665
1666
1667
1668
1669
1670
1671
1672
1673
1674
1675
1676
1677
1678
1679
1680
1681
1682
1683
1684
1685
1686
1687
1688
1689
1690
1691
1692
1693
1694
1695
1696
1697
1698
1699
1700
1701
1702
1703
1704
1705
1706
1707
1708
1709
1710
1711
1712
1713
1714
1715
1716
1717
1718
1719
1720
1721
1722
1723
1724
1725
1726
1727
1728
1729
1730
1731
1732
1733
1734
1735
1736
1737
1738
1739
1740
1741
1742
1743
1744
1745
1746
1747
1748
1749
1750
1751
1752
1753
1754
1755
1756
1757
1758
1759
1760
1761
1762
1763
1764
1765
1766
1767
1768
1769
1770
1771
1772
1773
1774
1775
1776
1777
1778
1779
1780
1781
1782
1783
1784
1785
1786
1787
1788
1789
1790
1791
1792
1793
1794
1795
1796
1797
1798
1799
1800
1801
1802
1803
1804
1805
1806
1807
1808
1809
1810
1811
1812
1813
1814
1815
1816
1817
1818
1819
1820
1821
1822
1823
1824
1825
1826
1827
1828
1829
1830
1831
1832
1833
1834
1835
1836
1837
1838
1839
1840
1841
1842
1843
1844
1845
1846
1847
1848
1849
1850
1851
1852
1853
1854
1855
1856
1857
1858
1859
1860
1861
1862
1863
1864
1865
1866
1867
1868
1869
1870
1871
1872
1873
1874
1875
1876
1877
1878
1879
1880
1881
1882
1883
1884
1885
1886
1887
1888
1889
1890
1891
1892
1893
1894
1895
1896
1897
1898
1899
1900
1901
1902
1903
1904
1905
1906
1907
1908
1909
1910
1911
1912
1913
1914
1915
1916
1917
1918
1919
1920
1921
1922
1923
1924
1925
1926
1927
1928
1929
1930
1931
1932
1933
1934
1935
1936
1937
1938
1939
1940
1941
1942
1943
1944
1945
1946
1947
1948
1949
1950
1951
1952
1953
1954
1955
1956
1957
1958
1959
1960
1961
1962
1963
1964
1965
1966
1967
1968
1969
1970
1971
1972
1973
1974
1975
1976
1977
1978
1979
1980
1981
1982
1983
1984
1985
1986
1987
1988
1989
1990
1991
1992
1993
1994
1995
1996
1997
1998
1999
2000
2001
2002
2003
2004
2005
2006
2007
2008
2009
2010
2011
2012
2013
2014
2015
2016
2017
2018
2019
2020
2021
2022
2023
2024
2025
2026
2027
2028
2029
2030
2031
2032
2033
2034
2035
2036
2037
2038
2039
2040
2041
2042
2043
2044
2045
2046
2047
2048
2049
2050
2051
2052
2053
2054
2055
2056
2057
2058
2059
2060
2061
2062
2063
2064
2065
2066
2067
2068
2069
2070
2071
2072
2073
2074
2075
2076
2077
2078
2079
2080
2081
2082
2083
2084
2085
2086
2087
2088
2089
2090
2091
2092
2093
2094
2095
2096
2097
2098
2099
2100
2101
2102
2103
2104
2105
2106
2107
2108
2109
2110
2111
2112
2113
2114
2115
2116
2117
2118
2119
2120
2121
2122
2123
2124
2125
2126
2127
2128
2129
2130
2131
2132
2133
2134
2135
2136
2137
2138
2139
2140
2141
2142
2143
2144
2145
2146
2147
2148
2149
2150
2151
2152
2153
2154
2155
2156
2157
2158
2159
2160
2161
2162
2163
2164
2165
2166
2167
2168
2169
2170
2171
2172
2173
2174
2175
2176
2177
2178
2179
2180
2181
2182
2183
2184
2185
2186
2187
2188
2189
2190
2191
2192
2193
2194
2195
2196
2197
2198
2199
2200
2201
2202
2203
2204
2205
2206
2207
2208
2209
2210
2211
2212
2213
2214
2215
2216
2217
2218
2219
2220
2221
2222
2223
2224
2225
2226
2227
2228
2229
2230
2231
2232
2233
2234
2235
2236
2237
2238
2239
2240
2241
2242
2243
2244
2245
2246
2247
2248
2249
2250
2251
2252
2253
2254
2255
2256
2257
2258
2259
2260
2261
2262
2263
2264
2265
2266
2267
2268
2269
2270
2271
2272
2273
2274
2275
2276
2277
2278
2279
2280
2281
2282
2283
2284
2285
2286
2287
2288
2289
2290
2291
2292
2293
2294
2295
2296
2297
2298
2299
2300
2301
2302
2303
2304
2305
2306
2307
2308
2309
2310
2311
2312
2313
2314
2315
2316
2317
2318
2319
2320
2321
2322
2323
2324
2325
2326
2327
2328
2329
2330
2331
2332
2333
2334
2335
2336
2337
2338
2339
2340
2341
2342
2343
2344
2345
2346
2347
2348
2349
2350
2351
2352
2353
2354
2355
2356
2357
2358
2359
2360
2361
2362
2363
2364
2365
2366
2367
2368
2369
2370
2371
2372
2373
2374
2375
2376
2377
2378
2379
2380
2381
2382
2383
2384
2385
2386
2387
2388
2389
2390
2391
2392
2393
2394
2395
2396
2397
2398
2399
2400
2401
2402
2403
2404
2405
2406
2407
2408
2409
2410
2411
2412
2413
2414
2415
2416
2417
2418
2419
2420
2421
2422
2423
2424
2425
2426
2427
2428
2429
2430
2431
2432
2433
2434
2435
2436
2437
2438
2439
2440
2441
2442
2443
2444
2445
2446
2447
2448
2449
2450
2451
2452
2453
2454
2455
2456
2457
2458
2459
2460
2461
2462
2463
2464
2465
2466
2467
2468
2469
2470
2471
2472
2473
2474
2475
2476
2477
2478
2479
2480
2481
2482
2483
2484
2485
2486
2487
2488
2489
2490
2491
2492
2493
2494
2495
2496
2497
2498
2499
2500
2501
2502
2503
2504
2505
2506
2507
2508
2509
2510
2511
2512
2513
2514
2515
2516
2517
2518
2519
2520
2521
2522
2523
2524
2525
2526
2527
2528
2529
2530
2531
2532
2533
2534
2535
2536
2537
2538
2539
2540
2541
2542
2543
2544
2545
2546
2547
2548
2549
2550
2551
2552
2553
2554
2555
2556
2557
2558
2559
2560
2561
2562
2563
2564
2565
2566
2567
2568
2569
2570
2571
2572
2573
2574
2575
2576
2577
2578
2579
2580
2581
2582
2583
2584
2585
2586
2587
2588
2589
2590
2591
2592
2593
2594
2595
2596
2597
2598
2599
2600
2601
2602
2603
2604
2605
2606
2607
2608
2609
2610
2611
2612
2613
2614
2615
2616
2617
2618
2619
2620
2621
2622
2623
2624
2625
2626
2627
2628
2629
2630
2631
2632
2633
2634
2635
2636
2637
2638
2639
2640
2641
2642
2643
2644
2645
2646
2647
2648
2649
2650
2651
2652
2653
2654
2655
2656
2657
2658
2659
2660
2661
2662
2663
2664
2665
2666
2667
2668
2669
2670
2671
2672
2673
2674
2675
2676
2677
2678
2679
2680
2681
2682
2683
2684
2685
2686
2687
2688
2689
2690
2691
2692
2693
2694
2695
2696
2697
2698
2699
2700
2701
2702
2703
2704
2705
2706
2707
2708
2709
2710
2711
2712
2713
2714
2715
2716
2717
2718
2719
2720
2721
2722
2723
2724
2725
2726
2727
2728
2729
2730
2731
2732
2733
2734
2735
2736
2737
2738
2739
2740
2741
2742
2743
2744
2745
2746
2747
2748
2749
2750
2751
2752
2753
2754
2755
2756
2757
2758
2759
2760
2761
2762
2763
2764
2765
2766
2767
2768
2769
2770
2771
2772
2773
2774
2775
2776
2777
2778
2779
2780
2781
2782
2783
2784
2785
2786
2787
2788
2789
2790
2791
2792
2793
2794
2795
2796
2797
2798
2799
2800
2801
2802
2803
2804
2805
2806
2807
2808
2809
2810
2811
2812
2813
2814
2815
2816
2817
2818
2819
2820
2821
2822
2823
2824
2825
2826
2827
2828
2829
2830
2831
2832
2833
2834
2835
2836
2837
2838
2839
2840
2841
2842
2843
2844
2845
2846
2847
2848
2849
2850
2851
2852
2853
2854
2855
2856
2857
2858
2859
2860
2861
2862
2863
2864
2865
2866
2867
2868
2869
2870
2871
2872
2873
2874
2875
2876
2877
2878
2879
2880
2881
2882
2883
2884
2885
2886
2887
2888
2889
2890
2891
2892
2893
2894
2895
2896
2897
2898
2899
2900
2901
2902
2903
2904
2905
2906
2907
2908
2909
2910
2911
2912
2913
2914
2915
2916
2917
2918
2919
2920
2921
2922
2923
2924
2925
2926
2927
2928
2929
2930
2931
2932
2933
2934
2935
2936
2937
2938
2939
2940
2941
2942
2943
2944
2945
2946
2947
2948
2949
2950
2951
2952
2953
2954
2955
2956
2957
2958
2959
2960
2961
2962
2963
2964
2965
2966
2967
2968
2969
2970
2971
2972
2973
2974
2975
2976
2977
2978
2979
2980
2981
2982
2983
2984
2985
2986
2987
2988
2989
2990
2991
2992
2993
2994
2995
2996
2997
2998
2999
3000
3001
3002
3003
3004
3005
3006
3007
3008
3009
3010
3011
3012
3013
3014
3015
3016
3017
3018
3019
3020
3021
3022
3023
3024
3025
3026
3027
3028
3029
3030
3031
3032
3033
3034
3035
3036
3037
3038
3039
3040
3041
3042
3043
3044
3045
3046
3047
3048
3049
3050
3051
3052
3053
3054
3055
3056
3057
3058
3059
3060
3061
3062
3063
3064
3065
3066
3067
3068
3069
3070
3071
3072
3073
3074
3075
3076
3077
3078
3079
3080
3081
3082
3083
3084
3085
3086
3087
3088
3089
3090
3091
3092
3093
3094
3095

VECTORS burgers_vector_global double
-1.429999999999999e+00 -8.256108849411650e-01  3.393140768766017e-17
 1.429999999999999e+00  8.256108849411650e-01 -3.393140768766017e-17
-1.429999999999999e+00 -8.256108849411650e-01  3.393140768766017e-17
-1.429999999999999e+00 -8.256108849411650e-01  3.393140768766017e-17
-1.429999999999999e+00 -8.256108849411650e-01  3.393140768766017e-17
-1.429999999999999e+00 -8.256108849411650e-01  3.393140768766017e-17
-1.429999999999999e+00 -8.256108849411650e-01  3.393140768766017e-17
-1.429999999999999e+00 -8.256108849411650e-01  3.393140768766017e-17
-1.429999999999999e+00 -8.256108849411650e-01  3.393140768766017e-17
-1.429999999999999e+00 -8.256108849411650e-01  3.393140768766017e-17
-1.429999999999999e+00 -8.256108849411650e-01  3.393140768766017e-17
-1.429999999999999e+00 -8.256108849411650e-01  3.393140768766017e-17
-1.429999999999999e+00 -8.256108849411650e-01  3.393140768766017e-17
-1.429999999999999e+00 -8.256108849411650e-01  3.393140768766017e-17
-1.429999999999999e+00 -8.256108849411650e-01  3.393140768766017e-17
-1.429999999999999e+00 -8.256108849411650e-01  3.393140768766017e-17
-1.429999999999999e+00 -8.256108849411650e-01  3.393140768766017e-17
-1.429999999999999e+00 -8.256108849411650e-01  3.393140768766017e-17
-1.429999999999999e+00 -8.256108849411650e-01  3.393140768766017e-17
-1.429999999999999e+00 -8.256108849411650e-01  3.393140768766017e-17
-1.429999999999999e+00 -8.256108849411650e-01  3.393140768766017e-17
-1.429999999999999e+00 -8.256108849411650e-01  3.393140768766017e-17
-1.429999999999999e+00 -8.256108849411650e-01  3.393140768766017e-17
-1.429999999999999e+00 -8.256108849411650e-01  3.393140768766017e-17
-1.429999999999999e+00 -8.256108849411650e-01  3.393140768766017e-17
-1.429999999999999e+00 -8.256108849411650e-01  3.393140768766017e-17
-1.429999999999999e+00 -8.256108849411650e-01  3.393140768766017e-17
-1.429999999999999e+00 -8.256108849411650e-01  3.393140768766017e-17
-1.429999999999999e+00 -8.256108849411650e-01  3.393140768766017e-17
-1.429999999999999e+00 -8.256108849411650e-01  3.393140768766017e-17
-1.429999999999999e+00 -8.256108849411650e-01  3.393140768766017e-17
-1.429999999999999e+00 -8.256108849411650e-01  3.393140768766017e-17
-1.429999999999999e+00 -8.256108849411650e-01  3.393140768766017e-17
-1.429999999999999e+00 -8.256108849411650e-01  3.393140768766017e-17
-1.429999999999999e+00 -8.256108849411650e-01  3.393140768766017e-17
-1.429999999999999e+00 -8.256108849411650e-01  3.393140768766017e-17
-1.429999999999999e+00 -8.256108849411650e-01  3.393140768766017e-17
-1.429999999999999e+00 -8.256108849411650e-01  3.393140768766017e-17
-1.429999999999999e+00 -8.256108849411650e-01  3.393140768766017e-17
-1.429999999999999e+00 -8.256108849411650e-01  3.393140768766017e-17
-1.429999999999999e+00 -8.256108849411650e-01  3.393140768766017e-17
-1.429999999999999e+00 -8.256108849411650e-01  3.393140768766017e-17
-1.429999999999999e+00 -8.256108849411650e-01  3.393140768766017e-17
-1.429999999999999e+00 -8.256108849411650e-01  3.393140768766017e-17
-1.429999999999999e+00 -8.256108849411650e-01  3.393140768766017e-17
-1.429999999999999e+00 -8.256108849411650e-01  3.393140768766017e-17
-1.429999999999999e+00 -8.256108849411650e-01  3.393140768766017e-17
-1.429999999999999e+00 -8.256108849411650e-01  3.393140768766017e-17
-1.429999999999999e+00 -8.256108849411650e-01  3.393140768766017e-17
-1.429999999999999e+00 -8.256108849411650e-01  3.393140768766017e-17
-1.429999999999999e+00 -8.256108849411650e-01  3.393140768766017e-17
-1.429999999999999e+00 -8.256108849411650e-01  3.393140768766017e-17
-1.429999999999999e+00 -8.256108849411650e-01  3.393140768766017e-17
-1.429999999999999e+00 -8.256108849411650e-01  3.393140768766017e-17
-1.429999999999999e+00 -8.256108849411650e-01  3.393140768766017e-17
-1.429999999999999e+00 -8.256108849411650e-01  3.393140768766017e-17
-1.429999999999999e+00 -8.256108849411650e-01  3.393140768766017e-17
-1.429999999999999e+00 -8.256108849411650e-01  3.393140768766017e-17
-1.429999999999999e+00 -8.256108849411650e-01  3.393140768766017e-17
-1.429999999999999e+00 -8.256108849411650e-01  3.393140768766017e-17
-1.429999999999999e+00 -8.256108849411650e-01  3.393140768766017e-17
-1.429999999999999e+00 -8.256108849411650e-01  3.393140768766017e-17
-1.429999999999999e+00 -8.256108849411650e-01  3.393140768766017e-17
-1.429999999999999e+00 -8.256108849411650e-01  3.393140768766017e-17
-1.429999999999999e+00 -8.256108849411650e-01  3.393140768766017e-17
-1.429999999999999e+00 -8.256108849411650e-01  3.393140768766017e-17
-1.429999999999999e+00 -8.256108849411650e-01  3.393140768766017e-17
-1.429999999999999e+00 -8.256108849411650e-01  3.393140768766017e-17
-1.429999999999999e+00 -8.256108849411650e-01  3.393140768766017e-17
-1.429999999999999e+00 -8.256108849411650e-01  3.393140768766017e-17
-1.429999999999999e+00 -8.256108849411650e-01  3.393140768766017e-17
-1.429999999999999e+00 -8.256108849411650e-01  3.393140768766017e-17
-1.429999999999999e+00 -8.256108849411650e-01  3.393140768766017e-17
-1.429999999999999e+00 -8.256108849411650e-01  3.393140768766017e-17
-1.429999999999999e+00 -8.256108849411650e-01  3.393140768766017e-17
-1.429999999999999e+00 -8.256108849411650e-01  3.393140768766017e-17
-1.429999999999999e+00 -8.256108849411650e-01  3.393140768766017e-17
-1.429999999999999e+00 -8.256108849411650e-01  3.393140768766017e-17
-1.429999999999999e+00 -8.256108849411650e-01  3.393140768766017e-17
-1.429999999999999e+00 -8.256108849411650e-01  3.393140768766017e-17
-1.429999999999999e+00 -8.256108849411650e-01  3.393140768766017e-17
-1.429999999999999e+00 -8.256108849411650e-01  3.393140768766017e-17
-1.429999999999999e+00 -8.256108849411650e-01  3.393140768766017e-17
-1.429999999999999e+00 -8.256108849411650e-01  3.393140768766017e-17
-1.429999999999999e+00 -8.256108849411650e-01  3.393140768766017e-17
-1.429999999999999e+00 -8.256108849411650e-01  3.393140768766017e-17
-1.429999999999999e+00 -8.256108849411650e-01  3.393140768766017e-17
-1.429999999999999e+00 -8.256108849411650e-01  3.393140768766017e-17
-1.429999999999999e+00 -8.256108849411650e-01  3.393140768766017e-17
-1.429999999999999e+00 -8.256108849411650e-01  3.393140768766017e-17
-1.429999999999999e+00 -8.256108849411650e-01  3.393140768766017e-17
-1.429999999999999e+00 -8.256108849411650e-01  3.393140768766017e-17
-1.429999999999999e+00 -8.256108849411650e-01  3.393140768766017e-17
-1.429999999999999e+00 -8.256108849411650e-01  3.393140768766017e-17
-1.429999999999999e+00 -8.256108849411650e-01  3.393140768766017e-17
-1.429999999999999e+00 -8.256108849411650e-01  3.393140768766017e-17
-1.429999999999999e+00 -8.256108849411650e-01  3.393140768766017e-17
-1.429999999999999e+00 -8.256108849411650e-01  3.393140768766017e-17
-1.429999999999999e+00 -8.256108849411650e-01  3.393140768766017e-17
-1.429999999999999e+00 -8.256108849411650e-01  3.393140768766017e-17
-1.429999999999999e+00 -8.256108849411650e-01  3.393140768766017e-17
-1.429999999999999e+00 -8.256108849411650e-01  3.393140768766017e-17
-1.429999999999999e+00 -8.256108849411650e-01  3.393140768766017e-17
-1.429999999999999e+00 -8.256108849411650e-01  3.393140768766017e-17
-1.429999999999999e+00 -8.256108849411650e-01  3.393140768766017e-17
-1.429999999999999e+00 -8.256108849411650e-01  3.393140768766017e-17
-1.429999999999999e+00 -8.256108849411650e-01  3.393140768766017e-17
-1.429999999999999e+00 -8.256108849411650e-01  3.393140768766017e-17
-1.429999999999999e+00 -8.256108849411650e-01  3.393140768766017e-17
-1.429999999999999e+00 -8.256108849411650e-01  3.393140768766017e-17
-1.429999999999999e+00 -8.256108849411650e-01  3.393140768766017e-17
-1.429999999999999e+00 -8.256108849411650e-01  3.393140768766017e-17
-1.429999999999999e+00 -8.256108849411650e-01  3.393140768766017e-17
-1.429999999999999e+00 -8.256108849411650e-01  3.393140768766017e-17
-1.429999999999999e+00 -8.256108849411650e-01  3.393140768766017e-17
-1.429999999999999e+00 -8.256108849411650e-01  3.393140768766017e-17
-1.429999999999999e+00 -8.256108849411650e-01  3.393140768766017e-17
-1.429999999999999e+00 -8.256108849411650e-01  3.393140768766017e-17
-1.429999999999999e+00 -8.256108849411650e-01  3.393140768766017e-17
-1.429999999999999e+00 -8.256108849411650e-01  3.393140768766017e-17
-1.429999999999999e+00 -8.256108849411650e-01  3.393140768766017e-17
-1.429999999999999e+00 -8.256108849411650e-01  3.393140768766017e-17
-1.429999999999999e+00 -8.256108849411650e-01  3.393140768766017e-17
-1.429999999999999e+00 -8.256108849411650e-01  3.393140768766017e-17
-1.429999999999999e+00 -8.256108849411650e-01  3.393140768766017e-17
-1.429999999999999e+00 -8.256108849411650e-01  3.393140768766017e-17
-1.429999999999999e+00 -8.256108849411650e-01  3.393140768766017e-17
-1.429999999999999e+00 -8.256108849411650e-01  3.393140768766017e-17
-1.429999999999999e+00 -8.256108849411650e-01  3.393140768766017e-17
-1.429999999999999e+00 -8.256108849411650e-01  3.393140768766017e-17
-1.429999999999999e+00 -8.256108849411650e-01  3.393140768766017e-17
-1.429999999999999e+00 -8.256108849411650e-01  3.393140768766017e-17
-1.429999999999999e+00 -8.256108849411650e-01  3.393140768766017e-17
-1.429999999999999e+00 -8.256108849411650e-01  3.393140768766017e-17
-1.429999999999999e+00 -8.256108849411650e-01  3.393140768766017e-17
-1.429999999999999e+00 -8.256108849411650e-01  3.393140768766017e-17
-1.429999999999999e+00 -8.256108849411650e-01  3.393140768766017e-17
-1.429999999999999e+00 -8.256108849411650e-01  3.393140768766017e-17
-1.429999999999999e+00 -8.256108849411650e-01  3.393140768766017e-17
-1.429999999999999e+00 -8.256108849411650e-01  3.393140768766017e-17
-1.429999999999999e+00 -8.256108849411650e-01  3.393140768766017e-17
-1.429999999999999e+00 -8.256108849411650e-01  3.393140768766017e-17
-1.429999999999999e+00 -8.256108849411650e-01  3.393140768766017e-17
-1.429999999999999e+00 -8.256108849411650e-01  3.393140768766017e-17
-1.429999999999999e+00 -8.256108849411650e-01  3.393140768766017e-17
-1.429999999999999e+00 -8.256108849411650e-01  3.393140768766017e-17
-1.429999999999999e+00 -8.256108849411650e-01  3.393140768766017e-17
-1.429999999999999e+00 -8.256108849411650e-01  3.393140768766017e-17
-1.429999999999999e+00 -8.256108849411650e-01  3.393140768766017e-17
-1.429999999999999e+00 -8.256108849411650e-01  3.393140768766017e-17
-1.429999999999999e+00 -8.256108849411650e-01  3.393140768766017e-17
-1.429999999999999e+00 -8.256108849411650e-01  3.393140768766017e-17
-1.429999999999999e+00 -8.256108849411650e-01  3.393140768766017e-17
-1.429999999999999e+00 -8.256108849411650e-01  3.393140768766017e-17
-1.429999999999999e+00 -8.256108849411650e-01  3.393140768766017e-17
-1.429999999999999e+00 -8.256108849411650e-01  3.393140768766017e-17
-1.429999999999999e+00 -8.256108849411650e-01  3.393140768766017e-17
-1.429999999999999e+00 -8.256108849411650e-01  3.393140768766017e-17
-1.429999999999999e+00 -8.256108849411650e-01  3.393140768766017e-17
-1.429999999999999e+00 -8.256108849411650e-01  3.393140768766017e-17
-1.429999999999999e+00 -8.256108849411650e-01  3.393140768766017e-17
-1.429999999999999e+00 -8.256108849411650e-01  3.393140768766017e-17
-1.429999999999999e+00 -8.256108849411650e-01  3.393140768766017e-17
-1.429999999999999e+00 -8.256108849411650e-01  3.393140768766017e-17
-1.429999999999999e+00 -8.256108849411650e-01  3.393140768766017e-17
-1.429999999999999e+00 -8.256108849411650e-01  3.393140768766017e-17
-1.429999999999999e+00 -8.256108849411650e-01  3.393140768766017e-17
-1.429999999999999e+00 -8.256108849411650e-01  3.393140768766017e-17
-1.429999999999999e+00 -8.256108849411650e-01  3.393140768766017e-17
-1.429999999999999e+00 -8.256108849411650e-01  3.393140768766017e-17
-1.429999999999999e+00 -8.256108849411650e-01  3.393140768766017e-17
-1.429999999999999e+00 -8.256108849411650e-01  3.393140768766017e-17
-1.429999999999999e+00 -8.256108849411650e-01  3.393140768766017e-17
-1.429999999999999e+00 -8.256108849411650e-01  3.393140768766017e-17
-1.429999999999999e+00 -8.256108849411650e-01  3.393140768766017e-17
-1.429999999999999e+00 -8.256108849411650e-01  3.393140768766017e-17
-1.429999999999999e+00 -8.256108849411650e-01  3.393140768766017e-17
-1.429999999999999e+00 -8.256108849411650e-01  3.393140768766017e-17
-1.429999999999999e+00 -8.256108849411650e-01  3.393140768766017e-17
-1.429999999999999e+00 -8.256108849411650e-01  3.393140768766017e-17
-1.429999999999999e+00 -8.256108849411650e-01  3.393140768766017e-17
-1.429999999999999e+00 -8.256108849411650e-01  3.393140768766017e-17
-1.429999999999999e+00 -8.256108849411650e-01  3.393140768766017e-17
-1.429999999999999e+00 -8.256108849411650e-01  3.393140768766017e-17
-1.429999999999999e+00 -8.256108849411650e-01  3.393140768766017e-17
-1.429999999999999e+00 -8.256108849411650e-01  3.393140768766017e-17
-1.429999999999999e+00 -8.256108849411650e-01  3.393140768766017e-17
-1.429999999999999e+00 -8.256108849411650e-01  3.393140768766017e-17
-1.429999999999999e+00 -8.256108849411650e-01  3.393140768766017e-17
-1.429999999999999e+00 -8.256108849411650e-01  3.393140768766017e-17
-1.429999999999999e+00 -8.256108849411650e-01  3.393140768766017e-17
-1.429999999999999e+00 -8.256108849411650e-01  3.393140768766017e-17
-1.429999999999999e+00 -8.256108849411650e-01  3.393140768766017e-17
-1.429999999999999e+00 -8.256108849411650e-01  3.393140768766017e-17
-1.429999999999999e+00 -8.256108849411650e-01  3.393140768766017e-17
-1.429999999999999e+00 -8.256108849411650e-01  3.393140768766017e-17
-1.429999999999999e+00 -8.256108849411650e-01  3.393140768766017e-17
-1.429999999999999e+00 -8.256108849411650e-01  3.393140768766017e-17
-1.429999999999999e+00 -8.256108849411650e-01  3.393140768766017e-17
-1.429999999999999e+00 -8.256108849411650e-01  3.393140768766017e-17
-1.429999999999999e+00 -8.256108849411650e-01  3.393140768766017e-17
-1.429999999999999e+00 -8.256108849411650e-01  3.393140768766017e-17
-1.429999999999999e+00 -8.256108849411650e-01  3.393140768766017e-17
-1.429999999999999e+00 -8.256108849411650e-01  3.393140768766017e-17
-1.429999999999999e+00 -8.256108849411650e-01  3.393140768766017e-17
-1.429999999999999e+00 -8.256108849411650e-01  3.393140768766017e-17
-1.429999999999999e+00 -8.256108849411650e-01  3.393140768766017e-17
-1.429999999999999e+00 -8.256108849411650e-01  3.393140768766017e-17
-1.429999999999999e+00 -8.256108849411650e-01  3.393140768766017e-17
-1.429999999999999e+00 -8.256108849411650e-01  3.393140768766017e-17
-1.429999999999999e+00 -8.256108849411650e-01  3.393140768766017e-17
-1.429999999999999e+00 -8.256108849411650e-01  3.393140768766017e-17
-1.429999999999999e+00 -8.256108849411650e-01  3.393140768766017e-17
-1.429999999999999e+00 -8.256108849411650e-01  3.393140768766017e-17
-1.429999999999999e+00 -8.256108849411650e-01  3.393140768766017e-17
-1.429999999999999e+00 -8.256108849411650e-01  3.393140768766017e-17
-1.429999999999999e+00 -8.256108849411650e-01  3.393140768766017e-17
-1.429999999999999e+00 -8.256108849411650e-01  3.393140768766017e-17
-1.429999999999999e+00 -8.256108849411650e-01  3.393140768766017e-17
-1.429999999999999e+00 -8.256108849411650e-01  3.393140768766017e-17
-1.429999999999999e+00 -8.256108849411650e-01  3.393140768766017e-17
-1.429999999999999e+00 -8.256108849411650e-01  3.393140768766017e-17
-1.429999999999999e+00 -8.256108849411650e-01  3.393140768766017e-17
-1.429999999999999e+00 -8.256108849411650e-01  3.393140768766017e-17
-1.429999999999999e+00 -8.256108849411650e-01  3.393140768766017e-17
-1.429999999999999e+00 -8.256108849411650e-01  3.393140768766017e-17
-1.429999999999999e+00 -8.256108849411650e-01  3.393140768766017e-17
-1.429999999999999e+00 -8.256108849411650e-01  3.393140768766017e-17
-1.429999999999999e+00 -8.256108849411650e-01  3.393140768766017e-17
-1.429999999999999e+00 -8.256108849411650e-01  3.393140768766017e-17
-1.429999999999999e+00 -8.256108849411650e-01  3.393140768766017e-17
-1.429999999999999e+00 -8.256108849411650e-01  3.393140768766017e-17
-1.429999999999999e+00 -8.256108849411650e-01  3.393140768766017e-17
-1.429999999999999e+00 -8.256108849411650e-01  3.393140768766017e-17
-1.429999999999999e+00 -8.256108849411650e-01  3.393140768766017e-17
-1.429999999999999e+00 -8.256108849411650e-01  3.393140768766017e-17
-1.429999999999999e+00 -8.256108849411650e-01  3.393140768766017e-17
-1.429999999999999e+00 -8.256108849411650e-01  3.393140768766017e-17
-1.429999999999999e+00 -8.256108849411650e-01  3.393140768766017e-17
-1.429999999999999e+00 -8.256108849411650e-01  3.393140768766017e-17
-1.429999999999999e+00 -8.256108849411650e-01  3.393140768766017e-17
-1.429999999999999e+00 -8.256108849411650e-01  3.393140768766017e-17
-1.429999999999999e+00 -8.256108849411650e-01  3.393140768766017e-17
-1.429999999999999e+00 -8.256108849411650e-01  3.393140768766017e-17
-1.429999999999999e+00 -8.256108849411650e-01  3.393140768766017e-17
-1.429999999999999e+00 -8.256108849411650e-01  3.393140768766017e-17
-1.429999999999999e+00 -8.256108849411650e-01  3.393140768766017e-17
-1.429999999999999e+00 -8.256108849411650e-01  3.393140768766017e-17
-1.429999999999999e+00 -8.256108849411650e-01  3.393140768766017e-17
-1.429999999999999e+00 -8.256108849411650e-01  3.393140768766017e-17
-1.429999999999999e+00 -8.256108849411650e-01  3.393140768766017e-17
-1.429999999999999e+00 -8.256108849411650e-01  3.393140768766017e-17
-1.429999999999999e+00 -8.256108849411650e-01  3.393140768766017e-17
-1.429999999999999e+00 -8.256108849411650e-01  3.393140768766017e-17
-1.429999999999999e+00 -8.256108849411650e-01  3.393140768766017e-17
-1.429999999999999e+00 -8.256108849411650e-01  3.393140768766017e-17
-1.429999999999999e+00 -8.256108849411650e-01  3.393140768766017e-17
-1.429999999999999e+00 -8.256108849411650e-01  3.393140768766017e-17
-1.429999999999999e+00 -8.256108849411650e-01  3.393140768766017e-17
-1.429999999999999e+00 -8.256108849411650e-01  3.393140768766017e-17
-1.429999999999999e+00 -8.256108849411650e-01  3.393140768766017e-17
-1.429999999999999e+00 -8.256108849411650e-01  3.393140768766017e-17
-1.429999999999999e+00 -8.256108849411650e-01  3.393140768766017e-17
-1.429999999999999e+00 -8.256108849411650e-01  3.393140768766017e-17
-1.429999999999999e+00 -8.256108849411650e-01  3.393140768766017e-17
-1.429999999999999e+00 -8.256108849411650e-01  3.393140768766017e-17
-1.429999999999999e+00 -8.256108849411650e-01  3.393140768766017e-17
-1.429999999999999e+00 -8.256108849411650e-01  3.393140768766017e-17
-1.429999999999999e+00 -8.256108849411650e-01  3.393140768766017e-17
-1.429999999999999e+00 -8.256108849411650e-01  3.393140768766017e-17
-1.429999999999999e+00 -8.256108849411650e-01  3.393140768766017e-17
-1.429999999999999e+00 -8.256108849411650e-01  3.393140768766017e-17
-1.429999999999999e+00 -8.256108849411650e-01  3.393140768766017e-17
-1.429999999999999e+00 -8.256108849411650e-01  3.393140768766017e-17
-1.429999999999999e+00 -8.256108849411650e-01  3.393140768766017e-17
-1.429999999999999e+00 -8.256108849411650e-01  3.393140768766017e-17
-1.429999999999999e+00 -8.256108849411650e-01  3.393140768766017e-17
-1.429999999999999e+00 -8.256108849411650e-01  3.393140768766017e-17
-1.429999999999999e+00 -8.256108849411650e-01  3.393140768766017e-17
-1.429999999999999e+00 -8.256108849411650e-01  3.393140768766017e-17
-1.429999999999999e+00 -8.256108849411650e-01  3.393140768766017e-17
-1.429999999999999e+00 -8.256108849411650e-01  3.393140768766017e-17
-1.429999999999999e+00 -8.256108849411650e-01  3.393140768766017e-17
-1.429999999999999e+00 -8.256108849411650e-01  3.393140768766017e-17
-1.429999999999999e+00 -8.256108849411650e-01  3.393140768766017e-17
-1.429999999999999e+00 -8.256108849411650e-01  3.393140768766017e-17
-1.429999999999999e+00 -8.256108849411650e-01  3.393140768766017e-17
-1.429999999999999e+00 -8.256108849411650e-01  3.393140768766017e-17
-1.429999999999999e+00 -8.256108849411650e-01  3.393140768766017e-17
-1.429999999999999e+00 -8.256108849411650e-01  3.393140768766017e-17
-1.429999999999999e+00 -8.256108849411650e-01  3.393140768766017e-17
-1.429999999999999e+00 -8.256108849411650e-01  3.393140768766017e-17
-1.429999999999999e+00 -8.256108849411650e-01  3.393140768766017e-17
-1.429999999999999e+00 -8.256108849411650e-01  3.393140768766017e-17
-1.429999999999999e+00 -8.256108849411650e-01  3.393140768766017e-17
-1.429999999999999e+00 -8.256108849411650e-01  3.393140768766017e-17
-1.429999999999999e+00 -8.256108849411650e-01  3.393140768766017e-17
-1.429999999999999e+00 -8.256108849411650e-01  3.393140768766017e-17
-1.429999999999999e+00 -8.256108849411650e-01  3.393140768766017e-17
-1.429999999999999e+00 -8.256108849411650e-01  3.393140768766017e-17
-1.429999999999999e+00 -8.256108849411650e-01  3.393140768766017e-17
-1.429999999999999e+00 -8.256108849411650e-01  3.393140768766017e-17
-1.429999999999999e+00 -8.256108849411650e-01  3.393140768766017e-17
-1.429999999999999e+00 -8.256108849411650e-01  3.393140768766017e-17
-1.429999999999999e+00 -8.256108849411650e-01  3.393140768766017e-17
-1.429999999999999e+00 -8.256108849411650e-01  3.393140768766017e-17
-1.429999999999999e+00 -8.256108849411650e-01  3.393140768766017e-17
-1.429999999999999e+00 -8.256108849411650e-01  3.393140768766017e-17
-1.429999999999999e+00 -8.256108849411650e-01  3.393140768766017e-17
-1.429999999999999e+00 -8.256108849411650e-01  3.393140768766017e-17
-1.429999999999999e+00 -8.256108849411650e-01  3.393140768766017e-17
-1.429999999999999e+00 -8.256108849411650e-01  3.393140768766017e-17
-1.429999999999999e+00 -8.256108849411650e-01  3.393140768766017e-17
-1.429999999999999e+00 -8.256108849411650e-01  3.393140768766017e-17
-1.429999999999999e+00 -8.256108849411650e-01  3.393140768766017e-17
-1.429999999999999e+00 -8.256108849411650e-01  3.393140768766017e-17
-1.429999999999999e+00 -8.256108849411650e-01  3.393140768766017e-17
-1.429999999999999e+00 -8.256108849411650e-01  3.393140768766017e-17
-1.429999999999999e+00 -8.256108849411650e-01  3.393140768766017e-17
-1.429999999999999e+00 -8.256108849411650e-01  3.393140768766017e-17
-1.429999999999999e+00 -8.256108849411650e-01  3.393140768766017e-17
-1.429999999999999e+00 -8.256108849411650e-01  3.393140768766017e-17
-1.429999999999999e+00 -8.256108849411650e-01  3.393140768766017e-17
-1.429999999999999e+00 -8.256108849411650e-01  3.393140768766017e-17
-1.429999999999999e+00 -8.256108849411650e-01  3.393140768766017e-17
-1.429999999999999e+00 -8.256108849411650e-01  3.393140768766017e-17
-1.429999999999999e+00 -8.256108849411650e-01  3.393140768766017e-17
-1.429999999999999e+00 -8.256108849411650e-01  3.393140768766017e-17
-1.429999999999999e+00 -8.256108849411650e-01  3.393140768766017e-17
-1.429999999999999e+00 -8.256108849411650e-01  3.393140768766017e-17
-1.429999999999999e+00 -8.256108849411650e-01  3.393140768766017e-17
-1.429999999999999e+00 -8.256108849411650e-01  3.393140768766017e-17
-1.429999999999999e+00 -8.256108849411650e-01  3.393140768766017e-17
-1.429999999999999e+00 -8.256108849411650e-01  3.393140768766017e-17
-1.429999999999999e+00 -8.256108849411650e-01  3.393140768766017e-17
-1.429999999999999e+00 -8.256108849411650e-01  3.393140768766017e-17
-1.429999999999999e+00 -8.256108849411650e-01  3.393140768766017e-17
-1.429999999999999e+00 -8.256108849411650e-01  3.393140768766017e-17
-1.429999999999999e+00 -8.256108849411650e-01  3.393140768766017e-17
-1.429999999999999e+00 -8.256108849411650e-01  3.393140768766017e-17
-1.429999999999999e+00 -8.256108849411650e-01  3.393140768766017e-17
-1.429999999999999e+00 -8.256108849411650e-01  3.393140768766017e-17
-1.429999999999999e+00 -8.256108849411650e-01  3.393140768766017e-17
-1.429999999999999e+00 -8.256108849411650e-01  3.393140768766017e-17
-1.429999999999999e+00 -8.256108849411650e-01  3.393140768766017e-17
-1.429999999999999e+00 -8.256108849411650e-01  3.393140768766017e-17
-1.429999999999999e+00 -8.256108849411650e-01  3.393140768766017e-17
-1.429999999999999e+00 -8.256108849411650e-01  3.393140768766017e-17
-1.429999999999999e+00 -8.256108849411650e-01  3.393140768766017e-17
-1.429999999999999e+00 -8.256108849411650e-01  3.393140768766017e-17
-1.429999999999999e+00 -8.256108849411650e-01  3.393140768766017e-17
-1.429999999999999e+00 -8.256108849411650e-01  3.393140768766017e-17
-1.429999999999999e+00 -8.256108849411650e-01  3.393140768766017e-17
-1.429999999999999e+00 -8.256108849411650e-01  3.393140768766017e-17
-1.429999999999999e+00 -8.256108849411650e-01  3.393140768766017e-17
-1.429999999999999e+00 -8.256108849411650e-01  3.393140768766017e-17
-1.429999999999999e+00 -8.256108849411650e-01  3.393140768766017e-17
-1.429999999999999e+00 -8.256108849411650e-01  3.393140768766017e-17
-1.429999999999999e+00 -8.256108849411650e-01  3.393140768766017e-17
-1.429999999999999e+00 -8.256108849411650e-01  3.393140768766017e-17
-1.429999999999999e+00 -8.256108849411650e-01  3.393140768766017e-17
-1.429999999999999e+00 -8.256108849411650e-01  3.393140768766017e-17
-1.429999999999999e+00 -8.256108849411650e-01  3.393140768766017e-17
-1.429999999999999e+00 -8.256108849411650e-01  3.393140768766017e-17
-1.429999999999999e+00 -8.256108849411650e-01  3.393140768766017e-17
-1.429999999999999e+00 -8.256108849411650e-01  3.393140768766017e-17
-1.429999999999999e+00 -8.256108849411650e-01  3.393140768766017e-17
-1.429999999999999e+00 -8.256108849411650e-01  3.393140768766017e-17
-1.429999999999999e+00 -8.256108849411650e-01  3.393140768766017e-17
-1.429999999999999e+00 -8.256108849411650e-01  3.393140768766017e-17
-1.429999999999999e+00 -8.256108849411650e-01  3.393140768766017e-17
-1.429999999999999e+00 -8.256108849411650e-01  3.393140768766017e-17
-1.429999999999999e+00 -8.256108849411650e-01  3.393140768766017e-17
-1.429999999999999e+00 -8.256108849411650e-01  3.393140768766017e-17
-1.429999999999999e+00 -8.256108849411650e-01  3.393140768766017e-17
-1.429999999999999e+00 -8.256108849411650e-01  3.393140768766017e-17
-1.429999999999999e+00 -8.256108849411650e-01  3.393140768766017e-17
-1.429999999999999e+00 -8.256108849411650e-01  3.393140768766017e-17
-1.429999999999999e+00 -8.256108849411650e-01  3.393140768766017e-17
-1.429999999999999e+00 -8.256108849411650e-01  3.393140768766017e-17
-1.429999999999999e+00 -8.256108849411650e-01  3.393140768766017e-17
-1.429999999999999e+00 -8.256108849411650e-01  3.393140768766017e-17
-1.429999999999999e+00 -8.256108849411650e-01  3.393140768766017e-17
-1.429999999999999e+00 -8.256108849411650e-01  3.393140768766017e-17
-1.429999999999999e+00 -8.256108849411650e-01  3.393140768766017e-17
-1.429999999999999e+00 -8.256108849411650e-01  3.393140768766017e-17
-1.429999999999999e+00 -8.256108849411650e-01  3.393140768766017e-17
-1.429999999999999e+00 -8.256108849411650e-01  3.393140768766017e-17
-1.429999999999999e+00 -8.256108849411650e-01  3.393140768766017e-17
-1.429999999999999e+00 -8.256108849411650e-01  3.393140768766017e-17
-1.429999999999999e+00 -8.256108849411650e-01  3.393140768766017e-17
-1.429999999999999e+00 -8.256108849411650e-01  3.393140768766017e-17
-1.429999999999999e+00 -8.256108849411650e-01  3.393140768766017e-17
-1.429999999999999e+00 -8.256108849411650e-01  3.393140768766017e-17
-1.429999999999999e+00 -8.256108849411650e-01  3.393140768766017e-17
-1.429999999999999e+00 -8.256108849411650e-01  3.393140768766017e-17
-1.429999999999999e+00 -8.256108849411650e-01  3.393140768766017e-17
-1.429999999999999e+00 -8.256108849411650e-01  3.393140768766017e-17
-1.429999999999999e+00 -8.256108849411650e-01  3.393140768766017e-17
-1.429999999999999e+00 -8.256108849411650e-01  3.393140768766017e-17
-1.429999999999999e+00 -8.256108849411650e-01  3.393140768766017e-17
-1.429999999999999e+00 -8.256108849411650e-01  3.393140768766017e-17
-1.429999999999999e+00 -8.256108849411650e-01  3.393140768766017e-17
-1.429999999999999e+00 -8.256108849411650e-01  3.393140768766017e-17
-1.429999999999999e+00 -8.256108849411650e-01  3.393140768766017e-17
-1.429999999999999e+00 -8.256108849411650e-01  3.393140768766017e-17
-1.429999999999999e+00 -8.256108849411650e-01  3.393140768766017e-17
-1.429999999999999e+00 -8.256108849411650e-01  3.393140768766017e-17
-1.429999999999999e+00 -8.256108849411650e-01  3.393140768766017e-17
-1.429999999999999e+00 -8.256108849411650e-01  3.393140768766017e-17
-1.429999999999999e+00 -8.256108849411650e-01  3.393140768766017e-17
-1.429999999999999e+00 -8.256108849411650e-01  3.393140768766017e-17
-1.429999999999999e+00 -8.256108849411650e-01  3.393140768766017e-17
-1.429999999999999e+00 -8.256108849411650e-01  3.393140768766017e-17
-1.429999999999999e+00 -8.256108849411650e-01  3.393140768766017e-17
-1.429999999999999e+00 -8.256108849411650e-01  3.393140768766017e-17
-1.429999999999999e+00 -8.256108849411650e-01  3.393140768766017e-17
-1.429999999999999e+00 -8.256108849411650e-01  3.393140768766017e-17
-1.429999999999999e+00 -8.256108849411650e-01  3.393140768766017e-17
-1.429999999999999e+00 -8.256108849411650e-01  3.393140768766017e-17
-1.429999999999999e+00 -8.256108849411650e-01  3.393140768766017e-17
-1.429999999999999e+00 -8.256108849411650e-01  3.393140768766017e-17
-1.429999999999999e+00 -8.256108849411650e-01  3.393140768766017e-17
-1.429999999999999e+00 -8.256108849411650e-01  3.393140768766017e-17
-1.429999999999999e+00 -8.256108849411650e-01  3.393140768766017e-17
-1.429999999999999e+00 -8.256108849411650e-01  3.393140768766017e-17
-1.429999999999999e+00 -8.256108849411650e-01  3.393140768766017e-17
-1.429999999999999e+00 -8.256108849411650e-01  3.393140768766017e-17
-1.429999999999999e+00 -8.256108849411650e-01  3.393140768766017e-17
-1.429999999999999e+00 -8.256108849411650e-01  3.393140768766017e-17
-1.429999999999999e+00 -8.256108849411650e-01  3.393140768766017e-17
-1.429999999999999e+00 -8.256108849411650e-01  3.393140768766017e-17
-1.429999999999999e+00 -8.256108849411650e-01  3.393140768766017e-17
-1.429999999999999e+00 -8.256108849411650e-01  3.393140768766017e-17
-1.429999999999999e+00 -8.256108849411650e-01  3.393140768766017e-17
-1.429999999999999e+00 -8.256108849411650e-01  3.393140768766017e-17
-1.429999999999999e+00 -8.256108849411650e-01  3.393140768766017e-17
-1.429999999999999e+00 -8.256108849411650e-01  3.393140768766017e-17
-1.429999999999999e+00 -8.256108849411650e-01  3.393140768766017e-17
-1.429999999999999e+00 -8.256108849411650e-01  3.393140768766017e-17
-1.429999999999999e+00 -8.256108849411650e-01  3.393140768766017e-17
-1.429999999999999e+00 -8.256108849411650e-01  3.393140768766017e-17
-1.429999999999999e+00 -8.256108849411650e-01  3.393140768766017e-17
-1.429999999999999e+00 -8.256108849411650e-01  3.393140768766017e-17
-1.429999999999999e+00 -8.256108849411650e-01  3.393140768766017e-17
-1.429999999999999e+00 -8.256108849411650e-01  3.393140768766017e-17
-1.429999999999999e+00 -8.256108849411650e-01  3.393140768766017e-17
-1.429999999999999e+00 -8.256108849411650e-01  3.393140768766017e-17
-1.429999999999999e+00 -8.256108849411650e-01  3.393140768766017e-17
-1.429999999999999e+00 -8.256108849411650e-01  3.393140768766017e-17
-1.429999999999999e+00 -8.256108849411650e-01  3.393140768766017e-17
-1.429999999999999e+00 -8.256108849411650e-01  3.393140768766017e-17
-1.429999999999999e+00 -8.256108849411650e-01  3.393140768766017e-17
-1.429999999999999e+00 -8.256108849411650e-01  3.393140768766017e-17
-1.429999999999999e+00 -8.256108849411650e-01  3.393140768766017e-17
-1.429999999999999e+00 -8.256108849411650e-01  3.393140768766017e-17
-1.429999999999999e+00 -8.256108849411650e-01  3.393140768766017e-17
-1.429999999999999e+00 -8.256108849411650e-01  3.393140768766017e-17
-1.429999999999999e+00 -8.256108849411650e-01  3.393140768766017e-17
-1.429999999999999e+00 -8.256108849411650e-01  3.393140768766017e-17
-1.429999999999999e+00 -8.256108849411650e-01  3.393140768766017e-17
-1.429999999999999e+00 -8.256108849411650e-01  3.393140768766017e-17
-1.429999999999999e+00 -8.256108849411650e-01  3.393140768766017e-17
-1.429999999999999e+00 -8.256108849411650e-01  3.393140768766017e-17
-1.429999999999999e+00 -8.256108849411650e-01  3.393140768766017e-17
-1.429999999999999e+00 -8.256108849411650e-01  3.393140768766017e-17
-1.429999999999999e+00 -8.256108849411650e-01  3.393140768766017e-17
-1.429999999999999e+00 -8.256108849411650e-01  3.393140768766017e-17
-1.429999999999999e+00 -8.256108849411650e-01  3.393140768766017e-17
-1.429999999999999e+00 -8.256108849411650e-01  3.393140768766017e-17
-1.429999999999999e+00 -8.256108849411650e-01  3.393140768766017e-17
-1.429999999999999e+00 -8.256108849411650e-01  3.393140768766017e-17
-1.429999999999999e+00 -8.256108849411650e-01  3.393140768766017e-17
-1.429999999999999e+00 -8.256108849411650e-01  3.393140768766017e-17
-1.429999999999999e+00 -8.256108849411650e-01  3.393140768766017e-17
-1.429999999999999e+00 -8.256108849411650e-01  3.393140768766017e-17
-1.429999999999999e+00 -8.256108849411650e-01  3.393140768766017e-17
-1.429999999999999e+00 -8.256108849411650e-01  3.393140768766017e-17
-1.429999999999999e+00 -8.256108849411650e-01  3.393140768766017e-17
-1.429999999999999e+00 -8.256108849411650e-01  3.393140768766017e-17
-1.429999999999999e+00 -8.256108849411650e-01  3.393140768766017e-17
-1.429999999999999e+00 -8.256108849411650e-01  3.393140768766017e-17
-1.429999999999999e+00 -8.256108849411650e-01  3.393140768766017e-17
-1.429999999999999e+00 -8.256108849411650e-01  3.393140768766017e-17
-1.429999999999999e+00 -8.256108849411650e-01  3.393140768766017e-17
-1.429999999999999e+00 -8.256108849411650e-01  3.393140768766017e-17
-1.429999999999999e+00 -8.256108849411650e-01  3.393140768766017e-17
-1.429999999999999e+00 -8.256108849411650e-01  3.393140768766017e-17
-1.429999999999999e+00 -8.256108849411650e-01  3.393140768766017e-17
-1.429999999999999e+00 -8.256108849411650e-01  3.393140768766017e-17
-1.429999999999999e+00 -8.256108849411650e-01  3.393140768766017e-17
-1.429999999999999e+00 -8.256108849411650e-01  3.393140768766017e-17
-1.429999999999999e+00 -8.256108849411650e-01  3.393140768766017e-17
-1.429999999999999e+00 -8.256108849411650e-01  3.393140768766017e-17
-1.429999999999999e+00 -8.256108849411650e-01  3.393140768766017e-17
-1.429999999999999e+00 -8.256108849411650e-01  3.393140768766017e-17
-1.429999999999999e+00 -8.256108849411650e-01  3.393140768766017e-17
-1.429999999999999e+00 -8.256108849411650e-01  3.393140768766017e-17
-1.429999999999999e+00 -8.256108849411650e-01  3.393140768766017e-17
-1.429999999999999e+00 -8.256108849411650e-01  3.393140768766017e-17
-1.429999999999999e+00 -8.256108849411650e-01  3.393140768766017e-17
-1.429999999999999e+00 -8.256108849411650e-01  3.393140768766017e-17
-1.429999999999999e+00 -8.256108849411650e-01  3.393140768766017e-17
-1.429999999999999e+00 -8.256108849411650e-01  3.393140768766017e-17
-1.429999999999999e+00 -8.256108849411650e-01  3.393140768766017e-17
-1.429999999999999e+00 -8.256108849411650e-01  3.393140768766017e-17
-1.429999999999999e+00 -8.256108849411650e-01  3.393140768766017e-17
-1.429999999999999e+00 -8.256108849411650e-01  3.393140768766017e-17
-1.429999999999999e+00 -8.256108849411650e-01  3.393140768766017e-17
-1.429999999999999e+00 -8.256108849411650e-01  3.393140768766017e-17
-1.429999999999999e+00 -8.256108849411650e-01  3.393140768766017e-17
-1.429999999999999e+00 -8.256108849411650e-01  3.393140768766017e-17
-1.429999999999999e+00 -8.256108849411650e-01  3.393140768766017e-17
-1.429999999999999e+00 -8.256108849411650e-01  3.393140768766017e-17
-1.429999999999999e+00 -8.256108849411650e-01  3.393140768766017e-17
-1.429999999999999e+00 -8.256108849411650e-01  3.393140768766017e-17
-1.429999999999999e+00 -8.256108849411650e-01  3.393140768766017e-17
-1.429999999999999e+00 -8.256108849411650e-01  3.393140768766017e-17
-1.429999999999999e+00 -8.256108849411650e-01  3.393140768766017e-17
-1.429999999999999e+00 -8.256108849411650e-01  3.393140768766017e-17
-1.429999999999999e+00 -8.256108849411650e-01  3.393140768766017e-17
-1.429999999999999e+00 -8.256108849411650e-01  3.393140768766017e-17
-1.429999999999999e+00 -8.256108849411650e-01  3.393140768766017e-17
-1.429999999999999e+00 -8.256108849411650e-01  3.393140768766017e-17
-1.429999999999999e+00 -8.256108849411650e-01  3.393140768766017e-17
-1.429999999999999e+00 -8.256108849411650e-01  3.393140768766017e-17
-1.429999999999999e+00 -8.256108849411650e-01  3.393140768766017e-17
-1.429999999999999e+00 -8.256108849411650e-01  3.393140768766017e-17
-1.429999999999999e+00 -8.256108849411650e-01  3.393140768766017e-17
-1.429999999999999e+00 -8.256108849411650e-01  3.393140768766017e-17
-1.429999999999999e+00 -8.256108849411650e-01  3.393140768766017e-17
-1.429999999999999e+00 -8.256108849411650e-01  3.393140768766017e-17
-1.429999999999999e+00 -8.256108849411650e-01  3.393140768766017e-17
-1.429999999999999e+00 -8.256108849411650e-01  3.393140768766017e-17
-1.429999999999999e+00 -8.256108849411650e-01  3.393140768766017e-17
-1.429999999999999e+00 -8.256108849411650e-01  3.393140768766017e-17
-1.429999999999999e+00 -8.256108849411650e-01  3.393140768766017e-17
-1.429999999999999e+00 -8.256108849411650e-01  3.393140768766017e-17
-1.429999999999999e+00 -8.256108849411650e-01  3.393140768766017e-17
-1.429999999999999e+00 -8.256108849411650e-01  3.393140768766017e-17
-1.429999999999999e+00 -8.256108849411650e-01  3.393140768766017e-17
-1.429999999999999e+00 -8.256108849411650e-01  3.393140768766017e-17
-1.429999999999999e+00 -8.256108849411650e-01  3.393140768766017e-17
-1.429999999999999e+00 -8.256108849411650e-01  3.393140768766017e-17
-1.429999999999999e+00 -8.256108849411650e-01  3.393140768766017e-17
-1.429999999999999e+00 -8.256108849411650e-01  3.393140768766017e-17
-1.429999999999999e+00 -8.256108849411650e-01  3.393140768766017e-17
-1.429999999999999e+00 -8.256108849411650e-01  3.393140768766017e-17
-1.429999999999999e+00 -8.256108849411650e-01  3.393140768766017e-17
-1.429999999999999e+00 -8.256108849411650e-01  3.393140768766017e-17
-1.429999999999999e+00 -8.256108849411650e-01  3.393140768766017e-17
-1.429999999999999e+00 -8.256108849411650e-01  3.393140768766017e-17
-1.429999999999999e+00 -8.256108849411650e-01  3.393140768766017e-17
-1.429999999999999e+00 -8.256108849411650e-01  3.393140768766017e-17
-1.429999999999999e+00 -8.256108849411650e-01  3.393140768766017e-17
-1.429999999999999e+00 -8.256108849411650e-01  3.393140768766017e-17
-1.429999999999999e+00 -8.256108849411650e-01  3.393140768766017e-17
-1.429999999999999e+00 -8.256108849411650e-01  3.393140768766017e-17
-1.429999999999999e+00 -8.256108849411650e-01  3.393140768766017e-17
-1.429999999999999e+00 -8.256108849411650e-01  3.393140768766017e-17
-1.429999999999999e+00 -8.256108849411650e-01  3.393140768766017e-17
-1.429999999999999e+00 -8.256108849411650e-01  3.393140768766017e-17
-1.429999999999999e+00 -8.256108849411650e-01  3.393140768766017e-17
-1.429999999999999e+00 -8.256108849411650e-01  3.393140768766017e-17
-1.429999999999999e+00 -8.256108849411650e-01  3.393140768766017e-17
-1.429999999999999e+00 -8.256108849411650e-01  3.393140768766017e-17
-1.429999999999999e+00 -8.256108849411650e-01  3.393140768766017e-17
-1.429999999999999e+00 -8.256108849411650e-01  3.393140768766017e-17
-1.429999999999999e+00 -8.256108849411650e-01  3.393140768766017e-17
-1.429999999999999e+00 -8.256108849411650e-01  3.393140768766017e-17
-1.429999999999999e+00 -8.256108849411650e-01  3.393140768766017e-17
-1.429999999999999e+00 -8.256108849411650e-01  3.393140768766017e-17
-1.429999999999999e+00 -8.256108849411650e-01  3.393140768766017e-17
-1.429999999999999e+00 -8.256108849411650e-01  3.393140768766017e-17
-1.429999999999999e+00 -8.256108849411650e-01  3.393140768766017e-17
-1.429999999999999e+00 -8.256108849411650e-01  3.393140768766017e-17
-1.429999999999999e+00 -8.256108849411650e-01  3.393140768766017e-17
-1.429999999999999e+00 -8.256108849411650e-01  3.393140768766017e-17
-1.429999999999999e+00 -8.256108849411650e-01  3.393140768766017e-17
-1.429999999999999e+00 -8.256108849411650e-01  3.393140768766017e-17
-1.429999999999999e+00 -8.256108849411650e-01  3.393140768766017e-17
-1.429999999999999e+00 -8.256108849411650e-01  3.393140768766017e-17
-1.429999999999999e+00 -8.256108849411650e-01  3.393140768766017e-17
-1.429999999999999e+00 -8.256108849411650e-01  3.393140768766017e-17
-1.429999999999999e+00 -8.256108849411650e-01  3.393140768766017e-17
-1.429999999999999e+00 -8.256108849411650e-01  3.393140768766017e-17
-1.429999999999999e+00 -8.256108849411650e-01  3.393140768766017e-17
-1.429999999999999e+00 -8.256108849411650e-01  3.393140768766017e-17
-1.429999999999999e+00 -8.256108849411650e-01  3.393140768766017e-17
-1.429999999999999e+00 -8.256108849411650e-01  3.393140768766017e-17
-1.429999999999999e+00 -8.256108849411650e-01  3.393140768766017e-17
-1.429999999999999e+00 -8.256108849411650e-01  3.393140768766017e-17
-1.429999999999999e+00 -8.256108849411650e-01  3.393140768766017e-17
-1.429999999999999e+00 -8.256108849411650e-01  3.393140768766017e-17
-1.429999999999999e+00 -8.256108849411650e-01  3.393140768766017e-17
-1.429999999999999e+00 -8.256108849411650e-01  3.393140768766017e-17
-1.429999999999999e+00 -8.256108849411650e-01  3.393140768766017e-17
-1.429999999999999e+00 -8.256108849411650e-01  3.393140768766017e-17
-1.429999999999999e+00 -8.256108849411650e-01  3.393140768766017e-17
-1.429999999999999e+00 -8.256108849411650e-01  3.393140768766017e-17
-1.429999999999999e+00 -8.256108849411650e-01  3.393140768766017e-17
-1.429999999999999e+00 -8.256108849411650e-01  3.393140768766017e-17
-1.429999999999999e+00 -8.256108849411650e-01  3.393140768766017e-17
-1.429999999999999e+00 -8.256108849411650e-01  3.393140768766017e-17
-1.429999999999999e+00 -8.256108849411650e-01  3.393140768766017e-17
-1.429999999999999e+00 -8.256108849411650e-01  3.393140768766017e-17
-1.429999999999999e+00 -8.256108849411650e-01  3.393140768766017e-17
-1.429999999999999e+00 -8.256108849411650e-01  3.393140768766017e-17
-1.429999999999999e+00 -8.256108849411650e-01  3.393140768766017e-17
-1.429999999999999e+00 -8.256108849411650e-01  3.393140768766017e-17
-1.429999999999999e+00 -8.256108849411650e-01  3.393140768766017e-17
-1.429999999999999e+00 -8.256108849411650e-01  3.393140768766017e-17
-1.429999999999999e+00 -8.256108849411650e-01  3.393140768766017e-17
-1.429999999999999e+00 -8.256108849411650e-01  3.393140768766017e-17
-1.429999999999999e+00 -8.256108849411650e-01  3.393140768766017e-17
-1.429999999999999e+00 -8.256108849411650e-01  3.393140768766017e-17
-1.429999999999999e+00 -8.256108849411650e-01  3.393140768766017e-17
-1.429999999999999e+00 -8.256108849411650e-01  3.393140768766017e-17
-1.429999999999999e+00 -8.256108849411650e-01  3.393140768766017e-17
-1.429999999999999e+00 -8.256108849411650e-01  3.393140768766017e-17
-1.429999999999999e+00 -8.256108849411650e-01  3.393140768766017e-17
-1.429999999999999e+00 -8.256108849411650e-01  3.393140768766017e-17
-1.429999999999999e+00 -8.256108849411650e-01  3.393140768766017e-17
-1.429999999999999e+00 -8.256108849411650e-01  3.393140768766017e-17
-1.429999999999999e+00 -8.256108849411650e-01  3.393140768766017e-17
-1.429999999999999e+00 -8.256108849411650e-01  3.393140768766017e-17
-1.429999999999999e+00 -8.256108849411650e-01  3.393140768766017e-17
-1.429999999999999e+00 -8.256108849411650e-01  3.393140768766017e-17
-1.429999999999999e+00 -8.256108849411650e-01  3.393140768766017e-17
-1.429999999999999e+00 -8.256108849411650e-01  3.393140768766017e-17
-1.429999999999999e+00 -8.256108849411650e-01  3.393140768766017e-17
-1.429999999999999e+00 -8.256108849411650e-01  3.393140768766017e-17
-1.429999999999999e+00 -8.256108849411650e-01  3.393140768766017e-17
-1.429999999999999e+00 -8.256108849411650e-01  3.393140768766017e-17
-1.429999999999999e+00 -8.256108849411650e-01  3.393140768766017e-17
-1.429999999999999e+00 -8.256108849411650e-01  3.393140768766017e-17
-1.429999999999999e+00 -8.256108849411650e-01  3.393140768766017e-17
-1.429999999999999e+00 -8.256108849411650e-01  3.393140768766017e-17
-1.429999999999999e+00 -8.256108849411650e-01  3.393140768766017e-17
-1.429999999999999e+00 -8.256108849411650e-01  3.393140768766017e-17
-1.429999999999999e+00 -8.256108849411650e-01  3.393140768766017e-17
-1.429999999999999e+00 -8.256108849411650e-01  3.393140768766017e-17
-1.429999999999999e+00 -8.256108849411650e-01  3.393140768766017e-17
-1.429999999999999e+00 -8.256108849411650e-01  3.393140768766017e-17
-1.429999999999999e+00 -8.256108849411650e-01  3.393140768766017e-17
-1.429999999999999e+00 -8.256108849411650e-01  3.393140768766017e-17
-1.429999999999999e+00 -8.256108849411650e-01  3.393140768766017e-17
-1.429999999999999e+00 -8.256108849411650e-01  3.393140768766017e-17
-1.429999999999999e+00 -8.256108849411650e-01  3.393140768766017e-17
-1.429999999999999e+00 -8.256108849411650e-01  3.393140768766017e-17
-1.429999999999999e+00 -8.256108849411650e-01  3.393140768766017e-17
-1.429999999999999e+00 -8.256108849411650e-01  3.393140768766017e-17
-1.429999999999999e+00 -8.256108849411650e-01  3.393140768766017e-17
-1.429999999999999e+00 -8.256108849411650e-01  3.393140768766017e-17
-1.429999999999999e+00 -8.256108849411650e-01  3.393140768766017e-17
-1.429999999999999e+00 -8.256108849411650e-01  3.393140768766017e-17
-1.429999999999999e+00 -8.256108849411650e-01  3.393140768766017e-17
-1.429999999999999e+00 -8.256108849411650e-01  3.393140768766017e-17
-1.429999999999999e+00 -8.256108849411650e-01  3.393140768766017e-17
-1.429999999999999e+00 -8.256108849411650e-01  3.393140768766017e-17
-1.429999999999999e+00 -8.256108849411650e-01  3.393140768766017e-17
-1.429999999999999e+00 -8.256108849411650e-01  3.393140768766017e-17
-1.429999999999999e+00 -8.256108849411650e-01  3.393140768766017e-17
-1.429999999999999e+00 -8.256108849411650e-01  3.393140768766017e-17
-1.429999999999999e+00 -8.256108849411650e-01  3.393140768766017e-17
-1.429999999999999e+00 -8.256108849411650e-01  3.393140768766017e-17
-1.429999999999999e+00 -8.256108849411650e-01  3.393140768766017e-17
-1.429999999999999e+00 -8.256108849411650e-01  3.393140768766017e-17
-1.429999999999999e+00 -8.256108849411650e-01  3.393140768766017e-17
-1.429999999999999e+00 -8.256108849411650e-01  3.393140768766017e-17
-1.429999999999999e+00 -8.256108849411650e-01  3.393140768766017e-17
-1.429999999999999e+00 -8.256108849411650e-01  3.393140768766017e-17
-1.429999999999999e+00 -8.256108849411650e-01  3.393140768766017e-17
-1.429999999999999e+00 -8.256108849411650e-01  3.393140768766017e-17
-1.429999999999999e+00 -8.256108849411650e-01  3.393140768766017e-17
-1.429999999999999e+00 -8.256108849411650e-01  3.393140768766017e-17
-1.429999999999999e+00 -8.256108849411650e-01  3.393140768766017e-17
-1.429999999999999e+00 -8.256108849411650e-01  3.393140768766017e-17
-1.429999999999999e+00 -8.256108849411650e-01  3.393140768766017e-17
-1.429999999999999e+00 -8.256108849411650e-01  3.393140768766017e-17
-1.429999999999999e+00 -8.256108849411650e-01  3.393140768766017e-17
-1.429999999999999e+00 -8.256108849411650e-01  3.393140768766017e-17
-1.429999999999999e+00 -8.256108849411650e-01  3.393140768766017e-17
-1.429999999999999e+00 -8.256108849411650e-01  3.393140768766017e-17
-1.429999999999999e+00 -8.256108849411650e-01  3.393140768766017e-17
-1.429999999999999e+00 -8.256108849411650e-01  3.393140768766017e-17
-1.429999999999999e+00 -8.256108849411650e-01  3.393140768766017e-17
-1.429999999999999e+00 -8.256108849411650e-01  3.393140768766017e-17
-1.429999999999999e+00 -8.256108849411650e-01  3.393140768766017e-17
-1.429999999999999e+00 -8.256108849411650e-01  3.393140768766017e-17
-1.429999999999999e+00 -8.256108849411650e-01  3.393140768766017e-17
-1.429999999999999e+00 -8.256108849411650e-01  3.393140768766017e-17
-1.429999999999999e+00 -8.256108849411650e-01  3.393140768766017e-17
-1.429999999999999e+00 -8.256108849411650e-01  3.393140768766017e-17
-1.429999999999999e+00 -8.256108849411650e-01  3.393140768766017e-17
-1.429999999999999e+00 -8.256108849411650e-01  3.393140768766017e-17
-1.429999999999999e+00 -8.256108849411650e-01  3.393140768766017e-17
-1.429999999999999e+00 -8.256108849411650e-01  3.393140768766017e-17
-1.429999999999999e+00 -8.256108849411650e-01  3.393140768766017e-17
-1.429999999999999e+00 -8.256108849411650e-01  3.393140768766017e-17
-1.429999999999999e+00 -8.256108849411650e-01  3.393140768766017e-17
-1.429999999999999e+00 -8.256108849411650e-01  3.393140768766017e-17
-1.429999999999999e+00 -8.256108849411650e-01  3.393140768766017e-17
-1.429999999999999e+00 -8.256108849411650e-01  3.393140768766017e-17
-1.429999999999999e+00 -8.256108849411650e-01  3.393140768766017e-17
-1.429999999999999e+00 -8.256108849411650e-01  3.393140768766017e-17
-1.429999999999999e+00 -8.256108849411650e-01  3.393140768766017e-17
-1.429999999999999e+00 -8.256108849411650e-01  3.393140768766017e-17
-1.429999999999999e+00 -8.256108849411650e-01  3.393140768766017e-17
-1.429999999999999e+00 -8.256108849411650e-01  3.393140768766017e-17
-1.429999999999999e+00 -8.256108849411650e-01  3.393140768766017e-17
-1.429999999999999e+00 -8.256108849411650e-01  3.393140768766017e-17
-1.429999999999999e+00 -8.256108849411650e-01  3.393140768766017e-17
-1.429999999999999e+00 -8.256108849411650e-01  3.393140768766017e-17
-1.429999999999999e+00 -8.256108849411650e-01  3.393140768766017e-17
-1.429999999999999e+00 -8.256108849411650e-01  3.393140768766017e-17
-1.429999999999999e+00 -8.256108849411650e-01  3.393140768766017e-17
-1.429999999999999e+00 -8.256108849411650e-01  3.393140768766017e-17
-1.429999999999999e+00 -8.256108849411650e-01  3.393140768766017e-17
-1.429999999999999e+00 -8.256108849411650e-01  3.393140768766017e-17
-1.429999999999999e+00 -8.256108849411650e-01  3.393140768766017e-17
-1.429999999999999e+00 -8.256108849411650e-01  3.393140768766017e-17
-1.429999999999999e+00 -8.256108849411650e-01  3.393140768766017e-17
-1.429999999999999e+00 -8.256108849411650e-01  3.393140768766017e-17
-1.429999999999999e+00 -8.256108849411650e-01  3.393140768766017e-17
-1.429999999999999e+00 -8.256108849411650e-01  3.393140768766017e-17
-1.429999999999999e+00 -8.256108849411650e-01  3.393140768766017e-17
-1.429999999999999e+00 -8.256108849411650e-01  3.393140768766017e-17
-1.429999999999999e+00 -8.256108849411650e-01  3.393140768766017e-17
-1.429999999999999e+00 -8.256108849411650e-01  3.393140768766017e-17
-1.429999999999999e+00 -8.256108849411650e-01  3.393140768766017e-17
-1.429999999999999e+00 -8.256108849411650e-01  3.393140768766017e-17
-1.429999999999999e+00 -8.256108849411650e-01  3.393140768766017e-17
-1.429999999999999e+00 -8.256108849411650e-01  3.393140768766017e-17
-1.429999999999999e+00 -8.256108849411650e-01  3.393140768766017e-17
-1.429999999999999e+00 -8.256108849411650e-01  3.393140768766017e-17
-1.429999999999999e+00 -8.256108849411650e-01  3.393140768766017e-17
-1.429999999999999e+00 -8.256108849411650e-01  3.393140768766017e-17
-1.429999999999999e+00 -8.256108849411650e-01  3.393140768766017e-17
-1.429999999999999e+00 -8.256108849411650e-01  3.393140768766017e-17
-1.429999999999999e+00 -8.256108849411650e-01  3.393140768766017e-17
-1.429999999999999e+00 -8.256108849411650e-01  3.393140768766017e-17
-1.429999999999999e+00 -8.256108849411650e-01  3.393140768766017e-17
-1.429999999999999e+00 -8.256108849411650e-01  3.393140768766017e-17
-1.429999999999999e+00 -8.256108849411650e-01  3.393140768766017e-17
-1.429999999999999e+00 -8.256108849411650e-01  3.393140768766017e-17
-1.429999999999999e+00 -8.256108849411650e-01  3.393140768766017e-17
-1.429999999999999e+00 -8.256108849411650e-01  3.393140768766017e-17
-1.429999999999999e+00 -8.256108849411650e-01  3.393140768766017e-17
-1.429999999999999e+00 -8.256108849411650e-01  3.393140768766017e-17
-1.429999999999999e+00 -8.256108849411650e-01  3.393140768766017e-17
-1.429999999999999e+00 -8.256108849411650e-01  3.393140768766017e-17
-1.429999999999999e+00 -8.256108849411650e-01  3.393140768766017e-17
-1.429999999999999e+00 -8.256108849411650e-01  3.393140768766017e-17
-1.429999999999999e+00 -8.256108849411650e-01  3.393140768766017e-17
-1.429999999999999e+00 -8.256108849411650e-01  3.393140768766017e-17
-1.429999999999999e+00 -8.256108849411650e-01  3.393140768766017e-17
-1.429999999999999e+00 -8.256108849411650e-01  3.393140768766017e-17
-1.429999999999999e+00 -8.256108849411650e-01  3.393140768766017e-17
-1.429999999999999e+00 -8.256108849411650e-01  3.393140768766017e-17
-1.429999999999999e+00 -8.256108849411650e-01  3.393140768766017e-17
-1.429999999999999e+00 -8.256108849411650e-01  3.393140768766017e-17
-1.429999999999999e+00 -8.256108849411650e-01  3.393140768766017e-17
-1.429999999999999e+00 -8.256108849411650e-01  3.393140768766017e-17
-1.429999999999999e+00 -8.256108849411650e-01  3.393140768766017e-17
-1.429999999999999e+00 -8.256108849411650e-01  3.393140768766017e-17
-1.429999999999999e+00 -8.256108849411650e-01  3.393140768766017e-17
-1.429999999999999e+00 -8.256108849411650e-01  3.393140768766017e-17
-1.429999999999999e+00 -8.256108849411650e-01  3.393140768766017e-17
-1.429999999999999e+00 -8.256108849411650e-01  3.393140768766017e-17
-1.429999999999999e+00 -8.256108849411650e-01  3.393140768766017e-17
-1.429999999999999e+00 -8.256108849411650e-01  3.393140768766017e-17
-1.429999999999999e+00 -8.256108849411650e-01  3.393140768766017e-17
-1.429999999999999e+00 -8.256108849411650e-01  3.393140768766017e-17
 1.429999999999999e+00  8.256108849411650e-01 -3.393140768766017e-17
-1.429999999999999e+00 -8.256108849411650e-01  3.393140768766017e-17
 1.429999999999999e+00  8.256108849411650e-01 -3.393140768766017e-17
 1.429999999999999e+00  8.256108849411650e-01 -3.393140768766017e-17
 1.429999999999999e+00  8.256108849411650e-01 -3.393140768766017e-17
 1.429999999999999e+00  8.256108849411650e-01 -3.393140768766017e-17
 1.429999999999999e+00  8.256108849411650e-01 -3.393140768766017e-17
 1.429999999999999e+00  8.256108849411650e-01 -3.393140768766017e-17
 1.429999999999999e+00  8.256108849411650e-01 -3.393140768766017e-17
 1.429999999999999e+00  8.256108849411650e-01 -3.393140768766017e-17
 1.429999999999999e+00  8.256108849411650e-01 -3.393140768766017e-17
 1.429999999999999e+00  8.256108849411650e-01 -3.393140768766017e-17
 1.429999999999999e+00  8.256108849411650e-01 -3.393140768766017e-17
 1.429999999999999e+00  8.256108849411650e-01 -3.393140768766017e-17
 1.429999999999999e+00  8.256108849411650e-01 -3.393140768766017e-17
 1.429999999999999e+00  8.256108849411650e-01 -3.393140768766017e-17
 1.429999999999999e+00  8.256108849411650e-01 -3.393140768766017e-17
 1.429999999999999e+00  8.256108849411650e-01 -3.393140768766017e-17
 1.429999999999999e+00  8.256108849411650e-01 -3.393140768766017e-17
 1.429999999999999e+00  8.256108849411650e-01 -3.393140768766017e-17
 1.429999999999999e+00  8.256108849411650e-01 -3.393140768766017e-17
 1.429999999999999e+00  8.256108849411650e-01 -3.393140768766017e-17
 1.429999999999999e+00  8.256108849411650e-01 -3.393140768766017e-17
 1.429999999999999e+00  8.256108849411650e-01 -3.393140768766017e-17
 1.429999999999999e+00  8.256108849411650e-01 -3.393140768766017e-17
 1.429999999999999e+00  8.256108849411650e-01 -3.393140768766017e-17
 1.429999999999999e+00  8.256108849411650e-01 -3.393140768766017e-17
 1.429999999999999e+00  8.256108849411650e-01 -3.393140768766017e-17
 1.429999999999999e+00  8.256108849411650e-01 -3.393140768766017e-17
 1.429999999999999e+00  8.256108849411650e-01 -3.393140768766017e-17
 1.429999999999999e+00  8.256108849411650e-01 -3.393140768766017e-17
 1.429999999999999e+00  8.256108849411650e-01 -3.393140768766017e-17
 1.429999999999999e+00  8.256108849411650e-01 -3.393140768766017e-17
 1.429999999999999e+00  8.256108849411650e-01 -3.393140768766017e-17
 1.429999999999999e+00  8.256108849411650e-01 -3.393140768766017e-17
 1.429999999999999e+00  8.256108849411650e-01 -3.393140768766017e-17
 1.429999999999999e+00  8.256108849411650e-01 -3.393140768766017e-17
 1.429999999999999e+00  8.256108849411650e-01 -3.393140768766017e-17
 1.429999999999999e+00  8.256108849411650e-01 -3.393140768766017e-17
 1.429999999999999e+00  8.256108849411650e-01 -3.393140768766017e-17
 1.429999999999999e+00  8.256108849411650e-01 -3.393140768766017e-17
 1.429999999999999e+00  8.256108849411650e-01 -3.393140768766017e-17
 1.429999999999999e+00  8.256108849411650e-01 -3.393140768766017e-17
 1.429999999999999e+00  8.256108849411650e-01 -3.393140768766017e-17
 1.429999999999999e+00  8.256108849411650e-01 -3.393140768766017e-17
 1.429999999999999e+00  8.256108849411650e-01 -3.393140768766017e-17
 1.429999999999999e+00  8.256108849411650e-01 -3.393140768766017e-17
 1.429999999999999e+00  8.256108849411650e-01 -3.393140768766017e-17
 1.429999999999999e+00  8.256108849411650e-01 -3.393140768766017e-17
 1.429999999999999e+00  8.256108849411650e-01 -3.393140768766017e-17
 1.429999999999999e+00  8.256108849411650e-01 -3.393140768766017e-17
 1.429999999999999e+00  8.256108849411650e-01 -3.393140768766017e-17
 1.429999999999999e+00  8.256108849411650e-01 -3.393140768766017e-17
 1.429999999999999e+00  8.256108849411650e-01 -3.393140768766017e-17
 1.429999999999999e+00  8.256108849411650e-01 -3.393140768766017e-17
 1.429999999999999e+00  8.256108849411650e-01 -3.393140768766017e-17
 1.429999999999999e+00  8.256108849411650e-01 -3.393140768766017e-17
 1.429999999999999e+00  8.256108849411650e-01 -3.393140768766017e-17
 1.429999999999999e+00  8.256108849411650e-01 -3.393140768766017e-17
 1.429999999999999e+00  8.256108849411650e-01 -3.393140768766017e-17
 1.429999999999999e+00  8.256108849411650e-01 -3.393140768766017e-17
 1.429999999999999e+00  8.256108849411650e-01 -3.393140768766017e-17
 1.429999999999999e+00  8.256108849411650e-01 -3.393140768766017e-17
 1.429999999999999e+00  8.256108849411650e-01 -3.393140768766017e-17
 1.429999999999999e+00  8.256108849411650e-01 -3.393140768766017e-17
 1.429999999999999e+00  8.256108849411650e-01 -3.393140768766017e-17
 1.429999999999999e+00  8.256108849411650e-01 -3.393140768766017e-17
 1.429999999999999e+00  8.256108849411650e-01 -3.393140768766017e-17
 1.429999999999999e+00  8.256108849411650e-01 -3.393140768766017e-17
 1.429999999999999e+00  8.256108849411650e-01 -3.393140768766017e-17
 1.429999999999999e+00  8.256108849411650e-01 -3.393140768766017e-17
 1.429999999999999e+00  8.256108849411650e-01 -3.393140768766017e-17
 1.429999999999999e+00  8.256108849411650e-01 -3.393140768766017e-17
 1.429999999999999e+00  8.256108849411650e-01 -3.393140768766017e-17
 1.429999999999999e+00  8.256108849411650e-01 -3.393140768766017e-17
 1.429999999999999e+00  8.256108849411650e-01 -3.393140768766017e-17
 1.429999999999999e+00  8.256108849411650e-01 -3.393140768766017e-17
 1.429999999999999e+00  8.256108849411650e-01 -3.393140768766017e-17
 1.429999999999999e+00  8.256108849411650e-01 -3.393140768766017e-17
 1.429999999999999e+00  8.256108849411650e-01 -3.393140768766017e-17
 1.429999999999999e+00  8.256108849411650e-01 -3.393140768766017e-17
 1.429999999999999e+00  8.256108849411650e-01 -3.393140768766017e-17
 1.429999999999999e+00  8.256108849411650e-01 -3.393140768766017e-17
 1.429999999999999e+00  8.256108849411650e-01 -3.393140768766017e-17
 1.429999999999999e+00  8.256108849411650e-01 -3.393140768766017e-17
 1.429999999999999e+00  8.256108849411650e-01 -3.393140768766017e-17
 1.429999999999999e+00  8.256108849411650e-01 -3.393140768766017e-17
 1.429999999999999e+00  8.256108849411650e-01 -3.393140768766017e-17
 1.429999999999999e+00  8.256108849411650e-01 -3.393140768766017e-17
 1.429999999999999e+00  8.256108849411650e-01 -3.393140768766017e-17
 1.429999999999999e+00  8.256108849411650e-01 -3.393140768766017e-17
 1.429999999999999e+00  8.256108849411650e-01 -3.393140768766017e-17
 1.429999999999999e+00  8.256108849411650e-01 -3.393140768766017e-17
 1.429999999999999e+00  8.256108849411650e-01 -3.393140768766017e-17
 1.429999999999999e+00  8.256108849411650e-01 -3.393140768766017e-17
 1.429999999999999e+00  8.256108849411650e-01 -3.393140768766017e-17
 1.429999999999999e+00  8.256108849411650e-01 -3.393140768766017e-17
 1.429999999999999e+00  8.256108849411650e-01 -3.393140768766017e-17
 1.429999999999999e+00  8.256108849411650e-01 -3.393140768766017e-17
 1.429999999999999e+00  8.256108849411650e-01 -3.393140768766017e-17
 1.429999999999999e+00  8.256108849411650e-01 -3.393140768766017e-17
 1.429999999999999e+00  8.256108849411650e-01 -3.393140768766017e-17
 1.429999999999999e+00  8.256108849411650e-01 -3.393140768766017e-17
 1.429999999999999e+00  8.256108849411650e-01 -3.393140768766017e-17
 1.429999999999999e+00  8.256108849411650e-01 -3.393140768766017e-17
 1.429999999999999e+00  8.256108849411650e-01 -3.393140768766017e-17
 1.429999999999999e+00  8.256108849411650e-01 -3.393140768766017e-17
 1.429999999999999e+00  8.256108849411650e-01 -3.393140768766017e-17
 1.429999999999999e+00  8.256108849411650e-01 -3.393140768766017e-17
 1.429999999999999e+00  8.256108849411650e-01 -3.393140768766017e-17
 1.429999999999999e+00  8.256108849411650e-01 -3.393140768766017e-17
 1.429999999999999e+00  8.256108849411650e-01 -3.393140768766017e-17
 1.429999999999999e+00  8.256108849411650e-01 -3.393140768766017e-17
 1.429999999999999e+00  8.256108849411650e-01 -3.393140768766017e-17
 1.429999999999999e+00  8.256108849411650e-01 -3.393140768766017e-17
 1.429999999999999e+00  8.256108849411650e-01 -3.393140768766017e-17
 1.429999999999999e+00  8.256108849411650e-01 -3.393140768766017e-17
 1.429999999999999e+00  8.256108849411650e-01 -3.393140768766017e-17
 1.429999999999999e+00  8.256108849411650e-01 -3.393140768766017e-17
 1.429999999999999e+00  8.256108849411650e-01 -3.393140768766017e-17
 1.429999999999999e+00  8.256108849411650e-01 -3.393140768766017e-17
 1.429999999999999e+00  8.256108849411650e-01 -3.393140768766017e-17
 1.429999999999999e+00  8.256108849411650e-01 -3.393140768766017e-17
 1.429999999999999e+00  8.256108849411650e-01 -3.393140768766017e-17
 1.429999999999999e+00  8.256108849411650e-01 -3.393140768766017e-17
 1.429999999999999e+00  8.256108849411650e-01 -3.393140768766017e-17
 1.429999999999999e+00  8.256108849411650e-01 -3.393140768766017e-17
 1.429999999999999e+00  8.256108849411650e-01 -3.393140768766017e-17
 1.429999999999999e+00  8.256108849411650e-01 -3.393140768766017e-17
 1.429999999999999e+00  8.256108849411650e-01 -3.393140768766017e-17
 1.429999999999999e+00  8.256108849411650e-01 -3.393140768766017e-17
 1.429999999999999e+00  8.256108849411650e-01 -3.393140768766017e-17
 1.429999999999999e+00  8.256108849411650e-01 -3.393140768766017e-17
 1.429999999999999e+00  8.256108849411650e-01 -3.393140768766017e-17
 1.429999999999999e+00  8.256108849411650e-01 -3.393140768766017e-17
 1.429999999999999e+00  8.256108849411650e-01 -3.393140768766017e-17
 1.429999999999999e+00  8.256108849411650e-01 -3.393140768766017e-17
 1.429999999999999e+00  8.256108849411650e-01 -3.393140768766017e-17
 1.429999999999999e+00  8.256108849411650e-01 -3.393140768766017e-17
 1.429999999999999e+00  8.256108849411650e-01 -3.393140768766017e-17
 1.429999999999999e+00  8.256108849411650e-01 -3.393140768766017e-17
 1.429999999999999e+00  8.256108849411650e-01 -3.393140768766017e-17
 1.429999999999999e+00  8.256108849411650e-01 -3.393140768766017e-17
 1.429999999999999e+00  8.256108849411650e-01 -3.393140768766017e-17
 1.429999999999999e+00  8.256108849411650e-01 -3.393140768766017e-17
 1.429999999999999e+00  8.256108849411650e-01 -3.393140768766017e-17
 1.429999999999999e+00  8.256108849411650e-01 -3.393140768766017e-17
 1.429999999999999e+00  8.256108849411650e-01 -3.393140768766017e-17
 1.429999999999999e+00  8.256108849411650e-01 -3.393140768766017e-17
 1.429999999999999e+00  8.256108849411650e-01 -3.393140768766017e-17
 1.429999999999999e+00  8.256108849411650e-01 -3.393140768766017e-17
 1.429999999999999e+00  8.256108849411650e-01 -3.393140768766017e-17
 1.429999999999999e+00  8.256108849411650e-01 -3.393140768766017e-17
 1.429999999999999e+00  8.256108849411650e-01 -3.393140768766017e-17
 1.429999999999999e+00  8.256108849411650e-01 -3.393140768766017e-17
 1.429999999999999e+00  8.256108849411650e-01 -3.393140768766017e-17
 1.429999999999999e+00  8.256108849411650e-01 -3.393140768766017e-17
 1.429999999999999e+00  8.256108849411650e-01 -3.393140768766017e-17
 1.429999999999999e+00  8.256108849411650e-01 -3.393140768766017e-17
 1.429999999999999e+00  8.256108849411650e-01 -3.393140768766017e-17
 1.429999999999999e+00  8.256108849411650e-01 -3.393140768766017e-17
 1.429999999999999e+00  8.256108849411650e-01 -3.393140768766017e-17
 1.429999999999999e+00  8.256108849411650e-01 -3.393140768766017e-17
 1.429999999999999e+00  8.256108849411650e-01 -3.393140768766017e-17
 1.429999999999999e+00  8.256108849411650e-01 -3.393140768766017e-17
 1.429999999999999e+00  8.256108849411650e-01 -3.393140768766017e-17
 1.429999999999999e+00  8.256108849411650e-01 -3.393140768766017e-17
 1.429999999999999e+00  8.256108849411650e-01 -3.393140768766017e-17
 1.429999999999999e+00  8.256108849411650e-01 -3.393140768766017e-17
 1.429999999999999e+00  8.256108849411650e-01 -3.393140768766017e-17
 1.429999999999999e+00  8.256108849411650e-01 -3.393140768766017e-17
 1.429999999999999e+00  8.256108849411650e-01 -3.393140768766017e-17
 1.429999999999999e+00  8.256108849411650e-01 -3.393140768766017e-17
 1.429999999999999e+00  8.256108849411650e-01 -3.393140768766017e-17
 1.429999999999999e+00  8.256108849411650e-01 -3.393140768766017e-17
 1.429999999999999e+00  8.256108849411650e-01 -3.393140768766017e-17
 1.429999999999999e+00  8.256108849411650e-01 -3.393140768766017e-17
 1.429999999999999e+00  8.256108849411650e-01 -3.393140768766017e-17
 1.429999999999999e+00  8.256108849411650e-01 -3.393140768766017e-17
 1.429999999999999e+00  8.256108849411650e-01 -3.393140768766017e-17
 1.429999999999999e+00  8.256108849411650e-01 -3.393140768766017e-17
 1.429999999999999e+00  8.256108849411650e-01 -3.393140768766017e-17
 1.429999999999999e+00  8.256108849411650e-01 -3.393140768766017e-17
 1.429999999999999e+00  8.256108849411650e-01 -3.393140768766017e-17
 1.429999999999999e+00  8.256108849411650e-01 -3.393140768766017e-17
 1.429999999999999e+00  8.256108849411650e-01 -3.393140768766017e-17
 1.429999999999999e+00  8.256108849411650e-01 -3.393140768766017e-17
 1.429999999999999e+00  8.256108849411650e-01 -3.393140768766017e-17
 1.429999999999999e+00  8.256108849411650e-01 -3.393140768766017e-17
 1.429999999999999e+00  8.256108849411650e-01 -3.393140768766017e-17
 1.429999999999999e+00  8.256108849411650e-01 -3.393140768766017e-17
 1.429999999999999e+00  8.256108849411650e-01 -3.393140768766017e-17
 1.429999999999999e+00  8.256108849411650e-01 -3.393140768766017e-17
 1.429999999999999e+00  8.256108849411650e-01 -3.393140768766017e-17
 1.429999999999999e+00  8.256108849411650e-01 -3.393140768766017e-17
 1.429999999999999e+00  8.256108849411650e-01 -3.393140768766017e-17
 1.429999999999999e+00  8.256108849411650e-01 -3.393140768766017e-17
 1.429999999999999e+00  8.256108849411650e-01 -3.393140768766017e-17
 1.429999999999999e+00  8.256108849411650e-01 -3.393140768766017e-17
 1.429999999999999e+00  8.256108849411650e-01 -3.393140768766017e-17
 1.429999999999999e+00  8.256108849411650e-01 -3.393140768766017e-17
 1.429999999999999e+00  8.256108849411650e-01 -3.393140768766017e-17
 1.429999999999999e+00  8.256108849411650e-01 -3.393140768766017e-17
 1.429999999999999e+00  8.256108849411650e-01 -3.393140768766017e-17
 1.429999999999999e+00  8.256108849411650e-01 -3.393140768766017e-17
 1.429999999999999e+00  8.256108849411650e-01 -3.393140768766017e-17
 1.429999999999999e+00  8.256108849411650e-01 -3.393140768766017e-17
 1.429999999999999e+00  8.256108849411650e-01 -3.393140768766017e-17
 1.429999999999999e+00  8.256108849411650e-01 -3.393140768766017e-17
 1.429999999999999e+00  8.256108849411650e-01 -3.393140768766017e-17
 1.429999999999999e+00  8.256108849411650e-01 -3.393140768766017e-17
 1.429999999999999e+00  8.256108849411650e-01 -3.393140768766017e-17
 1.429999999999999e+00  8.256108849411650e-01 -3.393140768766017e-17
 1.429999999999999e+00  8.256108849411650e-01 -3.393140768766017e-17
 1.429999999999999e+00  8.256108849411650e-01 -3.393140768766017e-17
 1.429999999999999e+00  8.256108849411650e-01 -3.393140768766017e-17
 1.429999999999999e+00  8.256108849411650e-01 -3.393140768766017e-17
 1.429999999999999e+00  8.256108849411650e-01 -3.393140768766017e-17
 1.429999999999999e+00  8.256108849411650e-01 -3.393140768766017e-17
 1.429999999999999e+00  8.256108849411650e-01 -3.393140768766017e-17
 1.429999999999999e+00  8.256108849411650e-01 -3.393140768766017e-17
 1.429999999999999e+00  8.256108849411650e-01 -3.393140768766017e-17
 1.429999999999999e+00  8.256108849411650e-01 -3.393140768766017e-17
 1.429999999999999e+00  8.256108849411650e-01 -3.393140768766017e-17
 1.429999999999999e+00  8.256108849411650e-01 -3.393140768766017e-17
 1.429999999999999e+00  8.256108849411650e-01 -3.393140768766017e-17
 1.429999999999999e+00  8.256108849411650e-01 -3.393140768766017e-17
 1.429999999999999e+00  8.256108849411650e-01 -3.393140768766017e-17
 1.429999999999999e+00  8.256108849411650e-01 -3.393140768766017e-17
 1.429999999999999e+00  8.256108849411650e-01 -3.393140768766017e-17
 1.429999999999999e+00  8.256108849411650e-01 -3.393140768766017e-17
 1.429999999999999e+00  8.256108849411650e-01 -3.393140768766017e-17
 1.429999999999999e+00  8.256108849411650e-01 -3.393140768766017e-17
 1.429999999999999e+00  8.256108849411650e-01 -3.393140768766017e-17
 1.429999999999999e+00  8.256108849411650e-01 -3.393140768766017e-17
 1.429999999999999e+00  8.256108849411650e-01 -3.393140768766017e-17
 1.429999999999999e+00  8.256108849411650e-01 -3.393140768766017e-17
 1.429999999999999e+00  8.256108849411650e-01 -3.393140768766017e-17
 1.429999999999999e+00  8.256108849411650e-01 -3.393140768766017e-17
 1.429999999999999e+00  8.256108849411650e-01 -3.393140768766017e-17
 1.429999999999999e+00  8.256108849411650e-01 -3.393140768766017e-17
 1.429999999999999e+00  8.256108849411650e-01 -3.393140768766017e-17
 1.429999999999999e+00  8.256108849411650e-01 -3.393140768766017e-17
 1.429999999999999e+00  8.256108849411650e-01 -3.393140768766017e-17
 1.429999999999999e+00  8.256108849411650e-01 -3.393140768766017e-17
 1.429999999999999e+00  8.256108849411650e-01 -3.393140768766017e-17
 1.429999999999999e+00  8.256108849411650e-01 -3.393140768766017e-17
 1.429999999999999e+00  8.256108849411650e-01 -3.393140768766017e-17
 1.429999999999999e+00  8.256108849411650e-01 -3.393140768766017e-17
 1.429999999999999e+00  8.256108849411650e-01 -3.393140768766017e-17
 1.429999999999999e+00  8.256108849411650e-01 -3.393140768766017e-17
 1.429999999999999e+00  8.256108849411650e-01 -3.393140768766017e-17
 1.429999999999999e+00  8.256108849411650e-01 -3.393140768766017e-17
 1.429999999999999e+00  8.256108849411650e-01 -3.393140768766017e-17
 1.429999999999999e+00  8.256108849411650e-01 -3.393140768766017e-17
 1.429999999999999e+00  8.256108849411650e-01 -3.393140768766017e-17
 1.429999999999999e+00  8.256108849411650e-01 -3.393140768766017e-17
 1.429999999999999e+00  8.256108849411650e-01 -3.393140768766017e-17
 1.429999999999999e+00  8.256108849411650e-01 -3.393140768766017e-17
 1.429999999999999e+00  8.256108849411650e-01 -3.393140768766017e-17
 1.429999999999999e+00  8.256108849411650e-01 -3.393140768766017e-17
 1.429999999999999e+00  8.256108849411650e-01 -3.393140768766017e-17
 1.429999999999999e+00  8.256108849411650e-01 -3.393140768766017e-17
 1.429999999999999e+00  8.256108849411650e-01 -3.393140768766017e-17
 1.429999999999999e+00  8.256108849411650e-01 -3.393140768766017e-17
 1.429999999999999e+00  8.256108849411650e-01 -3.393140768766017e-17
 1.429999999999999e+00  8.256108849411650e-01 -3.393140768766017e-17
 1.429999999999999e+00  8.256108849411650e-01 -3.393140768766017e-17
 1.429999999999999e+00  8.256108849411650e-01 -3.393140768766017e-17
 1.429999999999999e+00  8.256108849411650e-01 -3.393140768766017e-17
 1.429999999999999e+00  8.256108849411650e-01 -3.393140768766017e-17
 1.429999999999999e+00  8.256108849411650e-01 -3.393140768766017e-17
 1.429999999999999e+00  8.256108849411650e-01 -3.393140768766017e-17
 1.429999999999999e+00  8.256108849411650e-01 -3.393140768766017e-17
 1.429999999999999e+00  8.256108849411650e-01 -3.393140768766017e-17
 1.429999999999999e+00  8.256108849411650e-01 -3.393140768766017e-17
 1.429999999999999e+00  8.256108849411650e-01 -3.393140768766017e-17
 1.429999999999999e+00  8.256108849411650e-01 -3.393140768766017e-17
 1.429999999999999e+00  8.256108849411650e-01 -3.393140768766017e-17
 1.429999999999999e+00  8.256108849411650e-01 -3.393140768766017e-17
 1.429999999999999e+00  8.256108849411650e-01 -3.393140768766017e-17
 1.429999999999999e+00  8.256108849411650e-01 -3.393140768766017e-17
 1.429999999999999e+00  8.256108849411650e-01 -3.393140768766017e-17
 1.429999999999999e+00  8.256108849411650e-01 -3.393140768766017e-17
 1.429999999999999e+00  8.256108849411650e-01 -3.393140768766017e-17
 1.429999999999999e+00  8.256108849411650e-01 -3.393140768766017e-17
 1.429999999999999e+00  8.256108849411650e-01 -3.393140768766017e-17
 1.429999999999999e+00  8.256108849411650e-01 -3.393140768766017e-17
 1.429999999999999e+00  8.256108849411650e-01 -3.393140768766017e-17
 1.429999999999999e+00  8.256108849411650e-01 -3.393140768766017e-17
 1.429999999999999e+00  8.256108849411650e-01 -3.393140768766017e-17
 1.429999999999999e+00  8.256108849411650e-01 -3.393140768766017e-17
 1.429999999999999e+00  8.256108849411650e-01 -3.393140768766017e-17
 1.429999999999999e+00  8.256108849411650e-01 -3.393140768766017e-17
 1.429999999999999e+00  8.256108849411650e-01 -3.393140768766017e-17
 1.429999999999999e+00  8.256108849411650e-01 -3.393140768766017e-17
 1.429999999999999e+00  8.256108849411650e-01 -3.393140768766017e-17
 1.429999999999999e+00  8.256108849411650e-01 -3.393140768766017e-17
 1.429999999999999e+00  8.256108849411650e-01 -3.393140768766017e-17
 1.429999999999999e+00  8.256108849411650e-01 -3.393140768766017e-17
 1.429999999999999e+00  8.256108849411650e-01 -3.393140768766017e-17
 1.429999999999999e+00  8.256108849411650e-01 -3.393140768766017e-17
 1.429999999999999e+00  8.256108849411650e-01 -3.393140768766017e-17
 1.429999999999999e+00  8.256108849411650e-01 -3.393140768766017e-17
 1.429999999999999e+00  8.256108849411650e-01 -3.393140768766017e-17
 1.429999999999999e+00  8.256108849411650e-01 -3.393140768766017e-17
 1.429999999999999e+00  8.256108849411650e-01 -3.393140768766017e-17
 1.429999999999999e+00  8.256108849411650e-01 -3.393140768766017e-17
 1.429999999999999e+00  8.256108849411650e-01 -3.393140768766017e-17
 1.429999999999999e+00  8.256108849411650e-01 -3.393140768766017e-17
 1.429999999999999e+00  8.256108849411650e-01 -3.393140768766017e-17
 1.429999999999999e+00  8.256108849411650e-01 -3.393140768766017e-17
 1.429999999999999e+00  8.256108849411650e-01 -3.393140768766017e-17
 1.429999999999999e+00  8.256108849411650e-01 -3.393140768766017e-17
 1.429999999999999e+00  8.256108849411650e-01 -3.393140768766017e-17
 1.429999999999999e+00  8.256108849411650e-01 -3.393140768766017e-17
 1.429999999999999e+00  8.256108849411650e-01 -3.393140768766017e-17
 1.429999999999999e+00  8.256108849411650e-01 -3.393140768766017e-17
 1.429999999999999e+00  8.256108849411650e-01 -3.393140768766017e-17
 1.429999999999999e+00  8.256108849411650e-01 -3.393140768766017e-17
 1.429999999999999e+00  8.256108849411650e-01 -3.393140768766017e-17
 1.429999999999999e+00  8.256108849411650e-01 -3.393140768766017e-17
 1.429999999999999e+00  8.256108849411650e-01 -3.393140768766017e-17
 1.429999999999999e+00  8.256108849411650e-01 -3.393140768766017e-17
 1.429999999999999e+00  8.256108849411650e-01 -3.393140768766017e-17
 1.429999999999999e+00  8.256108849411650e-01 -3.393140768766017e-17
 1.429999999999999e+00  8.256108849411650e-01 -3.393140768766017e-17
 1.429999999999999e+00  8.256108849411650e-01 -3.393140768766017e-17
 1.429999999999999e+00  8.256108849411650e-01 -3.393140768766017e-17
 1.429999999999999e+00  8.256108849411650e-01 -3.393140768766017e-17
 1.429999999999999e+00  8.256108849411650e-01 -3.393140768766017e-17
 1.429999999999999e+00  8.256108849411650e-01 -3.393140768766017e-17
 1.429999999999999e+00  8.256108849411650e-01 -3.393140768766017e-17
 1.429999999999999e+00  8.256108849411650e-01 -3.393140768766017e-17
 1.429999999999999e+00  8.256108849411650e-01 -3.393140768766017e-17
 1.429999999999999e+00  8.256108849411650e-01 -3.393140768766017e-17
 1.429999999999999e+00  8.256108849411650e-01 -3.393140768766017e-17
 1.429999999999999e+00  8.256108849411650e-01 -3.393140768766017e-17
 1.429999999999999e+00  8.256108849411650e-01 -3.393140768766017e-17
 1.429999999999999e+00  8.256108849411650e-01 -3.393140768766017e-17
 1.429999999999999e+00  8.256108849411650e-01 -3.393140768766017e-17
 1.429999999999999e+00  8.256108849411650e-01 -3.393140768766017e-17
 1.429999999999999e+00  8.256108849411650e-01 -3.393140768766017e-17
 1.429999999999999e+00  8.256108849411650e-01 -3.393140768766017e-17
 1.429999999999999e+00  8.256108849411650e-01 -3.393140768766017e-17
 1.429999999999999e+00  8.256108849411650e-01 -3.393140768766017e-17
 1.429999999999999e+00  8.256108849411650e-01 -3.393140768766017e-17
 1.429999999999999e+00  8.256108849411650e-01 -3.393140768766017e-17
 1.429999999999999e+00  8.256108849411650e-01 -3.393140768766017e-17
 1.429999999999999e+00  8.256108849411650e-01 -3.393140768766017e-17
 1.429999999999999e+00  8.256108849411650e-01 -3.393140768766017e-17
 1.429999999999999e+00  8.256108849411650e-01 -3.393140768766017e-17
 1.429999999999999e+00  8.256108849411650e-01 -3.393140768766017e-17
 1.429999999999999e+00  8.256108849411650e-01 -3.393140768766017e-17
 1.429999999999999e+00  8.256108849411650e-01 -3.393140768766017e-17
 1.429999999999999e+00  8.256108849411650e-01 -3.393140768766017e-17
 1.429999999999999e+00  8.256108849411650e-01 -3.393140768766017e-17
 1.429999999999999e+00  8.256108849411650e-01 -3.393140768766017e-17
 1.429999999999999e+00  8.256108849411650e-01 -3.393140768766017e-17
 1.429999999999999e+00  8.256108849411650e-01 -3.393140768766017e-17
 1.429999999999999e+00  8.256108849411650e-01 -3.393140768766017e-17
 1.429999999999999e+00  8.256108849411650e-01 -3.393140768766017e-17
 1.429999999999999e+00  8.256108849411650e-01 -3.393140768766017e-17
 1.429999999999999e+00  8.256108849411650e-01 -3.393140768766017e-17
 1.429999999999999e+00  8.256108849411650e-01 -3.393140768766017e-17
 1.429999999999999e+00  8.256108849411650e-01 -3.393140768766017e-17
 1.429999999999999e+00  8.256108849411650e-01 -3.393140768766017e-17
 1.429999999999999e+00  8.256108849411650e-01 -3.393140768766017e-17
 1.429999999999999e+00  8.256108849411650e-01 -3.393140768766017e-17
 1.429999999999999e+00  8.256108849411650e-01 -3.393140768766017e-17
 1.429999999999999e+00  8.256108849411650e-01 -3.393140768766017e-17
 1.429999999999999e+00  8.256108849411650e-01 -3.393140768766017e-17
 1.429999999999999e+00  8.256108849411650e-01 -3.393140768766017e-17
 1.429999999999999e+00  8.256108849411650e-01 -3.393140768766017e-17
 1.429999999999999e+00  8.256108849411650e-01 -3.393140768766017e-17
 1.429999999999999e+00  8.256108849411650e-01 -3.393140768766017e-17
 1.429999999999999e+00  8.256108849411650e-01 -3.393140768766017e-17
 1.429999999999999e+00  8.256108849411650e-01 -3.393140768766017e-17
 1.429999999999999e+00  8.256108849411650e-01 -3.393140768766017e-17
 1.429999999999999e+00  8.256108849411650e-01 -3.393140768766017e-17
 1.429999999999999e+00  8.256108849411650e-01 -3.393140768766017e-17
 1.429999999999999e+00  8.256108849411650e-01 -3.393140768766017e-17
 1.429999999999999e+00  8.256108849411650e-01 -3.393140768766017e-17
 1.429999999999999e+00  8.256108849411650e-01 -3.393140768766017e-17
 1.429999999999999e+00  8.256108849411650e-01 -3.393140768766017e-17
 1.429999999999999e+00  8.256108849411650e-01 -3.393140768766017e-17
 1.429999999999999e+00  8.256108849411650e-01 -3.393140768766017e-17
 1.429999999999999e+00  8.256108849411650e-01 -3.393140768766017e-17
 1.429999999999999e+00  8.256108849411650e-01 -3.393140768766017e-17
 1.429999999999999e+00  8.256108849411650e-01 -3.393140768766017e-17
 1.429999999999999e+00  8.256108849411650e-01 -3.393140768766017e-17
 1.429999999999999e+00  8.256108849411650e-01 -3.393140768766017e-17
 1.429999999999999e+00  8.256108849411650e-01 -3.393140768766017e-17
 1.429999999999999e+00  8.256108849411650e-01 -3.393140768766017e-17
 1.429999999999999e+00  8.256108849411650e-01 -3.393140768766017e-17
 1.429999999999999e+00  8.256108849411650e-01 -3.393140768766017e-17
 1.429999999999999e+00  8.256108849411650e-01 -3.393140768766017e-17
 1.429999999999999e+00  8.256108849411650e-01 -3.393140768766017e-17
 1.429999999999999e+00  8.256108849411650e-01 -3.393140768766017e-17
 1.429999999999999e+00  8.256108849411650e-01 -3.393140768766017e-17
 1.429999999999999e+00  8.256108849411650e-01 -3.393140768766017e-17
 1.429999999999999e+00  8.256108849411650e-01 -3.393140768766017e-17
 1.429999999999999e+00  8.256108849411650e-01 -3.393140768766017e-17
 1.429999999999999e+00  8.256108849411650e-01 -3.393140768766017e-17
 1.429999999999999e+00  8.256108849411650e-01 -3.393140768766017e-17
 1.429999999999999e+00  8.256108849411650e-01 -3.393140768766017e-17
 1.429999999999999e+00  8.256108849411650e-01 -3.393140768766017e-17
 1.429999999999999e+00  8.256108849411650e-01 -3.393140768766017e-17
 1.429999999999999e+00  8.256108849411650e-01 -3.393140768766017e-17
 1.429999999999999e+00  8.256108849411650e-01 -3.393140768766017e-17
 1.429999999999999e+00  8.256108849411650e-01 -3.393140768766017e-17
 1.429999999999999e+00  8.256108849411650e-01 -3.393140768766017e-17
 1.429999999999999e+00  8.256108849411650e-01 -3.393140768766017e-17
 1.429999999999999e+00  8.256108849411650e-01 -3.393140768766017e-17
 1.429999999999999e+00  8.256108849411650e-01 -3.393140768766017e-17
 1.429999999999999e+00  8.256108849411650e-01 -3.393140768766017e-17
 1.429999999999999e+00  8.256108849411650e-01 -3.393140768766017e-17
 1.429999999999999e+00  8.256108849411650e-01 -3.393140768766017e-17
 1.429999999999999e+00  8.256108849411650e-01 -3.393140768766017e-17
 1.429999999999999e+00  8.256108849411650e-01 -3.393140768766017e-17
 1.429999999999999e+00  8.256108849411650e-01 -3.393140768766017e-17
 1.429999999999999e+00  8.256108849411650e-01 -3.393140768766017e-17
 1.429999999999999e+00  8.256108849411650e-01 -3.393140768766017e-17
 1.429999999999999e+00  8.256108849411650e-01 -3.393140768766017e-17
 1.429999999999999e+00  8.256108849411650e-01 -3.393140768766017e-17
 1.429999999999999e+00  8.256108849411650e-01 -3.393140768766017e-17
 1.429999999999999e+00  8.256108849411650e-01 -3.393140768766017e-17
 1.429999999999999e+00  8.256108849411650e-01 -3.393140768766017e-17
 1.429999999999999e+00  8.256108849411650e-01 -3.393140768766017e-17
 1.429999999999999e+00  8.256108849411650e-01 -3.393140768766017e-17
 1.429999999999999e+00  8.256108849411650e-01 -3.393140768766017e-17
 1.429999999999999e+00  8.256108849411650e-01 -3.393140768766017e-17
 1.429999999999999e+00  8.256108849411650e-01 -3.393140768766017e-17
 1.429999999999999e+00  8.256108849411650e-01 -3.393140768766017e-17
 1.429999999999999e+00  8.256108849411650e-01 -3.393140768766017e-17
 1.429999999999999e+00  8.256108849411650e-01 -3.393140768766017e-17
 1.429999999999999e+00  8.256108849411650e-01 -3.393140768766017e-17
 1.429999999999999e+00  8.256108849411650e-01 -3.393140768766017e-17
 1.429999999999999e+00  8.256108849411650e-01 -3.393140768766017e-17
 1.429999999999999e+00  8.256108849411650e-01 -3.393140768766017e-17
 1.429999999999999e+00  8.256108849411650e-01 -3.393140768766017e-17
 1.429999999999999e+00  8.256108849411650e-01 -3.393140768766017e-17
 1.429999999999999e+00  8.256108849411650e-01 -3.393140768766017e-17
 1.429999999999999e+00  8.256108849411650e-01 -3.393140768766017e-17
 1.429999999999999e+00  8.256108849411650e-01 -3.393140768766017e-17
 1.429999999999999e+00  8.256108849411650e-01 -3.393140768766017e-17
 1.429999999999999e+00  8.256108849411650e-01 -3.393140768766017e-17
 1.429999999999999e+00  8.256108849411650e-01 -3.393140768766017e-17
 1.429999999999999e+00  8.256108849411650e-01 -3.393140768766017e-17
 1.429999999999999e+00  8.256108849411650e-01 -3.393140768766017e-17
 1.429999999999999e+00  8.256108849411650e-01 -3.393140768766017e-17
 1.429999999999999e+00  8.256108849411650e-01 -3.393140768766017e-17
 1.429999999999999e+00  8.256108849411650e-01 -3.393140768766017e-17
 1.429999999999999e+00  8.256108849411650e-01 -3.393140768766017e-17
 1.429999999999999e+00  8.256108849411650e-01 -3.393140768766017e-17
 1.429999999999999e+00  8.256108849411650e-01 -3.393140768766017e-17
 1.429999999999999e+00  8.256108849411650e-01 -3.393140768766017e-17
 1.429999999999999e+00  8.256108849411650e-01 -3.393140768766017e-17
 1.429999999999999e+00  8.256108849411650e-01 -3.393140768766017e-17
 1.429999999999999e+00  8.256108849411650e-01 -3.393140768766017e-17
 1.429999999999999e+00  8.256108849411650e-01 -3.393140768766017e-17
 1.429999999999999e+00  8.256108849411650e-01 -3.393140768766017e-17
 1.429999999999999e+00  8.256108849411650e-01 -3.393140768766017e-17
 1.429999999999999e+00  8.256108849411650e-01 -3.393140768766017e-17
 1.429999999999999e+00  8.256108849411650e-01 -3.393140768766017e-17
 1.429999999999999e+00  8.256108849411650e-01 -3.393140768766017e-17
 1.429999999999999e+00  8.256108849411650e-01 -3.393140768766017e-17
 1.429999999999999e+00  8.256108849411650e-01 -3.393140768766017e-17
 1.429999999999999e+00  8.256108849411650e-01 -3.393140768766017e-17
 1.429999999999999e+00  8.256108849411650e-01 -3.393140768766017e-17
 1.429999999999999e+00  8.256108849411650e-01 -3.393140768766017e-17
 1.429999999999999e+00  8.256108849411650e-01 -3.393140768766017e-17
 1.429999999999999e+00  8.256108849411650e-01 -3.393140768766017e-17
 1.429999999999999e+00  8.256108849411650e-01 -3.393140768766017e-17
 1.429999999999999e+00  8.256108849411650e-01 -3.393140768766017e-17
 1.429999999999999e+00  8.256108849411650e-01 -3.393140768766017e-17
 1.429999999999999e+00  8.256108849411650e-01 -3.393140768766017e-17
 1.429999999999999e+00  8.256108849411650e-01 -3.393140768766017e-17
 1.429999999999999e+00  8.256108849411650e-01 -3.393140768766017e-17
 1.429999999999999e+00  8.256108849411650e-01 -3.393140768766017e-17
 1.429999999999999e+00  8.256108849411650e-01 -3.393140768766017e-17
 1.429999999999999e+00  8.256108849411650e-01 -3.393140768766017e-17
 1.429999999999999e+00  8.256108849411650e-01 -3.393140768766017e-17
 1.429999999999999e+00  8.256108849411650e-01 -3.393140768766017e-17
 1.429999999999999e+00  8.256108849411650e-01 -3.393140768766017e-17
 1.429999999999999e+00  8.256108849411650e-01 -3.393140768766017e-17
 1.429999999999999e+00  8.256108849411650e-01 -3.393140768766017e-17
 1.429999999999999e+00  8.256108849411650e-01 -3.393140768766017e-17
 1.429999999999999e+00  8.256108849411650e-01 -3.393140768766017e-17
 1.429999999999999e+00  8.256108849411650e-01 -3.393140768766017e-17
 1.429999999999999e+00  8.256108849411650e-01 -3.393140768766017e-17
 1.429999999999999e+00  8.256108849411650e-01 -3.393140768766017e-17
 1.429999999999999e+00  8.256108849411650e-01 -3.393140768766017e-17
 1.429999999999999e+00  8.256108849411650e-01 -3.393140768766017e-17
 1.429999999999999e+00  8.256108849411650e-01 -3.393140768766017e-17
 1.429999999999999e+00  8.256108849411650e-01 -3.393140768766017e-17
 1.429999999999999e+00  8.256108849411650e-01 -3.393140768766017e-17
 1.429999999999999e+00  8.256108849411650e-01 -3.393140768766017e-17
 1.429999999999999e+00  8.256108849411650e-01 -3.393140768766017e-17
 1.429999999999999e+00  8.256108849411650e-01 -3.393140768766017e-17
 1.429999999999999e+00  8.256108849411650e-01 -3.393140768766017e-17
 1.429999999999999e+00  8.256108849411650e-01 -3.393140768766017e-17
 1.429999999999999e+00  8.256108849411650e-01 -3.393140768766017e-17
 1.429999999999999e+00  8.256108849411650e-01 -3.393140768766017e-17
 1.429999999999999e+00  8.256108849411650e-01 -3.393140768766017e-17
 1.429999999999999e+00  8.256108849411650e-01 -3.393140768766017e-17
 1.429999999999999e+00  8.256108849411650e-01 -3.393140768766017e-17
 1.429999999999999e+00  8.256108849411650e-01 -3.393140768766017e-17
 1.429999999999999e+00  8.256108849411650e-01 -3.393140768766017e-17
 1.429999999999999e+00  8.256108849411650e-01 -3.393140768766017e-17
 1.429999999999999e+00  8.256108849411650e-01 -3.393140768766017e-17
 1.429999999999999e+00  8.256108849411650e-01 -3.393140768766017e-17
 1.429999999999999e+00  8.256108849411650e-01 -3.393140768766017e-17
 1.429999999999999e+00  8.256108849411650e-01 -3.393140768766017e-17
 1.429999999999999e+00  8.256108849411650e-01 -3.393140768766017e-17
 1.429999999999999e+00  8.256108849411650e-01 -3.393140768766017e-17
 1.429999999999999e+00  8.256108849411650e-01 -3.393140768766017e-17
 1.429999999999999e+00  8.256108849411650e-01 -3.393140768766017e-17
 1.429999999999999e+00  8.256108849411650e-01 -3.393140768766017e-17
 1.429999999999999e+00  8.256108849411650e-01 -3.393140768766017e-17
 1.429999999999999e+00  8.256108849411650e-01 -3.393140768766017e-17
 1.429999999999999e+00  8.256108849411650e-01 -3.393140768766017e-17
 1.429999999999999e+00  8.256108849411650e-01 -3.393140768766017e-17
 1.429999999999999e+00  8.256108849411650e-01 -3.393140768766017e-17
 1.429999999999999e+00  8.256108849411650e-01 -3.393140768766017e-17
 1.429999999999999e+00  8.256108849411650e-01 -3.393140768766017e-17
 1.429999999999999e+00  8.256108849411650e-01 -3.393140768766017e-17
 1.429999999999999e+00  8.256108849411650e-01 -3.393140768766017e-17
 1.429999999999999e+00  8.256108849411650e-01 -3.393140768766017e-17
 1.429999999999999e+00  8.256108849411650e-01 -3.393140768766017e-17
 1.429999999999999e+00  8.256108849411650e-01 -3.393140768766017e-17
 1.429999999999999e+00  8.256108849411650e-01 -3.393140768766017e-17
 1.429999999999999e+00  8.256108849411650e-01 -3.393140768766017e-17
 1.429999999999999e+00  8.256108849411650e-01 -3.393140768766017e-17
 1.429999999999999e+00  8.256108849411650e-01 -3.393140768766017e-17
 1.429999999999999e+00  8.256108849411650e-01 -3.393140768766017e-17
 1.429999999999999e+00  8.256108849411650e-01 -3.393140768766017e-17
 1.429999999999999e+00  8.256108849411650e-01 -3.393140768766017e-17
 1.429999999999999e+00  8.256108849411650e-01 -3.393140768766017e-17
 1.429999999999999e+00  8.256108849411650e-01 -3.393140768766017e-17
 1.429999999999999e+00  8.256108849411650e-01 -3.393140768766017e-17
 1.429999999999999e+00  8.256108849411650e-01 -3.393140768766017e-17
 1.429999999999999e+00  8.256108849411650e-01 -3.393140768766017e-17
 1.429999999999999e+00  8.256108849411650e-01 -3.393140768766017e-17
 1.429999999999999e+00  8.256108849411650e-01 -3.393140768766017e-17
 1.429999999999999e+00  8.256108849411650e-01 -3.393140768766017e-17
 1.429999999999999e+00  8.256108849411650e-01 -3.393140768766017e-17
 1.429999999999999e+00  8.256108849411650e-01 -3.393140768766017e-17
 1.429999999999999e+00  8.256108849411650e-01 -3.393140768766017e-17
 1.429999999999999e+00  8.256108849411650e-01 -3.393140768766017e-17
 1.429999999999999e+00  8.256108849411650e-01 -3.393140768766017e-17
 1.429999999999999e+00  8.256108849411650e-01 -3.393140768766017e-17
 1.429999999999999e+00  8.256108849411650e-01 -3.393140768766017e-17
 1.429999999999999e+00  8.256108849411650e-01 -3.393140768766017e-17
 1.429999999999999e+00  8.256108849411650e-01 -3.393140768766017e-17
 1.429999999999999e+00  8.256108849411650e-01 -3.393140768766017e-17
 1.429999999999999e+00  8.256108849411650e-01 -3.393140768766017e-17
 1.429999999999999e+00  8.256108849411650e-01 -3.393140768766017e-17
 1.429999999999999e+00  8.256108849411650e-01 -3.393140768766017e-17
 1.429999999999999e+00  8.256108849411650e-01 -3.393140768766017e-17
 1.429999999999999e+00  8.256108849411650e-01 -3.393140768766017e-17
 1.429999999999999e+00  8.256108849411650e-01 -3.393140768766017e-17
 1.429999999999999e+00  8.256108849411650e-01 -3.393140768766017e-17
 1.429999999999999e+00  8.256108849411650e-01 -3.393140768766017e-17
 1.429999999999999e+00  8.256108849411650e-01 -3.393140768766017e-17
 1.429999999999999e+00  8.256108849411650e-01 -3.393140768766017e-17
 1.429999999999999e+00  8.256108849411650e-01 -3.393140768766017e-17
 1.429999999999999e+00  8.256108849411650e-01 -3.393140768766017e-17
 1.429999999999999e+00  8.256108849411650e-01 -3.393140768766017e-17
 1.429999999999999e+00  8.256108849411650e-01 -3.393140768766017e-17
 1.429999999999999e+00  8.256108849411650e-01 -3.393140768766017e-17
 1.429999999999999e+00  8.256108849411650e-01 -3.393140768766017e-17
 1.429999999999999e+00  8.256108849411650e-01 -3.393140768766017e-17
 1.429999999999999e+00  8.256108849411650e-01 -3.393140768766017e-17
 1.429999999999999e+00  8.256108849411650e-01 -3.393140768766017e-17
 1.429999999999999e+00  8.256108849411650e-01 -3.393140768766017e-17
 1.429999999999999e+00  8.256108849411650e-01 -3.393140768766017e-17
 1.429999999999999e+00  8.256108849411650e-01 -3.393140768766017e-17
 1.429999999999999e+00  8.256108849411650e-01 -3.393140768766017e-17
 1.429999999999999e+00  8.256108849411650e-01 -3.393140768766017e-17
 1.429999999999999e+00  8.256108849411650e-01 -3.393140768766017e-17
 1.429999999999999e+00  8.256108849411650e-01 -3.393140768766017e-17
 1.429999999999999e+00  8.256108849411650e-01 -3.393140768766017e-17
 1.429999999999999e+00  8.256108849411650e-01 -3.393140768766017e-17
 1.429999999999999e+00  8.256108849411650e-01 -3.393140768766017e-17
 1.429999999999999e+00  8.256108849411650e-01 -3.393140768766017e-17
 1.429999999999999e+00  8.256108849411650e-01 -3.393140768766017e-17
 1.429999999999999e+00  8.256108849411650e-01 -3.393140768766017e-17
 1.429999999999999e+00  8.256108849411650e-01 -3.393140768766017e-17
 1.429999999999999e+00  8.256108849411650e-01 -3.393140768766017e-17
 1.429999999999999e+00  8.256108849411650e-01 -3.393140768766017e-17
 1.429999999999999e+00  8.256108849411650e-01 -3.393140768766017e-17
 1.429999999999999e+00  8.256108849411650e-01 -3.393140768766017e-17
 1.429999999999999e+00  8.256108849411650e-01 -3.393140768766017e-17
 1.429999999999999e+00  8.256108849411650e-01 -3.393140768766017e-17
 1.429999999999999e+00  8.256108849411650e-01 -3.393140768766017e-17
 1.429999999999999e+00  8.256108849411650e-01 -3.393140768766017e-17
 1.429999999999999e+00  8.256108849411650e-01 -3.393140768766017e-17
 1.429999999999999e+00  8.256108849411650e-01 -3.393140768766017e-17
 1.429999999999999e+00  8.256108849411650e-01 -3.393140768766017e-17
 1.429999999999999e+00  8.256108849411650e-01 -3.393140768766017e-17
 1.429999999999999e+00  8.256108849411650e-01 -3.393140768766017e-17
 1.429999999999999e+00  8.256108849411650e-01 -3.393140768766017e-17
 1.429999999999999e+00  8.256108849411650e-01 -3.393140768766017e-17
 1.429999999999999e+00  8.256108849411650e-01 -3.393140768766017e-17
 1.429999999999999e+00  8.256108849411650e-01 -3.393140768766017e-17
 1.429999999999999e+00  8.256108849411650e-01 -3.393140768766017e-17
 1.429999999999999e+00  8.256108849411650e-01 -3.393140768766017e-17
 1.429999999999999e+00  8.256108849411650e-01 -3.393140768766017e-17
 1.429999999999999e+00  8.256108849411650e-01 -3.393140768766017e-17
 1.429999999999999e+00  8.256108849411650e-01 -3.393140768766017e-17
 1.429999999999999e+00  8.256108849411650e-01 -3.393140768766017e-17
 1.429999999999999e+00  8.256108849411650e-01 -3.393140768766017e-17
 1.429999999999999e+00  8.256108849411650e-01 -3.393140768766017e-17
 1.429999999999999e+00  8.256108849411650e-01 -3.393140768766017e-17
 1.429999999999999e+00  8.256108849411650e-01 -3.393140768766017e-17
 1.429999999999999e+00  8.256108849411650e-01 -3.393140768766017e-17
 1.429999999999999e+00  8.256108849411650e-01 -3.393140768766017e-17
 1.429999999999999e+00  8.256108849411650e-01 -3.393140768766017e-17
 1.429999999999999e+00  8.256108849411650e-01 -3.393140768766017e-17
 1.429999999999999e+00  8.256108849411650e-01 -3.393140768766017e-17
 1.429999999999999e+00  8.256108849411650e-01 -3.393140768766017e-17
 1.429999999999999e+00  8.256108849411650e-01 -3.393140768766017e-17
 1.429999999999999e+00  8.256108849411650e-01 -3.393140768766017e-17
 1.429999999999999e+00  8.256108849411650e-01 -3.393140768766017e-17
 1.429999999999999e+00  8.256108849411650e-01 -3.393140768766017e-17
 1.429999999999999e+00  8.256108849411650e-01 -3.393140768766017e-17
 1.429999999999999e+00  8.256108849411650e-01 -3.393140768766017e-17
 1.429999999999999e+00  8.256108849411650e-01 -3.393140768766017e-17
 1.429999999999999e+00  8.256108849411650e-01 -3.393140768766017e-17
 1.429999999999999e+00  8.256108849411650e-01 -3.393140768766017e-17
 1.429999999999999e+00  8.256108849411650e-01 -3.393140768766017e-17
 1.429999999999999e+00  8.256108849411650e-01 -3.393140768766017e-17
 1.429999999999999e+00  8.256108849411650e-01 -3.393140768766017e-17
 1.429999999999999e+00  8.256108849411650e-01 -3.393140768766017e-17
 1.429999999999999e+00  8.256108849411650e-01 -3.393140768766017e-17
 1.429999999999999e+00  8.256108849411650e-01 -3.393140768766017e-17
 1.429999999999999e+00  8.256108849411650e-01 -3.393140768766017e-17
 1.429999999999999e+00  8.256108849411650e-01 -3.393140768766017e-17
 1.429999999999999e+00  8.256108849411650e-01 -3.393140768766017e-17
 1.429999999999999e+00  8.256108849411650e-01 -3.393140768766017e-17
 1.429999999999999e+00  8.256108849411650e-01 -3.393140768766017e-17
 1.429999999999999e+00  8.256108849411650e-01 -3.393140768766017e-17
 1.429999999999999e+00  8.256108849411650e-01 -3.393140768766017e-17
 1.429999999999999e+00  8.256108849411650e-01 -3.393140768766017e-17
 1.429999999999999e+00  8.256108849411650e-01 -3.393140768766017e-17
 1.429999999999999e+00  8.256108849411650e-01 -3.393140768766017e-17
 1.429999999999999e+00  8.256108849411650e-01 -3.393140768766017e-17
 1.429999999999999e+00  8.256108849411650e-01 -3.393140768766017e-17
 1.429999999999999e+00  8.256108849411650e-01 -3.393140768766017e-17
 1.429999999999999e+00  8.256108849411650e-01 -3.393140768766017e-17
 1.429999999999999e+00  8.256108849411650e-01 -3.393140768766017e-17
 1.429999999999999e+00  8.256108849411650e-01 -3.393140768766017e-17
 1.429999999999999e+00  8.256108849411650e-01 -3.393140768766017e-17
 1.429999999999999e+00  8.256108849411650e-01 -3.393140768766017e-17
 1.429999999999999e+00  8.256108849411650e-01 -3.393140768766017e-17
 1.429999999999999e+00  8.256108849411650e-01 -3.393140768766017e-17
 1.429999999999999e+00  8.256108849411650e-01 -3.393140768766017e-17
 1.429999999999999e+00  8.256108849411650e-01 -3.393140768766017e-17
 1.429999999999999e+00  8.256108849411650e-01 -3.393140768766017e-17
 1.429999999999999e+00  8.256108849411650e-01 -3.393140768766017e-17
 1.429999999999999e+00  8.256108849411650e-01 -3.393140768766017e-17
 1.429999999999999e+00  8.256108849411650e-01 -3.393140768766017e-17
 1.429999999999999e+00  8.256108849411650e-01 -3.393140768766017e-17
 1.429999999999999e+00  8.256108849411650e-01 -3.393140768766017e-17
 1.429999999999999e+00  8.256108849411650e-01 -3.393140768766017e-17
 1.429999999999999e+00  8.256108849411650e-01 -3.393140768766017e-17
 1.429999999999999e+00  8.256108849411650e-01 -3.393140768766017e-17
 1.429999999999999e+00  8.256108849411650e-01 -3.393140768766017e-17
 1.429999999999999e+00  8.256108849411650e-01 -3.393140768766017e-17
 1.429999999999999e+00  8.256108849411650e-01 -3.393140768766017e-17
 1.429999999999999e+00  8.256108849411650e-01 -3.393140768766017e-17
 1.429999999999999e+00  8.256108849411650e-01 -3.393140768766017e-17
 1.429999999999999e+00  8.256108849411650e-01 -3.393140768766017e-17
 1.429999999999999e+00  8.256108849411650e-01 -3.393140768766017e-17
 1.429999999999999e+00  8.256108849411650e-01 -3.393140768766017e-17
 1.429999999999999e+00  8.256108849411650e-01 -3.393140768766017e-17
 1.429999999999999e+00  8.256108849411650e-01 -3.393140768766017e-17
 1.429999999999999e+00  8.256108849411650e-01 -3.393140768766017e-17
 1.429999999999999e+00  8.256108849411650e-01 -3.393140768766017e-17
 1.429999999999999e+00  8.256108849411650e-01 -3.393140768766017e-17
 1.429999999999999e+00  8.256108849411650e-01 -3.393140768766017e-17
 1.429999999999999e+00  8.256108849411650e-01 -3.393140768766017e-17
 1.429999999999999e+00  8.256108849411650e-01 -3.393140768766017e-17
 1.429999999999999e+00  8.256108849411650e-01 -3.393140768766017e-17
 1.429999999999999e+00  8.256108849411650e-01 -3.393140768766017e-17
 1.429999999999999e+00  8.256108849411650e-01 -3.393140768766017e-17
 1.429999999999999e+00  8.256108849411650e-01 -3.393140768766017e-17
 1.429999999999999e+00  8.256108849411650e-01 -3.393140768766017e-17
 1.429999999999999e+00  8.256108849411650e-01 -3.393140768766017e-17
 1.429999999999999e+00  8.256108849411650e-01 -3.393140768766017e-17
 1.429999999999999e+00  8.256108849411650e-01 -3.393140768766017e-17
 1.429999999999999e+00  8.256108849411650e-01 -3.393140768766017e-17
 1.429999999999999e+00  8.256108849411650e-01 -3.393140768766017e-17
 1.429999999999999e+00  8.256108849411650e-01 -3.393140768766017e-17
 1.429999999999999e+00  8.256108849411650e-01 -3.393140768766017e-17
 1.429999999999999e+00  8.256108849411650e-01 -3.393140768766017e-17
 1.429999999999999e+00  8.256108849411650e-01 -3.393140768766017e-17
 1.429999999999999e+00  8.256108849411650e-01 -3.393140768766017e-17
 1.429999999999999e+00  8.256108849411650e-01 -3.393140768766017e-17
 1.429999999999999e+00  8.256108849411650e-01 -3.393140768766017e-17
 1.429999999999999e+00  8.256108849411650e-01 -3.393140768766017e-17
 1.429999999999999e+00  8.256108849411650e-01 -3.393140768766017e-17
 1.429999999999999e+00  8.256108849411650e-01 -3.393140768766017e-17
 1.429999999999999e+00  8.256108849411650e-01 -3.393140768766017e-17
 1.429999999999999e+00  8.256108849411650e-01 -3.393140768766017e-17
 1.429999999999999e+00  8.256108849411650e-01 -3.393140768766017e-17
 1.429999999999999e+00  8.256108849411650e-01 -3.393140768766017e-17
 1.429999999999999e+00  8.256108849411650e-01 -3.393140768766017e-17
 1.429999999999999e+00  8.256108849411650e-01 -3.393140768766017e-17
 1.429999999999999e+00  8.256108849411650e-01 -3.393140768766017e-17
 1.429999999999999e+00  8.256108849411650e-01 -3.393140768766017e-17
 1.429999999999999e+00  8.256108849411650e-01 -3.393140768766017e-17
 1.429999999999999e+00  8.256108849411650e-01 -3.393140768766017e-17
 1.429999999999999e+00  8.256108849411650e-01 -3.393140768766017e-17
 1.429999999999999e+00  8.256108849411650e-01 -3.393140768766017e-17
 1.429999999999999e+00  8.256108849411650e-01 -3.393140768766017e-17
 1.429999999999999e+00  8.256108849411650e-01 -3.393140768766017e-17
 1.429999999999999e+00  8.256108849411650e-01 -3.393140768766017e-17
 1.429999999999999e+00  8.256108849411650e-01 -3.393140768766017e-17
 1.429999999999999e+00  8.256108849411650e-01 -3.393140768766017e-17
 1.429999999999999e+00  8.256108849411650e-01 -3.393140768766017e-17
 1.429999999999999e+00  8.256108849411650e-01 -3.393140768766017e-17
 1.429999999999999e+00  8.256108849411650e-01 -3.393140768766017e-17
 1.429999999999999e+00  8.256108849411650e-01 -3.393140768766017e-17
 1.429999999999999e+00  8.256108849411650e-01 -3.393140768766017e-17
 1.429999999999999e+00  8.256108849411650e-01 -3.393140768766017e-17
 1.429999999999999e+00  8.256108849411650e-01 -3.393140768766017e-17
 1.429999999999999e+00  8.256108849411650e-01 -3.393140768766017e-17
 1.429999999999999e+00  8.256108849411650e-01 -3.393140768766017e-17
 1.429999999999999e+00  8.256108849411650e-01 -3.393140768766017e-17
 1.429999999999999e+00  8.256108849411650e-01 -3.393140768766017e-17
 1.429999999999999e+00  8.256108849411650e-01 -3.393140768766017e-17
 1.429999999999999e+00  8.256108849411650e-01 -3.393140768766017e-17
 1.429999999999999e+00  8.256108849411650e-01 -3.393140768766017e-17
 1.429999999999999e+00  8.256108849411650e-01 -3.393140768766017e-17
 1.429999999999999e+00  8.256108849411650e-01 -3.393140768766017e-17
 1.429999999999999e+00  8.256108849411650e-01 -3.393140768766017e-17
 1.429999999999999e+00  8.256108849411650e-01 -3.393140768766017e-17
 1.429999999999999e+00  8.256108849411650e-01 -3.393140768766017e-17
 1.429999999999999e+00  8.256108849411650e-01 -3.393140768766017e-17
 1.429999999999999e+00  8.256108849411650e-01 -3.393140768766017e-17
 1.429999999999999e+00  8.256108849411650e-01 -3.393140768766017e-17
 1.429999999999999e+00  8.256108849411650e-01 -3.393140768766017e-17
 1.429999999999999e+00  8.256108849411650e-01 -3.393140768766017e-17
 1.429999999999999e+00  8.256108849411650e-01 -3.393140768766017e-17
 1.429999999999999e+00  8.256108849411650e-01 -3.393140768766017e-17
 1.429999999999999e+00  8.256108849411650e-01 -3.393140768766017e-17
 1.429999999999999e+00  8.256108849411650e-01 -3.393140768766017e-17
 1.429999999999999e+00  8.256108849411650e-01 -3.393140768766017e-17
 1.429999999999999e+00  8.256108849411650e-01 -3.393140768766017e-17
 1.429999999999999e+00  8.256108849411650e-01 -3.393140768766017e-17
 1.429999999999999e+00  8.256108849411650e-01 -3.393140768766017e-17
 1.429999999999999e+00  8.256108849411650e-01 -3.393140768766017e-17
 1.429999999999999e+00  8.256108849411650e-01 -3.393140768766017e-17
 1.429999999999999e+00  8.256108849411650e-01 -3.393140768766017e-17
 1.429999999999999e+00  8.256108849411650e-01 -3.393140768766017e-17
 1.429999999999999e+00  8.256108849411650e-01 -3.393140768766017e-17
 1.429999999999999e+00  8.256108849411650e-01 -3.393140768766017e-17
 1.429999999999999e+00  8.256108849411650e-01 -3.393140768766017e-17
 1.429999999999999e+00  8.256108849411650e-01 -3.393140768766017e-17
 1.429999999999999e+00  8.256108849411650e-01 -3.393140768766017e-17
 1.429999999999999e+00  8.256108849411650e-01 -3.393140768766017e-17
 1.429999999999999e+00  8.256108849411650e-01 -3.393140768766017e-17
 1.429999999999999e+00  8.256108849411650e-01 -3.393140768766017e-17
 1.429999999999999e+00  8.256108849411650e-01 -3.393140768766017e-17
 1.429999999999999e+00  8.256108849411650e-01 -3.393140768766017e-17
 1.429999999999999e+00  8.256108849411650e-01 -3.393140768766017e-17
 1.429999999999999e+00  8.256108849411650e-01 -3.393140768766017e-17
 1.429999999999999e+00  8.256108849411650e-01 -3.393140768766017e-17
 1.429999999999999e+00  8.256108849411650e-01 -3.393140768766017e-17
 1.429999999999999e+00  8.256108849411650e-01 -3.393140768766017e-17
 1.429999999999999e+00  8.256108849411650e-01 -3.393140768766017e-17
 1.429999999999999e+00  8.256108849411650e-01 -3.393140768766017e-17
-1.429999999999999e+00  8.256108849411650e-01  1.696570384383008e-17
 1.429999999999999e+00 -8.256108849411650e-01 -1.696570384383008e-17
-1.429999999999999e+00  8.256108849411650e-01  1.696570384383008e-17
-1.429999999999999e+00  8.256108849411650e-01  1.696570384383008e-17
-1.429999999999999e+00  8.256108849411650e-01  1.696570384383008e-17
-1.429999999999999e+00  8.256108849411650e-01  1.696570384383008e-17
-1.429999999999999e+00  8.256108849411650e-01  1.696570384383008e-17
-1.429999999999999e+00  8.256108849411650e-01  1.696570384383008e-17
-1.429999999999999e+00  8.256108849411650e-01  1.696570384383008e-17
-1.429999999999999e+00  8.256108849411650e-01  1.696570384383008e-17
-1.429999999999999e+00  8.256108849411650e-01  1.696570384383008e-17
-1.429999999999999e+00  8.256108849411650e-01  1.696570384383008e-17
-1.429999999999999e+00  8.256108849411650e-01  1.696570384383008e-17
-1.429999999999999e+00  8.256108849411650e-01  1.696570384383008e-17
-1.429999999999999e+00  8.256108849411650e-01  1.696570384383008e-17
-1.429999999999999e+00  8.256108849411650e-01  1.696570384383008e-17
-1.429999999999999e+00  8.256108849411650e-01  1.696570384383008e-17
-1.429999999999999e+00  8.256108849411650e-01  1.696570384383008e-17
-1.429999999999999e+00  8.256108849411650e-01  1.696570384383008e-17
-1.429999999999999e+00  8.256108849411650e-01  1.696570384383008e-17
-1.429999999999999e+00  8.256108849411650e-01  1.696570384383008e-17
-1.429999999999999e+00  8.256108849411650e-01  1.696570384383008e-17
-1.429999999999999e+00  8.256108849411650e-01  1.696570384383008e-17
-1.429999999999999e+00  8.256108849411650e-01  1.696570384383008e-17
-1.429999999999999e+00  8.256108849411650e-01  1.696570384383008e-17
-1.429999999999999e+00  8.256108849411650e-01  1.696570384383008e-17
-1.429999999999999e+00  8.256108849411650e-01  1.696570384383008e-17
-1.429999999999999e+00  8.256108849411650e-01  1.696570384383008e-17
-1.429999999999999e+00  8.256108849411650e-01  1.696570384383008e-17
-1.429999999999999e+00  8.256108849411650e-01  1.696570384383008e-17
-1.429999999999999e+00  8.256108849411650e-01  1.696570384383008e-17
-1.429999999999999e+00  8.256108849411650e-01  1.696570384383008e-17
-1.429999999999999e+00  8.256108849411650e-01  1.696570384383008e-17
-1.429999999999999e+00  8.256108849411650e-01  1.696570384383008e-17
-1.429999999999999e+00  8.256108849411650e-01  1.696570384383008e-17
-1.429999999999999e+00  8.256108849411650e-01  1.696570384383008e-17
-1.429999999999999e+00  8.256108849411650e-01  1.696570384383008e-17
-1.429999999999999e+00  8.256108849411650e-01  1.696570384383008e-17
-1.429999999999999e+00  8.256108849411650e-01  1.696570384383008e-17
-1.429999999999999e+00  8.256108849411650e-01  1.696570384383008e-17
-1.429999999999999e+00  8.256108849411650e-01  1.696570384383008e-17
-1.429999999999999e+00  8.256108849411650e-01  1.696570384383008e-17
-1.429999999999999e+00  8.256108849411650e-01  1.696570384383008e-17
-1.429999999999999e+00  8.256108849411650e-01  1.696570384383008e-17
-1.429999999999999e+00  8.256108849411650e-01  1.696570384383008e-17
-1.429999999999999e+00  8.256108849411650e-01  1.696570384383008e-17
-1.429999999999999e+00  8.256108849411650e-01  1.696570384383008e-17
-1.429999999999999e+00  8.256108849411650e-01  1.696570384383008e-17
-1.429999999999999e+00  8.256108849411650e-01  1.696570384383008e-17
-1.429999999999999e+00  8.256108849411650e-01  1.696570384383008e-17
-1.429999999999999e+00  8.256108849411650e-01  1.696570384383008e-17
-1.429999999999999e+00  8.256108849411650e-01  1.696570384383008e-17
-1.429999999999999e+00  8.256108849411650e-01  1.696570384383008e-17
-1.429999999999999e+00  8.256108849411650e-01  1.696570384383008e-17
-1.429999999999999e+00  8.256108849411650e-01  1.696570384383008e-17
-1.429999999999999e+00  8.256108849411650e-01  1.696570384383008e-17
-1.429999999999999e+00  8.256108849411650e-01  1.696570384383008e-17
-1.429999999999999e+00  8.256108849411650e-01  1.696570384383008e-17
-1.429999999999999e+00  8.256108849411650e-01  1.696570384383008e-17
-1.429999999999999e+00  8.256108849411650e-01  1.696570384383008e-17
-1.429999999999999e+00  8.256108849411650e-01  1.696570384383008e-17
-1.429999999999999e+00  8.256108849411650e-01  1.696570384383008e-17
-1.429999999999999e+00  8.256108849411650e-01  1.696570384383008e-17
-1.429999999999999e+00  8.256108849411650e-01  1.696570384383008e-17
-1.429999999999999e+00  8.256108849411650e-01  1.696570384383008e-17
-1.429999999999999e+00  8.256108849411650e-01  1.696570384383008e-17
-1.429999999999999e+00  8.256108849411650e-01  1.696570384383008e-17
-1.429999999999999e+00  8.256108849411650e-01  1.696570384383008e-17
-1.429999999999999e+00  8.256108849411650e-01  1.696570384383008e-17
-1.429999999999999e+00  8.256108849411650e-01  1.696570384383008e-17
-1.429999999999999e+00  8.256108849411650e-01  1.696570384383008e-17
-1.429999999999999e+00  8.256108849411650e-01  1.696570384383008e-17
-1.429999999999999e+00  8.256108849411650e-01  1.696570384383008e-17
-1.429999999999999e+00  8.256108849411650e-01  1.696570384383008e-17
-1.429999999999999e+00  8.256108849411650e-01  1.696570384383008e-17
-1.429999999999999e+00  8.256108849411650e-01  1.696570384383008e-17
-1.429999999999999e+00  8.256108849411650e-01  1.696570384383008e-17
-1.429999999999999e+00  8.256108849411650e-01  1.696570384383008e-17
-1.429999999999999e+00  8.256108849411650e-01  1.696570384383008e-17
-1.429999999999999e+00  8.256108849411650e-01  1.696570384383008e-17
-1.429999999999999e+00  8.256108849411650e-01  1.696570384383008e-17
-1.429999999999999e+00  8.256108849411650e-01  1.696570384383008e-17
-1.429999999999999e+00  8.256108849411650e-01  1.696570384383008e-17
-1.429999999999999e+00  8.256108849411650e-01  1.696570384383008e-17
-1.429999999999999e+00  8.256108849411650e-01  1.696570384383008e-17
-1.429999999999999e+00  8.256108849411650e-01  1.696570384383008e-17
-1.429999999999999e+00  8.256108849411650e-01  1.696570384383008e-17
-1.429999999999999e+00  8.256108849411650e-01  1.696570384383008e-17
-1.429999999999999e+00  8.256108849411650e-01  1.696570384383008e-17
-1.429999999999999e+00  8.256108849411650e-01  1.696570384383008e-17
-1.429999999999999e+00  8.256108849411650e-01  1.696570384383008e-17
-1.429999999999999e+00  8.256108849411650e-01  1.696570384383008e-17
-1.429999999999999e+00  8.256108849411650e-01  1.696570384383008e-17
-1.429999999999999e+00  8.256108849411650e-01  1.696570384383008e-17
-1.429999999999999e+00  8.256108849411650e-01  1.696570384383008e-17
-1.429999999999999e+00  8.256108849411650e-01  1.696570384383008e-17
-1.429999999999999e+00  8.256108849411650e-01  1.696570384383008e-17
-1.429999999999999e+00  8.256108849411650e-01  1.696570384383008e-17
-1.429999999999999e+00  8.256108849411650e-01  1.696570384383008e-17
-1.429999999999999e+00  8.256108849411650e-01  1.696570384383008e-17
-1.429999999999999e+00  8.256108849411650e-01  1.696570384383008e-17
-1.429999999999999e+00  8.256108849411650e-01  1.696570384383008e-17
-1.429999999999999e+00  8.256108849411650e-01  1.696570384383008e-17
-1.429999999999999e+00  8.256108849411650e-01  1.696570384383008e-17
-1.429999999999999e+00  8.256108849411650e-01  1.696570384383008e-17
-1.429999999999999e+00  8.256108849411650e-01  1.696570384383008e-17
-1.429999999999999e+00  8.256108849411650e-01  1.696570384383008e-17
-1.429999999999999e+00  8.256108849411650e-01  1.696570384383008e-17
-1.429999999999999e+00  8.256108849411650e-01  1.696570384383008e-17
-1.429999999999999e+00  8.256108849411650e-01  1.696570384383008e-17
-1.429999999999999e+00  8.256108849411650e-01  1.696570384383008e-17
-1.429999999999999e+00  8.256108849411650e-01  1.696570384383008e-17
-1.429999999999999e+00  8.256108849411650e-01  1.696570384383008e-17
-1.429999999999999e+00  8.256108849411650e-01  1.696570384383008e-17
-1.429999999999999e+00  8.256108849411650e-01  1.696570384383008e-17
-1.429999999999999e+00  8.256108849411650e-01  1.696570384383008e-17
-1.429999999999999e+00  8.256108849411650e-01  1.696570384383008e-17
-1.429999999999999e+00  8.256108849411650e-01  1.696570384383008e-17
-1.429999999999999e+00  8.256108849411650e-01  1.696570384383008e-17
-1.429999999999999e+00  8.256108849411650e-01  1.696570384383008e-17
-1.429999999999999e+00  8.256108849411650e-01  1.696570384383008e-17
-1.429999999999999e+00  8.256108849411650e-01  1.696570384383008e-17
-1.429999999999999e+00  8.256108849411650e-01  1.696570384383008e-17
-1.429999999999999e+00  8.256108849411650e-01  1.696570384383008e-17
-1.429999999999999e+00  8.256108849411650e-01  1.696570384383008e-17
-1.429999999999999e+00  8.256108849411650e-01  1.696570384383008e-17
-1.429999999999999e+00  8.256108849411650e-01  1.696570384383008e-17
-1.429999999999999e+00  8.256108849411650e-01  1.696570384383008e-17
-1.429999999999999e+00  8.256108849411650e-01  1.696570384383008e-17
-1.429999999999999e+00  8.256108849411650e-01  1.696570384383008e-17
-1.429999999999999e+00  8.256108849411650e-01  1.696570384383008e-17
-1.429999999999999e+00  8.256108849411650e-01  1.696570384383008e-17
-1.429999999999999e+00  8.256108849411650e-01  1.696570384383008e-17
-1.429999999999999e+00  8.256108849411650e-01  1.696570384383008e-17
-1.429999999999999e+00  8.256108849411650e-01  1.696570384383008e-17
-1.429999999999999e+00  8.256108849411650e-01  1.696570384383008e-17
-1.429999999999999e+00  8.256108849411650e-01  1.696570384383008e-17
-1.429999999999999e+00  8.256108849411650e-01  1.696570384383008e-17
-1.429999999999999e+00  8.256108849411650e-01  1.696570384383008e-17
-1.429999999999999e+00  8.256108849411650e-01  1.696570384383008e-17
-1.429999999999999e+00  8.256108849411650e-01  1.696570384383008e-17
-1.429999999999999e+00  8.256108849411650e-01  1.696570384383008e-17
-1.429999999999999e+00  8.256108849411650e-01  1.696570384383008e-17
-1.429999999999999e+00  8.256108849411650e-01  1.696570384383008e-17
-1.429999999999999e+00  8.256108849411650e-01  1.696570384383008e-17
-1.429999999999999e+00  8.256108849411650e-01  1.696570384383008e-17
-1.429999999999999e+00  8.256108849411650e-01  1.696570384383008e-17
-1.429999999999999e+00  8.256108849411650e-01  1.696570384383008e-17
-1.429999999999999e+00  8.256108849411650e-01  1.696570384383008e-17
-1.429999999999999e+00  8.256108849411650e-01  1.696570384383008e-17
-1.429999999999999e+00  8.256108849411650e-01  1.696570384383008e-17
-1.429999999999999e+00  8.256108849411650e-01  1.696570384383008e-17
-1.429999999999999e+00  8.256108849411650e-01  1.696570384383008e-17
-1.429999999999999e+00  8.256108849411650e-01  1.696570384383008e-17
-1.429999999999999e+00  8.256108849411650e-01  1.696570384383008e-17
-1.429999999999999e+00  8.256108849411650e-01  1.696570384383008e-17
-1.429999999999999e+00  8.256108849411650e-01  1.696570384383008e-17
-1.429999999999999e+00  8.256108849411650e-01  1.696570384383008e-17
-1.429999999999999e+00  8.256108849411650e-01  1.696570384383008e-17
-1.429999999999999e+00  8.256108849411650e-01  1.696570384383008e-17
-1.429999999999999e+00  8.256108849411650e-01  1.696570384383008e-17
-1.429999999999999e+00  8.256108849411650e-01  1.696570384383008e-17
-1.429999999999999e+00  8.256108849411650e-01  1.696570384383008e-17
-1.429999999999999e+00  8.256108849411650e-01  1.696570384383008e-17
-1.429999999999999e+00  8.256108849411650e-01  1.696570384383008e-17
-1.429999999999999e+00  8.256108849411650e-01  1.696570384383008e-17
-1.429999999999999e+00  8.256108849411650e-01  1.696570384383008e-17
-1.429999999999999e+00  8.256108849411650e-01  1.696570384383008e-17
-1.429999999999999e+00  8.256108849411650e-01  1.696570384383008e-17
-1.429999999999999e+00  8.256108849411650e-01  1.696570384383008e-17
-1.429999999999999e+00  8.256108849411650e-01  1.696570384383008e-17
-1.429999999999999e+00  8.256108849411650e-01  1.696570384383008e-17
-1.429999999999999e+00  8.256108849411650e-01  1.696570384383008e-17
-1.429999999999999e+00  8.256108849411650e-01  1.696570384383008e-17
-1.429999999999999e+00  8.256108849411650e-01  1.696570384383008e-17
-1.429999999999999e+00  8.256108849411650e-01  1.696570384383008e-17
-1.429999999999999e+00  8.256108849411650e-01  1.696570384383008e-17
-1.429999999999999e+00  8.256108849411650e-01  1.696570384383008e-17
-1.429999999999999e+00  8.256108849411650e-01  1.696570384383008e-17
-1.429999999999999e+00  8.256108849411650e-01  1.696570384383008e-17
-1.429999999999999e+00  8.256108849411650e-01  1.696570384383008e-17
-1.429999999999999e+00  8.256108849411650e-01  1.696570384383008e-17
-1.429999999999999e+00  8.256108849411650e-01  1.696570384383008e-17
-1.429999999999999e+00  8.256108849411650e-01  1.696570384383008e-17
-1.429999999999999e+00  8.256108849411650e-01  1.696570384383008e-17
-1.429999999999999e+00  8.256108849411650e-01  1.696570384383008e-17
-1.429999999999999e+00  8.256108849411650e-01  1.696570384383008e-17
-1.429999999999999e+00  8.256108849411650e-01  1.696570384383008e-17
-1.429999999999999e+00  8.256108849411650e-01  1.696570384383008e-17
-1.429999999999999e+00  8.256108849411650e-01  1.696570384383008e-17
-1.429999999999999e+00  8.256108849411650e-01  1.696570384383008e-17
-1.429999999999999e+00  8.256108849411650e-01  1.696570384383008e-17
-1.429999999999999e+00  8.256108849411650e-01  1.696570384383008e-17
-1.429999999999999e+00  8.256108849411650e-01  1.696570384383008e-17
-1.429999999999999e+00  8.256108849411650e-01  1.696570384383008e-17
-1.429999999999999e+00  8.256108849411650e-01  1.696570384383008e-17
-1.429999999999999e+00  8.256108849411650e-01  1.696570384383008e-17
-1.429999999999999e+00  8.256108849411650e-01  1.696570384383008e-17
-1.429999999999999e+00  8.256108849411650e-01  1.696570384383008e-17
-1.429999999999999e+00  8.256108849411650e-01  1.696570384383008e-17
-1.429999999999999e+00  8.256108849411650e-01  1.696570384383008e-17
-1.429999999999999e+00  8.256108849411650e-01  1.696570384383008e-17
-1.429999999999999e+00  8.256108849411650e-01  1.696570384383008e-17
-1.429999999999999e+00  8.256108849411650e-01  1.696570384383008e-17
-1.429999999999999e+00  8.256108849411650e-01  1.696570384383008e-17
-1.429999999999999e+00  8.256108849411650e-01  1.696570384383008e-17
-1.429999999999999e+00  8.256108849411650e-01  1.696570384383008e-17
-1.429999999999999e+00  8.256108849411650e-01  1.696570384383008e-17
-1.429999999999999e+00  8.256108849411650e-01  1.696570384383008e-17
-1.429999999999999e+00  8.256108849411650e-01  1.696570384383008e-17
-1.429999999999999e+00  8.256108849411650e-01  1.696570384383008e-17
-1.429999999999999e+00  8.256108849411650e-01  1.696570384383008e-17
-1.429999999999999e+00  8.256108849411650e-01  1.696570384383008e-17
-1.429999999999999e+00  8.256108849411650e-01  1.696570384383008e-17
-1.429999999999999e+00  8.256108849411650e-01  1.696570384383008e-17
-1.429999999999999e+00  8.256108849411650e-01  1.696570384383008e-17
-1.429999999999999e+00  8.256108849411650e-01  1.696570384383008e-17
-1.429999999999999e+00  8.256108849411650e-01  1.696570384383008e-17
-1.429999999999999e+00  8.256108849411650e-01  1.696570384383008e-17
-1.429999999999999e+00  8.256108849411650e-01  1.696570384383008e-17
-1.429999999999999e+00  8.256108849411650e-01  1.696570384383008e-17
-1.429999999999999e+00  8.256108849411650e-01  1.696570384383008e-17
-1.429999999999999e+00  8.256108849411650e-01  1.696570384383008e-17
-1.429999999999999e+00  8.256108849411650e-01  1.696570384383008e-17
-1.429999999999999e+00  8.256108849411650e-01  1.696570384383008e-17
-1.429999999999999e+00  8.256108849411650e-01  1.696570384383008e-17
-1.429999999999999e+00  8.256108849411650e-01  1.696570384383008e-17
-1.429999999999999e+00  8.256108849411650e-01  1.696570384383008e-17
-1.429999999999999e+00  8.256108849411650e-01  1.696570384383008e-17
-1.429999999999999e+00  8.256108849411650e-01  1.696570384383008e-17
-1.429999999999999e+00  8.256108849411650e-01  1.696570384383008e-17
-1.429999999999999e+00  8.256108849411650e-01  1.696570384383008e-17
-1.429999999999999e+00  8.256108849411650e-01  1.696570384383008e-17
-1.429999999999999e+00  8.256108849411650e-01  1.696570384383008e-17
-1.429999999999999e+00  8.256108849411650e-01  1.696570384383008e-17
-1.429999999999999e+00  8.256108849411650e-01  1.696570384383008e-17
-1.429999999999999e+00  8.256108849411650e-01  1.696570384383008e-17
-1.429999999999999e+00  8.256108849411650e-01  1.696570384383008e-17
-1.429999999999999e+00  8.256108849411650e-01  1.696570384383008e-17
-1.429999999999999e+00  8.256108849411650e-01  1.696570384383008e-17
-1.429999999999999e+00  8.256108849411650e-01  1.696570384383008e-17
-1.429999999999999e+00  8.256108849411650e-01  1.696570384383008e-17
-1.429999999999999e+00  8.256108849411650e-01  1.696570384383008e-17
-1.429999999999999e+00  8.256108849411650e-01  1.696570384383008e-17
-1.429999999999999e+00  8.256108849411650e-01  1.696570384383008e-17
-1.429999999999999e+00  8.256108849411650e-01  1.696570384383008e-17
-1.429999999999999e+00  8.256108849411650e-01  1.696570384383008e-17
-1.429999999999999e+00  8.256108849411650e-01  1.696570384383008e-17
-1.429999999999999e+00  8.256108849411650e-01  1.696570384383008e-17
-1.429999999999999e+00  8.256108849411650e-01  1.696570384383008e-17
-1.429999999999999e+00  8.256108849411650e-01  1.696570384383008e-17
-1.429999999999999e+00  8.256108849411650e-01  1.696570384383008e-17
-1.429999999999999e+00  8.256108849411650e-01  1.696570384383008e-17
-1.429999999999999e+00  8.256108849411650e-01  1.696570384383008e-17
-1.429999999999999e+00  8.256108849411650e-01  1.696570384383008e-17
-1.429999999999999e+00  8.256108849411650e-01  1.696570384383008e-17
-1.429999999999999e+00  8.256108849411650e-01  1.696570384383008e-17
-1.429999999999999e+00  8.256108849411650e-01  1.696570384383008e-17
-1.429999999999999e+00  8.256108849411650e-01  1.696570384383008e-17
-1.429999999999999e+00  8.256108849411650e-01  1.696570384383008e-17
-1.429999999999999e+00  8.256108849411650e-01  1.696570384383008e-17
-1.429999999999999e+00  8.256108849411650e-01  1.696570384383008e-17
-1.429999999999999e+00  8.256108849411650e-01  1.696570384383008e-17
-1.429999999999999e+00  8.256108849411650e-01  1.696570384383008e-17
-1.429999999999999e+00  8.256108849411650e-01  1.696570384383008e-17
-1.429999999999999e+00  8.256108849411650e-01  1.696570384383008e-17
-1.429999999999999e+00  8.256108849411650e-01  1.696570384383008e-17
-1.429999999999999e+00  8.256108849411650e-01  1.696570384383008e-17
-1.429999999999999e+00  8.256108849411650e-01  1.696570384383008e-17
-1.429999999999999e+00  8.256108849411650e-01  1.696570384383008e-17
-1.429999999999999e+00  8.256108849411650e-01  1.696570384383008e-17
-1.429999999999999e+00  8.256108849411650e-01  1.696570384383008e-17
-1.429999999999999e+00  8.256108849411650e-01  1.696570384383008e-17
-1.429999999999999e+00  8.256108849411650e-01  1.696570384383008e-17
-1.429999999999999e+00  8.256108849411650e-01  1.696570384383008e-17
-1.429999999999999e+00  8.256108849411650e-01  1.696570384383008e-17
-1.429999999999999e+00  8.256108849411650e-01  1.696570384383008e-17
-1.429999999999999e+00  8.256108849411650e-01  1.696570384383008e-17
-1.429999999999999e+00  8.256108849411650e-01  1.696570384383008e-17
-1.429999999999999e+00  8.256108849411650e-01  1.696570384383008e-17
-1.429999999999999e+00  8.256108849411650e-01  1.696570384383008e-17
-1.429999999999999e+00  8.256108849411650e-01  1.696570384383008e-17
-1.429999999999999e+00  8.256108849411650e-01  1.696570384383008e-17
-1.429999999999999e+00  8.256108849411650e-01  1.696570384383008e-17
-1.429999999999999e+00  8.256108849411650e-01  1.696570384383008e-17
-1.429999999999999e+00  8.256108849411650e-01  1.696570384383008e-17
-1.429999999999999e+00  8.256108849411650e-01  1.696570384383008e-17
-1.429999999999999e+00  8.256108849411650e-01  1.696570384383008e-17
-1.429999999999999e+00  8.256108849411650e-01  1.696570384383008e-17
-1.429999999999999e+00  8.256108849411650e-01  1.696570384383008e-17
-1.429999999999999e+00  8.256108849411650e-01  1.696570384383008e-17
-1.429999999999999e+00  8.256108849411650e-01  1.696570384383008e-17
-1.429999999999999e+00  8.256108849411650e-01  1.696570384383008e-17
-1.429999999999999e+00  8.256108849411650e-01  1.696570384383008e-17
-1.429999999999999e+00  8.256108849411650e-01  1.696570384383008e-17
-1.429999999999999e+00  8.256108849411650e-01  1.696570384383008e-17
-1.429999999999999e+00  8.256108849411650e-01  1.696570384383008e-17
-1.429999999999999e+00  8.256108849411650e-01  1.696570384383008e-17
-1.429999999999999e+00  8.256108849411650e-01  1.696570384383008e-17
-1.429999999999999e+00  8.256108849411650e-01  1.696570384383008e-17
-1.429999999999999e+00  8.256108849411650e-01  1.696570384383008e-17
-1.429999999999999e+00  8.256108849411650e-01  1.696570384383008e-17
-1.429999999999999e+00  8.256108849411650e-01  1.696570384383008e-17
-1.429999999999999e+00  8.256108849411650e-01  1.696570384383008e-17
-1.429999999999999e+00  8.256108849411650e-01  1.696570384383008e-17
-1.429999999999999e+00  8.256108849411650e-01  1.696570384383008e-17
-1.429999999999999e+00  8.256108849411650e-01  1.696570384383008e-17
-1.429999999999999e+00  8.256108849411650e-01  1.696570384383008e-17
-1.429999999999999e+00  8.256108849411650e-01  1.696570384383008e-17
-1.429999999999999e+00  8.256108849411650e-01  1.696570384383008e-17
-1.429999999999999e+00  8.256108849411650e-01  1.696570384383008e-17
-1.429999999999999e+00  8.256108849411650e-01  1.696570384383008e-17
-1.429999999999999e+00  8.256108849411650e-01  1.696570384383008e-17
-1.429999999999999e+00  8.256108849411650e-01  1.696570384383008e-17
-1.429999999999999e+00  8.256108849411650e-01  1.696570384383008e-17
-1.429999999999999e+00  8.256108849411650e-01  1.696570384383008e-17
-1.429999999999999e+00  8.256108849411650e-01  1.696570384383008e-17
-1.429999999999999e+00  8.256108849411650e-01  1.696570384383008e-17
-1.429999999999999e+00  8.256108849411650e-01  1.696570384383008e-17
-1.429999999999999e+00  8.256108849411650e-01  1.696570384383008e-17
-1.429999999999999e+00  8.256108849411650e-01  1.696570384383008e-17
-1.429999999999999e+00  8.256108849411650e-01  1.696570384383008e-17
-1.429999999999999e+00  8.256108849411650e-01  1.696570384383008e-17
-1.429999999999999e+00  8.256108849411650e-01  1.696570384383008e-17
-1.429999999999999e+00  8.256108849411650e-01  1.696570384383008e-17
-1.429999999999999e+00  8.256108849411650e-01  1.696570384383008e-17
-1.429999999999999e+00  8.256108849411650e-01  1.696570384383008e-17
-1.429999999999999e+00  8.256108849411650e-01  1.696570384383008e-17
-1.429999999999999e+00  8.256108849411650e-01  1.696570384383008e-17
-1.429999999999999e+00  8.256108849411650e-01  1.696570384383008e-17
-1.429999999999999e+00  8.256108849411650e-01  1.696570384383008e-17
-1.429999999999999e+00  8.256108849411650e-01  1.696570384383008e-17
-1.429999999999999e+00  8.256108849411650e-01  1.696570384383008e-17
-1.429999999999999e+00  8.256108849411650e-01  1.696570384383008e-17
-1.429999999999999e+00  8.256108849411650e-01  1.696570384383008e-17
-1.429999999999999e+00  8.256108849411650e-01  1.696570384383008e-17
-1.429999999999999e+00  8.256108849411650e-01  1.696570384383008e-17
-1.429999999999999e+00  8.256108849411650e-01  1.696570384383008e-17
-1.429999999999999e+00  8.256108849411650e-01  1.696570384383008e-17
-1.429999999999999e+00  8.256108849411650e-01  1.696570384383008e-17
-1.429999999999999e+00  8.256108849411650e-01  1.696570384383008e-17
-1.429999999999999e+00  8.256108849411650e-01  1.696570384383008e-17
-1.429999999999999e+00  8.256108849411650e-01  1.696570384383008e-17
-1.429999999999999e+00  8.256108849411650e-01  1.696570384383008e-17
-1.429999999999999e+00  8.256108849411650e-01  1.696570384383008e-17
-1.429999999999999e+00  8.256108849411650e-01  1.696570384383008e-17
-1.429999999999999e+00  8.256108849411650e-01  1.696570384383008e-17
-1.429999999999999e+00  8.256108849411650e-01  1.696570384383008e-17
-1.429999999999999e+00  8.256108849411650e-01  1.696570384383008e-17
-1.429999999999999e+00  8.256108849411650e-01  1.696570384383008e-17
-1.429999999999999e+00  8.256108849411650e-01  1.696570384383008e-17
-1.429999999999999e+00  8.256108849411650e-01  1.696570384383008e-17
-1.429999999999999e+00  8.256108849411650e-01  1.696570384383008e-17
-1.429999999999999e+00  8.256108849411650e-01  1.696570384383008e-17
-1.429999999999999e+00  8.256108849411650e-01  1.696570384383008e-17
-1.429999999999999e+00  8.256108849411650e-01  1.696570384383008e-17
-1.429999999999999e+00  8.256108849411650e-01  1.696570384383008e-17
-1.429999999999999e+00  8.256108849411650e-01  1.696570384383008e-17
-1.429999999999999e+00  8.256108849411650e-01  1.696570384383008e-17
-1.429999999999999e+00  8.256108849411650e-01  1.696570384383008e-17
-1.429999999999999e+00  8.256108849411650e-01  1.696570384383008e-17
-1.429999999999999e+00  8.256108849411650e-01  1.696570384383008e-17
-1.429999999999999e+00  8.256108849411650e-01  1.696570384383008e-17
-1.429999999999999e+00  8.256108849411650e-01  1.696570384383008e-17
-1.429999999999999e+00  8.256108849411650e-01  1.696570384383008e-17
-1.429999999999999e+00  8.256108849411650e-01  1.696570384383008e-17
-1.429999999999999e+00  8.256108849411650e-01  1.696570384383008e-17
-1.429999999999999e+00  8.256108849411650e-01  1.696570384383008e-17
-1.429999999999999e+00  8.256108849411650e-01  1.696570384383008e-17
-1.429999999999999e+00  8.256108849411650e-01  1.696570384383008e-17
-1.429999999999999e+00  8.256108849411650e-01  1.696570384383008e-17
-1.429999999999999e+00  8.256108849411650e-01  1.696570384383008e-17
-1.429999999999999e+00  8.256108849411650e-01  1.696570384383008e-17
-1.429999999999999e+00  8.256108849411650e-01  1.696570384383008e-17
-1.429999999999999e+00  8.256108849411650e-01  1.696570384383008e-17
-1.429999999999999e+00  8.256108849411650e-01  1.696570384383008e-17
-1.429999999999999e+00  8.256108849411650e-01  1.696570384383008e-17
-1.429999999999999e+00  8.256108849411650e-01  1.696570384383008e-17
-1.429999999999999e+00  8.256108849411650e-01  1.696570384383008e-17
-1.429999999999999e+00  8.256108849411650e-01  1.696570384383008e-17
-1.429999999999999e+00  8.256108849411650e-01  1.696570384383008e-17
-1.429999999999999e+00  8.256108849411650e-01  1.696570384383008e-17
-1.429999999999999e+00  8.256108849411650e-01  1.696570384383008e-17
-1.429999999999999e+00  8.256108849411650e-01  1.696570384383008e-17
-1.429999999999999e+00  8.256108849411650e-01  1.696570384383008e-17
-1.429999999999999e+00  8.256108849411650e-01  1.696570384383008e-17
-1.429999999999999e+00  8.256108849411650e-01  1.696570384383008e-17
-1.429999999999999e+00  8.256108849411650e-01  1.696570384383008e-17
-1.429999999999999e+00  8.256108849411650e-01  1.696570384383008e-17
-1.429999999999999e+00  8.256108849411650e-01  1.696570384383008e-17
-1.429999999999999e+00  8.256108849411650e-01  1.696570384383008e-17
-1.429999999999999e+00  8.256108849411650e-01  1.696570384383008e-17
-1.429999999999999e+00  8.256108849411650e-01  1.696570384383008e-17
-1.429999999999999e+00  8.256108849411650e-01  1.696570384383008e-17
-1.429999999999999e+00  8.256108849411650e-01  1.696570384383008e-17
-1.429999999999999e+00  8.256108849411650e-01  1.696570384383008e-17
-1.429999999999999e+00  8.256108849411650e-01  1.696570384383008e-17
-1.429999999999999e+00  8.256108849411650e-01  1.696570384383008e-17
-1.429999999999999e+00  8.256108849411650e-01  1.696570384383008e-17
-1.429999999999999e+00  8.256108849411650e-01  1.696570384383008e-17
-1.429999999999999e+00  8.256108849411650e-01  1.696570384383008e-17
-1.429999999999999e+00  8.256108849411650e-01  1.696570384383008e-17
-1.429999999999999e+00  8.256108849411650e-01  1.696570384383008e-17
-1.429999999999999e+00  8.256108849411650e-01  1.696570384383008e-17
-1.429999999999999e+00  8.256108849411650e-01  1.696570384383008e-17
-1.429999999999999e+00  8.256108849411650e-01  1.696570384383008e-17
-1.429999999999999e+00  8.256108849411650e-01  1.696570384383008e-17
-1.429999999999999e+00  8.256108849411650e-01  1.696570384383008e-17
-1.429999999999999e+00  8.256108849411650e-01  1.696570384383008e-17
-1.429999999999999e+00  8.256108849411650e-01  1.696570384383008e-17
-1.429999999999999e+00  8.256108849411650e-01  1.696570384383008e-17
-1.429999999999999e+00  8.256108849411650e-01  1.696570384383008e-17
-1.429999999999999e+00  8.256108849411650e-01  1.696570384383008e-17
-1.429999999999999e+00  8.256108849411650e-01  1.696570384383008e-17
-1.429999999999999e+00  8.256108849411650e-01  1.696570384383008e-17
-1.429999999999999e+00  8.256108849411650e-01  1.696570384383008e-17
-1.429999999999999e+00  8.256108849411650e-01  1.696570384383008e-17
-1.429999999999999e+00  8.256108849411650e-01  1.696570384383008e-17
-1.429999999999999e+00  8.256108849411650e-01  1.696570384383008e-17
-1.429999999999999e+00  8.256108849411650e-01  1.696570384383008e-17
-1.429999999999999e+00  8.256108849411650e-01  1.696570384383008e-17
-1.429999999999999e+00  8.256108849411650e-01  1.696570384383008e-17
-1.429999999999999e+00  8.256108849411650e-01  1.696570384383008e-17
-1.429999999999999e+00  8.256108849411650e-01  1.696570384383008e-17
-1.429999999999999e+00  8.256108849411650e-01  1.696570384383008e-17
-1.429999999999999e+00  8.256108849411650e-01  1.696570384383008e-17
-1.429999999999999e+00  8.256108849411650e-01  1.696570384383008e-17
-1.429999999999999e+00  8.256108849411650e-01  1.696570384383008e-17
-1.429999999999999e+00  8.256108849411650e-01  1.696570384383008e-17
-1.429999999999999e+00  8.256108849411650e-01  1.696570384383008e-17
-1.429999999999999e+00  8.256108849411650e-01  1.696570384383008e-17
-1.429999999999999e+00  8.256108849411650e-01  1.696570384383008e-17
-1.429999999999999e+00  8.256108849411650e-01  1.696570384383008e-17
-1.429999999999999e+00  8.256108849411650e-01  1.696570384383008e-17
-1.429999999999999e+00  8.256108849411650e-01  1.696570384383008e-17
-1.429999999999999e+00  8.256108849411650e-01  1.696570384383008e-17
-1.429999999999999e+00  8.256108849411650e-01  1.696570384383008e-17
-1.429999999999999e+00  8.256108849411650e-01  1.696570384383008e-17
-1.429999999999999e+00  8.256108849411650e-01  1.696570384383008e-17
-1.429999999999999e+00  8.256108849411650e-01  1.696570384383008e-17
-1.429999999999999e+00  8.256108849411650e-01  1.696570384383008e-17
-1.429999999999999e+00  8.256108849411650e-01  1.696570384383008e-17
-1.429999999999999e+00  8.256108849411650e-01  1.696570384383008e-17
-1.429999999999999e+00  8.256108849411650e-01  1.696570384383008e-17
-1.429999999999999e+00  8.256108849411650e-01  1.696570384383008e-17
-1.429999999999999e+00  8.256108849411650e-01  1.696570384383008e-17
-1.429999999999999e+00  8.256108849411650e-01  1.696570384383008e-17
-1.429999999999999e+00  8.256108849411650e-01  1.696570384383008e-17
-1.429999999999999e+00  8.256108849411650e-01  1.696570384383008e-17
-1.429999999999999e+00  8.256108849411650e-01  1.696570384383008e-17
-1.429999999999999e+00  8.256108849411650e-01  1.696570384383008e-17
-1.429999999999999e+00  8.256108849411650e-01  1.696570384383008e-17
-1.429999999999999e+00  8.256108849411650e-01  1.696570384383008e-17
-1.429999999999999e+00  8.256108849411650e-01  1.696570384383008e-17
-1.429999999999999e+00  8.256108849411650e-01  1.696570384383008e-17
-1.429999999999999e+00  8.256108849411650e-01  1.696570384383008e-17
-1.429999999999999e+00  8.256108849411650e-01  1.696570384383008e-17
-1.429999999999999e+00  8.256108849411650e-01  1.696570384383008e-17
-1.429999999999999e+00  8.256108849411650e-01  1.696570384383008e-17
-1.429999999999999e+00  8.256108849411650e-01  1.696570384383008e-17
-1.429999999999999e+00  8.256108849411650e-01  1.696570384383008e-17
-1.429999999999999e+00  8.256108849411650e-01  1.696570384383008e-17
-1.429999999999999e+00  8.256108849411650e-01  1.696570384383008e-17
-1.429999999999999e+00  8.256108849411650e-01  1.696570384383008e-17
-1.429999999999999e+00  8.256108849411650e-01  1.696570384383008e-17
-1.429999999999999e+00  8.256108849411650e-01  1.696570384383008e-17
-1.429999999999999e+00  8.256108849411650e-01  1.696570384383008e-17
-1.429999999999999e+00  8.256108849411650e-01  1.696570384383008e-17
-1.429999999999999e+00  8.256108849411650e-01  1.696570384383008e-17
-1.429999999999999e+00  8.256108849411650e-01  1.696570384383008e-17
-1.429999999999999e+00  8.256108849411650e-01  1.696570384383008e-17
-1.429999999999999e+00  8.256108849411650e-01  1.696570384383008e-17
-1.429999999999999e+00  8.256108849411650e-01  1.696570384383008e-17
-1.429999999999999e+00  8.256108849411650e-01  1.696570384383008e-17
-1.429999999999999e+00  8.256108849411650e-01  1.696570384383008e-17
-1.429999999999999e+00  8.256108849411650e-01  1.696570384383008e-17
-1.429999999999999e+00  8.256108849411650e-01  1.696570384383008e-17
-1.429999999999999e+00  8.256108849411650e-01  1.696570384383008e-17
-1.429999999999999e+00  8.256108849411650e-01  1.696570384383008e-17
-1.429999999999999e+00  8.256108849411650e-01  1.696570384383008e-17
-1.429999999999999e+00  8.256108849411650e-01  1.696570384383008e-17
-1.429999999999999e+00  8.256108849411650e-01  1.696570384383008e-17
-1.429999999999999e+00  8.256108849411650e-01  1.696570384383008e-17
-1.429999999999999e+00  8.256108849411650e-01  1.696570384383008e-17
-1.429999999999999e+00  8.256108849411650e-01  1.696570384383008e-17
-1.429999999999999e+00  8.256108849411650e-01  1.696570384383008e-17
-1.429999999999999e+00  8.256108849411650e-01  1.696570384383008e-17
-1.429999999999999e+00  8.256108849411650e-01  1.696570384383008e-17
-1.429999999999999e+00  8.256108849411650e-01  1.696570384383008e-17
-1.429999999999999e+00  8.256108849411650e-01  1.696570384383008e-17
-1.429999999999999e+00  8.256108849411650e-01  1.696570384383008e-17
-1.429999999999999e+00  8.256108849411650e-01  1.696570384383008e-17
-1.429999999999999e+00  8.256108849411650e-01  1.696570384383008e-17
-1.429999999999999e+00  8.256108849411650e-01  1.696570384383008e-17
-1.429999999999999e+00  8.256108849411650e-01  1.696570384383008e-17
-1.429999999999999e+00  8.256108849411650e-01  1.696570384383008e-17
-1.429999999999999e+00  8.256108849411650e-01  1.696570384383008e-17
-1.429999999999999e+00  8.256108849411650e-01  1.696570384383008e-17
-1.429999999999999e+00  8.256108849411650e-01  1.696570384383008e-17
-1.429999999999999e+00  8.256108849411650e-01  1.696570384383008e-17
-1.429999999999999e+00  8.256108849411650e-01  1.696570384383008e-17
-1.429999999999999e+00  8.256108849411650e-01  1.696570384383008e-17
-1.429999999999999e+00  8.256108849411650e-01  1.696570384383008e-17
-1.429999999999999e+00  8.256108849411650e-01  1.696570384383008e-17
-1.429999999999999e+00  8.256108849411650e-01  1.696570384383008e-17
-1.429999999999999e+00  8.256108849411650e-01  1.696570384383008e-17
-1.429999999999999e+00  8.256108849411650e-01  1.696570384383008e-17
-1.429999999999999e+00  8.256108849411650e-01  1.696570384383008e-17
-1.429999999999999e+00  8.256108849411650e-01  1.696570384383008e-17
-1.429999999999999e+00  8.256108849411650e-01  1.696570384383008e-17
-1.429999999999999e+00  8.256108849411650e-01  1.696570384383008e-17
-1.429999999999999e+00  8.256108849411650e-01  1.696570384383008e-17
-1.429999999999999e+00  8.256108849411650e-01  1.696570384383008e-17
-1.429999999999999e+00  8.256108849411650e-01  1.696570384383008e-17
-1.429999999999999e+00  8.256108849411650e-01  1.696570384383008e-17
-1.429999999999999e+00  8.256108849411650e-01  1.696570384383008e-17
-1.429999999999999e+00  8.256108849411650e-01  1.696570384383008e-17
-1.429999999999999e+00  8.256108849411650e-01  1.696570384383008e-17
-1.429999999999999e+00  8.256108849411650e-01  1.696570384383008e-17
-1.429999999999999e+00  8.256108849411650e-01  1.696570384383008e-17
-1.429999999999999e+00  8.256108849411650e-01  1.696570384383008e-17
-1.429999999999999e+00  8.256108849411650e-01  1.696570384383008e-17
-1.429999999999999e+00  8.256108849411650e-01  1.696570384383008e-17
-1.429999999999999e+00  8.256108849411650e-01  1.696570384383008e-17
-1.429999999999999e+00  8.256108849411650e-01  1.696570384383008e-17
-1.429999999999999e+00  8.256108849411650e-01  1.696570384383008e-17
-1.429999999999999e+00  8.256108849411650e-01  1.696570384383008e-17
-1.429999999999999e+00  8.256108849411650e-01  1.696570384383008e-17
-1.429999999999999e+00  8.256108849411650e-01  1.696570384383008e-17
-1.429999999999999e+00  8.256108849411650e-01  1.696570384383008e-17
-1.429999999999999e+00  8.256108849411650e-01  1.696570384383008e-17
-1.429999999999999e+00  8.256108849411650e-01  1.696570384383008e-17
-1.429999999999999e+00  8.256108849411650e-01  1.696570384383008e-17
-1.429999999999999e+00  8.256108849411650e-01  1.696570384383008e-17
-1.429999999999999e+00  8.256108849411650e-01  1.696570384383008e-17
-1.429999999999999e+00  8.256108849411650e-01  1.696570384383008e-17
-1.429999999999999e+00  8.256108849411650e-01  1.696570384383008e-17
-1.429999999999999e+00  8.256108849411650e-01  1.696570384383008e-17
-1.429999999999999e+00  8.256108849411650e-01  1.696570384383008e-17
-1.429999999999999e+00  8.256108849411650e-01  1.696570384383008e-17
-1.429999999999999e+00  8.256108849411650e-01  1.696570384383008e-17
-1.429999999999999e+00  8.256108849411650e-01  1.696570384383008e-17
-1.429999999999999e+00  8.256108849411650e-01  1.696570384383008e-17
-1.429999999999999e+00  8.256108849411650e-01  1.696570384383008e-17
-1.429999999999999e+00  8.256108849411650e-01  1.696570384383008e-17
-1.429999999999999e+00  8.256108849411650e-01  1.696570384383008e-17
-1.429999999999999e+00  8.256108849411650e-01  1.696570384383008e-17
-1.429999999999999e+00  8.256108849411650e-01  1.696570384383008e-17
-1.429999999999999e+00  8.256108849411650e-01  1.696570384383008e-17
-1.429999999999999e+00  8.256108849411650e-01  1.696570384383008e-17
-1.429999999999999e+00  8.256108849411650e-01  1.696570384383008e-17
-1.429999999999999e+00  8.256108849411650e-01  1.696570384383008e-17
-1.429999999999999e+00  8.256108849411650e-01  1.696570384383008e-17
-1.429999999999999e+00  8.256108849411650e-01  1.696570384383008e-17
-1.429999999999999e+00  8.256108849411650e-01  1.696570384383008e-17
-1.429999999999999e+00  8.256108849411650e-01  1.696570384383008e-17
-1.429999999999999e+00  8.256108849411650e-01  1.696570384383008e-17
-1.429999999999999e+00  8.256108849411650e-01  1.696570384383008e-17
-1.429999999999999e+00  8.256108849411650e-01  1.696570384383008e-17
-1.429999999999999e+00  8.256108849411650e-01  1.696570384383008e-17
-1.429999999999999e+00  8.256108849411650e-01  1.696570384383008e-17
-1.429999999999999e+00  8.256108849411650e-01  1.696570384383008e-17
-1.429999999999999e+00  8.256108849411650e-01  1.696570384383008e-17
-1.429999999999999e+00  8.256108849411650e-01  1.696570384383008e-17
-1.429999999999999e+00  8.256108849411650e-01  1.696570384383008e-17
-1.429999999999999e+00  8.256108849411650e-01  1.696570384383008e-17
-1.429999999999999e+00  8.256108849411650e-01  1.696570384383008e-17
-1.429999999999999e+00  8.256108849411650e-01  1.696570384383008e-17
-1.429999999999999e+00  8.256108849411650e-01  1.696570384383008e-17
-1.429999999999999e+00  8.256108849411650e-01  1.696570384383008e-17
-1.429999999999999e+00  8.256108849411650e-01  1.696570384383008e-17
-1.429999999999999e+00  8.256108849411650e-01  1.696570384383008e-17
-1.429999999999999e+00  8.256108849411650e-01  1.696570384383008e-17
-1.429999999999999e+00  8.256108849411650e-01  1.696570384383008e-17
-1.429999999999999e+00  8.256108849411650e-01  1.696570384383008e-17
-1.429999999999999e+00  8.256108849411650e-01  1.696570384383008e-17
-1.429999999999999e+00  8.256108849411650e-01  1.696570384383008e-17
-1.429999999999999e+00  8.256108849411650e-01  1.696570384383008e-17
-1.429999999999999e+00  8.256108849411650e-01  1.696570384383008e-17
-1.429999999999999e+00  8.256108849411650e-01  1.696570384383008e-17
-1.429999999999999e+00  8.256108849411650e-01  1.696570384383008e-17
-1.429999999999999e+00  8.256108849411650e-01  1.696570384383008e-17
-1.429999999999999e+00  8.256108849411650e-01  1.696570384383008e-17
-1.429999999999999e+00  8.256108849411650e-01  1.696570384383008e-17
-1.429999999999999e+00  8.256108849411650e-01  1.696570384383008e-17
-1.429999999999999e+00  8.256108849411650e-01  1.696570384383008e-17
-1.429999999999999e+00  8.256108849411650e-01  1.696570384383008e-17
-1.429999999999999e+00  8.256108849411650e-01  1.696570384383008e-17
-1.429999999999999e+00  8.256108849411650e-01  1.696570384383008e-17
-1.429999999999999e+00  8.256108849411650e-01  1.696570384383008e-17
-1.429999999999999e+00  8.256108849411650e-01  1.696570384383008e-17
-1.429999999999999e+00  8.256108849411650e-01  1.696570384383008e-17
-1.429999999999999e+00  8.256108849411650e-01  1.696570384383008e-17
-1.429999999999999e+00  8.256108849411650e-01  1.696570384383008e-17
-1.429999999999999e+00  8.256108849411650e-01  1.696570384383008e-17
-1.429999999999999e+00  8.256108849411650e-01  1.696570384383008e-17
-1.429999999999999e+00  8.256108849411650e-01  1.696570384383008e-17
-1.429999999999999e+00  8.256108849411650e-01  1.696570384383008e-17
-1.429999999999999e+00  8.256108849411650e-01  1.696570384383008e-17
-1.429999999999999e+00  8.256108849411650e-01  1.696570384383008e-17
-1.429999999999999e+00  8.256108849411650e-01  1.696570384383008e-17
-1.429999999999999e+00  8.256108849411650e-01  1.696570384383008e-17
-1.429999999999999e+00  8.256108849411650e-01  1.696570384383008e-17
-1.429999999999999e+00  8.256108849411650e-01  1.696570384383008e-17
-1.429999999999999e+00  8.256108849411650e-01  1.696570384383008e-17
-1.429999999999999e+00  8.256108849411650e-01  1.696570384383008e-17
-1.429999999999999e+00  8.256108849411650e-01  1.696570384383008e-17
-1.429999999999999e+00  8.256108849411650e-01  1.696570384383008e-17
-1.429999999999999e+00  8.256108849411650e-01  1.696570384383008e-17
-1.429999999999999e+00  8.256108849411650e-01  1.696570384383008e-17
-1.429999999999999e+00  8.256108849411650e-01  1.696570384383008e-17
-1.429999999999999e+00  8.256108849411650e-01  1.696570384383008e-17
-1.429999999999999e+00  8.256108849411650e-01  1.696570384383008e-17
-1.429999999999999e+00  8.256108849411650e-01  1.696570384383008e-17
-1.429999999999999e+00  8.256108849411650e-01  1.696570384383008e-17
-1.429999999999999e+00  8.256108849411650e-01  1.696570384383008e-17
-1.429999999999999e+00  8.256108849411650e-01  1.696570384383008e-17
-1.429999999999999e+00  8.256108849411650e-01  1.696570384383008e-17
-1.429999999999999e+00  8.256108849411650e-01  1.696570384383008e-17
-1.429999999999999e+00  8.256108849411650e-01  1.696570384383008e-17
-1.429999999999999e+00  8.256108849411650e-01  1.696570384383008e-17
-1.429999999999999e+00  8.256108849411650e-01  1.696570384383008e-17
-1.429999999999999e+00  8.256108849411650e-01  1.696570384383008e-17
-1.429999999999999e+00  8.256108849411650e-01  1.696570384383008e-17
-1.429999999999999e+00  8.256108849411650e-01  1.696570384383008e-17
-1.429999999999999e+00  8.256108849411650e-01  1.696570384383008e-17
-1.429999999999999e+00  8.256108849411650e-01  1.696570384383008e-17
-1.429999999999999e+00  8.256108849411650e-01  1.696570384383008e-17
-1.429999999999999e+00  8.256108849411650e-01  1.696570384383008e-17
-1.429999999999999e+00  8.256108849411650e-01  1.696570384383008e-17
-1.429999999999999e+00  8.256108849411650e-01  1.696570384383008e-17
-1.429999999999999e+00  8.256108849411650e-01  1.696570384383008e-17
-1.429999999999999e+00  8.256108849411650e-01  1.696570384383008e-17
-1.429999999999999e+00  8.256108849411650e-01  1.696570384383008e-17
-1.429999999999999e+00  8.256108849411650e-01  1.696570384383008e-17
-1.429999999999999e+00  8.256108849411650e-01  1.696570384383008e-17
-1.429999999999999e+00  8.256108849411650e-01  1.696570384383008e-17
-1.429999999999999e+00  8.256108849411650e-01  1.696570384383008e-17
-1.429999999999999e+00  8.256108849411650e-01  1.696570384383008e-17
-1.429999999999999e+00  8.256108849411650e-01  1.696570384383008e-17
-1.429999999999999e+00  8.256108849411650e-01  1.696570384383008e-17
-1.429999999999999e+00  8.256108849411650e-01  1.696570384383008e-17
-1.429999999999999e+00  8.256108849411650e-01  1.696570384383008e-17
-1.429999999999999e+00  8.256108849411650e-01  1.696570384383008e-17
-1.429999999999999e+00  8.256108849411650e-01  1.696570384383008e-17
-1.429999999999999e+00  8.256108849411650e-01  1.696570384383008e-17
-1.429999999999999e+00  8.256108849411650e-01  1.696570384383008e-17
-1.429999999999999e+00  8.256108849411650e-01  1.696570384383008e-17
-1.429999999999999e+00  8.256108849411650e-01  1.696570384383008e-17
-1.429999999999999e+00  8.256108849411650e-01  1.696570384383008e-17
-1.429999999999999e+00  8.256108849411650e-01  1.696570384383008e-17
-1.429999999999999e+00  8.256108849411650e-01  1.696570384383008e-17
-1.429999999999999e+00  8.256108849411650e-01  1.696570384383008e-17
-1.429999999999999e+00  8.256108849411650e-01  1.696570384383008e-17
-1.429999999999999e+00  8.256108849411650e-01  1.696570384383008e-17
-1.429999999999999e+00  8.256108849411650e-01  1.696570384383008e-17
-1.429999999999999e+00  8.256108849411650e-01  1.696570384383008e-17
-1.429999999999999e+00  8.256108849411650e-01  1.696570384383008e-17
-1.429999999999999e+00  8.256108849411650e-01  1.696570384383008e-17
-1.429999999999999e+00  8.256108849411650e-01  1.696570384383008e-17
-1.429999999999999e+00  8.256108849411650e-01  1.696570384383008e-17
-1.429999999999999e+00  8.256108849411650e-01  1.696570384383008e-17
-1.429999999999999e+00  8.256108849411650e-01  1.696570384383008e-17
-1.429999999999999e+00  8.256108849411650e-01  1.696570384383008e-17
-1.429999999999999e+00  8.256108849411650e-01  1.696570384383008e-17
-1.429999999999999e+00  8.256108849411650e-01  1.696570384383008e-17
-1.429999999999999e+00  8.256108849411650e-01  1.696570384383008e-17
-1.429999999999999e+00  8.256108849411650e-01  1.696570384383008e-17
-1.429999999999999e+00  8.256108849411650e-01  1.696570384383008e-17
-1.429999999999999e+00  8.256108849411650e-01  1.696570384383008e-17
-1.429999999999999e+00  8.256108849411650e-01  1.696570384383008e-17
-1.429999999999999e+00  8.256108849411650e-01  1.696570384383008e-17
-1.429999999999999e+00  8.256108849411650e-01  1.696570384383008e-17
-1.429999999999999e+00  8.256108849411650e-01  1.696570384383008e-17
-1.429999999999999e+00  8.256108849411650e-01  1.696570384383008e-17
-1.429999999999999e+00  8.256108849411650e-01  1.696570384383008e-17
-1.429999999999999e+00  8.256108849411650e-01  1.696570384383008e-17
-1.429999999999999e+00  8.256108849411650e-01  1.696570384383008e-17
-1.429999999999999e+00  8.256108849411650e-01  1.696570384383008e-17
-1.429999999999999e+00  8.256108849411650e-01  1.696570384383008e-17
-1.429999999999999e+00  8.256108849411650e-01  1.696570384383008e-17
-1.429999999999999e+00  8.256108849411650e-01  1.696570384383008e-17
-1.429999999999999e+00  8.256108849411650e-01  1.696570384383008e-17
-1.429999999999999e+00  8.256108849411650e-01  1.696570384383008e-17
-1.429999999999999e+00  8.256108849411650e-01  1.696570384383008e-17
-1.429999999999999e+00  8.256108849411650e-01  1.696570384383008e-17
-1.429999999999999e+00  8.256108849411650e-01  1.696570384383008e-17
-1.429999999999999e+00  8.256108849411650e-01  1.696570384383008e-17
-1.429999999999999e+00  8.256108849411650e-01  1.696570384383008e-17
-1.429999999999999e+00  8.256108849411650e-01  1.696570384383008e-17
-1.429999999999999e+00  8.256108849411650e-01  1.696570384383008e-17
-1.429999999999999e+00  8.256108849411650e-01  1.696570384383008e-17
-1.429999999999999e+00  8.256108849411650e-01  1.696570384383008e-17
-1.429999999999999e+00  8.256108849411650e-01  1.696570384383008e-17
-1.429999999999999e+00  8.256108849411650e-01  1.696570384383008e-17
-1.429999999999999e+00  8.256108849411650e-01  1.696570384383008e-17
-1.429999999999999e+00  8.256108849411650e-01  1.696570384383008e-17
-1.429999999999999e+00  8.256108849411650e-01  1.696570384383008e-17
-1.429999999999999e+00  8.256108849411650e-01  1.696570384383008e-17
-1.429999999999999e+00  8.256108849411650e-01  1.696570384383008e-17
-1.429999999999999e+00  8.256108849411650e-01  1.696570384383008e-17
-1.429999999999999e+00  8.256108849411650e-01  1.696570384383008e-17
-1.429999999999999e+00  8.256108849411650e-01  1.696570384383008e-17
-1.429999999999999e+00  8.256108849411650e-01  1.696570384383008e-17
-1.429999999999999e+00  8.256108849411650e-01  1.696570384383008e-17
-1.429999999999999e+00  8.256108849411650e-01  1.696570384383008e-17
-1.429999999999999e+00  8.256108849411650e-01  1.696570384383008e-17
-1.429999999999999e+00  8.256108849411650e-01  1.696570384383008e-17
-1.429999999999999e+00  8.256108849411650e-01  1.696570384383008e-17
-1.429999999999999e+00  8.256108849411650e-01  1.696570384383008e-17
-1.429999999999999e+00  8.256108849411650e-01  1.696570384383008e-17
-1.429999999999999e+00  8.256108849411650e-01  1.696570384383008e-17
-1.429999999999999e+00  8.256108849411650e-01  1.696570384383008e-17
-1.429999999999999e+00  8.256108849411650e-01  1.696570384383008e-17
-1.429999999999999e+00  8.256108849411650e-01  1.696570384383008e-17
-1.429999999999999e+00  8.256108849411650e-01  1.696570384383008e-17
-1.429999999999999e+00  8.256108849411650e-01  1.696570384383008e-17
-1.429999999999999e+00  8.256108849411650e-01  1.696570384383008e-17
-1.429999999999999e+00  8.256108849411650e-01  1.696570384383008e-17
-1.429999999999999e+00  8.256108849411650e-01  1.696570384383008e-17
-1.429999999999999e+00  8.256108849411650e-01  1.696570384383008e-17
-1.429999999999999e+00  8.256108849411650e-01  1.696570384383008e-17
-1.429999999999999e+00  8.256108849411650e-01  1.696570384383008e-17
-1.429999999999999e+00  8.256108849411650e-01  1.696570384383008e-17
-1.429999999999999e+00  8.256108849411650e-01  1.696570384383008e-17
-1.429999999999999e+00  8.256108849411650e-01  1.696570384383008e-17
-1.429999999999999e+00  8.256108849411650e-01  1.696570384383008e-17
-1.429999999999999e+00  8.256108849411650e-01  1.696570384383008e-17
-1.429999999999999e+00  8.256108849411650e-01  1.696570384383008e-17
-1.429999999999999e+00  8.256108849411650e-01  1.696570384383008e-17
-1.429999999999999e+00  8.256108849411650e-01  1.696570384383008e-17
-1.429999999999999e+00  8.256108849411650e-01  1.696570384383008e-17
-1.429999999999999e+00  8.256108849411650e-01  1.696570384383008e-17
-1.429999999999999e+00  8.256108849411650e-01  1.696570384383008e-17
-1.429999999999999e+00  8.256108849411650e-01  1.696570384383008e-17
-1.429999999999999e+00  8.256108849411650e-01  1.696570384383008e-17
-1.429999999999999e+00  8.256108849411650e-01  1.696570384383008e-17
-1.429999999999999e+00  8.256108849411650e-01  1.696570384383008e-17
-1.429999999999999e+00  8.256108849411650e-01  1.696570384383008e-17
-1.429999999999999e+00  8.256108849411650e-01  1.696570384383008e-17
-1.429999999999999e+00  8.256108849411650e-01  1.696570384383008e-17
-1.429999999999999e+00  8.256108849411650e-01  1.696570384383008e-17
-1.429999999999999e+00  8.256108849411650e-01  1.696570384383008e-17
-1.429999999999999e+00  8.256108849411650e-01  1.696570384383008e-17
-1.429999999999999e+00  8.256108849411650e-01  1.696570384383008e-17
-1.429999999999999e+00  8.256108849411650e-01  1.696570384383008e-17
-1.429999999999999e+00  8.256108849411650e-01  1.696570384383008e-17
-1.429999999999999e+00  8.256108849411650e-01  1.696570384383008e-17
-1.429999999999999e+00  8.256108849411650e-01  1.696570384383008e-17
-1.429999999999999e+00  8.256108849411650e-01  1.696570384383008e-17
-1.429999999999999e+00  8.256108849411650e-01  1.696570384383008e-17
-1.429999999999999e+00  8.256108849411650e-01  1.696570384383008e-17
-1.429999999999999e+00  8.256108849411650e-01  1.696570384383008e-17
-1.429999999999999e+00  8.256108849411650e-01  1.696570384383008e-17
-1.429999999999999e+00  8.256108849411650e-01  1.696570384383008e-17
-1.429999999999999e+00  8.256108849411650e-01  1.696570384383008e-17
-1.429999999999999e+00  8.256108849411650e-01  1.696570384383008e-17
-1.429999999999999e+00  8.256108849411650e-01  1.696570384383008e-17
-1.429999999999999e+00  8.256108849411650e-01  1.696570384383008e-17
-1.429999999999999e+00  8.256108849411650e-01  1.696570384383008e-17
-1.429999999999999e+00  8.256108849411650e-01  1.696570384383008e-17
-1.429999999999999e+00  8.256108849411650e-01  1.696570384383008e-17
-1.429999999999999e+00  8.256108849411650e-01  1.696570384383008e-17
-1.429999999999999e+00  8.256108849411650e-01  1.696570384383008e-17
-1.429999999999999e+00  8.256108849411650e-01  1.696570384383008e-17
-1.429999999999999e+00  8.256108849411650e-01  1.696570384383008e-17
-1.429999999999999e+00  8.256108849411650e-01  1.696570384383008e-17
-1.429999999999999e+00  8.256108849411650e-01  1.696570384383008e-17
-1.429999999999999e+00  8.256108849411650e-01  1.696570384383008e-17
-1.429999999999999e+00  8.256108849411650e-01  1.696570384383008e-17
-1.429999999999999e+00  8.256108849411650e-01  1.696570384383008e-17
-1.429999999999999e+00  8.256108849411650e-01  1.696570384383008e-17
-1.429999999999999e+00  8.256108849411650e-01  1.696570384383008e-17
-1.429999999999999e+00  8.256108849411650e-01  1.696570384383008e-17
 1.429999999999999e+00 -8.256108849411650e-01 -1.696570384383008e-17
-1.429999999999999e+00  8.256108849411650e-01  1.696570384383008e-17
 1.429999999999999e+00 -8.256108849411650e-01 -1.696570384383008e-17
 1.429999999999999e+00 -8.256108849411650e-01 -1.696570384383008e-17
 1.429999999999999e+00 -8.256108849411650e-01 -1.696570384383008e-17
 1.429999999999999e+00 -8.256108849411650e-01 -1.696570384383008e-17
 1.429999999999999e+00 -8.256108849411650e-01 -1.696570384383008e-17
 1.429999999999999e+00 -8.256108849411650e-01 -1.696570384383008e-17
 1.429999999999999e+00 -8.256108849411650e-01 -1.696570384383008e-17
 1.429999999999999e+00 -8.256108849411650e-01 -1.696570384383008e-17
 1.429999999999999e+00 -8.256108849411650e-01 -1.696570384383008e-17
 1.429999999999999e+00 -8.256108849411650e-01 -1.696570384383008e-17
 1.429999999999999e+00 -8.256108849411650e-01 -1.696570384383008e-17
 1.429999999999999e+00 -8.256108849411650e-01 -1.696570384383008e-17
 1.429999999999999e+00 -8.256108849411650e-01 -1.696570384383008e-17
 1.429999999999999e+00 -8.256108849411650e-01 -1.696570384383008e-17
 1.429999999999999e+00 -8.256108849411650e-01 -1.696570384383008e-17
 1.429999999999999e+00 -8.256108849411650e-01 -1.696570384383008e-17
 1.429999999999999e+00 -8.256108849411650e-01 -1.696570384383008e-17
 1.429999999999999e+00 -8.256108849411650e-01 -1.696570384383008e-17
 1.429999999999999e+00 -8.256108849411650e-01 -1.696570384383008e-17
 1.429999999999999e+00 -8.256108849411650e-01 -1.696570384383008e-17
 1.429999999999999e+00 -8.256108849411650e-01 -1.696570384383008e-17
 1.429999999999999e+00 -8.256108849411650e-01 -1.696570384383008e-17
 1.429999999999999e+00 -8.256108849411650e-01 -1.696570384383008e-17
 1.429999999999999e+00 -8.256108849411650e-01 -1.696570384383008e-17
 1.429999999999999e+00 -8.256108849411650e-01 -1.696570384383008e-17
 1.429999999999999e+00 -8.256108849411650e-01 -1.696570384383008e-17
 1.429999999999999e+00 -8.256108849411650e-01 -1.696570384383008e-17
 1.429999999999999e+00 -8.256108849411650e-01 -1.696570384383008e-17
 1.429999999999999e+00 -8.256108849411650e-01 -1.696570384383008e-17
 1.429999999999999e+00 -8.256108849411650e-01 -1.696570384383008e-17
 1.429999999999999e+00 -8.256108849411650e-01 -1.696570384383008e-17
 1.429999999999999e+00 -8.256108849411650e-01 -1.696570384383008e-17
 1.429999999999999e+00 -8.256108849411650e-01 -1.696570384383008e-17
 1.429999999999999e+00 -8.256108849411650e-01 -1.696570384383008e-17
 1.429999999999999e+00 -8.256108849411650e-01 -1.696570384383008e-17
 1.429999999999999e+00 -8.256108849411650e-01 -1.696570384383008e-17
 1.429999999999999e+00 -8.256108849411650e-01 -1.696570384383008e-17
 1.429999999999999e+00 -8.256108849411650e-01 -1.696570384383008e-17
 1.429999999999999e+00 -8.256108849411650e-01 -1.696570384383008e-17
 1.429999999999999e+00 -8.256108849411650e-01 -1.696570384383008e-17
 1.429999999999999e+00 -8.256108849411650e-01 -1.696570384383008e-17
 1.429999999999999e+00 -8.256108849411650e-01 -1.696570384383008e-17
 1.429999999999999e+00 -8.256108849411650e-01 -1.696570384383008e-17
 1.429999999999999e+00 -8.256108849411650e-01 -1.696570384383008e-17
 1.429999999999999e+00 -8.256108849411650e-01 -1.696570384383008e-17
 1.429999999999999e+00 -8.256108849411650e-01 -1.696570384383008e-17
 1.429999999999999e+00 -8.256108849411650e-01 -1.696570384383008e-17
 1.429999999999999e+00 -8.256108849411650e-01 -1.696570384383008e-17
 1.429999999999999e+00 -8.256108849411650e-01 -1.696570384383008e-17
 1.429999999999999e+00 -8.256108849411650e-01 -1.696570384383008e-17
 1.429999999999999e+00 -8.256108849411650e-01 -1.696570384383008e-17
 1.429999999999999e+00 -8.256108849411650e-01 -1.696570384383008e-17
 1.429999999999999e+00 -8.256108849411650e-01 -1.696570384383008e-17
 1.429999999999999e+00 -8.256108849411650e-01 -1.696570384383008e-17
 1.429999999999999e+00 -8.256108849411650e-01 -1.696570384383008e-17
 1.429999999999999e+00 -8.256108849411650e-01 -1.696570384383008e-17
 1.429999999999999e+00 -8.256108849411650e-01 -1.696570384383008e-17
 1.429999999999999e+00 -8.256108849411650e-01 -1.696570384383008e-17
 1.429999999999999e+00 -8.256108849411650e-01 -1.696570384383008e-17
 1.429999999999999e+00 -8.256108849411650e-01 -1.696570384383008e-17
 1.429999999999999e+00 -8.256108849411650e-01 -1.696570384383008e-17
 1.429999999999999e+00 -8.256108849411650e-01 -1.696570384383008e-17
 1.429999999999999e+00 -8.256108849411650e-01 -1.696570384383008e-17
 1.429999999999999e+00 -8.256108849411650e-01 -1.696570384383008e-17
 1.429999999999999e+00 -8.256108849411650e-01 -1.696570384383008e-17
 1.429999999999999e+00 -8.256108849411650e-01 -1.696570384383008e-17
 1.429999999999999e+00 -8.256108849411650e-01 -1.696570384383008e-17
 1.429999999999999e+00 -8.256108849411650e-01 -1.696570384383008e-17
 1.429999999999999e+00 -8.256108849411650e-01 -1.696570384383008e-17
 1.429999999999999e+00 -8.256108849411650e-01 -1.696570384383008e-17
 1.429999999999999e+00 -8.256108849411650e-01 -1.696570384383008e-17
 1.429999999999999e+00 -8.256108849411650e-01 -1.696570384383008e-17
 1.429999999999999e+00 -8.256108849411650e-01 -1.696570384383008e-17
 1.429999999999999e+00 -8.256108849411650e-01 -1.696570384383008e-17
 1.429999999999999e+00 -8.256108849411650e-01 -1.696570384383008e-17
 1.429999999999999e+00 -8.256108849411650e-01 -1.696570384383008e-17
 1.429999999999999e+00 -8.256108849411650e-01 -1.696570384383008e-17
 1.429999999999999e+00 -8.256108849411650e-01 -1.696570384383008e-17
 1.429999999999999e+00 -8.256108849411650e-01 -1.696570384383008e-17
 1.429999999999999e+00 -8.256108849411650e-01 -1.696570384383008e-17
 1.429999999999999e+00 -8.256108849411650e-01 -1.696570384383008e-17
 1.429999999999999e+00 -8.256108849411650e-01 -1.696570384383008e-17
 1.429999999999999e+00 -8.256108849411650e-01 -1.696570384383008e-17
 1.429999999999999e+00 -8.256108849411650e-01 -1.696570384383008e-17
 1.429999999999999e+00 -8.256108849411650e-01 -1.696570384383008e-17
 1.429999999999999e+00 -8.256108849411650e-01 -1.696570384383008e-17
 1.429999999999999e+00 -8.256108849411650e-01 -1.696570384383008e-17
 1.429999999999999e+00 -8.256108849411650e-01 -1.696570384383008e-17
 1.429999999999999e+00 -8.256108849411650e-01 -1.696570384383008e-17
 1.429999999999999e+00 -8.256108849411650e-01 -1.696570384383008e-17
 1.429999999999999e+00 -8.256108849411650e-01 -1.696570384383008e-17
 1.429999999999999e+00 -8.256108849411650e-01 -1.696570384383008e-17
 1.429999999999999e+00 -8.256108849411650e-01 -1.696570384383008e-17
 1.429999999999999e+00 -8.256108849411650e-01 -1.696570384383008e-17
 1.429999999999999e+00 -8.256108849411650e-01 -1.696570384383008e-17
 1.429999999999999e+00 -8.256108849411650e-01 -1.696570384383008e-17
 1.429999999999999e+00 -8.256108849411650e-01 -1.696570384383008e-17
 1.429999999999999e+00 -8.256108849411650e-01 -1.696570384383008e-17
 1.429999999999999e+00 -8.256108849411650e-01 -1.696570384383008e-17
 1.429999999999999e+00 -8.256108849411650e-01 -1.696570384383008e-17
 1.429999999999999e+00 -8.256108849411650e-01 -1.696570384383008e-17
 1.429999999999999e+00 -8.256108849411650e-01 -1.696570384383008e-17
 1.429999999999999e+00 -8.256108849411650e-01 -1.696570384383008e-17
 1.429999999999999e+00 -8.256108849411650e-01 -1.696570384383008e-17
 1.429999999999999e+00 -8.256108849411650e-01 -1.696570384383008e-17
 1.429999999999999e+00 -8.256108849411650e-01 -1.696570384383008e-17
 1.429999999999999e+00 -8.256108849411650e-01 -1.696570384383008e-17
 1.429999999999999e+00 -8.256108849411650e-01 -1.696570384383008e-17
 1.429999999999999e+00 -8.256108849411650e-01 -1.696570384383008e-17
 1.429999999999999e+00 -8.256108849411650e-01 -1.696570384383008e-17
 1.429999999999999e+00 -8.256108849411650e-01 -1.696570384383008e-17
 1.429999999999999e+00 -8.256108849411650e-01 -1.696570384383008e-17
 1.429999999999999e+00 -8.256108849411650e-01 -1.696570384383008e-17
 1.429999999999999e+00 -8.256108849411650e-01 -1.696570384383008e-17
 1.429999999999999e+00 -8.256108849411650e-01 -1.696570384383008e-17
 1.429999999999999e+00 -8.256108849411650e-01 -1.696570384383008e-17
 1.429999999999999e+00 -8.256108849411650e-01 -1.696570384383008e-17
 1.429999999999999e+00 -8.256108849411650e-01 -1.696570384383008e-17
 1.429999999999999e+00 -8.256108849411650e-01 -1.696570384383008e-17
 1.429999999999999e+00 -8.256108849411650e-01 -1.696570384383008e-17
 1.429999999999999e+00 -8.256108849411650e-01 -1.696570384383008e-17
 1.429999999999999e+00 -8.256108849411650e-01 -1.696570384383008e-17
 1.429999999999999e+00 -8.256108849411650e-01 -1.696570384383008e-17
 1.429999999999999e+00 -8.256108849411650e-01 -1.696570384383008e-17
 1.429999999999999e+00 -8.256108849411650e-01 -1.696570384383008e-17
 1.429999999999999e+00 -8.256108849411650e-01 -1.696570384383008e-17
 1.429999999999999e+00 -8.256108849411650e-01 -1.696570384383008e-17
 1.429999999999999e+00 -8.256108849411650e-01 -1.696570384383008e-17
 1.429999999999999e+00 -8.256108849411650e-01 -1.696570384383008e-17
 1.429999999999999e+00 -8.256108849411650e-01 -1.696570384383008e-17
 1.429999999999999e+00 -8.256108849411650e-01 -1.696570384383008e-17
 1.429999999999999e+00 -8.256108849411650e-01 -1.696570384383008e-17
 1.429999999999999e+00 -8.256108849411650e-01 -1.696570384383008e-17
 1.429999999999999e+00 -8.256108849411650e-01 -1.696570384383008e-17
 1.429999999999999e+00 -8.256108849411650e-01 -1.696570384383008e-17
 1.429999999999999e+00 -8.256108849411650e-01 -1.696570384383008e-17
 1.429999999999999e+00 -8.256108849411650e-01 -1.696570384383008e-17
 1.429999999999999e+00 -8.256108849411650e-01 -1.696570384383008e-17
 1.429999999999999e+00 -8.256108849411650e-01 -1.696570384383008e-17
 1.429999999999999e+00 -8.256108849411650e-01 -1.696570384383008e-17
 1.429999999999999e+00 -8.256108849411650e-01 -1.696570384383008e-17
 1.429999999999999e+00 -8.256108849411650e-01 -1.696570384383008e-17
 1.429999999999999e+00 -8.256108849411650e-01 -1.696570384383008e-17
 1.429999999999999e+00 -8.256108849411650e-01 -1.696570384383008e-17
 1.429999999999999e+00 -8.256108849411650e-01 -1.696570384383008e-17
 1.429999999999999e+00 -8.256108849411650e-01 -1.696570384383008e-17
 1.429999999999999e+00 -8.256108849411650e-01 -1.696570384383008e-17
 1.429999999999999e+00 -8.256108849411650e-01 -1.696570384383008e-17
 1.429999999999999e+00 -8.256108849411650e-01 -1.696570384383008e-17
 1.429999999999999e+00 -8.256108849411650e-01 -1.696570384383008e-17
 1.429999999999999e+00 -8.256108849411650e-01 -1.696570384383008e-17
 1.429999999999999e+00 -8.256108849411650e-01 -1.696570384383008e-17
 1.429999999999999e+00 -8.256108849411650e-01 -1.696570384383008e-17
 1.429999999999999e+00 -8.256108849411650e-01 -1.696570384383008e-17
 1.429999999999999e+00 -8.256108849411650e-01 -1.696570384383008e-17
 1.429999999999999e+00 -8.256108849411650e-01 -1.696570384383008e-17
 1.429999999999999e+00 -8.256108849411650e-01 -1.696570384383008e-17
 1.429999999999999e+00 -8.256108849411650e-01 -1.696570384383008e-17
 1.429999999999999e+00 -8.256108849411650e-01 -1.696570384383008e-17
 1.429999999999999e+00 -8.256108849411650e-01 -1.696570384383008e-17
 1.429999999999999e+00 -8.256108849411650e-01 -1.696570384383008e-17
 1.429999999999999e+00 -8.256108849411650e-01 -1.696570384383008e-17
 1.429999999999999e+00 -8.256108849411650e-01 -1.696570384383008e-17
 1.429999999999999e+00 -8.256108849411650e-01 -1.696570384383008e-17
 1.429999999999999e+00 -8.256108849411650e-01 -1.696570384383008e-17
 1.429999999999999e+00 -8.256108849411650e-01 -1.696570384383008e-17
 1.429999999999999e+00 -8.256108849411650e-01 -1.696570384383008e-17
 1.429999999999999e+00 -8.256108849411650e-01 -1.696570384383008e-17
 1.429999999999999e+00 -8.256108849411650e-01 -1.696570384383008e-17
 1.429999999999999e+00 -8.256108849411650e-01 -1.696570384383008e-17
 1.429999999999999e+00 -8.256108849411650e-01 -1.696570384383008e-17
 1.429999999999999e+00 -8.256108849411650e-01 -1.696570384383008e-17
 1.429999999999999e+00 -8.256108849411650e-01 -1.696570384383008e-17
 1.429999999999999e+00 -8.256108849411650e-01 -1.696570384383008e-17
 1.429999999999999e+00 -8.256108849411650e-01 -1.696570384383008e-17
 1.429999999999999e+00 -8.256108849411650e-01 -1.696570384383008e-17
 1.429999999999999e+00 -8.256108849411650e-01 -1.696570384383008e-17
 1.429999999999999e+00 -8.256108849411650e-01 -1.696570384383008e-17
 1.429999999999999e+00 -8.256108849411650e-01 -1.696570384383008e-17
 1.429999999999999e+00 -8.256108849411650e-01 -1.696570384383008e-17
 1.429999999999999e+00 -8.256108849411650e-01 -1.696570384383008e-17
 1.429999999999999e+00 -8.256108849411650e-01 -1.696570384383008e-17
 1.429999999999999e+00 -8.256108849411650e-01 -1.696570384383008e-17
 1.429999999999999e+00 -8.256108849411650e-01 -1.696570384383008e-17
 1.429999999999999e+00 -8.256108849411650e-01 -1.696570384383008e-17
 1.429999999999999e+00 -8.256108849411650e-01 -1.696570384383008e-17
 1.429999999999999e+00 -8.256108849411650e-01 -1.696570384383008e-17
 1.429999999999999e+00 -8.256108849411650e-01 -1.696570384383008e-17
 1.429999999999999e+00 -8.256108849411650e-01 -1.696570384383008e-17
 1.429999999999999e+00 -8.256108849411650e-01 -1.696570384383008e-17
 1.429999999999999e+00 -8.256108849411650e-01 -1.696570384383008e-17
 1.429999999999999e+00 -8.256108849411650e-01 -1.696570384383008e-17
 1.429999999999999e+00 -8.256108849411650e-01 -1.696570384383008e-17
 1.429999999999999e+00 -8.256108849411650e-01 -1.696570384383008e-17
 1.429999999999999e+00 -8.256108849411650e-01 -1.696570384383008e-17
 1.429999999999999e+00 -8.256108849411650e-01 -1.696570384383008e-17
 1.429999999999999e+00 -8.256108849411650e-01 -1.696570384383008e-17
 1.429999999999999e+00 -8.256108849411650e-01 -1.696570384383008e-17
 1.429999999999999e+00 -8.256108849411650e-01 -1.696570384383008e-17
 1.429999999999999e+00 -8.256108849411650e-01 -1.696570384383008e-17
 1.429999999999999e+00 -8.256108849411650e-01 -1.696570384383008e-17
 1.429999999999999e+00 -8.256108849411650e-01 -1.696570384383008e-17
 1.429999999999999e+00 -8.256108849411650e-01 -1.696570384383008e-17
 1.429999999999999e+00 -8.256108849411650e-01 -1.696570384383008e-17
 1.429999999999999e+00 -8.256108849411650e-01 -1.696570384383008e-17
 1.429999999999999e+00 -8.256108849411650e-01 -1.696570384383008e-17
 1.429999999999999e+00 -8.256108849411650e-01 -1.696570384383008e-17
 1.429999999999999e+00 -8.256108849411650e-01 -1.696570384383008e-17
 1.429999999999999e+00 -8.256108849411650e-01 -1.696570384383008e-17
 1.429999999999999e+00 -8.256108849411650e-01 -1.696570384383008e-17
 1.429999999999999e+00 -8.256108849411650e-01 -1.696570384383008e-17
 1.429999999999999e+00 -8.256108849411650e-01 -1.696570384383008e-17
 1.429999999999999e+00 -8.256108849411650e-01 -1.696570384383008e-17
 1.429999999999999e+00 -8.256108849411650e-01 -1.696570384383008e-17
 1.429999999999999e+00 -8.256108849411650e-01 -1.696570384383008e-17
 1.429999999999999e+00 -8.256108849411650e-01 -1.696570384383008e-17
 1.429999999999999e+00 -8.256108849411650e-01 -1.696570384383008e-17
 1.429999999999999e+00 -8.256108849411650e-01 -1.696570384383008e-17
 1.429999999999999e+00 -8.256108849411650e-01 -1.696570384383008e-17
 1.429999999999999e+00 -8.256108849411650e-01 -1.696570384383008e-17
 1.429999999999999e+00 -8.256108849411650e-01 -1.696570384383008e-17
 1.429999999999999e+00 -8.256108849411650e-01 -1.696570384383008e-17
 1.429999999999999e+00 -8.256108849411650e-01 -1.696570384383008e-17
 1.429999999999999e+00 -8.256108849411650e-01 -1.696570384383008e-17
 1.429999999999999e+00 -8.256108849411650e-01 -1.696570384383008e-17
 1.429999999999999e+00 -8.256108849411650e-01 -1.696570384383008e-17
 1.429999999999999e+00 -8.256108849411650e-01 -1.696570384383008e-17
 1.429999999999999e+00 -8.256108849411650e-01 -1.696570384383008e-17
 1.429999999999999e+00 -8.256108849411650e-01 -1.696570384383008e-17
 1.429999999999999e+00 -8.256108849411650e-01 -1.696570384383008e-17
 1.429999999999999e+00 -8.256108849411650e-01 -1.696570384383008e-17
 1.429999999999999e+00 -8.256108849411650e-01 -1.696570384383008e-17
 1.429999999999999e+00 -8.256108849411650e-01 -1.696570384383008e-17
 1.429999999999999e+00 -8.256108849411650e-01 -1.696570384383008e-17
 1.429999999999999e+00 -8.256108849411650e-01 -1.696570384383008e-17
 1.429999999999999e+00 -8.256108849411650e-01 -1.696570384383008e-17
 1.429999999999999e+00 -8.256108849411650e-01 -1.696570384383008e-17
 1.429999999999999e+00 -8.256108849411650e-01 -1.696570384383008e-17
 1.429999999999999e+00 -8.256108849411650e-01 -1.696570384383008e-17
 1.429999999999999e+00 -8.256108849411650e-01 -1.696570384383008e-17
 1.429999999999999e+00 -8.256108849411650e-01 -1.696570384383008e-17
 1.429999999999999e+00 -8.256108849411650e-01 -1.696570384383008e-17
 1.429999999999999e+00 -8.256108849411650e-01 -1.696570384383008e-17
 1.429999999999999e+00 -8.256108849411650e-01 -1.696570384383008e-17
 1.429999999999999e+00 -8.256108849411650e-01 -1.696570384383008e-17
 1.429999999999999e+00 -8.256108849411650e-01 -1.696570384383008e-17
 1.429999999999999e+00 -8.256108849411650e-01 -1.696570384383008e-17
 1.429999999999999e+00 -8.256108849411650e-01 -1.696570384383008e-17
 1.429999999999999e+00 -8.256108849411650e-01 -1.696570384383008e-17
 1.429999999999999e+00 -8.256108849411650e-01 -1.696570384383008e-17
 1.429999999999999e+00 -8.256108849411650e-01 -1.696570384383008e-17
 1.429999999999999e+00 -8.256108849411650e-01 -1.696570384383008e-17
 1.429999999999999e+00 -8.256108849411650e-01 -1.696570384383008e-17
 1.429999999999999e+00 -8.256108849411650e-01 -1.696570384383008e-17
 1.429999999999999e+00 -8.256108849411650e-01 -1.696570384383008e-17
 1.429999999999999e+00 -8.256108849411650e-01 -1.696570384383008e-17
 1.429999999999999e+00 -8.256108849411650e-01 -1.696570384383008e-17
 1.429999999999999e+00 -8.256108849411650e-01 -1.696570384383008e-17
 1.429999999999999e+00 -8.256108849411650e-01 -1.696570384383008e-17
 1.429999999999999e+00 -8.256108849411650e-01 -1.696570384383008e-17
 1.429999999999999e+00 -8.256108849411650e-01 -1.696570384383008e-17
 1.429999999999999e+00 -8.256108849411650e-01 -1.696570384383008e-17
 1.429999999999999e+00 -8.256108849411650e-01 -1.696570384383008e-17
 1.429999999999999e+00 -8.256108849411650e-01 -1.696570384383008e-17
 1.429999999999999e+00 -8.256108849411650e-01 -1.696570384383008e-17
 1.429999999999999e+00 -8.256108849411650e-01 -1.696570384383008e-17
 1.429999999999999e+00 -8.256108849411650e-01 -1.696570384383008e-17
 1.429999999999999e+00 -8.256108849411650e-01 -1.696570384383008e-17
 1.429999999999999e+00 -8.256108849411650e-01 -1.696570384383008e-17
 1.429999999999999e+00 -8.256108849411650e-01 -1.696570384383008e-17
 1.429999999999999e+00 -8.256108849411650e-01 -1.696570384383008e-17
 1.429999999999999e+00 -8.256108849411650e-01 -1.696570384383008e-17
 1.429999999999999e+00 -8.256108849411650e-01 -1.696570384383008e-17
 1.429999999999999e+00 -8.256108849411650e-01 -1.696570384383008e-17
 1.429999999999999e+00 -8.256108849411650e-01 -1.696570384383008e-17
 1.429999999999999e+00 -8.256108849411650e-01 -1.696570384383008e-17
 1.429999999999999e+00 -8.256108849411650e-01 -1.696570384383008e-17
 1.429999999999999e+00 -8.256108849411650e-01 -1.696570384383008e-17
 1.429999999999999e+00 -8.256108849411650e-01 -1.696570384383008e-17
 1.429999999999999e+00 -8.256108849411650e-01 -1.696570384383008e-17
 1.429999999999999e+00 -8.256108849411650e-01 -1.696570384383008e-17
 1.429999999999999e+00 -8.256108849411650e-01 -1.696570384383008e-17
 1.429999999999999e+00 -8.256108849411650e-01 -1.696570384383008e-17
 1.429999999999999e+00 -8.256108849411650e-01 -1.696570384383008e-17
 1.429999999999999e+00 -8.256108849411650e-01 -1.696570384383008e-17
 1.429999999999999e+00 -8.256108849411650e-01 -1.696570384383008e-17
 1.429999999999999e+00 -8.256108849411650e-01 -1.696570384383008e-17
 1.429999999999999e+00 -8.256108849411650e-01 -1.696570384383008e-17
 1.429999999999999e+00 -8.256108849411650e-01 -1.696570384383008e-17
 1.429999999999999e+00 -8.256108849411650e-01 -1.696570384383008e-17
 1.429999999999999e+00 -8.256108849411650e-01 -1.696570384383008e-17
 1.429999999999999e+00 -8.256108849411650e-01 -1.696570384383008e-17
 1.429999999999999e+00 -8.256108849411650e-01 -1.696570384383008e-17
 1.429999999999999e+00 -8.256108849411650e-01 -1.696570384383008e-17
 1.429999999999999e+00 -8.256108849411650e-01 -1.696570384383008e-17
 1.429999999999999e+00 -8.256108849411650e-01 -1.696570384383008e-17
 1.429999999999999e+00 -8.256108849411650e-01 -1.696570384383008e-17
 1.429999999999999e+00 -8.256108849411650e-01 -1.696570384383008e-17
 1.429999999999999e+00 -8.256108849411650e-01 -1.696570384383008e-17
 1.429999999999999e+00 -8.256108849411650e-01 -1.696570384383008e-17
 1.429999999999999e+00 -8.256108849411650e-01 -1.696570384383008e-17
 1.429999999999999e+00 -8.256108849411650e-01 -1.696570384383008e-17
 1.429999999999999e+00 -8.256108849411650e-01 -1.696570384383008e-17
 1.429999999999999e+00 -8.256108849411650e-01 -1.696570384383008e-17
 1.429999999999999e+00 -8.256108849411650e-01 -1.696570384383008e-17
 1.429999999999999e+00 -8.256108849411650e-01 -1.696570384383008e-17
 1.429999999999999e+00 -8.256108849411650e-01 -1.696570384383008e-17
 1.429999999999999e+00 -8.256108849411650e-01 -1.696570384383008e-17
 1.429999999999999e+00 -8.256108849411650e-01 -1.696570384383008e-17
 1.429999999999999e+00 -8.256108849411650e-01 -1.696570384383008e-17
 1.429999999999999e+00 -8.256108849411650e-01 -1.696570384383008e-17
 1.429999999999999e+00 -8.256108849411650e-01 -1.696570384383008e-17
 1.429999999999999e+00 -8.256108849411650e-01 -1.696570384383008e-17
 1.429999999999999e+00 -8.256108849411650e-01 -1.696570384383008e-17
 1.429999999999999e+00 -8.256108849411650e-01 -1.696570384383008e-17
 1.429999999999999e+00 -8.256108849411650e-01 -1.696570384383008e-17
 1.429999999999999e+00 -8.256108849411650e-01 -1.696570384383008e-17
 1.429999999999999e+00 -8.256108849411650e-01 -1.696570384383008e-17
 1.429999999999999e+00 -8.256108849411650e-01 -1.696570384383008e-17
 1.429999999999999e+00 -8.256108849411650e-01 -1.696570384383008e-17
 1.429999999999999e+00 -8.256108849411650e-01 -1.696570384383008e-17
 1.429999999999999e+00 -8.256108849411650e-01 -1.696570384383008e-17
 1.429999999999999e+00 -8.256108849411650e-01 -1.696570384383008e-17
 1.429999999999999e+00 -8.256108849411650e-01 -1.696570384383008e-17
 1.429999999999999e+00 -8.256108849411650e-01 -1.696570384383008e-17
 1.429999999999999e+00 -8.256108849411650e-01 -1.696570384383008e-17
 1.429999999999999e+00 -8.256108849411650e-01 -1.696570384383008e-17
 1.429999999999999e+00 -8.256108849411650e-01 -1.696570384383008e-17
 1.429999999999999e+00 -8.256108849411650e-01 -1.696570384383008e-17
 1.429999999999999e+00 -8.256108849411650e-01 -1.696570384383008e-17
 1.429999999999999e+00 -8.256108849411650e-01 -1.696570384383008e-17
 1.429999999999999e+00 -8.256108849411650e-01 -1.696570384383008e-17
 1.429999999999999e+00 -8.256108849411650e-01 -1.696570384383008e-17
 1.429999999999999e+00 -8.256108849411650e-01 -1.696570384383008e-17
 1.429999999999999e+00 -8.256108849411650e-01 -1.696570384383008e-17
 1.429999999999999e+00 -8.256108849411650e-01 -1.696570384383008e-17
 1.429999999999999e+00 -8.256108849411650e-01 -1.696570384383008e-17
 1.429999999999999e+00 -8.256108849411650e-01 -1.696570384383008e-17
 1.429999999999999e+00 -8.256108849411650e-01 -1.696570384383008e-17
 1.429999999999999e+00 -8.256108849411650e-01 -1.696570384383008e-17
 1.429999999999999e+00 -8.256108849411650e-01 -1.696570384383008e-17
 1.429999999999999e+00 -8.256108849411650e-01 -1.696570384383008e-17
 1.429999999999999e+00 -8.256108849411650e-01 -1.696570384383008e-17
 1.429999999999999e+00 -8.256108849411650e-01 -1.696570384383008e-17
 1.429999999999999e+00 -8.256108849411650e-01 -1.696570384383008e-17
 1.429999999999999e+00 -8.256108849411650e-01 -1.696570384383008e-17
 1.429999999999999e+00 -8.256108849411650e-01 -1.696570384383008e-17
 1.429999999999999e+00 -8.256108849411650e-01 -1.696570384383008e-17
 1.429999999999999e+00 -8.256108849411650e-01 -1.696570384383008e-17
 1.429999999999999e+00 -8.256108849411650e-01 -1.696570384383008e-17
 1.429999999999999e+00 -8.256108849411650e-01 -1.696570384383008e-17
 1.429999999999999e+00 -8.256108849411650e-01 -1.696570384383008e-17
 1.429999999999999e+00 -8.256108849411650e-01 -1.696570384383008e-17
 1.429999999999999e+00 -8.256108849411650e-01 -1.696570384383008e-17
 1.429999999999999e+00 -8.256108849411650e-01 -1.696570384383008e-17
 1.429999999999999e+00 -8.256108849411650e-01 -1.696570384383008e-17
 1.429999999999999e+00 -8.256108849411650e-01 -1.696570384383008e-17
 1.429999999999999e+00 -8.256108849411650e-01 -1.696570384383008e-17
 1.429999999999999e+00 -8.256108849411650e-01 -1.696570384383008e-17
 1.429999999999999e+00 -8.256108849411650e-01 -1.696570384383008e-17
 1.429999999999999e+00 -8.256108849411650e-01 -1.696570384383008e-17
 1.429999999999999e+00 -8.256108849411650e-01 -1.696570384383008e-17
 1.429999999999999e+00 -8.256108849411650e-01 -1.696570384383008e-17
 1.429999999999999e+00 -8.256108849411650e-01 -1.696570384383008e-17
 1.429999999999999e+00 -8.256108849411650e-01 -1.696570384383008e-17
 1.429999999999999e+00 -8.256108849411650e-01 -1.696570384383008e-17
 1.429999999999999e+00 -8.256108849411650e-01 -1.696570384383008e-17
 1.429999999999999e+00 -8.256108849411650e-01 -1.696570384383008e-17
 1.429999999999999e+00 -8.256108849411650e-01 -1.696570384383008e-17
 1.429999999999999e+00 -8.256108849411650e-01 -1.696570384383008e-17
 1.429999999999999e+00 -8.256108849411650e-01 -1.696570384383008e-17
 1.429999999999999e+00 -8.256108849411650e-01 -1.696570384383008e-17
 1.429999999999999e+00 -8.256108849411650e-01 -1.696570384383008e-17
 1.429999999999999e+00 -8.256108849411650e-01 -1.696570384383008e-17
 1.429999999999999e+00 -8.256108849411650e-01 -1.696570384383008e-17
 1.429999999999999e+00 -8.256108849411650e-01 -1.696570384383008e-17
 1.429999999999999e+00 -8.256108849411650e-01 -1.696570384383008e-17
 1.429999999999999e+00 -8.256108849411650e-01 -1.696570384383008e-17
 1.429999999999999e+00 -8.256108849411650e-01 -1.696570384383008e-17
 1.429999999999999e+00 -8.256108849411650e-01 -1.696570384383008e-17
 1.429999999999999e+00 -8.256108849411650e-01 -1.696570384383008e-17
 1.429999999999999e+00 -8.256108849411650e-01 -1.696570384383008e-17
 1.429999999999999e+00 -8.256108849411650e-01 -1.696570384383008e-17
 1.429999999999999e+00 -8.256108849411650e-01 -1.696570384383008e-17
 1.429999999999999e+00 -8.256108849411650e-01 -1.696570384383008e-17
 1.429999999999999e+00 -8.256108849411650e-01 -1.696570384383008e-17
 1.429999999999999e+00 -8.256108849411650e-01 -1.696570384383008e-17
 1.429999999999999e+00 -8.256108849411650e-01 -1.696570384383008e-17
 1.429999999999999e+00 -8.256108849411650e-01 -1.696570384383008e-17
 1.429999999999999e+00 -8.256108849411650e-01 -1.696570384383008e-17
 1.429999999999999e+00 -8.256108849411650e-01 -1.696570384383008e-17
 1.429999999999999e+00 -8.256108849411650e-01 -1.696570384383008e-17
 1.429999999999999e+00 -8.256108849411650e-01 -1.696570384383008e-17
 1.429999999999999e+00 -8.256108849411650e-01 -1.696570384383008e-17
 1.429999999999999e+00 -8.256108849411650e-01 -1.696570384383008e-17
 1.429999999999999e+00 -8.256108849411650e-01 -1.696570384383008e-17
 1.429999999999999e+00 -8.256108849411650e-01 -1.696570384383008e-17
 1.429999999999999e+00 -8.256108849411650e-01 -1.696570384383008e-17
 1.429999999999999e+00 -8.256108849411650e-01 -1.696570384383008e-17
 1.429999999999999e+00 -8.256108849411650e-01 -1.696570384383008e-17
 1.429999999999999e+00 -8.256108849411650e-01 -1.696570384383008e-17
 1.429999999999999e+00 -8.256108849411650e-01 -1.696570384383008e-17
 1.429999999999999e+00 -8.256108849411650e-01 -1.696570384383008e-17
 1.429999999999999e+00 -8.256108849411650e-01 -1.696570384383008e-17
 1.429999999999999e+00 -8.256108849411650e-01 -1.696570384383008e-17
 1.429999999999999e+00 -8.256108849411650e-01 -1.696570384383008e-17
 1.429999999999999e+00 -8.256108849411650e-01 -1.696570384383008e-17
 1.429999999999999e+00 -8.256108849411650e-01 -1.696570384383008e-17
 1.429999999999999e+00 -8.256108849411650e-01 -1.696570384383008e-17
 1.429999999999999e+00 -8.256108849411650e-01 -1.696570384383008e-17
 1.429999999999999e+00 -8.256108849411650e-01 -1.696570384383008e-17
 1.429999999999999e+00 -8.256108849411650e-01 -1.696570384383008e-17
 1.429999999999999e+00 -8.256108849411650e-01 -1.696570384383008e-17
 1.429999999999999e+00 -8.256108849411650e-01 -1.696570384383008e-17
 1.429999999999999e+00 -8.256108849411650e-01 -1.696570384383008e-17
 1.429999999999999e+00 -8.256108849411650e-01 -1.696570384383008e-17
 1.429999999999999e+00 -8.256108849411650e-01 -1.696570384383008e-17
 1.429999999999999e+00 -8.256108849411650e-01 -1.696570384383008e-17
 1.429999999999999e+00 -8.256108849411650e-01 -1.696570384383008e-17
 1.429999999999999e+00 -8.256108849411650e-01 -1.696570384383008e-17
 1.429999999999999e+00 -8.256108849411650e-01 -1.696570384383008e-17
 1.429999999999999e+00 -8.256108849411650e-01 -1.696570384383008e-17
 1.429999999999999e+00 -8.256108849411650e-01 -1.696570384383008e-17
 1.429999999999999e+00 -8.256108849411650e-01 -1.696570384383008e-17
 1.429999999999999e+00 -8.256108849411650e-01 -1.696570384383008e-17
 1.429999999999999e+00 -8.256108849411650e-01 -1.696570384383008e-17
 1.429999999999999e+00 -8.256108849411650e-01 -1.696570384383008e-17
 1.429999999999999e+00 -8.256108849411650e-01 -1.696570384383008e-17
 1.429999999999999e+00 -8.256108849411650e-01 -1.696570384383008e-17
 1.429999999999999e+00 -8.256108849411650e-01 -1.696570384383008e-17
 1.429999999999999e+00 -8.256108849411650e-01 -1.696570384383008e-17
 1.429999999999999e+00 -8.256108849411650e-01 -1.696570384383008e-17
 1.429999999999999e+00 -8.256108849411650e-01 -1.696570384383008e-17
 1.429999999999999e+00 -8.256108849411650e-01 -1.696570384383008e-17
 1.429999999999999e+00 -8.256108849411650e-01 -1.696570384383008e-17
 1.429999999999999e+00 -8.256108849411650e-01 -1.696570384383008e-17
 1.429999999999999e+00 -8.256108849411650e-01 -1.696570384383008e-17
 1.429999999999999e+00 -8.256108849411650e-01 -1.696570384383008e-17
 1.429999999999999e+00 -8.256108849411650e-01 -1.696570384383008e-17
 1.429999999999999e+00 -8.256108849411650e-01 -1.696570384383008e-17
 1.429999999999999e+00 -8.256108849411650e-01 -1.696570384383008e-17
 1.429999999999999e+00 -8.256108849411650e-01 -1.696570384383008e-17
 1.429999999999999e+00 -8.256108849411650e-01 -1.696570384383008e-17
 1.429999999999999e+00 -8.256108849411650e-01 -1.696570384383008e-17
 1.429999999999999e+00 -8.256108849411650e-01 -1.696570384383008e-17
 1.429999999999999e+00 -8.256108849411650e-01 -1.696570384383008e-17
 1.429999999999999e+00 -8.256108849411650e-01 -1.696570384383008e-17
 1.429999999999999e+00 -8.256108849411650e-01 -1.696570384383008e-17
 1.429999999999999e+00 -8.256108849411650e-01 -1.696570384383008e-17
 1.429999999999999e+00 -8.256108849411650e-01 -1.696570384383008e-17
 1.429999999999999e+00 -8.256108849411650e-01 -1.696570384383008e-17
 1.429999999999999e+00 -8.256108849411650e-01 -1.696570384383008e-17
 1.429999999999999e+00 -8.256108849411650e-01 -1.696570384383008e-17
 1.429999999999999e+00 -8.256108849411650e-01 -1.696570384383008e-17
 1.429999999999999e+00 -8.256108849411650e-01 -1.696570384383008e-17
 1.429999999999999e+00 -8.256108849411650e-01 -1.696570384383008e-17
 1.429999999999999e+00 -8.256108849411650e-01 -1.696570384383008e-17
 1.429999999999999e+00 -8.256108849411650e-01 -1.696570384383008e-17
 1.429999999999999e+00 -8.256108849411650e-01 -1.696570384383008e-17
 1.429999999999999e+00 -8.256108849411650e-01 -1.696570384383008e-17
 1.429999999999999e+00 -8.256108849411650e-01 -1.696570384383008e-17
 1.429999999999999e+00 -8.256108849411650e-01 -1.696570384383008e-17
 1.429999999999999e+00 -8.256108849411650e-01 -1.696570384383008e-17
 1.429999999999999e+00 -8.256108849411650e-01 -1.696570384383008e-17
 1.429999999999999e+00 -8.256108849411650e-01 -1.696570384383008e-17
 1.429999999999999e+00 -8.256108849411650e-01 -1.696570384383008e-17
 1.429999999999999e+00 -8.256108849411650e-01 -1.696570384383008e-17
 1.429999999999999e+00 -8.256108849411650e-01 -1.696570384383008e-17
 1.429999999999999e+00 -8.256108849411650e-01 -1.696570384383008e-17
 1.429999999999999e+00 -8.256108849411650e-01 -1.696570384383008e-17
 1.429999999999999e+00 -8.256108849411650e-01 -1.696570384383008e-17
 1.429999999999999e+00 -8.256108849411650e-01 -1.696570384383008e-17
 1.429999999999999e+00 -8.256108849411650e-01 -1.696570384383008e-17
 1.429999999999999e+00 -8.256108849411650e-01 -1.696570384383008e-17
 1.429999999999999e+00 -8.256108849411650e-01 -1.696570384383008e-17
 1.429999999999999e+00 -8.256108849411650e-01 -1.696570384383008e-17
 1.429999999999999e+00 -8.256108849411650e-01 -1.696570384383008e-17
 1.429999999999999e+00 -8.256108849411650e-01 -1.696570384383008e-17
 1.429999999999999e+00 -8.256108849411650e-01 -1.696570384383008e-17
 1.429999999999999e+00 -8.256108849411650e-01 -1.696570384383008e-17
 1.429999999999999e+00 -8.256108849411650e-01 -1.696570384383008e-17
 1.429999999999999e+00 -8.256108849411650e-01 -1.696570384383008e-17
 1.429999999999999e+00 -8.256108849411650e-01 -1.696570384383008e-17
 1.429999999999999e+00 -8.256108849411650e-01 -1.696570384383008e-17
 1.429999999999999e+00 -8.256108849411650e-01 -1.696570384383008e-17
 1.429999999999999e+00 -8.256108849411650e-01 -1.696570384383008e-17
 1.429999999999999e+00 -8.256108849411650e-01 -1.696570384383008e-17
 1.429999999999999e+00 -8.256108849411650e-01 -1.696570384383008e-17
 1.429999999999999e+00 -8.256108849411650e-01 -1.696570384383008e-17
 1.429999999999999e+00 -8.256108849411650e-01 -1.696570384383008e-17
 1.429999999999999e+00 -8.256108849411650e-01 -1.696570384383008e-17
 1.429999999999999e+00 -8.256108849411650e-01 -1.696570384383008e-17
 1.429999999999999e+00 -8.256108849411650e-01 -1.696570384383008e-17
 1.429999999999999e+00 -8.256108849411650e-01 -1.696570384383008e-17
 1.429999999999999e+00 -8.256108849411650e-01 -1.696570384383008e-17
 1.429999999999999e+00 -8.256108849411650e-01 -1.696570384383008e-17
 1.429999999999999e+00 -8.256108849411650e-01 -1.696570384383008e-17
 1.429999999999999e+00 -8.256108849411650e-01 -1.696570384383008e-17
 1.429999999999999e+00 -8.256108849411650e-01 -1.696570384383008e-17
 1.429999999999999e+00 -8.256108849411650e-01 -1.696570384383008e-17
 1.429999999999999e+00 -8.256108849411650e-01 -1.696570384383008e-17
 1.429999999999999e+00 -8.256108849411650e-01 -1.696570384383008e-17
 1.429999999999999e+00 -8.256108849411650e-01 -1.696570384383008e-17
 1.429999999999999e+00 -8.256108849411650e-01 -1.696570384383008e-17
 1.429999999999999e+00 -8.256108849411650e-01 -1.696570384383008e-17
 1.429999999999999e+00 -8.256108849411650e-01 -1.696570384383008e-17
 1.429999999999999e+00 -8.256108849411650e-01 -1.696570384383008e-17
 1.429999999999999e+00 -8.256108849411650e-01 -1.696570384383008e-17
 1.429999999999999e+00 -8.256108849411650e-01 -1.696570384383008e-17
 1.429999999999999e+00 -8.256108849411650e-01 -1.696570384383008e-17
 1.429999999999999e+00 -8.256108849411650e-01 -1.696570384383008e-17
 1.429999999999999e+00 -8.256108849411650e-01 -1.696570384383008e-17
 1.429999999999999e+00 -8.256108849411650e-01 -1.696570384383008e-17
 1.429999999999999e+00 -8.256108849411650e-01 -1.696570384383008e-17
 1.429999999999999e+00 -8.256108849411650e-01 -1.696570384383008e-17
 1.429999999999999e+00 -8.256108849411650e-01 -1.696570384383008e-17
 1.429999999999999e+00 -8.256108849411650e-01 -1.696570384383008e-17
 1.429999999999999e+00 -8.256108849411650e-01 -1.696570384383008e-17
 1.429999999999999e+00 -8.256108849411650e-01 -1.696570384383008e-17
 1.429999999999999e+00 -8.256108849411650e-01 -1.696570384383008e-17
 1.429999999999999e+00 -8.256108849411650e-01 -1.696570384383008e-17
 1.429999999999999e+00 -8.256108849411650e-01 -1.696570384383008e-17
 1.429999999999999e+00 -8.256108849411650e-01 -1.696570384383008e-17
 1.429999999999999e+00 -8.256108849411650e-01 -1.696570384383008e-17
 1.429999999999999e+00 -8.256108849411650e-01 -1.696570384383008e-17
 1.429999999999999e+00 -8.256108849411650e-01 -1.696570384383008e-17
 1.429999999999999e+00 -8.256108849411650e-01 -1.696570384383008e-17
 1.429999999999999e+00 -8.256108849411650e-01 -1.696570384383008e-17
 1.429999999999999e+00 -8.256108849411650e-01 -1.696570384383008e-17
 1.429999999999999e+00 -8.256108849411650e-01 -1.696570384383008e-17
 1.429999999999999e+00 -8.256108849411650e-01 -1.696570384383008e-17
 1.429999999999999e+00 -8.256108849411650e-01 -1.696570384383008e-17
 1.429999999999999e+00 -8.256108849411650e-01 -1.696570384383008e-17
 1.429999999999999e+00 -8.256108849411650e-01 -1.696570384383008e-17
 1.429999999999999e+00 -8.256108849411650e-01 -1.696570384383008e-17
 1.429999999999999e+00 -8.256108849411650e-01 -1.696570384383008e-17
 1.429999999999999e+00 -8.256108849411650e-01 -1.696570384383008e-17
 1.429999999999999e+00 -8.256108849411650e-01 -1.696570384383008e-17
 1.429999999999999e+00 -8.256108849411650e-01 -1.696570384383008e-17
 1.429999999999999e+00 -8.256108849411650e-01 -1.696570384383008e-17
 1.429999999999999e+00 -8.256108849411650e-01 -1.696570384383008e-17
 1.429999999999999e+00 -8.256108849411650e-01 -1.696570384383008e-17
 1.429999999999999e+00 -8.256108849411650e-01 -1.696570384383008e-17
 1.429999999999999e+00 -8.256108849411650e-01 -1.696570384383008e-17
 1.429999999999999e+00 -8.256108849411650e-01 -1.696570384383008e-17
 1.429999999999999e+00 -8.256108849411650e-01 -1.696570384383008e-17
 1.429999999999999e+00 -8.256108849411650e-01 -1.696570384383008e-17
 1.429999999999999e+00 -8.256108849411650e-01 -1.696570384383008e-17
 1.429999999999999e+00 -8.256108849411650e-01 -1.696570384383008e-17
 1.429999999999999e+00 -8.256108849411650e-01 -1.696570384383008e-17
 1.429999999999999e+00 -8.256108849411650e-01 -1.696570384383008e-17
 1.429999999999999e+00 -8.256108849411650e-01 -1.696570384383008e-17
 1.429999999999999e+00 -8.256108849411650e-01 -1.696570384383008e-17
 1.429999999999999e+00 -8.256108849411650e-01 -1.696570384383008e-17
 1.429999999999999e+00 -8.256108849411650e-01 -1.696570384383008e-17
 1.429999999999999e+00 -8.256108849411650e-01 -1.696570384383008e-17
 1.429999999999999e+00 -8.256108849411650e-01 -1.696570384383008e-17
 1.429999999999999e+00 -8.256108849411650e-01 -1.696570384383008e-17
 1.429999999999999e+00 -8.256108849411650e-01 -1.696570384383008e-17
 1.429999999999999e+00 -8.256108849411650e-01 -1.696570384383008e-17
 1.429999999999999e+00 -8.256108849411650e-01 -1.696570384383008e-17
 1.429999999999999e+00 -8.256108849411650e-01 -1.696570384383008e-17
 1.429999999999999e+00 -8.256108849411650e-01 -1.696570384383008e-17
 1.429999999999999e+00 -8.256108849411650e-01 -1.696570384383008e-17
 1.429999999999999e+00 -8.256108849411650e-01 -1.696570384383008e-17
 1.429999999999999e+00 -8.256108849411650e-01 -1.696570384383008e-17
 1.429999999999999e+00 -8.256108849411650e-01 -1.696570384383008e-17
 1.429999999999999e+00 -8.256108849411650e-01 -1.696570384383008e-17
 1.429999999999999e+00 -8.256108849411650e-01 -1.696570384383008e-17
 1.429999999999999e+00 -8.256108849411650e-01 -1.696570384383008e-17
 1.429999999999999e+00 -8.256108849411650e-01 -1.696570384383008e-17
 1.429999999999999e+00 -8.256108849411650e-01 -1.696570384383008e-17
 1.429999999999999e+00 -8.256108849411650e-01 -1.696570384383008e-17
 1.429999999999999e+00 -8.256108849411650e-01 -1.696570384383008e-17
 1.429999999999999e+00 -8.256108849411650e-01 -1.696570384383008e-17
 1.429999999999999e+00 -8.256108849411650e-01 -1.696570384383008e-17
 1.429999999999999e+00 -8.256108849411650e-01 -1.696570384383008e-17
 1.429999999999999e+00 -8.256108849411650e-01 -1.696570384383008e-17
 1.429999999999999e+00 -8.256108849411650e-01 -1.696570384383008e-17
 1.429999999999999e+00 -8.256108849411650e-01 -1.696570384383008e-17
 1.429999999999999e+00 -8.256108849411650e-01 -1.696570384383008e-17
 1.429999999999999e+00 -8.256108849411650e-01 -1.696570384383008e-17
 1.429999999999999e+00 -8.256108849411650e-01 -1.696570384383008e-17
 1.429999999999999e+00 -8.256108849411650e-01 -1.696570384383008e-17
 1.429999999999999e+00 -8.256108849411650e-01 -1.696570384383008e-17
 1.429999999999999e+00 -8.256108849411650e-01 -1.696570384383008e-17
 1.429999999999999e+00 -8.256108849411650e-01 -1.696570384383008e-17
 1.429999999999999e+00 -8.256108849411650e-01 -1.696570384383008e-17
 1.429999999999999e+00 -8.256108849411650e-01 -1.696570384383008e-17
 1.429999999999999e+00 -8.256108849411650e-01 -1.696570384383008e-17
 1.429999999999999e+00 -8.256108849411650e-01 -1.696570384383008e-17
 1.429999999999999e+00 -8.256108849411650e-01 -1.696570384383008e-17
 1.429999999999999e+00 -8.256108849411650e-01 -1.696570384383008e-17
 1.429999999999999e+00 -8.256108849411650e-01 -1.696570384383008e-17
 1.429999999999999e+00 -8.256108849411650e-01 -1.696570384383008e-17
 1.429999999999999e+00 -8.256108849411650e-01 -1.696570384383008e-17
 1.429999999999999e+00 -8.256108849411650e-01 -1.696570384383008e-17
 1.429999999999999e+00 -8.256108849411650e-01 -1.696570384383008e-17
 1.429999999999999e+00 -8.256108849411650e-01 -1.696570384383008e-17
 1.429999999999999e+00 -8.256108849411650e-01 -1.696570384383008e-17
 1.429999999999999e+00 -8.256108849411650e-01 -1.696570384383008e-17
 1.429999999999999e+00 -8.256108849411650e-01 -1.696570384383008e-17
 1.429999999999999e+00 -8.256108849411650e-01 -1.696570384383008e-17
 1.429999999999999e+00 -8.256108849411650e-01 -1.696570384383008e-17
 1.429999999999999e+00 -8.256108849411650e-01 -1.696570384383008e-17
 1.429999999999999e+00 -8.256108849411650e-01 -1.696570384383008e-17
 1.429999999999999e+00 -8.256108849411650e-01 -1.696570384383008e-17
 1.429999999999999e+00 -8.256108849411650e-01 -1.696570384383008e-17
 1.429999999999999e+00 -8.256108849411650e-01 -1.696570384383008e-17
 1.429999999999999e+00 -8.256108849411650e-01 -1.696570384383008e-17
 1.429999999999999e+00 -8.256108849411650e-01 -1.696570384383008e-17
 1.429999999999999e+00 -8.256108849411650e-01 -1.696570384383008e-17
 1.429999999999999e+00 -8.256108849411650e-01 -1.696570384383008e-17
 1.429999999999999e+00 -8.256108849411650e-01 -1.696570384383008e-17
 1.429999999999999e+00 -8.256108849411650e-01 -1.696570384383008e-17
 1.429999999999999e+00 -8.256108849411650e-01 -1.696570384383008e-17
 1.429999999999999e+00 -8.256108849411650e-01 -1.696570384383008e-17
 1.429999999999999e+00 -8.256108849411650e-01 -1.696570384383008e-17
 1.429999999999999e+00 -8.256108849411650e-01 -1.696570384383008e-17
 1.429999999999999e+00 -8.256108849411650e-01 -1.696570384383008e-17
 1.429999999999999e+00 -8.256108849411650e-01 -1.696570384383008e-17
 1.429999999999999e+00 -8.256108849411650e-01 -1.696570384383008e-17
 1.429999999999999e+00 -8.256108849411650e-01 -1.696570384383008e-17
 1.429999999999999e+00 -8.256108849411650e-01 -1.696570384383008e-17
 1.429999999999999e+00 -8.256108849411650e-01 -1.696570384383008e-17
 1.429999999999999e+00 -8.256108849411650e-01 -1.696570384383008e-17
 1.429999999999999e+00 -8.256108849411650e-01 -1.696570384383008e-17
 1.429999999999999e+00 -8.256108849411650e-01 -1.696570384383008e-17
 1.429999999999999e+00 -8.256108849411650e-01 -1.696570384383008e-17
 1.429999999999999e+00 -8.256108849411650e-01 -1.696570384383008e-17
 1.429999999999999e+00 -8.256108849411650e-01 -1.696570384383008e-17
 1.429999999999999e+00 -8.256108849411650e-01 -1.696570384383008e-17
 1.429999999999999e+00 -8.256108849411650e-01 -1.696570384383008e-17
 1.429999999999999e+00 -8.256108849411650e-01 -1.696570384383008e-17
 1.429999999999999e+00 -8.256108849411650e-01 -1.696570384383008e-17
 1.429999999999999e+00 -8.256108849411650e-01 -1.696570384383008e-17
 1.429999999999999e+00 -8.256108849411650e-01 -1.696570384383008e-17
 1.429999999999999e+00 -8.256108849411650e-01 -1.696570384383008e-17
 1.429999999999999e+00 -8.256108849411650e-01 -1.696570384383008e-17
 1.429999999999999e+00 -8.256108849411650e-01 -1.696570384383008e-17
 1.429999999999999e+00 -8.256108849411650e-01 -1.696570384383008e-17
 1.429999999999999e+00 -8.256108849411650e-01 -1.696570384383008e-17
 1.429999999999999e+00 -8.256108849411650e-01 -1.696570384383008e-17
 1.429999999999999e+00 -8.256108849411650e-01 -1.696570384383008e-17
 1.429999999999999e+00 -8.256108849411650e-01 -1.696570384383008e-17
 1.429999999999999e+00 -8.256108849411650e-01 -1.696570384383008e-17
 1.429999999999999e+00 -8.256108849411650e-01 -1.696570384383008e-17
 1.429999999999999e+00 -8.256108849411650e-01 -1.696570384383008e-17
 1.429999999999999e+00 -8.256108849411650e-01 -1.696570384383008e-17
 1.429999999999999e+00 -8.256108849411650e-01 -1.696570384383008e-17
 1.429999999999999e+00 -8.256108849411650e-01 -1.696570384383008e-17
 1.429999999999999e+00 -8.256108849411650e-01 -1.696570384383008e-17
 1.429999999999999e+00 -8.256108849411650e-01 -1.696570384383008e-17
 1.429999999999999e+00 -8.256108849411650e-01 -1.696570384383008e-17
 1.429999999999999e+00 -8.256108849411650e-01 -1.696570384383008e-17
 1.429999999999999e+00 -8.256108849411650e-01 -1.696570384383008e-17
 1.429999999999999e+00 -8.256108849411650e-01 -1.696570384383008e-17
 1.429999999999999e+00 -8.256108849411650e-01 -1.696570384383008e-17
 1.429999999999999e+00 -8.256108849411650e-01 -1.696570384383008e-17
 1.429999999999999e+00 -8.256108849411650e-01 -1.696570384383008e-17
 1.429999999999999e+00 -8.256108849411650e-01 -1.696570384383008e-17
 1.429999999999999e+00 -8.256108849411650e-01 -1.696570384383008e-17
 1.429999999999999e+00 -8.256108849411650e-01 -1.696570384383008e-17
 1.429999999999999e+00 -8.256108849411650e-01 -1.696570384383008e-17
 1.429999999999999e+00 -8.256108849411650e-01 -1.696570384383008e-17
 1.429999999999999e+00 -8.256108849411650e-01 -1.696570384383008e-17
 1.429999999999999e+00 -8.256108849411650e-01 -1.696570384383008e-17
 1.429999999999999e+00 -8.256108849411650e-01 -1.696570384383008e-17
 1.429999999999999e+00 -8.256108849411650e-01 -1.696570384383008e-17
 1.429999999999999e+00 -8.256108849411650e-01 -1.696570384383008e-17
 1.429999999999999e+00 -8.256108849411650e-01 -1.696570384383008e-17
 1.429999999999999e+00 -8.256108849411650e-01 -1.696570384383008e-17
 1.429999999999999e+00 -8.256108849411650e-01 -1.696570384383008e-17
 1.429999999999999e+00 -8.256108849411650e-01 -1.696570384383008e-17
 1.429999999999999e+00 -8.256108849411650e-01 -1.696570384383008e-17
 1.429999999999999e+00 -8.256108849411650e-01 -1.696570384383008e-17
 1.429999999999999e+00 -8.256108849411650e-01 -1.696570384383008e-17
 1.429999999999999e+00 -8.256108849411650e-01 -1.696570384383008e-17
 1.429999999999999e+00 -8.256108849411650e-01 -1.696570384383008e-17
 1.429999999999999e+00 -8.256108849411650e-01 -1.696570384383008e-17
 1.429999999999999e+00 -8.256108849411650e-01 -1.696570384383008e-17
 1.429999999999999e+00 -8.256108849411650e-01 -1.696570384383008e-17
 1.429999999999999e+00 -8.256108849411650e-01 -1.696570384383008e-17
 1.429999999999999e+00 -8.256108849411650e-01 -1.696570384383008e-17
 1.429999999999999e+00 -8.256108849411650e-01 -1.696570384383008e-17
 1.429999999999999e+00 -8.256108849411650e-01 -1.696570384383008e-17
 1.429999999999999e+00 -8.256108849411650e-01 -1.696570384383008e-17
 1.429999999999999e+00 -8.256108849411650e-01 -1.696570384383008e-17
 1.429999999999999e+00 -8.256108849411650e-01 -1.696570384383008e-17
 1.429999999999999e+00 -8.256108849411650e-01 -1.696570384383008e-17
 1.429999999999999e+00 -8.256108849411650e-01 -1.696570384383008e-17
 1.429999999999999e+00 -8.256108849411650e-01 -1.696570384383008e-17
 1.429999999999999e+00 -8.256108849411650e-01 -1.696570384383008e-17
 1.429999999999999e+00 -8.256108849411650e-01 -1.696570384383008e-17
 1.429999999999999e+00 -8.256108849411650e-01 -1.696570384383008e-17
 1.429999999999999e+00 -8.256108849411650e-01 -1.696570384383008e-17
 1.429999999999999e+00 -8.256108849411650e-01 -1.696570384383008e-17
 1.429999999999999e+00 -8.256108849411650e-01 -1.696570384383008e-17
 1.429999999999999e+00 -8.256108849411650e-01 -1.696570384383008e-17
 1.429999999999999e+00 -8.256108849411650e-01 -1.696570384383008e-17
 1.429999999999999e+00 -8.256108849411650e-01 -1.696570384383008e-17
 1.429999999999999e+00 -8.256108849411650e-01 -1.696570384383008e-17
 1.429999999999999e+00 -8.256108849411650e-01 -1.696570384383008e-17
 1.429999999999999e+00 -8.256108849411650e-01 -1.696570384383008e-17
 1.429999999999999e+00 -8.256108849411650e-01 -1.696570384383008e-17
 1.429999999999999e+00 -8.256108849411650e-01 -1.696570384383008e-17
 1.429999999999999e+00 -8.256108849411650e-01 -1.696570384383008e-17
 1.429999999999999e+00 -8.256108849411650e-01 -1.696570384383008e-17
 1.429999999999999e+00 -8.256108849411650e-01 -1.696570384383008e-17
 1.429999999999999e+00 -8.256108849411650e-01 -1.696570384383008e-17
 1.429999999999999e+00 -8.256108849411650e-01 -1.696570384383008e-17
 1.429999999999999e+00 -8.256108849411650e-01 -1.696570384383008e-17
 1.429999999999999e+00 -8.256108849411650e-01 -1.696570384383008e-17
 1.429999999999999e+00 -8.256108849411650e-01 -1.696570384383008e-17
 1.429999999999999e+00 -8.256108849411650e-01 -1.696570384383008e-17
 1.429999999999999e+00 -8.256108849411650e-01 -1.696570384383008e-17
 1.429999999999999e+00 -8.256108849411650e-01 -1.696570384383008e-17
 1.429999999999999e+00 -8.256108849411650e-01 -1.696570384383008e-17
 1.429999999999999e+00 -8.256108849411650e-01 -1.696570384383008e-17
 1.429999999999999e+00 -8.256108849411650e-01 -1.696570384383008e-17
 1.429999999999999e+00 -8.256108849411650e-01 -1.696570384383008e-17
 1.429999999999999e+00 -8.256108849411650e-01 -1.696570384383008e-17
 1.429999999999999e+00 -8.256108849411650e-01 -1.696570384383008e-17
 1.429999999999999e+00 -8.256108849411650e-01 -1.696570384383008e-17
 1.429999999999999e+00 -8.256108849411650e-01 -1.696570384383008e-17
 1.429999999999999e+00 -8.256108849411650e-01 -1.696570384383008e-17
 1.429999999999999e+00 -8.256108849411650e-01 -1.696570384383008e-17
 1.429999999999999e+00 -8.256108849411650e-01 -1.696570384383008e-17
 1.429999999999999e+00 -8.256108849411650e-01 -1.696570384383008e-17
 1.429999999999999e+00 -8.256108849411650e-01 -1.696570384383008e-17
 1.429999999999999e+00 -8.256108849411650e-01 -1.696570384383008e-17
 1.429999999999999e+00 -8.256108849411650e-01 -1.696570384383008e-17
 1.429999999999999e+00 -8.256108849411650e-01 -1.696570384383008e-17
 1.429999999999999e+00 -8.256108849411650e-01 -1.696570384383008e-17
 1.429999999999999e+00 -8.256108849411650e-01 -1.696570384383008e-17
 1.429999999999999e+00 -8.256108849411650e-01 -1.696570384383008e-17
 1.429999999999999e+00 -8.256108849411650e-01 -1.696570384383008e-17
 1.429999999999999e+00 -8.256108849411650e-01 -1.696570384383008e-17
 1.429999999999999e+00 -8.256108849411650e-01 -1.696570384383008e-17
 1.429999999999999e+00 -8.256108849411650e-01 -1.696570384383008e-17
 1.429999999999999e+00 -8.256108849411650e-01 -1.696570384383008e-17
 1.429999999999999e+00 -8.256108849411650e-01 -1.696570384383008e-17
 1.429999999999999e+00 -8.256108849411650e-01 -1.696570384383008e-17
 1.429999999999999e+00 -8.256108849411650e-01 -1.696570384383008e-17
 1.429999999999999e+00 -8.256108849411650e-01 -1.696570384383008e-17
 1.429999999999999e+00 -8.256108849411650e-01 -1.696570384383008e-17
 1.429999999999999e+00 -8.256108849411650e-01 -1.696570384383008e-17
 1.429999999999999e+00 -8.256108849411650e-01 -1.696570384383008e-17
 1.429999999999999e+00 -8.256108849411650e-01 -1.696570384383008e-17
 1.429999999999999e+00 -8.256108849411650e-01 -1.696570384383008e-17
 1.429999999999999e+00 -8.256108849411650e-01 -1.696570384383008e-17
 1.429999999999999e+00 -8.256108849411650e-01 -1.696570384383008e-17
 1.429999999999999e+00 -8.256108849411650e-01 -1.696570384383008e-17
 1.429999999999999e+00 -8.256108849411650e-01 -1.696570384383008e-17
 1.429999999999999e+00 -8.256108849411650e-01 -1.696570384383008e-17
 1.429999999999999e+00 -8.256108849411650e-01 -1.696570384383008e-17
 1.429999999999999e+00 -8.256108849411650e-01 -1.696570384383008e-17
 1.429999999999999e+00 -8.256108849411650e-01 -1.696570384383008e-17
 1.429999999999999e+00 -8.256108849411650e-01 -1.696570384383008e-17
 1.429999999999999e+00 -8.256108849411650e-01 -1.696570384383008e-17
 1.429999999999999e+00 -8.256108849411650e-01 -1.696570384383008e-17
 1.429999999999999e+00 -8.256108849411650e-01 -1.696570384383008e-17
 1.429999999999999e+00 -8.256108849411650e-01 -1.696570384383008e-17
 1.429999999999999e+00 -8.256108849411650e-01 -1.696570384383008e-17
 1.429999999999999e+00 -8.256108849411650e-01 -1.696570384383008e-17
 1.429999999999999e+00 -8.256108849411650e-01 -1.696570384383008e-17
 1.429999999999999e+00 -8.256108849411650e-01 -1.696570384383008e-17
 1.429999999999999e+00 -8.256108849411650e-01 -1.696570384383008e-17
 1.429999999999999e+00 -8.256108849411650e-01 -1.696570384383008e-17
 1.429999999999999e+00 -8.256108849411650e-01 -1.696570384383008e-17
 1.429999999999999e+00 -8.256108849411650e-01 -1.696570384383008e-17
 1.429999999999999e+00 -8.256108849411650e-01 -1.696570384383008e-17

VECTORS burgers_vector_local double
-1.666666666666667e-01 -3.333333333333333e-01 -1.666666666666665e-01
1.666666666666667e-01 3.333333333333333e-01 1.666666666666665e-01
-1.666666666666667e-01 -3.333333333333333e-01 -1.666666666666665e-01
-1.666666666666667e-01 -3.333333333333333e-01 -1.666666666666665e-01
-1.666666666666667e-01 -3.333333333333333e-01 -1.666666666666665e-01
-1.666666666666667e-01 -3.333333333333333e-01 -1.666666666666665e-01
-1.666666666666667e-01 -3.333333333333333e-01 -1.666666666666665e-01
-1.666666666666667e-01 -3.333333333333333e-01 -1.666666666666665e-01
-1.666666666666667e-01 -3.333333333333333e-01 -1.666666666666665e-01
-1.666666666666667e-01 -3.333333333333333e-01 -1.666666666666665e-01
-1.666666666666667e-01 -3.333333333333333e-01 -1.666666666666665e-01
-1.666666666666667e-01 -3.333333333333333e-01 -1.666666666666665e-01
-1.666666666666667e-01 -3.333333333333333e-01 -1.666666666666665e-01
-1.666666666666667e-01 -3.333333333333333e-01 -1.666666666666665e-01
-1.666666666666667e-01 -3.333333333333333e-01 -1.666666666666665e-01
-1.666666666666667e-01 -3.333333333333333e-01 -1.666666666666665e-01
-1.666666666666667e-01 -3.333333333333333e-01 -1.666666666666665e-01
-1.666666666666667e-01 -3.333333333333333e-01 -1.666666666666665e-01
-1.666666666666667e-01 -3.333333333333333e-01 -1.666666666666665e-01
-1.666666666666667e-01 -3.333333333333333e-01 -1.666666666666665e-01
-1.666666666666667e-01 -3.333333333333333e-01 -1.666666666666665e-01
-1.666666666666667e-01 -3.333333333333333e-01 -1.666666666666665e-01
-1.666666666666667e-01 -3.333333333333333e-01 -1.666666666666665e-01
-1.666666666666667e-01 -3.333333333333333e-01 -1.666666666666665e-01
-1.666666666666667e-01 -3.333333333333333e-01 -1.666666666666665e-01
-1.666666666666667e-01 -3.333333333333333e-01 -1.666666666666665e-01
-1.666666666666667e-01 -3.333333333333333e-01 -1.666666666666665e-01
-1.666666666666667e-01 -3.333333333333333e-01 -1.666666666666665e-01
-1.666666666666667e-01 -3.333333333333333e-01 -1.666666666666665e-01
-1.666666666666667e-01 -3.333333333333333e-01 -1.666666666666665e-01
-1.666666666666667e-01 -3.333333333333333e-01 -1.666666666666665e-01
-1.666666666666667e-01 -3.333333333333333e-01 -1.666666666666665e-01
-1.666666666666667e-01 -3.333333333333333e-01 -1.666666666666665e-01
-1.666666666666667e-01 -3.333333333333333e-01 -1.666666666666665e-01
-1.666666666666667e-01 -3.333333333333333e-01 -1.666666666666665e-01
-1.666666666666667e-01 -3.333333333333333e-01 -1.666666666666665e-01
-1.666666666666667e-01 -3.333333333333333e-01 -1.666666666666665e-01
-1.666666666666667e-01 -3.333333333333333e-01 -1.666666666666665e-01
-1.666666666666667e-01 -3.333333333333333e-01 -1.666666666666665e-01
-1.666666666666667e-01 -3.333333333333333e-01 -1.666666666666665e-01
-1.666666666666667e-01 -3.333333333333333e-01 -1.666666666666665e-01
-1.666666666666667e-01 -3.333333333333333e-01 -1.666666666666665e-01
-1.666666666666667e-01 -3.333333333333333e-01 -1.666666666666665e-01
-1.666666666666667e-01 -3.333333333333333e-01 -1.666666666666665e-01
-1.666666666666667e-01 -3.333333333333333e-01 -1.666666666666665e-01
-1.666666666666667e-01 -3.333333333333333e-01 -1.666666666666665e-01
-1.666666666666667e-01 -3.333333333333333e-01 -1.666666666666665e-01
-1.666666666666667e-01 -3.333333333333333e-01 -1.666666666666665e-01
-1.666666666666667e-01 -3.333333333333333e-01 -1.666666666666665e-01
-1.666666666666667e-01 -3.333333333333333e-01 -1.666666666666665e-01
-1.666666666666667e-01 -3.333333333333333e-01 -1.666666666666665e-01
-1.666666666666667e-01 -3.333333333333333e-01 -1.666666666666665e-01
-1.666666666666667e-01 -3.333333333333333e-01 -1.666666666666665e-01
-1.666666666666667e-01 -3.333333333333333e-01 -1.666666666666665e-01
-1.666666666666667e-01 -3.333333333333333e-01 -1.666666666666665e-01
-1.666666666666667e-01 -3.333333333333333e-01 -1.666666666666665e-01
-1.666666666666667e-01 -3.333333333333333e-01 -1.666666666666665e-01
-1.666666666666667e-01 -3.333333333333333e-01 -1.666666666666665e-01
-1.666666666666667e-01 -3.333333333333333e-01 -1.666666666666665e-01
-1.666666666666667e-01 -3.333333333333333e-01 -1.666666666666665e-01
-1.666666666666667e-01 -3.333333333333333e-01 -1.666666666666665e-01
-1.666666666666667e-01 -3.333333333333333e-01 -1.666666666666665e-01
-1.666666666666667e-01 -3.333333333333333e-01 -1.666666666666665e-01
-1.666666666666667e-01 -3.333333333333333e-01 -1.666666666666665e-01
-1.666666666666667e-01 -3.333333333333333e-01 -1.666666666666665e-01
-1.666666666666667e-01 -3.333333333333333e-01 -1.666666666666665e-01
-1.666666666666667e-01 -3.333333333333333e-01 -1.666666666666665e-01
-1.666666666666667e-01 -3.333333333333333e-01 -1.666666666666665e-01
-1.666666666666667e-01 -3.333333333333333e-01 -1.666666666666665e-01
-1.666666666666667e-01 -3.333333333333333e-01 -1.666666666666665e-01
-1.666666666666667e-01 -3.333333333333333e-01 -1.666666666666665e-01
-1.666666666666667e-01 -3.333333333333333e-01 -1.666666666666665e-01
-1.666666666666667e-01 -3.333333333333333e-01 -1.666666666666665e-01
-1.666666666666667e-01 -3.333333333333333e-01 -1.666666666666665e-01
-1.666666666666667e-01 -3.333333333333333e-01 -1.666666666666665e-01
-1.666666666666667e-01 -3.333333333333333e-01 -1.666666666666665e-01
-1.666666666666667e-01 -3.333333333333333e-01 -1.666666666666665e-01
-1.666666666666667e-01 -3.333333333333333e-01 -1.666666666666665e-01
-1.666666666666667e-01 -3.333333333333333e-01 -1.666666666666665e-01
-1.666666666666667e-01 -3.333333333333333e-01 -1.666666666666665e-01
-1.666666666666667e-01 -3.333333333333333e-01 -1.666666666666665e-01
-1.666666666666667e-01 -3.333333333333333e-01 -1.666666666666665e-01
-1.666666666666667e-01 -3.333333333333333e-01 -1.666666666666665e-01
-1.666666666666667e-01 -3.333333333333333e-01 -1.666666666666665e-01
-1.666666666666667e-01 -3.333333333333333e-01 -1.666666666666665e-01
-1.666666666666667e-01 -3.333333333333333e-01 -1.666666666666665e-01
-1.666666666666667e-01 -3.333333333333333e-01 -1.666666666666665e-01
-1.666666666666667e-01 -3.333333333333333e-01 -1.666666666666665e-01
-1.666666666666667e-01 -3.333333333333333e-01 -1.666666666666665e-01
-1.666666666666667e-01 -3.333333333333333e-01 -1.666666666666665e-01
-1.666666666666667e-01 -3.333333333333333e-01 -1.666666666666665e-01
-1.666666666666667e-01 -3.333333333333333e-01 -1.666666666666665e-01
-1.666666666666667e-01 -3.333333333333333e-01 -1.666666666666665e-01
-1.666666666666667e-01 -3.333333333333333e-01 -1.666666666666665e-01
-1.666666666666667e-01 -3.333333333333333e-01 -1.666666666666665e-01
-1.666666666666667e-01 -3.333333333333333e-01 -1.666666666666665e-01
-1.666666666666667e-01 -3.333333333333333e-01 -1.666666666666665e-01
-1.666666666666667e-01 -3.333333333333333e-01 -1.666666666666665e-01
-1.666666666666667e-01 -3.333333333333333e-01 -1.666666666666665e-01
-1.666666666666667e-01 -3.333333333333333e-01 -1.666666666666665e-01
-1.666666666666667e-01 -3.333333333333333e-01 -1.666666666666665e-01
-1.666666666666667e-01 -3.333333333333333e-01 -1.666666666666665e-01
-1.666666666666667e-01 -3.333333333333333e-01 -1.666666666666665e-01
-1.666666666666667e-01 -3.333333333333333e-01 -1.666666666666665e-01
-1.666666666666667e-01 -3.333333333333333e-01 -1.666666666666665e-01
-1.666666666666667e-01 -3.333333333333333e-01 -1.666666666666665e-01
-1.666666666666667e-01 -3.333333333333333e-01 -1.666666666666665e-01
-1.666666666666667e-01 -3.333333333333333e-01 -1.666666666666665e-01
-1.666666666666667e-01 -3.333333333333333e-01 -1.666666666666665e-01
-1.666666666666667e-01 -3.333333333333333e-01 -1.666666666666665e-01
-1.666666666666667e-01 -3.333333333333333e-01 -1.666666666666665e-01
-1.666666666666667e-01 -3.333333333333333e-01 -1.666666666666665e-01
-1.666666666666667e-01 -3.333333333333333e-01 -1.666666666666665e-01
-1.666666666666667e-01 -3.333333333333333e-01 -1.666666666666665e-01
-1.666666666666667e-01 -3.333333333333333e-01 -1.666666666666665e-01
-1.666666666666667e-01 -3.333333333333333e-01 -1.666666666666665e-01
-1.666666666666667e-01 -3.333333333333333e-01 -1.666666666666665e-01
-1.666666666666667e-01 -3.333333333333333e-01 -1.666666666666665e-01
-1.666666666666667e-01 -3.333333333333333e-01 -1.666666666666665e-01
-1.666666666666667e-01 -3.333333333333333e-01 -1.666666666666665e-01
-1.666666666666667e-01 -3.333333333333333e-01 -1.666666666666665e-01
-1.666666666666667e-01 -3.333333333333333e-01 -1.666666666666665e-01
-1.666666666666667e-01 -3.333333333333333e-01 -1.666666666666665e-01
-1.666666666666667e-01 -3.333333333333333e-01 -1.666666666666665e-01
-1.666666666666667e-01 -3.333333333333333e-01 -1.666666666666665e-01
-1.666666666666667e-01 -3.333333333333333e-01 -1.666666666666665e-01
-1.666666666666667e-01 -3.333333333333333e-01 -1.666666666666665e-01
-1.666666666666667e-01 -3.333333333333333e-01 -1.666666666666665e-01
-1.666666666666667e-01 -3.333333333333333e-01 -1.666666666666665e-01
-1.666666666666667e-01 -3.333333333333333e-01 -1.666666666666665e-01
-1.666666666666667e-01 -3.333333333333333e-01 -1.666666666666665e-01
-1.666666666666667e-01 -3.333333333333333e-01 -1.666666666666665e-01
-1.666666666666667e-01 -3.333333333333333e-01 -1.666666666666665e-01
-1.666666666666667e-01 -3.333333333333333e-01 -1.666666666666665e-01
-1.666666666666667e-01 -3.333333333333333e-01 -1.666666666666665e-01
-1.666666666666667e-01 -3.333333333333333e-01 -1.666666666666665e-01
-1.666666666666667e-01 -3.333333333333333e-01 -1.666666666666665e-01
-1.666666666666667e-01 -3.333333333333333e-01 -1.666666666666665e-01
-1.666666666666667e-01 -3.333333333333333e-01 -1.666666666666665e-01
-1.666666666666667e-01 -3.333333333333333e-01 -1.666666666666665e-01
-1.666666666666667e-01 -3.333333333333333e-01 -1.666666666666665e-01
-1.666666666666667e-01 -3.333333333333333e-01 -1.666666666666665e-01
-1.666666666666667e-01 -3.333333333333333e-01 -1.666666666666665e-01
-1.666666666666667e-01 -3.333333333333333e-01 -1.666666666666665e-01
-1.666666666666667e-01 -3.333333333333333e-01 -1.666666666666665e-01
-1.666666666666667e-01 -3.333333333333333e-01 -1.666666666666665e-01
-1.666666666666667e-01 -3.333333333333333e-01 -1.666666666666665e-01
-1.666666666666667e-01 -3.333333333333333e-01 -1.666666666666665e-01
-1.666666666666667e-01 -3.333333333333333e-01 -1.666666666666665e-01
-1.666666666666667e-01 -3.333333333333333e-01 -1.666666666666665e-01
-1.666666666666667e-01 -3.333333333333333e-01 -1.666666666666665e-01
-1.666666666666667e-01 -3.333333333333333e-01 -1.666666666666665e-01
-1.666666666666667e-01 -3.333333333333333e-01 -1.666666666666665e-01
-1.666666666666667e-01 -3.333333333333333e-01 -1.666666666666665e-01
-1.666666666666667e-01 -3.333333333333333e-01 -1.666666666666665e-01
-1.666666666666667e-01 -3.333333333333333e-01 -1.666666666666665e-01
-1.666666666666667e-01 -3.333333333333333e-01 -1.666666666666665e-01
-1.666666666666667e-01 -3.333333333333333e-01 -1.666666666666665e-01
-1.666666666666667e-01 -3.333333333333333e-01 -1.666666666666665e-01
-1.666666666666667e-01 -3.333333333333333e-01 -1.666666666666665e-01
-1.666666666666667e-01 -3.333333333333333e-01 -1.666666666666665e-01
-1.666666666666667e-01 -3.333333333333333e-01 -1.666666666666665e-01
-1.666666666666667e-01 -3.333333333333333e-01 -1.666666666666665e-01
-1.666666666666667e-01 -3.333333333333333e-01 -1.666666666666665e-01
-1.666666666666667e-01 -3.333333333333333e-01 -1.666666666666665e-01
-1.666666666666667e-01 -3.333333333333333e-01 -1.666666666666665e-01
-1.666666666666667e-01 -3.333333333333333e-01 -1.666666666666665e-01
-1.666666666666667e-01 -3.333333333333333e-01 -1.666666666666665e-01
-1.666666666666667e-01 -3.333333333333333e-01 -1.666666666666665e-01
-1.666666666666667e-01 -3.333333333333333e-01 -1.666666666666665e-01
-1.666666666666667e-01 -3.333333333333333e-01 -1.666666666666665e-01
-1.666666666666667e-01 -3.333333333333333e-01 -1.666666666666665e-01
-1.666666666666667e-01 -3.333333333333333e-01 -1.666666666666665e-01
-1.666666666666667e-01 -3.333333333333333e-01 -1.666666666666665e-01
-1.666666666666667e-01 -3.333333333333333e-01 -1.666666666666665e-01
-1.666666666666667e-01 -3.333333333333333e-01 -1.666666666666665e-01
-1.666666666666667e-01 -3.333333333333333e-01 -1.666666666666665e-01
-1.666666666666667e-01 -3.333333333333333e-01 -1.666666666666665e-01
-1.666666666666667e-01 -3.333333333333333e-01 -1.666666666666665e-01
-1.666666666666667e-01 -3.333333333333333e-01 -1.666666666666665e-01
-1.666666666666667e-01 -3.333333333333333e-01 -1.666666666666665e-01
-1.666666666666667e-01 -3.333333333333333e-01 -1.666666666666665e-01
-1.666666666666667e-01 -3.333333333333333e-01 -1.666666666666665e-01
-1.666666666666667e-01 -3.333333333333333e-01 -1.666666666666665e-01
-1.666666666666667e-01 -3.333333333333333e-01 -1.666666666666665e-01
-1.666666666666667e-01 -3.333333333333333e-01 -1.666666666666665e-01
-1.666666666666667e-01 -3.333333333333333e-01 -1.666666666666665e-01
-1.666666666666667e-01 -3.333333333333333e-01 -1.666666666666665e-01
-1.666666666666667e-01 -3.333333333333333e-01 -1.666666666666665e-01
-1.666666666666667e-01 -3.333333333333333e-01 -1.666666666666665e-01
-1.666666666666667e-01 -3.333333333333333e-01 -1.666666666666665e-01
-1.666666666666667e-01 -3.333333333333333e-01 -1.666666666666665e-01
-1.666666666666667e-01 -3.333333333333333e-01 -1.666666666666665e-01
-1.666666666666667e-01 -3.333333333333333e-01 -1.666666666666665e-01
-1.666666666666667e-01 -3.333333333333333e-01 -1.666666666666665e-01
-1.666666666666667e-01 -3.333333333333333e-01 -1.666666666666665e-01
-1.666666666666667e-01 -3.333333333333333e-01 -1.666666666666665e-01
-1.666666666666667e-01 -3.333333333333333e-01 -1.666666666666665e-01
-1.666666666666667e-01 -3.333333333333333e-01 -1.666666666666665e-01
-1.666666666666667e-01 -3.333333333333333e-01 -1.666666666666665e-01
-1.666666666666667e-01 -3.333333333333333e-01 -1.666666666666665e-01
-1.666666666666667e-01 -3.333333333333333e-01 -1.666666666666665e-01
-1.666666666666667e-01 -3.333333333333333e-01 -1.666666666666665e-01
-1.666666666666667e-01 -3.333333333333333e-01 -1.666666666666665e-01
-1.666666666666667e-01 -3.333333333333333e-01 -1.666666666666665e-01
-1.666666666666667e-01 -3.333333333333333e-01 -1.666666666666665e-01
-1.666666666666667e-01 -3.333333333333333e-01 -1.666666666666665e-01
-1.666666666666667e-01 -3.333333333333333e-01 -1.666666666666665e-01
-1.666666666666667e-01 -3.333333333333333e-01 -1.666666666666665e-01
-1.666666666666667e-01 -3.333333333333333e-01 -1.666666666666665e-01
-1.666666666666667e-01 -3.333333333333333e-01 -1.666666666666665e-01
-1.666666666666667e-01 -3.333333333333333e-01 -1.666666666666665e-01
-1.666666666666667e-01 -3.333333333333333e-01 -1.666666666666665e-01
-1.666666666666667e-01 -3.333333333333333e-01 -1.666666666666665e-01
-1.666666666666667e-01 -3.333333333333333e-01 -1.666666666666665e-01
-1.666666666666667e-01 -3.333333333333333e-01 -1.666666666666665e-01
-1.666666666666667e-01 -3.333333333333333e-01 -1.666666666666665e-01
-1.666666666666667e-01 -3.333333333333333e-01 -1.666666666666665e-01
-1.666666666666667e-01 -3.333333333333333e-01 -1.666666666666665e-01
-1.666666666666667e-01 -3.333333333333333e-01 -1.666666666666665e-01
-1.666666666666667e-01 -3.333333333333333e-01 -1.666666666666665e-01
-1.666666666666667e-01 -3.333333333333333e-01 -1.666666666666665e-01
-1.666666666666667e-01 -3.333333333333333e-01 -1.666666666666665e-01
-1.666666666666667e-01 -3.333333333333333e-01 -1.666666666666665e-01
-1.666666666666667e-01 -3.333333333333333e-01 -1.666666666666665e-01
-1.666666666666667e-01 -3.333333333333333e-01 -1.666666666666665e-01
-1.666666666666667e-01 -3.333333333333333e-01 -1.666666666666665e-01
-1.666666666666667e-01 -3.333333333333333e-01 -1.666666666666665e-01
-1.666666666666667e-01 -3.333333333333333e-01 -1.666666666666665e-01
-1.666666666666667e-01 -3.333333333333333e-01 -1.666666666666665e-01
-1.666666666666667e-01 -3.333333333333333e-01 -1.666666666666665e-01
-1.666666666666667e-01 -3.333333333333333e-01 -1.666666666666665e-01
-1.666666666666667e-01 -3.333333333333333e-01 -1.666666666666665e-01
-1.666666666666667e-01 -3.333333333333333e-01 -1.666666666666665e-01
-1.666666666666667e-01 -3.333333333333333e-01 -1.666666666666665e-01
-1.666666666666667e-01 -3.333333333333333e-01 -1.666666666666665e-01
-1.666666666666667e-01 -3.333333333333333e-01 -1.666666666666665e-01
-1.666666666666667e-01 -3.333333333333333e-01 -1.666666666666665e-01
-1.666666666666667e-01 -3.333333333333333e-01 -1.666666666666665e-01
-1.666666666666667e-01 -3.333333333333333e-01 -1.666666666666665e-01
-1.666666666666667e-01 -3.333333333333333e-01 -1.666666666666665e-01
-1.666666666666667e-01 -3.333333333333333e-01 -1.666666666666665e-01
-1.666666666666667e-01 -3.333333333333333e-01 -1.666666666666665e-01
-1.666666666666667e-01 -3.333333333333333e-01 -1.666666666666665e-01
-1.666666666666667e-01 -3.333333333333333e-01 -1.666666666666665e-01
-1.666666666666667e-01 -3.333333333333333e-01 -1.666666666666665e-01
-1.666666666666667e-01 -3.333333333333333e-01 -1.666666666666665e-01
-1.666666666666667e-01 -3.333333333333333e-01 -1.666666666666665e-01
-1.666666666666667e-01 -3.333333333333333e-01 -1.666666666666665e-01
-1.666666666666667e-01 -3.333333333333333e-01 -1.666666666666665e-01
-1.666666666666667e-01 -3.333333333333333e-01 -1.666666666666665e-01
-1.666666666666667e-01 -3.333333333333333e-01 -1.666666666666665e-01
-1.666666666666667e-01 -3.333333333333333e-01 -1.666666666666665e-01
-1.666666666666667e-01 -3.333333333333333e-01 -1.666666666666665e-01
-1.666666666666667e-01 -3.333333333333333e-01 -1.666666666666665e-01
-1.666666666666667e-01 -3.333333333333333e-01 -1.666666666666665e-01
-1.666666666666667e-01 -3.333333333333333e-01 -1.666666666666665e-01
-1.666666666666667e-01 -3.333333333333333e-01 -1.666666666666665e-01
-1.666666666666667e-01 -3.333333333333333e-01 -1.666666666666665e-01
-1.666666666666667e-01 -3.333333333333333e-01 -1.666666666666665e-01
-1.666666666666667e-01 -3.333333333333333e-01 -1.666666666666665e-01
-1.666666666666667e-01 -3.333333333333333e-01 -1.666666666666665e-01
-1.666666666666667e-01 -3.333333333333333e-01 -1.666666666666665e-01
-1.666666666666667e-01 -3.333333333333333e-01 -1.666666666666665e-01
-1.666666666666667e-01 -3.333333333333333e-01 -1.666666666666665e-01
-1.666666666666667e-01 -3.333333333333333e-01 -1.666666666666665e-01
-1.666666666666667e-01 -3.333333333333333e-01 -1.666666666666665e-01
-1.666666666666667e-01 -3.333333333333333e-01 -1.666666666666665e-01
-1.666666666666667e-01 -3.333333333333333e-01 -1.666666666666665e-01
-1.666666666666667e-01 -3.333333333333333e-01 -1.666666666666665e-01
-1.666666666666667e-01 -3.333333333333333e-01 -1.666666666666665e-01
-1.666666666666667e-01 -3.333333333333333e-01 -1.666666666666665e-01
-1.666666666666667e-01 -3.333333333333333e-01 -1.666666666666665e-01
-1.666666666666667e-01 -3.333333333333333e-01 -1.666666666666665e-01
-1.666666666666667e-01 -3.333333333333333e-01 -1.666666666666665e-01
-1.666666666666667e-01 -3.333333333333333e-01 -1.666666666666665e-01
-1.666666666666667e-01 -3.333333333333333e-01 -1.666666666666665e-01
-1.666666666666667e-01 -3.333333333333333e-01 -1.666666666666665e-01
-1.666666666666667e-01 -3.333333333333333e-01 -1.666666666666665e-01
-1.666666666666667e-01 -3.333333333333333e-01 -1.666666666666665e-01
-1.666666666666667e-01 -3.333333333333333e-01 -1.666666666666665e-01
-1.666666666666667e-01 -3.333333333333333e-01 -1.666666666666665e-01
-1.666666666666667e-01 -3.333333333333333e-01 -1.666666666666665e-01
-1.666666666666667e-01 -3.333333333333333e-01 -1.666666666666665e-01
-1.666666666666667e-01 -3.333333333333333e-01 -1.666666666666665e-01
-1.666666666666667e-01 -3.333333333333333e-01 -1.666666666666665e-01
-1.666666666666667e-01 -3.333333333333333e-01 -1.666666666666665e-01
-1.666666666666667e-01 -3.333333333333333e-01 -1.666666666666665e-01
-1.666666666666667e-01 -3.333333333333333e-01 -1.666666666666665e-01
-1.666666666666667e-01 -3.333333333333333e-01 -1.666666666666665e-01
-1.666666666666667e-01 -3.333333333333333e-01 -1.666666666666665e-01
-1.666666666666667e-01 -3.333333333333333e-01 -1.666666666666665e-01
-1.666666666666667e-01 -3.333333333333333e-01 -1.666666666666665e-01
-1.666666666666667e-01 -3.333333333333333e-01 -1.666666666666665e-01
-1.666666666666667e-01 -3.333333333333333e-01 -1.666666666666665e-01
-1.666666666666667e-01 -3.333333333333333e-01 -1.666666666666665e-01
-1.666666666666667e-01 -3.333333333333333e-01 -1.666666666666665e-01
-1.666666666666667e-01 -3.333333333333333e-01 -1.666666666666665e-01
-1.666666666666667e-01 -3.333333333333333e-01 -1.666666666666665e-01
-1.666666666666667e-01 -3.333333333333333e-01 -1.666666666666665e-01
-1.666666666666667e-01 -3.333333333333333e-01 -1.666666666666665e-01
-1.666666666666667e-01 -3.333333333333333e-01 -1.666666666666665e-01
-1.666666666666667e-01 -3.333333333333333e-01 -1.666666666666665e-01
-1.666666666666667e-01 -3.333333333333333e-01 -1.666666666666665e-01
-1.666666666666667e-01 -3.333333333333333e-01 -1.666666666666665e-01
-1.666666666666667e-01 -3.333333333333333e-01 -1.666666666666665e-01
-1.666666666666667e-01 -3.333333333333333e-01 -1.666666666666665e-01
-1.666666666666667e-01 -3.333333333333333e-01 -1.666666666666665e-01
-1.666666666666667e-01 -3.333333333333333e-01 -1.666666666666665e-01
-1.666666666666667e-01 -3.333333333333333e-01 -1.666666666666665e-01
-1.666666666666667e-01 -3.333333333333333e-01 -1.666666666666665e-01
-1.666666666666667e-01 -3.333333333333333e-01 -1.666666666666665e-01
-1.666666666666667e-01 -3.333333333333333e-01 -1.666666666666665e-01
-1.666666666666667e-01 -3.333333333333333e-01 -1.666666666666665e-01
-1.666666666666667e-01 -3.333333333333333e-01 -1.666666666666665e-01
-1.666666666666667e-01 -3.333333333333333e-01 -1.666666666666665e-01
-1.666666666666667e-01 -3.333333333333333e-01 -1.666666666666665e-01
-1.666666666666667e-01 -3.333333333333333e-01 -1.666666666666665e-01
-1.666666666666667e-01 -3.333333333333333e-01 -1.666666666666665e-01
-1.666666666666667e-01 -3.333333333333333e-01 -1.666666666666665e-01
-1.666666666666667e-01 -3.333333333333333e-01 -1.666666666666665e-01
-1.666666666666667e-01 -3.333333333333333e-01 -1.666666666666665e-01
-1.666666666666667e-01 -3.333333333333333e-01 -1.666666666666665e-01
-1.666666666666667e-01 -3.333333333333333e-01 -1.666666666666665e-01
-1.666666666666667e-01 -3.333333333333333e-01 -1.666666666666665e-01
-1.666666666666667e-01 -3.333333333333333e-01 -1.666666666666665e-01
-1.666666666666667e-01 -3.333333333333333e-01 -1.666666666666665e-01
-1.666666666666667e-01 -3.333333333333333e-01 -1.666666666666665e-01
-1.666666666666667e-01 -3.333333333333333e-01 -1.666666666666665e-01
-1.666666666666667e-01 -3.333333333333333e-01 -1.666666666666665e-01
-1.666666666666667e-01 -3.333333333333333e-01 -1.666666666666665e-01
-1.666666666666667e-01 -3.333333333333333e-01 -1.666666666666665e-01
-1.666666666666667e-01 -3.333333333333333e-01 -1.666666666666665e-01
-1.666666666666667e-01 -3.333333333333333e-01 -1.666666666666665e-01
-1.666666666666667e-01 -3.333333333333333e-01 -1.666666666666665e-01
-1.666666666666667e-01 -3.333333333333333e-01 -1.666666666666665e-01
-1.666666666666667e-01 -3.333333333333333e-01 -1.666666666666665e-01
-1.666666666666667e-01 -3.333333333333333e-01 -1.666666666666665e-01
-1.666666666666667e-01 -3.333333333333333e-01 -1.666666666666665e-01
-1.666666666666667e-01 -3.333333333333333e-01 -1.666666666666665e-01
-1.666666666666667e-01 -3.333333333333333e-01 -1.666666666666665e-01
-1.666666666666667e-01 -3.333333333333333e-01 -1.666666666666665e-01
-1.666666666666667e-01 -3.333333333333333e-01 -1.666666666666665e-01
-1.666666666666667e-01 -3.333333333333333e-01 -1.666666666666665e-01
-1.666666666666667e-01 -3.333333333333333e-01 -1.666666666666665e-01
-1.666666666666667e-01 -3.333333333333333e-01 -1.666666666666665e-01
-1.666666666666667e-01 -3.333333333333333e-01 -1.666666666666665e-01
-1.666666666666667e-01 -3.333333333333333e-01 -1.666666666666665e-01
-1.666666666666667e-01 -3.333333333333333e-01 -1.666666666666665e-01
-1.666666666666667e-01 -3.333333333333333e-01 -1.666666666666665e-01
-1.666666666666667e-01 -3.333333333333333e-01 -1.666666666666665e-01
-1.666666666666667e-01 -3.333333333333333e-01 -1.666666666666665e-01
-1.666666666666667e-01 -3.333333333333333e-01 -1.666666666666665e-01
-1.666666666666667e-01 -3.333333333333333e-01 -1.666666666666665e-01
-1.666666666666667e-01 -3.333333333333333e-01 -1.666666666666665e-01
-1.666666666666667e-01 -3.333333333333333e-01 -1.666666666666665e-01
-1.666666666666667e-01 -3.333333333333333e-01 -1.666666666666665e-01
-1.666666666666667e-01 -3.333333333333333e-01 -1.666666666666665e-01
-1.666666666666667e-01 -3.333333333333333e-01 -1.666666666666665e-01
-1.666666666666667e-01 -3.333333333333333e-01 -1.666666666666665e-01
-1.666666666666667e-01 -3.333333333333333e-01 -1.666666666666665e-01
-1.666666666666667e-01 -3.333333333333333e-01 -1.666666666666665e-01
-1.666666666666667e-01 -3.333333333333333e-01 -1.666666666666665e-01
-1.666666666666667e-01 -3.333333333333333e-01 -1.666666666666665e-01
-1.666666666666667e-01 -3.333333333333333e-01 -1.666666666666665e-01
-1.666666666666667e-01 -3.333333333333333e-01 -1.666666666666665e-01
-1.666666666666667e-01 -3.333333333333333e-01 -1.666666666666665e-01
-1.666666666666667e-01 -3.333333333333333e-01 -1.666666666666665e-01
-1.666666666666667e-01 -3.333333333333333e-01 -1.666666666666665e-01
-1.666666666666667e-01 -3.333333333333333e-01 -1.666666666666665e-01
-1.666666666666667e-01 -3.333333333333333e-01 -1.666666666666665e-01
-1.666666666666667e-01 -3.333333333333333e-01 -1.666666666666665e-01
-1.666666666666667e-01 -3.333333333333333e-01 -1.666666666666665e-01
-1.666666666666667e-01 -3.333333333333333e-01 -1.666666666666665e-01
-1.666666666666667e-01 -3.333333333333333e-01 -1.666666666666665e-01
-1.666666666666667e-01 -3.333333333333333e-01 -1.666666666666665e-01
-1.666666666666667e-01 -3.333333333333333e-01 -1.666666666666665e-01
-1.666666666666667e-01 -3.333333333333333e-01 -1.666666666666665e-01
-1.666666666666667e-01 -3.333333333333333e-01 -1.666666666666665e-01
-1.666666666666667e-01 -3.333333333333333e-01 -1.666666666666665e-01
-1.666666666666667e-01 -3.333333333333333e-01 -1.666666666666665e-01
-1.666666666666667e-01 -3.333333333333333e-01 -1.666666666666665e-01
-1.666666666666667e-01 -3.333333333333333e-01 -1.666666666666665e-01
-1.666666666666667e-01 -3.333333333333333e-01 -1.666666666666665e-01
-1.666666666666667e-01 -3.333333333333333e-01 -1.666666666666665e-01
-1.666666666666667e-01 -3.333333333333333e-01 -1.666666666666665e-01
-1.666666666666667e-01 -3.333333333333333e-01 -1.666666666666665e-01
-1.666666666666667e-01 -3.333333333333333e-01 -1.666666666666665e-01
-1.666666666666667e-01 -3.333333333333333e-01 -1.666666666666665e-01
-1.666666666666667e-01 -3.333333333333333e-01 -1.666666666666665e-01
-1.666666666666667e-01 -3.333333333333333e-01 -1.666666666666665e-01
-1.666666666666667e-01 -3.333333333333333e-01 -1.666666666666665e-01
-1.666666666666667e-01 -3.333333333333333e-01 -1.666666666666665e-01
-1.666666666666667e-01 -3.333333333333333e-01 -1.666666666666665e-01
-1.666666666666667e-01 -3.333333333333333e-01 -1.666666666666665e-01
-1.666666666666667e-01 -3.333333333333333e-01 -1.666666666666665e-01
-1.666666666666667e-01 -3.333333333333333e-01 -1.666666666666665e-01
-1.666666666666667e-01 -3.333333333333333e-01 -1.666666666666665e-01
-1.666666666666667e-01 -3.333333333333333e-01 -1.666666666666665e-01
-1.666666666666667e-01 -3.333333333333333e-01 -1.666666666666665e-01
-1.666666666666667e-01 -3.333333333333333e-01 -1.666666666666665e-01
-1.666666666666667e-01 -3.333333333333333e-01 -1.666666666666665e-01
-1.666666666666667e-01 -3.333333333333333e-01 -1.666666666666665e-01
-1.666666666666667e-01 -3.333333333333333e-01 -1.666666666666665e-01
-1.666666666666667e-01 -3.333333333333333e-01 -1.666666666666665e-01
-1.666666666666667e-01 -3.333333333333333e-01 -1.666666666666665e-01
-1.666666666666667e-01 -3.333333333333333e-01 -1.666666666666665e-01
-1.666666666666667e-01 -3.333333333333333e-01 -1.666666666666665e-01
-1.666666666666667e-01 -3.333333333333333e-01 -1.666666666666665e-01
-1.666666666666667e-01 -3.333333333333333e-01 -1.666666666666665e-01
-1.666666666666667e-01 -3.333333333333333e-01 -1.666666666666665e-01
-1.666666666666667e-01 -3.333333333333333e-01 -1.666666666666665e-01
-1.666666666666667e-01 -3.333333333333333e-01 -1.666666666666665e-01
-1.666666666666667e-01 -3.333333333333333e-01 -1.666666666666665e-01
-1.666666666666667e-01 -3.333333333333333e-01 -1.666666666666665e-01
-1.666666666666667e-01 -3.333333333333333e-01 -1.666666666666665e-01
-1.666666666666667e-01 -3.333333333333333e-01 -1.666666666666665e-01
-1.666666666666667e-01 -3.333333333333333e-01 -1.666666666666665e-01
-1.666666666666667e-01 -3.333333333333333e-01 -1.666666666666665e-01
-1.666666666666667e-01 -3.333333333333333e-01 -1.666666666666665e-01
-1.666666666666667e-01 -3.333333333333333e-01 -1.666666666666665e-01
-1.666666666666667e-01 -3.333333333333333e-01 -1.666666666666665e-01
-1.666666666666667e-01 -3.333333333333333e-01 -1.666666666666665e-01
-1.666666666666667e-01 -3.333333333333333e-01 -1.666666666666665e-01
-1.666666666666667e-01 -3.333333333333333e-01 -1.666666666666665e-01
-1.666666666666667e-01 -3.333333333333333e-01 -1.666666666666665e-01
-1.666666666666667e-01 -3.333333333333333e-01 -1.666666666666665e-01
-1.666666666666667e-01 -3.333333333333333e-01 -1.666666666666665e-01
-1.666666666666667e-01 -3.333333333333333e-01 -1.666666666666665e-01
-1.666666666666667e-01 -3.333333333333333e-01 -1.666666666666665e-01
-1.666666666666667e-01 -3.333333333333333e-01 -1.666666666666665e-01
-1.666666666666667e-01 -3.333333333333333e-01 -1.666666666666665e-01
-1.666666666666667e-01 -3.333333333333333e-01 -1.666666666666665e-01
-1.666666666666667e-01 -3.333333333333333e-01 -1.666666666666665e-01
-1.666666666666667e-01 -3.333333333333333e-01 -1.666666666666665e-01
-1.666666666666667e-01 -3.333333333333333e-01 -1.666666666666665e-01
-1.666666666666667e-01 -3.333333333333333e-01 -1.666666666666665e-01
-1.666666666666667e-01 -3.333333333333333e-01 -1.666666666666665e-01
-1.666666666666667e-01 -3.333333333333333e-01 -1.666666666666665e-01
-1.666666666666667e-01 -3.333333333333333e-01 -1.666666666666665e-01
-1.666666666666667e-01 -3.333333333333333e-01 -1.666666666666665e-01
-1.666666666666667e-01 -3.333333333333333e-01 -1.666666666666665e-01
-1.666666666666667e-01 -3.333333333333333e-01 -1.666666666666665e-01
-1.666666666666667e-01 -3.333333333333333e-01 -1.666666666666665e-01
-1.666666666666667e-01 -3.333333333333333e-01 -1.666666666666665e-01
-1.666666666666667e-01 -3.333333333333333e-01 -1.666666666666665e-01
-1.666666666666667e-01 -3.333333333333333e-01 -1.666666666666665e-01
-1.666666666666667e-01 -3.333333333333333e-01 -1.666666666666665e-01
-1.666666666666667e-01 -3.333333333333333e-01 -1.666666666666665e-01
-1.666666666666667e-01 -3.333333333333333e-01 -1.666666666666665e-01
-1.666666666666667e-01 -3.333333333333333e-01 -1.666666666666665e-01
-1.666666666666667e-01 -3.333333333333333e-01 -1.666666666666665e-01
-1.666666666666667e-01 -3.333333333333333e-01 -1.666666666666665e-01
-1.666666666666667e-01 -3.333333333333333e-01 -1.666666666666665e-01
-1.666666666666667e-01 -3.333333333333333e-01 -1.666666666666665e-01
-1.666666666666667e-01 -3.333333333333333e-01 -1.666666666666665e-01
-1.666666666666667e-01 -3.333333333333333e-01 -1.666666666666665e-01
-1.666666666666667e-01 -3.333333333333333e-01 -1.666666666666665e-01
-1.666666666666667e-01 -3.333333333333333e-01 -1.666666666666665e-01
-1.666666666666667e-01 -3.333333333333333e-01 -1.666666666666665e-01
-1.666666666666667e-01 -3.333333333333333e-01 -1.666666666666665e-01
-1.666666666666667e-01 -3.333333333333333e-01 -1.666666666666665e-01
-1.666666666666667e-01 -3.333333333333333e-01 -1.666666666666665e-01
-1.666666666666667e-01 -3.333333333333333e-01 -1.666666666666665e-01
-1.666666666666667e-01 -3.333333333333333e-01 -1.666666666666665e-01
-1.666666666666667e-01 -3.333333333333333e-01 -1.666666666666665e-01
-1.666666666666667e-01 -3.333333333333333e-01 -1.666666666666665e-01
-1.666666666666667e-01 -3.333333333333333e-01 -1.666666666666665e-01
-1.666666666666667e-01 -3.333333333333333e-01 -1.666666666666665e-01
-1.666666666666667e-01 -3.333333333333333e-01 -1.666666666666665e-01
-1.666666666666667e-01 -3.333333333333333e-01 -1.666666666666665e-01
-1.666666666666667e-01 -3.333333333333333e-01 -1.666666666666665e-01
-1.666666666666667e-01 -3.333333333333333e-01 -1.666666666666665e-01
-1.666666666666667e-01 -3.333333333333333e-01 -1.666666666666665e-01
-1.666666666666667e-01 -3.333333333333333e-01 -1.666666666666665e-01
-1.666666666666667e-01 -3.333333333333333e-01 -1.666666666666665e-01
-1.666666666666667e-01 -3.333333333333333e-01 -1.666666666666665e-01
-1.666666666666667e-01 -3.333333333333333e-01 -1.666666666666665e-01
-1.666666666666667e-01 -3.333333333333333e-01 -1.666666666666665e-01
-1.666666666666667e-01 -3.333333333333333e-01 -1.666666666666665e-01
-1.666666666666667e-01 -3.333333333333333e-01 -1.666666666666665e-01
-1.666666666666667e-01 -3.333333333333333e-01 -1.666666666666665e-01
-1.666666666666667e-01 -3.333333333333333e-01 -1.666666666666665e-01
-1.666666666666667e-01 -3.333333333333333e-01 -1.666666666666665e-01
-1.666666666666667e-01 -3.333333333333333e-01 -1.666666666666665e-01
-1.666666666666667e-01 -3.333333333333333e-01 -1.666666666666665e-01
-1.666666666666667e-01 -3.333333333333333e-01 -1.666666666666665e-01
-1.666666666666667e-01 -3.333333333333333e-01 -1.666666666666665e-01
-1.666666666666667e-01 -3.333333333333333e-01 -1.666666666666665e-01
-1.666666666666667e-01 -3.333333333333333e-01 -1.666666666666665e-01
-1.666666666666667e-01 -3.333333333333333e-01 -1.666666666666665e-01
-1.666666666666667e-01 -3.333333333333333e-01 -1.666666666666665e-01
-1.666666666666667e-01 -3.333333333333333e-01 -1.666666666666665e-01
-1.666666666666667e-01 -3.333333333333333e-01 -1.666666666666665e-01
-1.666666666666667e-01 -3.333333333333333e-01 -1.666666666666665e-01
-1.666666666666667e-01 -3.333333333333333e-01 -1.666666666666665e-01
-1.666666666666667e-01 -3.333333333333333e-01 -1.666666666666665e-01
-1.666666666666667e-01 -3.333333333333333e-01 -1.666666666666665e-01
-1.666666666666667e-01 -3.333333333333333e-01 -1.666666666666665e-01
-1.666666666666667e-01 -3.333333333333333e-01 -1.666666666666665e-01
-1.666666666666667e-01 -3.333333333333333e-01 -1.666666666666665e-01
-1.666666666666667e-01 -3.333333333333333e-01 -1.666666666666665e-01
-1.666666666666667e-01 -3.333333333333333e-01 -1.666666666666665e-01
-1.666666666666667e-01 -3.333333333333333e-01 -1.666666666666665e-01
-1.666666666666667e-01 -3.333333333333333e-01 -1.666666666666665e-01
-1.666666666666667e-01 -3.333333333333333e-01 -1.666666666666665e-01
-1.666666666666667e-01 -3.333333333333333e-01 -1.666666666666665e-01
-1.666666666666667e-01 -3.333333333333333e-01 -1.666666666666665e-01
-1.666666666666667e-01 -3.333333333333333e-01 -1.666666666666665e-01
-1.666666666666667e-01 -3.333333333333333e-01 -1.666666666666665e-01
-1.666666666666667e-01 -3.333333333333333e-01 -1.666666666666665e-01
-1.666666666666667e-01 -3.333333333333333e-01 -1.666666666666665e-01
-1.666666666666667e-01 -3.333333333333333e-01 -1.666666666666665e-01
-1.666666666666667e-01 -3.333333333333333e-01 -1.666666666666665e-01
-1.666666666666667e-01 -3.333333333333333e-01 -1.666666666666665e-01
-1.666666666666667e-01 -3.333333333333333e-01 -1.666666666666665e-01
-1.666666666666667e-01 -3.333333333333333e-01 -1.666666666666665e-01
-1.666666666666667e-01 -3.333333333333333e-01 -1.666666666666665e-01
-1.666666666666667e-01 -3.333333333333333e-01 -1.666666666666665e-01
-1.666666666666667e-01 -3.333333333333333e-01 -1.666666666666665e-01
-1.666666666666667e-01 -3.333333333333333e-01 -1.666666666666665e-01
-1.666666666666667e-01 -3.333333333333333e-01 -1.666666666666665e-01
-1.666666666666667e-01 -3.333333333333333e-01 -1.666666666666665e-01
-1.666666666666667e-01 -3.333333333333333e-01 -1.666666666666665e-01
-1.666666666666667e-01 -3.333333333333333e-01 -1.666666666666665e-01
-1.666666666666667e-01 -3.333333333333333e-01 -1.666666666666665e-01
-1.666666666666667e-01 -3.333333333333333e-01 -1.666666666666665e-01
-1.666666666666667e-01 -3.333333333333333e-01 -1.666666666666665e-01
-1.666666666666667e-01 -3.333333333333333e-01 -1.666666666666665e-01
-1.666666666666667e-01 -3.333333333333333e-01 -1.666666666666665e-01
-1.666666666666667e-01 -3.333333333333333e-01 -1.666666666666665e-01
-1.666666666666667e-01 -3.333333333333333e-01 -1.666666666666665e-01
-1.666666666666667e-01 -3.333333333333333e-01 -1.666666666666665e-01
-1.666666666666667e-01 -3.333333333333333e-01 -1.666666666666665e-01
-1.666666666666667e-01 -3.333333333333333e-01 -1.666666666666665e-01
-1.666666666666667e-01 -3.333333333333333e-01 -1.666666666666665e-01
-1.666666666666667e-01 -3.333333333333333e-01 -1.666666666666665e-01
-1.666666666666667e-01 -3.333333333333333e-01 -1.666666666666665e-01
-1.666666666666667e-01 -3.333333333333333e-01 -1.666666666666665e-01
-1.666666666666667e-01 -3.333333333333333e-01 -1.666666666666665e-01
-1.666666666666667e-01 -3.333333333333333e-01 -1.666666666666665e-01
-1.666666666666667e-01 -3.333333333333333e-01 -1.666666666666665e-01
-1.666666666666667e-01 -3.333333333333333e-01 -1.666666666666665e-01
-1.666666666666667e-01 -3.333333333333333e-01 -1.666666666666665e-01
-1.666666666666667e-01 -3.333333333333333e-01 -1.666666666666665e-01
-1.666666666666667e-01 -3.333333333333333e-01 -1.666666666666665e-01
-1.666666666666667e-01 -3.333333333333333e-01 -1.666666666666665e-01
-1.666666666666667e-01 -3.333333333333333e-01 -1.666666666666665e-01
-1.666666666666667e-01 -3.333333333333333e-01 -1.666666666666665e-01
-1.666666666666667e-01 -3.333333333333333e-01 -1.666666666666665e-01
-1.666666666666667e-01 -3.333333333333333e-01 -1.666666666666665e-01
-1.666666666666667e-01 -3.333333333333333e-01 -1.666666666666665e-01
-1.666666666666667e-01 -3.333333333333333e-01 -1.666666666666665e-01
-1.666666666666667e-01 -3.333333333333333e-01 -1.666666666666665e-01
-1.666666666666667e-01 -3.333333333333333e-01 -1.666666666666665e-01
-1.666666666666667e-01 -3.333333333333333e-01 -1.666666666666665e-01
-1.666666666666667e-01 -3.333333333333333e-01 -1.666666666666665e-01
-1.666666666666667e-01 -3.333333333333333e-01 -1.666666666666665e-01
-1.666666666666667e-01 -3.333333333333333e-01 -1.666666666666665e-01
-1.666666666666667e-01 -3.333333333333333e-01 -1.666666666666665e-01
-1.666666666666667e-01 -3.333333333333333e-01 -1.666666666666665e-01
-1.666666666666667e-01 -3.333333333333333e-01 -1.666666666666665e-01
-1.666666666666667e-01 -3.333333333333333e-01 -1.666666666666665e-01
-1.666666666666667e-01 -3.333333333333333e-01 -1.666666666666665e-01
-1.666666666666667e-01 -3.333333333333333e-01 -1.666666666666665e-01
-1.666666666666667e-01 -3.333333333333333e-01 -1.666666666666665e-01
-1.666666666666667e-01 -3.333333333333333e-01 -1.666666666666665e-01
-1.666666666666667e-01 -3.333333333333333e-01 -1.666666666666665e-01
-1.666666666666667e-01 -3.333333333333333e-01 -1.666666666666665e-01
-1.666666666666667e-01 -3.333333333333333e-01 -1.666666666666665e-01
-1.666666666666667e-01 -3.333333333333333e-01 -1.666666666666665e-01
-1.666666666666667e-01 -3.333333333333333e-01 -1.666666666666665e-01
-1.666666666666667e-01 -3.333333333333333e-01 -1.666666666666665e-01
-1.666666666666667e-01 -3.333333333333333e-01 -1.666666666666665e-01
-1.666666666666667e-01 -3.333333333333333e-01 -1.666666666666665e-01
-1.666666666666667e-01 -3.333333333333333e-01 -1.666666666666665e-01
-1.666666666666667e-01 -3.333333333333333e-01 -1.666666666666665e-01
-1.666666666666667e-01 -3.333333333333333e-01 -1.666666666666665e-01
-1.666666666666667e-01 -3.333333333333333e-01 -1.666666666666665e-01
-1.666666666666667e-01 -3.333333333333333e-01 -1.666666666666665e-01
-1.666666666666667e-01 -3.333333333333333e-01 -1.666666666666665e-01
-1.666666666666667e-01 -3.333333333333333e-01 -1.666666666666665e-01
-1.666666666666667e-01 -3.333333333333333e-01 -1.666666666666665e-01
-1.666666666666667e-01 -3.333333333333333e-01 -1.666666666666665e-01
-1.666666666666667e-01 -3.333333333333333e-01 -1.666666666666665e-01
-1.666666666666667e-01 -3.333333333333333e-01 -1.666666666666665e-01
-1.666666666666667e-01 -3.333333333333333e-01 -1.666666666666665e-01
-1.666666666666667e-01 -3.333333333333333e-01 -1.666666666666665e-01
-1.666666666666667e-01 -3.333333333333333e-01 -1.666666666666665e-01
-1.666666666666667e-01 -3.333333333333333e-01 -1.666666666666665e-01
-1.666666666666667e-01 -3.333333333333333e-01 -1.666666666666665e-01
-1.666666666666667e-01 -3.333333333333333e-01 -1.666666666666665e-01
-1.666666666666667e-01 -3.333333333333333e-01 -1.666666666666665e-01
-1.666666666666667e-01 -3.333333333333333e-01 -1.666666666666665e-01
-1.666666666666667e-01 -3.333333333333333e-01 -1.666666666666665e-01
-1.666666666666667e-01 -3.333333333333333e-01 -1.666666666666665e-01
-1.666666666666667e-01 -3.333333333333333e-01 -1.666666666666665e-01
-1.666666666666667e-01 -3.333333333333333e-01 -1.666666666666665e-01
-1.666666666666667e-01 -3.333333333333333e-01 -1.666666666666665e-01
-1.666666666666667e-01 -3.333333333333333e-01 -1.666666666666665e-01
-1.666666666666667e-01 -3.333333333333333e-01 -1.666666666666665e-01
-1.666666666666667e-01 -3.333333333333333e-01 -1.666666666666665e-01
-1.666666666666667e-01 -3.333333333333333e-01 -1.666666666666665e-01
-1.666666666666667e-01 -3.333333333333333e-01 -1.666666666666665e-01
-1.666666666666667e-01 -3.333333333333333e-01 -1.666666666666665e-01
-1.666666666666667e-01 -3.333333333333333e-01 -1.666666666666665e-01
-1.666666666666667e-01 -3.333333333333333e-01 -1.666666666666665e-01
-1.666666666666667e-01 -3.333333333333333e-01 -1.666666666666665e-01
-1.666666666666667e-01 -3.333333333333333e-01 -1.666666666666665e-01
-1.666666666666667e-01 -3.333333333333333e-01 -1.666666666666665e-01
-1.666666666666667e-01 -3.333333333333333e-01 -1.666666666666665e-01
-1.666666666666667e-01 -3.333333333333333e-01 -1.666666666666665e-01
-1.666666666666667e-01 -3.333333333333333e-01 -1.666666666666665e-01
-1.666666666666667e-01 -3.333333333333333e-01 -1.666666666666665e-01
-1.666666666666667e-01 -3.333333333333333e-01 -1.666666666666665e-01
-1.666666666666667e-01 -3.333333333333333e-01 -1.666666666666665e-01
-1.666666666666667e-01 -3.333333333333333e-01 -1.666666666666665e-01
-1.666666666666667e-01 -3.333333333333333e-01 -1.666666666666665e-01
-1.666666666666667e-01 -3.333333333333333e-01 -1.666666666666665e-01
-1.666666666666667e-01 -3.333333333333333e-01 -1.666666666666665e-01
-1.666666666666667e-01 -3.333333333333333e-01 -1.666666666666665e-01
-1.666666666666667e-01 -3.333333333333333e-01 -1.666666666666665e-01
-1.666666666666667e-01 -3.333333333333333e-01 -1.666666666666665e-01
-1.666666666666667e-01 -3.333333333333333e-01 -1.666666666666665e-01
-1.666666666666667e-01 -3.333333333333333e-01 -1.666666666666665e-01
-1.666666666666667e-01 -3.333333333333333e-01 -1.666666666666665e-01
-1.666666666666667e-01 -3.333333333333333e-01 -1.666666666666665e-01
-1.666666666666667e-01 -3.333333333333333e-01 -1.666666666666665e-01
-1.666666666666667e-01 -3.333333333333333e-01 -1.666666666666665e-01
-1.666666666666667e-01 -3.333333333333333e-01 -1.666666666666665e-01
-1.666666666666667e-01 -3.333333333333333e-01 -1.666666666666665e-01
-1.666666666666667e-01 -3.333333333333333e-01 -1.666666666666665e-01
-1.666666666666667e-01 -3.333333333333333e-01 -1.666666666666665e-01
-1.666666666666667e-01 -3.333333333333333e-01 -1.666666666666665e-01
-1.666666666666667e-01 -3.333333333333333e-01 -1.666666666666665e-01
-1.666666666666667e-01 -3.333333333333333e-01 -1.666666666666665e-01
-1.666666666666667e-01 -3.333333333333333e-01 -1.666666666666665e-01
-1.666666666666667e-01 -3.333333333333333e-01 -1.666666666666665e-01
-1.666666666666667e-01 -3.333333333333333e-01 -1.666666666666665e-01
-1.666666666666667e-01 -3.333333333333333e-01 -1.666666666666665e-01
-1.666666666666667e-01 -3.333333333333333e-01 -1.666666666666665e-01
-1.666666666666667e-01 -3.333333333333333e-01 -1.666666666666665e-01
-1.666666666666667e-01 -3.333333333333333e-01 -1.666666666666665e-01
-1.666666666666667e-01 -3.333333333333333e-01 -1.666666666666665e-01
-1.666666666666667e-01 -3.333333333333333e-01 -1.666666666666665e-01
-1.666666666666667e-01 -3.333333333333333e-01 -1.666666666666665e-01
-1.666666666666667e-01 -3.333333333333333e-01 -1.666666666666665e-01
-1.666666666666667e-01 -3.333333333333333e-01 -1.666666666666665e-01
-1.666666666666667e-01 -3.333333333333333e-01 -1.666666666666665e-01
-1.666666666666667e-01 -3.333333333333333e-01 -1.666666666666665e-01
-1.666666666666667e-01 -3.333333333333333e-01 -1.666666666666665e-01
-1.666666666666667e-01 -3.333333333333333e-01 -1.666666666666665e-01
-1.666666666666667e-01 -3.333333333333333e-01 -1.666666666666665e-01
-1.666666666666667e-01 -3.333333333333333e-01 -1.666666666666665e-01
-1.666666666666667e-01 -3.333333333333333e-01 -1.666666666666665e-01
-1.666666666666667e-01 -3.333333333333333e-01 -1.666666666666665e-01
-1.666666666666667e-01 -3.333333333333333e-01 -1.666666666666665e-01
-1.666666666666667e-01 -3.333333333333333e-01 -1.666666666666665e-01
-1.666666666666667e-01 -3.333333333333333e-01 -1.666666666666665e-01
-1.666666666666667e-01 -3.333333333333333e-01 -1.666666666666665e-01
-1.666666666666667e-01 -3.333333333333333e-01 -1.666666666666665e-01
-1.666666666666667e-01 -3.333333333333333e-01 -1.666666666666665e-01
-1.666666666666667e-01 -3.333333333333333e-01 -1.666666666666665e-01
-1.666666666666667e-01 -3.333333333333333e-01 -1.666666666666665e-01
-1.666666666666667e-01 -3.333333333333333e-01 -1.666666666666665e-01
-1.666666666666667e-01 -3.333333333333333e-01 -1.666666666666665e-01
-1.666666666666667e-01 -3.333333333333333e-01 -1.666666666666665e-01
-1.666666666666667e-01 -3.333333333333333e-01 -1.666666666666665e-01
-1.666666666666667e-01 -3.333333333333333e-01 -1.666666666666665e-01
-1.666666666666667e-01 -3.333333333333333e-01 -1.666666666666665e-01
-1.666666666666667e-01 -3.333333333333333e-01 -1.666666666666665e-01
-1.666666666666667e-01 -3.333333333333333e-01 -1.666666666666665e-01
-1.666666666666667e-01 -3.333333333333333e-01 -1.666666666666665e-01
-1.666666666666667e-01 -3.333333333333333e-01 -1.666666666666665e-01
-1.666666666666667e-01 -3.333333333333333e-01 -1.666666666666665e-01
-1.666666666666667e-01 -3.333333333333333e-01 -1.666666666666665e-01
-1.666666666666667e-01 -3.333333333333333e-01 -1.666666666666665e-01
-1.666666666666667e-01 -3.333333333333333e-01 -1.666666666666665e-01
-1.666666666666667e-01 -3.333333333333333e-01 -1.666666666666665e-01
-1.666666666666667e-01 -3.333333333333333e-01 -1.666666666666665e-01
-1.666666666666667e-01 -3.333333333333333e-01 -1.666666666666665e-01
-1.666666666666667e-01 -3.333333333333333e-01 -1.666666666666665e-01
-1.666666666666667e-01 -3.333333333333333e-01 -1.666666666666665e-01
-1.666666666666667e-01 -3.333333333333333e-01 -1.666666666666665e-01
-1.666666666666667e-01 -3.333333333333333e-01 -1.666666666666665e-01
-1.666666666666667e-01 -3.333333333333333e-01 -1.666666666666665e-01
-1.666666666666667e-01 -3.333333333333333e-01 -1.666666666666665e-01
-1.666666666666667e-01 -3.333333333333333e-01 -1.666666666666665e-01
-1.666666666666667e-01 -3.333333333333333e-01 -1.666666666666665e-01
-1.666666666666667e-01 -3.333333333333333e-01 -1.666666666666665e-01
-1.666666666666667e-01 -3.333333333333333e-01 -1.666666666666665e-01
-1.666666666666667e-01 -3.333333333333333e-01 -1.666666666666665e-01
-1.666666666666667e-01 -3.333333333333333e-01 -1.666666666666665e-01
-1.666666666666667e-01 -3.333333333333333e-01 -1.666666666666665e-01
-1.666666666666667e-01 -3.333333333333333e-01 -1.666666666666665e-01
-1.666666666666667e-01 -3.333333333333333e-01 -1.666666666666665e-01
-1.666666666666667e-01 -3.333333333333333e-01 -1.666666666666665e-01
-1.666666666666667e-01 -3.333333333333333e-01 -1.666666666666665e-01
-1.666666666666667e-01 -3.333333333333333e-01 -1.666666666666665e-01
-1.666666666666667e-01 -3.333333333333333e-01 -1.666666666666665e-01
-1.666666666666667e-01 -3.333333333333333e-01 -1.666666666666665e-01
-1.666666666666667e-01 -3.333333333333333e-01 -1.666666666666665e-01
-1.666666666666667e-01 -3.333333333333333e-01 -1.666666666666665e-01
-1.666666666666667e-01 -3.333333333333333e-01 -1.666666666666665e-01
-1.666666666666667e-01 -3.333333333333333e-01 -1.666666666666665e-01
-1.666666666666667e-01 -3.333333333333333e-01 -1.666666666666665e-01
-1.666666666666667e-01 -3.333333333333333e-01 -1.666666666666665e-01
-1.666666666666667e-01 -3.333333333333333e-01 -1.666666666666665e-01
-1.666666666666667e-01 -3.333333333333333e-01 -1.666666666666665e-01
-1.666666666666667e-01 -3.333333333333333e-01 -1.666666666666665e-01
-1.666666666666667e-01 -3.333333333333333e-01 -1.666666666666665e-01
-1.666666666666667e-01 -3.333333333333333e-01 -1.666666666666665e-01
-1.666666666666667e-01 -3.333333333333333e-01 -1.666666666666665e-01
-1.666666666666667e-01 -3.333333333333333e-01 -1.666666666666665e-01
-1.666666666666667e-01 -3.333333333333333e-01 -1.666666666666665e-01
-1.666666666666667e-01 -3.333333333333333e-01 -1.666666666666665e-01
-1.666666666666667e-01 -3.333333333333333e-01 -1.666666666666665e-01
-1.666666666666667e-01 -3.333333333333333e-01 -1.666666666666665e-01
-1.666666666666667e-01 -3.333333333333333e-01 -1.666666666666665e-01
-1.666666666666667e-01 -3.333333333333333e-01 -1.666666666666665e-01
-1.666666666666667e-01 -3.333333333333333e-01 -1.666666666666665e-01
-1.666666666666667e-01 -3.333333333333333e-01 -1.666666666666665e-01
-1.666666666666667e-01 -3.333333333333333e-01 -1.666666666666665e-01
-1.666666666666667e-01 -3.333333333333333e-01 -1.666666666666665e-01
-1.666666666666667e-01 -3.333333333333333e-01 -1.666666666666665e-01
-1.666666666666667e-01 -3.333333333333333e-01 -1.666666666666665e-01
-1.666666666666667e-01 -3.333333333333333e-01 -1.666666666666665e-01
-1.666666666666667e-01 -3.333333333333333e-01 -1.666666666666665e-01
-1.666666666666667e-01 -3.333333333333333e-01 -1.666666666666665e-01
-1.666666666666667e-01 -3.333333333333333e-01 -1.666666666666665e-01
-1.666666666666667e-01 -3.333333333333333e-01 -1.666666666666665e-01
-1.666666666666667e-01 -3.333333333333333e-01 -1.666666666666665e-01
-1.666666666666667e-01 -3.333333333333333e-01 -1.666666666666665e-01
-1.666666666666667e-01 -3.333333333333333e-01 -1.666666666666665e-01
-1.666666666666667e-01 -3.333333333333333e-01 -1.666666666666665e-01
-1.666666666666667e-01 -3.333333333333333e-01 -1.666666666666665e-01
-1.666666666666667e-01 -3.333333333333333e-01 -1.666666666666665e-01
-1.666666666666667e-01 -3.333333333333333e-01 -1.666666666666665e-01
-1.666666666666667e-01 -3.333333333333333e-01 -1.666666666666665e-01
-1.666666666666667e-01 -3.333333333333333e-01 -1.666666666666665e-01
-1.666666666666667e-01 -3.333333333333333e-01 -1.666666666666665e-01
-1.666666666666667e-01 -3.333333333333333e-01 -1.666666666666665e-01
-1.666666666666667e-01 -3.333333333333333e-01 -1.666666666666665e-01
-1.666666666666667e-01 -3.333333333333333e-01 -1.666666666666665e-01
-1.666666666666667e-01 -3.333333333333333e-01 -1.666666666666665e-01
-1.666666666666667e-01 -3.333333333333333e-01 -1.666666666666665e-01
-1.666666666666667e-01 -3.333333333333333e-01 -1.666666666666665e-01
-1.666666666666667e-01 -3.333333333333333e-01 -1.666666666666665e-01
-1.666666666666667e-01 -3.333333333333333e-01 -1.666666666666665e-01
-1.666666666666667e-01 -3.333333333333333e-01 -1.666666666666665e-01
-1.666666666666667e-01 -3.333333333333333e-01 -1.666666666666665e-01
-1.666666666666667e-01 -3.333333333333333e-01 -1.666666666666665e-01
-1.666666666666667e-01 -3.333333333333333e-01 -1.666666666666665e-01
-1.666666666666667e-01 -3.333333333333333e-01 -1.666666666666665e-01
-1.666666666666667e-01 -3.333333333333333e-01 -1.666666666666665e-01
-1.666666666666667e-01 -3.333333333333333e-01 -1.666666666666665e-01
-1.666666666666667e-01 -3.333333333333333e-01 -1.666666666666665e-01
-1.666666666666667e-01 -3.333333333333333e-01 -1.666666666666665e-01
-1.666666666666667e-01 -3.333333333333333e-01 -1.666666666666665e-01
-1.666666666666667e-01 -3.333333333333333e-01 -1.666666666666665e-01
-1.666666666666667e-01 -3.333333333333333e-01 -1.666666666666665e-01
-1.666666666666667e-01 -3.333333333333333e-01 -1.666666666666665e-01
-1.666666666666667e-01 -3.333333333333333e-01 -1.666666666666665e-01
-1.666666666666667e-01 -3.333333333333333e-01 -1.666666666666665e-01
-1.666666666666667e-01 -3.333333333333333e-01 -1.666666666666665e-01
-1.666666666666667e-01 -3.333333333333333e-01 -1.666666666666665e-01
-1.666666666666667e-01 -3.333333333333333e-01 -1.666666666666665e-01
-1.666666666666667e-01 -3.333333333333333e-01 -1.666666666666665e-01
-1.666666666666667e-01 -3.333333333333333e-01 -1.666666666666665e-01
-1.666666666666667e-01 -3.333333333333333e-01 -1.666666666666665e-01
-1.666666666666667e-01 -3.333333333333333e-01 -1.666666666666665e-01
-1.666666666666667e-01 -3.333333333333333e-01 -1.666666666666665e-01
-1.666666666666667e-01 -3.333333333333333e-01 -1.666666666666665e-01
-1.666666666666667e-01 -3.333333333333333e-01 -1.666666666666665e-01
1.666666666666667e-01 3.333333333333333e-01 1.666666666666665e-01
-1.666666666666667e-01 -3.333333333333333e-01 -1.666666666666665e-01
1.666666666666667e-01 3.333333333333333e-01 1.666666666666665e-01
1.666666666666667e-01 3.333333333333333e-01 1.666666666666665e-01
1.666666666666667e-01 3.333333333333333e-01 1.666666666666665e-01
1.666666666666667e-01 3.333333333333333e-01 1.666666666666665e-01
1.666666666666667e-01 3.333333333333333e-01 1.666666666666665e-01
1.666666666666667e-01 3.333333333333333e-01 1.666666666666665e-01
1.666666666666667e-01 3.333333333333333e-01 1.666666666666665e-01
1.666666666666667e-01 3.333333333333333e-01 1.666666666666665e-01
1.666666666666667e-01 3.333333333333333e-01 1.666666666666665e-01
1.666666666666667e-01 3.333333333333333e-01 1.666666666666665e-01
1.666666666666667e-01 3.333333333333333e-01 1.666666666666665e-01
1.666666666666667e-01 3.333333333333333e-01 1.666666666666665e-01
1.666666666666667e-01 3.333333333333333e-01 1.666666666666665e-01
1.666666666666667e-01 3.333333333333333e-01 1.666666666666665e-01
1.666666666666667e-01 3.333333333333333e-01 1.666666666666665e-01
1.666666666666667e-01 3.333333333333333e-01 1.666666666666665e-01
1.666666666666667e-01 3.333333333333333e-01 1.666666666666665e-01
1.666666666666667e-01 3.333333333333333e-01 1.666666666666665e-01
1.666666666666667e-01 3.333333333333333e-01 1.666666666666665e-01
1.666666666666667e-01 3.333333333333333e-01 1.666666666666665e-01
1.666666666666667e-01 3.333333333333333e-01 1.666666666666665e-01
1.666666666666667e-01 3.333333333333333e-01 1.666666666666665e-01
1.666666666666667e-01 3.333333333333333e-01 1.666666666666665e-01
1.666666666666667e-01 3.333333333333333e-01 1.666666666666665e-01
1.666666666666667e-01 3.333333333333333e-01 1.666666666666665e-01
1.666666666666667e-01 3.333333333333333e-01 1.666666666666665e-01
1.666666666666667e-01 3.333333333333333e-01 1.666666666666665e-01
1.666666666666667e-01 3.333333333333333e-01 1.666666666666665e-01
1.666666666666667e-01 3.333333333333333e-01 1.666666666666665e-01
1.666666666666667e-01 3.333333333333333e-01 1.666666666666665e-01
1.666666666666667e-01 3.333333333333333e-01 1.666666666666665e-01
1.666666666666667e-01 3.333333333333333e-01 1.666666666666665e-01
1.666666666666667e-01 3.333333333333333e-01 1.666666666666665e-01
1.666666666666667e-01 3.333333333333333e-01 1.666666666666665e-01
1.666666666666667e-01 3.333333333333333e-01 1.666666666666665e-01
1.666666666666667e-01 3.333333333333333e-01 1.666666666666665e-01
1.666666666666667e-01 3.333333333333333e-01 1.666666666666665e-01
1.666666666666667e-01 3.333333333333333e-01 1.666666666666665e-01
1.666666666666667e-01 3.333333333333333e-01 1.666666666666665e-01
1.666666666666667e-01 3.333333333333333e-01 1.666666666666665e-01
1.666666666666667e-01 3.333333333333333e-01 1.666666666666665e-01
1.666666666666667e-01 3.333333333333333e-01 1.666666666666665e-01
1.666666666666667e-01 3.333333333333333e-01 1.666666666666665e-01
1.666666666666667e-01 3.333333333333333e-01 1.666666666666665e-01
1.666666666666667e-01 3.333333333333333e-01 1.666666666666665e-01
1.666666666666667e-01 3.333333333333333e-01 1.666666666666665e-01
1.666666666666667e-01 3.333333333333333e-01 1.666666666666665e-01
1.666666666666667e-01 3.333333333333333e-01 1.666666666666665e-01
1.666666666666667e-01 3.333333333333333e-01 1.666666666666665e-01
1.666666666666667e-01 3.333333333333333e-01 1.666666666666665e-01
1.666666666666667e-01 3.333333333333333e-01 1.666666666666665e-01
1.666666666666667e-01 3.333333333333333e-01 1.666666666666665e-01
1.666666666666667e-01 3.333333333333333e-01 1.666666666666665e-01
1.666666666666667e-01 3.333333333333333e-01 1.666666666666665e-01
1.666666666666667e-01 3.333333333333333e-01 1.666666666666665e-01
1.666666666666667e-01 3.333333333333333e-01 1.666666666666665e-01
1.666666666666667e-01 3.333333333333333e-01 1.666666666666665e-01
1.666666666666667e-01 3.333333333333333e-01 1.666666666666665e-01
1.666666666666667e-01 3.333333333333333e-01 1.666666666666665e-01
1.666666666666667e-01 3.333333333333333e-01 1.666666666666665e-01
1.666666666666667e-01 3.333333333333333e-01 1.666666666666665e-01
1.666666666666667e-01 3.333333333333333e-01 1.666666666666665e-01
1.666666666666667e-01 3.333333333333333e-01 1.666666666666665e-01
1.666666666666667e-01 3.333333333333333e-01 1.666666666666665e-01
1.666666666666667e-01 3.333333333333333e-01 1.666666666666665e-01
1.666666666666667e-01 3.333333333333333e-01 1.666666666666665e-01
1.666666666666667e-01 3.333333333333333e-01 1.666666666666665e-01
1.666666666666667e-01 3.333333333333333e-01 1.666666666666665e-01
1.666666666666667e-01 3.333333333333333e-01 1.666666666666665e-01
1.666666666666667e-01 3.333333333333333e-01 1.666666666666665e-01
1.666666666666667e-01 3.333333333333333e-01 1.666666666666665e-01
1.666666666666667e-01 3.333333333333333e-01 1.666666666666665e-01
1.666666666666667e-01 3.333333333333333e-01 1.666666666666665e-01
1.666666666666667e-01 3.333333333333333e-01 1.666666666666665e-01
1.666666666666667e-01 3.333333333333333e-01 1.666666666666665e-01
1.666666666666667e-01 3.333333333333333e-01 1.666666666666665e-01
1.666666666666667e-01 3.333333333333333e-01 1.666666666666665e-01
1.666666666666667e-01 3.333333333333333e-01 1.666666666666665e-01
1.666666666666667e-01 3.333333333333333e-01 1.666666666666665e-01
1.666666666666667e-01 3.333333333333333e-01 1.666666666666665e-01
1.666666666666667e-01 3.333333333333333e-01 1.666666666666665e-01
1.666666666666667e-01 3.333333333333333e-01 1.666666666666665e-01
1.666666666666667e-01 3.333333333333333e-01 1.666666666666665e-01
1.666666666666667e-01 3.333333333333333e-01 1.666666666666665e-01
1.666666666666667e-01 3.333333333333333e-01 1.666666666666665e-01
1.666666666666667e-01 3.333333333333333e-01 1.666666666666665e-01
1.666666666666667e-01 3.333333333333333e-01 1.666666666666665e-01
1.666666666666667e-01 3.333333333333333e-01 1.666666666666665e-01
1.666666666666667e-01 3.333333333333333e-01 1.666666666666665e-01
1.666666666666667e-01 3.333333333333333e-01 1.666666666666665e-01
1.666666666666667e-01 3.333333333333333e-01 1.666666666666665e-01
1.666666666666667e-01 3.333333333333333e-01 1.666666666666665e-01
1.666666666666667e-01 3.333333333333333e-01 1.666666666666665e-01
1.666666666666667e-01 3.333333333333333e-01 1.666666666666665e-01
1.666666666666667e-01 3.333333333333333e-01 1.666666666666665e-01
1.666666666666667e-01 3.333333333333333e-01 1.666666666666665e-01
1.666666666666667e-01 3.333333333333333e-01 1.666666666666665e-01
1.666666666666667e-01 3.333333333333333e-01 1.666666666666665e-01
1.666666666666667e-01 3.333333333333333e-01 1.666666666666665e-01
1.666666666666667e-01 3.333333333333333e-01 1.666666666666665e-01
1.666666666666667e-01 3.333333333333333e-01 1.666666666666665e-01
1.666666666666667e-01 3.333333333333333e-01 1.666666666666665e-01
1.666666666666667e-01 3.333333333333333e-01 1.666666666666665e-01
1.666666666666667e-01 3.333333333333333e-01 1.666666666666665e-01
1.666666666666667e-01 3.333333333333333e-01 1.666666666666665e-01
1.666666666666667e-01 3.333333333333333e-01 1.666666666666665e-01
1.666666666666667e-01 3.333333333333333e-01 1.666666666666665e-01
1.666666666666667e-01 3.333333333333333e-01 1.666666666666665e-01
1.666666666666667e-01 3.333333333333333e-01 1.666666666666665e-01
1.666666666666667e-01 3.333333333333333e-01 1.666666666666665e-01
1.666666666666667e-01 3.333333333333333e-01 1.666666666666665e-01
1.666666666666667e-01 3.333333333333333e-01 1.666666666666665e-01
1.666666666666667e-01 3.333333333333333e-01 1.666666666666665e-01
1.666666666666667e-01 3.333333333333333e-01 1.666666666666665e-01
1.666666666666667e-01 3.333333333333333e-01 1.666666666666665e-01
1.666666666666667e-01 3.333333333333333e-01 1.666666666666665e-01
1.666666666666667e-01 3.333333333333333e-01 1.666666666666665e-01
1.666666666666667e-01 3.333333333333333e-01 1.666666666666665e-01
1.666666666666667e-01 3.333333333333333e-01 1.666666666666665e-01
1.666666666666667e-01 3.333333333333333e-01 1.666666666666665e-01
1.666666666666667e-01 3.333333333333333e-01 1.666666666666665e-01
1.666666666666667e-01 3.333333333333333e-01 1.666666666666665e-01
1.666666666666667e-01 3.333333333333333e-01 1.666666666666665e-01
1.666666666666667e-01 3.333333333333333e-01 1.666666666666665e-01
1.666666666666667e-01 3.333333333333333e-01 1.666666666666665e-01
1.666666666666667e-01 3.333333333333333e-01 1.666666666666665e-01
1.666666666666667e-01 3.333333333333333e-01 1.666666666666665e-01
1.666666666666667e-01 3.333333333333333e-01 1.666666666666665e-01
1.666666666666667e-01 3.333333333333333e-01 1.666666666666665e-01
1.666666666666667e-01 3.333333333333333e-01 1.666666666666665e-01
1.666666666666667e-01 3.333333333333333e-01 1.666666666666665e-01
1.666666666666667e-01 3.333333333333333e-01 1.666666666666665e-01
1.666666666666667e-01 3.333333333333333e-01 1.666666666666665e-01
1.666666666666667e-01 3.333333333333333e-01 1.666666666666665e-01
1.666666666666667e-01 3.333333333333333e-01 1.666666666666665e-01
1.666666666666667e-01 3.333333333333333e-01 1.666666666666665e-01
1.666666666666667e-01 3.333333333333333e-01 1.666666666666665e-01
1.666666666666667e-01 3.333333333333333e-01 1.666666666666665e-01
1.666666666666667e-01 3.333333333333333e-01 1.666666666666665e-01
1.666666666666667e-01 3.333333333333333e-01 1.666666666666665e-01
1.666666666666667e-01 3.333333333333333e-01 1.666666666666665e-01
1.666666666666667e-01 3.333333333333333e-01 1.666666666666665e-01
1.666666666666667e-01 3.333333333333333e-01 1.666666666666665e-01
1.666666666666667e-01 3.333333333333333e-01 1.666666666666665e-01
1.666666666666667e-01 3.333333333333333e-01 1.666666666666665e-01
1.666666666666667e-01 3.333333333333333e-01 1.666666666666665e-01
1.666666666666667e-01 3.333333333333333e-01 1.666666666666665e-01
1.666666666666667e-01 3.333333333333333e-01 1.666666666666665e-01
1.666666666666667e-01 3.333333333333333e-01 1.666666666666665e-01
1.666666666666667e-01 3.333333333333333e-01 1.666666666666665e-01
1.666666666666667e-01 3.333333333333333e-01 1.666666666666665e-01
1.666666666666667e-01 3.333333333333333e-01 1.666666666666665e-01
1.666666666666667e-01 3.333333333333333e-01 1.666666666666665e-01
1.666666666666667e-01 3.333333333333333e-01 1.666666666666665e-01
1.666666666666667e-01 3.333333333333333e-01 1.666666666666665e-01
1.666666666666667e-01 3.333333333333333e-01 1.666666666666665e-01
1.666666666666667e-01 3.333333333333333e-01 1.666666666666665e-01
1.666666666666667e-01 3.333333333333333e-01 1.666666666666665e-01
1.666666666666667e-01 3.333333333333333e-01 1.666666666666665e-01
1.666666666666667e-01 3.333333333333333e-01 1.666666666666665e-01
1.666666666666667e-01 3.333333333333333e-01 1.666666666666665e-01
1.666666666666667e-01 3.333333333333333e-01 1.666666666666665e-01
1.666666666666667e-01 3.333333333333333e-01 1.666666666666665e-01
1.666666666666667e-01 3.333333333333333e-01 1.666666666666665e-01
1.666666666666667e-01 3.333333333333333e-01 1.666666666666665e-01
1.666666666666667e-01 3.333333333333333e-01 1.666666666666665e-01
1.666666666666667e-01 3.333333333333333e-01 1.666666666666665e-01
1.666666666666667e-01 3.333333333333333e-01 1.666666666666665e-01
1.666666666666667e-01 3.333333333333333e-01 1.666666666666665e-01
1.666666666666667e-01 3.333333333333333e-01 1.666666666666665e-01
1.666666666666667e-01 3.333333333333333e-01 1.666666666666665e-01
1.666666666666667e-01 3.333333333333333e-01 1.666666666666665e-01
1.666666666666667e-01 3.333333333333333e-01 1.666666666666665e-01
1.666666666666667e-01 3.333333333333333e-01 1.666666666666665e-01
1.666666666666667e-01 3.333333333333333e-01 1.666666666666665e-01
1.666666666666667e-01 3.333333333333333e-01 1.666666666666665e-01
1.666666666666667e-01 3.333333333333333e-01 1.666666666666665e-01
1.666666666666667e-01 3.333333333333333e-01 1.666666666666665e-01
1.666666666666667e-01 3.333333333333333e-01 1.666666666666665e-01
1.666666666666667e-01 3.333333333333333e-01 1.666666666666665e-01
1.666666666666667e-01 3.333333333333333e-01 1.666666666666665e-01
1.666666666666667e-01 3.333333333333333e-01 1.666666666666665e-01
1.666666666666667e-01 3.333333333333333e-01 1.666666666666665e-01
1.666666666666667e-01 3.333333333333333e-01 1.666666666666665e-01
1.666666666666667e-01 3.333333333333333e-01 1.666666666666665e-01
1.666666666666667e-01 3.333333333333333e-01 1.666666666666665e-01
1.666666666666667e-01 3.333333333333333e-01 1.666666666666665e-01
1.666666666666667e-01 3.333333333333333e-01 1.666666666666665e-01
1.666666666666667e-01 3.333333333333333e-01 1.666666666666665e-01
1.666666666666667e-01 3.333333333333333e-01 1.666666666666665e-01
1.666666666666667e-01 3.333333333333333e-01 1.666666666666665e-01
1.666666666666667e-01 3.333333333333333e-01 1.666666666666665e-01
1.666666666666667e-01 3.333333333333333e-01 1.666666666666665e-01
1.666666666666667e-01 3.333333333333333e-01 1.666666666666665e-01
1.666666666666667e-01 3.333333333333333e-01 1.666666666666665e-01
1.666666666666667e-01 3.333333333333333e-01 1.666666666666665e-01
1.666666666666667e-01 3.333333333333333e-01 1.666666666666665e-01
1.666666666666667e-01 3.333333333333333e-01 1.666666666666665e-01
1.666666666666667e-01 3.333333333333333e-01 1.666666666666665e-01
1.666666666666667e-01 3.333333333333333e-01 1.666666666666665e-01
1.666666666666667e-01 3.333333333333333e-01 1.666666666666665e-01
1.666666666666667e-01 3.333333333333333e-01 1.666666666666665e-01
1.666666666666667e-01 3.333333333333333e-01 1.666666666666665e-01
1.666666666666667e-01 3.333333333333333e-01 1.666666666666665e-01
1.666666666666667e-01 3.333333333333333e-01 1.666666666666665e-01
1.666666666666667e-01 3.333333333333333e-01 1.666666666666665e-01
1.666666666666667e-01 3.333333333333333e-01 1.666666666666665e-01
1.666666666666667e-01 3.333333333333333e-01 1.666666666666665e-01
1.666666666666667e-01 3.333333333333333e-01 1.666666666666665e-01
1.666666666666667e-01 3.333333333333333e-01 1.666666666666665e-01
1.666666666666667e-01 3.333333333333333e-01 1.666666666666665e-01
1.666666666666667e-01 3.333333333333333e-01 1.666666666666665e-01
1.666666666666667e-01 3.333333333333333e-01 1.666666666666665e-01
1.666666666666667e-01 3.333333333333333e-01 1.666666666666665e-01
1.666666666666667e-01 3.333333333333333e-01 1.666666666666665e-01
1.666666666666667e-01 3.333333333333333e-01 1.666666666666665e-01
1.666666666666667e-01 3.333333333333333e-01 1.666666666666665e-01
1.666666666666667e-01 3.333333333333333e-01 1.666666666666665e-01
1.666666666666667e-01 3.333333333333333e-01 1.666666666666665e-01
1.666666666666667e-01 3.333333333333333e-01 1.666666666666665e-01
1.666666666666667e-01 3.333333333333333e-01 1.666666666666665e-01
1.666666666666667e-01 3.333333333333333e-01 1.666666666666665e-01
1.666666666666667e-01 3.333333333333333e-01 1.666666666666665e-01
1.666666666666667e-01 3.333333333333333e-01 1.666666666666665e-01
1.666666666666667e-01 3.333333333333333e-01 1.666666666666665e-01
1.666666666666667e-01 3.333333333333333e-01 1.666666666666665e-01
1.666666666666667e-01 3.333333333333333e-01 1.666666666666665e-01
1.666666666666667e-01 3.333333333333333e-01 1.666666666666665e-01
1.666666666666667e-01 3.333333333333333e-01 1.666666666666665e-01
1.666666666666667e-01 3.333333333333333e-01 1.666666666666665e-01
1.666666666666667e-01 3.333333333333333e-01 1.666666666666665e-01
1.666666666666667e-01 3.333333333333333e-01 1.666666666666665e-01
1.666666666666667e-01 3.333333333333333e-01 1.666666666666665e-01
1.666666666666667e-01 3.333333333333333e-01 1.666666666666665e-01
1.666666666666667e-01 3.333333333333333e-01 1.666666666666665e-01
1.666666666666667e-01 3.333333333333333e-01 1.666666666666665e-01
1.666666666666667e-01 3.333333333333333e-01 1.666666666666665e-01
1.666666666666667e-01 3.333333333333333e-01 1.666666666666665e-01
1.666666666666667e-01 3.333333333333333e-01 1.666666666666665e-01
1.666666666666667e-01 3.333333333333333e-01 1.666666666666665e-01
1.666666666666667e-01 3.333333333333333e-01 1.666666666666665e-01
1.666666666666667e-01 3.333333333333333e-01 1.666666666666665e-01
1.666666666666667e-01 3.333333333333333e-01 1.666666666666665e-01
1.666666666666667e-01 3.333333333333333e-01 1.666666666666665e-01
1.666666666666667e-01 3.333333333333333e-01 1.666666666666665e-01
1.666666666666667e-01 3.333333333333333e-01 1.666666666666665e-01
1.666666666666667e-01 3.333333333333333e-01 1.666666666666665e-01
1.666666666666667e-01 3.333333333333333e-01 1.666666666666665e-01
1.666666666666667e-01 3.333333333333333e-01 1.666666666666665e-01
1.666666666666667e-01 3.333333333333333e-01 1.666666666666665e-01
1.666666666666667e-01 3.333333333333333e-01 1.666666666666665e-01
1.666666666666667e-01 3.333333333333333e-01 1.666666666666665e-01
1.666666666666667e-01 3.333333333333333e-01 1.666666666666665e-01
1.666666666666667e-01 3.333333333333333e-01 1.666666666666665e-01
1.666666666666667e-01 3.333333333333333e-01 1.666666666666665e-01
1.666666666666667e-01 3.333333333333333e-01 1.666666666666665e-01
1.666666666666667e-01 3.333333333333333e-01 1.666666666666665e-01
1.666666666666667e-01 3.333333333333333e-01 1.666666666666665e-01
1.666666666666667e-01 3.333333333333333e-01 1.666666666666665e-01
1.666666666666667e-01 3.333333333333333e-01 1.666666666666665e-01
1.666666666666667e-01 3.333333333333333e-01 1.666666666666665e-01
1.666666666666667e-01 3.333333333333333e-01 1.666666666666665e-01
1.666666666666667e-01 3.333333333333333e-01 1.666666666666665e-01
1.666666666666667e-01 3.333333333333333e-01 1.666666666666665e-01
1.666666666666667e-01 3.333333333333333e-01 1.666666666666665e-01
1.666666666666667e-01 3.333333333333333e-01 1.666666666666665e-01
1.666666666666667e-01 3.333333333333333e-01 1.666666666666665e-01
1.666666666666667e-01 3.333333333333333e-01 1.666666666666665e-01
1.666666666666667e-01 3.333333333333333e-01 1.666666666666665e-01
1.666666666666667e-01 3.333333333333333e-01 1.666666666666665e-01
1.666666666666667e-01 3.333333333333333e-01 1.666666666666665e-01
1.666666666666667e-01 3.333333333333333e-01 1.666666666666665e-01
1.666666666666667e-01 3.333333333333333e-01 1.666666666666665e-01
1.666666666666667e-01 3.333333333333333e-01 1.666666666666665e-01
1.666666666666667e-01 3.333333333333333e-01 1.666666666666665e-01
1.666666666666667e-01 3.333333333333333e-01 1.666666666666665e-01
1.666666666666667e-01 3.333333333333333e-01 1.666666666666665e-01
1.666666666666667e-01 3.333333333333333e-01 1.666666666666665e-01
1.666666666666667e-01 3.333333333333333e-01 1.666666666666665e-01
1.666666666666667e-01 3.333333333333333e-01 1.666666666666665e-01
1.666666666666667e-01 3.333333333333333e-01 1.666666666666665e-01
1.666666666666667e-01 3.333333333333333e-01 1.666666666666665e-01
1.666666666666667e-01 3.333333333333333e-01 1.666666666666665e-01
1.666666666666667e-01 3.333333333333333e-01 1.666666666666665e-01
1.666666666666667e-01 3.333333333333333e-01 1.666666666666665e-01
1.666666666666667e-01 3.333333333333333e-01 1.666666666666665e-01
1.666666666666667e-01 3.333333333333333e-01 1.666666666666665e-01
1.666666666666667e-01 3.333333333333333e-01 1.666666666666665e-01
1.666666666666667e-01 3.333333333333333e-01 1.666666666666665e-01
1.666666666666667e-01 3.333333333333333e-01 1.666666666666665e-01
1.666666666666667e-01 3.333333333333333e-01 1.666666666666665e-01
1.666666666666667e-01 3.333333333333333e-01 1.666666666666665e-01
1.666666666666667e-01 3.333333333333333e-01 1.666666666666665e-01
1.666666666666667e-01 3.333333333333333e-01 1.666666666666665e-01
1.666666666666667e-01 3.333333333333333e-01 1.666666666666665e-01
1.666666666666667e-01 3.333333333333333e-01 1.666666666666665e-01
1.666666666666667e-01 3.333333333333333e-01 1.666666666666665e-01
1.666666666666667e-01 3.333333333333333e-01 1.666666666666665e-01
1.666666666666667e-01 3.333333333333333e-01 1.666666666666665e-01
1.666666666666667e-01 3.333333333333333e-01 1.666666666666665e-01
1.666666666666667e-01 3.333333333333333e-01 1.666666666666665e-01
1.666666666666667e-01 3.333333333333333e-01 1.666666666666665e-01
1.666666666666667e-01 3.333333333333333e-01 1.666666666666665e-01
1.666666666666667e-01 3.333333333333333e-01 1.666666666666665e-01
1.666666666666667e-01 3.333333333333333e-01 1.666666666666665e-01
1.666666666666667e-01 3.333333333333333e-01 1.666666666666665e-01
1.666666666666667e-01 3.333333333333333e-01 1.666666666666665e-01
1.666666666666667e-01 3.333333333333333e-01 1.666666666666665e-01
1.666666666666667e-01 3.333333333333333e-01 1.666666666666665e-01
1.666666666666667e-01 3.333333333333333e-01 1.666666666666665e-01
1.666666666666667e-01 3.333333333333333e-01 1.666666666666665e-01
1.666666666666667e-01 3.333333333333333e-01 1.666666666666665e-01
1.666666666666667e-01 3.333333333333333e-01 1.666666666666665e-01
1.666666666666667e-01 3.333333333333333e-01 1.666666666666665e-01
1.666666666666667e-01 3.333333333333333e-01 1.666666666666665e-01
1.666666666666667e-01 3.333333333333333e-01 1.666666666666665e-01
1.666666666666667e-01 3.333333333333333e-01 1.666666666666665e-01
1.666666666666667e-01 3.333333333333333e-01 1.666666666666665e-01
1.666666666666667e-01 3.333333333333333e-01 1.666666666666665e-01
1.666666666666667e-01 3.333333333333333e-01 1.666666666666665e-01
1.666666666666667e-01 3.333333333333333e-01 1.666666666666665e-01
1.666666666666667e-01 3.333333333333333e-01 1.666666666666665e-01
1.666666666666667e-01 3.333333333333333e-01 1.666666666666665e-01
1.666666666666667e-01 3.333333333333333e-01 1.666666666666665e-01
1.666666666666667e-01 3.333333333333333e-01 1.666666666666665e-01
1.666666666666667e-01 3.333333333333333e-01 1.666666666666665e-01
1.666666666666667e-01 3.333333333333333e-01 1.666666666666665e-01
1.666666666666667e-01 3.333333333333333e-01 1.666666666666665e-01
1.666666666666667e-01 3.333333333333333e-01 1.666666666666665e-01
1.666666666666667e-01 3.333333333333333e-01 1.666666666666665e-01
1.666666666666667e-01 3.333333333333333e-01 1.666666666666665e-01
1.666666666666667e-01 3.333333333333333e-01 1.666666666666665e-01
1.666666666666667e-01 3.333333333333333e-01 1.666666666666665e-01
1.666666666666667e-01 3.333333333333333e-01 1.666666666666665e-01
1.666666666666667e-01 3.333333333333333e-01 1.666666666666665e-01
1.666666666666667e-01 3.333333333333333e-01 1.666666666666665e-01
1.666666666666667e-01 3.333333333333333e-01 1.666666666666665e-01
1.666666666666667e-01 3.333333333333333e-01 1.666666666666665e-01
1.666666666666667e-01 3.333333333333333e-01 1.666666666666665e-01
1.666666666666667e-01 3.333333333333333e-01 1.666666666666665e-01
1.666666666666667e-01 3.333333333333333e-01 1.666666666666665e-01
1.666666666666667e-01 3.333333333333333e-01 1.666666666666665e-01
1.666666666666667e-01 3.333333333333333e-01 1.666666666666665e-01
1.666666666666667e-01 3.333333333333333e-01 1.666666666666665e-01
1.666666666666667e-01 3.333333333333333e-01 1.666666666666665e-01
1.666666666666667e-01 3.333333333333333e-01 1.666666666666665e-01
1.666666666666667e-01 3.333333333333333e-01 1.666666666666665e-01
1.666666666666667e-01 3.333333333333333e-01 1.666666666666665e-01
1.666666666666667e-01 3.333333333333333e-01 1.666666666666665e-01
1.666666666666667e-01 3.333333333333333e-01 1.666666666666665e-01
1.666666666666667e-01 3.333333333333333e-01 1.666666666666665e-01
1.666666666666667e-01 3.333333333333333e-01 1.666666666666665e-01
1.666666666666667e-01 3.333333333333333e-01 1.666666666666665e-01
1.666666666666667e-01 3.333333333333333e-01 1.666666666666665e-01
1.666666666666667e-01 3.333333333333333e-01 1.666666666666665e-01
1.666666666666667e-01 3.333333333333333e-01 1.666666666666665e-01
1.666666666666667e-01 3.333333333333333e-01 1.666666666666665e-01
1.666666666666667e-01 3.333333333333333e-01 1.666666666666665e-01
1.666666666666667e-01 3.333333333333333e-01 1.666666666666665e-01
1.666666666666667e-01 3.333333333333333e-01 1.666666666666665e-01
1.666666666666667e-01 3.333333333333333e-01 1.666666666666665e-01
1.666666666666667e-01 3.333333333333333e-01 1.666666666666665e-01
1.666666666666667e-01 3.333333333333333e-01 1.666666666666665e-01
1.666666666666667e-01 3.333333333333333e-01 1.666666666666665e-01
1.666666666666667e-01 3.333333333333333e-01 1.666666666666665e-01
1.666666666666667e-01 3.333333333333333e-01 1.666666666666665e-01
1.666666666666667e-01 3.333333333333333e-01 1.666666666666665e-01
1.666666666666667e-01 3.333333333333333e-01 1.666666666666665e-01
1.666666666666667e-01 3.333333333333333e-01 1.666666666666665e-01
1.666666666666667e-01 3.333333333333333e-01 1.666666666666665e-01
1.666666666666667e-01 3.333333333333333e-01 1.666666666666665e-01
1.666666666666667e-01 3.333333333333333e-01 1.666666666666665e-01
1.666666666666667e-01 3.333333333333333e-01 1.666666666666665e-01
1.666666666666667e-01 3.333333333333333e-01 1.666666666666665e-01
1.666666666666667e-01 3.333333333333333e-01 1.666666666666665e-01
1.666666666666667e-01 3.333333333333333e-01 1.666666666666665e-01
1.666666666666667e-01 3.333333333333333e-01 1.666666666666665e-01
1.666666666666667e-01 3.333333333333333e-01 1.666666666666665e-01
1.666666666666667e-01 3.333333333333333e-01 1.666666666666665e-01
1.666666666666667e-01 3.333333333333333e-01 1.666666666666665e-01
1.666666666666667e-01 3.333333333333333e-01 1.666666666666665e-01
1.666666666666667e-01 3.333333333333333e-01 1.666666666666665e-01
1.666666666666667e-01 3.333333333333333e-01 1.666666666666665e-01
1.666666666666667e-01 3.333333333333333e-01 1.666666666666665e-01
1.666666666666667e-01 3.333333333333333e-01 1.666666666666665e-01
1.666666666666667e-01 3.333333333333333e-01 1.666666666666665e-01
1.666666666666667e-01 3.333333333333333e-01 1.666666666666665e-01
1.666666666666667e-01 3.333333333333333e-01 1.666666666666665e-01
1.666666666666667e-01 3.333333333333333e-01 1.666666666666665e-01
1.666666666666667e-01 3.333333333333333e-01 1.666666666666665e-01
1.666666666666667e-01 3.333333333333333e-01 1.666666666666665e-01
1.666666666666667e-01 3.333333333333333e-01 1.666666666666665e-01
1.666666666666667e-01 3.333333333333333e-01 1.666666666666665e-01
1.666666666666667e-01 3.333333333333333e-01 1.666666666666665e-01
1.666666666666667e-01 3.333333333333333e-01 1.666666666666665e-01
1.666666666666667e-01 3.333333333333333e-01 1.666666666666665e-01
1.666666666666667e-01 3.333333333333333e-01 1.666666666666665e-01
1.666666666666667e-01 3.333333333333333e-01 1.666666666666665e-01
1.666666666666667e-01 3.333333333333333e-01 1.666666666666665e-01
1.666666666666667e-01 3.333333333333333e-01 1.666666666666665e-01
1.666666666666667e-01 3.333333333333333e-01 1.666666666666665e-01
1.666666666666667e-01 3.333333333333333e-01 1.666666666666665e-01
1.666666666666667e-01 3.333333333333333e-01 1.666666666666665e-01
1.666666666666667e-01 3.333333333333333e-01 1.666666666666665e-01
1.666666666666667e-01 3.333333333333333e-01 1.666666666666665e-01
1.666666666666667e-01 3.333333333333333e-01 1.666666666666665e-01
1.666666666666667e-01 3.333333333333333e-01 1.666666666666665e-01
1.666666666666667e-01 3.333333333333333e-01 1.666666666666665e-01
1.666666666666667e-01 3.333333333333333e-01 1.666666666666665e-01
1.666666666666667e-01 3.333333333333333e-01 1.666666666666665e-01
1.666666666666667e-01 3.333333333333333e-01 1.666666666666665e-01
1.666666666666667e-01 3.333333333333333e-01 1.666666666666665e-01
1.666666666666667e-01 3.333333333333333e-01 1.666666666666665e-01
1.666666666666667e-01 3.333333333333333e-01 1.666666666666665e-01
1.666666666666667e-01 3.333333333333333e-01 1.666666666666665e-01
1.666666666666667e-01 3.333333333333333e-01 1.666666666666665e-01
1.666666666666667e-01 3.333333333333333e-01 1.666666666666665e-01
1.666666666666667e-01 3.333333333333333e-01 1.666666666666665e-01
1.666666666666667e-01 3.333333333333333e-01 1.666666666666665e-01
1.666666666666667e-01 3.333333333333333e-01 1.666666666666665e-01
1.666666666666667e-01 3.333333333333333e-01 1.666666666666665e-01
1.666666666666667e-01 3.333333333333333e-01 1.666666666666665e-01
1.666666666666667e-01 3.333333333333333e-01 1.666666666666665e-01
1.666666666666667e-01 3.333333333333333e-01 1.666666666666665e-01
1.666666666666667e-01 3.333333333333333e-01 1.666666666666665e-01
1.666666666666667e-01 3.333333333333333e-01 1.666666666666665e-01
1.666666666666667e-01 3.333333333333333e-01 1.666666666666665e-01
1.666666666666667e-01 3.333333333333333e-01 1.666666666666665e-01
1.666666666666667e-01 3.333333333333333e-01 1.666666666666665e-01
1.666666666666667e-01 3.333333333333333e-01 1.666666666666665e-01
1.666666666666667e-01 3.333333333333333e-01 1.666666666666665e-01
1.666666666666667e-01 3.333333333333333e-01 1.666666666666665e-01
1.666666666666667e-01 3.333333333333333e-01 1.666666666666665e-01
1.666666666666667e-01 3.333333333333333e-01 1.666666666666665e-01
1.666666666666667e-01 3.333333333333333e-01 1.666666666666665e-01
1.666666666666667e-01 3.333333333333333e-01 1.666666666666665e-01
1.666666666666667e-01 3.333333333333333e-01 1.666666666666665e-01
1.666666666666667e-01 3.333333333333333e-01 1.666666666666665e-01
1.666666666666667e-01 3.333333333333333e-01 1.666666666666665e-01
1.666666666666667e-01 3.333333333333333e-01 1.666666666666665e-01
1.666666666666667e-01 3.333333333333333e-01 1.666666666666665e-01
1.666666666666667e-01 3.333333333333333e-01 1.666666666666665e-01
1.666666666666667e-01 3.333333333333333e-01 1.666666666666665e-01
1.666666666666667e-01 3.333333333333333e-01 1.666666666666665e-01
1.666666666666667e-01 3.333333333333333e-01 1.666666666666665e-01
1.666666666666667e-01 3.333333333333333e-01 1.666666666666665e-01
1.666666666666667e-01 3.333333333333333e-01 1.666666666666665e-01
1.666666666666667e-01 3.333333333333333e-01 1.666666666666665e-01
1.666666666666667e-01 3.333333333333333e-01 1.666666666666665e-01
1.666666666666667e-01 3.333333333333333e-01 1.666666666666665e-01
1.666666666666667e-01 3.333333333333333e-01 1.666666666666665e-01
1.666666666666667e-01 3.333333333333333e-01 1.666666666666665e-01
1.666666666666667e-01 3.333333333333333e-01 1.666666666666665e-01
1.666666666666667e-01 3.333333333333333e-01 1.666666666666665e-01
1.666666666666667e-01 3.333333333333333e-01 1.666666666666665e-01
1.666666666666667e-01 3.333333333333333e-01 1.666666666666665e-01
1.666666666666667e-01 3.333333333333333e-01 1.666666666666665e-01
1.666666666666667e-01 3.333333333333333e-01 1.666666666666665e-01
1.666666666666667e-01 3.333333333333333e-01 1.666666666666665e-01
1.666666666666667e-01 3.333333333333333e-01 1.666666666666665e-01
1.666666666666667e-01 3.333333333333333e-01 1.666666666666665e-01
1.666666666666667e-01 3.333333333333333e-01 1.666666666666665e-01
1.666666666666667e-01 3.333333333333333e-01 1.666666666666665e-01
1.666666666666667e-01 3.333333333333333e-01 1.666666666666665e-01
1.666666666666667e-01 3.333333333333333e-01 1.666666666666665e-01
1.666666666666667e-01 3.333333333333333e-01 1.666666666666665e-01
1.666666666666667e-01 3.333333333333333e-01 1.666666666666665e-01
1.666666666666667e-01 3.333333333333333e-01 1.666666666666665e-01
1.666666666666667e-01 3.333333333333333e-01 1.666666666666665e-01
1.666666666666667e-01 3.333333333333333e-01 1.666666666666665e-01
1.666666666666667e-01 3.333333333333333e-01 1.666666666666665e-01
1.666666666666667e-01 3.333333333333333e-01 1.666666666666665e-01
1.666666666666667e-01 3.333333333333333e-01 1.666666666666665e-01
1.666666666666667e-01 3.333333333333333e-01 1.666666666666665e-01
1.666666666666667e-01 3.333333333333333e-01 1.666666666666665e-01
1.666666666666667e-01 3.333333333333333e-01 1.666666666666665e-01
1.666666666666667e-01 3.333333333333333e-01 1.666666666666665e-01
1.666666666666667e-01 3.333333333333333e-01 1.666666666666665e-01
1.666666666666667e-01 3.333333333333333e-01 1.666666666666665e-01
1.666666666666667e-01 3.333333333333333e-01 1.666666666666665e-01
1.666666666666667e-01 3.333333333333333e-01 1.666666666666665e-01
1.666666666666667e-01 3.333333333333333e-01 1.666666666666665e-01
1.666666666666667e-01 3.333333333333333e-01 1.666666666666665e-01
1.666666666666667e-01 3.333333333333333e-01 1.666666666666665e-01
1.666666666666667e-01 3.333333333333333e-01 1.666666666666665e-01
1.666666666666667e-01 3.333333333333333e-01 1.666666666666665e-01
1.666666666666667e-01 3.333333333333333e-01 1.666666666666665e-01
1.666666666666667e-01 3.333333333333333e-01 1.666666666666665e-01
1.666666666666667e-01 3.333333333333333e-01 1.666666666666665e-01
1.666666666666667e-01 3.333333333333333e-01 1.666666666666665e-01
1.666666666666667e-01 3.333333333333333e-01 1.666666666666665e-01
1.666666666666667e-01 3.333333333333333e-01 1.666666666666665e-01
1.666666666666667e-01 3.333333333333333e-01 1.666666666666665e-01
1.666666666666667e-01 3.333333333333333e-01 1.666666666666665e-01
1.666666666666667e-01 3.333333333333333e-01 1.666666666666665e-01
1.666666666666667e-01 3.333333333333333e-01 1.666666666666665e-01
1.666666666666667e-01 3.333333333333333e-01 1.666666666666665e-01
1.666666666666667e-01 3.333333333333333e-01 1.666666666666665e-01
1.666666666666667e-01 3.333333333333333e-01 1.666666666666665e-01
1.666666666666667e-01 3.333333333333333e-01 1.666666666666665e-01
1.666666666666667e-01 3.333333333333333e-01 1.666666666666665e-01
1.666666666666667e-01 3.333333333333333e-01 1.666666666666665e-01
1.666666666666667e-01 3.333333333333333e-01 1.666666666666665e-01
1.666666666666667e-01 3.333333333333333e-01 1.666666666666665e-01
1.666666666666667e-01 3.333333333333333e-01 1.666666666666665e-01
1.666666666666667e-01 3.333333333333333e-01 1.666666666666665e-01
1.666666666666667e-01 3.333333333333333e-01 1.666666666666665e-01
1.666666666666667e-01 3.333333333333333e-01 1.666666666666665e-01
1.666666666666667e-01 3.333333333333333e-01 1.666666666666665e-01
1.666666666666667e-01 3.333333333333333e-01 1.666666666666665e-01
1.666666666666667e-01 3.333333333333333e-01 1.666666666666665e-01
1.666666666666667e-01 3.333333333333333e-01 1.666666666666665e-01
1.666666666666667e-01 3.333333333333333e-01 1.666666666666665e-01
1.666666666666667e-01 3.333333333333333e-01 1.666666666666665e-01
1.666666666666667e-01 3.333333333333333e-01 1.666666666666665e-01
1.666666666666667e-01 3.333333333333333e-01 1.666666666666665e-01
1.666666666666667e-01 3.333333333333333e-01 1.666666666666665e-01
1.666666666666667e-01 3.333333333333333e-01 1.666666666666665e-01
1.666666666666667e-01 3.333333333333333e-01 1.666666666666665e-01
1.666666666666667e-01 3.333333333333333e-01 1.666666666666665e-01
1.666666666666667e-01 3.333333333333333e-01 1.666666666666665e-01
1.666666666666667e-01 3.333333333333333e-01 1.666666666666665e-01
1.666666666666667e-01 3.333333333333333e-01 1.666666666666665e-01
1.666666666666667e-01 3.333333333333333e-01 1.666666666666665e-01
1.666666666666667e-01 3.333333333333333e-01 1.666666666666665e-01
1.666666666666667e-01 3.333333333333333e-01 1.666666666666665e-01
1.666666666666667e-01 3.333333333333333e-01 1.666666666666665e-01
1.666666666666667e-01 3.333333333333333e-01 1.666666666666665e-01
1.666666666666667e-01 3.333333333333333e-01 1.666666666666665e-01
1.666666666666667e-01 3.333333333333333e-01 1.666666666666665e-01
1.666666666666667e-01 3.333333333333333e-01 1.666666666666665e-01
1.666666666666667e-01 3.333333333333333e-01 1.666666666666665e-01
1.666666666666667e-01 3.333333333333333e-01 1.666666666666665e-01
1.666666666666667e-01 3.333333333333333e-01 1.666666666666665e-01
1.666666666666667e-01 3.333333333333333e-01 1.666666666666665e-01
1.666666666666667e-01 3.333333333333333e-01 1.666666666666665e-01
1.666666666666667e-01 3.333333333333333e-01 1.666666666666665e-01
1.666666666666667e-01 3.333333333333333e-01 1.666666666666665e-01
1.666666666666667e-01 3.333333333333333e-01 1.666666666666665e-01
1.666666666666667e-01 3.333333333333333e-01 1.666666666666665e-01
1.666666666666667e-01 3.333333333333333e-01 1.666666666666665e-01
1.666666666666667e-01 3.333333333333333e-01 1.666666666666665e-01
1.666666666666667e-01 3.333333333333333e-01 1.666666666666665e-01
1.666666666666667e-01 3.333333333333333e-01 1.666666666666665e-01
1.666666666666667e-01 3.333333333333333e-01 1.666666666666665e-01
1.666666666666667e-01 3.333333333333333e-01 1.666666666666665e-01
1.666666666666667e-01 3.333333333333333e-01 1.666666666666665e-01
1.666666666666667e-01 3.333333333333333e-01 1.666666666666665e-01
1.666666666666667e-01 3.333333333333333e-01 1.666666666666665e-01
1.666666666666667e-01 3.333333333333333e-01 1.666666666666665e-01
1.666666666666667e-01 3.333333333333333e-01 1.666666666666665e-01
1.666666666666667e-01 3.333333333333333e-01 1.666666666666665e-01
1.666666666666667e-01 3.333333333333333e-01 1.666666666666665e-01
1.666666666666667e-01 3.333333333333333e-01 1.666666666666665e-01
1.666666666666667e-01 3.333333333333333e-01 1.666666666666665e-01
1.666666666666667e-01 3.333333333333333e-01 1.666666666666665e-01
1.666666666666667e-01 3.333333333333333e-01 1.666666666666665e-01
1.666666666666667e-01 3.333333333333333e-01 1.666666666666665e-01
1.666666666666667e-01 3.333333333333333e-01 1.666666666666665e-01
1.666666666666667e-01 3.333333333333333e-01 1.666666666666665e-01
1.666666666666667e-01 3.333333333333333e-01 1.666666666666665e-01
1.666666666666667e-01 3.333333333333333e-01 1.666666666666665e-01
1.666666666666667e-01 3.333333333333333e-01 1.666666666666665e-01
1.666666666666667e-01 3.333333333333333e-01 1.666666666666665e-01
1.666666666666667e-01 3.333333333333333e-01 1.666666666666665e-01
1.666666666666667e-01 3.333333333333333e-01 1.666666666666665e-01
1.666666666666667e-01 3.333333333333333e-01 1.666666666666665e-01
1.666666666666667e-01 3.333333333333333e-01 1.666666666666665e-01
1.666666666666667e-01 3.333333333333333e-01 1.666666666666665e-01
1.666666666666667e-01 3.333333333333333e-01 1.666666666666665e-01
1.666666666666667e-01 3.333333333333333e-01 1.666666666666665e-01
1.666666666666667e-01 3.333333333333333e-01 1.666666666666665e-01
1.666666666666667e-01 3.333333333333333e-01 1.666666666666665e-01
1.666666666666667e-01 3.333333333333333e-01 1.666666666666665e-01
1.666666666666667e-01 3.333333333333333e-01 1.666666666666665e-01
1.666666666666667e-01 3.333333333333333e-01 1.666666666666665e-01
1.666666666666667e-01 3.333333333333333e-01 1.666666666666665e-01
1.666666666666667e-01 3.333333333333333e-01 1.666666666666665e-01
1.666666666666667e-01 3.333333333333333e-01 1.666666666666665e-01
1.666666666666667e-01 3.333333333333333e-01 1.666666666666665e-01
1.666666666666667e-01 3.333333333333333e-01 1.666666666666665e-01
1.666666666666667e-01 3.333333333333333e-01 1.666666666666665e-01
1.666666666666667e-01 3.333333333333333e-01 1.666666666666665e-01
1.666666666666667e-01 3.333333333333333e-01 1.666666666666665e-01
1.666666666666667e-01 3.333333333333333e-01 1.666666666666665e-01
1.666666666666667e-01 3.333333333333333e-01 1.666666666666665e-01
1.666666666666667e-01 3.333333333333333e-01 1.666666666666665e-01
1.666666666666667e-01 3.333333333333333e-01 1.666666666666665e-01
1.666666666666667e-01 3.333333333333333e-01 1.666666666666665e-01
1.666666666666667e-01 3.333333333333333e-01 1.666666666666665e-01
1.666666666666667e-01 3.333333333333333e-01 1.666666666666665e-01
1.666666666666667e-01 3.333333333333333e-01 1.666666666666665e-01
1.666666666666667e-01 3.333333333333333e-01 1.666666666666665e-01
1.666666666666667e-01 3.333333333333333e-01 1.666666666666665e-01
1.666666666666667e-01 3.333333333333333e-01 1.666666666666665e-01
1.666666666666667e-01 3.333333333333333e-01 1.666666666666665e-01
1.666666666666667e-01 3.333333333333333e-01 1.666666666666665e-01
1.666666666666667e-01 3.333333333333333e-01 1.666666666666665e-01
1.666666666666667e-01 3.333333333333333e-01 1.666666666666665e-01
1.666666666666667e-01 3.333333333333333e-01 1.666666666666665e-01
1.666666666666667e-01 3.333333333333333e-01 1.666666666666665e-01
1.666666666666667e-01 3.333333333333333e-01 1.666666666666665e-01
1.666666666666667e-01 3.333333333333333e-01 1.666666666666665e-01
1.666666666666667e-01 3.333333333333333e-01 1.666666666666665e-01
1.666666666666667e-01 3.333333333333333e-01 1.666666666666665e-01
1.666666666666667e-01 3.333333333333333e-01 1.666666666666665e-01
1.666666666666667e-01 3.333333333333333e-01 1.666666666666665e-01
1.666666666666667e-01 3.333333333333333e-01 1.666666666666665e-01
1.666666666666667e-01 3.333333333333333e-01 1.666666666666665e-01
1.666666666666667e-01 3.333333333333333e-01 1.666666666666665e-01
1.666666666666667e-01 3.333333333333333e-01 1.666666666666665e-01
1.666666666666667e-01 3.333333333333333e-01 1.666666666666665e-01
1.666666666666667e-01 3.333333333333333e-01 1.666666666666665e-01
1.666666666666667e-01 3.333333333333333e-01 1.666666666666665e-01
1.666666666666667e-01 3.333333333333333e-01 1.666666666666665e-01
1.666666666666667e-01 3.333333333333333e-01 1.666666666666665e-01
1.666666666666667e-01 3.333333333333333e-01 1.666666666666665e-01
1.666666666666667e-01 3.333333333333333e-01 1.666666666666665e-01
1.666666666666667e-01 3.333333333333333e-01 1.666666666666665e-01
1.666666666666667e-01 3.333333333333333e-01 1.666666666666665e-01
1.666666666666667e-01 3.333333333333333e-01 1.666666666666665e-01
1.666666666666667e-01 3.333333333333333e-01 1.666666666666665e-01
1.666666666666667e-01 3.333333333333333e-01 1.666666666666665e-01
1.666666666666667e-01 3.333333333333333e-01 1.666666666666665e-01
1.666666666666667e-01 3.333333333333333e-01 1.666666666666665e-01
1.666666666666667e-01 3.333333333333333e-01 1.666666666666665e-01
1.666666666666667e-01 3.333333333333333e-01 1.666666666666665e-01
1.666666666666667e-01 3.333333333333333e-01 1.666666666666665e-01
1.666666666666667e-01 3.333333333333333e-01 1.666666666666665e-01
1.666666666666667e-01 3.333333333333333e-01 1.666666666666665e-01
1.666666666666667e-01 3.333333333333333e-01 1.666666666666665e-01
1.666666666666667e-01 3.333333333333333e-01 1.666666666666665e-01
1.666666666666667e-01 3.333333333333333e-01 1.666666666666665e-01
1.666666666666667e-01 3.333333333333333e-01 1.666666666666665e-01
1.666666666666667e-01 3.333333333333333e-01 1.666666666666665e-01
1.666666666666667e-01 3.333333333333333e-01 1.666666666666665e-01
1.666666666666667e-01 3.333333333333333e-01 1.666666666666665e-01
1.666666666666667e-01 3.333333333333333e-01 1.666666666666665e-01
1.666666666666667e-01 3.333333333333333e-01 1.666666666666665e-01
1.666666666666667e-01 3.333333333333333e-01 1.666666666666665e-01
1.666666666666667e-01 3.333333333333333e-01 1.666666666666665e-01
1.666666666666667e-01 3.333333333333333e-01 1.666666666666665e-01
1.666666666666667e-01 3.333333333333333e-01 1.666666666666665e-01
1.666666666666667e-01 3.333333333333333e-01 1.666666666666665e-01
1.666666666666667e-01 3.333333333333333e-01 1.666666666666665e-01
1.666666666666667e-01 3.333333333333333e-01 1.666666666666665e-01
1.666666666666667e-01 3.333333333333333e-01 1.666666666666665e-01
1.666666666666667e-01 3.333333333333333e-01 1.666666666666665e-01
1.666666666666667e-01 3.333333333333333e-01 1.666666666666665e-01
1.666666666666667e-01 3.333333333333333e-01 1.666666666666665e-01
1.666666666666667e-01 3.333333333333333e-01 1.666666666666665e-01
1.666666666666667e-01 3.333333333333333e-01 1.666666666666665e-01
1.666666666666667e-01 3.333333333333333e-01 1.666666666666665e-01
1.666666666666667e-01 3.333333333333333e-01 1.666666666666665e-01
1.666666666666667e-01 3.333333333333333e-01 1.666666666666665e-01
1.666666666666667e-01 3.333333333333333e-01 1.666666666666665e-01
1.666666666666667e-01 3.333333333333333e-01 1.666666666666665e-01
1.666666666666667e-01 3.333333333333333e-01 1.666666666666665e-01
1.666666666666667e-01 3.333333333333333e-01 1.666666666666665e-01
1.666666666666667e-01 3.333333333333333e-01 1.666666666666665e-01
1.666666666666667e-01 3.333333333333333e-01 1.666666666666665e-01
1.666666666666667e-01 3.333333333333333e-01 1.666666666666665e-01
1.666666666666667e-01 3.333333333333333e-01 1.666666666666665e-01
1.666666666666667e-01 3.333333333333333e-01 1.666666666666665e-01
1.666666666666667e-01 3.333333333333333e-01 1.666666666666665e-01
1.666666666666667e-01 3.333333333333333e-01 1.666666666666665e-01
1.666666666666667e-01 3.333333333333333e-01 1.666666666666665e-01
1.666666666666667e-01 3.333333333333333e-01 1.666666666666665e-01
1.666666666666667e-01 3.333333333333333e-01 1.666666666666665e-01
1.666666666666667e-01 3.333333333333333e-01 1.666666666666665e-01
1.666666666666667e-01 3.333333333333333e-01 1.666666666666665e-01
1.666666666666667e-01 3.333333333333333e-01 1.666666666666665e-01
1.666666666666667e-01 3.333333333333333e-01 1.666666666666665e-01
1.666666666666667e-01 3.333333333333333e-01 1.666666666666665e-01
1.666666666666667e-01 3.333333333333333e-01 1.666666666666665e-01
1.666666666666667e-01 3.333333333333333e-01 1.666666666666665e-01
1.666666666666667e-01 3.333333333333333e-01 1.666666666666665e-01
1.666666666666667e-01 3.333333333333333e-01 1.666666666666665e-01
1.666666666666667e-01 3.333333333333333e-01 1.666666666666665e-01
1.666666666666667e-01 3.333333333333333e-01 1.666666666666665e-01
1.666666666666667e-01 3.333333333333333e-01 1.666666666666665e-01
1.666666666666667e-01 3.333333333333333e-01 1.666666666666665e-01
1.666666666666667e-01 3.333333333333333e-01 1.666666666666665e-01
1.666666666666667e-01 3.333333333333333e-01 1.666666666666665e-01
1.666666666666667e-01 3.333333333333333e-01 1.666666666666665e-01
1.666666666666667e-01 3.333333333333333e-01 1.666666666666665e-01
1.666666666666667e-01 3.333333333333333e-01 1.666666666666665e-01
1.666666666666667e-01 3.333333333333333e-01 1.666666666666665e-01
1.666666666666667e-01 3.333333333333333e-01 1.666666666666665e-01
1.666666666666667e-01 3.333333333333333e-01 1.666666666666665e-01
1.666666666666667e-01 3.333333333333333e-01 1.666666666666665e-01
1.666666666666667e-01 3.333333333333333e-01 1.666666666666665e-01
1.666666666666667e-01 3.333333333333333e-01 1.666666666666665e-01
1.666666666666667e-01 3.333333333333333e-01 1.666666666666665e-01
1.666666666666667e-01 3.333333333333333e-01 1.666666666666665e-01
1.666666666666667e-01 3.333333333333333e-01 1.666666666666665e-01
1.666666666666667e-01 3.333333333333333e-01 1.666666666666665e-01
1.666666666666667e-01 3.333333333333333e-01 1.666666666666665e-01
1.666666666666667e-01 3.333333333333333e-01 1.666666666666665e-01
1.666666666666667e-01 3.333333333333333e-01 1.666666666666665e-01
1.666666666666667e-01 3.333333333333333e-01 1.666666666666665e-01
1.666666666666667e-01 3.333333333333333e-01 1.666666666666665e-01
1.666666666666667e-01 3.333333333333333e-01 1.666666666666665e-01
1.666666666666667e-01 3.333333333333333e-01 1.666666666666665e-01
1.666666666666667e-01 3.333333333333333e-01 1.666666666666665e-01
1.666666666666667e-01 3.333333333333333e-01 1.666666666666665e-01
1.666666666666667e-01 3.333333333333333e-01 1.666666666666665e-01
1.666666666666667e-01 3.333333333333333e-01 1.666666666666665e-01
1.666666666666667e-01 3.333333333333333e-01 1.666666666666665e-01
1.666666666666667e-01 3.333333333333333e-01 1.666666666666665e-01
1.666666666666667e-01 3.333333333333333e-01 1.666666666666665e-01
1.666666666666667e-01 3.333333333333333e-01 1.666666666666665e-01
1.666666666666667e-01 3.333333333333333e-01 1.666666666666665e-01
1.666666666666667e-01 3.333333333333333e-01 1.666666666666665e-01
1.666666666666667e-01 3.333333333333333e-01 1.666666666666665e-01
1.666666666666667e-01 3.333333333333333e-01 1.666666666666665e-01
1.666666666666667e-01 3.333333333333333e-01 1.666666666666665e-01
1.666666666666667e-01 3.333333333333333e-01 1.666666666666665e-01
1.666666666666667e-01 3.333333333333333e-01 1.666666666666665e-01
1.666666666666667e-01 3.333333333333333e-01 1.666666666666665e-01
1.666666666666667e-01 3.333333333333333e-01 1.666666666666665e-01
1.666666666666667e-01 3.333333333333333e-01 1.666666666666665e-01
1.666666666666667e-01 3.333333333333333e-01 1.666666666666665e-01
1.666666666666667e-01 3.333333333333333e-01 1.666666666666665e-01
1.666666666666667e-01 3.333333333333333e-01 1.666666666666665e-01
1.666666666666667e-01 3.333333333333333e-01 1.666666666666665e-01
1.666666666666667e-01 3.333333333333333e-01 1.666666666666665e-01
1.666666666666667e-01 3.333333333333333e-01 1.666666666666665e-01
1.666666666666667e-01 3.333333333333333e-01 1.666666666666665e-01
1.666666666666667e-01 3.333333333333333e-01 1.666666666666665e-01
1.666666666666667e-01 3.333333333333333e-01 1.666666666666665e-01
1.666666666666667e-01 3.333333333333333e-01 1.666666666666665e-01
1.666666666666667e-01 3.333333333333333e-01 1.666666666666665e-01
1.666666666666667e-01 3.333333333333333e-01 1.666666666666665e-01
1.666666666666667e-01 3.333333333333333e-01 1.666666666666665e-01
1.666666666666667e-01 3.333333333333333e-01 1.666666666666665e-01
1.666666666666667e-01 3.333333333333333e-01 1.666666666666665e-01
1.666666666666667e-01 3.333333333333333e-01 1.666666666666665e-01
1.666666666666667e-01 3.333333333333333e-01 1.666666666666665e-01
1.666666666666667e-01 3.333333333333333e-01 1.666666666666665e-01
1.666666666666667e-01 3.333333333333333e-01 1.666666666666665e-01
1.666666666666667e-01 3.333333333333333e-01 1.666666666666665e-01
1.666666666666667e-01 3.333333333333333e-01 1.666666666666665e-01
1.666666666666667e-01 3.333333333333333e-01 1.666666666666665e-01
1.666666666666667e-01 3.333333333333333e-01 1.666666666666665e-01
1.666666666666667e-01 3.333333333333333e-01 1.666666666666665e-01
1.666666666666667e-01 3.333333333333333e-01 1.666666666666665e-01
1.666666666666667e-01 3.333333333333333e-01 1.666666666666665e-01
1.666666666666667e-01 3.333333333333333e-01 1.666666666666665e-01
1.666666666666667e-01 3.333333333333333e-01 1.666666666666665e-01
1.666666666666667e-01 3.333333333333333e-01 1.666666666666665e-01
1.666666666666667e-01 3.333333333333333e-01 1.666666666666665e-01
1.666666666666667e-01 3.333333333333333e-01 1.666666666666665e-01
1.666666666666667e-01 3.333333333333333e-01 1.666666666666665e-01
1.666666666666667e-01 3.333333333333333e-01 1.666666666666665e-01
1.666666666666667e-01 3.333333333333333e-01 1.666666666666665e-01
1.666666666666667e-01 3.333333333333333e-01 1.666666666666665e-01
1.666666666666667e-01 3.333333333333333e-01 1.666666666666665e-01
1.666666666666667e-01 3.333333333333333e-01 1.666666666666665e-01
1.666666666666667e-01 3.333333333333333e-01 1.666666666666665e-01
1.666666666666667e-01 3.333333333333333e-01 1.666666666666665e-01
1.666666666666667e-01 3.333333333333333e-01 1.666666666666665e-01
1.666666666666667e-01 3.333333333333333e-01 1.666666666666665e-01
1.666666666666667e-01 3.333333333333333e-01 1.666666666666665e-01
1.666666666666667e-01 3.333333333333333e-01 1.666666666666665e-01
1.666666666666667e-01 3.333333333333333e-01 1.666666666666665e-01
1.666666666666667e-01 3.333333333333333e-01 1.666666666666665e-01
1.666666666666667e-01 3.333333333333333e-01 1.666666666666665e-01
1.666666666666667e-01 3.333333333333333e-01 1.666666666666665e-01
1.666666666666667e-01 3.333333333333333e-01 1.666666666666665e-01
1.666666666666667e-01 3.333333333333333e-01 1.666666666666665e-01
1.666666666666667e-01 3.333333333333333e-01 1.666666666666665e-01
 1.666666666666667e-01 -1.666666666666665e-01 -3.333333333333333e-01
-1.666666666666667e-01  1.666666666666665e-01  3.333333333333333e-01
 1.666666666666667e-01 -1.666666666666665e-01 -3.333333333333333e-01
 1.666666666666667e-01 -1.666666666666665e-01 -3.333333333333333e-01
 1.666666666666667e-01 -1.666666666666665e-01 -3.333333333333333e-01
 1.666666666666667e-01 -1.666666666666665e-01 -3.333333333333333e-01
 1.666666666666667e-01 -1.666666666666665e-01 -3.333333333333333e-01
 1.666666666666667e-01 -1.666666666666665e-01 -3.333333333333333e-01
 1.666666666666667e-01 -1.666666666666665e-01 -3.333333333333333e-01
 1.666666666666667e-01 -1.666666666666665e-01 -3.333333333333333e-01
 1.666666666666667e-01 -1.666666666666665e-01 -3.333333333333333e-01
 1.666666666666667e-01 -1.666666666666665e-01 -3.333333333333333e-01
 1.666666666666667e-01 -1.666666666666665e-01 -3.333333333333333e-01
 1.666666666666667e-01 -1.666666666666665e-01 -3.333333333333333e-01
 1.666666666666667e-01 -1.666666666666665e-01 -3.333333333333333e-01
 1.666666666666667e-01 -1.666666666666665e-01 -3.333333333333333e-01
 1.666666666666667e-01 -1.666666666666665e-01 -3.333333333333333e-01
 1.666666666666667e-01 -1.666666666666665e-01 -3.333333333333333e-01
 1.666666666666667e-01 -1.666666666666665e-01 -3.333333333333333e-01
 1.666666666666667e-01 -1.666666666666665e-01 -3.333333333333333e-01
 1.666666666666667e-01 -1.666666666666665e-01 -3.333333333333333e-01
 1.666666666666667e-01 -1.666666666666665e-01 -3.333333333333333e-01
 1.666666666666667e-01 -1.666666666666665e-01 -3.333333333333333e-01
 1.666666666666667e-01 -1.666666666666665e-01 -3.333333333333333e-01
 1.666666666666667e-01 -1.666666666666665e-01 -3.333333333333333e-01
 1.666666666666667e-01 -1.666666666666665e-01 -3.333333333333333e-01
 1.666666666666667e-01 -1.666666666666665e-01 -3.333333333333333e-01
 1.666666666666667e-01 -1.666666666666665e-01 -3.333333333333333e-01
 1.666666666666667e-01 -1.666666666666665e-01 -3.333333333333333e-01
 1.666666666666667e-01 -1.666666666666665e-01 -3.333333333333333e-01
 1.666666666666667e-01 -1.666666666666665e-01 -3.333333333333333e-01
 1.666666666666667e-01 -1.666666666666665e-01 -3.333333333333333e-01
 1.666666666666667e-01 -1.666666666666665e-01 -3.333333333333333e-01
 1.666666666666667e-01 -1.666666666666665e-01 -3.333333333333333e-01
 1.666666666666667e-01 -1.666666666666665e-01 -3.333333333333333e-01
 1.666666666666667e-01 -1.666666666666665e-01 -3.333333333333333e-01
 1.666666666666667e-01 -1.666666666666665e-01 -3.333333333333333e-01
 1.666666666666667e-01 -1.666666666666665e-01 -3.333333333333333e-01
 1.666666666666667e-01 -1.666666666666665e-01 -3.333333333333333e-01
 1.666666666666667e-01 -1.666666666666665e-01 -3.333333333333333e-01
 1.666666666666667e-01 -1.666666666666665e-01 -3.333333333333333e-01
 1.666666666666667e-01 -1.666666666666665e-01 -3.333333333333333e-01
 1.666666666666667e-01 -1.666666666666665e-01 -3.333333333333333e-01
 1.666666666666667e-01 -1.666666666666665e-01 -3.333333333333333e-01
 1.666666666666667e-01 -1.666666666666665e-01 -3.333333333333333e-01
 1.666666666666667e-01 -1.666666666666665e-01 -3.333333333333333e-01
 1.666666666666667e-01 -1.666666666666665e-01 -3.333333333333333e-01
 1.666666666666667e-01 -1.666666666666665e-01 -3.333333333333333e-01
 1.666666666666667e-01 -1.666666666666665e-01 -3.333333333333333e-01
 1.666666666666667e-01 -1.666666666666665e-01 -3.333333333333333e-01
 1.666666666666667e-01 -1.666666666666665e-01 -3.333333333333333e-01
 1.666666666666667e-01 -1.666666666666665e-01 -3.333333333333333e-01
 1.666666666666667e-01 -1.666666666666665e-01 -3.333333333333333e-01
 1.666666666666667e-01 -1.666666666666665e-01 -3.333333333333333e-01
 1.666666666666667e-01 -1.666666666666665e-01 -3.333333333333333e-01
 1.666666666666667e-01 -1.666666666666665e-01 -3.333333333333333e-01
 1.666666666666667e-01 -1.666666666666665e-01 -3.333333333333333e-01
 1.666666666666667e-01 -1.666666666666665e-01 -3.333333333333333e-01
 1.666666666666667e-01 -1.666666666666665e-01 -3.333333333333333e-01
 1.666666666666667e-01 -1.666666666666665e-01 -3.333333333333333e-01
 1.666666666666667e-01 -1.666666666666665e-01 -3.333333333333333e-01
 1.666666666666667e-01 -1.666666666666665e-01 -3.333333333333333e-01
 1.666666666666667e-01 -1.666666666666665e-01 -3.333333333333333e-01
 1.666666666666667e-01 -1.666666666666665e-01 -3.333333333333333e-01
 1.666666666666667e-01 -1.666666666666665e-01 -3.333333333333333e-01
 1.666666666666667e-01 -1.666666666666665e-01 -3.333333333333333e-01
 1.666666666666667e-01 -1.666666666666665e-01 -3.333333333333333e-01
 1.666666666666667e-01 -1.666666666666665e-01 -3.333333333333333e-01
 1.666666666666667e-01 -1.666666666666665e-01 -3.333333333333333e-01
 1.666666666666667e-01 -1.666666666666665e-01 -3.333333333333333e-01
 1.666666666666667e-01 -1.666666666666665e-01 -3.333333333333333e-01
 1.666666666666667e-01 -1.666666666666665e-01 -3.333333333333333e-01
 1.666666666666667e-01 -1.666666666666665e-01 -3.333333333333333e-01
 1.666666666666667e-01 -1.666666666666665e-01 -3.333333333333333e-01
 1.666666666666667e-01 -1.666666666666665e-01 -3.333333333333333e-01
 1.666666666666667e-01 -1.666666666666665e-01 -3.333333333333333e-01
 1.666666666666667e-01 -1.666666666666665e-01 -3.333333333333333e-01
 1.666666666666667e-01 -1.666666666666665e-01 -3.333333333333333e-01
 1.666666666666667e-01 -1.666666666666665e-01 -3.333333333333333e-01
 1.666666666666667e-01 -1.666666666666665e-01 -3.333333333333333e-01
 1.666666666666667e-01 -1.666666666666665e-01 -3.333333333333333e-01
 1.666666666666667e-01 -1.666666666666665e-01 -3.333333333333333e-01
 1.666666666666667e-01 -1.666666666666665e-01 -3.333333333333333e-01
 1.666666666666667e-01 -1.666666666666665e-01 -3.333333333333333e-01
 1.666666666666667e-01 -1.666666666666665e-01 -3.333333333333333e-01
 1.666666666666667e-01 -1.666666666666665e-01 -3.333333333333333e-01
 1.666666666666667e-01 -1.666666666666665e-01 -3.333333333333333e-01
 1.666666666666667e-01 -1.666666666666665e-01 -3.333333333333333e-01
 1.666666666666667e-01 -1.666666666666665e-01 -3.333333333333333e-01
 1.666666666666667e-01 -1.666666666666665e-01 -3.333333333333333e-01
 1.666666666666667e-01 -1.666666666666665e-01 -3.333333333333333e-01
 1.666666666666667e-01 -1.666666666666665e-01 -3.333333333333333e-01
 1.666666666666667e-01 -1.666666666666665e-01 -3.333333333333333e-01
 1.666666666666667e-01 -1.666666666666665e-01 -3.333333333333333e-01
 1.666666666666667e-01 -1.666666666666665e-01 -3.333333333333333e-01
 1.666666666666667e-01 -1.666666666666665e-01 -3.333333333333333e-01
 1.666666666666667e-01 -1.666666666666665e-01 -3.333333333333333e-01
 1.666666666666667e-01 -1.666666666666665e-01 -3.333333333333333e-01
 1.666666666666667e-01 -1.666666666666665e-01 -3.333333333333333e-01
 1.666666666666667e-01 -1.666666666666665e-01 -3.333333333333333e-01
 1.666666666666667e-01 -1.666666666666665e-01 -3.333333333333333e-01
 1.666666666666667e-01 -1.666666666666665e-01 -3.333333333333333e-01
 1.666666666666667e-01 -1.666666666666665e-01 -3.333333333333333e-01
 1.666666666666667e-01 -1.666666666666665e-01 -3.333333333333333e-01
 1.666666666666667e-01 -1.666666666666665e-01 -3.333333333333333e-01
 1.666666666666667e-01 -1.666666666666665e-01 -3.333333333333333e-01
 1.666666666666667e-01 -1.666666666666665e-01 -3.333333333333333e-01
 1.666666666666667e-01 -1.666666666666665e-01 -3.333333333333333e-01
 1.666666666666667e-01 -1.666666666666665e-01 -3.333333333333333e-01
 1.666666666666667e-01 -1.666666666666665e-01 -3.333333333333333e-01
 1.666666666666667e-01 -1.666666666666665e-01 -3.333333333333333e-01
 1.666666666666667e-01 -1.666666666666665e-01 -3.333333333333333e-01
 1.666666666666667e-01 -1.666666666666665e-01 -3.333333333333333e-01
 1.666666666666667e-01 -1.666666666666665e-01 -3.333333333333333e-01
 1.666666666666667e-01 -1.666666666666665e-01 -3.333333333333333e-01
 1.666666666666667e-01 -1.666666666666665e-01 -3.333333333333333e-01
 1.666666666666667e-01 -1.666666666666665e-01 -3.333333333333333e-01
 1.666666666666667e-01 -1.666666666666665e-01 -3.333333333333333e-01
 1.666666666666667e-01 -1.666666666666665e-01 -3.333333333333333e-01
 1.666666666666667e-01 -1.666666666666665e-01 -3.333333333333333e-01
 1.666666666666667e-01 -1.666666666666665e-01 -3.333333333333333e-01
 1.666666666666667e-01 -1.666666666666665e-01 -3.333333333333333e-01
 1.666666666666667e-01 -1.666666666666665e-01 -3.333333333333333e-01
 1.666666666666667e-01 -1.666666666666665e-01 -3.333333333333333e-01
 1.666666666666667e-01 -1.666666666666665e-01 -3.333333333333333e-01
 1.666666666666667e-01 -1.666666666666665e-01 -3.333333333333333e-01
 1.666666666666667e-01 -1.666666666666665e-01 -3.333333333333333e-01
 1.666666666666667e-01 -1.666666666666665e-01 -3.333333333333333e-01
 1.666666666666667e-01 -1.666666666666665e-01 -3.333333333333333e-01
 1.666666666666667e-01 -1.666666666666665e-01 -3.333333333333333e-01
 1.666666666666667e-01 -1.666666666666665e-01 -3.333333333333333e-01
 1.666666666666667e-01 -1.666666666666665e-01 -3.333333333333333e-01
 1.666666666666667e-01 -1.666666666666665e-01 -3.333333333333333e-01
 1.666666666666667e-01 -1.666666666666665e-01 -3.333333333333333e-01
 1.666666666666667e-01 -1.666666666666665e-01 -3.333333333333333e-01
 1.666666666666667e-01 -1.666666666666665e-01 -3.333333333333333e-01
 1.666666666666667e-01 -1.666666666666665e-01 -3.333333333333333e-01
 1.666666666666667e-01 -1.666666666666665e-01 -3.333333333333333e-01
 1.666666666666667e-01 -1.666666666666665e-01 -3.333333333333333e-01
 1.666666666666667e-01 -1.666666666666665e-01 -3.333333333333333e-01
 1.666666666666667e-01 -1.666666666666665e-01 -3.333333333333333e-01
 1.666666666666667e-01 -1.666666666666665e-01 -3.333333333333333e-01
 1.666666666666667e-01 -1.666666666666665e-01 -3.333333333333333e-01
 1.666666666666667e-01 -1.666666666666665e-01 -3.333333333333333e-01
 1.666666666666667e-01 -1.666666666666665e-01 -3.333333333333333e-01
 1.666666666666667e-01 -1.666666666666665e-01 -3.333333333333333e-01
 1.666666666666667e-01 -1.666666666666665e-01 -3.333333333333333e-01
 1.666666666666667e-01 -1.666666666666665e-01 -3.333333333333333e-01
 1.666666666666667e-01 -1.666666666666665e-01 -3.333333333333333e-01
 1.666666666666667e-01 -1.666666666666665e-01 -3.333333333333333e-01
 1.666666666666667e-01 -1.666666666666665e-01 -3.333333333333333e-01
 1.666666666666667e-01 -1.666666666666665e-01 -3.333333333333333e-01
 1.666666666666667e-01 -1.666666666666665e-01 -3.333333333333333e-01
 1.666666666666667e-01 -1.666666666666665e-01 -3.333333333333333e-01
 1.666666666666667e-01 -1.666666666666665e-01 -3.333333333333333e-01
 1.666666666666667e-01 -1.666666666666665e-01 -3.333333333333333e-01
 1.666666666666667e-01 -1.666666666666665e-01 -3.333333333333333e-01
 1.666666666666667e-01 -1.666666666666665e-01 -3.333333333333333e-01
 1.666666666666667e-01 -1.666666666666665e-01 -3.333333333333333e-01
 1.666666666666667e-01 -1.666666666666665e-01 -3.333333333333333e-01
 1.666666666666667e-01 -1.666666666666665e-01 -3.333333333333333e-01
 1.666666666666667e-01 -1.666666666666665e-01 -3.333333333333333e-01
 1.666666666666667e-01 -1.666666666666665e-01 -3.333333333333333e-01
 1.666666666666667e-01 -1.666666666666665e-01 -3.333333333333333e-01
 1.666666666666667e-01 -1.666666666666665e-01 -3.333333333333333e-01
 1.666666666666667e-01 -1.666666666666665e-01 -3.333333333333333e-01
 1.666666666666667e-01 -1.666666666666665e-01 -3.333333333333333e-01
 1.666666666666667e-01 -1.666666666666665e-01 -3.333333333333333e-01
 1.666666666666667e-01 -1.666666666666665e-01 -3.333333333333333e-01
 1.666666666666667e-01 -1.666666666666665e-01 -3.333333333333333e-01
 1.666666666666667e-01 -1.666666666666665e-01 -3.333333333333333e-01
 1.666666666666667e-01 -1.666666666666665e-01 -3.333333333333333e-01
 1.666666666666667e-01 -1.666666666666665e-01 -3.333333333333333e-01
 1.666666666666667e-01 -1.666666666666665e-01 -3.333333333333333e-01
 1.666666666666667e-01 -1.666666666666665e-01 -3.333333333333333e-01
 1.666666666666667e-01 -1.666666666666665e-01 -3.333333333333333e-01
 1.666666666666667e-01 -1.666666666666665e-01 -3.333333333333333e-01
 1.666666666666667e-01 -1.666666666666665e-01 -3.333333333333333e-01
 1.666666666666667e-01 -1.666666666666665e-01 -3.333333333333333e-01
 1.666666666666667e-01 -1.666666666666665e-01 -3.333333333333333e-01
 1.666666666666667e-01 -1.666666666666665e-01 -3.333333333333333e-01
 1.666666666666667e-01 -1.666666666666665e-01 -3.333333333333333e-01
 1.666666666666667e-01 -1.666666666666665e-01 -3.333333333333333e-01
 1.666666666666667e-01 -1.666666666666665e-01 -3.333333333333333e-01
 1.666666666666667e-01 -1.666666666666665e-01 -3.333333333333333e-01
 1.666666666666667e-01 -1.666666666666665e-01 -3.333333333333333e-01
 1.666666666666667e-01 -1.666666666666665e-01 -3.333333333333333e-01
 1.666666666666667e-01 -1.666666666666665e-01 -3.333333333333333e-01
 1.666666666666667e-01 -1.666666666666665e-01 -3.333333333333333e-01
 1.666666666666667e-01 -1.666666666666665e-01 -3.333333333333333e-01
 1.666666666666667e-01 -1.666666666666665e-01 -3.333333333333333e-01
 1.666666666666667e-01 -1.666666666666665e-01 -3.333333333333333e-01
 1.666666666666667e-01 -1.666666666666665e-01 -3.333333333333333e-01
 1.666666666666667e-01 -1.666666666666665e-01 -3.333333333333333e-01
 1.666666666666667e-01 -1.666666666666665e-01 -3.333333333333333e-01
 1.666666666666667e-01 -1.666666666666665e-01 -3.333333333333333e-01
 1.666666666666667e-01 -1.666666666666665e-01 -3.333333333333333e-01
 1.666666666666667e-01 -1.666666666666665e-01 -3.333333333333333e-01
 1.666666666666667e-01 -1.666666666666665e-01 -3.333333333333333e-01
 1.666666666666667e-01 -1.666666666666665e-01 -3.333333333333333e-01
 1.666666666666667e-01 -1.666666666666665e-01 -3.333333333333333e-01
 1.666666666666667e-01 -1.666666666666665e-01 -3.333333333333333e-01
 1.666666666666667e-01 -1.666666666666665e-01 -3.333333333333333e-01
 1.666666666666667e-01 -1.666666666666665e-01 -3.333333333333333e-01
 1.666666666666667e-01 -1.666666666666665e-01 -3.333333333333333e-01
 1.666666666666667e-01 -1.666666666666665e-01 -3.333333333333333e-01
 1.666666666666667e-01 -1.666666666666665e-01 -3.333333333333333e-01
 1.666666666666667e-01 -1.666666666666665e-01 -3.333333333333333e-01
 1.666666666666667e-01 -1.666666666666665e-01 -3.333333333333333e-01
 1.666666666666667e-01 -1.666666666666665e-01 -3.333333333333333e-01
 1.666666666666667e-01 -1.666666666666665e-01 -3.333333333333333e-01
 1.666666666666667e-01 -1.666666666666665e-01 -3.333333333333333e-01
 1.666666666666667e-01 -1.666666666666665e-01 -3.333333333333333e-01
 1.666666666666667e-01 -1.666666666666665e-01 -3.333333333333333e-01
 1.666666666666667e-01 -1.666666666666665e-01 -3.333333333333333e-01
 1.666666666666667e-01 -1.666666666666665e-01 -3.333333333333333e-01
 1.666666666666667e-01 -1.666666666666665e-01 -3.333333333333333e-01
 1.666666666666667e-01 -1.666666666666665e-01 -3.333333333333333e-01
 1.666666666666667e-01 -1.666666666666665e-01 -3.333333333333333e-01
 1.666666666666667e-01 -1.666666666666665e-01 -3.333333333333333e-01
 1.666666666666667e-01 -1.666666666666665e-01 -3.333333333333333e-01
 1.666666666666667e-01 -1.666666666666665e-01 -3.333333333333333e-01
 1.666666666666667e-01 -1.666666666666665e-01 -3.333333333333333e-01
 1.666666666666667e-01 -1.666666666666665e-01 -3.333333333333333e-01
 1.666666666666667e-01 -1.666666666666665e-01 -3.333333333333333e-01
 1.666666666666667e-01 -1.666666666666665e-01 -3.333333333333333e-01
 1.666666666666667e-01 -1.666666666666665e-01 -3.333333333333333e-01
 1.666666666666667e-01 -1.666666666666665e-01 -3.333333333333333e-01
 1.666666666666667e-01 -1.666666666666665e-01 -3.333333333333333e-01
 1.666666666666667e-01 -1.666666666666665e-01 -3.333333333333333e-01
 1.666666666666667e-01 -1.666666666666665e-01 -3.333333333333333e-01
 1.666666666666667e-01 -1.666666666666665e-01 -3.333333333333333e-01
 1.666666666666667e-01 -1.666666666666665e-01 -3.333333333333333e-01
 1.666666666666667e-01 -1.666666666666665e-01 -3.333333333333333e-01
 1.666666666666667e-01 -1.666666666666665e-01 -3.333333333333333e-01
 1.666666666666667e-01 -1.666666666666665e-01 -3.333333333333333e-01
 1.666666666666667e-01 -1.666666666666665e-01 -3.333333333333333e-01
 1.666666666666667e-01 -1.666666666666665e-01 -3.333333333333333e-01
 1.666666666666667e-01 -1.666666666666665e-01 -3.333333333333333e-01
 1.666666666666667e-01 -1.666666666666665e-01 -3.333333333333333e-01
 1.666666666666667e-01 -1.666666666666665e-01 -3.333333333333333e-01
 1.666666666666667e-01 -1.666666666666665e-01 -3.333333333333333e-01
 1.666666666666667e-01 -1.666666666666665e-01 -3.333333333333333e-01
 1.666666666666667e-01 -1.666666666666665e-01 -3.333333333333333e-01
 1.666666666666667e-01 -1.666666666666665e-01 -3.333333333333333e-01
 1.666666666666667e-01 -1.666666666666665e-01 -3.333333333333333e-01
 1.666666666666667e-01 -1.666666666666665e-01 -3.333333333333333e-01
 1.666666666666667e-01 -1.666666666666665e-01 -3.333333333333333e-01
 1.666666666666667e-01 -1.666666666666665e-01 -3.333333333333333e-01
 1.666666666666667e-01 -1.666666666666665e-01 -3.333333333333333e-01
 1.666666666666667e-01 -1.666666666666665e-01 -3.333333333333333e-01
 1.666666666666667e-01 -1.666666666666665e-01 -3.333333333333333e-01
 1.666666666666667e-01 -1.666666666666665e-01 -3.333333333333333e-01
 1.666666666666667e-01 -1.666666666666665e-01 -3.333333333333333e-01
 1.666666666666667e-01 -1.666666666666665e-01 -3.333333333333333e-01
 1.666666666666667e-01 -1.666666666666665e-01 -3.333333333333333e-01
 1.666666666666667e-01 -1.666666666666665e-01 -3.333333333333333e-01
 1.666666666666667e-01 -1.666666666666665e-01 -3.333333333333333e-01
 1.666666666666667e-01 -1.666666666666665e-01 -3.333333333333333e-01
 1.666666666666667e-01 -1.666666666666665e-01 -3.333333333333333e-01
 1.666666666666667e-01 -1.666666666666665e-01 -3.333333333333333e-01
 1.666666666666667e-01 -1.666666666666665e-01 -3.333333333333333e-01
 1.666666666666667e-01 -1.666666666666665e-01 -3.333333333333333e-01
 1.666666666666667e-01 -1.666666666666665e-01 -3.333333333333333e-01
 1.666666666666667e-01 -1.666666666666665e-01 -3.333333333333333e-01
 1.666666666666667e-01 -1.666666666666665e-01 -3.333333333333333e-01
 1.666666666666667e-01 -1.666666666666665e-01 -3.333333333333333e-01
 1.666666666666667e-01 -1.666666666666665e-01 -3.333333333333333e-01
 1.666666666666667e-01 -1.666666666666665e-01 -3.333333333333333e-01
 1.666666666666667e-01 -1.666666666666665e-01 -3.333333333333333e-01
 1.666666666666667e-01 -1.666666666666665e-01 -3.333333333333333e-01
 1.666666666666667e-01 -1.666666666666665e-01 -3.333333333333333e-01
 1.666666666666667e-01 -1.666666666666665e-01 -3.333333333333333e-01
 1.666666666666667e-01 -1.666666666666665e-01 -3.333333333333333e-01
 1.666666666666667e-01 -1.666666666666665e-01 -3.333333333333333e-01
 1.666666666666667e-01 -1.666666666666665e-01 -3.333333333333333e-01
 1.666666666666667e-01 -1.666666666666665e-01 -3.333333333333333e-01
 1.666666666666667e-01 -1.666666666666665e-01 -3.333333333333333e-01
 1.666666666666667e-01 -1.666666666666665e-01 -3.333333333333333e-01
 1.666666666666667e-01 -1.666666666666665e-01 -3.333333333333333e-01
 1.666666666666667e-01 -1.666666666666665e-01 -3.333333333333333e-01
 1.666666666666667e-01 -1.666666666666665e-01 -3.333333333333333e-01
 1.666666666666667e-01 -1.666666666666665e-01 -3.333333333333333e-01
 1.666666666666667e-01 -1.666666666666665e-01 -3.333333333333333e-01
 1.666666666666667e-01 -1.666666666666665e-01 -3.333333333333333e-01
 1.666666666666667e-01 -1.666666666666665e-01 -3.333333333333333e-01
 1.666666666666667e-01 -1.666666666666665e-01 -3.333333333333333e-01
 1.666666666666667e-01 -1.666666666666665e-01 -3.333333333333333e-01
 1.666666666666667e-01 -1.666666666666665e-01 -3.333333333333333e-01
 1.666666666666667e-01 -1.666666666666665e-01 -3.333333333333333e-01
 1.666666666666667e-01 -1.666666666666665e-01 -3.333333333333333e-01
 1.666666666666667e-01 -1.666666666666665e-01 -3.333333333333333e-01
 1.666666666666667e-01 -1.666666666666665e-01 -3.333333333333333e-01
 1.666666666666667e-01 -1.666666666666665e-01 -3.333333333333333e-01
 1.666666666666667e-01 -1.666666666666665e-01 -3.333333333333333e-01
 1.666666666666667e-01 -1.666666666666665e-01 -3.333333333333333e-01
 1.666666666666667e-01 -1.666666666666665e-01 -3.333333333333333e-01
 1.666666666666667e-01 -1.666666666666665e-01 -3.333333333333333e-01
 1.666666666666667e-01 -1.666666666666665e-01 -3.333333333333333e-01
 1.666666666666667e-01 -1.666666666666665e-01 -3.333333333333333e-01
 1.666666666666667e-01 -1.666666666666665e-01 -3.333333333333333e-01
 1.666666666666667e-01 -1.666666666666665e-01 -3.333333333333333e-01
 1.666666666666667e-01 -1.666666666666665e-01 -3.333333333333333e-01
 1.666666666666667e-01 -1.666666666666665e-01 -3.333333333333333e-01
 1.666666666666667e-01 -1.666666666666665e-01 -3.333333333333333e-01
 1.666666666666667e-01 -1.666666666666665e-01 -3.333333333333333e-01
 1.666666666666667e-01 -1.666666666666665e-01 -3.333333333333333e-01
 1.666666666666667e-01 -1.666666666666665e-01 -3.333333333333333e-01
 1.666666666666667e-01 -1.666666666666665e-01 -3.333333333333333e-01
 1.666666666666667e-01 -1.666666666666665e-01 -3.333333333333333e-01
 1.666666666666667e-01 -1.666666666666665e-01 -3.333333333333333e-01
 1.666666666666667e-01 -1.666666666666665e-01 -3.333333333333333e-01
 1.666666666666667e-01 -1.666666666666665e-01 -3.333333333333333e-01
 1.666666666666667e-01 -1.666666666666665e-01 -3.333333333333333e-01
 1.666666666666667e-01 -1.666666666666665e-01 -3.333333333333333e-01
 1.666666666666667e-01 -1.666666666666665e-01 -3.333333333333333e-01
 1.666666666666667e-01 -1.666666666666665e-01 -3.333333333333333e-01
 1.666666666666667e-01 -1.666666666666665e-01 -3.333333333333333e-01
 1.666666666666667e-01 -1.666666666666665e-01 -3.333333333333333e-01
 1.666666666666667e-01 -1.666666666666665e-01 -3.333333333333333e-01
 1.666666666666667e-01 -1.666666666666665e-01 -3.333333333333333e-01
 1.666666666666667e-01 -1.666666666666665e-01 -3.333333333333333e-01
 1.666666666666667e-01 -1.666666666666665e-01 -3.333333333333333e-01
 1.666666666666667e-01 -1.666666666666665e-01 -3.333333333333333e-01
 1.666666666666667e-01 -1.666666666666665e-01 -3.333333333333333e-01
 1.666666666666667e-01 -1.666666666666665e-01 -3.333333333333333e-01
 1.666666666666667e-01 -1.666666666666665e-01 -3.333333333333333e-01
 1.666666666666667e-01 -1.666666666666665e-01 -3.333333333333333e-01
 1.666666666666667e-01 -1.666666666666665e-01 -3.333333333333333e-01
 1.666666666666667e-01 -1.666666666666665e-01 -3.333333333333333e-01
 1.666666666666667e-01 -1.666666666666665e-01 -3.333333333333333e-01
 1.666666666666667e-01 -1.666666666666665e-01 -3.333333333333333e-01
 1.666666666666667e-01 -1.666666666666665e-01 -3.333333333333333e-01
 1.666666666666667e-01 -1.666666666666665e-01 -3.333333333333333e-01
 1.666666666666667e-01 -1.666666666666665e-01 -3.333333333333333e-01
 1.666666666666667e-01 -1.666666666666665e-01 -3.333333333333333e-01
 1.666666666666667e-01 -1.666666666666665e-01 -3.333333333333333e-01
 1.666666666666667e-01 -1.666666666666665e-01 -3.333333333333333e-01
 1.666666666666667e-01 -1.666666666666665e-01 -3.333333333333333e-01
 1.666666666666667e-01 -1.666666666666665e-01 -3.333333333333333e-01
 1.666666666666667e-01 -1.666666666666665e-01 -3.333333333333333e-01
 1.666666666666667e-01 -1.666666666666665e-01 -3.333333333333333e-01
 1.666666666666667e-01 -1.666666666666665e-01 -3.333333333333333e-01
 1.666666666666667e-01 -1.666666666666665e-01 -3.333333333333333e-01
 1.666666666666667e-01 -1.666666666666665e-01 -3.333333333333333e-01
 1.666666666666667e-01 -1.666666666666665e-01 -3.333333333333333e-01
 1.666666666666667e-01 -1.666666666666665e-01 -3.333333333333333e-01
 1.666666666666667e-01 -1.666666666666665e-01 -3.333333333333333e-01
 1.666666666666667e-01 -1.666666666666665e-01 -3.333333333333333e-01
 1.666666666666667e-01 -1.666666666666665e-01 -3.333333333333333e-01
 1.666666666666667e-01 -1.666666666666665e-01 -3.333333333333333e-01
 1.666666666666667e-01 -1.666666666666665e-01 -3.333333333333333e-01
 1.666666666666667e-01 -1.666666666666665e-01 -3.333333333333333e-01
 1.666666666666667e-01 -1.666666666666665e-01 -3.333333333333333e-01
 1.666666666666667e-01 -1.666666666666665e-01 -3.333333333333333e-01
 1.666666666666667e-01 -1.666666666666665e-01 -3.333333333333333e-01
 1.666666666666667e-01 -1.666666666666665e-01 -3.333333333333333e-01
 1.666666666666667e-01 -1.666666666666665e-01 -3.333333333333333e-01
 1.666666666666667e-01 -1.666666666666665e-01 -3.333333333333333e-01
 1.666666666666667e-01 -1.666666666666665e-01 -3.333333333333333e-01
 1.666666666666667e-01 -1.666666666666665e-01 -3.333333333333333e-01
 1.666666666666667e-01 -1.666666666666665e-01 -3.333333333333333e-01
 1.666666666666667e-01 -1.666666666666665e-01 -3.333333333333333e-01
 1.666666666666667e-01 -1.666666666666665e-01 -3.333333333333333e-01
 1.666666666666667e-01 -1.666666666666665e-01 -3.333333333333333e-01
 1.666666666666667e-01 -1.666666666666665e-01 -3.333333333333333e-01
 1.666666666666667e-01 -1.666666666666665e-01 -3.333333333333333e-01
 1.666666666666667e-01 -1.666666666666665e-01 -3.333333333333333e-01
 1.666666666666667e-01 -1.666666666666665e-01 -3.333333333333333e-01
 1.666666666666667e-01 -1.666666666666665e-01 -3.333333333333333e-01
 1.666666666666667e-01 -1.666666666666665e-01 -3.333333333333333e-01
 1.666666666666667e-01 -1.666666666666665e-01 -3.333333333333333e-01
 1.666666666666667e-01 -1.666666666666665e-01 -3.333333333333333e-01
 1.666666666666667e-01 -1.666666666666665e-01 -3.333333333333333e-01
 1.666666666666667e-01 -1.666666666666665e-01 -3.333333333333333e-01
 1.666666666666667e-01 -1.666666666666665e-01 -3.333333333333333e-01
 1.666666666666667e-01 -1.666666666666665e-01 -3.333333333333333e-01
 1.666666666666667e-01 -1.666666666666665e-01 -3.333333333333333e-01
 1.666666666666667e-01 -1.666666666666665e-01 -3.333333333333333e-01
 1.666666666666667e-01 -1.666666666666665e-01 -3.333333333333333e-01
 1.666666666666667e-01 -1.666666666666665e-01 -3.333333333333333e-01
 1.666666666666667e-01 -1.666666666666665e-01 -3.333333333333333e-01
 1.666666666666667e-01 -1.666666666666665e-01 -3.333333333333333e-01
 1.666666666666667e-01 -1.666666666666665e-01 -3.333333333333333e-01
 1.666666666666667e-01 -1.666666666666665e-01 -3.333333333333333e-01
 1.666666666666667e-01 -1.666666666666665e-01 -3.333333333333333e-01
 1.666666666666667e-01 -1.666666666666665e-01 -3.333333333333333e-01
 1.666666666666667e-01 -1.666666666666665e-01 -3.333333333333333e-01
 1.666666666666667e-01 -1.666666666666665e-01 -3.333333333333333e-01
 1.666666666666667e-01 -1.666666666666665e-01 -3.333333333333333e-01
 1.666666666666667e-01 -1.666666666666665e-01 -3.333333333333333e-01
 1.666666666666667e-01 -1.666666666666665e-01 -3.333333333333333e-01
 1.666666666666667e-01 -1.666666666666665e-01 -3.333333333333333e-01
 1.666666666666667e-01 -1.666666666666665e-01 -3.333333333333333e-01
 1.666666666666667e-01 -1.666666666666665e-01 -3.333333333333333e-01
 1.666666666666667e-01 -1.666666666666665e-01 -3.333333333333333e-01
 1.666666666666667e-01 -1.666666666666665e-01 -3.333333333333333e-01
 1.666666666666667e-01 -1.666666666666665e-01 -3.333333333333333e-01
 1.666666666666667e-01 -1.666666666666665e-01 -3.333333333333333e-01
 1.666666666666667e-01 -1.666666666666665e-01 -3.333333333333333e-01
 1.666666666666667e-01 -1.666666666666665e-01 -3.333333333333333e-01
 1.666666666666667e-01 -1.666666666666665e-01 -3.333333333333333e-01
 1.666666666666667e-01 -1.666666666666665e-01 -3.333333333333333e-01
 1.666666666666667e-01 -1.666666666666665e-01 -3.333333333333333e-01
 1.666666666666667e-01 -1.666666666666665e-01 -3.333333333333333e-01
 1.666666666666667e-01 -1.666666666666665e-01 -3.333333333333333e-01
 1.666666666666667e-01 -1.666666666666665e-01 -3.333333333333333e-01
 1.666666666666667e-01 -1.666666666666665e-01 -3.333333333333333e-01
 1.666666666666667e-01 -1.666666666666665e-01 -3.333333333333333e-01
 1.666666666666667e-01 -1.666666666666665e-01 -3.333333333333333e-01
 1.666666666666667e-01 -1.666666666666665e-01 -3.333333333333333e-01
 1.666666666666667e-01 -1.666666666666665e-01 -3.333333333333333e-01
 1.666666666666667e-01 -1.666666666666665e-01 -3.333333333333333e-01
 1.666666666666667e-01 -1.666666666666665e-01 -3.333333333333333e-01
 1.666666666666667e-01 -1.666666666666665e-01 -3.333333333333333e-01
 1.666666666666667e-01 -1.666666666666665e-01 -3.333333333333333e-01
 1.666666666666667e-01 -1.666666666666665e-01 -3.333333333333333e-01
 1.666666666666667e-01 -1.666666666666665e-01 -3.333333333333333e-01
 1.666666666666667e-01 -1.666666666666665e-01 -3.333333333333333e-01
 1.666666666666667e-01 -1.666666666666665e-01 -3.333333333333333e-01
 1.666666666666667e-01 -1.666666666666665e-01 -3.333333333333333e-01
 1.666666666666667e-01 -1.666666666666665e-01 -3.333333333333333e-01
 1.666666666666667e-01 -1.666666666666665e-01 -3.333333333333333e-01
 1.666666666666667e-01 -1.666666666666665e-01 -3.333333333333333e-01
 1.666666666666667e-01 -1.666666666666665e-01 -3.333333333333333e-01
 1.666666666666667e-01 -1.666666666666665e-01 -3.333333333333333e-01
 1.666666666666667e-01 -1.666666666666665e-01 -3.333333333333333e-01
 1.666666666666667e-01 -1.666666666666665e-01 -3.333333333333333e-01
 1.666666666666667e-01 -1.666666666666665e-01 -3.333333333333333e-01
 1.666666666666667e-01 -1.666666666666665e-01 -3.333333333333333e-01
 1.666666666666667e-01 -1.666666666666665e-01 -3.333333333333333e-01
 1.666666666666667e-01 -1.666666666666665e-01 -3.333333333333333e-01
 1.666666666666667e-01 -1.666666666666665e-01 -3.333333333333333e-01
 1.666666666666667e-01 -1.666666666666665e-01 -3.333333333333333e-01
 1.666666666666667e-01 -1.666666666666665e-01 -3.333333333333333e-01
 1.666666666666667e-01 -1.666666666666665e-01 -3.333333333333333e-01
 1.666666666666667e-01 -1.666666666666665e-01 -3.333333333333333e-01
 1.666666666666667e-01 -1.666666666666665e-01 -3.333333333333333e-01
 1.666666666666667e-01 -1.666666666666665e-01 -3.333333333333333e-01
 1.666666666666667e-01 -1.666666666666665e-01 -3.333333333333333e-01
 1.666666666666667e-01 -1.666666666666665e-01 -3.333333333333333e-01
 1.666666666666667e-01 -1.666666666666665e-01 -3.333333333333333e-01
 1.666666666666667e-01 -1.666666666666665e-01 -3.333333333333333e-01
 1.666666666666667e-01 -1.666666666666665e-01 -3.333333333333333e-01
 1.666666666666667e-01 -1.666666666666665e-01 -3.333333333333333e-01
 1.666666666666667e-01 -1.666666666666665e-01 -3.333333333333333e-01
 1.666666666666667e-01 -1.666666666666665e-01 -3.333333333333333e-01
 1.666666666666667e-01 -1.666666666666665e-01 -3.333333333333333e-01
 1.666666666666667e-01 -1.666666666666665e-01 -3.333333333333333e-01
 1.666666666666667e-01 -1.666666666666665e-01 -3.333333333333333e-01
 1.666666666666667e-01 -1.666666666666665e-01 -3.333333333333333e-01
 1.666666666666667e-01 -1.666666666666665e-01 -3.333333333333333e-01
 1.666666666666667e-01 -1.666666666666665e-01 -3.333333333333333e-01
 1.666666666666667e-01 -1.666666666666665e-01 -3.333333333333333e-01
 1.666666666666667e-01 -1.666666666666665e-01 -3.333333333333333e-01
 1.666666666666667e-01 -1.666666666666665e-01 -3.333333333333333e-01
 1.666666666666667e-01 -1.666666666666665e-01 -3.333333333333333e-01
 1.666666666666667e-01 -1.666666666666665e-01 -3.333333333333333e-01
 1.666666666666667e-01 -1.666666666666665e-01 -3.333333333333333e-01
 1.666666666666667e-01 -1.666666666666665e-01 -3.333333333333333e-01
 1.666666666666667e-01 -1.666666666666665e-01 -3.333333333333333e-01
 1.666666666666667e-01 -1.666666666666665e-01 -3.333333333333333e-01
 1.666666666666667e-01 -1.666666666666665e-01 -3.333333333333333e-01
 1.666666666666667e-01 -1.666666666666665e-01 -3.333333333333333e-01
 1.666666666666667e-01 -1.666666666666665e-01 -3.333333333333333e-01
 1.666666666666667e-01 -1.666666666666665e-01 -3.333333333333333e-01
 1.666666666666667e-01 -1.666666666666665e-01 -3.333333333333333e-01
 1.666666666666667e-01 -1.666666666666665e-01 -3.333333333333333e-01
 1.666666666666667e-01 -1.666666666666665e-01 -3.333333333333333e-01
 1.666666666666667e-01 -1.666666666666665e-01 -3.333333333333333e-01
 1.666666666666667e-01 -1.666666666666665e-01 -3.333333333333333e-01
 1.666666666666667e-01 -1.666666666666665e-01 -3.333333333333333e-01
 1.666666666666667e-01 -1.666666666666665e-01 -3.333333333333333e-01
 1.666666666666667e-01 -1.666666666666665e-01 -3.333333333333333e-01
 1.666666666666667e-01 -1.666666666666665e-01 -3.333333333333333e-01
 1.666666666666667e-01 -1.666666666666665e-01 -3.333333333333333e-01
 1.666666666666667e-01 -1.666666666666665e-01 -3.333333333333333e-01
 1.666666666666667e-01 -1.666666666666665e-01 -3.333333333333333e-01
 1.666666666666667e-01 -1.666666666666665e-01 -3.333333333333333e-01
 1.666666666666667e-01 -1.666666666666665e-01 -3.333333333333333e-01
 1.666666666666667e-01 -1.666666666666665e-01 -3.333333333333333e-01
 1.666666666666667e-01 -1.666666666666665e-01 -3.333333333333333e-01
 1.666666666666667e-01 -1.666666666666665e-01 -3.333333333333333e-01
 1.666666666666667e-01 -1.666666666666665e-01 -3.333333333333333e-01
 1.666666666666667e-01 -1.666666666666665e-01 -3.333333333333333e-01
 1.666666666666667e-01 -1.666666666666665e-01 -3.333333333333333e-01
 1.666666666666667e-01 -1.666666666666665e-01 -3.333333333333333e-01
 1.666666666666667e-01 -1.666666666666665e-01 -3.333333333333333e-01
 1.666666666666667e-01 -1.666666666666665e-01 -3.333333333333333e-01
 1.666666666666667e-01 -1.666666666666665e-01 -3.333333333333333e-01
 1.666666666666667e-01 -1.666666666666665e-01 -3.333333333333333e-01
 1.666666666666667e-01 -1.666666666666665e-01 -3.333333333333333e-01
 1.666666666666667e-01 -1.666666666666665e-01 -3.333333333333333e-01
 1.666666666666667e-01 -1.666666666666665e-01 -3.333333333333333e-01
 1.666666666666667e-01 -1.666666666666665e-01 -3.333333333333333e-01
 1.666666666666667e-01 -1.666666666666665e-01 -3.333333333333333e-01
 1.666666666666667e-01 -1.666666666666665e-01 -3.333333333333333e-01
 1.666666666666667e-01 -1.666666666666665e-01 -3.333333333333333e-01
 1.666666666666667e-01 -1.666666666666665e-01 -3.333333333333333e-01
 1.666666666666667e-01 -1.666666666666665e-01 -3.333333333333333e-01
 1.666666666666667e-01 -1.666666666666665e-01 -3.333333333333333e-01
 1.666666666666667e-01 -1.666666666666665e-01 -3.333333333333333e-01
 1.666666666666667e-01 -1.666666666666665e-01 -3.333333333333333e-01
 1.666666666666667e-01 -1.666666666666665e-01 -3.333333333333333e-01
 1.666666666666667e-01 -1.666666666666665e-01 -3.333333333333333e-01
 1.666666666666667e-01 -1.666666666666665e-01 -3.333333333333333e-01
 1.666666666666667e-01 -1.666666666666665e-01 -3.333333333333333e-01
 1.666666666666667e-01 -1.666666666666665e-01 -3.333333333333333e-01
 1.666666666666667e-01 -1.666666666666665e-01 -3.333333333333333e-01
 1.666666666666667e-01 -1.666666666666665e-01 -3.333333333333333e-01
 1.666666666666667e-01 -1.666666666666665e-01 -3.333333333333333e-01
 1.666666666666667e-01 -1.666666666666665e-01 -3.333333333333333e-01
 1.666666666666667e-01 -1.666666666666665e-01 -3.333333333333333e-01
 1.666666666666667e-01 -1.666666666666665e-01 -3.333333333333333e-01
 1.666666666666667e-01 -1.666666666666665e-01 -3.333333333333333e-01
 1.666666666666667e-01 -1.666666666666665e-01 -3.333333333333333e-01
 1.666666666666667e-01 -1.666666666666665e-01 -3.333333333333333e-01
 1.666666666666667e-01 -1.666666666666665e-01 -3.333333333333333e-01
 1.666666666666667e-01 -1.666666666666665e-01 -3.333333333333333e-01
 1.666666666666667e-01 -1.666666666666665e-01 -3.333333333333333e-01
 1.666666666666667e-01 -1.666666666666665e-01 -3.333333333333333e-01
 1.666666666666667e-01 -1.666666666666665e-01 -3.333333333333333e-01
 1.666666666666667e-01 -1.666666666666665e-01 -3.333333333333333e-01
 1.666666666666667e-01 -1.666666666666665e-01 -3.333333333333333e-01
 1.666666666666667e-01 -1.666666666666665e-01 -3.333333333333333e-01
 1.666666666666667e-01 -1.666666666666665e-01 -3.333333333333333e-01
 1.666666666666667e-01 -1.666666666666665e-01 -3.333333333333333e-01
 1.666666666666667e-01 -1.666666666666665e-01 -3.333333333333333e-01
 1.666666666666667e-01 -1.666666666666665e-01 -3.333333333333333e-01
 1.666666666666667e-01 -1.666666666666665e-01 -3.333333333333333e-01
 1.666666666666667e-01 -1.666666666666665e-01 -3.333333333333333e-01
 1.666666666666667e-01 -1.666666666666665e-01 -3.333333333333333e-01
 1.666666666666667e-01 -1.666666666666665e-01 -3.333333333333333e-01
 1.666666666666667e-01 -1.666666666666665e-01 -3.333333333333333e-01
 1.666666666666667e-01 -1.666666666666665e-01 -3.333333333333333e-01
 1.666666666666667e-01 -1.666666666666665e-01 -3.333333333333333e-01
 1.666666666666667e-01 -1.666666666666665e-01 -3.333333333333333e-01
 1.666666666666667e-01 -1.666666666666665e-01 -3.333333333333333e-01
 1.666666666666667e-01 -1.666666666666665e-01 -3.333333333333333e-01
 1.666666666666667e-01 -1.666666666666665e-01 -3.333333333333333e-01
 1.666666666666667e-01 -1.666666666666665e-01 -3.333333333333333e-01
 1.666666666666667e-01 -1.666666666666665e-01 -3.333333333333333e-01
 1.666666666666667e-01 -1.666666666666665e-01 -3.333333333333333e-01
 1.666666666666667e-01 -1.666666666666665e-01 -3.333333333333333e-01
 1.666666666666667e-01 -1.666666666666665e-01 -3.333333333333333e-01
 1.666666666666667e-01 -1.666666666666665e-01 -3.333333333333333e-01
 1.666666666666667e-01 -1.666666666666665e-01 -3.333333333333333e-01
 1.666666666666667e-01 -1.666666666666665e-01 -3.333333333333333e-01
 1.666666666666667e-01 -1.666666666666665e-01 -3.333333333333333e-01
 1.666666666666667e-01 -1.666666666666665e-01 -3.333333333333333e-01
 1.666666666666667e-01 -1.666666666666665e-01 -3.333333333333333e-01
 1.666666666666667e-01 -1.666666666666665e-01 -3.333333333333333e-01
 1.666666666666667e-01 -1.666666666666665e-01 -3.333333333333333e-01
 1.666666666666667e-01 -1.666666666666665e-01 -3.333333333333333e-01
 1.666666666666667e-01 -1.666666666666665e-01 -3.333333333333333e-01
 1.666666666666667e-01 -1.666666666666665e-01 -3.333333333333333e-01
 1.666666666666667e-01 -1.666666666666665e-01 -3.333333333333333e-01
 1.666666666666667e-01 -1.666666666666665e-01 -3.333333333333333e-01
 1.666666666666667e-01 -1.666666666666665e-01 -3.333333333333333e-01
 1.666666666666667e-01 -1.666666666666665e-01 -3.333333333333333e-01
 1.666666666666667e-01 -1.666666666666665e-01 -3.333333333333333e-01
 1.666666666666667e-01 -1.666666666666665e-01 -3.333333333333333e-01
 1.666666666666667e-01 -1.666666666666665e-01 -3.333333333333333e-01
 1.666666666666667e-01 -1.666666666666665e-01 -3.333333333333333e-01
 1.666666666666667e-01 -1.666666666666665e-01 -3.333333333333333e-01
 1.666666666666667e-01 -1.666666666666665e-01 -3.333333333333333e-01
 1.666666666666667e-01 -1.666666666666665e-01 -3.333333333333333e-01
 1.666666666666667e-01 -1.666666666666665e-01 -3.333333333333333e-01
 1.666666666666667e-01 -1.666666666666665e-01 -3.333333333333333e-01
 1.666666666666667e-01 -1.666666666666665e-01 -3.333333333333333e-01
 1.666666666666667e-01 -1.666666666666665e-01 -3.333333333333333e-01
 1.666666666666667e-01 -1.666666666666665e-01 -3.333333333333333e-01
 1.666666666666667e-01 -1.666666666666665e-01 -3.333333333333333e-01
 1.666666666666667e-01 -1.666666666666665e-01 -3.333333333333333e-01
 1.666666666666667e-01 -1.666666666666665e-01 -3.333333333333333e-01
 1.666666666666667e-01 -1.666666666666665e-01 -3.333333333333333e-01
 1.666666666666667e-01 -1.666666666666665e-01 -3.333333333333333e-01
 1.666666666666667e-01 -1.666666666666665e-01 -3.333333333333333e-01
 1.666666666666667e-01 -1.666666666666665e-01 -3.333333333333333e-01
 1.666666666666667e-01 -1.666666666666665e-01 -3.333333333333333e-01
 1.666666666666667e-01 -1.666666666666665e-01 -3.333333333333333e-01
 1.666666666666667e-01 -1.666666666666665e-01 -3.333333333333333e-01
 1.666666666666667e-01 -1.666666666666665e-01 -3.333333333333333e-01
 1.666666666666667e-01 -1.666666666666665e-01 -3.333333333333333e-01
 1.666666666666667e-01 -1.666666666666665e-01 -3.333333333333333e-01
 1.666666666666667e-01 -1.666666666666665e-01 -3.333333333333333e-01
 1.666666666666667e-01 -1.666666666666665e-01 -3.333333333333333e-01
 1.666666666666667e-01 -1.666666666666665e-01 -3.333333333333333e-01
 1.666666666666667e-01 -1.666666666666665e-01 -3.333333333333333e-01
 1.666666666666667e-01 -1.666666666666665e-01 -3.333333333333333e-01
 1.666666666666667e-01 -1.666666666666665e-01 -3.333333333333333e-01
 1.666666666666667e-01 -1.666666666666665e-01 -3.333333333333333e-01
 1.666666666666667e-01 -1.666666666666665e-01 -3.333333333333333e-01
 1.666666666666667e-01 -1.666666666666665e-01 -3.333333333333333e-01
 1.666666666666667e-01 -1.666666666666665e-01 -3.333333333333333e-01
 1.666666666666667e-01 -1.666666666666665e-01 -3.333333333333333e-01
 1.666666666666667e-01 -1.666666666666665e-01 -3.333333333333333e-01
 1.666666666666667e-01 -1.666666666666665e-01 -3.333333333333333e-01
 1.666666666666667e-01 -1.666666666666665e-01 -3.333333333333333e-01
 1.666666666666667e-01 -1.666666666666665e-01 -3.333333333333333e-01
 1.666666666666667e-01 -1.666666666666665e-01 -3.333333333333333e-01
 1.666666666666667e-01 -1.666666666666665e-01 -3.333333333333333e-01
 1.666666666666667e-01 -1.666666666666665e-01 -3.333333333333333e-01
 1.666666666666667e-01 -1.666666666666665e-01 -3.333333333333333e-01
 1.666666666666667e-01 -1.666666666666665e-01 -3.333333333333333e-01
 1.666666666666667e-01 -1.666666666666665e-01 -3.333333333333333e-01
 1.666666666666667e-01 -1.666666666666665e-01 -3.333333333333333e-01
 1.666666666666667e-01 -1.666666666666665e-01 -3.333333333333333e-01
 1.666666666666667e-01 -1.666666666666665e-01 -3.333333333333333e-01
 1.666666666666667e-01 -1.666666666666665e-01 -3.333333333333333e-01
 1.666666666666667e-01 -1.666666666666665e-01 -3.333333333333333e-01
 1.666666666666667e-01 -1.666666666666665e-01 -3.333333333333333e-01
 1.666666666666667e-01 -1.666666666666665e-01 -3.333333333333333e-01
 1.666666666666667e-01 -1.666666666666665e-01 -3.333333333333333e-01
 1.666666666666667e-01 -1.666666666666665e-01 -3.333333333333333e-01
 1.666666666666667e-01 -1.666666666666665e-01 -3.333333333333333e-01
 1.666666666666667e-01 -1.666666666666665e-01 -3.333333333333333e-01
 1.666666666666667e-01 -1.666666666666665e-01 -3.333333333333333e-01
 1.666666666666667e-01 -1.666666666666665e-01 -3.333333333333333e-01
 1.666666666666667e-01 -1.666666666666665e-01 -3.333333333333333e-01
 1.666666666666667e-01 -1.666666666666665e-01 -3.333333333333333e-01
 1.666666666666667e-01 -1.666666666666665e-01 -3.333333333333333e-01
 1.666666666666667e-01 -1.666666666666665e-01 -3.333333333333333e-01
 1.666666666666667e-01 -1.666666666666665e-01 -3.333333333333333e-01
 1.666666666666667e-01 -1.666666666666665e-01 -3.333333333333333e-01
 1.666666666666667e-01 -1.666666666666665e-01 -3.333333333333333e-01
 1.666666666666667e-01 -1.666666666666665e-01 -3.333333333333333e-01
 1.666666666666667e-01 -1.666666666666665e-01 -3.333333333333333e-01
 1.666666666666667e-01 -1.666666666666665e-01 -3.333333333333333e-01
 1.666666666666667e-01 -1.666666666666665e-01 -3.333333333333333e-01
 1.666666666666667e-01 -1.666666666666665e-01 -3.333333333333333e-01
 1.666666666666667e-01 -1.666666666666665e-01 -3.333333333333333e-01
 1.666666666666667e-01 -1.666666666666665e-01 -3.333333333333333e-01
 1.666666666666667e-01 -1.666666666666665e-01 -3.333333333333333e-01
 1.666666666666667e-01 -1.666666666666665e-01 -3.333333333333333e-01
 1.666666666666667e-01 -1.666666666666665e-01 -3.333333333333333e-01
 1.666666666666667e-01 -1.666666666666665e-01 -3.333333333333333e-01
 1.666666666666667e-01 -1.666666666666665e-01 -3.333333333333333e-01
 1.666666666666667e-01 -1.666666666666665e-01 -3.333333333333333e-01
 1.666666666666667e-01 -1.666666666666665e-01 -3.333333333333333e-01
 1.666666666666667e-01 -1.666666666666665e-01 -3.333333333333333e-01
 1.666666666666667e-01 -1.666666666666665e-01 -3.333333333333333e-01
 1.666666666666667e-01 -1.666666666666665e-01 -3.333333333333333e-01
 1.666666666666667e-01 -1.666666666666665e-01 -3.333333333333333e-01
 1.666666666666667e-01 -1.666666666666665e-01 -3.333333333333333e-01
 1.666666666666667e-01 -1.666666666666665e-01 -3.333333333333333e-01
 1.666666666666667e-01 -1.666666666666665e-01 -3.333333333333333e-01
 1.666666666666667e-01 -1.666666666666665e-01 -3.333333333333333e-01
 1.666666666666667e-01 -1.666666666666665e-01 -3.333333333333333e-01
 1.666666666666667e-01 -1.666666666666665e-01 -3.333333333333333e-01
 1.666666666666667e-01 -1.666666666666665e-01 -3.333333333333333e-01
 1.666666666666667e-01 -1.666666666666665e-01 -3.333333333333333e-01
 1.666666666666667e-01 -1.666666666666665e-01 -3.333333333333333e-01
 1.666666666666667e-01 -1.666666666666665e-01 -3.333333333333333e-01
 1.666666666666667e-01 -1.666666666666665e-01 -3.333333333333333e-01
 1.666666666666667e-01 -1.666666666666665e-01 -3.333333333333333e-01
 1.666666666666667e-01 -1.666666666666665e-01 -3.333333333333333e-01
 1.666666666666667e-01 -1.666666666666665e-01 -3.333333333333333e-01
 1.666666666666667e-01 -1.666666666666665e-01 -3.333333333333333e-01
 1.666666666666667e-01 -1.666666666666665e-01 -3.333333333333333e-01
 1.666666666666667e-01 -1.666666666666665e-01 -3.333333333333333e-01
 1.666666666666667e-01 -1.666666666666665e-01 -3.333333333333333e-01
 1.666666666666667e-01 -1.666666666666665e-01 -3.333333333333333e-01
 1.666666666666667e-01 -1.666666666666665e-01 -3.333333333333333e-01
 1.666666666666667e-01 -1.666666666666665e-01 -3.333333333333333e-01
 1.666666666666667e-01 -1.666666666666665e-01 -3.333333333333333e-01
 1.666666666666667e-01 -1.666666666666665e-01 -3.333333333333333e-01
 1.666666666666667e-01 -1.666666666666665e-01 -3.333333333333333e-01
 1.666666666666667e-01 -1.666666666666665e-01 -3.333333333333333e-01
 1.666666666666667e-01 -1.666666666666665e-01 -3.333333333333333e-01
 1.666666666666667e-01 -1.666666666666665e-01 -3.333333333333333e-01
 1.666666666666667e-01 -1.666666666666665e-01 -3.333333333333333e-01
 1.666666666666667e-01 -1.666666666666665e-01 -3.333333333333333e-01
 1.666666666666667e-01 -1.666666666666665e-01 -3.333333333333333e-01
 1.666666666666667e-01 -1.666666666666665e-01 -3.333333333333333e-01
 1.666666666666667e-01 -1.666666666666665e-01 -3.333333333333333e-01
 1.666666666666667e-01 -1.666666666666665e-01 -3.333333333333333e-01
 1.666666666666667e-01 -1.666666666666665e-01 -3.333333333333333e-01
 1.666666666666667e-01 -1.666666666666665e-01 -3.333333333333333e-01
 1.666666666666667e-01 -1.666666666666665e-01 -3.333333333333333e-01
 1.666666666666667e-01 -1.666666666666665e-01 -3.333333333333333e-01
 1.666666666666667e-01 -1.666666666666665e-01 -3.333333333333333e-01
 1.666666666666667e-01 -1.666666666666665e-01 -3.333333333333333e-01
 1.666666666666667e-01 -1.666666666666665e-01 -3.333333333333333e-01
 1.666666666666667e-01 -1.666666666666665e-01 -3.333333333333333e-01
 1.666666666666667e-01 -1.666666666666665e-01 -3.333333333333333e-01
 1.666666666666667e-01 -1.666666666666665e-01 -3.333333333333333e-01
 1.666666666666667e-01 -1.666666666666665e-01 -3.333333333333333e-01
 1.666666666666667e-01 -1.666666666666665e-01 -3.333333333333333e-01
 1.666666666666667e-01 -1.666666666666665e-01 -3.333333333333333e-01
 1.666666666666667e-01 -1.666666666666665e-01 -3.333333333333333e-01
 1.666666666666667e-01 -1.666666666666665e-01 -3.333333333333333e-01
 1.666666666666667e-01 -1.666666666666665e-01 -3.333333333333333e-01
 1.666666666666667e-01 -1.666666666666665e-01 -3.333333333333333e-01
 1.666666666666667e-01 -1.666666666666665e-01 -3.333333333333333e-01
 1.666666666666667e-01 -1.666666666666665e-01 -3.333333333333333e-01
 1.666666666666667e-01 -1.666666666666665e-01 -3.333333333333333e-01
 1.666666666666667e-01 -1.666666666666665e-01 -3.333333333333333e-01
 1.666666666666667e-01 -1.666666666666665e-01 -3.333333333333333e-01
 1.666666666666667e-01 -1.666666666666665e-01 -3.333333333333333e-01
 1.666666666666667e-01 -1.666666666666665e-01 -3.333333333333333e-01
 1.666666666666667e-01 -1.666666666666665e-01 -3.333333333333333e-01
 1.666666666666667e-01 -1.666666666666665e-01 -3.333333333333333e-01
 1.666666666666667e-01 -1.666666666666665e-01 -3.333333333333333e-01
 1.666666666666667e-01 -1.666666666666665e-01 -3.333333333333333e-01
 1.666666666666667e-01 -1.666666666666665e-01 -3.333333333333333e-01
 1.666666666666667e-01 -1.666666666666665e-01 -3.333333333333333e-01
 1.666666666666667e-01 -1.666666666666665e-01 -3.333333333333333e-01
 1.666666666666667e-01 -1.666666666666665e-01 -3.333333333333333e-01
 1.666666666666667e-01 -1.666666666666665e-01 -3.333333333333333e-01
 1.666666666666667e-01 -1.666666666666665e-01 -3.333333333333333e-01
 1.666666666666667e-01 -1.666666666666665e-01 -3.333333333333333e-01
 1.666666666666667e-01 -1.666666666666665e-01 -3.333333333333333e-01
 1.666666666666667e-01 -1.666666666666665e-01 -3.333333333333333e-01
 1.666666666666667e-01 -1.666666666666665e-01 -3.333333333333333e-01
 1.666666666666667e-01 -1.666666666666665e-01 -3.333333333333333e-01
 1.666666666666667e-01 -1.666666666666665e-01 -3.333333333333333e-01
 1.666666666666667e-01 -1.666666666666665e-01 -3.333333333333333e-01
 1.666666666666667e-01 -1.666666666666665e-01 -3.333333333333333e-01
 1.666666666666667e-01 -1.666666666666665e-01 -3.333333333333333e-01
 1.666666666666667e-01 -1.666666666666665e-01 -3.333333333333333e-01
 1.666666666666667e-01 -1.666666666666665e-01 -3.333333333333333e-01
 1.666666666666667e-01 -1.666666666666665e-01 -3.333333333333333e-01
 1.666666666666667e-01 -1.666666666666665e-01 -3.333333333333333e-01
 1.666666666666667e-01 -1.666666666666665e-01 -3.333333333333333e-01
 1.666666666666667e-01 -1.666666666666665e-01 -3.333333333333333e-01
 1.666666666666667e-01 -1.666666666666665e-01 -3.333333333333333e-01
 1.666666666666667e-01 -1.666666666666665e-01 -3.333333333333333e-01
 1.666666666666667e-01 -1.666666666666665e-01 -3.333333333333333e-01
 1.666666666666667e-01 -1.666666666666665e-01 -3.333333333333333e-01
 1.666666666666667e-01 -1.666666666666665e-01 -3.333333333333333e-01
 1.666666666666667e-01 -1.666666666666665e-01 -3.333333333333333e-01
 1.666666666666667e-01 -1.666666666666665e-01 -3.333333333333333e-01
 1.666666666666667e-01 -1.666666666666665e-01 -3.333333333333333e-01
 1.666666666666667e-01 -1.666666666666665e-01 -3.333333333333333e-01
 1.666666666666667e-01 -1.666666666666665e-01 -3.333333333333333e-01
 1.666666666666667e-01 -1.666666666666665e-01 -3.333333333333333e-01
 1.666666666666667e-01 -1.666666666666665e-01 -3.333333333333333e-01
 1.666666666666667e-01 -1.666666666666665e-01 -3.333333333333333e-01
 1.666666666666667e-01 -1.666666666666665e-01 -3.333333333333333e-01
 1.666666666666667e-01 -1.666666666666665e-01 -3.333333333333333e-01
 1.666666666666667e-01 -1.666666666666665e-01 -3.333333333333333e-01
 1.666666666666667e-01 -1.666666666666665e-01 -3.333333333333333e-01
 1.666666666666667e-01 -1.666666666666665e-01 -3.333333333333333e-01
 1.666666666666667e-01 -1.666666666666665e-01 -3.333333333333333e-01
 1.666666666666667e-01 -1.666666666666665e-01 -3.333333333333333e-01
 1.666666666666667e-01 -1.666666666666665e-01 -3.333333333333333e-01
 1.666666666666667e-01 -1.666666666666665e-01 -3.333333333333333e-01
 1.666666666666667e-01 -1.666666666666665e-01 -3.333333333333333e-01
 1.666666666666667e-01 -1.666666666666665e-01 -3.333333333333333e-01
 1.666666666666667e-01 -1.666666666666665e-01 -3.333333333333333e-01
 1.666666666666667e-01 -1.666666666666665e-01 -3.333333333333333e-01
 1.666666666666667e-01 -1.666666666666665e-01 -3.333333333333333e-01
 1.666666666666667e-01 -1.666666666666665e-01 -3.333333333333333e-01
 1.666666666666667e-01 -1.666666666666665e-01 -3.333333333333333e-01
 1.666666666666667e-01 -1.666666666666665e-01 -3.333333333333333e-01
 1.666666666666667e-01 -1.666666666666665e-01 -3.333333333333333e-01
 1.666666666666667e-01 -1.666666666666665e-01 -3.333333333333333e-01
 1.666666666666667e-01 -1.666666666666665e-01 -3.333333333333333e-01
 1.666666666666667e-01 -1.666666666666665e-01 -3.333333333333333e-01
 1.666666666666667e-01 -1.666666666666665e-01 -3.333333333333333e-01
 1.666666666666667e-01 -1.666666666666665e-01 -3.333333333333333e-01
 1.666666666666667e-01 -1.666666666666665e-01 -3.333333333333333e-01
 1.666666666666667e-01 -1.666666666666665e-01 -3.333333333333333e-01
 1.666666666666667e-01 -1.666666666666665e-01 -3.333333333333333e-01
 1.666666666666667e-01 -1.666666666666665e-01 -3.333333333333333e-01
 1.666666666666667e-01 -1.666666666666665e-01 -3.333333333333333e-01
 1.666666666666667e-01 -1.666666666666665e-01 -3.333333333333333e-01
 1.666666666666667e-01 -1.666666666666665e-01 -3.333333333333333e-01
 1.666666666666667e-01 -1.666666666666665e-01 -3.333333333333333e-01
 1.666666666666667e-01 -1.666666666666665e-01 -3.333333333333333e-01
 1.666666666666667e-01 -1.666666666666665e-01 -3.333333333333333e-01
 1.666666666666667e-01 -1.666666666666665e-01 -3.333333333333333e-01
 1.666666666666667e-01 -1.666666666666665e-01 -3.333333333333333e-01
-1.666666666666667e-01  1.666666666666665e-01  3.333333333333333e-01
 1.666666666666667e-01 -1.666666666666665e-01 -3.333333333333333e-01
-1.666666666666667e-01  1.666666666666665e-01  3.333333333333333e-01
-1.666666666666667e-01  1.666666666666665e-01  3.333333333333333e-01
-1.666666666666667e-01  1.666666666666665e-01  3.333333333333333e-01
-1.666666666666667e-01  1.666666666666665e-01  3.333333333333333e-01
-1.666666666666667e-01  1.666666666666665e-01  3.333333333333333e-01
-1.666666666666667e-01  1.666666666666665e-01  3.333333333333333e-01
-1.666666666666667e-01  1.666666666666665e-01  3.333333333333333e-01
-1.666666666666667e-01  1.666666666666665e-01  3.333333333333333e-01
-1.666666666666667e-01  1.666666666666665e-01  3.333333333333333e-01
-1.666666666666667e-01  1.666666666666665e-01  3.333333333333333e-01
-1.666666666666667e-01  1.666666666666665e-01  3.333333333333333e-01
-1.666666666666667e-01  1.666666666666665e-01  3.333333333333333e-01
-1.666666666666667e-01  1.666666666666665e-01  3.333333333333333e-01
-1.666666666666667e-01  1.666666666666665e-01  3.333333333333333e-01
-1.666666666666667e-01  1.666666666666665e-01  3.333333333333333e-01
-1.666666666666667e-01  1.666666666666665e-01  3.333333333333333e-01
-1.666666666666667e-01  1.666666666666665e-01  3.333333333333333e-01
-1.666666666666667e-01  1.666666666666665e-01  3.333333333333333e-01
-1.666666666666667e-01  1.666666666666665e-01  3.333333333333333e-01
-1.666666666666667e-01  1.666666666666665e-01  3.333333333333333e-01
-1.666666666666667e-01  1.666666666666665e-01  3.333333333333333e-01
-1.666666666666667e-01  1.666666666666665e-01  3.333333333333333e-01
-1.666666666666667e-01  1.666666666666665e-01  3.333333333333333e-01
-1.666666666666667e-01  1.666666666666665e-01  3.333333333333333e-01
-1.666666666666667e-01  1.666666666666665e-01  3.333333333333333e-01
-1.666666666666667e-01  1.666666666666665e-01  3.333333333333333e-01
-1.666666666666667e-01  1.666666666666665e-01  3.333333333333333e-01
-1.666666666666667e-01  1.666666666666665e-01  3.333333333333333e-01
-1.666666666666667e-01  1.666666666666665e-01  3.333333333333333e-01
-1.666666666666667e-01  1.666666666666665e-01  3.333333333333333e-01
-1.666666666666667e-01  1.666666666666665e-01  3.333333333333333e-01
-1.666666666666667e-01  1.666666666666665e-01  3.333333333333333e-01
-1.666666666666667e-01  1.666666666666665e-01  3.333333333333333e-01
-1.666666666666667e-01  1.666666666666665e-01  3.333333333333333e-01
-1.666666666666667e-01  1.666666666666665e-01  3.333333333333333e-01
-1.666666666666667e-01  1.666666666666665e-01  3.333333333333333e-01
-1.666666666666667e-01  1.666666666666665e-01  3.333333333333333e-01
-1.666666666666667e-01  1.666666666666665e-01  3.333333333333333e-01
-1.666666666666667e-01  1.666666666666665e-01  3.333333333333333e-01
-1.666666666666667e-01  1.666666666666665e-01  3.333333333333333e-01
-1.666666666666667e-01  1.666666666666665e-01  3.333333333333333e-01
-1.666666666666667e-01  1.666666666666665e-01  3.333333333333333e-01
-1.666666666666667e-01  1.666666666666665e-01  3.333333333333333e-01
-1.666666666666667e-01  1.666666666666665e-01  3.333333333333333e-01
-1.666666666666667e-01  1.666666666666665e-01  3.333333333333333e-01
-1.666666666666667e-01  1.666666666666665e-01  3.333333333333333e-01
-1.666666666666667e-01  1.666666666666665e-01  3.333333333333333e-01
-1.666666666666667e-01  1.666666666666665e-01  3.333333333333333e-01
-1.666666666666667e-01  1.666666666666665e-01  3.333333333333333e-01
-1.666666666666667e-01  1.666666666666665e-01  3.333333333333333e-01
-1.666666666666667e-01  1.666666666666665e-01  3.333333333333333e-01
-1.666666666666667e-01  1.666666666666665e-01  3.333333333333333e-01
-1.666666666666667e-01  1.666666666666665e-01  3.333333333333333e-01
-1.666666666666667e-01  1.666666666666665e-01  3.333333333333333e-01
-1.666666666666667e-01  1.666666666666665e-01  3.333333333333333e-01
-1.666666666666667e-01  1.666666666666665e-01  3.333333333333333e-01
-1.666666666666667e-01  1.666666666666665e-01  3.333333333333333e-01
-1.666666666666667e-01  1.666666666666665e-01  3.333333333333333e-01
-1.666666666666667e-01  1.666666666666665e-01  3.333333333333333e-01
-1.666666666666667e-01  1.666666666666665e-01  3.333333333333333e-01
-1.666666666666667e-01  1.666666666666665e-01  3.333333333333333e-01
-1.666666666666667e-01  1.666666666666665e-01  3.333333333333333e-01
-1.666666666666667e-01  1.666666666666665e-01  3.333333333333333e-01
-1.666666666666667e-01  1.666666666666665e-01  3.333333333333333e-01
-1.666666666666667e-01  1.666666666666665e-01  3.333333333333333e-01
-1.666666666666667e-01  1.666666666666665e-01  3.333333333333333e-01
-1.666666666666667e-01  1.666666666666665e-01  3.333333333333333e-01
-1.666666666666667e-01  1.666666666666665e-01  3.333333333333333e-01
-1.666666666666667e-01  1.666666666666665e-01  3.333333333333333e-01
-1.666666666666667e-01  1.666666666666665e-01  3.333333333333333e-01
-1.666666666666667e-01  1.666666666666665e-01  3.333333333333333e-01
-1.666666666666667e-01  1.666666666666665e-01  3.333333333333333e-01
-1.666666666666667e-01  1.666666666666665e-01  3.333333333333333e-01
-1.666666666666667e-01  1.666666666666665e-01  3.333333333333333e-01
-1.666666666666667e-01  1.666666666666665e-01  3.333333333333333e-01
-1.666666666666667e-01  1.666666666666665e-01  3.333333333333333e-01
-1.666666666666667e-01  1.666666666666665e-01  3.333333333333333e-01
-1.666666666666667e-01  1.666666666666665e-01  3.333333333333333e-01
-1.666666666666667e-01  1.666666666666665e-01  3.333333333333333e-01
-1.666666666666667e-01  1.666666666666665e-01  3.333333333333333e-01
-1.666666666666667e-01  1.666666666666665e-01  3.333333333333333e-01
-1.666666666666667e-01  1.666666666666665e-01  3.333333333333333e-01
-1.666666666666667e-01  1.666666666666665e-01  3.333333333333333e-01
-1.666666666666667e-01  1.666666666666665e-01  3.333333333333333e-01
-1.666666666666667e-01  1.666666666666665e-01  3.333333333333333e-01
-1.666666666666667e-01  1.666666666666665e-01  3.333333333333333e-01
-1.666666666666667e-01  1.666666666666665e-01  3.333333333333333e-01
-1.666666666666667e-01  1.666666666666665e-01  3.333333333333333e-01
-1.666666666666667e-01  1.666666666666665e-01  3.333333333333333e-01
-1.666666666666667e-01  1.666666666666665e-01  3.333333333333333e-01
-1.666666666666667e-01  1.666666666666665e-01  3.333333333333333e-01
-1.666666666666667e-01  1.666666666666665e-01  3.333333333333333e-01
-1.666666666666667e-01  1.666666666666665e-01  3.333333333333333e-01
-1.666666666666667e-01  1.666666666666665e-01  3.333333333333333e-01
-1.666666666666667e-01  1.666666666666665e-01  3.333333333333333e-01
-1.666666666666667e-01  1.666666666666665e-01  3.333333333333333e-01
-1.666666666666667e-01  1.666666666666665e-01  3.333333333333333e-01
-1.666666666666667e-01  1.666666666666665e-01  3.333333333333333e-01
-1.666666666666667e-01  1.666666666666665e-01  3.333333333333333e-01
-1.666666666666667e-01  1.666666666666665e-01  3.333333333333333e-01
-1.666666666666667e-01  1.666666666666665e-01  3.333333333333333e-01
-1.666666666666667e-01  1.666666666666665e-01  3.333333333333333e-01
-1.666666666666667e-01  1.666666666666665e-01  3.333333333333333e-01
-1.666666666666667e-01  1.666666666666665e-01  3.333333333333333e-01
-1.666666666666667e-01  1.666666666666665e-01  3.333333333333333e-01
-1.666666666666667e-01  1.666666666666665e-01  3.333333333333333e-01
-1.666666666666667e-01  1.666666666666665e-01  3.333333333333333e-01
-1.666666666666667e-01  1.666666666666665e-01  3.333333333333333e-01
-1.666666666666667e-01  1.666666666666665e-01  3.333333333333333e-01
-1.666666666666667e-01  1.666666666666665e-01  3.333333333333333e-01
-1.666666666666667e-01  1.666666666666665e-01  3.333333333333333e-01
-1.666666666666667e-01  1.666666666666665e-01  3.333333333333333e-01
-1.666666666666667e-01  1.666666666666665e-01  3.333333333333333e-01
-1.666666666666667e-01  1.666666666666665e-01  3.333333333333333e-01
-1.666666666666667e-01  1.666666666666665e-01  3.333333333333333e-01
-1.666666666666667e-01  1.666666666666665e-01  3.333333333333333e-01
-1.666666666666667e-01  1.666666666666665e-01  3.333333333333333e-01
-1.666666666666667e-01  1.666666666666665e-01  3.333333333333333e-01
-1.666666666666667e-01  1.666666666666665e-01  3.333333333333333e-01
-1.666666666666667e-01  1.666666666666665e-01  3.333333333333333e-01
-1.666666666666667e-01  1.666666666666665e-01  3.333333333333333e-01
-1.666666666666667e-01  1.666666666666665e-01  3.333333333333333e-01
-1.666666666666667e-01  1.666666666666665e-01  3.333333333333333e-01
-1.666666666666667e-01  1.666666666666665e-01  3.333333333333333e-01
-1.666666666666667e-01  1.666666666666665e-01  3.333333333333333e-01
-1.666666666666667e-01  1.666666666666665e-01  3.333333333333333e-01
-1.666666666666667e-01  1.666666666666665e-01  3.333333333333333e-01
-1.666666666666667e-01  1.666666666666665e-01  3.333333333333333e-01
-1.666666666666667e-01  1.666666666666665e-01  3.333333333333333e-01
-1.666666666666667e-01  1.666666666666665e-01  3.333333333333333e-01
-1.666666666666667e-01  1.666666666666665e-01  3.333333333333333e-01
-1.666666666666667e-01  1.666666666666665e-01  3.333333333333333e-01
-1.666666666666667e-01  1.666666666666665e-01  3.333333333333333e-01
-1.666666666666667e-01  1.666666666666665e-01  3.333333333333333e-01
-1.666666666666667e-01  1.666666666666665e-01  3.333333333333333e-01
-1.666666666666667e-01  1.666666666666665e-01  3.333333333333333e-01
-1.666666666666667e-01  1.666666666666665e-01  3.333333333333333e-01
-1.666666666666667e-01  1.666666666666665e-01  3.333333333333333e-01
-1.666666666666667e-01  1.666666666666665e-01  3.333333333333333e-01
-1.666666666666667e-01  1.666666666666665e-01  3.333333333333333e-01
-1.666666666666667e-01  1.666666666666665e-01  3.333333333333333e-01
-1.666666666666667e-01  1.666666666666665e-01  3.333333333333333e-01
-1.666666666666667e-01  1.666666666666665e-01  3.333333333333333e-01
-1.666666666666667e-01  1.666666666666665e-01  3.333333333333333e-01
-1.666666666666667e-01  1.666666666666665e-01  3.333333333333333e-01
-1.666666666666667e-01  1.666666666666665e-01  3.333333333333333e-01
-1.666666666666667e-01  1.666666666666665e-01  3.333333333333333e-01
-1.666666666666667e-01  1.666666666666665e-01  3.333333333333333e-01
-1.666666666666667e-01  1.666666666666665e-01  3.333333333333333e-01
-1.666666666666667e-01  1.666666666666665e-01  3.333333333333333e-01
-1.666666666666667e-01  1.666666666666665e-01  3.333333333333333e-01
-1.666666666666667e-01  1.666666666666665e-01  3.333333333333333e-01
-1.666666666666667e-01  1.666666666666665e-01  3.333333333333333e-01
-1.666666666666667e-01  1.666666666666665e-01  3.333333333333333e-01
-1.666666666666667e-01  1.666666666666665e-01  3.333333333333333e-01
-1.666666666666667e-01  1.666666666666665e-01  3.333333333333333e-01
-1.666666666666667e-01  1.666666666666665e-01  3.333333333333333e-01
-1.666666666666667e-01  1.666666666666665e-01  3.333333333333333e-01
-1.666666666666667e-01  1.666666666666665e-01  3.333333333333333e-01
-1.666666666666667e-01  1.666666666666665e-01  3.333333333333333e-01
-1.666666666666667e-01  1.666666666666665e-01  3.333333333333333e-01
-1.666666666666667e-01  1.666666666666665e-01  3.333333333333333e-01
-1.666666666666667e-01  1.666666666666665e-01  3.333333333333333e-01
-1.666666666666667e-01  1.666666666666665e-01  3.333333333333333e-01
-1.666666666666667e-01  1.666666666666665e-01  3.333333333333333e-01
-1.666666666666667e-01  1.666666666666665e-01  3.333333333333333e-01
-1.666666666666667e-01  1.666666666666665e-01  3.333333333333333e-01
-1.666666666666667e-01  1.666666666666665e-01  3.333333333333333e-01
-1.666666666666667e-01  1.666666666666665e-01  3.333333333333333e-01
-1.666666666666667e-01  1.666666666666665e-01  3.333333333333333e-01
-1.666666666666667e-01  1.666666666666665e-01  3.333333333333333e-01
-1.666666666666667e-01  1.666666666666665e-01  3.333333333333333e-01
-1.666666666666667e-01  1.666666666666665e-01  3.333333333333333e-01
-1.666666666666667e-01  1.666666666666665e-01  3.333333333333333e-01
-1.666666666666667e-01  1.666666666666665e-01  3.333333333333333e-01
-1.666666666666667e-01  1.666666666666665e-01  3.333333333333333e-01
-1.666666666666667e-01  1.666666666666665e-01  3.333333333333333e-01
-1.666666666666667e-01  1.666666666666665e-01  3.333333333333333e-01
-1.666666666666667e-01  1.666666666666665e-01  3.333333333333333e-01
-1.666666666666667e-01  1.666666666666665e-01  3.333333333333333e-01
-1.666666666666667e-01  1.666666666666665e-01  3.333333333333333e-01
-1.666666666666667e-01  1.666666666666665e-01  3.333333333333333e-01
-1.666666666666667e-01  1.666666666666665e-01  3.333333333333333e-01
-1.666666666666667e-01  1.666666666666665e-01  3.333333333333333e-01
-1.666666666666667e-01  1.666666666666665e-01  3.333333333333333e-01
-1.666666666666667e-01  1.666666666666665e-01  3.333333333333333e-01
-1.666666666666667e-01  1.666666666666665e-01  3.333333333333333e-01
-1.666666666666667e-01  1.666666666666665e-01  3.333333333333333e-01
-1.666666666666667e-01  1.666666666666665e-01  3.333333333333333e-01
-1.666666666666667e-01  1.666666666666665e-01  3.333333333333333e-01
-1.666666666666667e-01  1.666666666666665e-01  3.333333333333333e-01
-1.666666666666667e-01  1.666666666666665e-01  3.333333333333333e-01
-1.666666666666667e-01  1.666666666666665e-01  3.333333333333333e-01
-1.666666666666667e-01  1.666666666666665e-01  3.333333333333333e-01
-1.666666666666667e-01  1.666666666666665e-01  3.333333333333333e-01
-1.666666666666667e-01  1.666666666666665e-01  3.333333333333333e-01
-1.666666666666667e-01  1.666666666666665e-01  3.333333333333333e-01
-1.666666666666667e-01  1.666666666666665e-01  3.333333333333333e-01
-1.666666666666667e-01  1.666666666666665e-01  3.333333333333333e-01
-1.666666666666667e-01  1.666666666666665e-01  3.333333333333333e-01
-1.666666666666667e-01  1.666666666666665e-01  3.333333333333333e-01
-1.666666666666667e-01  1.666666666666665e-01  3.333333333333333e-01
-1.666666666666667e-01  1.666666666666665e-01  3.333333333333333e-01
-1.666666666666667e-01  1.666666666666665e-01  3.333333333333333e-01
-1.666666666666667e-01  1.666666666666665e-01  3.333333333333333e-01
-1.666666666666667e-01  1.666666666666665e-01  3.333333333333333e-01
-1.666666666666667e-01  1.666666666666665e-01  3.333333333333333e-01
-1.666666666666667e-01  1.666666666666665e-01  3.333333333333333e-01
-1.666666666666667e-01  1.666666666666665e-01  3.333333333333333e-01
-1.666666666666667e-01  1.666666666666665e-01  3.333333333333333e-01
-1.666666666666667e-01  1.666666666666665e-01  3.333333333333333e-01
-1.666666666666667e-01  1.666666666666665e-01  3.333333333333333e-01
-1.666666666666667e-01  1.666666666666665e-01  3.333333333333333e-01
-1.666666666666667e-01  1.666666666666665e-01  3.333333333333333e-01
-1.666666666666667e-01  1.666666666666665e-01  3.333333333333333e-01
-1.666666666666667e-01  1.666666666666665e-01  3.333333333333333e-01
-1.666666666666667e-01  1.666666666666665e-01  3.333333333333333e-01
-1.666666666666667e-01  1.666666666666665e-01  3.333333333333333e-01
-1.666666666666667e-01  1.666666666666665e-01  3.333333333333333e-01
-1.666666666666667e-01  1.666666666666665e-01  3.333333333333333e-01
-1.666666666666667e-01  1.666666666666665e-01  3.333333333333333e-01
-1.666666666666667e-01  1.666666666666665e-01  3.333333333333333e-01
-1.666666666666667e-01  1.666666666666665e-01  3.333333333333333e-01
-1.666666666666667e-01  1.666666666666665e-01  3.333333333333333e-01
-1.666666666666667e-01  1.666666666666665e-01  3.333333333333333e-01
-1.666666666666667e-01  1.666666666666665e-01  3.333333333333333e-01
-1.666666666666667e-01  1.666666666666665e-01  3.333333333333333e-01
-1.666666666666667e-01  1.666666666666665e-01  3.333333333333333e-01
-1.666666666666667e-01  1.666666666666665e-01  3.333333333333333e-01
-1.666666666666667e-01  1.666666666666665e-01  3.333333333333333e-01
-1.666666666666667e-01  1.666666666666665e-01  3.333333333333333e-01
-1.666666666666667e-01  1.666666666666665e-01  3.333333333333333e-01
-1.666666666666667e-01  1.666666666666665e-01  3.333333333333333e-01
-1.666666666666667e-01  1.666666666666665e-01  3.333333333333333e-01
-1.666666666666667e-01  1.666666666666665e-01  3.333333333333333e-01
-1.666666666666667e-01  1.666666666666665e-01  3.333333333333333e-01
-1.666666666666667e-01  1.666666666666665e-01  3.333333333333333e-01
-1.666666666666667e-01  1.666666666666665e-01  3.333333333333333e-01
-1.666666666666667e-01  1.666666666666665e-01  3.333333333333333e-01
-1.666666666666667e-01  1.666666666666665e-01  3.333333333333333e-01
-1.666666666666667e-01  1.666666666666665e-01  3.333333333333333e-01
-1.666666666666667e-01  1.666666666666665e-01  3.333333333333333e-01
-1.666666666666667e-01  1.666666666666665e-01  3.333333333333333e-01
-1.666666666666667e-01  1.666666666666665e-01  3.333333333333333e-01
-1.666666666666667e-01  1.666666666666665e-01  3.333333333333333e-01
-1.666666666666667e-01  1.666666666666665e-01  3.333333333333333e-01
-1.666666666666667e-01  1.666666666666665e-01  3.333333333333333e-01
-1.666666666666667e-01  1.666666666666665e-01  3.333333333333333e-01
-1.666666666666667e-01  1.666666666666665e-01  3.333333333333333e-01
-1.666666666666667e-01  1.666666666666665e-01  3.333333333333333e-01
-1.666666666666667e-01  1.666666666666665e-01  3.333333333333333e-01
-1.666666666666667e-01  1.666666666666665e-01  3.333333333333333e-01
-1.666666666666667e-01  1.666666666666665e-01  3.333333333333333e-01
-1.666666666666667e-01  1.666666666666665e-01  3.333333333333333e-01
-1.666666666666667e-01  1.666666666666665e-01  3.333333333333333e-01
-1.666666666666667e-01  1.666666666666665e-01  3.333333333333333e-01
-1.666666666666667e-01  1.666666666666665e-01  3.333333333333333e-01
-1.666666666666667e-01  1.666666666666665e-01  3.333333333333333e-01
-1.666666666666667e-01  1.666666666666665e-01  3.333333333333333e-01
-1.666666666666667e-01  1.666666666666665e-01  3.333333333333333e-01
-1.666666666666667e-01  1.666666666666665e-01  3.333333333333333e-01
-1.666666666666667e-01  1.666666666666665e-01  3.333333333333333e-01
-1.666666666666667e-01  1.666666666666665e-01  3.333333333333333e-01
-1.666666666666667e-01  1.666666666666665e-01  3.333333333333333e-01
-1.666666666666667e-01  1.666666666666665e-01  3.333333333333333e-01
-1.666666666666667e-01  1.666666666666665e-01  3.333333333333333e-01
-1.666666666666667e-01  1.666666666666665e-01  3.333333333333333e-01
-1.666666666666667e-01  1.666666666666665e-01  3.333333333333333e-01
-1.666666666666667e-01  1.666666666666665e-01  3.333333333333333e-01
-1.666666666666667e-01  1.666666666666665e-01  3.333333333333333e-01
-1.666666666666667e-01  1.666666666666665e-01  3.333333333333333e-01
-1.666666666666667e-01  1.666666666666665e-01  3.333333333333333e-01
-1.666666666666667e-01  1.666666666666665e-01  3.333333333333333e-01
-1.666666666666667e-01  1.666666666666665e-01  3.333333333333333e-01
-1.666666666666667e-01  1.666666666666665e-01  3.333333333333333e-01
-1.666666666666667e-01  1.666666666666665e-01  3.333333333333333e-01
-1.666666666666667e-01  1.666666666666665e-01  3.333333333333333e-01
-1.666666666666667e-01  1.666666666666665e-01  3.333333333333333e-01
-1.666666666666667e-01  1.666666666666665e-01  3.333333333333333e-01
-1.666666666666667e-01  1.666666666666665e-01  3.333333333333333e-01
-1.666666666666667e-01  1.666666666666665e-01  3.333333333333333e-01
-1.666666666666667e-01  1.666666666666665e-01  3.333333333333333e-01
-1.666666666666667e-01  1.666666666666665e-01  3.333333333333333e-01
-1.666666666666667e-01  1.666666666666665e-01  3.333333333333333e-01
-1.666666666666667e-01  1.666666666666665e-01  3.333333333333333e-01
-1.666666666666667e-01  1.666666666666665e-01  3.333333333333333e-01
-1.666666666666667e-01  1.666666666666665e-01  3.333333333333333e-01
-1.666666666666667e-01  1.666666666666665e-01  3.333333333333333e-01
-1.666666666666667e-01  1.666666666666665e-01  3.333333333333333e-01
-1.666666666666667e-01  1.666666666666665e-01  3.333333333333333e-01
-1.666666666666667e-01  1.666666666666665e-01  3.333333333333333e-01
-1.666666666666667e-01  1.666666666666665e-01  3.333333333333333e-01
-1.666666666666667e-01  1.666666666666665e-01  3.333333333333333e-01
-1.666666666666667e-01  1.666666666666665e-01  3.333333333333333e-01
-1.666666666666667e-01  1.666666666666665e-01  3.333333333333333e-01
-1.666666666666667e-01  1.666666666666665e-01  3.333333333333333e-01
-1.666666666666667e-01  1.666666666666665e-01  3.333333333333333e-01
-1.666666666666667e-01  1.666666666666665e-01  3.333333333333333e-01
-1.666666666666667e-01  1.666666666666665e-01  3.333333333333333e-01
-1.666666666666667e-01  1.666666666666665e-01  3.333333333333333e-01
-1.666666666666667e-01  1.666666666666665e-01  3.333333333333333e-01
-1.666666666666667e-01  1.666666666666665e-01  3.333333333333333e-01
-1.666666666666667e-01  1.666666666666665e-01  3.333333333333333e-01
-1.666666666666667e-01  1.666666666666665e-01  3.333333333333333e-01
-1.666666666666667e-01  1.666666666666665e-01  3.333333333333333e-01
-1.666666666666667e-01  1.666666666666665e-01  3.333333333333333e-01
-1.666666666666667e-01  1.666666666666665e-01  3.333333333333333e-01
-1.666666666666667e-01  1.666666666666665e-01  3.333333333333333e-01
-1.666666666666667e-01  1.666666666666665e-01  3.333333333333333e-01
-1.666666666666667e-01  1.666666666666665e-01  3.333333333333333e-01
-1.666666666666667e-01  1.666666666666665e-01  3.333333333333333e-01
-1.666666666666667e-01  1.666666666666665e-01  3.333333333333333e-01
-1.666666666666667e-01  1.666666666666665e-01  3.333333333333333e-01
-1.666666666666667e-01  1.666666666666665e-01  3.333333333333333e-01
-1.666666666666667e-01  1.666666666666665e-01  3.333333333333333e-01
-1.666666666666667e-01  1.666666666666665e-01  3.333333333333333e-01
-1.666666666666667e-01  1.666666666666665e-01  3.333333333333333e-01
-1.666666666666667e-01  1.666666666666665e-01  3.333333333333333e-01
-1.666666666666667e-01  1.666666666666665e-01  3.333333333333333e-01
-1.666666666666667e-01  1.666666666666665e-01  3.333333333333333e-01
-1.666666666666667e-01  1.666666666666665e-01  3.333333333333333e-01
-1.666666666666667e-01  1.666666666666665e-01  3.333333333333333e-01
-1.666666666666667e-01  1.666666666666665e-01  3.333333333333333e-01
-1.666666666666667e-01  1.666666666666665e-01  3.333333333333333e-01
-1.666666666666667e-01  1.666666666666665e-01  3.333333333333333e-01
-1.666666666666667e-01  1.666666666666665e-01  3.333333333333333e-01
-1.666666666666667e-01  1.666666666666665e-01  3.333333333333333e-01
-1.666666666666667e-01  1.666666666666665e-01  3.333333333333333e-01
-1.666666666666667e-01  1.666666666666665e-01  3.333333333333333e-01
-1.666666666666667e-01  1.666666666666665e-01  3.333333333333333e-01
-1.666666666666667e-01  1.666666666666665e-01  3.333333333333333e-01
-1.666666666666667e-01  1.666666666666665e-01  3.333333333333333e-01
-1.666666666666667e-01  1.666666666666665e-01  3.333333333333333e-01
-1.666666666666667e-01  1.666666666666665e-01  3.333333333333333e-01
-1.666666666666667e-01  1.666666666666665e-01  3.333333333333333e-01
-1.666666666666667e-01  1.666666666666665e-01  3.333333333333333e-01
-1.666666666666667e-01  1.666666666666665e-01  3.333333333333333e-01
-1.666666666666667e-01  1.666666666666665e-01  3.333333333333333e-01
-1.666666666666667e-01  1.666666666666665e-01  3.333333333333333e-01
-1.666666666666667e-01  1.666666666666665e-01  3.333333333333333e-01
-1.666666666666667e-01  1.666666666666665e-01  3.333333333333333e-01
-1.666666666666667e-01  1.666666666666665e-01  3.333333333333333e-01
-1.666666666666667e-01  1.666666666666665e-01  3.333333333333333e-01
-1.666666666666667e-01  1.666666666666665e-01  3.333333333333333e-01
-1.666666666666667e-01  1.666666666666665e-01  3.333333333333333e-01
-1.666666666666667e-01  1.666666666666665e-01  3.333333333333333e-01
-1.666666666666667e-01  1.666666666666665e-01  3.333333333333333e-01
-1.666666666666667e-01  1.666666666666665e-01  3.333333333333333e-01
-1.666666666666667e-01  1.666666666666665e-01  3.333333333333333e-01
-1.666666666666667e-01  1.666666666666665e-01  3.333333333333333e-01
-1.666666666666667e-01  1.666666666666665e-01  3.333333333333333e-01
-1.666666666666667e-01  1.666666666666665e-01  3.333333333333333e-01
-1.666666666666667e-01  1.666666666666665e-01  3.333333333333333e-01
-1.666666666666667e-01  1.666666666666665e-01  3.333333333333333e-01
-1.666666666666667e-01  1.666666666666665e-01  3.333333333333333e-01
-1.666666666666667e-01  1.666666666666665e-01  3.333333333333333e-01
-1.666666666666667e-01  1.666666666666665e-01  3.333333333333333e-01
-1.666666666666667e-01  1.666666666666665e-01  3.333333333333333e-01
-1.666666666666667e-01  1.666666666666665e-01  3.333333333333333e-01
-1.666666666666667e-01  1.666666666666665e-01  3.333333333333333e-01
-1.666666666666667e-01  1.666666666666665e-01  3.333333333333333e-01
-1.666666666666667e-01  1.666666666666665e-01  3.333333333333333e-01
-1.666666666666667e-01  1.666666666666665e-01  3.333333333333333e-01
-1.666666666666667e-01  1.666666666666665e-01  3.333333333333333e-01
-1.666666666666667e-01  1.666666666666665e-01  3.333333333333333e-01
-1.666666666666667e-01  1.666666666666665e-01  3.333333333333333e-01
-1.666666666666667e-01  1.666666666666665e-01  3.333333333333333e-01
-1.666666666666667e-01  1.666666666666665e-01  3.333333333333333e-01
-1.666666666666667e-01  1.666666666666665e-01  3.333333333333333e-01
-1.666666666666667e-01  1.666666666666665e-01  3.333333333333333e-01
-1.666666666666667e-01  1.666666666666665e-01  3.333333333333333e-01
-1.666666666666667e-01  1.666666666666665e-01  3.333333333333333e-01
-1.666666666666667e-01  1.666666666666665e-01  3.333333333333333e-01
-1.666666666666667e-01  1.666666666666665e-01  3.333333333333333e-01
-1.666666666666667e-01  1.666666666666665e-01  3.333333333333333e-01
-1.666666666666667e-01  1.666666666666665e-01  3.333333333333333e-01
-1.666666666666667e-01  1.666666666666665e-01  3.333333333333333e-01
-1.666666666666667e-01  1.666666666666665e-01  3.333333333333333e-01
-1.666666666666667e-01  1.666666666666665e-01  3.333333333333333e-01
-1.666666666666667e-01  1.666666666666665e-01  3.333333333333333e-01
-1.666666666666667e-01  1.666666666666665e-01  3.333333333333333e-01
-1.666666666666667e-01  1.666666666666665e-01  3.333333333333333e-01
-1.666666666666667e-01  1.666666666666665e-01  3.333333333333333e-01
-1.666666666666667e-01  1.666666666666665e-01  3.333333333333333e-01
-1.666666666666667e-01  1.666666666666665e-01  3.333333333333333e-01
-1.666666666666667e-01  1.666666666666665e-01  3.333333333333333e-01
-1.666666666666667e-01  1.666666666666665e-01  3.333333333333333e-01
-1.666666666666667e-01  1.666666666666665e-01  3.333333333333333e-01
-1.666666666666667e-01  1.666666666666665e-01  3.333333333333333e-01
-1.666666666666667e-01  1.666666666666665e-01  3.333333333333333e-01
-1.666666666666667e-01  1.666666666666665e-01  3.333333333333333e-01
-1.666666666666667e-01  1.666666666666665e-01  3.333333333333333e-01
-1.666666666666667e-01  1.666666666666665e-01  3.333333333333333e-01
-1.666666666666667e-01  1.666666666666665e-01  3.333333333333333e-01
-1.666666666666667e-01  1.666666666666665e-01  3.333333333333333e-01
-1.666666666666667e-01  1.666666666666665e-01  3.333333333333333e-01
-1.666666666666667e-01  1.666666666666665e-01  3.333333333333333e-01
-1.666666666666667e-01  1.666666666666665e-01  3.333333333333333e-01
-1.666666666666667e-01  1.666666666666665e-01  3.333333333333333e-01
-1.666666666666667e-01  1.666666666666665e-01  3.333333333333333e-01
-1.666666666666667e-01  1.666666666666665e-01  3.333333333333333e-01
-1.666666666666667e-01  1.666666666666665e-01  3.333333333333333e-01
-1.666666666666667e-01  1.666666666666665e-01  3.333333333333333e-01
-1.666666666666667e-01  1.666666666666665e-01  3.333333333333333e-01
-1.666666666666667e-01  1.666666666666665e-01  3.333333333333333e-01
-1.666666666666667e-01  1.666666666666665e-01  3.333333333333333e-01
-1.666666666666667e-01  1.666666666666665e-01  3.333333333333333e-01
-1.666666666666667e-01  1.666666666666665e-01  3.333333333333333e-01
-1.666666666666667e-01  1.666666666666665e-01  3.333333333333333e-01
-1.666666666666667e-01  1.666666666666665e-01  3.333333333333333e-01
-1.666666666666667e-01  1.666666666666665e-01  3.333333333333333e-01
-1.666666666666667e-01  1.666666666666665e-01  3.333333333333333e-01
-1.666666666666667e-01  1.666666666666665e-01  3.333333333333333e-01
-1.666666666666667e-01  1.666666666666665e-01  3.333333333333333e-01
-1.666666666666667e-01  1.666666666666665e-01  3.333333333333333e-01
-1.666666666666667e-01  1.666666666666665e-01  3.333333333333333e-01
-1.666666666666667e-01  1.666666666666665e-01  3.333333333333333e-01
-1.666666666666667e-01  1.666666666666665e-01  3.333333333333333e-01
-1.666666666666667e-01  1.666666666666665e-01  3.333333333333333e-01
-1.666666666666667e-01  1.666666666666665e-01  3.333333333333333e-01
-1.666666666666667e-01  1.666666666666665e-01  3.333333333333333e-01
-1.666666666666667e-01  1.666666666666665e-01  3.333333333333333e-01
-1.666666666666667e-01  1.666666666666665e-01  3.333333333333333e-01
-1.666666666666667e-01  1.666666666666665e-01  3.333333333333333e-01
-1.666666666666667e-01  1.666666666666665e-01  3.333333333333333e-01
-1.666666666666667e-01  1.666666666666665e-01  3.333333333333333e-01
-1.666666666666667e-01  1.666666666666665e-01  3.333333333333333e-01
-1.666666666666667e-01  1.666666666666665e-01  3.333333333333333e-01
-1.666666666666667e-01  1.666666666666665e-01  3.333333333333333e-01
-1.666666666666667e-01  1.666666666666665e-01  3.333333333333333e-01
-1.666666666666667e-01  1.666666666666665e-01  3.333333333333333e-01
-1.666666666666667e-01  1.666666666666665e-01  3.333333333333333e-01
-1.666666666666667e-01  1.666666666666665e-01  3.333333333333333e-01
-1.666666666666667e-01  1.666666666666665e-01  3.333333333333333e-01
-1.666666666666667e-01  1.666666666666665e-01  3.333333333333333e-01
-1.666666666666667e-01  1.666666666666665e-01  3.333333333333333e-01
-1.666666666666667e-01  1.666666666666665e-01  3.333333333333333e-01
-1.666666666666667e-01  1.666666666666665e-01  3.333333333333333e-01
-1.666666666666667e-01  1.666666666666665e-01  3.333333333333333e-01
-1.666666666666667e-01  1.666666666666665e-01  3.333333333333333e-01
-1.666666666666667e-01  1.666666666666665e-01  3.333333333333333e-01
-1.666666666666667e-01  1.666666666666665e-01  3.333333333333333e-01
-1.666666666666667e-01  1.666666666666665e-01  3.333333333333333e-01
-1.666666666666667e-01  1.666666666666665e-01  3.333333333333333e-01
-1.666666666666667e-01  1.666666666666665e-01  3.333333333333333e-01
-1.666666666666667e-01  1.666666666666665e-01  3.333333333333333e-01
-1.666666666666667e-01  1.666666666666665e-01  3.333333333333333e-01
-1.666666666666667e-01  1.666666666666665e-01  3.333333333333333e-01
-1.666666666666667e-01  1.666666666666665e-01  3.333333333333333e-01
-1.666666666666667e-01  1.666666666666665e-01  3.333333333333333e-01
-1.666666666666667e-01  1.666666666666665e-01  3.333333333333333e-01
-1.666666666666667e-01  1.666666666666665e-01  3.333333333333333e-01
-1.666666666666667e-01  1.666666666666665e-01  3.333333333333333e-01
-1.666666666666667e-01  1.666666666666665e-01  3.333333333333333e-01
-1.666666666666667e-01  1.666666666666665e-01  3.333333333333333e-01
-1.666666666666667e-01  1.666666666666665e-01  3.333333333333333e-01
-1.666666666666667e-01  1.666666666666665e-01  3.333333333333333e-01
-1.666666666666667e-01  1.666666666666665e-01  3.333333333333333e-01
-1.666666666666667e-01  1.666666666666665e-01  3.333333333333333e-01
-1.666666666666667e-01  1.666666666666665e-01  3.333333333333333e-01
-1.666666666666667e-01  1.666666666666665e-01  3.333333333333333e-01
-1.666666666666667e-01  1.666666666666665e-01  3.333333333333333e-01
-1.666666666666667e-01  1.666666666666665e-01  3.333333333333333e-01
-1.666666666666667e-01  1.666666666666665e-01  3.333333333333333e-01
-1.666666666666667e-01  1.666666666666665e-01  3.333333333333333e-01
-1.666666666666667e-01  1.666666666666665e-01  3.333333333333333e-01
-1.666666666666667e-01  1.666666666666665e-01  3.333333333333333e-01
-1.666666666666667e-01  1.666666666666665e-01  3.333333333333333e-01
-1.666666666666667e-01  1.666666666666665e-01  3.333333333333333e-01
-1.666666666666667e-01  1.666666666666665e-01  3.333333333333333e-01
-1.666666666666667e-01  1.666666666666665e-01  3.333333333333333e-01
-1.666666666666667e-01  1.666666666666665e-01  3.333333333333333e-01
-1.666666666666667e-01  1.666666666666665e-01  3.333333333333333e-01
-1.666666666666667e-01  1.666666666666665e-01  3.333333333333333e-01
-1.666666666666667e-01  1.666666666666665e-01  3.333333333333333e-01
-1.666666666666667e-01  1.666666666666665e-01  3.333333333333333e-01
-1.666666666666667e-01  1.666666666666665e-01  3.333333333333333e-01
-1.666666666666667e-01  1.666666666666665e-01  3.333333333333333e-01
-1.666666666666667e-01  1.666666666666665e-01  3.333333333333333e-01
-1.666666666666667e-01  1.666666666666665e-01  3.333333333333333e-01
-1.666666666666667e-01  1.666666666666665e-01  3.333333333333333e-01
-1.666666666666667e-01  1.666666666666665e-01  3.333333333333333e-01
-1.666666666666667e-01  1.666666666666665e-01  3.333333333333333e-01
-1.666666666666667e-01  1.666666666666665e-01  3.333333333333333e-01
-1.666666666666667e-01  1.666666666666665e-01  3.333333333333333e-01
-1.666666666666667e-01  1.666666666666665e-01  3.333333333333333e-01
-1.666666666666667e-01  1.666666666666665e-01  3.333333333333333e-01
-1.666666666666667e-01  1.666666666666665e-01  3.333333333333333e-01
-1.666666666666667e-01  1.666666666666665e-01  3.333333333333333e-01
-1.666666666666667e-01  1.666666666666665e-01  3.333333333333333e-01
-1.666666666666667e-01  1.666666666666665e-01  3.333333333333333e-01
-1.666666666666667e-01  1.666666666666665e-01  3.333333333333333e-01
-1.666666666666667e-01  1.666666666666665e-01  3.333333333333333e-01
-1.666666666666667e-01  1.666666666666665e-01  3.333333333333333e-01
-1.666666666666667e-01  1.666666666666665e-01  3.333333333333333e-01
-1.666666666666667e-01  1.666666666666665e-01  3.333333333333333e-01
-1.666666666666667e-01  1.666666666666665e-01  3.333333333333333e-01
-1.666666666666667e-01  1.666666666666665e-01  3.333333333333333e-01
-1.666666666666667e-01  1.666666666666665e-01  3.333333333333333e-01
-1.666666666666667e-01  1.666666666666665e-01  3.333333333333333e-01
-1.666666666666667e-01  1.666666666666665e-01  3.333333333333333e-01
-1.666666666666667e-01  1.666666666666665e-01  3.333333333333333e-01
-1.666666666666667e-01  1.666666666666665e-01  3.333333333333333e-01
-1.666666666666667e-01  1.666666666666665e-01  3.333333333333333e-01
-1.666666666666667e-01  1.666666666666665e-01  3.333333333333333e-01
-1.666666666666667e-01  1.666666666666665e-01  3.333333333333333e-01
-1.666666666666667e-01  1.666666666666665e-01  3.333333333333333e-01
-1.666666666666667e-01  1.666666666666665e-01  3.333333333333333e-01
-1.666666666666667e-01  1.666666666666665e-01  3.333333333333333e-01
-1.666666666666667e-01  1.666666666666665e-01  3.333333333333333e-01
-1.666666666666667e-01  1.666666666666665e-01  3.333333333333333e-01
-1.666666666666667e-01  1.666666666666665e-01  3.333333333333333e-01
-1.666666666666667e-01  1.666666666666665e-01  3.333333333333333e-01
-1.666666666666667e-01  1.666666666666665e-01  3.333333333333333e-01
-1.666666666666667e-01  1.666666666666665e-01  3.333333333333333e-01
-1.666666666666667e-01  1.666666666666665e-01  3.333333333333333e-01
-1.666666666666667e-01  1.666666666666665e-01  3.333333333333333e-01
-1.666666666666667e-01  1.666666666666665e-01  3.333333333333333e-01
-1.666666666666667e-01  1.666666666666665e-01  3.333333333333333e-01
-1.666666666666667e-01  1.666666666666665e-01  3.333333333333333e-01
-1.666666666666667e-01  1.666666666666665e-01  3.333333333333333e-01
-1.666666666666667e-01  1.666666666666665e-01  3.333333333333333e-01
-1.666666666666667e-01  1.666666666666665e-01  3.333333333333333e-01
-1.666666666666667e-01  1.666666666666665e-01  3.333333333333333e-01
-1.666666666666667e-01  1.666666666666665e-01  3.333333333333333e-01
-1.666666666666667e-01  1.666666666666665e-01  3.333333333333333e-01
-1.666666666666667e-01  1.666666666666665e-01  3.333333333333333e-01
-1.666666666666667e-01  1.666666666666665e-01  3.333333333333333e-01
-1.666666666666667e-01  1.666666666666665e-01  3.333333333333333e-01
-1.666666666666667e-01  1.666666666666665e-01  3.333333333333333e-01
-1.666666666666667e-01  1.666666666666665e-01  3.333333333333333e-01
-1.666666666666667e-01  1.666666666666665e-01  3.333333333333333e-01
-1.666666666666667e-01  1.666666666666665e-01  3.333333333333333e-01
-1.666666666666667e-01  1.666666666666665e-01  3.333333333333333e-01
-1.666666666666667e-01  1.666666666666665e-01  3.333333333333333e-01
-1.666666666666667e-01  1.666666666666665e-01  3.333333333333333e-01
-1.666666666666667e-01  1.666666666666665e-01  3.333333333333333e-01
-1.666666666666667e-01  1.666666666666665e-01  3.333333333333333e-01
-1.666666666666667e-01  1.666666666666665e-01  3.333333333333333e-01
-1.666666666666667e-01  1.666666666666665e-01  3.333333333333333e-01
-1.666666666666667e-01  1.666666666666665e-01  3.333333333333333e-01
-1.666666666666667e-01  1.666666666666665e-01  3.333333333333333e-01
-1.666666666666667e-01  1.666666666666665e-01  3.333333333333333e-01
-1.666666666666667e-01  1.666666666666665e-01  3.333333333333333e-01
-1.666666666666667e-01  1.666666666666665e-01  3.333333333333333e-01
-1.666666666666667e-01  1.666666666666665e-01  3.333333333333333e-01
-1.666666666666667e-01  1.666666666666665e-01  3.333333333333333e-01
-1.666666666666667e-01  1.666666666666665e-01  3.333333333333333e-01
-1.666666666666667e-01  1.666666666666665e-01  3.333333333333333e-01
-1.666666666666667e-01  1.666666666666665e-01  3.333333333333333e-01
-1.666666666666667e-01  1.666666666666665e-01  3.333333333333333e-01
-1.666666666666667e-01  1.666666666666665e-01  3.333333333333333e-01
-1.666666666666667e-01  1.666666666666665e-01  3.333333333333333e-01
-1.666666666666667e-01  1.666666666666665e-01  3.333333333333333e-01
-1.666666666666667e-01  1.666666666666665e-01  3.333333333333333e-01
-1.666666666666667e-01  1.666666666666665e-01  3.333333333333333e-01
-1.666666666666667e-01  1.666666666666665e-01  3.333333333333333e-01
-1.666666666666667e-01  1.666666666666665e-01  3.333333333333333e-01
-1.666666666666667e-01  1.666666666666665e-01  3.333333333333333e-01
-1.666666666666667e-01  1.666666666666665e-01  3.333333333333333e-01
-1.666666666666667e-01  1.666666666666665e-01  3.333333333333333e-01
-1.666666666666667e-01  1.666666666666665e-01  3.333333333333333e-01
-1.666666666666667e-01  1.666666666666665e-01  3.333333333333333e-01
-1.666666666666667e-01  1.666666666666665e-01  3.333333333333333e-01
-1.666666666666667e-01  1.666666666666665e-01  3.333333333333333e-01
-1.666666666666667e-01  1.666666666666665e-01  3.333333333333333e-01
-1.666666666666667e-01  1.666666666666665e-01  3.333333333333333e-01
-1.666666666666667e-01  1.666666666666665e-01  3.333333333333333e-01
-1.666666666666667e-01  1.666666666666665e-01  3.333333333333333e-01
-1.666666666666667e-01  1.666666666666665e-01  3.333333333333333e-01
-1.666666666666667e-01  1.666666666666665e-01  3.333333333333333e-01
-1.666666666666667e-01  1.666666666666665e-01  3.333333333333333e-01
-1.666666666666667e-01  1.666666666666665e-01  3.333333333333333e-01
-1.666666666666667e-01  1.666666666666665e-01  3.333333333333333e-01
-1.666666666666667e-01  1.666666666666665e-01  3.333333333333333e-01
-1.666666666666667e-01  1.666666666666665e-01  3.333333333333333e-01
-1.666666666666667e-01  1.666666666666665e-01  3.333333333333333e-01
-1.666666666666667e-01  1.666666666666665e-01  3.333333333333333e-01
-1.666666666666667e-01  1.666666666666665e-01  3.333333333333333e-01
-1.666666666666667e-01  1.666666666666665e-01  3.333333333333333e-01
-1.666666666666667e-01  1.666666666666665e-01  3.333333333333333e-01
-1.666666666666667e-01  1.666666666666665e-01  3.333333333333333e-01
-1.666666666666667e-01  1.666666666666665e-01  3.333333333333333e-01
-1.666666666666667e-01  1.666666666666665e-01  3.333333333333333e-01
-1.666666666666667e-01  1.666666666666665e-01  3.333333333333333e-01
-1.666666666666667e-01  1.666666666666665e-01  3.333333333333333e-01
-1.666666666666667e-01  1.666666666666665e-01  3.333333333333333e-01
-1.666666666666667e-01  1.666666666666665e-01  3.333333333333333e-01
-1.666666666666667e-01  1.666666666666665e-01  3.333333333333333e-01
-1.666666666666667e-01  1.666666666666665e-01  3.333333333333333e-01
-1.666666666666667e-01  1.666666666666665e-01  3.333333333333333e-01
-1.666666666666667e-01  1.666666666666665e-01  3.333333333333333e-01
-1.666666666666667e-01  1.666666666666665e-01  3.333333333333333e-01
-1.666666666666667e-01  1.666666666666665e-01  3.333333333333333e-01
-1.666666666666667e-01  1.666666666666665e-01  3.333333333333333e-01
-1.666666666666667e-01  1.666666666666665e-01  3.333333333333333e-01
-1.666666666666667e-01  1.666666666666665e-01  3.333333333333333e-01
-1.666666666666667e-01  1.666666666666665e-01  3.333333333333333e-01
-1.666666666666667e-01  1.666666666666665e-01  3.333333333333333e-01
-1.666666666666667e-01  1.666666666666665e-01  3.333333333333333e-01
-1.666666666666667e-01  1.666666666666665e-01  3.333333333333333e-01
-1.666666666666667e-01  1.666666666666665e-01  3.333333333333333e-01
-1.666666666666667e-01  1.666666666666665e-01  3.333333333333333e-01
-1.666666666666667e-01  1.666666666666665e-01  3.333333333333333e-01
-1.666666666666667e-01  1.666666666666665e-01  3.333333333333333e-01
-1.666666666666667e-01  1.666666666666665e-01  3.333333333333333e-01
-1.666666666666667e-01  1.666666666666665e-01  3.333333333333333e-01
-1.666666666666667e-01  1.666666666666665e-01  3.333333333333333e-01
-1.666666666666667e-01  1.666666666666665e-01  3.333333333333333e-01
-1.666666666666667e-01  1.666666666666665e-01  3.333333333333333e-01
-1.666666666666667e-01  1.666666666666665e-01  3.333333333333333e-01
-1.666666666666667e-01  1.666666666666665e-01  3.333333333333333e-01
-1.666666666666667e-01  1.666666666666665e-01  3.333333333333333e-01
-1.666666666666667e-01  1.666666666666665e-01  3.333333333333333e-01
-1.666666666666667e-01  1.666666666666665e-01  3.333333333333333e-01
-1.666666666666667e-01  1.666666666666665e-01  3.333333333333333e-01
-1.666666666666667e-01  1.666666666666665e-01  3.333333333333333e-01
-1.666666666666667e-01  1.666666666666665e-01  3.333333333333333e-01
-1.666666666666667e-01  1.666666666666665e-01  3.333333333333333e-01
-1.666666666666667e-01  1.666666666666665e-01  3.333333333333333e-01
-1.666666666666667e-01  1.666666666666665e-01  3.333333333333333e-01
-1.666666666666667e-01  1.666666666666665e-01  3.333333333333333e-01
-1.666666666666667e-01  1.666666666666665e-01  3.333333333333333e-01
-1.666666666666667e-01  1.666666666666665e-01  3.333333333333333e-01
-1.666666666666667e-01  1.666666666666665e-01  3.333333333333333e-01
-1.666666666666667e-01  1.666666666666665e-01  3.333333333333333e-01
-1.666666666666667e-01  1.666666666666665e-01  3.333333333333333e-01
-1.666666666666667e-01  1.666666666666665e-01  3.333333333333333e-01
-1.666666666666667e-01  1.666666666666665e-01  3.333333333333333e-01
-1.666666666666667e-01  1.666666666666665e-01  3.333333333333333e-01
-1.666666666666667e-01  1.666666666666665e-01  3.333333333333333e-01
-1.666666666666667e-01  1.666666666666665e-01  3.333333333333333e-01
-1.666666666666667e-01  1.666666666666665e-01  3.333333333333333e-01
-1.666666666666667e-01  1.666666666666665e-01  3.333333333333333e-01
-1.666666666666667e-01  1.666666666666665e-01  3.333333333333333e-01
-1.666666666666667e-01  1.666666666666665e-01  3.333333333333333e-01
-1.666666666666667e-01  1.666666666666665e-01  3.333333333333333e-01
-1.666666666666667e-01  1.666666666666665e-01  3.333333333333333e-01
-1.666666666666667e-01  1.666666666666665e-01  3.333333333333333e-01
-1.666666666666667e-01  1.666666666666665e-01  3.333333333333333e-01
-1.666666666666667e-01  1.666666666666665e-01  3.333333333333333e-01
-1.666666666666667e-01  1.666666666666665e-01  3.333333333333333e-01
-1.666666666666667e-01  1.666666666666665e-01  3.333333333333333e-01
-1.666666666666667e-01  1.666666666666665e-01  3.333333333333333e-01
-1.666666666666667e-01  1.666666666666665e-01  3.333333333333333e-01
-1.666666666666667e-01  1.666666666666665e-01  3.333333333333333e-01
-1.666666666666667e-01  1.666666666666665e-01  3.333333333333333e-01
-1.666666666666667e-01  1.666666666666665e-01  3.333333333333333e-01
-1.666666666666667e-01  1.666666666666665e-01  3.333333333333333e-01
-1.666666666666667e-01  1.666666666666665e-01  3.333333333333333e-01
-1.666666666666667e-01  1.666666666666665e-01  3.333333333333333e-01
-1.666666666666667e-01  1.666666666666665e-01  3.333333333333333e-01
-1.666666666666667e-01  1.666666666666665e-01  3.333333333333333e-01
-1.666666666666667e-01  1.666666666666665e-01  3.333333333333333e-01
-1.666666666666667e-01  1.666666666666665e-01  3.333333333333333e-01
-1.666666666666667e-01  1.666666666666665e-01  3.333333333333333e-01
-1.666666666666667e-01  1.666666666666665e-01  3.333333333333333e-01
-1.666666666666667e-01  1.666666666666665e-01  3.333333333333333e-01
-1.666666666666667e-01  1.666666666666665e-01  3.333333333333333e-01
-1.666666666666667e-01  1.666666666666665e-01  3.333333333333333e-01
-1.666666666666667e-01  1.666666666666665e-01  3.333333333333333e-01
-1.666666666666667e-01  1.666666666666665e-01  3.333333333333333e-01
-1.666666666666667e-01  1.666666666666665e-01  3.333333333333333e-01
-1.666666666666667e-01  1.666666666666665e-01  3.333333333333333e-01
-1.666666666666667e-01  1.666666666666665e-01  3.333333333333333e-01
-1.666666666666667e-01  1.666666666666665e-01  3.333333333333333e-01
-1.666666666666667e-01  1.666666666666665e-01  3.333333333333333e-01
-1.666666666666667e-01  1.666666666666665e-01  3.333333333333333e-01
-1.666666666666667e-01  1.666666666666665e-01  3.333333333333333e-01
-1.666666666666667e-01  1.666666666666665e-01  3.333333333333333e-01
-1.666666666666667e-01  1.666666666666665e-01  3.333333333333333e-01
-1.666666666666667e-01  1.666666666666665e-01  3.333333333333333e-01
-1.666666666666667e-01  1.666666666666665e-01  3.333333333333333e-01
-1.666666666666667e-01  1.666666666666665e-01  3.333333333333333e-01
-1.666666666666667e-01  1.666666666666665e-01  3.333333333333333e-01
-1.666666666666667e-01  1.666666666666665e-01  3.333333333333333e-01
-1.666666666666667e-01  1.666666666666665e-01  3.333333333333333e-01
-1.666666666666667e-01  1.666666666666665e-01  3.333333333333333e-01
-1.666666666666667e-01  1.666666666666665e-01  3.333333333333333e-01
-1.666666666666667e-01  1.666666666666665e-01  3.333333333333333e-01
-1.666666666666667e-01  1.666666666666665e-01  3.333333333333333e-01
-1.666666666666667e-01  1.666666666666665e-01  3.333333333333333e-01
-1.666666666666667e-01  1.666666666666665e-01  3.333333333333333e-01
-1.666666666666667e-01  1.666666666666665e-01  3.333333333333333e-01
-1.666666666666667e-01  1.666666666666665e-01  3.333333333333333e-01
-1.666666666666667e-01  1.666666666666665e-01  3.333333333333333e-01
-1.666666666666667e-01  1.666666666666665e-01  3.333333333333333e-01
-1.666666666666667e-01  1.666666666666665e-01  3.333333333333333e-01
-1.666666666666667e-01  1.666666666666665e-01  3.333333333333333e-01
-1.666666666666667e-01  1.666666666666665e-01  3.333333333333333e-01
-1.666666666666667e-01  1.666666666666665e-01  3.333333333333333e-01
-1.666666666666667e-01  1.666666666666665e-01  3.333333333333333e-01
-1.666666666666667e-01  1.666666666666665e-01  3.333333333333333e-01
-1.666666666666667e-01  1.666666666666665e-01  3.333333333333333e-01
-1.666666666666667e-01  1.666666666666665e-01  3.333333333333333e-01
-1.666666666666667e-01  1.666666666666665e-01  3.333333333333333e-01
-1.666666666666667e-01  1.666666666666665e-01  3.333333333333333e-01
-1.666666666666667e-01  1.666666666666665e-01  3.333333333333333e-01
-1.666666666666667e-01  1.666666666666665e-01  3.333333333333333e-01
-1.666666666666667e-01  1.666666666666665e-01  3.333333333333333e-01
-1.666666666666667e-01  1.666666666666665e-01  3.333333333333333e-01
-1.666666666666667e-01  1.666666666666665e-01  3.333333333333333e-01
-1.666666666666667e-01  1.666666666666665e-01  3.333333333333333e-01
-1.666666666666667e-01  1.666666666666665e-01  3.333333333333333e-01
-1.666666666666667e-01  1.666666666666665e-01  3.333333333333333e-01
-1.666666666666667e-01  1.666666666666665e-01  3.333333333333333e-01
-1.666666666666667e-01  1.666666666666665e-01  3.333333333333333e-01
-1.666666666666667e-01  1.666666666666665e-01  3.333333333333333e-01
-1.666666666666667e-01  1.666666666666665e-01  3.333333333333333e-01
-1.666666666666667e-01  1.666666666666665e-01  3.333333333333333e-01
-1.666666666666667e-01  1.666666666666665e-01  3.333333333333333e-01
-1.666666666666667e-01  1.666666666666665e-01  3.333333333333333e-01
-1.666666666666667e-01  1.666666666666665e-01  3.333333333333333e-01
-1.666666666666667e-01  1.666666666666665e-01  3.333333333333333e-01
-1.666666666666667e-01  1.666666666666665e-01  3.333333333333333e-01
-1.666666666666667e-01  1.666666666666665e-01  3.333333333333333e-01
-1.666666666666667e-01  1.666666666666665e-01  3.333333333333333e-01
-1.666666666666667e-01  1.666666666666665e-01  3.333333333333333e-01
-1.666666666666667e-01  1.666666666666665e-01  3.333333333333333e-01
-1.666666666666667e-01  1.666666666666665e-01  3.333333333333333e-01
-1.666666666666667e-01  1.666666666666665e-01  3.333333333333333e-01
-1.666666666666667e-01  1.666666666666665e-01  3.333333333333333e-01
-1.666666666666667e-01  1.666666666666665e-01  3.333333333333333e-01
-1.666666666666667e-01  1.666666666666665e-01  3.333333333333333e-01
-1.666666666666667e-01  1.666666666666665e-01  3.333333333333333e-01
-1.666666666666667e-01  1.666666666666665e-01  3.333333333333333e-01
-1.666666666666667e-01  1.666666666666665e-01  3.333333333333333e-01
-1.666666666666667e-01  1.666666666666665e-01  3.333333333333333e-01
-1.666666666666667e-01  1.666666666666665e-01  3.333333333333333e-01
-1.666666666666667e-01  1.666666666666665e-01  3.333333333333333e-01
-1.666666666666667e-01  1.666666666666665e-01  3.333333333333333e-01
-1.666666666666667e-01  1.666666666666665e-01  3.333333333333333e-01
-1.666666666666667e-01  1.666666666666665e-01  3.333333333333333e-01
-1.666666666666667e-01  1.666666666666665e-01  3.333333333333333e-01
-1.666666666666667e-01  1.666666666666665e-01  3.333333333333333e-01
-1.666666666666667e-01  1.666666666666665e-01  3.333333333333333e-01
-1.666666666666667e-01  1.666666666666665e-01  3.333333333333333e-01
-1.666666666666667e-01  1.666666666666665e-01  3.333333333333333e-01
-1.666666666666667e-01  1.666666666666665e-01  3.333333333333333e-01
-1.666666666666667e-01  1.666666666666665e-01  3.333333333333333e-01
-1.666666666666667e-01  1.666666666666665e-01  3.333333333333333e-01
-1.666666666666667e-01  1.666666666666665e-01  3.333333333333333e-01
-1.666666666666667e-01  1.666666666666665e-01  3.333333333333333e-01
-1.666666666666667e-01  1.666666666666665e-01  3.333333333333333e-01
-1.666666666666667e-01  1.666666666666665e-01  3.333333333333333e-01
-1.666666666666667e-01  1.666666666666665e-01  3.333333333333333e-01
-1.666666666666667e-01  1.666666666666665e-01  3.333333333333333e-01
-1.666666666666667e-01  1.666666666666665e-01  3.333333333333333e-01
-1.666666666666667e-01  1.666666666666665e-01  3.333333333333333e-01
-1.666666666666667e-01  1.666666666666665e-01  3.333333333333333e-01
-1.666666666666667e-01  1.666666666666665e-01  3.333333333333333e-01
-1.666666666666667e-01  1.666666666666665e-01  3.333333333333333e-01
-1.666666666666667e-01  1.666666666666665e-01  3.333333333333333e-01
-1.666666666666667e-01  1.666666666666665e-01  3.333333333333333e-01
-1.666666666666667e-01  1.666666666666665e-01  3.333333333333333e-01
-1.666666666666667e-01  1.666666666666665e-01  3.333333333333333e-01
-1.666666666666667e-01  1.666666666666665e-01  3.333333333333333e-01
-1.666666666666667e-01  1.666666666666665e-01  3.333333333333333e-01
-1.666666666666667e-01  1.666666666666665e-01  3.333333333333333e-01
-1.666666666666667e-01  1.666666666666665e-01  3.333333333333333e-01
-1.666666666666667e-01  1.666666666666665e-01  3.333333333333333e-01
-1.666666666666667e-01  1.666666666666665e-01  3.333333333333333e-01
-1.666666666666667e-01  1.666666666666665e-01  3.333333333333333e-01
-1.666666666666667e-01  1.666666666666665e-01  3.333333333333333e-01
-1.666666666666667e-01  1.666666666666665e-01  3.333333333333333e-01
-1.666666666666667e-01  1.666666666666665e-01  3.333333333333333e-01
-1.666666666666667e-01  1.666666666666665e-01  3.333333333333333e-01
-1.666666666666667e-01  1.666666666666665e-01  3.333333333333333e-01
-1.666666666666667e-01  1.666666666666665e-01  3.333333333333333e-01
-1.666666666666667e-01  1.666666666666665e-01  3.333333333333333e-01
-1.666666666666667e-01  1.666666666666665e-01  3.333333333333333e-01
-1.666666666666667e-01  1.666666666666665e-01  3.333333333333333e-01
