# vtk DataFile Version 3.0
# Dislocation lines converted from MoDELib file
ASCII
DATASET UNSTRUCTURED_GRID
POINTS 2979 double
-1.429999999999877e+00  3.863858941524650e+02 -2.918975276816622e+03
-1.429999999999897e+00 -3.863858941524674e+02 -2.918975276816622e+03
-1.429999999999897e+00  0.000000000000000e+00 -2.918975276816622e+03
-1.430000000000221e+00  0.000000000000000e+00  2.918975276816619e+03
-1.430000000000221e+00 -3.863858941524674e+02  2.918975276816619e+03
-1.430000000000201e+00  3.863858941524653e+02  2.918975276816619e+03
-1.148564107113119e+03  1.104458110857099e+00 -2.918975276816622e+03
-1.148564145632037e+03 -1.049378581047222e+00 -2.918975276816622e+03
-1.148558281355050e+03 -1.739350886788043e+00 -2.918975276816622e+03
-1.148557703992621e+03 -3.939691852658056e+00 -2.918975276816622e+03
-1.148540850969364e+03 -5.249355847097405e+00 -2.918975276816622e+03
-1.148539831619995e+03 -6.327412469769237e+00 -2.918975276816622e+03
-1.148520192756621e+03 -8.209474201079368e+00 -2.918975276816622e+03
-1.148480624759146e+03 -1.300822982557022e+01 -2.918975276816622e+03
-1.148470921822227e+03 -1.368606795717881e+01 -2.918975276816622e+03
-1.148449909325230e+03 -1.660983816228955e+01 -2.918975276816622e+03
-1.148384228002109e+03 -2.010188743868535e+01 -2.918975276816622e+03
-1.148360342252488e+03 -2.289743925166321e+01 -2.918975276816622e+03
-1.148294569893451e+03 -2.693407711408084e+01 -2.918975276816622e+03
-1.148284279275245e+03 -2.804616141039251e+01 -2.918975276816622e+03
-1.148157561294404e+03 -3.496805159746825e+01 -2.918975276816622e+03
-1.148139013219882e+03 -3.587803176853564e+01 -2.918975276816622e+03
-1.148084332244796e+03 -3.841437931615801e+01 -2.918975276816622e+03
-1.148074429289846e+03 -4.025132210450234e+01 -2.918975276816622e+03
-1.148072506726503e+03 -4.108504984862000e+01 -2.918975276816622e+03
-1.148024763087992e+03 -4.334417609225681e+01 -2.918975276816622e+03
-1.148076060394470e+03 -4.516400917507693e+01 -2.918975276816622e+03
-1.148191886295912e+03 -4.988828908304149e+01 -2.918975276816622e+03
-1.148306233696400e+03 -5.100237408432546e+01 -2.918975276816622e+03
-1.147850697947355e+03 -5.220770328972189e+01 -2.918975276816622e+03
-1.148414516637204e+03 -5.372820040176863e+01 -2.918975276816622e+03
-1.148104147650349e+03 -5.416480391931128e+01 -2.918975276816622e+03
-1.148138307607057e+03 -5.582880161141043e+01 -2.918975276816622e+03
-1.147782134625857e+03 -5.845311901399504e+01 -2.918975276816622e+03
-1.147806842235331e+03 -6.017151066481418e+01 -2.918975276816622e+03
-1.147874408443663e+03 -6.136607996986390e+01 -2.918975276816622e+03
-1.147802658138307e+03 -6.331323995497120e+01 -2.918975276816622e+03
-1.147891306408872e+03 -6.434687704157342e+01 -2.918975276816622e+03
-1.147796298907932e+03 -6.632962020446139e+01 -2.918975276816622e+03
-1.147801376980432e+03 -6.738242477674999e+01 -2.918975276816622e+03
-1.147736899864244e+03 -6.992878360139709e+01 -2.918975276816622e+03
-1.147799116232782e+03 -7.059180648058290e+01 -2.918975276816622e+03
-1.147720063168205e+03 -7.213622246751103e+01 -2.918975276816622e+03
-1.147805906093567e+03 -7.419473534201239e+01 -2.918975276816622e+03
-1.147720711625125e+03 -7.527893754696647e+01 -2.918975276816622e+03
-1.147805839457789e+03 -7.630369061293950e+01 -2.918975276816622e+03
-1.147703173045429e+03 -7.834313456506671e+01 -2.918975276816622e+03
-1.147804996042858e+03 -8.024273840522035e+01 -2.918975276816622e+03
-1.147704041275976e+03 -8.133996905739002e+01 -2.918975276816622e+03
-1.147801134220161e+03 -8.335315386411568e+01 -2.918975276816622e+03
-1.147693951800984e+03 -8.499059468635305e+01 -2.918975276816622e+03
-1.147785215930343e+03 -8.765762901585367e+01 -2.918975276816622e+03
-1.147685779870889e+03 -8.952633195980734e+01 -2.918975276816622e+03
-1.147749273576024e+03 -9.039275677833814e+01 -2.918975276816622e+03
-1.147642155402137e+03 -9.209657713851405e+01 -2.918975276816622e+03
-1.147715960375399e+03 -9.486557380546843e+01 -2.918975276816622e+03
-1.147657480290672e+03 -9.555067949165085e+01 -2.918975276816622e+03
-1.147700862692894e+03 -9.844895716963094e+01 -2.918975276816622e+03
-1.147618029120693e+03 -1.003141369353248e+02 -2.918975276816622e+03
-1.147675206155928e+03 -1.013958604864551e+02 -2.918975276816622e+03
-1.147595296546066e+03 -1.032515238702794e+02 -2.918975276816622e+03
-1.147650999821795e+03 -1.042367227308596e+02 -2.918975276816622e+03
-1.147562189964783e+03 -1.061978677832647e+02 -2.918975276816622e+03
-1.147637224783122e+03 -1.072640694052931e+02 -2.918975276816622e+03
-1.147530581144825e+03 -1.097279095536460e+02 -2.918975276816622e+03
-1.147586604973008e+03 -1.105282272621340e+02 -2.918975276816622e+03
-1.147492319296093e+03 -1.122575747253824e+02 -2.918975276816622e+03
-1.147560863987881e+03 -1.141257624859239e+02 -2.918975276816622e+03
-1.147529978226559e+03 -1.142019055141208e+02 -2.918975276816622e+03
-1.147594245540241e+03 -1.157515601917287e+02 -2.918975276816622e+03
-1.147539331886977e+03 -1.183371333083037e+02 -2.918975276816622e+03
-1.147589311008869e+03 -1.201257892400474e+02 -2.918975276816622e+03
-1.147532978547641e+03 -1.213351512199686e+02 -2.918975276816622e+03
-1.147577169120419e+03 -1.234619880717258e+02 -2.918975276816622e+03
-1.147598410670278e+03 -1.248105321726942e+02 -2.918975276816622e+03
-1.147619565196252e+03 -1.295942582320161e+02 -2.918975276816622e+03
-1.147457253285159e+03 -1.303334427530210e+02 -2.918975276816622e+03
-1.147587292632806e+03 -1.322108668564928e+02 -2.918975276816622e+03
-1.147650772162886e+03 -1.341566148795774e+02 -2.918975276816622e+03
-1.147578465970777e+03 -1.344573613325404e+02 -2.918975276816622e+03
-1.147582349363587e+03 -1.357663323297996e+02 -2.918975276816622e+03
-1.147630475448134e+03 -1.384003222812144e+02 -2.918975276816622e+03
-1.147646927162548e+03 -1.400556778963947e+02 -2.918975276816622e+03
-1.147640056753294e+03 -1.412652813147974e+02 -2.918975276816622e+03
-1.147661975788216e+03 -1.431681740637619e+02 -2.918975276816622e+03
-1.147656385183899e+03 -1.441352907693844e+02 -2.918975276816622e+03
-1.147701285292549e+03 -1.461375245718554e+02 -2.918975276816622e+03
-1.147682114074577e+03 -1.471524656508646e+02 -2.918975276816622e+03
-1.147741441657149e+03 -1.496396110963221e+02 -2.918975276816622e+03
-1.147715576163549e+03 -1.503417134295798e+02 -2.918975276816622e+03
-1.147778210690965e+03 -1.520378898339249e+02 -2.918975276816622e+03
-1.147757246159851e+03 -1.540299668236409e+02 -2.918975276816622e+03
-1.147765618643127e+03 -1.540638362406362e+02 -2.918975276816622e+03
-1.147752888946997e+03 -1.559584905447533e+02 -2.918975276816622e+03
-1.147832539020203e+03 -1.601725682674281e+02 -2.918975276816622e+03
-1.147820639108950e+03 -1.612281893377636e+02 -2.918975276816622e+03
-1.147863781712470e+03 -1.631897904088280e+02 -2.918975276816622e+03
-1.147872956600606e+03 -1.647265414001456e+02 -2.918975276816622e+03
-1.147953293275009e+03 -1.723221305253391e+02 -2.918975276816622e+03
-1.147977866690797e+03 -1.756637850376519e+02 -2.918975276816622e+03
-1.148007608627694e+03 -1.783159013124231e+02 -2.918975276816622e+03
-1.148008148045497e+03 -1.802138296980634e+02 -2.918975276816622e+03
-1.148024489045789e+03 -1.812738404530540e+02 -2.918975276816622e+03
-1.148035976453169e+03 -1.831425812083300e+02 -2.918975276816622e+03
-1.148035955579005e+03 -1.847063074627098e+02 -2.918975276816622e+03
-1.148052147241753e+03 -1.894901184176028e+02 -2.918975276816622e+03
-1.148040802819356e+03 -1.901272736816623e+02 -2.918975276816622e+03
-1.148069690038458e+03 -1.919397926768781e+02 -2.918975276816622e+03
-1.148044011521674e+03 -1.939051474948049e+02 -2.918975276816622e+03
-1.148058447263781e+03 -1.943018333506547e+02 -2.918975276816622e+03
-1.148030733952832e+03 -1.960471300922669e+02 -2.918975276816622e+03
-1.148046250856396e+03 -2.000603208273577e+02 -2.918975276816622e+03
-1.148002580143816e+03 -2.010814514680816e+02 -2.918975276816622e+03
-1.148037048772681e+03 -2.030817106727111e+02 -2.918975276816622e+03
-1.147989930650021e+03 -2.040530478208579e+02 -2.918975276816622e+03
-1.148024353306858e+03 -2.060215856302558e+02 -2.918975276816622e+03
-1.147970201403414e+03 -2.070708457874591e+02 -2.918975276816622e+03
-1.147992661882347e+03 -2.095565673445404e+02 -2.918975276816622e+03
-1.147939018039903e+03 -2.103826247297370e+02 -2.918975276816622e+03
-1.147967944228390e+03 -2.124287205455575e+02 -2.918975276816622e+03
-1.147864695257740e+03 -2.156028329723076e+02 -2.918975276816622e+03
-1.147869700121940e+03 -2.182330162784992e+02 -2.918975276816622e+03
-1.147776025325497e+03 -2.201120882323772e+02 -2.918975276816622e+03
-1.147799991326946e+03 -2.212140097624501e+02 -2.918975276816622e+03
-1.147704126845347e+03 -2.230802453991156e+02 -2.918975276816622e+03
-1.147680339287776e+03 -2.246470775669858e+02 -2.918975276816622e+03
-1.147493535394619e+03 -2.294549270626362e+02 -2.918975276816622e+03
-1.147436390099978e+03 -2.301858320684823e+02 -2.918975276816622e+03
-1.147368936505839e+03 -2.319849610625455e+02 -2.918975276816622e+03
-1.147177269272293e+03 -2.337585348429598e+02 -2.918975276816622e+03
-1.147170841599503e+03 -2.338947727761442e+02 -2.918975276816622e+03
-1.147399960427123e+03 -2.355580723791221e+02 -2.918975276816622e+03
-1.147481586652967e+03 -2.381248301315062e+02 -2.918975276816622e+03
-1.147618541491284e+03 -2.401110378780717e+02 -2.918975276816622e+03
-1.147593719409564e+03 -2.411564428714280e+02 -2.918975276816622e+03
-1.147760462202509e+03 -2.431469973601213e+02 -2.918975276816622e+03
-1.147705740146361e+03 -2.444643694625385e+02 -2.918975276816622e+03
-1.147887479393632e+03 -2.470183344578562e+02 -2.918975276816622e+03
-1.147867016755543e+03 -2.470571313177011e+02 -2.918975276816622e+03
-1.147916652010160e+03 -2.498183943159574e+02 -2.918975276816622e+03
-1.147846509266507e+03 -2.508363481149731e+02 -2.918975276816622e+03
-1.147903024829639e+03 -2.516582167229425e+02 -2.918975276816622e+03
-1.147841634699208e+03 -2.538783304090829e+02 -2.918975276816622e+03
-1.147893263253043e+03 -2.552019674305002e+02 -2.918975276816622e+03
-1.147862438176111e+03 -2.574882140142725e+02 -2.918975276816622e+03
-1.147876512983132e+03 -2.577436984047122e+02 -2.918975276816622e+03
-1.147860922216201e+03 -2.601485483698179e+02 -2.918975276816622e+03
-1.147869446442244e+03 -2.609350474216198e+02 -2.918975276816622e+03
-1.147857945833567e+03 -2.634060505993806e+02 -2.918975276816622e+03
-1.147861953216499e+03 -2.661324364163614e+02 -2.918975276816622e+03
-1.147863865736234e+03 -2.710877738929643e+02 -2.918975276816622e+03
-1.147869430656780e+03 -2.738729843401330e+02 -2.918975276816622e+03
-1.147869565701222e+03 -2.755616395893279e+02 -2.918975276816622e+03
-1.147878061096001e+03 -2.773757988476904e+02 -2.918975276816622e+03
-1.147885775020645e+03 -2.802796323879243e+02 -2.918975276816622e+03
-1.147902288644633e+03 -2.843489919119963e+02 -2.918975276816622e+03
-1.147892213898363e+03 -2.858168314187444e+02 -2.918975276816622e+03
-1.147911712763333e+03 -2.877496029542031e+02 -2.918975276816622e+03
-1.147926715036989e+03 -2.950613716352039e+02 -2.918975276816622e+03
-1.147938702523433e+03 -2.986557520727283e+02 -2.918975276816622e+03
-1.147921378319977e+03 -3.003136743906925e+02 -2.918975276816622e+03
-1.147899941165721e+03 -3.036925732315678e+02 -2.918975276816622e+03
-1.147919971364355e+03 -3.043036738102535e+02 -2.918975276816622e+03
-1.147961857233058e+03 -3.073827300623871e+02 -2.918975276816622e+03
-1.147874675308085e+03 -3.106786237602988e+02 -2.918975276816622e+03
-1.147871701491867e+03 -3.139470624412742e+02 -2.918975276816622e+03
-1.147814179388399e+03 -3.181127608521846e+02 -2.918975276816622e+03
-1.147704253054882e+03 -3.231478322188859e+02 -2.918975276816622e+03
-1.147584611515212e+03 -3.265818292816688e+02 -2.918975276816622e+03
-1.147445964390608e+03 -3.266385084846741e+02 -2.918975276816622e+03
-1.147819015604765e+03 -3.304569408880877e+02 -2.918975276816622e+03
-1.147632285463132e+03 -3.341597489513243e+02 -2.918975276816622e+03
-1.147716500681176e+03 -3.348847595272714e+02 -2.918975276816622e+03
-1.147734967367564e+03 -3.387172032744668e+02 -2.918975276816622e+03
-1.147790868010948e+03 -3.432137326854499e+02 -2.918975276816622e+03
-1.147858811091699e+03 -3.471107731005171e+02 -2.918975276816622e+03
-1.147923987619811e+03 -3.479042804204702e+02 -2.918975276816622e+03
-1.147936209173364e+03 -3.528640862872649e+02 -2.918975276816622e+03
-1.147908350223006e+03 -3.543859458591257e+02 -2.918975276816622e+03
-1.147992110841390e+03 -3.583787013406671e+02 -2.918975276816622e+03
-1.148007031785009e+03 -3.621360651947247e+02 -2.918975276816622e+03
-1.147997056734510e+03 -3.696786362869972e+02 -2.918975276816622e+03
-1.147997172913493e+03 -3.717874965005178e+02 -2.918975276816622e+03
-1.147992678468108e+03 -3.740950189829009e+02 -2.918975276816622e+03
-1.147970077623135e+03 -3.743888503791019e+02 -2.918975276816622e+03
-1.147999614006279e+03 -3.763714909336150e+02 -2.918975276816622e+03
-1.148051014879833e+03 -3.775332978945448e+02 -2.918975276816622e+03
-1.148025659757309e+03 -3.796388984233114e+02 -2.918975276816622e+03
-1.148013671911463e+03 -3.799688415141904e+02 -2.918975276816622e+03
-1.148014399478148e+03 -3.823199044220854e+02 -2.918975276816622e+03
-1.148040695440839e+03 -3.860358984653562e+02 -2.918975276816622e+03
-1.148051278142094e+03  3.833370324739876e+02 -2.918975276816622e+03
-1.148071633572394e+03  3.785847342546612e+02 -2.918975276816622e+03
-1.148069432717564e+03  3.772909844580992e+02 -2.918975276816622e+03
-1.148072725867132e+03  3.765468253566065e+02 -2.918975276816622e+03
-1.148063698843814e+03  3.736665486917612e+02 -2.918975276816622e+03
-1.148072065537433e+03  3.684590612305030e+02 -2.918975276816622e+03
-1.148068160166609e+03  3.598630056154313e+02 -2.918975276816622e+03
-1.148040421766767e+03  3.575697654764029e+02 -2.918975276816622e+03
-1.148063862820228e+03  3.546498591614246e+02 -2.918975276816622e+03
-1.147946955091205e+03  3.527288297840882e+02 -2.918975276816622e+03
-1.148105122755300e+03  3.510247703633411e+02 -2.918975276816622e+03
-1.148150789938571e+03  3.485464115920338e+02 -2.918975276816622e+03
-1.148072352852798e+03  3.458981479304328e+02 -2.918975276816622e+03
-1.147839071071918e+03  3.444023422956988e+02 -2.918975276816622e+03
-1.147960927173903e+03  3.413698395104592e+02 -2.918975276816622e+03
-1.148041780991743e+03  3.406083996853461e+02 -2.918975276816622e+03
-1.147867701411172e+03  3.383917948847722e+02 -2.918975276816622e+03
-1.147774992572876e+03  3.297030740932503e+02 -2.918975276816622e+03
-1.147740991474119e+03  3.276920507758377e+02 -2.918975276816622e+03
-1.147690420761203e+03  3.260483278574914e+02 -2.918975276816622e+03
-1.147557393345830e+03  3.234776118578255e+02 -2.918975276816622e+03
-1.147587460670925e+03  3.234256298186573e+02 -2.918975276816622e+03
-1.147792200174529e+03  3.209719693226018e+02 -2.918975276816622e+03
-1.147633121716916e+03  3.200787977557189e+02 -2.918975276816622e+03
-1.147798089946149e+03  3.172482501997992e+02 -2.918975276816622e+03
-1.147766543954222e+03  3.133203231986662e+02 -2.918975276816622e+03
-1.147846963742662e+03  3.121939761765664e+02 -2.918975276816622e+03
-1.147783394266004e+03  3.097837769269830e+02 -2.918975276816622e+03
-1.147867340867734e+03  3.070850273503157e+02 -2.918975276816622e+03
-1.147738150452443e+03  3.050277867645117e+02 -2.918975276816622e+03
-1.147873024336945e+03  3.033825636973660e+02 -2.918975276816622e+03
-1.147864304059026e+03  3.011758244426755e+02 -2.918975276816622e+03
-1.147880942543895e+03  2.962738975664090e+02 -2.918975276816622e+03
-1.147793180939770e+03  2.961188629292960e+02 -2.918975276816622e+03
-1.147898142130271e+03  2.936739853894421e+02 -2.918975276816622e+03
-1.147906199065247e+03  2.890534649257444e+02 -2.918975276816622e+03
-1.147923839729207e+03  2.885509452152650e+02 -2.918975276816622e+03
-1.147889973521935e+03  2.862406108352696e+02 -2.918975276816622e+03
-1.147856509152847e+03  2.831693975331428e+02 -2.918975276816622e+03
-1.147885788600108e+03  2.820192828061432e+02 -2.918975276816622e+03
-1.147909321583021e+03  2.800995655008678e+02 -2.918975276816622e+03
-1.147883822610365e+03  2.780108116138907e+02 -2.918975276816622e+03
-1.147843973406069e+03  2.761734038006473e+02 -2.918975276816622e+03
-1.147856363753789e+03  2.756778636303681e+02 -2.918975276816622e+03
-1.147832240763436e+03  2.742146264829911e+02 -2.918975276816622e+03
-1.147854773776608e+03  2.717188479274149e+02 -2.918975276816622e+03
-1.147825866948510e+03  2.708942052147803e+02 -2.918975276816622e+03
-1.147853037208502e+03  2.691379859453302e+02 -2.918975276816622e+03
-1.147814321372781e+03  2.666849215848017e+02 -2.918975276816622e+03
-1.147840854055156e+03  2.655677578433433e+02 -2.918975276816622e+03
-1.147809576088554e+03  2.630310748475592e+02 -2.918975276816622e+03
-1.147822748818057e+03  2.610257166046631e+02 -2.918975276816622e+03
-1.147803907539429e+03  2.599908687360341e+02 -2.918975276816622e+03
-1.147809371819925e+03  2.580563761104191e+02 -2.918975276816622e+03
-1.147794680474707e+03  2.567095165653200e+02 -2.918975276816622e+03
-1.147763735353414e+03  2.513776421424147e+02 -2.918975276816622e+03
-1.147722241516986e+03  2.502210202448091e+02 -2.918975276816622e+03
-1.147758862983432e+03  2.494479067811399e+02 -2.918975276816622e+03
-1.147680042356682e+03  2.471261100980065e+02 -2.918975276816622e+03
-1.147744452538329e+03  2.457804378507645e+02 -2.918975276816622e+03
-1.147627100860393e+03  2.435956050142196e+02 -2.918975276816622e+03
-1.147679997253434e+03  2.433068921194077e+02 -2.918975276816622e+03
-1.147543249745892e+03  2.406717667343010e+02 -2.918975276816622e+03
-1.147617269803492e+03  2.400427430919220e+02 -2.918975276816622e+03
-1.147470317355824e+03  2.385483666268956e+02 -2.918975276816622e+03
-1.147540697711122e+03  2.362743331731067e+02 -2.918975276816622e+03
-1.147404610740308e+03  2.353625021728407e+02 -2.918975276816622e+03
-1.147498353594096e+03  2.340516464284279e+02 -2.918975276816622e+03
-1.147323547841469e+03  2.319527358055669e+02 -2.918975276816622e+03
-1.147404272248909e+03  2.306047770168616e+02 -2.918975276816622e+03
-1.147275011357339e+03  2.295784903862611e+02 -2.918975276816622e+03
-1.147307047160326e+03  2.272922410443387e+02 -2.918975276816622e+03
-1.147206725969911e+03  2.263281217333196e+02 -2.918975276816622e+03
-1.147256317187265e+03  2.244302072270326e+02 -2.918975276816622e+03
-1.147157700564951e+03  2.233493529800049e+02 -2.918975276816622e+03
-1.147195183880428e+03  2.204181067886194e+02 -2.918975276816622e+03
-1.147105008768067e+03  2.164028529845579e+02 -2.918975276816622e+03
-1.147147560949603e+03  2.159912841771099e+02 -2.918975276816622e+03
-1.147073603649616e+03  2.144568946132344e+02 -2.918975276816622e+03
-1.146992263783455e+03  2.130696308645004e+02 -2.918975276816622e+03
-1.147039774621009e+03  2.118915898434325e+02 -2.918975276816622e+03
-1.147042029840571e+03  2.102498402204057e+02 -2.918975276816622e+03
-1.147045253112793e+03  2.091782185344195e+02 -2.918975276816622e+03
-1.146984283225918e+03  2.071965733266626e+02 -2.918975276816622e+03
-1.147042729006865e+03  2.058884647134823e+02 -2.918975276816622e+03
-1.147010880407418e+03  2.041803911913078e+02 -2.918975276816622e+03
-1.147026181203408e+03  2.031936343717697e+02 -2.918975276816622e+03
-1.147043683615617e+03  1.987058733506618e+02 -2.918975276816622e+03
-1.147069296294311e+03  1.962778604713299e+02 -2.918975276816622e+03
-1.147037301369558e+03  1.921808854392229e+02 -2.918975276816622e+03
-1.147047742355428e+03  1.902603217660836e+02 -2.918975276816622e+03
-1.147016974405852e+03  1.891477405289428e+02 -2.918975276816622e+03
-1.147046200511650e+03  1.872906234209639e+02 -2.918975276816622e+03
-1.146992853361502e+03  1.863026719219247e+02 -2.918975276816622e+03
-1.147003298065897e+03  1.844319098251583e+02 -2.918975276816622e+03
-1.146951233692356e+03  1.833625340772523e+02 -2.918975276816622e+03
-1.146938498183422e+03  1.805507466305472e+02 -2.918975276816622e+03
-1.146885159936667e+03  1.790347271340483e+02 -2.918975276816622e+03
-1.146864425094491e+03  1.783546822487176e+02 -2.918975276816622e+03
-1.146819847391108e+03  1.762210854896646e+02 -2.918975276816622e+03
-1.146821375810139e+03  1.761229366541196e+02 -2.918975276816622e+03
-1.146889616632283e+03  1.734669394661291e+02 -2.918975276816622e+03
-1.146898695316065e+03  1.717890428723084e+02 -2.918975276816622e+03
-1.146942055443142e+03  1.701711036330753e+02 -2.918975276816622e+03
-1.146937539807430e+03  1.690678024024237e+02 -2.918975276816622e+03
-1.146978768205341e+03  1.673976875429215e+02 -2.918975276816622e+03
-1.146964344856194e+03  1.662687465959710e+02 -2.918975276816622e+03
-1.147020524090671e+03  1.642923505192548e+02 -2.918975276816622e+03
-1.147003458227381e+03  1.633694242225172e+02 -2.918975276816622e+03
-1.147050653604119e+03  1.609549091515226e+02 -2.918975276816622e+03
-1.147035794230684e+03  1.604045930203824e+02 -2.918975276816622e+03
-1.147077853249797e+03  1.582237455580319e+02 -2.918975276816622e+03
-1.147097096138485e+03  1.531212048038577e+02 -2.918975276816622e+03
-1.147100085621207e+03  1.516611514465615e+02 -2.918975276816622e+03
-1.147091197796444e+03  1.499373976892888e+02 -2.918975276816622e+03
-1.147122372584888e+03  1.490844077262924e+02 -2.918975276816622e+03
-1.147078711244187e+03  1.474870882694646e+02 -2.918975276816622e+03
-1.147117089519331e+03  1.463319763207749e+02 -2.918975276816622e+03
-1.147078992566704e+03  1.443223129165052e+02 -2.918975276816622e+03
-1.147106495877362e+03  1.433107028089485e+02 -2.918975276816622e+03
-1.147045655914339e+03  1.409945299600789e+02 -2.918975276816622e+03
-1.147055542176723e+03  1.407799636858715e+02 -2.918975276816622e+03
-1.147151283717032e+03  1.386119640577771e+02 -2.918975276816622e+03
-1.147147946742456e+03  1.370633068369542e+02 -2.918975276816622e+03
-1.147187196613720e+03  1.365739907951893e+02 -2.918975276816622e+03
-1.147190592392996e+03  1.342214582312223e+02 -2.918975276816622e+03
-1.147293661279028e+03  1.330337169544873e+02 -2.918975276816622e+03
-1.147252770047378e+03  1.304639487879630e+02 -2.918975276816622e+03
-1.147348278930403e+03  1.292974068094487e+02 -2.918975276816622e+03
-1.147329712670297e+03  1.275287952929990e+02 -2.918975276816622e+03
-1.147400190375806e+03  1.257691211088842e+02 -2.918975276816622e+03
-1.147486013406248e+03  1.210843532572654e+02 -2.918975276816622e+03
-1.147490753547715e+03  1.201590800282234e+02 -2.918975276816622e+03
-1.147564978710372e+03  1.178074073848650e+02 -2.918975276816622e+03
-1.147561777390895e+03  1.148643055026301e+02 -2.918975276816622e+03
-1.147658751288129e+03  1.128790528338347e+02 -2.918975276816622e+03
-1.147603871209807e+03  1.119842685279830e+02 -2.918975276816622e+03
-1.147705812899582e+03  1.104622521543672e+02 -2.918975276816622e+03
-1.147635837087198e+03  1.095369673335264e+02 -2.918975276816622e+03
-1.147769838376161e+03  1.071718523243462e+02 -2.918975276816622e+03
-1.147669250747600e+03  1.060526746596728e+02 -2.918975276816622e+03
-1.147801328970598e+03  1.046007955194810e+02 -2.918975276816622e+03
-1.147699691458478e+03  1.034330705610511e+02 -2.918975276816622e+03
-1.147820953155152e+03  1.010292055109916e+02 -2.918975276816622e+03
-1.147732527791363e+03  9.994612253670597e+01 -2.918975276816622e+03
-1.147842391500503e+03  9.862796390664600e+01 -2.918975276816622e+03
-1.147752150506643e+03  9.704385137660704e+01 -2.918975276816622e+03
-1.147838644171549e+03  9.517027489459986e+01 -2.918975276816622e+03
-1.147771951203473e+03  9.147918124672555e+01 -2.918975276816622e+03
-1.147812898067954e+03  8.881682663598365e+01 -2.918975276816622e+03
-1.147803697831781e+03  8.565016629946597e+01 -2.918975276816622e+03
-1.147769807527565e+03  8.233582502951448e+01 -2.918975276816622e+03
-1.147809932530485e+03  8.087304035651289e+01 -2.918975276816622e+03
-1.147759366648934e+03  7.895581380064388e+01 -2.918975276816622e+03
-1.147801335710257e+03  7.617819426825362e+01 -2.918975276816622e+03
-1.147728039864942e+03  7.382454707277621e+01 -2.918975276816622e+03
-1.147782444647796e+03  7.168746605085428e+01 -2.918975276816622e+03
-1.147727699241187e+03  7.061187546971904e+01 -2.918975276816622e+03
-1.147783992032500e+03  6.810852789534979e+01 -2.918975276816622e+03
-1.147735220503914e+03  6.743211751525122e+01 -2.918975276816622e+03
-1.147780173373075e+03  6.560868498684702e+01 -2.918975276816622e+03
-1.147757375273874e+03  6.196759771772473e+01 -2.918975276816622e+03
-1.147846137550442e+03  5.509710359769416e+01 -2.918975276816622e+03
-1.147829444970718e+03  5.292671612654557e+01 -2.918975276816622e+03
-1.147901696201812e+03  5.113090434599311e+01 -2.918975276816622e+03
-1.147853512498237e+03  4.949171313112454e+01 -2.918975276816622e+03
-1.147875078692073e+03  4.744810902539825e+01 -2.918975276816622e+03
-1.147442627074412e+03  4.449065129888210e+01 -2.918975276816622e+03
-1.147101841161073e+03  4.239075237672238e+01 -2.918975276816622e+03
-1.146466207810467e+03  3.973004115824916e+01 -2.918975276816622e+03
-1.148350858443948e+03  4.014186320537333e+01 -2.918975276816622e+03
-1.148069640220229e+03  3.803127626117766e+01 -2.918975276816622e+03
-1.148319671455532e+03  3.544034814305637e+01 -2.918975276816622e+03
-1.148198048863622e+03  3.164786336951516e+01 -2.918975276816622e+03
-1.148346538968895e+03  2.902617082164597e+01 -2.918975276816622e+03
-1.148371406629603e+03  2.309339451302163e+01 -2.918975276816622e+03
-1.148363489422487e+03  2.279204104125461e+01 -2.918975276816622e+03
-1.148418805530380e+03  2.118347094625974e+01 -2.918975276816622e+03
-1.148413392919194e+03  2.011983621826938e+01 -2.918975276816622e+03
-1.148470798460186e+03  1.805961653937562e+01 -2.918975276816622e+03
-1.148478635508131e+03  1.659267668237460e+01 -2.918975276816622e+03
-1.148527421215237e+03  1.368689663682719e+01 -2.918975276816622e+03
-1.148556412251332e+03  7.652066188754879e+00 -2.918975276816622e+03
-1.148552104749548e+03  6.176381960598246e+00 -2.918975276816622e+03
-1.148560366168996e+03  5.220804846332029e+00 -2.918975276816622e+03
1.145762025595707e+03 5.235608233268954e-01 2.918975276816622e+03
1.145947370051366e+03 2.107064833320692e-01 2.918975276816622e+03
 1.145863343350828e+03 -9.032236191651418e-01  2.918975276816622e+03
 1.145869158809209e+03 -3.530257824742818e+00  2.918975276816622e+03
 1.145824272067691e+03 -4.448119527542142e+00  2.918975276816622e+03
 1.145714992846267e+03 -8.847189372186476e+00  2.918975276816622e+03
 1.145678174205290e+03 -9.881566333897942e+00  2.918975276816622e+03
 1.145651140564361e+03 -1.177061879434904e+01  2.918975276816622e+03
 1.145581735393814e+03 -1.343157736521301e+01  2.918975276816622e+03
 1.145485203133221e+03 -1.701958761898915e+01  2.918975276816622e+03
 1.145349544397106e+03 -2.154011831266838e+01  2.918975276816622e+03
 1.145284106603768e+03 -2.385526957071160e+01  2.918975276816622e+03
 1.145215863829344e+03 -2.611396021912496e+01  2.918975276816622e+03
 1.145177703587640e+03 -2.776755866648957e+01  2.918975276816622e+03
 1.145126763792155e+03 -2.983439179701823e+01  2.918975276816622e+03
 1.145116629536627e+03 -3.018660836138336e+01  2.918975276816622e+03
 1.145072783667913e+03 -3.182699851930096e+01  2.918975276816622e+03
 1.145043946004145e+03 -3.328071542521414e+01  2.918975276816622e+03
 1.144947614901323e+03 -3.811989188968970e+01  2.918975276816622e+03
 1.144939653080525e+03 -3.925212315298377e+01  2.918975276816622e+03
 1.144866425085796e+03 -4.186828851766478e+01  2.918975276816622e+03
 1.144863116397326e+03 -4.502720308993060e+01  2.918975276816622e+03
 1.144819720893162e+03 -4.556841314051729e+01  2.918975276816622e+03
 1.144870841272511e+03 -4.721836848725324e+01  2.918975276816622e+03
 1.144800565664854e+03 -4.947730256720983e+01  2.918975276816622e+03
 1.144855895977694e+03 -5.044972053452671e+01  2.918975276816622e+03
 1.144731765272131e+03 -5.383409429226401e+01  2.918975276816622e+03
 1.144901900251233e+03 -5.519280870014883e+01  2.918975276816622e+03
 1.144729628042924e+03 -5.636135194467846e+01  2.918975276816622e+03
 1.144904924036815e+03 -5.866559758249954e+01  2.918975276816622e+03
 1.144736509064323e+03 -6.038700663396535e+01  2.918975276816622e+03
 1.144902635409167e+03 -6.239206813453485e+01  2.918975276816622e+03
 1.144792884136816e+03 -6.373789364537011e+01  2.918975276816622e+03
 1.144903314991156e+03 -6.465062088198167e+01  2.918975276816622e+03
 1.144809099627485e+03 -6.540612042529293e+01  2.918975276816622e+03
 1.144887473351764e+03 -6.695167470186031e+01  2.918975276816622e+03
 1.144830088826360e+03 -6.859928947928699e+01  2.918975276816622e+03
 1.144860371087251e+03 -7.029656753254875e+01  2.918975276816622e+03
 1.144863265524411e+03 -7.501223587306086e+01  2.918975276816622e+03
 1.144910851131490e+03 -7.872670588929738e+01  2.918975276816622e+03
 1.144897822487737e+03 -8.070477043785294e+01  2.918975276816622e+03
 1.144948469925423e+03 -8.229516735098547e+01  2.918975276816622e+03
 1.144927547129441e+03 -8.396961892825108e+01  2.918975276816622e+03
 1.144973756225368e+03 -8.499842042655845e+01  2.918975276816622e+03
 1.144961711536454e+03 -8.509293934533547e+01  2.918975276816622e+03
 1.145011121017249e+03 -8.617726529390504e+01  2.918975276816622e+03
 1.144962826679278e+03 -8.722476942139652e+01  2.918975276816622e+03
 1.144989807665751e+03 -8.880902630816301e+01  2.918975276816622e+03
 1.144969803451590e+03 -9.022477494435869e+01  2.918975276816622e+03
 1.144970032765062e+03 -9.472920006237419e+01  2.918975276816622e+03
 1.144983782926508e+03 -9.802712695615666e+01  2.918975276816622e+03
 1.144990119829601e+03 -9.937907799548816e+01  2.918975276816622e+03
 1.145000737825978e+03 -1.017455179144911e+02  2.918975276816622e+03
 1.145026860780873e+03 -1.027945029676643e+02  2.918975276816622e+03
 1.145028095110634e+03 -1.041392246044140e+02  2.918975276816622e+03
 1.145034582957294e+03 -1.042609275553825e+02  2.918975276816622e+03
 1.145016641785994e+03 -1.055355382455590e+02  2.918975276816622e+03
 1.144972260358644e+03 -1.063473164115631e+02  2.918975276816622e+03
 1.144967338932833e+03 -1.075163539119426e+02  2.918975276816622e+03
 1.144914537709711e+03 -1.099434437386001e+02  2.918975276816622e+03
 1.144939391935647e+03 -1.101844081915388e+02  2.918975276816622e+03
 1.144872100835415e+03 -1.145873586332363e+02  2.918975276816622e+03
 1.144791234081255e+03 -1.194492864039417e+02  2.918975276816622e+03
 1.144759576728334e+03 -1.217883264517117e+02  2.918975276816622e+03
 1.144762354925817e+03 -1.264615264403674e+02  2.918975276816622e+03
 1.144740813061207e+03 -1.287471843761353e+02  2.918975276816622e+03
 1.144784226525149e+03 -1.302067905314487e+02  2.918975276816622e+03
 1.144778092117077e+03 -1.347758131568523e+02  2.918975276816622e+03
 1.144798496027016e+03 -1.379563851476350e+02  2.918975276816622e+03
 1.144799227493641e+03 -1.392596683806181e+02  2.918975276816622e+03
 1.144848649562803e+03 -1.429716538796403e+02  2.918975276816622e+03
 1.144797625035422e+03 -1.448032055791630e+02  2.918975276816622e+03
 1.144890500951816e+03 -1.468189778124199e+02  2.918975276816622e+03
 1.144850472312285e+03 -1.486485777181198e+02  2.918975276816622e+03
 1.144871711268348e+03 -1.502361494649130e+02  2.918975276816622e+03
 1.144860727938981e+03 -1.549138194080894e+02  2.918975276816622e+03
 1.144882206952692e+03 -1.587034042212882e+02  2.918975276816622e+03
 1.144869368940879e+03 -1.605020457029049e+02  2.918975276816622e+03
 1.144884269407953e+03 -1.621567259711774e+02  2.918975276816622e+03
 1.144861451536061e+03 -1.639457621574054e+02  2.918975276816622e+03
 1.144869645710784e+03 -1.651348531664399e+02  2.918975276816622e+03
 1.144865912906193e+03 -1.655703388945190e+02  2.918975276816622e+03
 1.144876988924797e+03 -1.671819719462445e+02  2.918975276816622e+03
 1.144861840440019e+03 -1.686638872175036e+02  2.918975276816622e+03
 1.144862361443857e+03 -1.701599979665881e+02  2.918975276816622e+03
 1.144858336050941e+03 -1.750468652179436e+02  2.918975276816622e+03
 1.144828965545094e+03 -1.785305673891907e+02  2.918975276816622e+03
 1.144816853638370e+03 -1.802629535669392e+02  2.918975276816622e+03
 1.144840445542960e+03 -1.815578734656702e+02  2.918975276816622e+03
 1.144823604208363e+03 -1.856941247512548e+02  2.918975276816622e+03
 1.144824342432918e+03 -1.873631612231773e+02  2.918975276816622e+03
 1.144801431729013e+03 -1.889516285619015e+02  2.918975276816622e+03
 1.144820280268632e+03 -1.902483529191873e+02  2.918975276816622e+03
 1.144822620344103e+03 -1.949424100799546e+02  2.918975276816622e+03
 1.144822679044285e+03 -1.987743530392790e+02  2.918975276816622e+03
 1.144820560680021e+03 -2.029070226177932e+02  2.918975276816622e+03
 1.144819132478951e+03 -2.067942086988572e+02  2.918975276816622e+03
 1.144816787646425e+03 -2.083980087526938e+02  2.918975276816622e+03
 1.144817604398314e+03 -2.101017306997778e+02  2.918975276816622e+03
 1.144816633289027e+03 -2.148037711994856e+02  2.918975276816622e+03
 1.144819101031581e+03 -2.169536950744238e+02  2.918975276816622e+03
 1.144814586620495e+03 -2.186600256396569e+02  2.918975276816622e+03
 1.144810062068176e+03 -2.237466285592055e+02  2.918975276816622e+03
 1.144797633217169e+03 -2.251442215775306e+02  2.918975276816622e+03
 1.144813224777834e+03 -2.288520693307859e+02  2.918975276816622e+03
 1.144792887393670e+03 -2.301688899944528e+02  2.918975276816622e+03
 1.144833372073744e+03 -2.329504045326738e+02  2.918975276816622e+03
 1.144790354566917e+03 -2.341809293392201e+02  2.918975276816622e+03
 1.144861341226040e+03 -2.368070882160484e+02  2.918975276816622e+03
 1.144773805848926e+03 -2.389370562966285e+02  2.918975276816622e+03
 1.144911400453168e+03 -2.414097507399599e+02  2.918975276816622e+03
 1.144830084389502e+03 -2.449759612403681e+02  2.918975276816622e+03
 1.144963832240336e+03 -2.480135966253929e+02  2.918975276816622e+03
 1.144917797828681e+03 -2.489380450375990e+02  2.918975276816622e+03
 1.145024362758369e+03 -2.532364240740966e+02  2.918975276816622e+03
 1.144403828651712e+03 -2.557406828698103e+02  2.918975276816622e+03
 1.146381299943355e+03 -2.557435369834735e+02  2.918975276816622e+03
 1.145866972952620e+03 -2.584516626602674e+02  2.918975276816622e+03
 1.145123296727111e+03 -2.607494896120137e+02  2.918975276816622e+03
 1.145038450739429e+03 -2.658204733897581e+02  2.918975276816622e+03
 1.145051074856084e+03 -2.690384335965563e+02  2.918975276816622e+03
 1.145031451558841e+03 -2.700232781464393e+02  2.918975276816622e+03
 1.145075125469830e+03 -2.727509587298511e+02  2.918975276816622e+03
 1.145066481639973e+03 -2.733917182751579e+02  2.918975276816622e+03
 1.145098543793164e+03 -2.758385541704722e+02  2.918975276816622e+03
 1.145107933289089e+03 -2.785663899523683e+02  2.918975276816622e+03
 1.145142436472683e+03 -2.833283897286123e+02  2.918975276816622e+03
 1.145146323555444e+03 -2.867311928230261e+02  2.918975276816622e+03
 1.145170165892538e+03 -2.885905959899723e+02  2.918975276816622e+03
 1.145144259549207e+03 -2.907391784799422e+02  2.918975276816622e+03
 1.145188994374530e+03 -2.931556296325771e+02  2.918975276816622e+03
 1.145134592096706e+03 -2.950511791293978e+02  2.918975276816622e+03
 1.145186938009272e+03 -2.987360579475964e+02  2.918975276816622e+03
 1.145151527448285e+03 -2.991341238589421e+02  2.918975276816622e+03
 1.145215591196117e+03 -3.026241695884024e+02  2.918975276816622e+03
 1.145177050828303e+03 -3.036163454253704e+02  2.918975276816622e+03
 1.145123084647000e+03 -3.082305505435536e+02  2.918975276816622e+03
 1.145127330171217e+03 -3.101478663428002e+02  2.918975276816622e+03
 1.145029264071999e+03 -3.123264278308748e+02  2.918975276816622e+03
 1.145096314316455e+03 -3.136016834072800e+02  2.918975276816622e+03
 1.144987173209429e+03 -3.149373975680901e+02  2.918975276816622e+03
 1.145055946610753e+03 -3.179657958199557e+02  2.918975276816622e+03
 1.144926242639942e+03 -3.190949614622226e+02  2.918975276816622e+03
 1.145024993773268e+03 -3.215546907790520e+02  2.918975276816622e+03
 1.144861498018548e+03 -3.233735234110895e+02  2.918975276816622e+03
 1.144953422937351e+03 -3.260912649764976e+02  2.918975276816622e+03
 1.144875901381327e+03 -3.263835367116424e+02  2.918975276816622e+03
 1.144998253057174e+03 -3.290233961588863e+02  2.918975276816622e+03
 1.144808175277812e+03 -3.317038503065639e+02  2.918975276816622e+03
 1.144973197365007e+03 -3.343460948793199e+02  2.918975276816622e+03
 1.144822144282901e+03 -3.380255847986434e+02  2.918975276816622e+03
 1.144924870985870e+03 -3.388970087008861e+02  2.918975276816622e+03
 1.144703275889925e+03 -3.406692265132042e+02  2.918975276816622e+03
 1.144902252385775e+03 -3.431777635462101e+02  2.918975276816622e+03
 1.144650744736769e+03 -3.450149975638646e+02  2.918975276816622e+03
 1.144870256405615e+03 -3.487624098109009e+02  2.918975276816622e+03
 1.144580731650778e+03 -3.513847710646681e+02  2.918975276816622e+03
 1.144798587870915e+03 -3.533741369442487e+02  2.918975276816622e+03
 1.144582453048310e+03 -3.571278689863496e+02  2.918975276816622e+03
 1.144680279648358e+03 -3.597249419553847e+02  2.918975276816622e+03
 1.144607521932267e+03 -3.600653145034746e+02  2.918975276816622e+03
 1.144707538039613e+03 -3.618363912385342e+02  2.918975276816622e+03
 1.144730959682989e+03 -3.669006251921193e+02  2.918975276816622e+03
 1.144764710425023e+03 -3.685799915312169e+02  2.918975276816622e+03
 1.144800459076925e+03 -3.713662623620198e+02  2.918975276816622e+03
 1.144797824165890e+03 -3.716974707351605e+02  2.918975276816622e+03
 1.144851608827141e+03 -3.752701424624034e+02  2.918975276816622e+03
 1.144881720394688e+03 -3.778672153788947e+02  2.918975276816622e+03
 1.144940751403144e+03 -3.828974835404376e+02  2.918975276816622e+03
 1.144945561436273e+03 -3.834846312296060e+02  2.918975276816622e+03
1.144998386882526e+03 3.848370537169918e+02 2.918975276816622e+03
1.145022631688005e+03 3.813358504882810e+02 2.918975276816622e+03
1.145063151995678e+03 3.788397013655975e+02 2.918975276816622e+03
1.145054614993484e+03 3.778980508340263e+02 2.918975276816622e+03
1.145089189029052e+03 3.763883111120120e+02 2.918975276816622e+03
1.145094211196861e+03 3.736754989836190e+02 2.918975276816622e+03
1.145117269422871e+03 3.728220879408929e+02 2.918975276816622e+03
1.145118871523781e+03 3.712238981097998e+02 2.918975276816622e+03
1.145156653815603e+03 3.673007738571027e+02 2.918975276816622e+03
1.145189944665203e+03 3.653863494263574e+02 2.918975276816622e+03
1.145191070950934e+03 3.626224317055863e+02 2.918975276816622e+03
1.145275523503463e+03 3.599622881326051e+02 2.918975276816622e+03
1.145236489927378e+03 3.581858937030992e+02 2.918975276816622e+03
1.145317595579209e+03 3.571413351547590e+02 2.918975276816622e+03
1.145269534541906e+03 3.554439209141778e+02 2.918975276816622e+03
1.145392863035878e+03 3.537455042021306e+02 2.918975276816622e+03
1.145346385368382e+03 3.517053744933754e+02 2.918975276816622e+03
1.145471391085337e+03 3.504192601892368e+02 2.918975276816622e+03
1.145432637107276e+03 3.480827927346401e+02 2.918975276816622e+03
1.145566406155884e+03 3.467877577207288e+02 2.918975276816622e+03
1.145528041400402e+03 3.446494062593931e+02 2.918975276816622e+03
1.145644730460214e+03 3.435931823544481e+02 2.918975276816622e+03
1.145611280378997e+03 3.416580917291282e+02 2.918975276816622e+03
1.145761758371467e+03 3.399070243747842e+02 2.918975276816622e+03
1.145746501228121e+03 3.381406949093125e+02 2.918975276816622e+03
1.145954518018639e+03 3.347077072968640e+02 2.918975276816622e+03
1.146079032204638e+03 3.315812999350806e+02 2.918975276816622e+03
1.146340848949372e+03 3.289770625540644e+02 2.918975276816622e+03
1.146359668167800e+03 3.285947200936674e+02 2.918975276816622e+03
1.146022479358043e+03 3.260618624764801e+02 2.918975276816622e+03
1.146137289961865e+03 3.235406143336588e+02 2.918975276816622e+03
1.145853675704725e+03 3.213853273225372e+02 2.918975276816622e+03
1.146019126058063e+03 3.193247544883164e+02 2.918975276816622e+03
1.145839781702076e+03 3.186062958559904e+02 2.918975276816622e+03
1.145983371909399e+03 3.161279816302425e+02 2.918975276816622e+03
1.145769923427043e+03 3.135090630941280e+02 2.918975276816622e+03
1.145887613657070e+03 3.119225383623741e+02 2.918975276816622e+03
1.145799646791799e+03 3.116082103863017e+02 2.918975276816622e+03
1.145853572176178e+03 3.096459057293144e+02 2.918975276816622e+03
1.145758454032233e+03 3.078219439458729e+02 2.918975276816622e+03
1.145767091433988e+03 3.065057797743873e+02 2.918975276816622e+03
1.145698083806970e+03 3.020036019561120e+02 2.918975276816622e+03
1.145691618644152e+03 3.014795543474234e+02 2.918975276816622e+03
1.145660573173522e+03 2.989085825380669e+02 2.918975276816622e+03
1.145635656583443e+03 2.975154213090465e+02 2.918975276816622e+03
1.145610291869585e+03 2.954131457543069e+02 2.918975276816622e+03
1.145576253385915e+03 2.938311502496853e+02 2.918975276816622e+03
1.145547301848581e+03 2.919074874758437e+02 2.918975276816622e+03
1.145466158297895e+03 2.870510585035611e+02 2.918975276816622e+03
1.145438793644782e+03 2.850083169200921e+02 2.918975276816622e+03
1.145382905067346e+03 2.830152495605620e+02 2.918975276816622e+03
1.145352344468889e+03 2.808730997857338e+02 2.918975276816622e+03
1.145262781414638e+03 2.773379520481429e+02 2.918975276816622e+03
1.145222909742726e+03 2.752958658668530e+02 2.918975276816622e+03
1.145124298684704e+03 2.711713868558144e+02 2.918975276816622e+03
1.145028600215379e+03 2.666349095985216e+02 2.918975276816622e+03
1.145005420574320e+03 2.651193373839540e+02 2.918975276816622e+03
1.144892437723560e+03 2.623617515614458e+02 2.918975276816622e+03
1.144876036322081e+03 2.586456790760205e+02 2.918975276816622e+03
1.144840490711053e+03 2.579810380680918e+02 2.918975276816622e+03
1.144776195810761e+03 2.533818066799510e+02 2.918975276816622e+03
1.144852494832927e+03 2.515059749889738e+02 2.918975276816622e+03
1.144735786349113e+03 2.501153551280243e+02 2.918975276816622e+03
1.144701391291466e+03 2.486227676997689e+02 2.918975276816622e+03
1.144735287931120e+03 2.470674194149310e+02 2.918975276816622e+03
1.144716538142868e+03 2.457690786133752e+02 2.918975276816622e+03
1.144723616838365e+03 2.445396828885065e+02 2.918975276816622e+03
1.144720047421638e+03 2.429319210866554e+02 2.918975276816622e+03
1.144733496999643e+03 2.421046608555769e+02 2.918975276816622e+03
1.144735819673604e+03 2.402837391328560e+02 2.918975276816622e+03
1.144789175226657e+03 2.355629729500282e+02 2.918975276816622e+03
1.144797439404465e+03 2.339626535529871e+02 2.918975276816622e+03
1.144823378764645e+03 2.313415113375011e+02 2.918975276816622e+03
1.144881192809810e+03 2.285649831788081e+02 2.918975276816622e+03
1.144877931641036e+03 2.274093174255755e+02 2.918975276816622e+03
1.144870321275273e+03 2.262933549767652e+02 2.918975276816622e+03
1.144923248758896e+03 2.238489231761757e+02 2.918975276816622e+03
1.145035845263688e+03 2.218253923189145e+02 2.918975276816622e+03
1.144965117927546e+03 2.202233448480459e+02 2.918975276816622e+03
1.144970906397300e+03 2.158116556390294e+02 2.918975276816622e+03
1.145071226505533e+03 2.127226581863965e+02 2.918975276816622e+03
1.145058099656116e+03 2.111857626754668e+02 2.918975276816622e+03
1.145175636297109e+03 2.086759744041523e+02 2.918975276816622e+03
1.145122788326588e+03 2.076408013093744e+02 2.918975276816622e+03
1.145239334638271e+03 2.062502071154506e+02 2.918975276816622e+03
1.145199229132209e+03 2.060533563899444e+02 2.918975276816622e+03
1.145247497735628e+03 2.046593492785555e+02 2.918975276816622e+03
1.145187642558469e+03 2.039856520713105e+02 2.918975276816622e+03
1.145198367744296e+03 2.026583250498918e+02 2.918975276816622e+03
1.145149575424680e+03 2.013779415833101e+02 2.918975276816622e+03
1.145162305668925e+03 2.002713965060123e+02 2.918975276816622e+03
1.145105775874500e+03 1.954313948183365e+02 2.918975276816622e+03
1.145017545652126e+03 1.921959789355575e+02 2.918975276816622e+03
1.145051589117504e+03 1.879814008890679e+02 2.918975276816622e+03
1.144979799045137e+03 1.863300122792883e+02 2.918975276816622e+03
1.144958466334903e+03 1.836246669440838e+02 2.918975276816622e+03
1.144833922652645e+03 1.816423258144583e+02 2.918975276816622e+03
1.144913744318818e+03 1.803865418330145e+02 2.918975276816622e+03
1.144847056778377e+03 1.757190062222843e+02 2.918975276816622e+03
1.144856059226850e+03 1.728796694115534e+02 2.918975276816622e+03
1.144821621036334e+03 1.711755518986680e+02 2.918975276816622e+03
1.144872617648039e+03 1.685842278384498e+02 2.918975276816622e+03
1.144704227136991e+03 1.678262916497693e+02 2.918975276816622e+03
1.144693686282345e+03 1.667302712943531e+02 2.918975276816622e+03
1.144775149065588e+03 1.660126449875358e+02 2.918975276816622e+03
1.144741567968935e+03 1.645705478569523e+02 2.918975276816622e+03
1.144502864627884e+03 1.639117404322958e+02 2.918975276816622e+03
1.144966941953438e+03 1.627678242117183e+02 2.918975276816622e+03
1.144683640104240e+03 1.568296148740076e+02 2.918975276816622e+03
1.144845956145978e+03 1.538456756030462e+02 2.918975276816622e+03
1.145287976862433e+03 1.512111366065577e+02 2.918975276816622e+03
1.145380404860790e+03 1.473785042301995e+02 2.918975276816622e+03
1.145428706771608e+03 1.460820833191934e+02 2.918975276816622e+03
1.145589942188088e+03 1.450706140980799e+02 2.918975276816622e+03
1.145595684692994e+03 1.450004173216184e+02 2.918975276816622e+03
1.145398390195209e+03 1.438769487266817e+02 2.918975276816622e+03
1.145247033453032e+03 1.418370810497071e+02 2.918975276816622e+03
1.145169224028936e+03 1.404106696776265e+02 2.918975276816622e+03
1.145019479789587e+03 1.360086068163824e+02 2.918975276816622e+03
1.144991663599021e+03 1.329083758906078e+02 2.918975276816622e+03
1.144926148640349e+03 1.312774777532288e+02 2.918975276816622e+03
1.144981469085229e+03 1.289130424983938e+02 2.918975276816622e+03
1.144936264339761e+03 1.277937988389682e+02 2.918975276816622e+03
1.145023329029304e+03 1.264603273283448e+02 2.918975276816622e+03
1.145009387469666e+03 1.262936095677377e+02 2.918975276816622e+03
1.145098421104399e+03 1.249991221975724e+02 2.918975276816622e+03
1.145096367586802e+03 1.249679176358163e+02 2.918975276816622e+03
1.144987008809659e+03 1.236532789157025e+02 2.918975276816622e+03
1.144905098174889e+03 1.219685218933855e+02 2.918975276816622e+03
1.144825142520695e+03 1.204819258815940e+02 2.918975276816622e+03
1.144677403279256e+03 1.158923603020886e+02 2.918975276816622e+03
1.144657267589455e+03 1.123682150209574e+02 2.918975276816622e+03
1.144649102919752e+03 1.106731117638494e+02 2.918975276816622e+03
1.144679519337007e+03 1.091526964308696e+02 2.918975276816622e+03
1.144704899464845e+03 1.069933677154444e+02 2.918975276816622e+03
1.144795112887007e+03 1.053125052209033e+02 2.918975276816622e+03
1.144891037325740e+03 1.020324336491673e+02 2.918975276816622e+03
1.144972972273009e+03 1.006268159432218e+02 2.918975276816622e+03
1.145153384521492e+03 9.562305756561503e+01 2.918975276816622e+03
1.145322004205213e+03 9.377031068883578e+01 2.918975276816622e+03
1.145872999332647e+03 8.351407246357644e+01 2.918975276816622e+03
1.146113033463832e+03 8.034313895746781e+01 2.918975276816622e+03
1.146112098158847e+03 8.034402115038648e+01 2.918975276816622e+03
1.146144264371578e+03 7.785268298539015e+01 2.918975276816622e+03
1.146117458686616e+03 7.587472432763028e+01 2.918975276816622e+03
1.146595809352859e+03 7.005664274113187e+01 2.918975276816622e+03
1.146465022078951e+03 6.456661036365438e+01 2.918975276816622e+03
1.147132101801223e+03 6.152082370960225e+01 2.918975276816622e+03
1.146887029713740e+03 5.757431253577417e+01 2.918975276816622e+03
1.146835151467877e+03 5.713776362932472e+01 2.918975276816622e+03
1.146536588388744e+03 5.503223076096543e+01 2.918975276816622e+03
1.146599300561975e+03 5.312420028504191e+01 2.918975276816622e+03
1.146411024803952e+03 5.064601539021999e+01 2.918975276816622e+03
1.146477563662474e+03 4.937831818941661e+01 2.918975276816622e+03
1.146298334817605e+03 4.777398323867097e+01 2.918975276816622e+03
1.146335770714488e+03 4.701690698782094e+01 2.918975276816622e+03
1.146239381651229e+03 4.421431469165596e+01 2.918975276816622e+03
1.146253647775797e+03 4.241361712970025e+01 2.918975276816622e+03
1.146280519743453e+03 4.185828957519540e+01 2.918975276816622e+03
1.146170157438120e+03 4.028253639888180e+01 2.918975276816622e+03
1.146172405910481e+03 3.823282996025279e+01 2.918975276816622e+03
1.146151326298754e+03 3.606807816581467e+01 2.918975276816622e+03
1.146196701584228e+03 3.385410355595157e+01 2.918975276816622e+03
1.146188660691831e+03 2.914586424766199e+01 2.918975276816622e+03
1.146194702095563e+03 2.724434604543457e+01 2.918975276816622e+03
1.146192322563266e+03 2.362205155114508e+01 2.918975276816622e+03
1.146192597505012e+03 2.074388067920385e+01 2.918975276816622e+03
1.146167662047578e+03 1.747917550663947e+01 2.918975276816622e+03
1.146129969646757e+03 1.291901446949127e+01 2.918975276816622e+03
1.146066180541065e+03 1.087055092525667e+01 2.918975276816622e+03
1.146105824351480e+03 9.855776512547179e+00 2.918975276816622e+03
1.146005992667759e+03 7.782858086571121e+00 2.918975276816622e+03
1.146015310477266e+03 4.468692933304776e+00 2.918975276816622e+03
1.145918011545384e+03 2.826266115664916e+00 2.918975276816622e+03
-1.157466447975938e+03  1.136854128840505e+00 -2.918975276816622e+03
-1.157390509837111e+03 -5.926630103172036e+00 -2.918975276816622e+03
-1.157349911058129e+03 -1.050048703572144e+01 -2.918975276816622e+03
-1.157336875960816e+03 -1.062190768978256e+01 -2.918975276816622e+03
-1.157433716355514e+03 -1.381238230861221e+01 -2.918975276816622e+03
-1.157337560579611e+03 -1.487569936511778e+01 -2.918975276816622e+03
-1.157337495922375e+03 -1.681243129362399e+01 -2.918975276816622e+03
-1.157260878300431e+03 -2.140825159640488e+01 -2.918975276816622e+03
-1.157272100266510e+03 -2.201888760836909e+01 -2.918975276816622e+03
-1.157319253886994e+03 -2.577495898480764e+01 -2.918975276816622e+03
-1.157203578579308e+03 -2.845749877301575e+01 -2.918975276816622e+03
-1.157106325792361e+03 -3.287990335454676e+01 -2.918975276816622e+03
-1.157107414073653e+03 -3.443712890844378e+01 -2.918975276816622e+03
-1.157023048491347e+03 -3.595834371899632e+01 -2.918975276816622e+03
-1.157052412488237e+03 -3.714421251144057e+01 -2.918975276816622e+03
-1.156899455423834e+03 -4.050242367007731e+01 -2.918975276816622e+03
-1.156977263085443e+03 -4.128853231197995e+01 -2.918975276816622e+03
-1.156797501736190e+03 -4.356961345707202e+01 -2.918975276816622e+03
-1.156892788953718e+03 -4.525757859886417e+01 -2.918975276816622e+03
-1.156808114451121e+03 -4.565175889560772e+01 -2.918975276816622e+03
-1.156906060450252e+03 -4.738454043550413e+01 -2.918975276816622e+03
-1.156772480928723e+03 -4.960862192975151e+01 -2.918975276816622e+03
-1.156886867187879e+03 -5.031962073586308e+01 -2.918975276816622e+03
-1.156701107035370e+03 -5.216120882017863e+01 -2.918975276816622e+03
-1.156775541544940e+03 -5.512500860469923e+01 -2.918975276816622e+03
-1.156659018425023e+03 -5.623313349062866e+01 -2.918975276816622e+03
-1.156742279315058e+03 -5.864853436049980e+01 -2.918975276816622e+03
-1.156656547515465e+03 -6.046946198374405e+01 -2.918975276816622e+03
-1.156692417587479e+03 -6.139704552606788e+01 -2.918975276816622e+03
-1.156652165325036e+03 -6.359397057495722e+01 -2.918975276816622e+03
-1.156664771250086e+03 -6.486835462899268e+01 -2.918975276816622e+03
-1.156648580238168e+03 -6.579535098118460e+01 -2.918975276816622e+03
-1.156652585127795e+03 -6.745252736627700e+01 -2.918975276816622e+03
-1.156648985679468e+03 -6.993936302366365e+01 -2.918975276816622e+03
-1.156639560232396e+03 -7.048468760543176e+01 -2.918975276816622e+03
-1.156648171092861e+03 -7.198409510298436e+01 -2.918975276816622e+03
-1.156624294920213e+03 -7.331492680467207e+01 -2.918975276816622e+03
-1.156643322017797e+03 -7.528563092533626e+01 -2.918975276816622e+03
-1.156613909128327e+03 -7.615798757093039e+01 -2.918975276816622e+03
-1.156601963520699e+03 -7.680242539729562e+01 -2.918975276816622e+03
-1.156600342353288e+03 -7.865389954647499e+01 -2.918975276816622e+03
-1.156619921291328e+03 -8.042762073796635e+01 -2.918975276816622e+03
-1.156596733286665e+03 -8.127463206190154e+01 -2.918975276816622e+03
-1.156603303622703e+03 -8.345190358644719e+01 -2.918975276816622e+03
-1.156587281877431e+03 -8.485635216436128e+01 -2.918975276816622e+03
-1.156585398638787e+03 -8.592921535633975e+01 -2.918975276816622e+03
-1.156582914470354e+03 -8.732369222153113e+01 -2.918975276816622e+03
-1.156551271241630e+03 -8.972017034560423e+01 -2.918975276816622e+03
-1.156568746410675e+03 -9.053484376313025e+01 -2.918975276816622e+03
-1.156525272146044e+03 -9.204365435682114e+01 -2.918975276816622e+03
-1.156553009547324e+03 -9.528395056265974e+01 -2.918975276816622e+03
-1.156488870087633e+03 -9.652175758167462e+01 -2.918975276816622e+03
-1.156546187592650e+03 -9.895131316465563e+01 -2.918975276816622e+03
-1.156455875497490e+03 -1.012014471752865e+02 -2.918975276816622e+03
-1.156486966367707e+03 -1.013819926131833e+02 -2.918975276816622e+03
-1.156397016972002e+03 -1.035843385173524e+02 -2.918975276816622e+03
-1.156450116206662e+03 -1.052645096789719e+02 -2.918975276816622e+03
-1.156382080626443e+03 -1.065797361977207e+02 -2.918975276816622e+03
-1.156432503410778e+03 -1.071453290852323e+02 -2.918975276816622e+03
-1.156382423192444e+03 -1.095374545701878e+02 -2.918975276816622e+03
-1.156412746115281e+03 -1.108357393514409e+02 -2.918975276816622e+03
-1.156384295994382e+03 -1.128383138131124e+02 -2.918975276816622e+03
-1.156386971011817e+03 -1.134694494218736e+02 -2.918975276816622e+03
-1.156395614615177e+03 -1.182517745784410e+02 -2.918975276816622e+03
-1.156363774950122e+03 -1.204090936745724e+02 -2.918975276816622e+03
-1.156402151186500e+03 -1.212052503475082e+02 -2.918975276816622e+03
-1.156369761410366e+03 -1.234231338366201e+02 -2.918975276816622e+03
-1.156411790186689e+03 -1.247111782360706e+02 -2.918975276816622e+03
-1.156382437369742e+03 -1.258514692160494e+02 -2.918975276816622e+03
-1.156422417914393e+03 -1.273479972386956e+02 -2.918975276816622e+03
-1.156390334723854e+03 -1.298222794717151e+02 -2.918975276816622e+03
-1.156443633975730e+03 -1.315307720065109e+02 -2.918975276816622e+03
-1.156410065952692e+03 -1.324488472255997e+02 -2.918975276816622e+03
-1.156455710031845e+03 -1.332852671165987e+02 -2.918975276816622e+03
-1.156422731625167e+03 -1.351455585524609e+02 -2.918975276816622e+03
-1.156480365737659e+03 -1.362139654119413e+02 -2.918975276816622e+03
-1.156443329944384e+03 -1.385013133079631e+02 -2.918975276816622e+03
-1.156521997619471e+03 -1.403447650635904e+02 -2.918975276816622e+03
-1.156467986940350e+03 -1.413132823534391e+02 -2.918975276816622e+03
-1.156567805808737e+03 -1.434395303542694e+02 -2.918975276816622e+03
-1.156494014980983e+03 -1.448638385352920e+02 -2.918975276816622e+03
-1.156595156944752e+03 -1.459018757861498e+02 -2.918975276816622e+03
-1.156498473962995e+03 -1.476707418524248e+02 -2.918975276816622e+03
-1.156687497059007e+03 -1.515950886533725e+02 -2.918975276816622e+03
-1.156561111596592e+03 -1.549671727904464e+02 -2.918975276816622e+03
-1.156727893533146e+03 -1.561448089354116e+02 -2.918975276816622e+03
-1.156547336062721e+03 -1.586009095143809e+02 -2.918975276816622e+03
-1.156767916819667e+03 -1.604404594009981e+02 -2.918975276816622e+03
-1.156613044713581e+03 -1.610784108138051e+02 -2.918975276816622e+03
-1.156803046300683e+03 -1.633367504873203e+02 -2.918975276816622e+03
-1.156697874453151e+03 -1.645411792682635e+02 -2.918975276816622e+03
-1.156898784994131e+03 -1.661273568898034e+02 -2.918975276816622e+03
-1.156722189519351e+03 -1.674629276443714e+02 -2.918975276816622e+03
-1.156875846733127e+03 -1.701350482090987e+02 -2.918975276816622e+03
-1.156789928295500e+03 -1.721958498253240e+02 -2.918975276816622e+03
-1.156833103518413e+03 -1.730881242475276e+02 -2.918975276816622e+03
-1.156862661600609e+03 -1.770690336487416e+02 -2.918975276816622e+03
-1.156861092284950e+03 -1.823099224533636e+02 -2.918975276816622e+03
-1.157008789521147e+03 -1.844763327765176e+02 -2.918975276816622e+03
-1.156937139725916e+03 -1.857685738275660e+02 -2.918975276816622e+03
-1.156845214584255e+03 -1.868046953156858e+02 -2.918975276816622e+03
-1.156929634202006e+03 -1.894674463882142e+02 -2.918975276816622e+03
-1.156944020334513e+03 -1.914298649133867e+02 -2.918975276816622e+03
-1.156999023347232e+03 -1.949251270497176e+02 -2.918975276816622e+03
-1.156971242414598e+03 -1.973305839647710e+02 -2.918975276816622e+03
-1.157017571459900e+03 -1.985276833141750e+02 -2.918975276816622e+03
-1.156943710136252e+03 -2.003154132397068e+02 -2.918975276816622e+03
-1.156999243084317e+03 -2.008895210706795e+02 -2.918975276816622e+03
-1.156937929062059e+03 -2.031958186445464e+02 -2.918975276816622e+03
-1.156960196800786e+03 -2.044894070068087e+02 -2.918975276816622e+03
-1.156932162419015e+03 -2.055351545339183e+02 -2.918975276816622e+03
-1.156936093234877e+03 -2.071986903479086e+02 -2.918975276816622e+03
-1.156890194821066e+03 -2.095810679179334e+02 -2.918975276816622e+03
-1.156901756402679e+03 -2.108558715608455e+02 -2.918975276816622e+03
-1.156852809996451e+03 -2.123461361529202e+02 -2.918975276816622e+03
-1.156878204245563e+03 -2.152714636471863e+02 -2.918975276816622e+03
-1.156835630743825e+03 -2.158119939239936e+02 -2.918975276816622e+03
-1.156868975425292e+03 -2.184038583211656e+02 -2.918975276816622e+03
-1.156813400192023e+03 -2.207621856082899e+02 -2.918975276816622e+03
-1.156825906355545e+03 -2.209311375648469e+02 -2.918975276816622e+03
-1.156765477164978e+03 -2.231816995664751e+02 -2.918975276816622e+03
-1.156767621606057e+03 -2.247487562626489e+02 -2.918975276816622e+03
-1.156748833265309e+03 -2.258145388682407e+02 -2.918975276816622e+03
-1.156741758821777e+03 -2.272153803090469e+02 -2.918975276816622e+03
-1.156702865085090e+03 -2.297119828639228e+02 -2.918975276816622e+03
-1.156666458708160e+03 -2.312319435176791e+02 -2.918975276816622e+03
-1.156711500321715e+03 -2.318691385323798e+02 -2.918975276816622e+03
-1.156634368599405e+03 -2.409977180459744e+02 -2.918975276816622e+03
-1.156631723761001e+03 -2.440743927736614e+02 -2.918975276816622e+03
-1.156714404593668e+03 -2.467151595768610e+02 -2.918975276816622e+03
-1.156610468589815e+03 -2.489562103742333e+02 -2.918975276816622e+03
-1.156718966042059e+03 -2.498148549703065e+02 -2.918975276816622e+03
-1.156546890572836e+03 -2.516654104345523e+02 -2.918975276816622e+03
-1.156750633252868e+03 -2.544126040100484e+02 -2.918975276816622e+03
-1.156478602523038e+03 -2.564180776200643e+02 -2.918975276816622e+03
-1.156699611728556e+03 -2.602808051720878e+02 -2.918975276816622e+03
-1.156437911004799e+03 -2.612070762845874e+02 -2.918975276816622e+03
-1.156794528887887e+03 -2.629654276212059e+02 -2.918975276816622e+03
-1.156437455624530e+03 -2.647973087011543e+02 -2.918975276816622e+03
-1.156802229973178e+03 -2.666288454667054e+02 -2.918975276816622e+03
-1.156455161812193e+03 -2.678959413847098e+02 -2.918975276816622e+03
-1.156860972890451e+03 -2.691082967923390e+02 -2.918975276816622e+03
-1.156443022321142e+03 -2.703593834179106e+02 -2.918975276816622e+03
-1.156854682704521e+03 -2.718095526662346e+02 -2.918975276816622e+03
-1.156434870817773e+03 -2.733700903006251e+02 -2.918975276816622e+03
-1.156838185577399e+03 -2.752599940188234e+02 -2.918975276816622e+03
-1.156431934171981e+03 -2.763953998311535e+02 -2.918975276816622e+03
-1.156851033867365e+03 -2.775617036906042e+02 -2.918975276816622e+03
-1.156447926698974e+03 -2.796941601859930e+02 -2.918975276816622e+03
-1.156913022278248e+03 -2.819956014366238e+02 -2.918975276816622e+03
-1.156533004342057e+03 -2.861492390759809e+02 -2.918975276816622e+03
-1.156992655214579e+03 -2.884913018365624e+02 -2.918975276816622e+03
-1.156642410494654e+03 -2.894220554734543e+02 -2.918975276816622e+03
-1.156985956333618e+03 -2.933586207854373e+02 -2.918975276816622e+03
-1.156753706646766e+03 -2.949355339970591e+02 -2.918975276816622e+03
-1.156844783402714e+03 -3.010736736979457e+02 -2.918975276816622e+03
-1.156816324039019e+03 -3.018290504216919e+02 -2.918975276816622e+03
-1.156873463631304e+03 -3.039458917780359e+02 -2.918975276816622e+03
-1.156806101406266e+03 -3.053369486144023e+02 -2.918975276816622e+03
-1.156831339274252e+03 -3.075337464476303e+02 -2.918975276816622e+03
-1.156803868649065e+03 -3.095625553686031e+02 -2.918975276816622e+03
-1.156756311897880e+03 -3.152482504320487e+02 -2.918975276816622e+03
-1.156715715235342e+03 -3.172742225651155e+02 -2.918975276816622e+03
-1.156778277120912e+03 -3.189806903364327e+02 -2.918975276816622e+03
-1.156673830329963e+03 -3.203866852305599e+02 -2.918975276816622e+03
-1.156766987238697e+03 -3.218635014134546e+02 -2.918975276816622e+03
-1.156665258165347e+03 -3.236127582408006e+02 -2.918975276816622e+03
-1.156771843600180e+03 -3.243451164211856e+02 -2.918975276816622e+03
-1.156621831282486e+03 -3.261536096959080e+02 -2.918975276816622e+03
-1.156742150087150e+03 -3.268891710521546e+02 -2.918975276816622e+03
-1.156590002772197e+03 -3.288594049119836e+02 -2.918975276816622e+03
-1.156710642154682e+03 -3.299144615410046e+02 -2.918975276816622e+03
-1.156574159540303e+03 -3.312448889567406e+02 -2.918975276816622e+03
-1.156650433132283e+03 -3.347626189657890e+02 -2.918975276816622e+03
-1.156533172780076e+03 -3.353793110791592e+02 -2.918975276816622e+03
-1.156667392893915e+03 -3.365331408559454e+02 -2.918975276816622e+03
-1.156520137920867e+03 -3.385184640927572e+02 -2.918975276816622e+03
-1.156602565122214e+03 -3.413913287508715e+02 -2.918975276816622e+03
-1.156499979215807e+03 -3.428062600678579e+02 -2.918975276816622e+03
-1.156540254953018e+03 -3.441156755114509e+02 -2.918975276816622e+03
-1.156413033684581e+03 -3.485489675465160e+02 -2.918975276816622e+03
-1.156397683181802e+03 -3.485816226302472e+02 -2.918975276816622e+03
-1.156560819532510e+03 -3.533076881760254e+02 -2.918975276816622e+03
-1.156662400523077e+03 -3.575650573022720e+02 -2.918975276816622e+03
-1.156669947922470e+03 -3.587017207928700e+02 -2.918975276816622e+03
-1.156732616329414e+03 -3.622794140017964e+02 -2.918975276816622e+03
-1.156705014832846e+03 -3.629114884048042e+02 -2.918975276816622e+03
-1.156762560188959e+03 -3.647358079912544e+02 -2.918975276816622e+03
-1.156745357540645e+03 -3.672138678643523e+02 -2.918975276816622e+03
-1.156809751650297e+03 -3.710759120702514e+02 -2.918975276816622e+03
-1.156798619675798e+03 -3.725478945562446e+02 -2.918975276816622e+03
-1.156832701408373e+03 -3.741875357643071e+02 -2.918975276816622e+03
-1.156822964478783e+03 -3.768213807781343e+02 -2.918975276816622e+03
-1.156849351631795e+03 -3.776520582768994e+02 -2.918975276816622e+03
-1.156849403651920e+03 -3.798897852884245e+02 -2.918975276816622e+03
-1.156860304586362e+03 -3.803159246136759e+02 -2.918975276816622e+03
-1.156861390821910e+03 -3.825128762149278e+02 -2.918975276816622e+03
-1.156895763734717e+03 -3.861309850129226e+02 -2.918975276816622e+03
-1.156909488951899e+03  3.832696290552255e+02 -2.918975276816622e+03
-1.156903071689437e+03  3.822489789399662e+02 -2.918975276816622e+03
-1.156927206264956e+03  3.786451036824851e+02 -2.918975276816622e+03
-1.156926577389655e+03  3.775412070032380e+02 -2.918975276816622e+03
-1.156933479353261e+03  3.765463433031020e+02 -2.918975276816622e+03
-1.156915668716430e+03  3.736106680883872e+02 -2.918975276816622e+03
-1.156921319630261e+03  3.694453844850311e+02 -2.918975276816622e+03
-1.156940917333937e+03  3.642201571156045e+02 -2.918975276816622e+03
-1.156906723397511e+03  3.601307923136807e+02 -2.918975276816622e+03
-1.156947840831423e+03  3.563759614198952e+02 -2.918975276816622e+03
-1.156923491889291e+03  3.553083598318789e+02 -2.918975276816622e+03
-1.156921486141404e+03  3.532499183577610e+02 -2.918975276816622e+03
-1.156843766402597e+03  3.470786533057197e+02 -2.918975276816622e+03
-1.156830420939385e+03  3.433307135120514e+02 -2.918975276816622e+03
-1.156882471078306e+03  3.380624380191879e+02 -2.918975276816622e+03
-1.156807849781264e+03  3.353823541375310e+02 -2.918975276816622e+03
-1.156746443021103e+03  3.276290390435528e+02 -2.918975276816622e+03
-1.156712152425036e+03  3.263583453589894e+02 -2.918975276816622e+03
-1.156730948351739e+03  3.242116269802565e+02 -2.918975276816622e+03
-1.156722991287081e+03  3.217166842617042e+02 -2.918975276816622e+03
-1.156718634615834e+03  3.202302776170172e+02 -2.918975276816622e+03
-1.156705904683341e+03  3.177839849526628e+02 -2.918975276816622e+03
-1.156701500131449e+03  3.125522083376370e+02 -2.918975276816622e+03
-1.156698873408101e+03  3.105010880610092e+02 -2.918975276816622e+03
-1.156702703076516e+03  3.076956475632686e+02 -2.918975276816622e+03
-1.156675277391456e+03  3.027354458732074e+02 -2.918975276816622e+03
-1.156362315096584e+03  3.026862483870007e+02 -2.918975276816622e+03
-1.156754435194363e+03  2.977835449338464e+02 -2.918975276816622e+03
-1.156745323449487e+03  2.954107798956354e+02 -2.918975276816622e+03
-1.156846674340104e+03  2.943015779176968e+02 -2.918975276816622e+03
-1.156797627853736e+03  2.918477871338609e+02 -2.918975276816622e+03
-1.156925666455446e+03  2.902108431107634e+02 -2.918975276816622e+03
-1.156848018835386e+03  2.880730593119530e+02 -2.918975276816622e+03
-1.156954274671275e+03  2.865838554437041e+02 -2.918975276816622e+03
-1.156855511317304e+03  2.843956320758440e+02 -2.918975276816622e+03
-1.156933655051321e+03  2.820325761571894e+02 -2.918975276816622e+03
-1.156821362167234e+03  2.780259006416253e+02 -2.918975276816622e+03
-1.156900768909258e+03  2.777208446629845e+02 -2.918975276816622e+03
-1.156788542983876e+03  2.753533201933460e+02 -2.918975276816622e+03
-1.156865508559390e+03  2.740304977415703e+02 -2.918975276816622e+03
-1.156668701998210e+03  2.716852648705110e+02 -2.918975276816622e+03
-1.156839134175609e+03  2.710923118997203e+02 -2.918975276816622e+03
-1.156699204307958e+03  2.695767641837596e+02 -2.918975276816622e+03
-1.156830437600389e+03  2.661119591566315e+02 -2.918975276816622e+03
-1.156681362191164e+03  2.648569783260970e+02 -2.918975276816622e+03
-1.156869524639388e+03  2.626714157243707e+02 -2.918975276816622e+03
-1.156683042646157e+03  2.606508921811117e+02 -2.918975276816622e+03
-1.156846629382087e+03  2.599753754826269e+02 -2.918975276816622e+03
-1.156678240492309e+03  2.576730455682041e+02 -2.918975276816622e+03
-1.156868859365539e+03  2.568069792800403e+02 -2.918975276816622e+03
-1.156670583811280e+03  2.551863262535008e+02 -2.918975276816622e+03
-1.156905143635122e+03  2.540650979249084e+02 -2.918975276816622e+03
-1.156750820913180e+03  2.515665680609414e+02 -2.918975276816622e+03
-1.157076215305352e+03  2.502637783821595e+02 -2.918975276816622e+03
-1.156934778794373e+03  2.501196940028771e+02 -2.918975276816622e+03
-1.156902926774095e+03  2.473586975965925e+02 -2.918975276816622e+03
-1.156719445249538e+03  2.460006037336618e+02 -2.918975276816622e+03
-1.156758539221343e+03  2.443405142524113e+02 -2.918975276816622e+03
-1.156630107159688e+03  2.431235721918972e+02 -2.918975276816622e+03
-1.156627274275894e+03  2.409152598455859e+02 -2.918975276816622e+03
-1.156552145593723e+03  2.400908654214128e+02 -2.918975276816622e+03
-1.156558528494032e+03  2.385283171653019e+02 -2.918975276816622e+03
-1.156453653061055e+03  2.353605966017596e+02 -2.918975276816622e+03
-1.156435289247050e+03  2.341468050211188e+02 -2.918975276816622e+03
-1.156381155726010e+03  2.317100739212895e+02 -2.918975276816622e+03
-1.156348364630871e+03  2.298817800695207e+02 -2.918975276816622e+03
-1.156366088287735e+03  2.292186938242984e+02 -2.918975276816622e+03
-1.156290346155020e+03  2.269983921892668e+02 -2.918975276816622e+03
-1.156306764894910e+03  2.257138997727126e+02 -2.918975276816622e+03
-1.156251381340053e+03  2.249099708478215e+02 -2.918975276816622e+03
-1.156289667522027e+03  2.232986617108410e+02 -2.918975276816622e+03
-1.156170156858353e+03  2.207442935550862e+02 -2.918975276816622e+03
-1.156228071881483e+03  2.197821591617515e+02 -2.918975276816622e+03
-1.156123257538167e+03  2.184469991067822e+02 -2.918975276816622e+03
-1.156185507294019e+03  2.153920815155191e+02 -2.918975276816622e+03
-1.156083801108098e+03  2.142034400075339e+02 -2.918975276816622e+03
-1.156176581832760e+03  2.119760528039098e+02 -2.918975276816622e+03
-1.156069786452762e+03  2.100050223542162e+02 -2.918975276816622e+03
-1.156143866465250e+03  2.091513406799410e+02 -2.918975276816622e+03
-1.156040074260723e+03  2.070684326505477e+02 -2.918975276816622e+03
-1.156143308947131e+03  2.053982375707398e+02 -2.918975276816622e+03
-1.156032027986831e+03  2.045091409672096e+02 -2.918975276816622e+03
-1.156128533063333e+03  2.033547245003837e+02 -2.918975276816622e+03
-1.156062938461017e+03  2.008744059924047e+02 -2.918975276816622e+03
-1.156110558457472e+03  1.999156136250076e+02 -2.918975276816622e+03
-1.156057856031755e+03  1.980191566606178e+02 -2.918975276816622e+03
-1.156094053353854e+03  1.949613193576014e+02 -2.918975276816622e+03
-1.156106965854416e+03  1.901073761969389e+02 -2.918975276816622e+03
-1.156138901897226e+03  1.892577334743950e+02 -2.918975276816622e+03
-1.156042108671080e+03  1.872316840063140e+02 -2.918975276816622e+03
-1.156134853942961e+03  1.859434950243808e+02 -2.918975276816622e+03
-1.156024164001249e+03  1.845616210450800e+02 -2.918975276816622e+03
-1.156138595458869e+03  1.832281550719170e+02 -2.918975276816622e+03
-1.156020064632880e+03  1.808991753234581e+02 -2.918975276816622e+03
-1.156110850557280e+03  1.802707756128613e+02 -2.918975276816622e+03
-1.156008516653481e+03  1.787275009772351e+02 -2.918975276816622e+03
-1.156085192597542e+03  1.753803643643901e+02 -2.918975276816622e+03
-1.156009713092844e+03  1.743622715099764e+02 -2.918975276816622e+03
-1.156031459773532e+03  1.719350808824991e+02 -2.918975276816622e+03
-1.156044188231226e+03  1.701062730007180e+02 -2.918975276816622e+03
-1.156044792729988e+03  1.691480418807627e+02 -2.918975276816622e+03
-1.156040657550506e+03  1.670984324053527e+02 -2.918975276816622e+03
-1.156053835994714e+03  1.657497116195173e+02 -2.918975276816622e+03
-1.156063507728389e+03  1.646339893800011e+02 -2.918975276816622e+03
-1.156085936382405e+03  1.632341326902004e+02 -2.918975276816622e+03
-1.156106404278847e+03  1.608823880170022e+02 -2.918975276816622e+03
-1.156114663397604e+03  1.600751579490546e+02 -2.918975276816622e+03
-1.156120016444962e+03  1.585842845757008e+02 -2.918975276816622e+03
-1.156119211556780e+03  1.556741650418302e+02 -2.918975276816622e+03
-1.156127426381272e+03  1.544755588245666e+02 -2.918975276816622e+03
-1.156140018901690e+03  1.519137121517059e+02 -2.918975276816622e+03
-1.156144362395358e+03  1.501811225589514e+02 -2.918975276816622e+03
-1.156152792727413e+03  1.493717074912154e+02 -2.918975276816622e+03
-1.156185381108093e+03  1.471137500243979e+02 -2.918975276816622e+03
-1.156189039327401e+03  1.455894933466237e+02 -2.918975276816622e+03
-1.156193802152487e+03  1.447444613292380e+02 -2.918975276816622e+03
-1.156141397914106e+03  1.433615305435106e+02 -2.918975276816622e+03
-1.156209106913622e+03  1.409441773026431e+02 -2.918975276816622e+03
-1.156173388482594e+03  1.400880000721805e+02 -2.918975276816622e+03
-1.156231567034262e+03  1.385188614389425e+02 -2.918975276816622e+03
-1.156180628154267e+03  1.355307585081488e+02 -2.918975276816622e+03
-1.156268538873549e+03  1.343860907118490e+02 -2.918975276816622e+03
-1.156210344663091e+03  1.319779837451705e+02 -2.918975276816622e+03
-1.156336297140373e+03  1.300402293116337e+02 -2.918975276816622e+03
-1.156236264085718e+03  1.293197866595883e+02 -2.918975276816622e+03
-1.156387454749747e+03  1.270882109029514e+02 -2.918975276816622e+03
-1.156295650613157e+03  1.259393990375858e+02 -2.918975276816622e+03
-1.156431256063066e+03  1.247136306000837e+02 -2.918975276816622e+03
-1.156264428627473e+03  1.232856223203342e+02 -2.918975276816622e+03
-1.156469713357679e+03  1.209664809840778e+02 -2.918975276816622e+03
-1.156362521820925e+03  1.200048479486769e+02 -2.918975276816622e+03
-1.156516485943170e+03  1.185636983655223e+02 -2.918975276816622e+03
-1.156425067933379e+03  1.154767379314104e+02 -2.918975276816622e+03
-1.156555445174974e+03  1.143391348869304e+02 -2.918975276816622e+03
-1.156457033834595e+03  1.120322010505564e+02 -2.918975276816622e+03
-1.156587014766097e+03  1.104270828053452e+02 -2.918975276816622e+03
-1.156511204023068e+03  1.094710427772219e+02 -2.918975276816622e+03
-1.156626355236798e+03  1.073244591521313e+02 -2.918975276816622e+03
-1.156552035430867e+03  1.060287687212130e+02 -2.918975276816622e+03
-1.156641992101704e+03  1.046817959500168e+02 -2.918975276816622e+03
-1.156569565966441e+03  1.032512820489626e+02 -2.918975276816622e+03
-1.156657098370434e+03  1.010656287485972e+02 -2.918975276816622e+03
-1.156595469476229e+03  1.002988950320269e+02 -2.918975276816622e+03
-1.156669574887335e+03  9.821358409341212e+01 -2.918975276816622e+03
-1.156610772323410e+03  9.692726900392623e+01 -2.918975276816622e+03
-1.156697194537474e+03  9.514672658233940e+01 -2.918975276816622e+03
-1.156623700888757e+03  9.117683339126863e+01 -2.918975276816622e+03
-1.156672424069267e+03  8.992065923841265e+01 -2.918975276816622e+03
-1.156620814436059e+03  8.808864970853639e+01 -2.918975276816622e+03
-1.156672950709469e+03  8.682254709778410e+01 -2.918975276816622e+03
-1.156641268251751e+03  8.647678077071551e+01 -2.918975276816622e+03
-1.156658680997749e+03  8.512328670368797e+01 -2.918975276816622e+03
-1.156597111774002e+03  8.266948982834452e+01 -2.918975276816622e+03
-1.156637929457696e+03  7.913556960596118e+01 -2.918975276816622e+03
-1.156676580734090e+03  7.352962709720876e+01 -2.918975276816622e+03
-1.156542309399718e+03  7.180905397518121e+01 -2.918975276816622e+03
-1.156489466706473e+03  6.929638885061902e+01 -2.918975276816622e+03
-1.156376524145446e+03  6.712854170130547e+01 -2.918975276816622e+03
-1.156507869895929e+03  6.364577005539768e+01 -2.918975276816622e+03
-1.156347348972527e+03  6.314378953111883e+01 -2.918975276816622e+03
-1.156417776498122e+03  5.832636152509363e+01 -2.918975276816622e+03
-1.156437624169239e+03  5.634569215130870e+01 -2.918975276816622e+03
-1.156660942159167e+03  5.355570469435177e+01 -2.918975276816622e+03
-1.156664923899078e+03  5.095549069082021e+01 -2.918975276816622e+03
-1.156801862292552e+03  4.968153043730079e+01 -2.918975276816622e+03
-1.156753031901774e+03  4.800957112361153e+01 -2.918975276816622e+03
-1.156880412364375e+03  4.666519899183503e+01 -2.918975276816622e+03
-1.156863972983324e+03  4.422453221591193e+01 -2.918975276816622e+03
-1.157013534863097e+03  4.210420213110417e+01 -2.918975276816622e+03
-1.156984614927092e+03  4.156026912796196e+01 -2.918975276816622e+03
-1.157123698203299e+03  3.899160114407258e+01 -2.918975276816622e+03
-1.157128940808128e+03  3.653648284675550e+01 -2.918975276816622e+03
-1.157265147922180e+03  3.493321872155046e+01 -2.918975276816622e+03
-1.157265729314045e+03  3.323778352752738e+01 -2.918975276816622e+03
-1.157486252195158e+03  2.995643648320054e+01 -2.918975276816622e+03
-1.157506307151318e+03  2.883106891958874e+01 -2.918975276816622e+03
-1.157833880514249e+03  2.366362515224365e+01 -2.918975276816622e+03
-1.158067873391837e+03  2.179808321013698e+01 -2.918975276816622e+03
-1.158019129923515e+03  2.180665812434712e+01 -2.918975276816622e+03
-1.157876899330739e+03  1.903653851528138e+01 -2.918975276816622e+03
-1.157742106553035e+03  1.708561689614838e+01 -2.918975276816622e+03
-1.157736291337181e+03  1.585944772721919e+01 -2.918975276816622e+03
-1.157680456698431e+03  1.464868046179499e+01 -2.918975276816622e+03
-1.157664596522512e+03  1.323985017541813e+01 -2.918975276816622e+03
-1.157625999498837e+03  1.195623948061943e+01 -2.918975276816622e+03
-1.157550722605239e+03  7.572467340790578e+00 -2.918975276816622e+03
1.154291405676900e+03 5.926847561672343e-01 2.918975276816622e+03
 1.154659596044508e+03 -1.432590010206932e+00  2.918975276816622e+03
 1.154714222641403e+03 -2.055271100789311e+00  2.918975276816622e+03
 1.154608629414126e+03 -4.627339595484514e+00  2.918975276816622e+03
 1.154445074336896e+03 -9.298712926645525e+00  2.918975276816622e+03
 1.154263572547147e+03 -1.650470223440922e+01  2.918975276816622e+03
 1.154069834482375e+03 -2.117442923613438e+01  2.918975276816622e+03
 1.153826612142227e+03 -2.666473581811330e+01  2.918975276816622e+03
 1.153841673780295e+03 -2.682080470045673e+01  2.918975276816622e+03
 1.153813451022768e+03 -3.025299392079347e+01  2.918975276816622e+03
 1.153757683357179e+03 -3.481355389117580e+01  2.918975276816622e+03
 1.153711692235421e+03 -3.785420347451583e+01  2.918975276816622e+03
 1.153624187258113e+03 -4.296401388011524e+01  2.918975276816622e+03
 1.153635009607280e+03 -4.592932506566298e+01  2.918975276816622e+03
 1.153524968518918e+03 -4.901663100647485e+01  2.918975276816622e+03
 1.153601618065507e+03 -5.072154524297795e+01  2.918975276816622e+03
 1.153462199483711e+03 -5.244487037962069e+01  2.918975276816622e+03
 1.153596703497070e+03 -5.455062331916606e+01  2.918975276816622e+03
 1.153416651616215e+03 -5.658830414743386e+01  2.918975276816622e+03
 1.153568973298518e+03 -5.886462689603438e+01  2.918975276816622e+03
 1.153402379439512e+03 -6.057721245279756e+01  2.918975276816622e+03
 1.153533935945117e+03 -6.170221789104517e+01  2.918975276816622e+03
 1.153430926713030e+03 -6.351840213275709e+01  2.918975276816622e+03
 1.153517288995803e+03 -6.530835446171480e+01  2.918975276816622e+03
 1.153477937083217e+03 -6.633739606775704e+01  2.918975276816622e+03
 1.153526869227269e+03 -6.915024021577752e+01  2.918975276816622e+03
 1.153548813187297e+03 -7.102160812519890e+01  2.918975276816622e+03
 1.153517265471389e+03 -7.209722731926506e+01  2.918975276816622e+03
 1.153588571877071e+03 -7.448299724632679e+01  2.918975276816622e+03
 1.153562739782042e+03 -7.813686678243393e+01  2.918975276816622e+03
 1.153611171510185e+03 -8.071135925419836e+01  2.918975276816622e+03
 1.153605100815684e+03 -8.183868013194430e+01  2.918975276816622e+03
 1.153626630502049e+03 -8.478268273603622e+01  2.918975276816622e+03
 1.153644597474673e+03 -8.600331990030065e+01  2.918975276816622e+03
 1.153647249171022e+03 -8.899678183052177e+01  2.918975276816622e+03
 1.153677155473270e+03 -9.074798079131651e+01  2.918975276816622e+03
 1.153655427633252e+03 -9.233560839651790e+01  2.918975276816622e+03
 1.153698672585367e+03 -9.467701720594081e+01  2.918975276816622e+03
 1.153670354271995e+03 -9.736682227739335e+01  2.918975276816622e+03
 1.153695826653913e+03 -9.786739249126046e+01  2.918975276816622e+03
 1.153663566089083e+03 -1.004397154533165e+02  2.918975276816622e+03
 1.153706119658803e+03 -1.036479482076619e+02  2.918975276816622e+03
 1.153621327722884e+03 -1.051977688200876e+02  2.918975276816622e+03
 1.153691473612087e+03 -1.060979824116202e+02  2.918975276816622e+03
 1.153602697442676e+03 -1.089841348031866e+02  2.918975276816622e+03
 1.153614189374153e+03 -1.105905445740462e+02  2.918975276816622e+03
 1.153573640267486e+03 -1.122084522334107e+02  2.918975276816622e+03
 1.153526923404694e+03 -1.145270758604808e+02  2.918975276816622e+03
 1.153634579303308e+03 -1.171847112516461e+02  2.918975276816622e+03
 1.153457349218364e+03 -1.204899549248215e+02  2.918975276816622e+03
 1.153550187248660e+03 -1.251730253205689e+02  2.918975276816622e+03
 1.153196099550399e+03 -1.254134489739395e+02  2.918975276816622e+03
 1.153323746252049e+03 -1.290414434028462e+02  2.918975276816622e+03
 1.153347794730982e+03 -1.331150536626512e+02  2.918975276816622e+03
 1.153574195715653e+03 -1.433358958241433e+02  2.918975276816622e+03
 1.153644090963217e+03 -1.457925697134714e+02  2.918975276816622e+03
 1.153633942824088e+03 -1.488904375777722e+02  2.918975276816622e+03
 1.153670114820165e+03 -1.506946136744897e+02  2.918975276816622e+03
 1.153640978531407e+03 -1.523189803680967e+02  2.918975276816622e+03
 1.153681515413731e+03 -1.543338773995631e+02  2.918975276816622e+03
 1.153631008894166e+03 -1.578158828467844e+02  2.918975276816622e+03
 1.153690700700826e+03 -1.603497651780193e+02  2.918975276816622e+03
 1.153628701623598e+03 -1.616010787657073e+02  2.918975276816622e+03
 1.153690192419635e+03 -1.624288250161835e+02  2.918975276816622e+03
 1.153620661921496e+03 -1.636267216931657e+02  2.918975276816622e+03
 1.153696143783210e+03 -1.656042651103078e+02  2.918975276816622e+03
 1.153630306773977e+03 -1.664446963438148e+02  2.918975276816622e+03
 1.153708965686824e+03 -1.686895213992015e+02  2.918975276816622e+03
 1.153617396625385e+03 -1.705100443311870e+02  2.918975276816622e+03
 1.153709763320306e+03 -1.721119039945990e+02  2.918975276816622e+03
 1.153604571968772e+03 -1.743187256825330e+02  2.918975276816622e+03
 1.153718805978486e+03 -1.779400397053693e+02  2.918975276816622e+03
 1.153542712282346e+03 -1.806105543849441e+02  2.918975276816622e+03
 1.153721897372566e+03 -1.839212293260543e+02  2.918975276816622e+03
 1.153556562435027e+03 -1.862070339794977e+02  2.918975276816622e+03
 1.153701441100133e+03 -1.881964547233126e+02  2.918975276816622e+03
 1.153549104168071e+03 -1.914055170416323e+02  2.918975276816622e+03
 1.153674948843308e+03 -1.942877978625518e+02  2.918975276816622e+03
 1.153575584287041e+03 -1.978547794048374e+02  2.918975276816622e+03
 1.153618603006888e+03 -2.009878581303067e+02  2.918975276816622e+03
 1.153611764302976e+03 -2.087259708506153e+02  2.918975276816622e+03
 1.153614061841819e+03 -2.110708961742186e+02  2.918975276816622e+03
 1.153611532715923e+03 -2.178605547799272e+02  2.918975276816622e+03
 1.153611805011892e+03 -2.204488034722573e+02  2.918975276816622e+03
 1.153578553665287e+03 -2.234136227649835e+02  2.918975276816622e+03
 1.153648885643760e+03 -2.241830377623901e+02  2.918975276816622e+03
 1.153589622825840e+03 -2.257333477283144e+02  2.918975276816622e+03
 1.153612812897798e+03 -2.287951136932714e+02  2.918975276816622e+03
 1.153586034680098e+03 -2.304217839323914e+02  2.918975276816622e+03
 1.153646439336053e+03 -2.317833040328297e+02  2.918975276816622e+03
 1.153644329041913e+03 -2.344657449360717e+02  2.918975276816622e+03
 1.153422228104820e+03 -2.398055819458230e+02  2.918975276816622e+03
 1.153634976178132e+03 -2.418444254857102e+02  2.918975276816622e+03
 1.153699266307274e+03 -2.445835745238143e+02  2.918975276816622e+03
 1.153763104947825e+03 -2.476500894608873e+02  2.918975276816622e+03
 1.153736525910637e+03 -2.527412941880647e+02  2.918975276816622e+03
 1.153775575188265e+03 -2.554511834285635e+02  2.918975276816622e+03
 1.153755506958023e+03 -2.572592998542256e+02  2.918975276816622e+03
 1.153794956684898e+03 -2.607413383655690e+02  2.918975276816622e+03
 1.153774202280025e+03 -2.613938055503041e+02  2.918975276816622e+03
 1.153808536456758e+03 -2.657762876173318e+02  2.918975276816622e+03
 1.153844260074693e+03 -2.685532645446189e+02  2.918975276816622e+03
 1.153853632549560e+03 -2.715188471248339e+02  2.918975276816622e+03
 1.153878932532478e+03 -2.723141252493395e+02  2.918975276816622e+03
 1.153860571203743e+03 -2.743171289770853e+02  2.918975276816622e+03
 1.153924616683140e+03 -2.774858291745467e+02  2.918975276816622e+03
 1.153910817843980e+03 -2.794414723506198e+02  2.918975276816622e+03
 1.153922400762727e+03 -2.801610582375550e+02  2.918975276816622e+03
 1.153911519392849e+03 -2.834671827605664e+02  2.918975276816622e+03
 1.153946892460485e+03 -2.861097545210959e+02  2.918975276816622e+03
 1.153958251034127e+03 -2.914038831895726e+02  2.918975276816622e+03
 1.153985666808547e+03 -2.951252960060500e+02  2.918975276816622e+03
 1.153980574066150e+03 -2.965554025665142e+02  2.918975276816622e+03
 1.153992111668605e+03 -2.975049385659603e+02  2.918975276816622e+03
 1.154004361797657e+03 -2.978231372560081e+02  2.918975276816622e+03
 1.153980166344187e+03 -2.988020462167112e+02  2.918975276816622e+03
 1.153977484303107e+03 -3.032783811756584e+02  2.918975276816622e+03
 1.153960166770140e+03 -3.038367553401340e+02  2.918975276816622e+03
 1.153971174918176e+03 -3.074053149070421e+02  2.918975276816622e+03
 1.153913043864856e+03 -3.094195679433275e+02  2.918975276816622e+03
 1.153944727119492e+03 -3.100664068067720e+02  2.918975276816622e+03
 1.153903023482612e+03 -3.110896532993947e+02  2.918975276816622e+03
 1.153912419769159e+03 -3.115801486214194e+02  2.918975276816622e+03
 1.153856320174554e+03 -3.134220627857413e+02  2.918975276816622e+03
 1.153878156871514e+03 -3.145225459570262e+02  2.918975276816622e+03
 1.153815502210749e+03 -3.176840908884918e+02  2.918975276816622e+03
 1.153791503870608e+03 -3.214130728658046e+02  2.918975276816622e+03
 1.153742093264403e+03 -3.260628735580424e+02  2.918975276816622e+03
 1.153721727263699e+03 -3.285364020340631e+02  2.918975276816622e+03
 1.153690703519432e+03 -3.314914816068430e+02  2.918975276816622e+03
 1.153684484339713e+03 -3.323213828246535e+02  2.918975276816622e+03
 1.153663523235054e+03 -3.348093619174899e+02  2.918975276816622e+03
 1.153626582301422e+03 -3.385074492822991e+02  2.918975276816622e+03
 1.153625418460972e+03 -3.395505509981573e+02  2.918975276816622e+03
 1.153606097069335e+03 -3.439442260164056e+02  2.918975276816622e+03
 1.153614608043700e+03 -3.466421231597398e+02  2.918975276816622e+03
 1.153595849933250e+03 -3.505572410881147e+02  2.918975276816622e+03
 1.153566890865622e+03 -3.527686715746742e+02  2.918975276816622e+03
 1.153597223548060e+03 -3.548853017513464e+02  2.918975276816622e+03
 1.153562828319776e+03 -3.571982256912478e+02  2.918975276816622e+03
 1.153613955374365e+03 -3.601404468627697e+02  2.918975276816622e+03
 1.153584907270032e+03 -3.631573426251093e+02  2.918975276816622e+03
 1.153638349317383e+03 -3.646742757479705e+02  2.918975276816622e+03
 1.153607392148343e+03 -3.659120878148302e+02  2.918975276816622e+03
 1.153649185859934e+03 -3.667809149370838e+02  2.918975276816622e+03
 1.153615703724449e+03 -3.687991342894759e+02  2.918975276816622e+03
 1.153679141959089e+03 -3.708228813345551e+02  2.918975276816622e+03
 1.153672648339004e+03 -3.742738290025514e+02  2.918975276816622e+03
 1.153709413015587e+03 -3.760749662706190e+02  2.918975276816622e+03
 1.153750962428293e+03 -3.815168481425919e+02  2.918975276816622e+03
 1.153776705008373e+03 -3.833341972024934e+02  2.918975276816622e+03
 1.153775511122974e+03 -3.837829993162781e+02  2.918975276816622e+03
1.153805664906542e+03 3.851874699867060e+02 2.918975276816622e+03
1.153811860911675e+03 3.840051679387950e+02 2.918975276816622e+03
1.153835403216851e+03 3.815506954395745e+02 2.918975276816622e+03
1.153835213768730e+03 3.811183839399988e+02 2.918975276816622e+03
1.153871331890135e+03 3.765646257533554e+02 2.918975276816622e+03
1.153853244301687e+03 3.733519771748300e+02 2.918975276816622e+03
1.153903470850363e+03 3.723220564888233e+02 2.918975276816622e+03
1.153837164321106e+03 3.708665108127248e+02 2.918975276816622e+03
1.153929335326510e+03 3.675284765527443e+02 2.918975276816622e+03
1.153852605868310e+03 3.665032382441965e+02 2.918975276816622e+03
1.153947279120216e+03 3.648384789460422e+02 2.918975276816622e+03
1.153873163975309e+03 3.625622685575714e+02 2.918975276816622e+03
1.153998434792831e+03 3.593541129183743e+02 2.918975276816622e+03
1.153944427832704e+03 3.577670515707056e+02 2.918975276816622e+03
1.153939444599926e+03 3.557863672014128e+02 2.918975276816622e+03
1.154004938103804e+03 3.532074397430616e+02 2.918975276816622e+03
1.153952507443336e+03 3.522029101206258e+02 2.918975276816622e+03
1.153993019835248e+03 3.504862612033325e+02 2.918975276816622e+03
1.154144539463166e+03 3.451784941692356e+02 2.918975276816622e+03
1.154192408478600e+03 3.430619892703933e+02 2.918975276816622e+03
1.154191228396289e+03 3.419379548900272e+02 2.918975276816622e+03
1.154251644317366e+03 3.396714890801853e+02 2.918975276816622e+03
1.154327726481925e+03 3.324140633131673e+02 2.918975276816622e+03
1.154253896860538e+03 3.310810852678509e+02 2.918975276816622e+03
1.154598430745249e+03 3.278057881939417e+02 2.918975276816622e+03
1.154348680849211e+03 3.266793398421502e+02 2.918975276816622e+03
1.154407129209196e+03 3.216069522299542e+02 2.918975276816622e+03
1.154791916145505e+03 3.192025482022869e+02 2.918975276816622e+03
1.154607318012359e+03 3.163202812338901e+02 2.918975276816622e+03
1.154538528626684e+03 3.137140640586226e+02 2.918975276816622e+03
1.154443424006100e+03 3.112631390452744e+02 2.918975276816622e+03
1.154457012898843e+03 3.084383426361285e+02 2.918975276816622e+03
1.154425289099594e+03 3.017680193409805e+02 2.918975276816622e+03
1.154414656993272e+03 2.997280890319229e+02 2.918975276816622e+03
1.154388002916641e+03 2.946979228346671e+02 2.918975276816622e+03
1.154388142015299e+03 2.937145942363341e+02 2.918975276816622e+03
1.154353174250933e+03 2.880084629119649e+02 2.918975276816622e+03
1.154351847789741e+03 2.878194809232972e+02 2.918975276816622e+03
1.154191839932033e+03 2.817576520918157e+02 2.918975276816622e+03
1.154132428375401e+03 2.798072269233053e+02 2.918975276816622e+03
1.154086671447166e+03 2.769475229693674e+02 2.918975276816622e+03
1.153995233846597e+03 2.750568492584720e+02 2.918975276816622e+03
1.153935201357380e+03 2.708632098413780e+02 2.918975276816622e+03
1.153791873394619e+03 2.682896357368828e+02 2.918975276816622e+03
1.153775839583456e+03 2.644349657608624e+02 2.918975276816622e+03
1.153699395096923e+03 2.638246221776949e+02 2.918975276816622e+03
1.153749900709869e+03 2.606880501284550e+02 2.918975276816622e+03
1.153535287198710e+03 2.579448925052257e+02 2.918975276816622e+03
1.153677442595538e+03 2.562853242513527e+02 2.918975276816622e+03
1.153485513892794e+03 2.547441964042121e+02 2.918975276816622e+03
1.153686917018669e+03 2.531032495286640e+02 2.918975276816622e+03
1.153499857420437e+03 2.523362554151376e+02 2.918975276816622e+03
1.153630503545549e+03 2.505843803513659e+02 2.918975276816622e+03
1.153449591958266e+03 2.488006927256445e+02 2.918975276816622e+03
1.153591539497477e+03 2.483206235049295e+02 2.918975276816622e+03
1.153400836447697e+03 2.465544761065602e+02 2.918975276816622e+03
1.153550432445294e+03 2.456370236294623e+02 2.918975276816622e+03
1.153395971796291e+03 2.434197814076670e+02 2.918975276816622e+03
1.153562129900415e+03 2.417239712482319e+02 2.918975276816622e+03
1.153416688284490e+03 2.400222586805707e+02 2.918975276816622e+03
1.153560606401378e+03 2.383665358856767e+02 2.918975276816622e+03
1.153452280295538e+03 2.358376768103917e+02 2.918975276816622e+03
1.153566730102949e+03 2.330988604302967e+02 2.918975276816622e+03
1.153526903251380e+03 2.328022765280891e+02 2.918975276816622e+03
1.153616092910148e+03 2.299017438328548e+02 2.918975276816622e+03
1.153590365121550e+03 2.286265106053944e+02 2.918975276816622e+03
1.153644591395197e+03 2.267202496454439e+02 2.918975276816622e+03
1.153642997573659e+03 2.254712670933482e+02 2.918975276816622e+03
1.153675147499374e+03 2.243360112595433e+02 2.918975276816622e+03
1.153692901601616e+03 2.212578102265605e+02 2.918975276816622e+03
1.153735160558476e+03 2.181448116732010e+02 2.918975276816622e+03
1.153806552039694e+03 2.106043039034450e+02 2.918975276816622e+03
1.153815300545821e+03 2.095704805628713e+02 2.918975276816622e+03
1.153852636133519e+03 2.037240802014882e+02 2.918975276816622e+03
1.153858321807601e+03 2.009233447802995e+02 2.918975276816622e+03
1.153884019645036e+03 1.957112117012526e+02 2.918975276816622e+03
1.153861359075236e+03 1.923766981707953e+02 2.918975276816622e+03
1.153885629760314e+03 1.922207906420857e+02 2.918975276816622e+03
1.153797652184643e+03 1.898838911507009e+02 2.918975276816622e+03
1.153820388661285e+03 1.875380738625115e+02 2.918975276816622e+03
1.153713386511749e+03 1.841709356574835e+02 2.918975276816622e+03
1.153702230636398e+03 1.819513444520522e+02 2.918975276816622e+03
1.153607637373432e+03 1.759995434486779e+02 2.918975276816622e+03
1.153582715753326e+03 1.680011032696024e+02 2.918975276816622e+03
1.153513003405928e+03 1.663042293931273e+02 2.918975276816622e+03
1.153487735584862e+03 1.590937364323679e+02 2.918975276816622e+03
1.153489505336542e+03 1.575848318073244e+02 2.918975276816622e+03
1.153332731024850e+03 1.530604024022829e+02 2.918975276816622e+03
1.153453084974216e+03 1.522287617178970e+02 2.918975276816622e+03
1.153361532236073e+03 1.497805668502532e+02 2.918975276816622e+03
1.153396227072272e+03 1.488604383991468e+02 2.918975276816622e+03
1.153308778328675e+03 1.470866905293366e+02 2.918975276816622e+03
1.153415164749867e+03 1.457813101394921e+02 2.918975276816622e+03
1.153407037533077e+03 1.447857462443988e+02 2.918975276816622e+03
1.153416547256448e+03 1.415168761296972e+02 2.918975276816622e+03
1.153423006393849e+03 1.392858020596973e+02 2.918975276816622e+03
1.153443271627933e+03 1.388729111040059e+02 2.918975276816622e+03
1.153416023069734e+03 1.363035543882161e+02 2.918975276816622e+03
1.153350053060792e+03 1.303050978138161e+02 2.918975276816622e+03
1.153292497673336e+03 1.280462240063477e+02 2.918975276816622e+03
1.153282221662797e+03 1.268994495579172e+02 2.918975276816622e+03
1.153251015825288e+03 1.259481557132944e+02 2.918975276816622e+03
1.153207501300436e+03 1.246582219388349e+02 2.918975276816622e+03
1.153150757124001e+03 1.216049761523001e+02 2.918975276816622e+03
1.153042570128715e+03 1.198022867493457e+02 2.918975276816622e+03
1.153031789827387e+03 1.186671689958751e+02 2.918975276816622e+03
1.152870413679783e+03 1.163402201973425e+02 2.918975276816622e+03
1.152703822609245e+03 1.130801478967306e+02 2.918975276816622e+03
1.152430401324356e+03 1.116057971467133e+02 2.918975276816622e+03
1.152369794418692e+03 1.102773413809072e+02 2.918975276816622e+03
1.151904443902376e+03 1.085251273965186e+02 2.918975276816622e+03
1.151911290721752e+03 1.085076453175282e+02 2.918975276816622e+03
1.152356347648074e+03 1.069050230132384e+02 2.918975276816622e+03
1.152611835340032e+03 1.055894854667346e+02 2.918975276816622e+03
1.152792368516172e+03 1.045431233778664e+02 2.918975276816622e+03
1.153271362388801e+03 1.014821891333231e+02 2.918975276816622e+03
1.153418287923555e+03 9.937687974275045e+01 2.918975276816622e+03
1.153816136678932e+03 9.656942703836077e+01 2.918975276816622e+03
1.153805586347547e+03 9.655317860070947e+01 2.918975276816622e+03
1.154030282995664e+03 9.358319993213820e+01 2.918975276816622e+03
1.154090235607774e+03 9.131780999973438e+01 2.918975276816622e+03
1.154305296267529e+03 8.763555199057046e+01 2.918975276816622e+03
1.154405041739793e+03 8.583522504079677e+01 2.918975276816622e+03
1.154535064954566e+03 8.260545954736988e+01 2.918975276816622e+03
1.154626860729267e+03 8.013675612318426e+01 2.918975276816622e+03
1.154693274080222e+03 7.844067434619504e+01 2.918975276816622e+03
1.154992770621190e+03 6.765292351006600e+01 2.918975276816622e+03
1.155052067778408e+03 6.604643857874632e+01 2.918975276816622e+03
1.154952032866386e+03 6.261657779706092e+01 2.918975276816622e+03
1.155188406505114e+03 5.984473810152606e+01 2.918975276816622e+03
1.155105160092819e+03 5.842022791862254e+01 2.918975276816622e+03
1.155293744533973e+03 5.743254708427271e+01 2.918975276816622e+03
1.155037507696801e+03 5.531254486664372e+01 2.918975276816622e+03
1.155147895728216e+03 5.434117617967544e+01 2.918975276816622e+03
1.154969732908410e+03 5.156816389240874e+01 2.918975276816622e+03
1.154908607981440e+03 5.024532591949920e+01 2.918975276816622e+03
1.154680444901229e+03 4.781219893927104e+01 2.918975276816622e+03
1.155086145104793e+03 4.768665329115883e+01 2.918975276816622e+03
1.154837811814873e+03 4.437036648114728e+01 2.918975276816622e+03
1.154754986286950e+03 4.242094408981978e+01 2.918975276816622e+03
1.154752333035952e+03 4.188571210424976e+01 2.918975276816622e+03
1.154898855763886e+03 4.073887536543216e+01 2.918975276816622e+03
1.154855577405022e+03 3.892277406150513e+01 2.918975276816622e+03
1.155106602794626e+03 3.552492582618068e+01 2.918975276816622e+03
1.154947260663296e+03 3.409429572862648e+01 2.918975276816622e+03
1.155060407952431e+03 3.219426067078716e+01 2.918975276816622e+03
1.154990483998940e+03 3.012032559589865e+01 2.918975276816622e+03
1.155130352434217e+03 2.823205761422957e+01 2.918975276816622e+03
1.155089022329943e+03 2.544911833346466e+01 2.918975276816622e+03
1.155344129685964e+03 1.944969296601601e+01 2.918975276816622e+03
1.155335062665132e+03 1.941890965099137e+01 2.918975276816622e+03
1.155134266193980e+03 1.596664327798747e+01 2.918975276816622e+03
1.155128068477648e+03 1.442377988949723e+01 2.918975276816622e+03
1.155060968885976e+03 1.340577965497643e+01 2.918975276816622e+03
1.155037335688698e+03 1.160032142420583e+01 2.918975276816622e+03
1.154984856655601e+03 1.024271131068270e+01 2.918975276816622e+03
1.154873686518622e+03 5.441248775571452e+00 2.918975276816622e+03
1.154834918039833e+03 4.348344085499297e+00 2.918975276816622e+03
1.154763225183103e+03 2.473898322425200e+00 2.918975276816622e+03
1.154802608364779e+03 9.399518720626314e-01 2.918975276816622e+03
-1.148041785189362e+03 -3.863858941524650e+02 -2.918975276816622e+03
-1.148041785189363e+03  3.863858941524653e+02 -2.918975276816622e+03
 1.144980001200085e+03 -3.863858941524653e+02  2.918975276816622e+03
1.144980001200085e+03 3.863858941524650e+02 2.918975276816622e+03
-1.156896801558056e+03 -3.863858941524650e+02 -2.918975276816622e+03
-1.156896801558056e+03  3.863858941524653e+02 -2.918975276816622e+03
 1.153796158463410e+03 -3.863858941524653e+02  2.918975276816622e+03
1.153796158463410e+03 3.863858941524650e+02 2.918975276816622e+03
-1.148564126372578e+03  2.753976490493869e-02 -2.918975276816622e+03
-1.148562236641058e+03  3.162631478594562e+00 -2.918975276816622e+03
-1.148561213493543e+03 -1.394364733917632e+00 -2.918975276816622e+03
-1.148557992673835e+03 -2.839521369723048e+00 -2.918975276816622e+03
-1.148549277480992e+03 -4.594523849877731e+00 -2.918975276816622e+03
-1.148540341294680e+03 -5.788384158433320e+00 -2.918975276816622e+03
-1.148530012188308e+03 -7.268443335424302e+00 -2.918975276816622e+03
-1.148510300757252e+03 -9.409163107202080e+00 -2.918975276816622e+03
-1.148490516758515e+03 -1.180854091944751e+01 -2.918975276816622e+03
-1.148475773290686e+03 -1.334714889137451e+01 -2.918975276816622e+03
-1.148460415573728e+03 -1.514795305973417e+01 -2.918975276816622e+03
-1.148417068663669e+03 -1.835586280048744e+01 -2.918975276816622e+03
-1.148372285127299e+03 -2.149966334517427e+01 -2.918975276816622e+03
-1.148327456072969e+03 -2.491575818287203e+01 -2.918975276816622e+03
-1.148289424584348e+03 -2.749011926223668e+01 -2.918975276816622e+03
-1.148252599780035e+03 -2.977663395716146e+01 -2.918975276816622e+03
-1.148189240789615e+03 -3.323757905069934e+01 -2.918975276816622e+03
-1.148148287257143e+03 -3.542304168300194e+01 -2.918975276816622e+03
-1.148111672732339e+03 -3.714620554234684e+01 -2.918975276816622e+03
-1.148079380767321e+03 -3.933285071033018e+01 -2.918975276816622e+03
-1.148073468008174e+03 -4.066818597656117e+01 -2.918975276816622e+03
-1.148048634907248e+03 -4.221461297043840e+01 -2.918975276816622e+03
-1.148050411741231e+03 -4.425409263366689e+01 -2.918975276816622e+03
-1.148105016869830e+03 -4.634507915206807e+01 -2.918975276816622e+03
-1.148162929820551e+03 -4.870721910605036e+01 -2.918975276816622e+03
-1.148249059996156e+03 -5.044533158368346e+01 -2.918975276816622e+03
-1.148078465821878e+03 -5.160503868702368e+01 -2.918975276816622e+03
-1.148132607292279e+03 -5.296795184574525e+01 -2.918975276816622e+03
-1.148259332143776e+03 -5.394650216053996e+01 -2.918975276816622e+03
-1.148121227628703e+03 -5.499680276536085e+01 -2.918975276816622e+03
-1.147960221116458e+03 -5.714096031270272e+01 -2.918975276816622e+03
-1.147794488430595e+03 -5.931231483940463e+01 -2.918975276816622e+03
-1.147840625339498e+03 -6.076879531733903e+01 -2.918975276816622e+03
-1.147838533290985e+03 -6.233965996241755e+01 -2.918975276816622e+03
-1.147846982273590e+03 -6.383005849827233e+01 -2.918975276816622e+03
-1.147843802658402e+03 -6.533824862301739e+01 -2.918975276816622e+03
-1.147798837944182e+03 -6.685602249060570e+01 -2.918975276816622e+03
-1.147769138422338e+03 -6.865560418907353e+01 -2.918975276816622e+03
-1.147768008048513e+03 -7.026029504099000e+01 -2.918975276816622e+03
-1.147759589700494e+03 -7.136401447404698e+01 -2.918975276816622e+03
-1.147762984630886e+03 -7.316547890476170e+01 -2.918975276816622e+03
-1.147763308859346e+03 -7.473683644448943e+01 -2.918975276816622e+03
-1.147763275541457e+03 -7.579131407995298e+01 -2.918975276816622e+03
-1.147754506251609e+03 -7.732341258900313e+01 -2.918975276816622e+03
-1.147754084544144e+03 -7.929293648514356e+01 -2.918975276816622e+03
-1.147754518659417e+03 -8.079135373130518e+01 -2.918975276816622e+03
-1.147752587748068e+03 -8.234656146075285e+01 -2.918975276816622e+03
-1.147747543010572e+03 -8.417187427523434e+01 -2.918975276816622e+03
-1.147739583865664e+03 -8.632411185110335e+01 -2.918975276816622e+03
-1.147735497900616e+03 -8.859198048783050e+01 -2.918975276816622e+03
-1.147717526723456e+03 -8.995954436907272e+01 -2.918975276816622e+03
-1.147695714489080e+03 -9.124466695842609e+01 -2.918975276816622e+03
-1.147679057888768e+03 -9.348107547199128e+01 -2.918975276816622e+03
-1.147686720333036e+03 -9.520812664855964e+01 -2.918975276816622e+03
-1.147679171491783e+03 -9.699981833064092e+01 -2.918975276816622e+03
-1.147659445906794e+03 -9.938154705247787e+01 -2.918975276816622e+03
-1.147646617638310e+03 -1.008549987108900e+02 -2.918975276816622e+03
-1.147635251350997e+03 -1.023236921783673e+02 -2.918975276816622e+03
-1.147623148183930e+03 -1.037441233005695e+02 -2.918975276816622e+03
-1.147606594893289e+03 -1.052172952570621e+02 -2.918975276816622e+03
-1.147599707373953e+03 -1.067309685942789e+02 -2.918975276816622e+03
-1.147583902963974e+03 -1.084959894794696e+02 -2.918975276816622e+03
-1.147558593058916e+03 -1.101280684078901e+02 -2.918975276816622e+03
-1.147539462134550e+03 -1.113929009937582e+02 -2.918975276816622e+03
-1.147526591641987e+03 -1.131916686056532e+02 -2.918975276816622e+03
-1.147545421107220e+03 -1.141638340000224e+02 -2.918975276816622e+03
-1.147562111883400e+03 -1.149767328529248e+02 -2.918975276816622e+03
-1.147566788713609e+03 -1.170443467500162e+02 -2.918975276816622e+03
-1.147564321447923e+03 -1.192314612741755e+02 -2.918975276816622e+03
-1.147561144778255e+03 -1.207304702300080e+02 -2.918975276816622e+03
-1.147555073834030e+03 -1.223985696458472e+02 -2.918975276816622e+03
-1.147587789895349e+03 -1.241362601222100e+02 -2.918975276816622e+03
-1.147603699301772e+03 -1.260064636875246e+02 -2.918975276816622e+03
-1.147614276564759e+03 -1.283983267171856e+02 -2.918975276816622e+03
-1.147538409240706e+03 -1.299638504925185e+02 -2.918975276816622e+03
-1.147522272958982e+03 -1.312721548047569e+02 -2.918975276816622e+03
-1.147619032397846e+03 -1.331837408680351e+02 -2.918975276816622e+03
-1.147614619066831e+03 -1.343069881060589e+02 -2.918975276816622e+03
-1.147580407667182e+03 -1.351118468311701e+02 -2.918975276816622e+03
-1.147606412405861e+03 -1.370833273055071e+02 -2.918975276816622e+03
-1.147638701305341e+03 -1.392280000888046e+02 -2.918975276816622e+03
-1.147643491957921e+03 -1.406604796055961e+02 -2.918975276816622e+03
-1.147651016270755e+03 -1.422167276892796e+02 -2.918975276816622e+03
-1.147659180486058e+03 -1.436517324165731e+02 -2.918975276816622e+03
-1.147678835238224e+03 -1.451364076706199e+02 -2.918975276816622e+03
-1.147691699683563e+03 -1.466449951113600e+02 -2.918975276816622e+03
-1.147711777865863e+03 -1.483960383735933e+02 -2.918975276816622e+03
-1.147728508910349e+03 -1.499906622629509e+02 -2.918975276816622e+03
-1.147746893427257e+03 -1.511898016317523e+02 -2.918975276816622e+03
-1.147767728425408e+03 -1.530339283287829e+02 -2.918975276816622e+03
-1.147761432401489e+03 -1.540469015321385e+02 -2.918975276816622e+03
-1.147759253795062e+03 -1.550111633926947e+02 -2.918975276816622e+03
-1.147792713983600e+03 -1.580655294060907e+02 -2.918975276816622e+03
-1.147826589064577e+03 -1.607003788025958e+02 -2.918975276816622e+03
-1.147842210410710e+03 -1.622089898732958e+02 -2.918975276816622e+03
-1.147868369156538e+03 -1.639581659044868e+02 -2.918975276816622e+03
-1.147886346046340e+03 -1.659924729210112e+02 -2.918975276816622e+03
-1.147913124937807e+03 -1.685243359627424e+02 -2.918975276816622e+03
-1.147939903829275e+03 -1.710561990044735e+02 -2.918975276816622e+03
-1.147965579982903e+03 -1.739929577814955e+02 -2.918975276816622e+03
-1.147992737659245e+03 -1.769898431750375e+02 -2.918975276816622e+03
-1.148007878336595e+03 -1.792648655052433e+02 -2.918975276816622e+03
-1.148016318545643e+03 -1.807438350755587e+02 -2.918975276816622e+03
-1.148030232749479e+03 -1.822082108306920e+02 -2.918975276816622e+03
-1.148035966016087e+03 -1.839244443355200e+02 -2.918975276816622e+03
-1.148040003494692e+03 -1.859022602014331e+02 -2.918975276816622e+03
-1.148048099326066e+03 -1.882941656788796e+02 -2.918975276816622e+03
-1.148046475030554e+03 -1.898086960496326e+02 -2.918975276816622e+03
-1.148055246428907e+03 -1.910335331792702e+02 -2.918975276816622e+03
-1.148056850780065e+03 -1.929224700858415e+02 -2.918975276816622e+03
-1.148051229392727e+03 -1.941034904227298e+02 -2.918975276816622e+03
-1.148044590608306e+03 -1.951744817214608e+02 -2.918975276816622e+03
-1.148038492404614e+03 -1.980537254598123e+02 -2.918975276816622e+03
-1.148024415500106e+03 -2.005708861477196e+02 -2.918975276816622e+03
-1.148019814458249e+03 -2.020815810703963e+02 -2.918975276816622e+03
-1.148013489711351e+03 -2.035673792467845e+02 -2.918975276816622e+03
-1.148007141978440e+03 -2.050373167255568e+02 -2.918975276816622e+03
-1.147997277355136e+03 -2.065462157088575e+02 -2.918975276816622e+03
-1.147981431642880e+03 -2.083137065659998e+02 -2.918975276816622e+03
-1.147965839961125e+03 -2.099695960371386e+02 -2.918975276816622e+03
-1.147953481134146e+03 -2.114056726376472e+02 -2.918975276816622e+03
-1.147916319743065e+03 -2.140157767589326e+02 -2.918975276816622e+03
-1.147867197689840e+03 -2.169179246254034e+02 -2.918975276816622e+03
-1.147822862723719e+03 -2.191725522554381e+02 -2.918975276816622e+03
-1.147788008326222e+03 -2.206630489974136e+02 -2.918975276816622e+03
-1.147752059086147e+03 -2.221471275807828e+02 -2.918975276816622e+03
-1.147692233066561e+03 -2.238636614830507e+02 -2.918975276816622e+03
-1.147633638314487e+03 -2.258490399408984e+02 -2.918975276816622e+03
-1.147540236367909e+03 -2.282529646887236e+02 -2.918975276816622e+03
-1.147464962747299e+03 -2.298203795655593e+02 -2.918975276816622e+03
-1.147402663302909e+03 -2.310853965655138e+02 -2.918975276816622e+03
-1.147273102889066e+03 -2.328717479527526e+02 -2.918975276816622e+03
-1.147174055435898e+03 -2.338266538095520e+02 -2.918975276816622e+03
-1.147285401013313e+03 -2.347264225776331e+02 -2.918975276816622e+03
-1.147440773540044e+03 -2.368414512553142e+02 -2.918975276816622e+03
-1.147550064072125e+03 -2.391179340047890e+02 -2.918975276816622e+03
-1.147606130450424e+03 -2.406337403747498e+02 -2.918975276816622e+03
-1.147677090806036e+03 -2.421517201157747e+02 -2.918975276816622e+03
-1.147733101174435e+03 -2.438056834113299e+02 -2.918975276816622e+03
-1.147796609769996e+03 -2.457413519601974e+02 -2.918975276816622e+03
-1.147877248074587e+03 -2.470377328877787e+02 -2.918975276816622e+03
-1.147891834382852e+03 -2.484377628168293e+02 -2.918975276816622e+03
-1.147881580638333e+03 -2.503273712154653e+02 -2.918975276816622e+03
-1.147874767048073e+03 -2.512472824189578e+02 -2.918975276816622e+03
-1.147872329764424e+03 -2.527682735660127e+02 -2.918975276816622e+03
-1.147867448976125e+03 -2.545401489197915e+02 -2.918975276816622e+03
-1.147877850714577e+03 -2.563450907223864e+02 -2.918975276816622e+03
-1.147869475579621e+03 -2.576159562094924e+02 -2.918975276816622e+03
-1.147868717599667e+03 -2.589461233872651e+02 -2.918975276816622e+03
-1.147865184329222e+03 -2.605417978957188e+02 -2.918975276816622e+03
-1.147863696137906e+03 -2.621705490105002e+02 -2.918975276816622e+03
-1.147859949525033e+03 -2.647692435078710e+02 -2.918975276816622e+03
-1.147862431346433e+03 -2.673712707855121e+02 -2.918975276816622e+03
-1.147863387606300e+03 -2.698489395238136e+02 -2.918975276816622e+03
-1.147866648196507e+03 -2.724803791165486e+02 -2.918975276816622e+03
-1.147869498179001e+03 -2.747173119647305e+02 -2.918975276816622e+03
-1.147873813398612e+03 -2.764687192185091e+02 -2.918975276816622e+03
-1.147881918058323e+03 -2.788277156178073e+02 -2.918975276816622e+03
-1.147894031832639e+03 -2.823143121499603e+02 -2.918975276816622e+03
-1.147897251271497e+03 -2.850829116653704e+02 -2.918975276816622e+03
-1.147901963330848e+03 -2.867832171864737e+02 -2.918975276816622e+03
-1.147914213142276e+03 -2.889682310677034e+02 -2.918975276816622e+03
-1.147919213900162e+03 -2.914054872947035e+02 -2.918975276816622e+03
-1.147924214658047e+03 -2.938427435217037e+02 -2.918975276816622e+03
-1.147932708780211e+03 -2.968585618539661e+02 -2.918975276816622e+03
-1.147930040421705e+03 -2.994847132317105e+02 -2.918975276816622e+03
-1.147910659742849e+03 -3.020031238111302e+02 -2.918975276816622e+03
-1.147909956265038e+03 -3.039981235209106e+02 -2.918975276816622e+03
-1.147940914298707e+03 -3.058432019363204e+02 -2.918975276816622e+03
-1.147918266270572e+03 -3.090306769113430e+02 -2.918975276816622e+03
-1.147873188399976e+03 -3.123128431007866e+02 -2.918975276816622e+03
-1.147842940440133e+03 -3.160299116467293e+02 -2.918975276816622e+03
-1.147786697805020e+03 -3.193715286938599e+02 -2.918975276816622e+03
-1.147731734638261e+03 -3.218890643772106e+02 -2.918975276816622e+03
-1.147644432285047e+03 -3.248648307502772e+02 -2.918975276816622e+03
-1.147515287952910e+03 -3.266101688831716e+02 -2.918975276816622e+03
-1.147632489997686e+03 -3.285477246863809e+02 -2.918975276816622e+03
-1.147725650533949e+03 -3.323083449197060e+02 -2.918975276816622e+03
-1.147674393072154e+03 -3.345222542392980e+02 -2.918975276816622e+03
-1.147725734024370e+03 -3.368009814008691e+02 -2.918975276816622e+03
-1.147748942528410e+03 -3.398413356272129e+02 -2.918975276816622e+03
-1.147776892850102e+03 -3.420896003327042e+02 -2.918975276816622e+03
-1.147824839551324e+03 -3.451622528929835e+02 -2.918975276816622e+03
-1.147891399355755e+03 -3.475075267604935e+02 -2.918975276816622e+03
-1.147927043008199e+03 -3.491442318871687e+02 -2.918975276816622e+03
-1.147933153784976e+03 -3.516241348205660e+02 -2.918975276816622e+03
-1.147922279698185e+03 -3.536250160731951e+02 -2.918975276816622e+03
-1.147950230532198e+03 -3.563823235998966e+02 -2.918975276816622e+03
-1.147999571313199e+03 -3.602573832676959e+02 -2.918975276816622e+03
-1.148005369276592e+03 -3.633931603767699e+02 -2.918975276816622e+03
-1.148002044259759e+03 -3.659073507408608e+02 -2.918975276816622e+03
-1.147998719242927e+03 -3.684215411049516e+02 -2.918975276816622e+03
-1.147997114824002e+03 -3.707330663937575e+02 -2.918975276816622e+03
-1.147994925690801e+03 -3.729412577417092e+02 -2.918975276816622e+03
-1.147981378045622e+03 -3.742419346810015e+02 -2.918975276816622e+03
-1.147984845814707e+03 -3.753801706563586e+02 -2.918975276816622e+03
-1.148025314443056e+03 -3.769523944140800e+02 -2.918975276816622e+03
-1.148038337318571e+03 -3.785860981589281e+02 -2.918975276816622e+03
-1.148019665834386e+03 -3.798038699687510e+02 -2.918975276816622e+03
-1.148014035694805e+03 -3.811443729681379e+02 -2.918975276816622e+03
-1.148027547459493e+03 -3.841779014437207e+02 -2.918975276816622e+03
-1.148041240315101e+03 -3.862108963089108e+02 -2.918975276816622e+03
-1.148056366999670e+03  3.821489579191561e+02 -2.918975276816622e+03
-1.148066544714819e+03  3.797728088094926e+02 -2.918975276816622e+03
-1.148046531665728e+03  3.848614633132264e+02 -2.918975276816622e+03
-1.148070533144979e+03  3.779378593563802e+02 -2.918975276816622e+03
-1.148071079292348e+03  3.769189049073528e+02 -2.918975276816622e+03
-1.148068212355473e+03  3.751066870241837e+02 -2.918975276816622e+03
-1.148065790517219e+03  3.723646768264466e+02 -2.918975276816622e+03
-1.148069973864028e+03  3.697609330958177e+02 -2.918975276816622e+03
-1.148071414642295e+03  3.670263852946576e+02 -2.918975276816622e+03
-1.148070112852021e+03  3.641610334229671e+02 -2.918975276816622e+03
-1.148068811061746e+03  3.612956815512765e+02 -2.918975276816622e+03
-1.148054290966688e+03  3.587163855459169e+02 -2.918975276816622e+03
-1.148052142293498e+03  3.561098123189138e+02 -2.918975276816622e+03
-1.148005408955716e+03  3.536893444727563e+02 -2.918975276816622e+03
-1.148026038923252e+03  3.518768000737147e+02 -2.918975276816622e+03
-1.148127956346935e+03  3.497855909776874e+02 -2.918975276816622e+03
-1.148111571395684e+03  3.472222797612332e+02 -2.918975276816622e+03
-1.147955711962358e+03  3.451502451130657e+02 -2.918975276816622e+03
-1.147899999122911e+03  3.428860909030788e+02 -2.918975276816622e+03
-1.148001354082823e+03  3.409891195979025e+02 -2.918975276816622e+03
-1.147954741201458e+03  3.395000972850590e+02 -2.918975276816622e+03
-1.147852249938123e+03  3.369436747528517e+02 -2.918975276816622e+03
-1.147821346992024e+03  3.340474344890114e+02 -2.918975276816622e+03
-1.147790444045926e+03  3.311511942251708e+02 -2.918975276816622e+03
-1.147757992023498e+03  3.286975624345441e+02 -2.918975276816622e+03
-1.147715706117661e+03  3.268701893166647e+02 -2.918975276816622e+03
-1.147623907053517e+03  3.247629698576583e+02 -2.918975276816622e+03
-1.147572427008377e+03  3.234516208382413e+02 -2.918975276816622e+03
-1.147689830422727e+03  3.221987995706294e+02 -2.918975276816622e+03
-1.147712660945723e+03  3.205253835391602e+02 -2.918975276816622e+03
-1.147715605831532e+03  3.186635239777590e+02 -2.918975276816622e+03
-1.147782316950185e+03  3.152842866992327e+02 -2.918975276816622e+03
-1.147806753848442e+03  3.127571496876163e+02 -2.918975276816622e+03
-1.147815179004333e+03  3.109888765517748e+02 -2.918975276816622e+03
-1.147825367566868e+03  3.084344021386494e+02 -2.918975276816622e+03
-1.147802745660088e+03  3.060564070574136e+02 -2.918975276816622e+03
-1.147805587394694e+03  3.042051752309390e+02 -2.918975276816622e+03
-1.147868664197985e+03  3.022791940700209e+02 -2.918975276816622e+03
-1.147868463680243e+03  2.999503427236090e+02 -2.918975276816622e+03
-1.147876782922678e+03  2.974993792854758e+02 -2.918975276816622e+03
-1.147837061741832e+03  2.961963802478527e+02 -2.918975276816622e+03
-1.147845661535021e+03  2.948964241593691e+02 -2.918975276816622e+03
-1.147900156364015e+03  2.925188552735177e+02 -2.918975276816622e+03
-1.147904184831503e+03  2.902085950416687e+02 -2.918975276816622e+03
-1.147915019397228e+03  2.888022050705046e+02 -2.918975276816622e+03
-1.147906906625571e+03  2.873957780252674e+02 -2.918975276816622e+03
-1.147873241337391e+03  2.847050041842062e+02 -2.918975276816622e+03
-1.147871148876478e+03  2.825943401696430e+02 -2.918975276816622e+03
-1.147897555091564e+03  2.810594241535055e+02 -2.918975276816622e+03
-1.147896572096693e+03  2.790551885573792e+02 -2.918975276816622e+03
-1.147863898008217e+03  2.770921077072690e+02 -2.918975276816622e+03
-1.147850168579929e+03  2.759256337155077e+02 -2.918975276816622e+03
-1.147844302258612e+03  2.749462450566796e+02 -2.918975276816622e+03
-1.147843507270022e+03  2.729667372052030e+02 -2.918975276816622e+03
-1.147840320362558e+03  2.713065265710976e+02 -2.918975276816622e+03
-1.147839452078506e+03  2.700160955800553e+02 -2.918975276816622e+03
-1.147833679290641e+03  2.679114537650659e+02 -2.918975276816622e+03
-1.147827587713968e+03  2.661263397140725e+02 -2.918975276816622e+03
-1.147825215071855e+03  2.642994163454512e+02 -2.918975276816622e+03
-1.147816162453306e+03  2.620283957261112e+02 -2.918975276816622e+03
-1.147813328178743e+03  2.605082926703486e+02 -2.918975276816622e+03
-1.147806639679677e+03  2.590236224232266e+02 -2.918975276816622e+03
-1.147802026147316e+03  2.573829463378696e+02 -2.918975276816622e+03
-1.147786944194384e+03  2.553765479595937e+02 -2.918975276816622e+03
-1.147771471633737e+03  2.527106107481410e+02 -2.918975276816622e+03
-1.147742988435200e+03  2.507993311936119e+02 -2.918975276816622e+03
-1.147740552250209e+03  2.498344635129745e+02 -2.918975276816622e+03
-1.147719452670058e+03  2.482870084395732e+02 -2.918975276816622e+03
-1.147712247447506e+03  2.464532739743855e+02 -2.918975276816622e+03
-1.147685776699361e+03  2.446880214324920e+02 -2.918975276816622e+03
-1.147653549056914e+03  2.434512485668137e+02 -2.918975276816622e+03
-1.147611623499663e+03  2.419893294268544e+02 -2.918975276816622e+03
-1.147580259774692e+03  2.403572549131115e+02 -2.918975276816622e+03
-1.147543793579658e+03  2.392955548594088e+02 -2.918975276816622e+03
-1.147505507533473e+03  2.374113499000011e+02 -2.918975276816622e+03
-1.147472654225715e+03  2.358184176729737e+02 -2.918975276816622e+03
-1.147451482167202e+03  2.347070743006343e+02 -2.918975276816622e+03
-1.147410950717782e+03  2.330021911169974e+02 -2.918975276816622e+03
-1.147363910045189e+03  2.312787564112143e+02 -2.918975276816622e+03
-1.147339641803125e+03  2.300916337015613e+02 -2.918975276816622e+03
-1.147291029258832e+03  2.284353657152999e+02 -2.918975276816622e+03
-1.147256886565118e+03  2.268101813888291e+02 -2.918975276816622e+03
-1.147231521578588e+03  2.253791644801761e+02 -2.918975276816622e+03
-1.147207008876108e+03  2.238897801035187e+02 -2.918975276816622e+03
-1.147176442222690e+03  2.218837298843122e+02 -2.918975276816622e+03
-1.147150096324247e+03  2.184104798865887e+02 -2.918975276816622e+03
-1.147126284858835e+03  2.161970685808339e+02 -2.918975276816622e+03
-1.147110582299610e+03  2.152240893951722e+02 -2.918975276816622e+03
-1.147032933716535e+03  2.137632627388674e+02 -2.918975276816622e+03
-1.147016019202232e+03  2.124806103539665e+02 -2.918975276816622e+03
-1.147040902230790e+03  2.110707150319191e+02 -2.918975276816622e+03
-1.147043641476682e+03  2.097140293774126e+02 -2.918975276816622e+03
-1.147014768169356e+03  2.081873959305410e+02 -2.918975276816622e+03
-1.147013506116391e+03  2.065425190200724e+02 -2.918975276816622e+03
-1.147026804707142e+03  2.050344279523950e+02 -2.918975276816622e+03
-1.147018530805413e+03  2.036870127815387e+02 -2.918975276816622e+03
-1.147030556806460e+03  2.020716941164927e+02 -2.918975276816622e+03
-1.147039308012565e+03  1.998278136059388e+02 -2.918975276816622e+03
-1.147056489954964e+03  1.974918669109959e+02 -2.918975276816622e+03
-1.147053298831934e+03  1.942293729552764e+02 -2.918975276816622e+03
-1.147042521862493e+03  1.912206036026532e+02 -2.918975276816622e+03
-1.147032358380640e+03  1.897040311475132e+02 -2.918975276816622e+03
-1.147031587458751e+03  1.882191819749533e+02 -2.918975276816622e+03
-1.147019526936576e+03  1.867966476714443e+02 -2.918975276816622e+03
-1.146998075713699e+03  1.853672908735415e+02 -2.918975276816622e+03
-1.146977265879126e+03  1.838972219512053e+02 -2.918975276816622e+03
-1.146944865937889e+03  1.819566403538998e+02 -2.918975276816622e+03
-1.146911829060045e+03  1.797927368822977e+02 -2.918975276816622e+03
-1.146874792515579e+03  1.786947046913830e+02 -2.918975276816622e+03
-1.146842136242800e+03  1.772878838691911e+02 -2.918975276816622e+03
-1.146820611600624e+03  1.761720110718921e+02 -2.918975276816622e+03
-1.146855496221211e+03  1.747949380601243e+02 -2.918975276816622e+03
-1.146894155974174e+03  1.726279911692187e+02 -2.918975276816622e+03
-1.146920375379604e+03  1.709800732526918e+02 -2.918975276816622e+03
-1.146939797625286e+03  1.696194530177495e+02 -2.918975276816622e+03
-1.146958154006385e+03  1.682327449726726e+02 -2.918975276816622e+03
-1.146971556530768e+03  1.668332170694463e+02 -2.918975276816622e+03
-1.146992434473432e+03  1.652805485576129e+02 -2.918975276816622e+03
-1.147011991159026e+03  1.638308873708860e+02 -2.918975276816622e+03
-1.147027055915750e+03  1.621621666870199e+02 -2.918975276816622e+03
-1.147043223917401e+03  1.606797510859525e+02 -2.918975276816622e+03
-1.147056823740240e+03  1.593141692892071e+02 -2.918975276816622e+03
-1.147082663971969e+03  1.569481103694883e+02 -2.918975276816622e+03
-1.147092285416313e+03  1.543968399924012e+02 -2.918975276816622e+03
-1.147098590879846e+03  1.523911781252096e+02 -2.918975276816622e+03
-1.147095641708825e+03  1.507992745679252e+02 -2.918975276816622e+03
-1.147106785190666e+03  1.495109027077906e+02 -2.918975276816622e+03
-1.147100541914538e+03  1.482857479978785e+02 -2.918975276816622e+03
-1.147097900381759e+03  1.469095322951198e+02 -2.918975276816622e+03
-1.147098041043017e+03  1.453271446186401e+02 -2.918975276816622e+03
-1.147092744222033e+03  1.438165078627269e+02 -2.918975276816622e+03
-1.147076075895851e+03  1.421526163845137e+02 -2.918975276816622e+03
-1.147050599045531e+03  1.408872468229752e+02 -2.918975276816622e+03
-1.147103412946877e+03  1.396959638718243e+02 -2.918975276816622e+03
-1.147149615229744e+03  1.378376354473656e+02 -2.918975276816622e+03
-1.147167571678089e+03  1.368186488160717e+02 -2.918975276816622e+03
-1.147188894503358e+03  1.353977245132058e+02 -2.918975276816622e+03
-1.147242126836012e+03  1.336275875928548e+02 -2.918975276816622e+03
-1.147273215663203e+03  1.317488328712252e+02 -2.918975276816622e+03
-1.147300524488890e+03  1.298806777987059e+02 -2.918975276816622e+03
-1.147338995800350e+03  1.284131010512239e+02 -2.918975276816622e+03
-1.147364951523051e+03  1.266489582009416e+02 -2.918975276816622e+03
-1.147421646133416e+03  1.245979291459795e+02 -2.918975276816622e+03
-1.147464557648638e+03  1.222555452201701e+02 -2.918975276816622e+03
-1.147488383476982e+03  1.206217166427444e+02 -2.918975276816622e+03
-1.147527866129044e+03  1.189832437065443e+02 -2.918975276816622e+03
-1.147563378050634e+03  1.163358564437476e+02 -2.918975276816622e+03
-1.147610264339512e+03  1.138716791682324e+02 -2.918975276816622e+03
-1.147631311248968e+03  1.124316606809089e+02 -2.918975276816622e+03
-1.147654842054694e+03  1.112232603411751e+02 -2.918975276816622e+03
-1.147670824993390e+03  1.099996097439468e+02 -2.918975276816622e+03
-1.147702837731680e+03  1.083544098289363e+02 -2.918975276816622e+03
-1.147719544561881e+03  1.066122634920095e+02 -2.918975276816622e+03
-1.147735289859099e+03  1.053267350895769e+02 -2.918975276816622e+03
-1.147750510214538e+03  1.040169330402660e+02 -2.918975276816622e+03
-1.147760322306815e+03  1.022311380360213e+02 -2.918975276816622e+03
-1.147776740473257e+03  1.004876640238488e+02 -2.918975276816622e+03
-1.147787459645933e+03  9.928704322167602e+01 -2.918975276816622e+03
-1.147797271003573e+03  9.783590764162652e+01 -2.918975276816622e+03
-1.147795397339096e+03  9.610706313560345e+01 -2.918975276816622e+03
-1.147805297687511e+03  9.332472807066270e+01 -2.918975276816622e+03
-1.147792424635714e+03  9.014800394135459e+01 -2.918975276816622e+03
-1.147808297949868e+03  8.723349646772479e+01 -2.918975276816622e+03
-1.147786752679673e+03  8.399299566449022e+01 -2.918975276816622e+03
-1.147789870029025e+03  8.160443269301369e+01 -2.918975276816622e+03
-1.147784649589709e+03  7.991442707857841e+01 -2.918975276816622e+03
-1.147780351179596e+03  7.756700403444874e+01 -2.918975276816622e+03
-1.147764687787600e+03  7.500137067051492e+01 -2.918975276816622e+03
-1.147755242256369e+03  7.275600656181525e+01 -2.918975276816622e+03
-1.147755071944491e+03  7.114967076028667e+01 -2.918975276816622e+03
-1.147755845636844e+03  6.936020168253441e+01 -2.918975276816622e+03
-1.147759606268207e+03  6.777032270530050e+01 -2.918975276816622e+03
-1.147757696938494e+03  6.652040125104911e+01 -2.918975276816622e+03
-1.147768774323474e+03  6.378814135228586e+01 -2.918975276816622e+03
-1.147779565843016e+03  6.024997418771708e+01 -2.918975276816622e+03
-1.147823946981300e+03  5.681472712770179e+01 -2.918975276816622e+03
-1.147837791260580e+03  5.401190986211986e+01 -2.918975276816622e+03
-1.147865570586265e+03  5.202881023626932e+01 -2.918975276816622e+03
-1.147877604350025e+03  5.031130873855881e+01 -2.918975276816622e+03
-1.147864295595155e+03  4.846991107826138e+01 -2.918975276816622e+03
-1.147658852883242e+03  4.596938016214018e+01 -2.918975276816622e+03
-1.147272234117742e+03  4.344070183780224e+01 -2.918975276816622e+03
-1.146784024485770e+03  4.106039676748578e+01 -2.918975276816622e+03
-1.147408533127208e+03  3.993595218181123e+01 -2.918975276816622e+03
-1.148210249332089e+03  3.908656973327549e+01 -2.918975276816622e+03
-1.148194655837880e+03  3.673581220211703e+01 -2.918975276816622e+03
-1.148258860159577e+03  3.354410575628578e+01 -2.918975276816622e+03
-1.148272293916259e+03  3.033701709558056e+01 -2.918975276816622e+03
-1.148352755884072e+03  2.754297674448988e+01 -2.918975276816622e+03
-1.148365189714426e+03  2.457658859017771e+01 -2.918975276816622e+03
-1.148367448026044e+03  2.294271777713812e+01 -2.918975276816622e+03
-1.148391147476433e+03  2.198775599375718e+01 -2.918975276816622e+03
-1.148416099224787e+03  2.065165358226456e+01 -2.918975276816622e+03
-1.148442095689690e+03  1.908972637882250e+01 -2.918975276816622e+03
-1.148474716984158e+03  1.732614661087511e+01 -2.918975276816622e+03
-1.148503028361684e+03  1.513978665960090e+01 -2.918975276816622e+03
-1.148534668974261e+03  1.217818902480911e+01 -2.918975276816622e+03
-1.148549164492308e+03  9.160773800772956e+00 -2.918975276816622e+03
-1.148554258500440e+03  6.914224074676561e+00 -2.918975276816622e+03
-1.148556235459272e+03  5.698593403465136e+00 -2.918975276816622e+03
 1.145905356701097e+03 -3.462585679165364e-01  2.918975276816622e+03
1.145932690798375e+03 1.518486299498493e+00 2.918975276816622e+03
 1.145866251080018e+03 -2.216740721953979e+00  2.918975276816622e+03
 1.145846715438450e+03 -3.989188676142478e+00  2.918975276816622e+03
 1.145796952262335e+03 -5.547886988703224e+00  2.918975276816622e+03
 1.145742312651624e+03 -7.747421911025394e+00  2.918975276816622e+03
 1.145696583525779e+03 -9.364377853042210e+00  2.918975276816622e+03
 1.145664657384825e+03 -1.082609256412349e+01  2.918975276816622e+03
 1.145616437979087e+03 -1.260109807978103e+01  2.918975276816622e+03
 1.145533469263518e+03 -1.522558249210108e+01  2.918975276816622e+03
 1.145451288449192e+03 -1.814972029240895e+01  2.918975276816622e+03
 1.145383459081134e+03 -2.040998563924857e+01  2.918975276816622e+03
 1.145316825500437e+03 -2.269769394168999e+01  2.918975276816622e+03
 1.145249985216556e+03 -2.498461489491828e+01  2.918975276816622e+03
 1.145196783708492e+03 -2.694075944280726e+01  2.918975276816622e+03
 1.145152233689898e+03 -2.880097523175390e+01  2.918975276816622e+03
 1.145121696664391e+03 -3.001050007920078e+01  2.918975276816622e+03
 1.145094706602270e+03 -3.100680344034216e+01  2.918975276816622e+03
 1.145058364836029e+03 -3.255385697225753e+01  2.918975276816622e+03
 1.145019863228440e+03 -3.449050954133305e+01  2.918975276816622e+03
 1.144971697677028e+03 -3.691009777357082e+01  2.918975276816622e+03
 1.144943633990923e+03 -3.868600752133672e+01  2.918975276816622e+03
 1.144903039083160e+03 -4.056020583532425e+01  2.918975276816622e+03
 1.144864770741561e+03 -4.344774580379770e+01  2.918975276816622e+03
 1.144841418645243e+03 -4.529780811522394e+01  2.918975276816622e+03
 1.144845281082836e+03 -4.639339081388525e+01  2.918975276816622e+03
 1.144835703468683e+03 -4.834783552723152e+01  2.918975276816622e+03
 1.144828230821274e+03 -4.996351155086825e+01  2.918975276816622e+03
 1.144793830624913e+03 -5.214190741339537e+01  2.918975276816622e+03
 1.144816832761682e+03 -5.451345149620642e+01  2.918975276816622e+03
 1.144815764147079e+03 -5.577708032241365e+01  2.918975276816622e+03
 1.144817276039869e+03 -5.751347476358899e+01  2.918975276816622e+03
 1.144820716550569e+03 -5.952630210823245e+01  2.918975276816622e+03
 1.144819572236745e+03 -6.138953738425010e+01  2.918975276816622e+03
 1.144847759772992e+03 -6.306498088995247e+01  2.918975276816622e+03
 1.144848099563986e+03 -6.419425726367588e+01  2.918975276816622e+03
 1.144856207309321e+03 -6.502837065363730e+01  2.918975276816622e+03
 1.144848286489625e+03 -6.617889756357663e+01  2.918975276816622e+03
 1.144858781089062e+03 -6.777548209057365e+01  2.918975276816622e+03
 1.144845229956806e+03 -6.944792850591787e+01  2.918975276816622e+03
 1.144861094696542e+03 -7.147548461767680e+01  2.918975276816622e+03
 1.144862541915121e+03 -7.383331878793285e+01  2.918975276816622e+03
 1.144887058327951e+03 -7.686947088117913e+01  2.918975276816622e+03
 1.144904336809614e+03 -7.971573816357517e+01  2.918975276816622e+03
 1.144923146206580e+03 -8.149996889441921e+01  2.918975276816622e+03
 1.144938008527432e+03 -8.313239313961827e+01  2.918975276816622e+03
 1.144950651677405e+03 -8.448401967740477e+01  2.918975276816622e+03
 1.144967733880911e+03 -8.504567988594695e+01  2.918975276816622e+03
 1.144986416276852e+03 -8.563510231962024e+01  2.918975276816622e+03
 1.144986973848263e+03 -8.670101735765078e+01  2.918975276816622e+03
 1.144976317172514e+03 -8.801689786477976e+01  2.918975276816622e+03
 1.144979805558670e+03 -8.951690062626086e+01  2.918975276816622e+03
 1.144969860779958e+03 -9.135088122386257e+01  2.918975276816622e+03
 1.144969975436694e+03 -9.360309378287032e+01  2.918975276816622e+03
 1.144976907845785e+03 -9.637816350926543e+01  2.918975276816622e+03
 1.144986951378054e+03 -9.870310247582240e+01  2.918975276816622e+03
 1.144995428827790e+03 -1.005622979549896e+02  2.918975276816622e+03
 1.145013799303426e+03 -1.022700104410777e+02  2.918975276816622e+03
 1.145027477945753e+03 -1.034668637860392e+02  2.918975276816622e+03
 1.145031339033964e+03 -1.042000760798982e+02  2.918975276816622e+03
 1.145025612371644e+03 -1.048982329004707e+02  2.918975276816622e+03
 1.144994451072319e+03 -1.059414273285610e+02  2.918975276816622e+03
 1.144969799645738e+03 -1.069318351617529e+02  2.918975276816622e+03
 1.144940938321272e+03 -1.087298988252713e+02  2.918975276816622e+03
 1.144926964822679e+03 -1.100639259650694e+02  2.918975276816622e+03
 1.144922569160589e+03 -1.112851458019632e+02  2.918975276816622e+03
 1.144888923610473e+03 -1.134866210228119e+02  2.918975276816622e+03
 1.144851884146875e+03 -1.158028405759127e+02  2.918975276816622e+03
 1.144811450769795e+03 -1.182338044612654e+02  2.918975276816622e+03
 1.144775405404794e+03 -1.206188064278267e+02  2.918975276816622e+03
 1.144760271277705e+03 -1.229566264488756e+02  2.918975276816622e+03
 1.144761660376446e+03 -1.252932264432035e+02  2.918975276816622e+03
 1.144751583993512e+03 -1.276043554082514e+02  2.918975276816622e+03
 1.144762519793178e+03 -1.294769874537920e+02  2.918975276816622e+03
 1.144782692923131e+03 -1.313490461877996e+02  2.918975276816622e+03
 1.144779625719095e+03 -1.336335575005014e+02  2.918975276816622e+03
 1.144788294072046e+03 -1.363660991522437e+02  2.918975276816622e+03
 1.144798861760328e+03 -1.386080267641265e+02  2.918975276816622e+03
 1.144823938528222e+03 -1.411156611301292e+02  2.918975276816622e+03
 1.144823137299112e+03 -1.438874297294017e+02  2.918975276816622e+03
 1.144844062993619e+03 -1.458110916957914e+02  2.918975276816622e+03
 1.144870486632051e+03 -1.477337777652698e+02  2.918975276816622e+03
 1.144861091790316e+03 -1.494423635915164e+02  2.918975276816622e+03
 1.144868965436006e+03 -1.514055669507071e+02  2.918975276816622e+03
 1.144863473771323e+03 -1.537444019222953e+02  2.918975276816622e+03
 1.144871467445837e+03 -1.568086118146888e+02  2.918975276816622e+03
 1.144875787946786e+03 -1.596027249620965e+02  2.918975276816622e+03
 1.144876819174415e+03 -1.613293858370411e+02  2.918975276816622e+03
 1.144872860472007e+03 -1.630512440642914e+02  2.918975276816622e+03
 1.144865548623422e+03 -1.645403076619226e+02  2.918975276816622e+03
 1.144867779308489e+03 -1.653525960304794e+02  2.918975276816622e+03
 1.144871450915495e+03 -1.663761554203817e+02  2.918975276816622e+03
 1.144869414682408e+03 -1.679229295818740e+02  2.918975276816622e+03
 1.144862100941938e+03 -1.694119425920458e+02  2.918975276816622e+03
 1.144861355095628e+03 -1.713817147794269e+02  2.918975276816622e+03
 1.144859342399170e+03 -1.738251484051047e+02  2.918975276816622e+03
 1.144843650798017e+03 -1.767887163035672e+02  2.918975276816622e+03
 1.144822909591732e+03 -1.793967604780650e+02  2.918975276816622e+03
 1.144828649590665e+03 -1.809104135163047e+02  2.918975276816622e+03
 1.144832024875662e+03 -1.836259991084625e+02  2.918975276816622e+03
 1.144823973320640e+03 -1.865286429872160e+02  2.918975276816622e+03
 1.144812887080965e+03 -1.881573948925394e+02  2.918975276816622e+03
 1.144810855998822e+03 -1.895999907405444e+02  2.918975276816622e+03
 1.144820865287500e+03 -1.914218672093791e+02  2.918975276816622e+03
 1.144822035325235e+03 -1.937688957897628e+02  2.918975276816622e+03
 1.144822649694194e+03 -1.968583815596168e+02  2.918975276816622e+03
 1.144821619862153e+03 -2.008406878285361e+02  2.918975276816622e+03
 1.144819846579486e+03 -2.048506156583252e+02  2.918975276816622e+03
 1.144817960062688e+03 -2.075961087257755e+02  2.918975276816622e+03
 1.144817196022370e+03 -2.092498697262358e+02  2.918975276816622e+03
 1.144817361620992e+03 -2.112772408247048e+02  2.918975276816622e+03
 1.144816876066348e+03 -2.136282610745587e+02  2.918975276816622e+03
 1.144817867160304e+03 -2.158787331369547e+02  2.918975276816622e+03
 1.144816843826038e+03 -2.178068603570404e+02  2.918975276816622e+03
 1.144813455482415e+03 -2.199316763695441e+02  2.918975276816622e+03
 1.144811193206256e+03 -2.224749778293183e+02  2.918975276816622e+03
 1.144803847642673e+03 -2.244454250683681e+02  2.918975276816622e+03
 1.144805428997501e+03 -2.269981454541582e+02  2.918975276816622e+03
 1.144803056085752e+03 -2.295104796626193e+02  2.918975276816622e+03
 1.144813129733707e+03 -2.315596472635633e+02  2.918975276816622e+03
 1.144811863320331e+03 -2.335656669359470e+02  2.918975276816622e+03
 1.144825847896479e+03 -2.354940087776343e+02  2.918975276816622e+03
 1.144817573537483e+03 -2.378720722563385e+02  2.918975276816622e+03
 1.144842603151047e+03 -2.401734035182942e+02  2.918975276816622e+03
 1.144870742421335e+03 -2.431928559901640e+02  2.918975276816622e+03
 1.144896958314919e+03 -2.464947789328805e+02  2.918975276816622e+03
 1.144940815034508e+03 -2.484758208314960e+02  2.918975276816622e+03
 1.144944439061103e+03 -2.500126397967234e+02  2.918975276816622e+03
 1.144997721525947e+03 -2.521618293149722e+02  2.918975276816622e+03
 1.144714095705040e+03 -2.544885534719534e+02  2.918975276816622e+03
 1.145392564297533e+03 -2.557421099266419e+02  2.918975276816622e+03
 1.146124136447988e+03 -2.570975998218705e+02  2.918975276816622e+03
 1.145495134839865e+03 -2.596005761361405e+02  2.918975276816622e+03
 1.145102085230190e+03 -2.620172355564498e+02  2.918975276816622e+03
 1.145059662236349e+03 -2.645527274453220e+02  2.918975276816622e+03
 1.145044762797756e+03 -2.674294534931572e+02  2.918975276816622e+03
 1.145041263207462e+03 -2.695308558714978e+02  2.918975276816622e+03
 1.145053288514335e+03 -2.713871184381452e+02  2.918975276816622e+03
 1.145070803554901e+03 -2.730713385025045e+02  2.918975276816622e+03
 1.145082512716569e+03 -2.746151362228151e+02  2.918975276816622e+03
 1.145103238541126e+03 -2.772024720614202e+02  2.918975276816622e+03
 1.145116559084987e+03 -2.797568898964292e+02  2.918975276816622e+03
 1.145133810676784e+03 -2.821378897845512e+02  2.918975276816622e+03
 1.145144380014064e+03 -2.850297912758192e+02  2.918975276816622e+03
 1.145158244723991e+03 -2.876608944064990e+02  2.918975276816622e+03
 1.145157212720873e+03 -2.896648872349572e+02  2.918975276816622e+03
 1.145166626961869e+03 -2.919474040562597e+02  2.918975276816622e+03
 1.145161793235618e+03 -2.941034043809873e+02  2.918975276816622e+03
 1.145160765052989e+03 -2.968936185384970e+02  2.918975276816622e+03
 1.145169232728778e+03 -2.989350909032691e+02  2.918975276816622e+03
 1.145183559322201e+03 -3.008791467236721e+02  2.918975276816622e+03
 1.145196321012210e+03 -3.031202575068863e+02  2.918975276816622e+03
 1.145163559282977e+03 -3.047698967049162e+02  2.918975276816622e+03
 1.145136576192325e+03 -3.070769992640078e+02  2.918975276816622e+03
 1.145125207409108e+03 -3.091892084431768e+02  2.918975276816622e+03
 1.145078297121608e+03 -3.112371470868374e+02  2.918975276816622e+03
 1.145062789194227e+03 -3.129640556190774e+02  2.918975276816622e+03
 1.145041743762942e+03 -3.142695404876851e+02  2.918975276816622e+03
 1.145021559910091e+03 -3.164515966940228e+02  2.918975276816622e+03
 1.144991094625347e+03 -3.185303786410892e+02  2.918975276816622e+03
 1.144975618206605e+03 -3.203248261206373e+02  2.918975276816622e+03
 1.144943245895908e+03 -3.224641070950708e+02  2.918975276816622e+03
 1.144907460477950e+03 -3.247323941937936e+02  2.918975276816622e+03
 1.144914662159339e+03 -3.262374008440702e+02  2.918975276816622e+03
 1.144937077219250e+03 -3.277034664352643e+02  2.918975276816622e+03
 1.144903214167493e+03 -3.303636232327251e+02  2.918975276816622e+03
 1.144890686321409e+03 -3.330249725929418e+02  2.918975276816622e+03
 1.144897670823954e+03 -3.361858398389817e+02  2.918975276816622e+03
 1.144873507634386e+03 -3.384612967497648e+02  2.918975276816622e+03
 1.144814073437897e+03 -3.397831176070451e+02  2.918975276816622e+03
 1.144802764137850e+03 -3.419234950297072e+02  2.918975276816622e+03
 1.144776498561272e+03 -3.440963805550374e+02  2.918975276816622e+03
 1.144760500571192e+03 -3.468887036873827e+02  2.918975276816622e+03
 1.144725494028196e+03 -3.500735904377846e+02  2.918975276816622e+03
 1.144689659760847e+03 -3.523794540044585e+02  2.918975276816622e+03
 1.144690520459613e+03 -3.552510029652991e+02  2.918975276816622e+03
 1.144631366348334e+03 -3.584264054708671e+02  2.918975276816622e+03
 1.144643900790313e+03 -3.598951282294296e+02  2.918975276816622e+03
 1.144657529985940e+03 -3.609508528710044e+02  2.918975276816622e+03
 1.144713393450457e+03 -3.631024497269303e+02  2.918975276816622e+03
 1.144725104272145e+03 -3.656345667037229e+02  2.918975276816622e+03
 1.144747835054006e+03 -3.677403083616680e+02  2.918975276816622e+03
 1.144782584750974e+03 -3.699731269466184e+02  2.918975276816622e+03
 1.144799141621408e+03 -3.715318665485901e+02  2.918975276816622e+03
 1.144824716496515e+03 -3.734838065987821e+02  2.918975276816622e+03
 1.144866664610914e+03 -3.765686789206491e+02  2.918975276816622e+03
 1.144896478146802e+03 -3.791247824192803e+02  2.918975276816622e+03
 1.144925993651030e+03 -3.816399165000519e+02  2.918975276816622e+03
 1.144943156419708e+03 -3.831910573850216e+02  2.918975276816622e+03
 1.144962781318179e+03 -3.849352626910356e+02  2.918975276816622e+03
1.145010509285266e+03 3.830864521026363e+02 2.918975276816622e+03
1.144989194041305e+03 3.856114739347285e+02 2.918975276816622e+03
1.145042891841842e+03 3.800877759269394e+02 2.918975276816622e+03
1.145058883494581e+03 3.783688760998120e+02 2.918975276816622e+03
1.145071902011268e+03 3.771431809730190e+02 2.918975276816622e+03
1.145091700112957e+03 3.750319050478157e+02 2.918975276816622e+03
1.145105740309866e+03 3.732487934622561e+02 2.918975276816622e+03
1.145118070473326e+03 3.720229930253465e+02 2.918975276816622e+03
1.145137762669692e+03 3.692623359834511e+02 2.918975276816622e+03
1.145173299240403e+03 3.663435616417303e+02 2.918975276816622e+03
1.145190507808068e+03 3.640043905659718e+02 2.918975276816622e+03
1.145233297227199e+03 3.612923599190957e+02 2.918975276816622e+03
1.145256006715420e+03 3.590740909178523e+02 2.918975276816622e+03
1.145277042753293e+03 3.576636144289291e+02 2.918975276816622e+03
1.145293565060557e+03 3.562926280344685e+02 2.918975276816622e+03
1.145331198788892e+03 3.545947125581544e+02 2.918975276816622e+03
1.145369624202131e+03 3.527254393477531e+02 2.918975276816622e+03
1.145408888226860e+03 3.510623173413061e+02 2.918975276816622e+03
1.145452014096306e+03 3.492510264619385e+02 2.918975276816622e+03
1.145499521631580e+03 3.474352752276847e+02 2.918975276816622e+03
1.145547223778143e+03 3.457185819900610e+02 2.918975276816622e+03
1.145586385930308e+03 3.441212943069207e+02 2.918975276816622e+03
1.145628005419605e+03 3.426256370417881e+02 2.918975276816622e+03
1.145686519375232e+03 3.407825580519563e+02 2.918975276816622e+03
1.145754129799794e+03 3.390238596420481e+02 2.918975276816622e+03
1.145850509623380e+03 3.364242011030881e+02 2.918975276816622e+03
1.146016775111638e+03 3.331445036159723e+02 2.918975276816622e+03
1.146209940577005e+03 3.302791812445726e+02 2.918975276816622e+03
1.146350258558586e+03 3.287858913238659e+02 2.918975276816622e+03
1.146191073762922e+03 3.273282912850739e+02 2.918975276816622e+03
1.146079884659954e+03 3.248012384050694e+02 2.918975276816622e+03
1.145995482833295e+03 3.224629708280981e+02 2.918975276816622e+03
1.145936400881394e+03 3.203550409054270e+02 2.918975276816622e+03
1.145929453880070e+03 3.189655251721536e+02 2.918975276816622e+03
1.145911576805737e+03 3.173671387431165e+02 2.918975276816622e+03
1.145876647668221e+03 3.148185223621853e+02 2.918975276816622e+03
1.145828768542056e+03 3.127158007282509e+02 2.918975276816622e+03
1.145843630224434e+03 3.117653743743379e+02 2.918975276816622e+03
1.145826609483988e+03 3.106270580578080e+02 2.918975276816622e+03
1.145806013104205e+03 3.087339248375937e+02 2.918975276816622e+03
1.145762772733111e+03 3.071638618601301e+02 2.918975276816622e+03
1.145749839527233e+03 3.053802353198185e+02 2.918975276816622e+03
1.145715335713724e+03 3.031291464106808e+02 2.918975276816622e+03
1.145694851225561e+03 3.017415781517678e+02 2.918975276816622e+03
1.145676095908837e+03 3.001940684427450e+02 2.918975276816622e+03
1.145648114878483e+03 2.982120019235566e+02 2.918975276816622e+03
1.145622974226514e+03 2.964642835316765e+02 2.918975276816622e+03
1.145593272627750e+03 2.946221480019961e+02 2.918975276816622e+03
1.145561777617248e+03 2.928693188627643e+02 2.918975276816622e+03
1.145527015960910e+03 2.906933802327729e+02 2.918975276816622e+03
1.145486444185567e+03 2.882651657466318e+02 2.918975276816622e+03
1.145452475971339e+03 2.860296877118266e+02 2.918975276816622e+03
1.145410849356064e+03 2.840117832403270e+02 2.918975276816622e+03
1.145367624768118e+03 2.819441746731479e+02 2.918975276816622e+03
1.145307562941764e+03 2.791055259169383e+02 2.918975276816622e+03
1.145242845578682e+03 2.763169089574980e+02 2.918975276816622e+03
1.145173604213715e+03 2.732336263613337e+02 2.918975276816622e+03
1.145100374067373e+03 2.700372675414912e+02 2.918975276816622e+03
1.145052524832710e+03 2.677690289128448e+02 2.918975276816622e+03
1.145017010394849e+03 2.658771234912378e+02 2.918975276816622e+03
1.144948929148940e+03 2.637405444726999e+02 2.918975276816622e+03
1.144884237022820e+03 2.605037153187331e+02 2.918975276816622e+03
1.144858263516567e+03 2.583133585720562e+02 2.918975276816622e+03
1.144824416985980e+03 2.568312302210567e+02 2.918975276816622e+03
1.144792269535834e+03 2.545316145269862e+02 2.918975276816622e+03
1.144814345321844e+03 2.524438908344624e+02 2.918975276816622e+03
1.144794140591020e+03 2.508106650584990e+02 2.918975276816622e+03
1.144718588820290e+03 2.493690614138966e+02 2.918975276816622e+03
1.144718339611293e+03 2.478450935573500e+02 2.918975276816622e+03
1.144725913036994e+03 2.464182490141531e+02 2.918975276816622e+03
1.144720077490617e+03 2.451543807509408e+02 2.918975276816622e+03
1.144721832130002e+03 2.437358019875810e+02 2.918975276816622e+03
1.144726772210641e+03 2.425182909711162e+02 2.918975276816622e+03
1.144734658336624e+03 2.411941999942164e+02 2.918975276816622e+03
1.144749158561867e+03 2.391035475871490e+02 2.918975276816622e+03
1.144775836338393e+03 2.367431644957351e+02 2.918975276816622e+03
1.144793307315561e+03 2.347628132515076e+02 2.918975276816622e+03
1.144810409084555e+03 2.326520824452441e+02 2.918975276816622e+03
1.144852285787227e+03 2.299532472581546e+02 2.918975276816622e+03
1.144879562225423e+03 2.279871503021918e+02 2.918975276816622e+03
1.144874126458155e+03 2.268513362011704e+02 2.918975276816622e+03
1.144896785017085e+03 2.250711390764704e+02 2.918975276816622e+03
1.144979547011292e+03 2.228371577475451e+02 2.918975276816622e+03
1.145000481595617e+03 2.210243685834801e+02 2.918975276816622e+03
1.144966565044985e+03 2.191204225457917e+02 2.918975276816622e+03
1.144969459279862e+03 2.169145779412835e+02 2.918975276816622e+03
1.145021066451417e+03 2.142671569127130e+02 2.918975276816622e+03
1.145064663080825e+03 2.119542104309317e+02 2.918975276816622e+03
1.145116867976613e+03 2.099308685398095e+02 2.918975276816622e+03
1.145149212311848e+03 2.081583878567633e+02 2.918975276816622e+03
1.145181061482429e+03 2.069455042124125e+02 2.918975276816622e+03
1.145219281885240e+03 2.061517817526975e+02 2.918975276816622e+03
1.145223363433919e+03 2.053563528342499e+02 2.918975276816622e+03
1.145217570147049e+03 2.043225006749330e+02 2.918975276816622e+03
1.145193005151383e+03 2.033219885606011e+02 2.918975276816622e+03
1.145173971584488e+03 2.020181333166010e+02 2.918975276816622e+03
1.145155940546802e+03 2.008246690446612e+02 2.918975276816622e+03
1.145148173220319e+03 1.990613960840934e+02 2.918975276816622e+03
1.145119908323106e+03 1.966413952402555e+02 2.918975276816622e+03
1.145061660763313e+03 1.938136868769469e+02 2.918975276816622e+03
1.145034567384815e+03 1.900886899123127e+02 2.918975276816622e+03
1.145015694081321e+03 1.871557065841781e+02 2.918975276816622e+03
1.144969132690020e+03 1.849773396116860e+02 2.918975276816622e+03
1.144896194493774e+03 1.826334963792711e+02 2.918975276816622e+03
1.144873833485731e+03 1.810144338237364e+02 2.918975276816622e+03
1.144897072433708e+03 1.792196579303319e+02 2.918975276816622e+03
1.144863728663487e+03 1.768858901249668e+02 2.918975276816622e+03
1.144851558002614e+03 1.742993378169189e+02 2.918975276816622e+03
1.144838840131592e+03 1.720276106551107e+02 2.918975276816622e+03
1.144847119342187e+03 1.698798898685589e+02 2.918975276816622e+03
1.144788422392515e+03 1.682052597441096e+02 2.918975276816622e+03
1.144698956709668e+03 1.672782814720611e+02 2.918975276816622e+03
1.144734417673966e+03 1.663714581409444e+02 2.918975276816622e+03
1.144758358517262e+03 1.652915964222441e+02 2.918975276816622e+03
1.144622216298410e+03 1.642411441446241e+02 2.918975276816622e+03
1.144734903290661e+03 1.633397823220071e+02 2.918975276816622e+03
1.144896116491138e+03 1.612832718772906e+02 2.918975276816622e+03
1.144754465566539e+03 1.583141672084353e+02 2.918975276816622e+03
1.144764798125109e+03 1.553376452385269e+02 2.918975276816622e+03
1.145066966504205e+03 1.525284061048019e+02 2.918975276816622e+03
1.145334190861611e+03 1.492948204183786e+02 2.918975276816622e+03
1.145404555816199e+03 1.467302937746965e+02 2.918975276816622e+03
1.145509324479848e+03 1.455763487086367e+02 2.918975276816622e+03
1.145592813440541e+03 1.450355157098492e+02 2.918975276816622e+03
1.145497037444102e+03 1.444386830241500e+02 2.918975276816622e+03
1.145322711824120e+03 1.428570148881943e+02 2.918975276816622e+03
1.145208128740984e+03 1.411238753636668e+02 2.918975276816622e+03
1.145131787969099e+03 1.393101539623155e+02 2.918975276816622e+03
1.145056915849424e+03 1.371091225316934e+02 2.918975276816622e+03
1.145005571694304e+03 1.344584913534951e+02 2.918975276816622e+03
1.144958906119685e+03 1.320929268219183e+02 2.918975276816622e+03
1.144953808862789e+03 1.300952601258113e+02 2.918975276816622e+03
1.144958866712495e+03 1.283534206686810e+02 2.918975276816622e+03
1.144979796684532e+03 1.271270630836565e+02 2.918975276816622e+03
1.145016358249485e+03 1.263769684480413e+02 2.918975276816622e+03
1.145053904287033e+03 1.256463658826551e+02 2.918975276816622e+03
1.145097394345601e+03 1.249835199166943e+02 2.918975276816622e+03
1.145041688198231e+03 1.243105982757594e+02 2.918975276816622e+03
1.144946053492274e+03 1.228109004045440e+02 2.918975276816622e+03
1.144865120347792e+03 1.212252238874897e+02 2.918975276816622e+03
1.144788207710335e+03 1.193345344867177e+02 2.918975276816622e+03
1.144714338089616e+03 1.170397516969650e+02 2.918975276816622e+03
1.144667335434356e+03 1.141302876615230e+02 2.918975276816622e+03
1.144653185254604e+03 1.115206633924034e+02 2.918975276816622e+03
1.144664311128380e+03 1.099129040973595e+02 2.918975276816622e+03
1.144692209400926e+03 1.080730320731570e+02 2.918975276816622e+03
1.144750006175926e+03 1.061529364681739e+02 2.918975276816622e+03
1.144843075106373e+03 1.036724694350353e+02 2.918975276816622e+03
1.144932004799374e+03 1.013296247961945e+02 2.918975276816622e+03
1.145018075335129e+03 9.937587634882007e+01 2.918975276816622e+03
1.145108281459371e+03 9.687399716001673e+01 2.918975276816622e+03
1.145237694363352e+03 9.469668412722541e+01 2.918975276816622e+03
1.145390878596142e+03 9.248828091067836e+01 2.918975276816622e+03
1.145528627378000e+03 8.992422135436354e+01 2.918975276816622e+03
1.145666376159859e+03 8.736016179804872e+01 2.918975276816622e+03
1.145804124941718e+03 8.479610224173386e+01 2.918975276816622e+03
1.145993016398239e+03 8.192860571052215e+01 2.918975276816622e+03
1.146112565811339e+03 8.034358005392714e+01 2.918975276816622e+03
1.146128181265213e+03 7.909835206788830e+01 2.918975276816622e+03
1.146130861529098e+03 7.686370365651020e+01 2.918975276816622e+03
1.146237046353177e+03 7.442020393100567e+01 2.918975276816622e+03
1.146476221686298e+03 7.151116313775648e+01 2.918975276816622e+03
1.146563112534381e+03 6.868413464676249e+01 2.918975276816622e+03
1.146497718897428e+03 6.593911845802376e+01 2.918975276816622e+03
1.146798561940087e+03 6.304371703662833e+01 2.918975276816622e+03
1.147009565757482e+03 5.954756812268822e+01 2.918975276816622e+03
1.146861090590808e+03 5.735603808254943e+01 2.918975276816622e+03
1.146685869928310e+03 5.608499719514509e+01 2.918975276816622e+03
1.146567944475359e+03 5.407821552300368e+01 2.918975276816622e+03
1.146505162682964e+03 5.188510783763095e+01 2.918975276816622e+03
1.146444294233213e+03 5.001216678981829e+01 2.918975276816622e+03
1.146387949240040e+03 4.857615071404378e+01 2.918975276816622e+03
1.146317052766047e+03 4.739544511324594e+01 2.918975276816622e+03
1.146287576182859e+03 4.561561083973845e+01 2.918975276816622e+03
1.146246514713513e+03 4.331396591067809e+01 2.918975276816622e+03
1.146267083759625e+03 4.213595335244781e+01 2.918975276816622e+03
1.146225338590787e+03 4.107041298703861e+01 2.918975276816622e+03
1.146171281674300e+03 3.925768317956731e+01 2.918975276816622e+03
1.146161866104618e+03 3.715045406303371e+01 2.918975276816622e+03
1.146174013941491e+03 3.496109086088310e+01 2.918975276816622e+03
1.146194691361129e+03 3.267704372887915e+01 2.918975276816622e+03
1.146190670914930e+03 3.032292407473438e+01 2.918975276816622e+03
1.146191681393697e+03 2.819510514654828e+01 2.918975276816622e+03
1.146193512329415e+03 2.543319879828983e+01 2.918975276816622e+03
1.146192460034139e+03 2.218296611517446e+01 2.918975276816622e+03
1.146180129776295e+03 1.911152809292166e+01 2.918975276816622e+03
1.146158238947373e+03 1.633913524735242e+01 2.918975276816622e+03
1.146139392746962e+03 1.405905472877832e+01 2.918975276816622e+03
1.146098075093911e+03 1.189478269737397e+01 2.918975276816622e+03
1.146086002446273e+03 1.036316371890192e+01 2.918975276816622e+03
1.146055908509620e+03 8.819317299559149e+00 2.918975276816622e+03
1.146010651572512e+03 6.125775509937950e+00 2.918975276816622e+03
1.145966661011325e+03 3.647479524484847e+00 2.918975276816622e+03
-1.157447463441231e+03 -6.290169291626303e-01 -2.918975276816622e+03
-1.157409494371818e+03 -4.160759045168900e+00 -2.918975276816622e+03
-1.157487516633264e+03  2.745757431828023e+00 -2.918975276816622e+03
-1.157529653947914e+03  5.963564037803057e+00 -2.918975276816622e+03
-1.157380360142365e+03 -7.070094336309388e+00 -2.918975276816622e+03
-1.157360060752875e+03 -9.357022802584092e+00 -2.918975276816622e+03
-1.157343393509472e+03 -1.056119736275200e+01 -2.918975276816622e+03
-1.157385296158165e+03 -1.221714499919739e+01 -2.918975276816622e+03
-1.157385638467563e+03 -1.434404083686500e+01 -2.918975276816622e+03
-1.157337528250993e+03 -1.584406532937089e+01 -2.918975276816622e+03
-1.157318341516889e+03 -1.796138636931922e+01 -2.918975276816622e+03
-1.157280032705916e+03 -2.025929652070966e+01 -2.918975276816622e+03
-1.157266489283470e+03 -2.171356960238699e+01 -2.918975276816622e+03
-1.157295677076752e+03 -2.389692329658836e+01 -2.918975276816622e+03
-1.157261416233151e+03 -2.711622887891169e+01 -2.918975276816622e+03
-1.157179265382571e+03 -2.956309991839850e+01 -2.918975276816622e+03
-1.157130638989098e+03 -3.177430220916403e+01 -2.918975276816622e+03
-1.157106869933008e+03 -3.365851613149525e+01 -2.918975276816622e+03
-1.157065231282500e+03 -3.519773631372004e+01 -2.918975276816622e+03
-1.157037730489792e+03 -3.655127811521844e+01 -2.918975276816622e+03
-1.156975933956036e+03 -3.882331809075895e+01 -2.918975276816622e+03
-1.156938359254639e+03 -4.089547799102863e+01 -2.918975276816622e+03
-1.156887382410817e+03 -4.242907288452598e+01 -2.918975276816622e+03
-1.156845145344954e+03 -4.441359602796808e+01 -2.918975276816622e+03
-1.156850451702419e+03 -4.545466874723595e+01 -2.918975276816622e+03
-1.156857087450687e+03 -4.651814966555594e+01 -2.918975276816622e+03
-1.156839270689487e+03 -4.849658118262784e+01 -2.918975276816622e+03
-1.156829674058301e+03 -4.996412133280728e+01 -2.918975276816622e+03
-1.156793987111624e+03 -5.124041477802084e+01 -2.918975276816622e+03
-1.156738324290155e+03 -5.364310871243893e+01 -2.918975276816622e+03
-1.156717279984981e+03 -5.567907104766395e+01 -2.918975276816622e+03
-1.156700648870040e+03 -5.744083392556423e+01 -2.918975276816622e+03
-1.156699413415262e+03 -5.955899817212193e+01 -2.918975276816622e+03
-1.156674482551472e+03 -6.093325375490596e+01 -2.918975276816622e+03
-1.156672291456258e+03 -6.249550805051253e+01 -2.918975276816622e+03
-1.156658468287561e+03 -6.423116260197494e+01 -2.918975276816622e+03
-1.156656675744127e+03 -6.533185280508864e+01 -2.918975276816622e+03
-1.156650582682981e+03 -6.662393917373079e+01 -2.918975276816622e+03
-1.156650785403631e+03 -6.869594519497032e+01 -2.918975276816622e+03
-1.156644272955932e+03 -7.021202531454769e+01 -2.918975276816622e+03
-1.156643865662628e+03 -7.123439135420804e+01 -2.918975276816622e+03
-1.156636233006537e+03 -7.264951095382820e+01 -2.918975276816622e+03
-1.156633808469005e+03 -7.430027886500416e+01 -2.918975276816622e+03
-1.156628615573062e+03 -7.572180924813330e+01 -2.918975276816622e+03
-1.156607936324513e+03 -7.648020648411300e+01 -2.918975276816622e+03
-1.156601152936993e+03 -7.772816247188531e+01 -2.918975276816622e+03
-1.156610131822308e+03 -7.954076014222069e+01 -2.918975276816622e+03
-1.156608327288997e+03 -8.085112639993395e+01 -2.918975276816622e+03
-1.156600018454684e+03 -8.236326782417437e+01 -2.918975276816622e+03
-1.156595292750067e+03 -8.415412787540424e+01 -2.918975276816622e+03
-1.156586340258109e+03 -8.539278376035053e+01 -2.918975276816622e+03
-1.156584156554570e+03 -8.662645378893546e+01 -2.918975276816622e+03
-1.156567092855992e+03 -8.852193128356770e+01 -2.918975276816622e+03
-1.156560008826153e+03 -9.012750705436723e+01 -2.918975276816622e+03
-1.156547009278360e+03 -9.128924905997567e+01 -2.918975276816622e+03
-1.156539140846684e+03 -9.366380245974041e+01 -2.918975276816622e+03
-1.156520939817478e+03 -9.590285407216719e+01 -2.918975276816622e+03
-1.156517528840141e+03 -9.773653537316514e+01 -2.918975276816622e+03
-1.156501031545070e+03 -1.000763801699711e+02 -2.918975276816622e+03
-1.156471420932598e+03 -1.012917198942349e+02 -2.918975276816622e+03
-1.156441991669854e+03 -1.024831655652679e+02 -2.918975276816622e+03
-1.156423566589332e+03 -1.044244240981622e+02 -2.918975276816622e+03
-1.156416098416552e+03 -1.059221229383463e+02 -2.918975276816622e+03
-1.156407292018610e+03 -1.068625326414765e+02 -2.918975276816622e+03
-1.156407463301611e+03 -1.083413918277100e+02 -2.918975276816622e+03
-1.156397584653863e+03 -1.101865969608144e+02 -2.918975276816622e+03
-1.156398521054831e+03 -1.118370265822767e+02 -2.918975276816622e+03
-1.156385633503099e+03 -1.131538816174930e+02 -2.918975276816622e+03
-1.156389131912657e+03 -1.146650307110154e+02 -2.918975276816622e+03
-1.156393453714338e+03 -1.170561932892992e+02 -2.918975276816622e+03
-1.156379694782650e+03 -1.193304341265067e+02 -2.918975276816622e+03
-1.156382963068311e+03 -1.208071720110403e+02 -2.918975276816622e+03
-1.156385956298433e+03 -1.223141920920641e+02 -2.918975276816622e+03
-1.156390775798527e+03 -1.240671560363453e+02 -2.918975276816622e+03
-1.156397113778215e+03 -1.252813237260600e+02 -2.918975276816622e+03
-1.156402427642067e+03 -1.265997332273725e+02 -2.918975276816622e+03
-1.156406376319123e+03 -1.285851383552053e+02 -2.918975276816622e+03
-1.156416984349792e+03 -1.306765257391130e+02 -2.918975276816622e+03
-1.156426849964211e+03 -1.319898096160553e+02 -2.918975276816622e+03
-1.156432887992268e+03 -1.328670571710992e+02 -2.918975276816622e+03
-1.156439220828506e+03 -1.342154128345298e+02 -2.918975276816622e+03
-1.156451548681413e+03 -1.356797619822011e+02 -2.918975276816622e+03
-1.156461847841022e+03 -1.373576393599522e+02 -2.918975276816622e+03
-1.156482663781928e+03 -1.394230391857767e+02 -2.918975276816622e+03
-1.156494992279911e+03 -1.408290237085148e+02 -2.918975276816622e+03
-1.156517896374543e+03 -1.423764063538542e+02 -2.918975276816622e+03
-1.156530910394860e+03 -1.441516844447807e+02 -2.918975276816622e+03
-1.156544585962867e+03 -1.453828571607209e+02 -2.918975276816622e+03
-1.156546815453873e+03 -1.467863088192873e+02 -2.918975276816622e+03
-1.156592985511001e+03 -1.496329152528986e+02 -2.918975276816622e+03
-1.156624304327799e+03 -1.532811307219095e+02 -2.918975276816622e+03
-1.156644502564869e+03 -1.555559908629290e+02 -2.918975276816622e+03
-1.156637614797933e+03 -1.573728592248962e+02 -2.918975276816622e+03
-1.156657626441194e+03 -1.595206844576895e+02 -2.918975276816622e+03
-1.156690480766624e+03 -1.607594351074016e+02 -2.918975276816622e+03
-1.156708045507132e+03 -1.622075806505627e+02 -2.918975276816622e+03
-1.156750460376917e+03 -1.639389648777919e+02 -2.918975276816622e+03
-1.156798329723641e+03 -1.653342680790334e+02 -2.918975276816622e+03
-1.156810487256741e+03 -1.667951422670874e+02 -2.918975276816622e+03
-1.156799018126239e+03 -1.687989879267350e+02 -2.918975276816622e+03
-1.156832887514313e+03 -1.711654490172114e+02 -2.918975276816622e+03
-1.156811515906956e+03 -1.726419870364258e+02 -2.918975276816622e+03
-1.156847882559511e+03 -1.750785789481346e+02 -2.918975276816622e+03
-1.156862269271694e+03 -1.783792558498971e+02 -2.918975276816622e+03
-1.156861484613865e+03 -1.809997002522081e+02 -2.918975276816622e+03
-1.156934940903048e+03 -1.833931276149406e+02 -2.918975276816622e+03
-1.156972964623531e+03 -1.851224533020418e+02 -2.918975276816622e+03
-1.156891177155085e+03 -1.862866345716259e+02 -2.918975276816622e+03
-1.156887424393130e+03 -1.881360708519500e+02 -2.918975276816622e+03
-1.156936827268260e+03 -1.904486556508004e+02 -2.918975276816622e+03
-1.156971521840872e+03 -1.931774959815521e+02 -2.918975276816622e+03
-1.156985132880915e+03 -1.961278555072443e+02 -2.918975276816622e+03
-1.156994406937249e+03 -1.979291336394730e+02 -2.918975276816622e+03
-1.156980640798075e+03 -1.994215482769409e+02 -2.918975276816622e+03
-1.156971476610284e+03 -2.006024671551931e+02 -2.918975276816622e+03
-1.156968586073188e+03 -2.020426698576129e+02 -2.918975276816622e+03
-1.156949062931422e+03 -2.038426128256775e+02 -2.918975276816622e+03
-1.156946179609901e+03 -2.050122807703635e+02 -2.918975276816622e+03
-1.156934127826946e+03 -2.063669224409135e+02 -2.918975276816622e+03
-1.156913144027971e+03 -2.083898791329210e+02 -2.918975276816622e+03
-1.156895975611873e+03 -2.102184697393895e+02 -2.918975276816622e+03
-1.156877283199565e+03 -2.116010038568829e+02 -2.918975276816622e+03
-1.156865507121007e+03 -2.138087999000533e+02 -2.918975276816622e+03
-1.156856917494694e+03 -2.155417287855900e+02 -2.918975276816622e+03
-1.156852303084558e+03 -2.171079261225796e+02 -2.918975276816622e+03
-1.156841187808657e+03 -2.195830219647278e+02 -2.918975276816622e+03
-1.156819653273784e+03 -2.208466615865684e+02 -2.918975276816622e+03
-1.156795691760261e+03 -2.220564185656610e+02 -2.918975276816622e+03
-1.156766549385518e+03 -2.239652279145620e+02 -2.918975276816622e+03
-1.156758227435683e+03 -2.252816475654448e+02 -2.918975276816622e+03
-1.156745296043543e+03 -2.265149595886438e+02 -2.918975276816622e+03
-1.156722311953433e+03 -2.284636815864849e+02 -2.918975276816622e+03
-1.156684661896625e+03 -2.304719631908009e+02 -2.918975276816622e+03
-1.156688979514937e+03 -2.315505410250295e+02 -2.918975276816622e+03
-1.156698645034663e+03 -2.333905684513123e+02 -2.918975276816622e+03
-1.156672934460560e+03 -2.364334282891771e+02 -2.918975276816622e+03
-1.156647223886457e+03 -2.394762881270420e+02 -2.918975276816622e+03
-1.156633046180203e+03 -2.425360554098179e+02 -2.918975276816622e+03
-1.156673064177335e+03 -2.453947761752612e+02 -2.918975276816622e+03
-1.156662436591742e+03 -2.478356849755472e+02 -2.918975276816622e+03
-1.156664717315937e+03 -2.493855326722699e+02 -2.918975276816622e+03
-1.156632928307448e+03 -2.507401327024294e+02 -2.918975276816622e+03
-1.156648761912852e+03 -2.530390072223003e+02 -2.918975276816622e+03
-1.156614617887953e+03 -2.554153408150563e+02 -2.918975276816622e+03
-1.156589107125797e+03 -2.583494413960760e+02 -2.918975276816622e+03
-1.156568761366678e+03 -2.607439407283376e+02 -2.918975276816622e+03
-1.156616219946343e+03 -2.620862519528967e+02 -2.918975276816622e+03
-1.156615992256208e+03 -2.638813681611801e+02 -2.918975276816622e+03
-1.156619842798854e+03 -2.657130770839299e+02 -2.918975276816622e+03
-1.156628695892685e+03 -2.672623934257076e+02 -2.918975276816622e+03
-1.156658067351322e+03 -2.685021190885244e+02 -2.918975276816622e+03
-1.156651997605796e+03 -2.697338401051248e+02 -2.918975276816622e+03
-1.156648852512832e+03 -2.710844680420726e+02 -2.918975276816622e+03
-1.156644776761147e+03 -2.725898214834298e+02 -2.918975276816622e+03
-1.156636528197586e+03 -2.743150421597243e+02 -2.918975276816622e+03
-1.156635059874690e+03 -2.758276969249885e+02 -2.918975276816622e+03
-1.156641484019673e+03 -2.769785517608789e+02 -2.918975276816622e+03
-1.156649480283169e+03 -2.786279319382986e+02 -2.918975276816622e+03
-1.156680474488611e+03 -2.808448808113085e+02 -2.918975276816622e+03
-1.156723013310152e+03 -2.840724202563024e+02 -2.918975276816622e+03
-1.156762829778318e+03 -2.873202704562716e+02 -2.918975276816622e+03
-1.156817532854616e+03 -2.889566786550084e+02 -2.918975276816622e+03
-1.156814183414136e+03 -2.913903381294457e+02 -2.918975276816622e+03
-1.156869831490192e+03 -2.941470773912482e+02 -2.918975276816622e+03
-1.156776475835753e+03 -2.964700689222810e+02 -2.918975276816622e+03
-1.156822014213727e+03 -2.995391387727241e+02 -2.918975276816622e+03
-1.156830553720867e+03 -3.014513620598188e+02 -2.918975276816622e+03
-1.156844893835161e+03 -3.028874710998639e+02 -2.918975276816622e+03
-1.156839782518785e+03 -3.046414201962191e+02 -2.918975276816622e+03
-1.156818720340259e+03 -3.064353475310164e+02 -2.918975276816622e+03
-1.156817603961658e+03 -3.085481509081168e+02 -2.918975276816622e+03
-1.156791979461269e+03 -3.109839791344646e+02 -2.918975276816622e+03
-1.156768201085676e+03 -3.138268266661873e+02 -2.918975276816622e+03
-1.156736013566611e+03 -3.162612364985823e+02 -2.918975276816622e+03
-1.156746996178127e+03 -3.181274564507743e+02 -2.918975276816622e+03
-1.156726053725438e+03 -3.196836877834963e+02 -2.918975276816622e+03
-1.156720408784330e+03 -3.211250933220073e+02 -2.918975276816622e+03
-1.156716122702021e+03 -3.227381298271276e+02 -2.918975276816622e+03
-1.156718550882764e+03 -3.239789373309932e+02 -2.918975276816622e+03
-1.156696837441333e+03 -3.252493630585468e+02 -2.918975276816622e+03
-1.156681990684818e+03 -3.265213903740312e+02 -2.918975276816622e+03
-1.156666076429673e+03 -3.278742879820691e+02 -2.918975276816622e+03
-1.156650322463440e+03 -3.293869332264940e+02 -2.918975276816622e+03
-1.156642400847493e+03 -3.305796752488728e+02 -2.918975276816622e+03
-1.156612296336293e+03 -3.330037539612650e+02 -2.918975276816622e+03
-1.156591802956180e+03 -3.350709650224740e+02 -2.918975276816622e+03
-1.156600282836996e+03 -3.359562259675525e+02 -2.918975276816622e+03
-1.156593765407390e+03 -3.375258024743513e+02 -2.918975276816622e+03
-1.156561351521541e+03 -3.399548964218144e+02 -2.918975276816622e+03
-1.156551272169011e+03 -3.420987944093649e+02 -2.918975276816622e+03
-1.156520117084413e+03 -3.434609677896546e+02 -2.918975276816622e+03
-1.156508449635909e+03 -3.452239985202174e+02 -2.918975276816622e+03
-1.156444839001690e+03 -3.474406445377499e+02 -2.918975276816622e+03
-1.156405358433191e+03 -3.485652950883818e+02 -2.918975276816622e+03
-1.156438467269478e+03 -3.497631390166916e+02 -2.918975276816622e+03
-1.156520035444833e+03 -3.521261717895810e+02 -2.918975276816622e+03
-1.156611610027794e+03 -3.554363727391488e+02 -2.918975276816622e+03
-1.156666174222773e+03 -3.581333890475710e+02 -2.918975276816622e+03
-1.156701282125942e+03 -3.604905673973332e+02 -2.918975276816622e+03
-1.156718815581130e+03 -3.625954512033002e+02 -2.918975276816622e+03
-1.156733787510903e+03 -3.638236481980294e+02 -2.918975276816622e+03
-1.156753958864802e+03 -3.659748379278034e+02 -2.918975276816622e+03
-1.156777554595471e+03 -3.691448899673017e+02 -2.918975276816622e+03
-1.156804185663048e+03 -3.718119033132478e+02 -2.918975276816622e+03
-1.156815660542086e+03 -3.733677151602758e+02 -2.918975276816622e+03
-1.156827832943578e+03 -3.755044582712206e+02 -2.918975276816622e+03
-1.156836158055289e+03 -3.772367195275170e+02 -2.918975276816622e+03
-1.156849377641858e+03 -3.787709217826620e+02 -2.918975276816622e+03
-1.156854854119141e+03 -3.801028549510504e+02 -2.918975276816622e+03
-1.156860847704136e+03 -3.814144004143018e+02 -2.918975276816622e+03
-1.156878577278314e+03 -3.843219306139251e+02 -2.918975276816622e+03
-1.156896282646386e+03 -3.862584395826939e+02 -2.918975276816622e+03
-1.156906280320668e+03  3.827593039975956e+02 -2.918975276816622e+03
-1.156903145254977e+03  3.848277616038453e+02 -2.918975276816622e+03
-1.156915138977196e+03  3.804470413112255e+02 -2.918975276816622e+03
-1.156926891827306e+03  3.780931553428616e+02 -2.918975276816622e+03
-1.156930028371458e+03  3.770437751531699e+02 -2.918975276816622e+03
-1.156924574034846e+03  3.750785056957447e+02 -2.918975276816622e+03
-1.156918494173346e+03  3.715280262867093e+02 -2.918975276816622e+03
-1.156926219056180e+03  3.681390776426744e+02 -2.918975276816622e+03
-1.156936017908018e+03  3.655264639579610e+02 -2.918975276816622e+03
-1.156923820365724e+03  3.621754747146424e+02 -2.918975276816622e+03
-1.156927282114467e+03  3.582533768667880e+02 -2.918975276816622e+03
-1.156935666360357e+03  3.558421606258871e+02 -2.918975276816622e+03
-1.156922489015348e+03  3.542791390948198e+02 -2.918975276816622e+03
-1.156902056206702e+03  3.517071020947507e+02 -2.918975276816622e+03
-1.156863196337298e+03  3.486214695687301e+02 -2.918975276816622e+03
-1.156837093670991e+03  3.452046834088856e+02 -2.918975276816622e+03
-1.156843433474115e+03  3.420136446388356e+02 -2.918975276816622e+03
-1.156869458543576e+03  3.393795068924037e+02 -2.918975276816622e+03
-1.156845160429785e+03  3.367223960783595e+02 -2.918975276816622e+03
-1.156797615321238e+03  3.340901349552012e+02 -2.918975276816622e+03
-1.156777146401184e+03  3.315056965905419e+02 -2.918975276816622e+03
-1.156756677481131e+03  3.289212582258826e+02 -2.918975276816622e+03
-1.156729297723070e+03  3.269936922012709e+02 -2.918975276816622e+03
-1.156721550388387e+03  3.252849861696229e+02 -2.918975276816622e+03
-1.156726969819410e+03  3.229641556209803e+02 -2.918975276816622e+03
-1.156720812951458e+03  3.209734809393607e+02 -2.918975276816622e+03
-1.156712269649587e+03  3.190071312848400e+02 -2.918975276816622e+03
-1.156704803545368e+03  3.164760407989062e+02 -2.918975276816622e+03
-1.156702601269422e+03  3.138601524913935e+02 -2.918975276816622e+03
-1.156700186769775e+03  3.115266481993231e+02 -2.918975276816622e+03
-1.156700788242309e+03  3.090983678121387e+02 -2.918975276816622e+03
-1.156695846655251e+03  3.064555971407534e+02 -2.918975276816622e+03
-1.156682133812722e+03  3.039754962957230e+02 -2.918975276816622e+03
-1.156518796244020e+03  3.027108471301042e+02 -2.918975276816622e+03
-1.156460345121029e+03  3.014605725237120e+02 -2.918975276816622e+03
-1.156656405169918e+03  2.990092207971348e+02 -2.918975276816622e+03
-1.156749879321925e+03  2.965971624147409e+02 -2.918975276816622e+03
-1.156795998894796e+03  2.948561789066662e+02 -2.918975276816622e+03
-1.156822151096920e+03  2.930746825257788e+02 -2.918975276816622e+03
-1.156861647154591e+03  2.910293151223124e+02 -2.918975276816622e+03
-1.156886842645416e+03  2.891419512113581e+02 -2.918975276816622e+03
-1.156901146753331e+03  2.873284573778287e+02 -2.918975276816622e+03
-1.156904892994290e+03  2.854897437597741e+02 -2.918975276816622e+03
-1.156894583184312e+03  2.832141041165167e+02 -2.918975276816622e+03
-1.156877508609278e+03  2.800292383994073e+02 -2.918975276816622e+03
-1.156861065538246e+03  2.778733726523049e+02 -2.918975276816622e+03
-1.156844655946567e+03  2.765370824281652e+02 -2.918975276816622e+03
-1.156827025771633e+03  2.746919089674581e+02 -2.918975276816622e+03
-1.156767105278800e+03  2.728578813060407e+02 -2.918975276816622e+03
-1.156753918086910e+03  2.713887883851157e+02 -2.918975276816622e+03
-1.156769169241784e+03  2.703345380417400e+02 -2.918975276816622e+03
-1.156764820954174e+03  2.678443616701956e+02 -2.918975276816622e+03
-1.156755899895777e+03  2.654844687413643e+02 -2.918975276816622e+03
-1.156775443415276e+03  2.637641970252338e+02 -2.918975276816622e+03
-1.156776283642773e+03  2.616611539527412e+02 -2.918975276816622e+03
-1.156764836014122e+03  2.603131338318693e+02 -2.918975276816622e+03
-1.156762434937199e+03  2.588242105254155e+02 -2.918975276816622e+03
-1.156773549928924e+03  2.572400124241222e+02 -2.918975276816622e+03
-1.156769721588409e+03  2.559966527667705e+02 -2.918975276816622e+03
-1.156787863723201e+03  2.546257120892046e+02 -2.918975276816622e+03
-1.156827982274151e+03  2.528158329929249e+02 -2.918975276816622e+03
-1.156913518109266e+03  2.509151732215504e+02 -2.918975276816622e+03
-1.157005497049863e+03  2.501917361925183e+02 -2.918975276816622e+03
-1.156918852784234e+03  2.487391957997348e+02 -2.918975276816622e+03
-1.156811186011817e+03  2.466796506651271e+02 -2.918975276816622e+03
-1.156738992235440e+03  2.451705589930365e+02 -2.918975276816622e+03
-1.156694323190515e+03  2.437320432221542e+02 -2.918975276816622e+03
-1.156628690717791e+03  2.420194160187415e+02 -2.918975276816622e+03
-1.156589709934808e+03  2.405030626334994e+02 -2.918975276816622e+03
-1.156555337043877e+03  2.393095912933574e+02 -2.918975276816622e+03
-1.156506090777544e+03  2.369444568835308e+02 -2.918975276816622e+03
-1.156444471154053e+03  2.347537008114392e+02 -2.918975276816622e+03
-1.156408222486530e+03  2.329284394712041e+02 -2.918975276816622e+03
-1.156364760178441e+03  2.307959269954051e+02 -2.918975276816622e+03
-1.156357226459303e+03  2.295502369469096e+02 -2.918975276816622e+03
-1.156328217221378e+03  2.281085430067826e+02 -2.918975276816622e+03
-1.156298555524965e+03  2.263561459809897e+02 -2.918975276816622e+03
-1.156279073117481e+03  2.253119353102670e+02 -2.918975276816622e+03
-1.156270524431040e+03  2.241043162793312e+02 -2.918975276816622e+03
-1.156229912190190e+03  2.220214776329636e+02 -2.918975276816622e+03
-1.156199114369918e+03  2.202632263584189e+02 -2.918975276816622e+03
-1.156175664709825e+03  2.191145791342668e+02 -2.918975276816622e+03
-1.156154382416093e+03  2.169195403111507e+02 -2.918975276816622e+03
-1.156134654201059e+03  2.147977607615265e+02 -2.918975276816622e+03
-1.156130191470429e+03  2.130897464057219e+02 -2.918975276816622e+03
-1.156123184142761e+03  2.109905375790630e+02 -2.918975276816622e+03
-1.156106826459006e+03  2.095781815170786e+02 -2.918975276816622e+03
-1.156091970362986e+03  2.081098866652443e+02 -2.918975276816622e+03
-1.156091691603927e+03  2.062333351106437e+02 -2.918975276816622e+03
-1.156087668466981e+03  2.049536892689747e+02 -2.918975276816622e+03
-1.156080280525082e+03  2.039319327337966e+02 -2.918975276816622e+03
-1.156095735762175e+03  2.021145652463942e+02 -2.918975276816622e+03
-1.156086748459244e+03  2.003950098087062e+02 -2.918975276816622e+03
-1.156084207244613e+03  1.989673851428127e+02 -2.918975276816622e+03
-1.156075954692805e+03  1.964902380091096e+02 -2.918975276816622e+03
-1.156097281478995e+03  1.937478335674357e+02 -2.918975276816622e+03
-1.156103737729276e+03  1.913208619871045e+02 -2.918975276816622e+03
-1.156122933875821e+03  1.896825548356669e+02 -2.918975276816622e+03
-1.156090505284153e+03  1.882447087403545e+02 -2.918975276816622e+03
-1.156088481307021e+03  1.865875895153473e+02 -2.918975276816622e+03
-1.156079508972105e+03  1.852525580347304e+02 -2.918975276816622e+03
-1.156081379730059e+03  1.838948880584985e+02 -2.918975276816622e+03
-1.156079330045874e+03  1.820636651976875e+02 -2.918975276816622e+03
-1.156065457595080e+03  1.805849754681597e+02 -2.918975276816622e+03
-1.156059683605381e+03  1.794991382950482e+02 -2.918975276816622e+03
-1.156046854625512e+03  1.770539326708126e+02 -2.918975276816622e+03
-1.156047452845193e+03  1.748713179371832e+02 -2.918975276816622e+03
-1.156020586433188e+03  1.731486761962377e+02 -2.918975276816622e+03
-1.156037824002379e+03  1.710206769416085e+02 -2.918975276816622e+03
-1.156044490480607e+03  1.696271574407404e+02 -2.918975276816622e+03
-1.156042725140247e+03  1.681232371430577e+02 -2.918975276816622e+03
-1.156047246772610e+03  1.664240720124349e+02 -2.918975276816622e+03
-1.156058671861551e+03  1.651918504997592e+02 -2.918975276816622e+03
-1.156074722055397e+03  1.639340610351007e+02 -2.918975276816622e+03
-1.156096170330626e+03  1.620582603536013e+02 -2.918975276816622e+03
-1.156110533838226e+03  1.604787729830284e+02 -2.918975276816622e+03
-1.156117339921283e+03  1.593297212623777e+02 -2.918975276816622e+03
-1.156119614000871e+03  1.571292248087655e+02 -2.918975276816622e+03
-1.156123318969026e+03  1.550748619331984e+02 -2.918975276816622e+03
-1.156133722641481e+03  1.531946354881362e+02 -2.918975276816622e+03
-1.156142190648524e+03  1.510474173553287e+02 -2.918975276816622e+03
-1.156148577561386e+03  1.497764150250834e+02 -2.918975276816622e+03
-1.156169086917753e+03  1.482427287578066e+02 -2.918975276816622e+03
-1.156187210217747e+03  1.463516216855108e+02 -2.918975276816622e+03
-1.156191420739944e+03  1.451669773379308e+02 -2.918975276816622e+03
-1.156167600033296e+03  1.440529959363743e+02 -2.918975276816622e+03
-1.156175252413864e+03  1.421528539230768e+02 -2.918975276816622e+03
-1.156191247698108e+03  1.405160886874118e+02 -2.918975276816622e+03
-1.156202477758427e+03  1.393034307555615e+02 -2.918975276816622e+03
-1.156206097594264e+03  1.370248099735456e+02 -2.918975276816622e+03
-1.156224583513908e+03  1.349584246099989e+02 -2.918975276816622e+03
-1.156239441768320e+03  1.331820372285098e+02 -2.918975276816622e+03
-1.156273320901732e+03  1.310091065284021e+02 -2.918975276816622e+03
-1.156286280613045e+03  1.296800079856110e+02 -2.918975276816622e+03
-1.156311859417732e+03  1.282039987812698e+02 -2.918975276816622e+03
-1.156341552681452e+03  1.265138049702686e+02 -2.918975276816622e+03
-1.156363453338111e+03  1.253265148188347e+02 -2.918975276816622e+03
-1.156347842345269e+03  1.239996264602089e+02 -2.918975276816622e+03
-1.156367070992575e+03  1.221260516522060e+02 -2.918975276816622e+03
-1.156416117589302e+03  1.204856644663774e+02 -2.918975276816622e+03
-1.156439503882048e+03  1.192842731570995e+02 -2.918975276816622e+03
-1.156470776938275e+03  1.170202181484663e+02 -2.918975276816622e+03
-1.156490256554176e+03  1.149079364091704e+02 -2.918975276816622e+03
-1.156506239504785e+03  1.131856679687434e+02 -2.918975276816622e+03
-1.156522024300346e+03  1.112296419279508e+02 -2.918975276816622e+03
-1.156549109394582e+03  1.099490627912836e+02 -2.918975276816622e+03
-1.156568779629933e+03  1.083977509646766e+02 -2.918975276816622e+03
-1.156589195333832e+03  1.066766139366722e+02 -2.918975276816622e+03
-1.156597013766286e+03  1.053552823356149e+02 -2.918975276816622e+03
-1.156605779034073e+03  1.039665389994897e+02 -2.918975276816622e+03
-1.156613332168438e+03  1.021584553987799e+02 -2.918975276816622e+03
-1.156626283923331e+03  1.006822618903120e+02 -2.918975276816622e+03
-1.156632522181782e+03  9.925623956271950e+01 -2.918975276816622e+03
-1.156640173605372e+03  9.757042654866918e+01 -2.918975276816622e+03
-1.156653983430442e+03  9.603699779313281e+01 -2.918975276816622e+03
-1.156660447713116e+03  9.316177998680402e+01 -2.918975276816622e+03
-1.156648062479012e+03  9.054874631484064e+01 -2.918975276816622e+03
-1.156646619252663e+03  8.900465447347455e+01 -2.918975276816622e+03
-1.156646882572764e+03  8.745559840316024e+01 -2.918975276816622e+03
-1.156657109480610e+03  8.664966393424982e+01 -2.918975276816622e+03
-1.156649974624750e+03  8.580003373720173e+01 -2.918975276816622e+03
-1.156627896385875e+03  8.389638826601625e+01 -2.918975276816622e+03
-1.156617520615849e+03  8.090252971715285e+01 -2.918975276816622e+03
-1.156647592276795e+03  7.773408397877309e+01 -2.918975276816622e+03
-1.156666917914991e+03  7.493111272439687e+01 -2.918975276816622e+03
-1.156609445066904e+03  7.266934053619497e+01 -2.918975276816622e+03
-1.156515888053095e+03  7.055272141290010e+01 -2.918975276816622e+03
-1.156432995425960e+03  6.821246527596223e+01 -2.918975276816622e+03
-1.156442197020688e+03  6.538715587835156e+01 -2.918975276816622e+03
-1.156427609434228e+03  6.339477979325826e+01 -2.918975276816622e+03
-1.156364955853925e+03  6.193943252961252e+01 -2.918975276816622e+03
-1.156400169616723e+03  5.953071852659995e+01 -2.918975276816622e+03
-1.156427700333681e+03  5.733602683820117e+01 -2.918975276816622e+03
-1.156549283164203e+03  5.495069842283024e+01 -2.918975276816622e+03
-1.156662933029123e+03  5.225559769258599e+01 -2.918975276816622e+03
-1.156733393095815e+03  5.031851056406049e+01 -2.918975276816622e+03
-1.156777447097163e+03  4.884555078045615e+01 -2.918975276816622e+03
-1.156816722133075e+03  4.733738505772327e+01 -2.918975276816622e+03
-1.156872192673849e+03  4.544486560387348e+01 -2.918975276816622e+03
-1.156938753923210e+03  4.316436717350804e+01 -2.918975276816622e+03
-1.156999074895095e+03  4.183223562953306e+01 -2.918975276816622e+03
-1.157054156565195e+03  4.027593513601726e+01 -2.918975276816622e+03
-1.157126319505713e+03  3.776404199541405e+01 -2.918975276816622e+03
-1.157197044365154e+03  3.573485078415298e+01 -2.918975276816622e+03
-1.157265438618113e+03  3.408550112453892e+01 -2.918975276816622e+03
-1.157375990754602e+03  3.159711000536396e+01 -2.918975276816622e+03
-1.157496279673238e+03  2.939375270139465e+01 -2.918975276816622e+03
-1.157588200492051e+03  2.753920797775247e+01 -2.918975276816622e+03
-1.157751987173516e+03  2.495548609407992e+01 -2.918975276816622e+03
-1.157950876953043e+03  2.273085418119032e+01 -2.918975276816622e+03
-1.158043501657676e+03  2.180237066724205e+01 -2.918975276816622e+03
-1.157948014627127e+03  2.042159831981425e+01 -2.918975276816622e+03
-1.157809502941887e+03  1.806107770571488e+01 -2.918975276816622e+03
-1.157739198945108e+03  1.647253231168379e+01 -2.918975276816622e+03
-1.157708374017806e+03  1.525406409450709e+01 -2.918975276816622e+03
-1.157672526610472e+03  1.394426531860656e+01 -2.918975276816622e+03
-1.157645298010674e+03  1.259804482801878e+01 -2.918975276816622e+03
-1.157607180275437e+03  1.086029644566221e+01 -2.918975276816622e+03
-1.157569541828638e+03  8.668410375747788e+00 -2.918975276816622e+03
 1.154686909342956e+03 -1.743930555498122e+00  2.918975276816622e+03
 1.154731102204644e+03 -2.463190690721501e-01  2.918975276816622e+03
 1.154661426027765e+03 -3.341305348136913e+00  2.918975276816622e+03
 1.154567740644819e+03 -5.795182928274765e+00  2.918975276816622e+03
 1.154485963106204e+03 -8.130869593855273e+00  2.918975276816622e+03
 1.154414824038605e+03 -1.049971114460614e+01  2.918975276816622e+03
 1.154354323442022e+03 -1.290170758052737e+01  2.918975276816622e+03
 1.154293822845439e+03 -1.530370401644860e+01  2.918975276816622e+03
 1.154215138030954e+03 -1.767213398484051e+01  2.918975276816622e+03
 1.154118268998568e+03 -2.000699748570309e+01  2.918975276816622e+03
 1.154009028897338e+03 -2.254700588162911e+01  2.918975276816622e+03
 1.153887417727264e+03 -2.529215917261857e+01  2.918975276816622e+03
 1.153834142961261e+03 -2.674277025928501e+01  2.918975276816622e+03
 1.153827562401531e+03 -2.853689931062510e+01  2.918975276816622e+03
 1.153799509106371e+03 -3.139313391338905e+01  2.918975276816622e+03
 1.153771625273576e+03 -3.367341389858023e+01  2.918975276816622e+03
 1.153734687796300e+03 -3.633387868284583e+01  2.918975276816622e+03
 1.153689815991094e+03 -3.913165607591569e+01  2.918975276816622e+03
 1.153646063502440e+03 -4.168656127871539e+01  2.918975276816622e+03
 1.153629598432697e+03 -4.444666947288911e+01  2.918975276816622e+03
 1.153579989063099e+03 -4.747297803606892e+01  2.918975276816622e+03
 1.153563293292212e+03 -4.986908812472641e+01  2.918975276816622e+03
 1.153531908774609e+03 -5.158320781129933e+01  2.918975276816622e+03
 1.153529451490391e+03 -5.349774684939338e+01  2.918975276816622e+03
 1.153506677556643e+03 -5.556946373329995e+01  2.918975276816622e+03
 1.153492812457367e+03 -5.772646552173412e+01  2.918975276816622e+03
 1.153485676369015e+03 -5.972091967441596e+01  2.918975276816622e+03
 1.153468157692315e+03 -6.113971517192135e+01  2.918975276816622e+03
 1.153482431329074e+03 -6.261031001190113e+01  2.918975276816622e+03
 1.153474107854416e+03 -6.441337829723594e+01  2.918975276816622e+03
 1.153497613039510e+03 -6.582287526473590e+01  2.918975276816622e+03
 1.153502403155243e+03 -6.774381814176728e+01  2.918975276816622e+03
 1.153537841207283e+03 -7.008592417048820e+01  2.918975276816622e+03
 1.153533039329343e+03 -7.155941772223198e+01  2.918975276816622e+03
 1.153552918674230e+03 -7.329011228279592e+01  2.918975276816622e+03
 1.153575655829557e+03 -7.630993201438035e+01  2.918975276816622e+03
 1.153586955646114e+03 -7.942411301831613e+01  2.918975276816622e+03
 1.153608136162935e+03 -8.127501969307134e+01  2.918975276816622e+03
 1.153615865658867e+03 -8.331068143399025e+01  2.918975276816622e+03
 1.153635613988361e+03 -8.539300131816844e+01  2.918975276816622e+03
 1.153645923322848e+03 -8.750005086541123e+01  2.918975276816622e+03
 1.153662202322147e+03 -8.987238131091912e+01  2.918975276816622e+03
 1.153666291553261e+03 -9.154179459391719e+01  2.918975276816622e+03
 1.153677050109309e+03 -9.350631280122931e+01  2.918975276816622e+03
 1.153684513428681e+03 -9.602191974166708e+01  2.918975276816622e+03
 1.153683090462954e+03 -9.761710738432693e+01  2.918975276816622e+03
 1.153679696371498e+03 -9.915355397228849e+01  2.918975276816622e+03
 1.153684842873943e+03 -1.020438318304892e+02  2.918975276816622e+03
 1.153663723690844e+03 -1.044228585138748e+02  2.918975276816622e+03
 1.153656400667486e+03 -1.056478756158539e+02  2.918975276816622e+03
 1.153647085527381e+03 -1.075410586074034e+02  2.918975276816622e+03
 1.153608443408414e+03 -1.097873396886164e+02  2.918975276816622e+03
 1.153593914820819e+03 -1.113994984037285e+02  2.918975276816622e+03
 1.153550281836090e+03 -1.133677640469458e+02  2.918975276816622e+03
 1.153580751354001e+03 -1.158558935560635e+02  2.918975276816622e+03
 1.153545964260836e+03 -1.188373330882338e+02  2.918975276816622e+03
 1.153480558725938e+03 -1.216607225237584e+02  2.918975276816622e+03
 1.153526977741086e+03 -1.240022577216321e+02  2.918975276816622e+03
 1.153373143399530e+03 -1.252932371472542e+02  2.918975276816622e+03
 1.153259922901224e+03 -1.272274461883928e+02  2.918975276816622e+03
 1.153335770491516e+03 -1.310782485327487e+02  2.918975276816622e+03
 1.153376094854066e+03 -1.343926589328377e+02  2.918975276816622e+03
 1.153432695100234e+03 -1.369478694732107e+02  2.918975276816622e+03
 1.153489295346401e+03 -1.395030800135837e+02  2.918975276816622e+03
 1.153545895592569e+03 -1.420582905539568e+02  2.918975276816622e+03
 1.153609143339435e+03 -1.445642327688074e+02  2.918975276816622e+03
 1.153639016893652e+03 -1.473415036456218e+02  2.918975276816622e+03
 1.153652028822126e+03 -1.497925256261310e+02  2.918975276816622e+03
 1.153655546675786e+03 -1.515067970212932e+02  2.918975276816622e+03
 1.153661246972569e+03 -1.533264288838299e+02  2.918975276816622e+03
 1.153656262153949e+03 -1.560748801231737e+02  2.918975276816622e+03
 1.153660854797496e+03 -1.590828240124019e+02  2.918975276816622e+03
 1.153659701162212e+03 -1.609754219718633e+02  2.918975276816622e+03
 1.153659447021616e+03 -1.620149518909454e+02  2.918975276816622e+03
 1.153655427170565e+03 -1.630277733546747e+02  2.918975276816622e+03
 1.153658402852353e+03 -1.646154934017368e+02  2.918975276816622e+03
 1.153663225278594e+03 -1.660244807270613e+02  2.918975276816622e+03
 1.153669636230401e+03 -1.675671088715082e+02  2.918975276816622e+03
 1.153663181156104e+03 -1.695997828651942e+02  2.918975276816622e+03
 1.153663579972845e+03 -1.713109741628930e+02  2.918975276816622e+03
 1.153657167644539e+03 -1.732153148385660e+02  2.918975276816622e+03
 1.153661688973629e+03 -1.761293826939511e+02  2.918975276816622e+03
 1.153630759130416e+03 -1.792752970451567e+02  2.918975276816622e+03
 1.153632304827456e+03 -1.822658918554992e+02  2.918975276816622e+03
 1.153639229903797e+03 -1.850641316527760e+02  2.918975276816622e+03
 1.153629001767580e+03 -1.872017443514051e+02  2.918975276816622e+03
 1.153625272634102e+03 -1.898009858824724e+02  2.918975276816622e+03
 1.153612026505690e+03 -1.928466574520921e+02  2.918975276816622e+03
 1.153625266565175e+03 -1.960712886336946e+02  2.918975276816622e+03
 1.153597093646965e+03 -1.994213187675720e+02  2.918975276816622e+03
 1.153617463222903e+03 -2.022775435836915e+02  2.918975276816622e+03
 1.153615183654932e+03 -2.048569144904610e+02  2.918975276816622e+03
 1.153612904086962e+03 -2.074362853972305e+02  2.918975276816622e+03
 1.153612913072397e+03 -2.098984335124169e+02  2.918975276816622e+03
 1.153613429560344e+03 -2.127683108256458e+02  2.918975276816622e+03
 1.153612164997397e+03 -2.161631401285001e+02  2.918975276816622e+03
 1.153611668863908e+03 -2.191546791260923e+02  2.918975276816622e+03
 1.153595179338590e+03 -2.219312131186204e+02  2.918975276816622e+03
 1.153613719654523e+03 -2.237983302636868e+02  2.918975276816622e+03
 1.153619254234800e+03 -2.249581927453523e+02  2.918975276816622e+03
 1.153601217861819e+03 -2.272642307107929e+02  2.918975276816622e+03
 1.153599423788948e+03 -2.296084488128314e+02  2.918975276816622e+03
 1.153616237008076e+03 -2.311025439826106e+02  2.918975276816622e+03
 1.153645384188983e+03 -2.331245244844507e+02  2.918975276816622e+03
 1.153588803807640e+03 -2.358007041885095e+02  2.918975276816622e+03
 1.153477753339093e+03 -2.384706226933851e+02  2.918975276816622e+03
 1.153528602141476e+03 -2.408250037157665e+02  2.918975276816622e+03
 1.153667121242703e+03 -2.432140000047622e+02  2.918975276816622e+03
 1.153731185627550e+03 -2.461168319923508e+02  2.918975276816622e+03
 1.153756460188528e+03 -2.489228906426817e+02  2.918975276816622e+03
 1.153743170669934e+03 -2.514684930062703e+02  2.918975276816622e+03
 1.153756050549451e+03 -2.540962388083141e+02  2.918975276816622e+03
 1.153765541073144e+03 -2.563552416413946e+02  2.918975276816622e+03
 1.153775231821461e+03 -2.590003191098973e+02  2.918975276816622e+03
 1.153784579482462e+03 -2.610675719579365e+02  2.918975276816622e+03
 1.153782785824209e+03 -2.624894260670610e+02  2.918975276816622e+03
 1.153799952912575e+03 -2.646806671005749e+02  2.918975276816622e+03
 1.153826398265725e+03 -2.671647760809753e+02  2.918975276816622e+03
 1.153848946312126e+03 -2.700360558347264e+02  2.918975276816622e+03
 1.153866282541019e+03 -2.719164861870867e+02  2.918975276816622e+03
 1.153869751868110e+03 -2.733156271132124e+02  2.918975276816622e+03
 1.153892593943442e+03 -2.759014790758160e+02  2.918975276816622e+03
 1.153917717263560e+03 -2.784636507625833e+02  2.918975276816622e+03
 1.153916609303354e+03 -2.798012652940874e+02  2.918975276816622e+03
 1.153916960077788e+03 -2.818141204990607e+02  2.918975276816622e+03
 1.153929205926667e+03 -2.847884686408312e+02  2.918975276816622e+03
 1.153949732103896e+03 -2.874332866882150e+02  2.918975276816622e+03
 1.153955411390717e+03 -2.900803510224534e+02  2.918975276816622e+03
 1.153971958921338e+03 -2.932645895978113e+02  2.918975276816622e+03
 1.153983120437349e+03 -2.958403492862820e+02  2.918975276816622e+03
 1.153986342867378e+03 -2.970301705662371e+02  2.918975276816622e+03
 1.153998236733131e+03 -2.976640379109840e+02  2.918975276816622e+03
 1.153992264070922e+03 -2.983125917363595e+02  2.918975276816622e+03
 1.153979495833917e+03 -2.999211299564480e+02  2.918975276816622e+03
 1.153978154813377e+03 -3.021592974359216e+02  2.918975276816622e+03
 1.153968825536624e+03 -3.035575682578963e+02  2.918975276816622e+03
 1.153965670844158e+03 -3.056210351235879e+02  2.918975276816622e+03
 1.153942109391516e+03 -3.084124414251846e+02  2.918975276816622e+03
 1.153928885492174e+03 -3.097429873750498e+02  2.918975276816622e+03
 1.153923875301052e+03 -3.105780300530834e+02  2.918975276816622e+03
 1.153907721625885e+03 -3.113349009604071e+02  2.918975276816622e+03
 1.153884369971856e+03 -3.125011057035802e+02  2.918975276816622e+03
 1.153867238523034e+03 -3.139723043713839e+02  2.918975276816622e+03
 1.153846829541131e+03 -3.161033184227589e+02  2.918975276816622e+03
 1.153803503040678e+03 -3.195485818771480e+02  2.918975276816622e+03
 1.153779151219057e+03 -3.225755230388640e+02  2.918975276816622e+03
 1.153754445915954e+03 -3.249004233849829e+02  2.918975276816622e+03
 1.153731910264051e+03 -3.272996377960526e+02  2.918975276816622e+03
 1.153706215391565e+03 -3.300139418204529e+02  2.918975276816622e+03
 1.153687593929572e+03 -3.319064322157481e+02  2.918975276816622e+03
 1.153674003787383e+03 -3.335653723710718e+02  2.918975276816622e+03
 1.153645052768238e+03 -3.366584055998947e+02  2.918975276816622e+03
 1.153626000381197e+03 -3.390290001402280e+02  2.918975276816622e+03
 1.153620588113063e+03 -3.406489697527193e+02  2.918975276816622e+03
 1.153610927417245e+03 -3.428458072618436e+02  2.918975276816622e+03
 1.153610352556517e+03 -3.452931745880726e+02  2.918975276816622e+03
 1.153605228988475e+03 -3.485996821239272e+02  2.918975276816622e+03
 1.153581370399436e+03 -3.516629563313944e+02  2.918975276816622e+03
 1.153582057206841e+03 -3.538269866630105e+02  2.918975276816622e+03
 1.153580025933918e+03 -3.560417637212971e+02  2.918975276816622e+03
 1.153588391847071e+03 -3.586693362770089e+02  2.918975276816622e+03
 1.153599431322199e+03 -3.616488947439396e+02  2.918975276816622e+03
 1.153611628293708e+03 -3.639158091865399e+02  2.918975276816622e+03
 1.153622870732863e+03 -3.652931817814004e+02  2.918975276816622e+03
 1.153628289004139e+03 -3.663465013759571e+02  2.918975276816622e+03
 1.153632444792191e+03 -3.677900246132798e+02  2.918975276816622e+03
 1.153647422841769e+03 -3.698110078120154e+02  2.918975276816622e+03
 1.153675895149046e+03 -3.725483551685533e+02  2.918975276816622e+03
 1.153691030677295e+03 -3.751743976365854e+02  2.918975276816622e+03
 1.153719800368763e+03 -3.774354367386122e+02  2.918975276816622e+03
 1.153740575075117e+03 -3.801563776745987e+02  2.918975276816622e+03
 1.153763833718333e+03 -3.824255226725428e+02  2.918975276816622e+03
 1.153776108065674e+03 -3.835585982593857e+02  2.918975276816622e+03
 1.153785834793192e+03 -3.850844467343717e+02  2.918975276816622e+03
1.153808762909109e+03 3.845963189627504e+02 2.918975276816622e+03
1.153800911684976e+03 3.857866820695856e+02 2.918975276816622e+03
1.153823632064263e+03 3.827779316891848e+02 2.918975276816622e+03
1.153835308492790e+03 3.813345396897865e+02 2.918975276816622e+03
1.153844243299081e+03 3.799799443933379e+02 2.918975276816622e+03
1.153862302359784e+03 3.777030653000161e+02 2.918975276816622e+03
1.153862288095911e+03 3.749583014640926e+02 2.918975276816622e+03
1.153878357576025e+03 3.728370168318267e+02 2.918975276816622e+03
1.153870317585734e+03 3.715942836507741e+02 2.918975276816622e+03
1.153883249823808e+03 3.691974936827346e+02 2.918975276816622e+03
1.153890970597410e+03 3.670158573984702e+02 2.918975276816622e+03
1.153899942494263e+03 3.656708585951192e+02 2.918975276816622e+03
1.153910221547763e+03 3.637003737518068e+02 2.918975276816622e+03
1.153935799384070e+03 3.609581907379728e+02 2.918975276816622e+03
1.153971431312767e+03 3.585605822445401e+02 2.918975276816622e+03
1.153941936216315e+03 3.567767093860593e+02 2.918975276816622e+03
1.153972191351865e+03 3.544969034722372e+02 2.918975276816622e+03
1.153978722773570e+03 3.527051749318437e+02 2.918975276816622e+03
1.153972763639292e+03 3.513445856619791e+02 2.918975276816622e+03
1.154030899742228e+03 3.491593194448081e+02 2.918975276816622e+03
1.154106659556186e+03 3.465054359277597e+02 2.918975276816622e+03
1.154168473970883e+03 3.441202417198142e+02 2.918975276816622e+03
1.154191818437445e+03 3.424999720802102e+02 2.918975276816622e+03
1.154221436356828e+03 3.408047219851063e+02 2.918975276816622e+03
1.154264324678126e+03 3.384619181190155e+02 2.918975276816622e+03
1.154289685399646e+03 3.360427761966764e+02 2.918975276816622e+03
1.154315046121165e+03 3.336236342743370e+02 2.918975276816622e+03
1.154290811671231e+03 3.317475742905092e+02 2.918975276816622e+03
1.154426163802894e+03 3.294434367308965e+02 2.918975276816622e+03
1.154473555797231e+03 3.272425640180459e+02 2.918975276816622e+03
1.154363292939207e+03 3.254112429391012e+02 2.918975276816622e+03
1.154392517119200e+03 3.228750491330032e+02 2.918975276816622e+03
1.154599522677350e+03 3.204047502161205e+02 2.918975276816622e+03
1.154699617078932e+03 3.177614147180885e+02 2.918975276816622e+03
1.154572923319521e+03 3.150171726462564e+02 2.918975276816622e+03
1.154490976316392e+03 3.124886015519485e+02 2.918975276816622e+03
1.154450218452471e+03 3.098507408407016e+02 2.918975276816622e+03
1.154449081949031e+03 3.067707618123417e+02 2.918975276816622e+03
1.154433220049406e+03 3.034356001647673e+02 2.918975276816622e+03
1.154419973046433e+03 3.007480541864516e+02 2.918975276816622e+03
1.154407993474114e+03 2.984705474826089e+02 2.918975276816622e+03
1.154394666435798e+03 2.959554643839808e+02 2.918975276816622e+03
1.154388072465970e+03 2.942062585355005e+02 2.918975276816622e+03
1.154379400074207e+03 2.922880614052419e+02 2.918975276816622e+03
1.154361916192024e+03 2.894349957430572e+02 2.918975276816622e+03
1.154352511020337e+03 2.879139719176312e+02 2.918975276816622e+03
1.154311845825314e+03 2.863040237154268e+02 2.918975276816622e+03
1.154231841896460e+03 2.832731092996860e+02 2.918975276816622e+03
1.154162134153717e+03 2.807824395075605e+02 2.918975276816622e+03
1.154109549911284e+03 2.783773749463363e+02 2.918975276816622e+03
1.154040952646881e+03 2.760021861139197e+02 2.918975276816622e+03
1.153965217601989e+03 2.729600295499250e+02 2.918975276816622e+03
1.153863537375999e+03 2.695764227891304e+02 2.918975276816622e+03
1.153783856489037e+03 2.663623007488726e+02 2.918975276816622e+03
1.153737617340190e+03 2.641297939692787e+02 2.918975276816622e+03
1.153724647903396e+03 2.622563361530749e+02 2.918975276816622e+03
1.153642593954290e+03 2.593164713168403e+02 2.918975276816622e+03
1.153606364897124e+03 2.571151083782892e+02 2.918975276816622e+03
1.153581478244166e+03 2.555147603277824e+02 2.918975276816622e+03
1.153586215455731e+03 2.539237229664380e+02 2.918975276816622e+03
1.153593387219553e+03 2.527197524719008e+02 2.918975276816622e+03
1.153565180482993e+03 2.514603178832517e+02 2.918975276816622e+03
1.153540047751907e+03 2.496925365385052e+02 2.918975276816622e+03
1.153520565727872e+03 2.485606581152870e+02 2.918975276816622e+03
1.153496187972587e+03 2.474375498057449e+02 2.918975276816622e+03
1.153475634446496e+03 2.460957498680113e+02 2.918975276816622e+03
1.153473202120793e+03 2.445284025185647e+02 2.918975276816622e+03
1.153479050848353e+03 2.425718763279495e+02 2.918975276816622e+03
1.153489409092453e+03 2.408731149644013e+02 2.918975276816622e+03
1.153488647342934e+03 2.391943972831237e+02 2.918975276816622e+03
1.153506443348458e+03 2.371021063480342e+02 2.918975276816622e+03
1.153509505199244e+03 2.344682686203442e+02 2.918975276816622e+03
1.153546816677164e+03 2.329505684791929e+02 2.918975276816622e+03
1.153571498080764e+03 2.313520101804720e+02 2.918975276816622e+03
1.153603229015849e+03 2.292641272191246e+02 2.918975276816622e+03
1.153617478258373e+03 2.276733801254191e+02 2.918975276816622e+03
1.153643794484428e+03 2.260957583693961e+02 2.918975276816622e+03
1.153659072536517e+03 2.249036391764458e+02 2.918975276816622e+03
1.153684024550495e+03 2.227969107430519e+02 2.918975276816622e+03
1.153714031080046e+03 2.197013109498808e+02 2.918975276816622e+03
1.153747059138679e+03 2.168880603782417e+02 2.918975276816622e+03
1.153770856299085e+03 2.143745577883230e+02 2.918975276816622e+03
1.153794653459491e+03 2.118610551984043e+02 2.918975276816622e+03
1.153810926292758e+03 2.100873922331581e+02 2.918975276816622e+03
1.153824634442745e+03 2.081088804725255e+02 2.918975276816622e+03
1.153843302236595e+03 2.051856802918339e+02 2.918975276816622e+03
1.153855478970560e+03 2.023237124908938e+02 2.918975276816622e+03
1.153864746266960e+03 1.996203115105378e+02 2.918975276816622e+03
1.153877595185677e+03 1.970142449710143e+02 2.918975276816622e+03
1.153872689360136e+03 1.940439549360240e+02 2.918975276816622e+03
1.153873494417775e+03 1.922987444064405e+02 2.918975276816622e+03
1.153841640972478e+03 1.910523408963933e+02 2.918975276816622e+03
1.153809020422964e+03 1.887109825066062e+02 2.918975276816622e+03
1.153766887586517e+03 1.858545047599975e+02 2.918975276816622e+03
1.153707808574074e+03 1.830611400547678e+02 2.918975276816622e+03
1.153678582320656e+03 1.804633942012086e+02 2.918975276816622e+03
1.153631285689173e+03 1.774874936995215e+02 2.918975276816622e+03
1.153603483770080e+03 1.746664700854986e+02 2.918975276816622e+03
1.153595176563379e+03 1.720003233591401e+02 2.918975276816622e+03
1.153586869356677e+03 1.693341766327816e+02 2.918975276816622e+03
1.153547859579627e+03 1.671526663313649e+02 2.918975276816622e+03
1.153508792102416e+03 1.651024805663341e+02 2.918975276816622e+03
1.153500369495395e+03 1.626989829127476e+02 2.918975276816622e+03
1.153491946888372e+03 1.602954852591612e+02 2.918975276816622e+03
1.153488620460702e+03 1.583392841198462e+02 2.918975276816622e+03
1.153450311758619e+03 1.564537244560640e+02 2.918975276816622e+03
1.153371924602773e+03 1.541915097535433e+02 2.918975276816622e+03
1.153392907999533e+03 1.526445820600900e+02 2.918975276816622e+03
1.153407308605144e+03 1.510046642840751e+02 2.918975276816622e+03
1.153378879654172e+03 1.493205026247000e+02 2.918975276816622e+03
1.153352502700473e+03 1.479735644642417e+02 2.918975276816622e+03
1.153361971539271e+03 1.464340003344143e+02 2.918975276816622e+03
1.153411101141472e+03 1.452835281919454e+02 2.918975276816622e+03
1.153411792394762e+03 1.431513111870480e+02 2.918975276816622e+03
1.153419776825149e+03 1.404013390946972e+02 2.918975276816622e+03
1.153433139010891e+03 1.390793565818516e+02 2.918975276816622e+03
1.153429647348833e+03 1.375882327461110e+02 2.918975276816622e+03
1.153399530567498e+03 1.348039402446161e+02 2.918975276816622e+03
1.153366545563028e+03 1.318047119574161e+02 2.918975276816622e+03
1.153321275367064e+03 1.291756609100819e+02 2.918975276816622e+03
1.153287359668066e+03 1.274728367821324e+02 2.918975276816622e+03
1.153266618744042e+03 1.264238026356058e+02 2.918975276816622e+03
1.153229258562862e+03 1.253031888260647e+02 2.918975276816622e+03
1.153179129212218e+03 1.231315990455675e+02 2.918975276816622e+03
1.153096663626358e+03 1.207036314508229e+02 2.918975276816622e+03
1.153037179978051e+03 1.192347278726104e+02 2.918975276816622e+03
1.152951101753585e+03 1.175036945966088e+02 2.918975276816622e+03
1.152787118144514e+03 1.147101840470365e+02 2.918975276816622e+03
1.152567111966801e+03 1.123429725217219e+02 2.918975276816622e+03
1.152400097871525e+03 1.109415692638103e+02 2.918975276816622e+03
1.152137119160534e+03 1.094012343887129e+02 2.918975276816622e+03
1.151907867312064e+03 1.085163863570234e+02 2.918975276816622e+03
1.152133819184913e+03 1.077063341653833e+02 2.918975276816622e+03
1.152484091494053e+03 1.062472542399865e+02 2.918975276816622e+03
1.152702101928101e+03 1.050663044223005e+02 2.918975276816622e+03
1.153031865452486e+03 1.030126562555948e+02 2.918975276816622e+03
1.153344825156178e+03 1.004295344380368e+02 2.918975276816622e+03
1.153617212301244e+03 9.797315339055559e+01 2.918975276816622e+03
1.153810861513240e+03 9.656130281953511e+01 2.918975276816622e+03
1.153917934671605e+03 9.506818926642383e+01 2.918975276816622e+03
1.154060259301719e+03 9.245050496593629e+01 2.918975276816622e+03
1.154197765937652e+03 8.947668099515242e+01 2.918975276816622e+03
1.154355169003661e+03 8.673538851568362e+01 2.918975276816622e+03
1.154470053347180e+03 8.422034229408334e+01 2.918975276816622e+03
1.154580962841916e+03 8.137110783527704e+01 2.918975276816622e+03
1.154660067404744e+03 7.928871523468965e+01 2.918975276816622e+03
1.154730711147843e+03 7.709220549167891e+01 2.918975276816622e+03
1.154805585283085e+03 7.439526778264666e+01 2.918975276816622e+03
1.154880459418327e+03 7.169833007361439e+01 2.918975276816622e+03
1.154955333553569e+03 6.900139236458214e+01 2.918975276816622e+03
1.155022419199799e+03 6.684968104440617e+01 2.918975276816622e+03
1.155002050322397e+03 6.433150818790361e+01 2.918975276816622e+03
1.155070219685750e+03 6.123065794929349e+01 2.918975276816622e+03
1.155146783298967e+03 5.913248301007430e+01 2.918975276816622e+03
1.155199452313396e+03 5.792638750144761e+01 2.918975276816622e+03
1.155165626115387e+03 5.637254597545820e+01 2.918975276816622e+03
1.155092701712509e+03 5.482686052315959e+01 2.918975276816622e+03
1.155058814318313e+03 5.295467003604209e+01 2.918975276816622e+03
1.154939170444925e+03 5.090674490595397e+01 2.918975276816622e+03
1.154794526441334e+03 4.902876242938512e+01 2.918975276816622e+03
1.154883295003011e+03 4.774942611521494e+01 2.918975276816622e+03
1.154961978459833e+03 4.602850988615305e+01 2.918975276816622e+03
1.154796399050912e+03 4.339565528548353e+01 2.918975276816622e+03
1.154753659661452e+03 4.215332809703476e+01 2.918975276816622e+03
1.154825594399919e+03 4.131229373484096e+01 2.918975276816622e+03
1.154877216584454e+03 3.983082471346864e+01 2.918975276816622e+03
1.154981090099825e+03 3.722384994384290e+01 2.918975276816622e+03
1.155026931728962e+03 3.480961077740358e+01 2.918975276816622e+03
1.155003834307864e+03 3.314427819970682e+01 2.918975276816622e+03
1.155025445975685e+03 3.115729313334289e+01 2.918975276816622e+03
1.155060418216578e+03 2.917619160506410e+01 2.918975276816622e+03
1.155109687382080e+03 2.684058797384712e+01 2.918975276816622e+03
1.155152799168948e+03 2.394926199160250e+01 2.918975276816622e+03
1.155280352846958e+03 2.094954930787817e+01 2.918975276816622e+03
1.155339596175548e+03 1.943430130850369e+01 2.918975276816622e+03
1.155234664429556e+03 1.769277646448942e+01 2.918975276816622e+03
1.155131167335814e+03 1.519521158374235e+01 2.918975276816622e+03
1.155094518681812e+03 1.391477977223683e+01 2.918975276816622e+03
1.155049152287337e+03 1.250305053959114e+01 2.918975276816622e+03
1.155011096172150e+03 1.092151636744427e+01 2.918975276816622e+03
1.154957064121356e+03 9.042345676904883e+00 2.918975276816622e+03
1.154901479052867e+03 6.641614409349262e+00 2.918975276816622e+03
1.154854302279228e+03 4.894796430535374e+00 2.918975276816622e+03
1.154799071611468e+03 3.411121203962249e+00 2.918975276816622e+03
1.154782916773941e+03 1.706925097243916e+00 2.918975276816622e+03

CELLS 1412 5791
3 6 1424 7
3 6 1425 375
3 7 1426 8
3 8 1427 9
3 9 1428 10
3 10 1429 11
3 11 1430 12
4 12 1431 1432 13
3 13 1433 14
3 14 1434 15
3 15 1435 16
3 16 1436 17
3 17 1437 18
3 18 1438 19
4 19 1439 1440 20
3 20 1441 21
3 21 1442 22
3 22 1443 23
3 23 1444 24
3 24 1445 25
3 25 1446 26
4 26 1447 1448 27
3 27 1449 28
3 28 1450 29
3 29 1451 30
3 30 1452 31
3 31 1453 32
3 32 1454 33
3 33 1455 34
3 34 1456 35
3 35 1457 36
3 36 1458 37
3 37 1459 38
3 38 1460 39
3 39 1461 40
3 40 1462 41
3 41 1463 42
3 42 1464 43
3 43 1465 44
3 44 1466 45
3 45 1467 46
3 46 1468 47
3 47 1469 48
3 48 1470 49
3 49 1471 50
3 50 1472 51
3 51 1473 52
3 52 1474 53
3 53 1475 54
3 54 1476 55
3 55 1477 56
3 56 1478 57
3 57 1479 58
3 58 1480 59
3 59 1481 60
3 60 1482 61
3 61 1483 62
3 62 1484 63
3 63 1485 64
3 64 1486 65
3 65 1487 66
3 66 1488 67
3 67 1489 68
3 68 1490 69
3 69 1491 70
3 70 1492 71
3 71 1493 72
3 72 1494 73
3 73 1495 74
4 74 1496 1497 75
3 75 1498 76
3 76 1499 77
3 77 1500 78
3 78 1501 79
3 79 1502 80
3 80 1503 81
3 81 1504 82
3 82 1505 83
3 83 1506 84
3 84 1507 85
3 85 1508 86
3 86 1509 87
3 87 1510 88
3 88 1511 89
3 89 1512 90
3 90 1513 91
3 91 1514 92
3 92 1515 93
3 93 1516 94
3 94 1517 95
3 95 1518 96
3 96 1519 97
5 97 1520 1521 1522 98
3 98 1523 99
3 99 1524 100
3 100 1525 101
3 101 1526 102
3 102 1527 103
3 103 1528 104
4 104 1529 1530 105
3 105 1531 106
3 106 1532 107
3 107 1533 108
3 108 1534 109
3 109 1535 110
3 110 1536 111
3 111 1537 112
3 112 1538 113
3 113 1539 114
3 114 1540 115
3 115 1541 116
3 116 1542 117
3 117 1543 118
3 118 1544 119
3 119 1545 120
3 120 1546 121
3 121 1547 122
3 122 1548 123
3 123 1549 124
3 124 1550 125
4 125 1551 1552 126
3 126 1553 127
3 127 1554 128
3 128 1555 129
3 129 1556 130
3 130 1557 131
3 131 1558 132
3 132 1559 133
3 133 1560 134
3 134 1561 135
3 135 1562 136
3 136 1563 137
3 137 1564 138
3 138 1565 139
3 139 1566 140
3 140 1567 141
3 141 1568 142
3 142 1569 143
3 143 1570 144
3 144 1571 145
3 145 1572 146
3 146 1573 147
3 147 1574 148
3 148 1575 149
4 149 1576 1577 150
3 150 1578 151
3 151 1579 152
3 152 1580 153
3 153 1581 154
3 154 1582 155
3 155 1583 156
3 156 1584 157
5 157 1585 1586 1587 158
3 158 1588 159
3 159 1589 160
3 160 1590 161
3 161 1591 162
3 162 1592 163
3 163 1593 164
3 164 1594 165
3 165 1595 166
4 166 1596 1597 167
3 167 1598 168
3 168 1599 169
3 169 1600 170
3 170 1601 171
3 171 1602 172
3 172 1603 173
4 173 1604 1605 174
3 174 1606 175
3 175 1607 176
4 176 1608 1609 177
3 177 1610 178
3 178 1611 179
3 179 1612 180
5 180 1613 1614 1615 181
3 181 1616 182
3 182 1617 183
3 183 1618 184
3 184 1619 185
3 185 1620 186
3 186 1621 187
3 187 1622 188
3 188 1623 189
3 189 1624 190
3 190 1625 1416
4 191 1626 1627 192
3 191 1628 1417
3 192 1629 193
3 193 1630 194
3 194 1631 195
4 195 1632 1633 196
5 196 1634 1635 1636 197
3 197 1637 198
3 198 1638 199
3 199 1639 200
3 200 1640 201
3 201 1641 202
3 202 1642 203
3 203 1643 204
3 204 1644 205
3 205 1645 206
3 206 1646 207
5 207 1647 1648 1649 208
3 208 1650 209
3 209 1651 210
3 210 1652 211
3 211 1653 212
3 212 1654 213
3 213 1655 214
3 214 1656 215
3 215 1657 216
3 216 1658 217
3 217 1659 218
3 218 1660 219
3 219 1661 220
3 220 1662 221
3 221 1663 222
4 222 1664 1665 223
3 223 1666 224
3 224 1667 225
4 225 1668 1669 226
3 226 1670 227
3 227 1671 228
3 228 1672 229
3 229 1673 230
3 230 1674 231
3 231 1675 232
3 232 1676 233
3 233 1677 234
3 234 1678 235
3 235 1679 236
3 236 1680 237
3 237 1681 238
3 238 1682 239
3 239 1683 240
3 240 1684 241
3 241 1685 242
3 242 1686 243
3 243 1687 244
3 244 1688 245
4 245 1689 1690 246
3 246 1691 247
3 247 1692 248
3 248 1693 249
3 249 1694 250
3 250 1695 251
3 251 1696 252
3 252 1697 253
3 253 1698 254
3 254 1699 255
3 255 1700 256
3 256 1701 257
3 257 1702 258
3 258 1703 259
3 259 1704 260
3 260 1705 261
3 261 1706 262
3 262 1707 263
3 263 1708 264
3 264 1709 265
3 265 1710 266
3 266 1711 267
3 267 1712 268
3 268 1713 269
3 269 1714 270
3 270 1715 271
3 271 1716 272
3 272 1717 273
3 273 1718 274
3 274 1719 275
3 275 1720 276
3 276 1721 277
4 277 1722 1723 278
3 278 1724 279
3 279 1725 280
3 280 1726 281
3 281 1727 282
3 282 1728 283
3 283 1729 284
3 284 1730 285
3 285 1731 286
3 286 1732 287
3 287 1733 288
3 288 1734 289
3 289 1735 290
3 290 1736 291
3 291 1737 292
3 292 1738 293
3 293 1739 294
3 294 1740 295
3 295 1741 296
3 296 1742 297
3 297 1743 298
3 298 1744 299
3 299 1745 300
3 300 1746 301
3 301 1747 302
4 302 1748 1749 303
3 303 1750 304
3 304 1751 305
3 305 1752 306
3 306 1753 307
3 307 1754 308
3 308 1755 309
3 309 1756 310
3 310 1757 311
3 311 1758 312
3 312 1759 313
3 313 1760 314
3 314 1761 315
3 315 1762 316
3 316 1763 317
3 317 1764 318
3 318 1765 319
3 319 1766 320
3 320 1767 321
4 321 1768 1769 322
3 322 1770 323
3 323 1771 324
3 324 1772 325
3 325 1773 326
3 326 1774 327
3 327 1775 328
3 328 1776 329
3 329 1777 330
3 330 1778 331
3 331 1779 332
3 332 1780 333
3 333 1781 334
3 334 1782 335
3 335 1783 336
3 336 1784 337
3 337 1785 338
3 338 1786 339
3 339 1787 340
3 340 1788 341
3 341 1789 342
3 342 1790 343
3 343 1791 344
3 344 1792 345
3 345 1793 346
3 346 1794 347
3 347 1795 348
3 348 1796 349
3 349 1797 350
3 350 1798 351
3 351 1799 352
4 352 1800 1801 353
3 353 1802 354
3 354 1803 355
3 355 1804 356
3 356 1805 357
3 357 1806 358
3 358 1807 359
3 359 1808 360
3 360 1809 361
3 361 1810 362
3 362 1811 363
3 363 1812 364
3 364 1813 365
4 365 1814 1815 366
3 366 1816 367
3 367 1817 368
3 368 1818 369
3 369 1819 370
3 370 1820 371
3 371 1821 372
4 372 1822 1823 373
3 373 1824 374
3 374 1825 375
3 377 1826 378
3 377 1827 719
3 378 1828 379
3 379 1829 380
4 380 1830 1831 381
3 381 1832 382
3 382 1833 383
3 383 1834 384
3 384 1835 385
4 385 1836 1837 386
3 386 1838 387
3 387 1839 388
3 388 1840 389
3 389 1841 390
3 390 1842 391
3 391 1843 392
3 392 1844 393
4 393 1845 1846 394
3 394 1847 395
3 395 1848 396
3 396 1849 397
3 397 1850 398
3 398 1851 399
3 399 1852 400
3 400 1853 401
3 401 1854 402
3 402 1855 403
3 403 1856 404
3 404 1857 405
3 405 1858 406
3 406 1859 407
3 407 1860 408
3 408 1861 409
3 409 1862 410
3 410 1863 411
3 411 1864 412
3 412 1865 413
4 413 1866 1867 414
3 414 1868 415
3 415 1869 416
3 416 1870 417
3 417 1871 418
3 418 1872 419
3 419 1873 420
3 420 1874 421
3 421 1875 422
3 422 1876 423
3 423 1877 424
4 424 1878 1879 425
3 425 1880 426
3 426 1881 427
3 427 1882 428
3 428 1883 429
3 429 1884 430
3 430 1885 431
3 431 1886 432
3 432 1887 433
3 433 1888 434
3 434 1889 435
3 435 1890 436
4 436 1891 1892 437
4 437 1893 1894 438
3 438 1895 439
4 439 1896 1897 440
3 440 1898 441
3 441 1899 442
4 442 1900 1901 443
3 443 1902 444
3 444 1903 445
3 445 1904 446
3 446 1905 447
3 447 1906 448
3 448 1907 449
3 449 1908 450
4 450 1909 1910 451
3 451 1911 452
3 452 1912 453
3 453 1913 454
3 454 1914 455
3 455 1915 456
3 456 1916 457
3 457 1917 458
3 458 1918 459
3 459 1919 460
4 460 1920 1921 461
3 461 1922 462
3 462 1923 463
3 463 1924 464
3 464 1925 465
3 465 1926 466
3 466 1927 467
3 467 1928 468
4 468 1929 1930 469
3 469 1931 470
3 470 1932 471
3 471 1933 472
3 472 1934 473
3 473 1935 474
4 474 1936 1937 475
3 475 1938 476
3 476 1939 477
4 477 1940 1941 478
3 478 1942 479
3 479 1943 480
3 480 1944 481
3 481 1945 482
3 482 1946 483
3 483 1947 484
3 484 1948 485
3 485 1949 486
3 486 1950 487
3 487 1951 488
3 488 1952 489
4 489 1953 1954 490
3 490 1955 491
3 491 1956 492
3 492 1957 493
3 493 1958 494
4 494 1959 1960 495
3 495 1961 496
3 496 1962 497
3 497 1963 498
3 498 1964 499
3 499 1965 500
3 500 1966 501
4 501 1967 1968 502
3 502 1969 503
3 503 1970 504
3 504 1971 505
3 505 1972 506
3 506 1973 507
3 507 1974 508
3 508 1975 509
3 509 1976 510
3 510 1977 511
4 511 1978 1979 512
3 512 1980 513
3 513 1981 514
3 514 1982 515
3 515 1983 516
3 516 1984 517
3 517 1985 518
3 518 1986 519
3 519 1987 520
3 520 1988 521
3 521 1989 522
3 522 1990 523
3 523 1991 524
3 524 1992 525
3 525 1993 526
3 526 1994 527
3 527 1995 528
3 528 1996 529
3 529 1997 530
3 530 1998 531
3 531 1999 532
3 532 2000 533
3 533 2001 534
3 534 2002 535
3 535 2003 536
3 536 2004 537
4 537 2005 2006 538
3 538 2007 539
3 539 2008 540
3 540 2009 541
3 541 2010 542
3 542 2011 543
4 543 2012 2013 544
3 544 2014 545
3 545 2015 1418
3 546 2016 547
3 546 2017 1419
3 547 2018 548
3 548 2019 549
3 549 2020 550
3 550 2021 551
3 551 2022 552
3 552 2023 553
3 553 2024 554
3 554 2025 555
3 555 2026 556
3 556 2027 557
3 557 2028 558
3 558 2029 559
3 559 2030 560
3 560 2031 561
3 561 2032 562
3 562 2033 563
3 563 2034 564
3 564 2035 565
3 565 2036 566
3 566 2037 567
3 567 2038 568
3 568 2039 569
3 569 2040 570
3 570 2041 571
3 571 2042 572
3 572 2043 573
3 573 2044 574
3 574 2045 575
3 575 2046 576
3 576 2047 577
3 577 2048 578
3 578 2049 579
3 579 2050 580
3 580 2051 581
3 581 2052 582
3 582 2053 583
3 583 2054 584
3 584 2055 585
3 585 2056 586
4 586 2057 2058 587
3 587 2059 588
3 588 2060 589
3 589 2061 590
3 590 2062 591
3 591 2063 592
3 592 2064 593
4 593 2065 2066 594
3 594 2067 595
3 595 2068 596
3 596 2069 597
3 597 2070 598
3 598 2071 599
3 599 2072 600
4 600 2073 2074 601
3 601 2075 602
3 602 2076 603
3 603 2077 604
3 604 2078 605
4 605 2079 2080 606
3 606 2081 607
3 607 2082 608
3 608 2083 609
3 609 2084 610
3 610 2085 611
3 611 2086 612
3 612 2087 613
3 613 2088 614
3 614 2089 615
4 615 2090 2091 616
3 616 2092 617
3 617 2093 618
3 618 2094 619
3 619 2095 620
3 620 2096 621
3 621 2097 622
3 622 2098 623
3 623 2099 624
4 624 2100 2101 625
3 625 2102 626
3 626 2103 627
3 627 2104 628
3 628 2105 629
3 629 2106 630
3 630 2107 631
3 631 2108 632
3 632 2109 633
3 633 2110 634
3 634 2111 635
3 635 2112 636
4 636 2113 2114 637
3 637 2115 638
3 638 2116 639
3 639 2117 640
3 640 2118 641
3 641 2119 642
3 642 2120 643
4 643 2121 2122 644
3 644 2123 645
3 645 2124 646
3 646 2125 647
3 647 2126 648
3 648 2127 649
3 649 2128 650
3 650 2129 651
3 651 2130 652
3 652 2131 653
4 653 2132 2133 654
3 654 2134 655
3 655 2135 656
3 656 2136 657
3 657 2137 658
3 658 2138 659
3 659 2139 660
3 660 2140 661
3 661 2141 662
3 662 2142 663
4 663 2143 2144 664
3 664 2145 665
3 665 2146 666
3 666 2147 667
3 667 2148 668
3 668 2149 669
3 669 2150 670
3 670 2151 671
3 671 2152 672
3 672 2153 673
3 673 2154 674
3 674 2155 675
4 675 2156 2157 676
3 676 2158 677
3 677 2159 678
3 678 2160 679
3 679 2161 680
3 680 2162 681
3 681 2163 682
3 682 2164 683
4 683 2165 2166 684
3 684 2167 685
6 685 2168 2169 2170 2171 686
3 686 2172 687
3 687 2173 688
3 688 2174 689
3 689 2175 690
4 690 2176 2177 691
4 691 2178 2179 692
3 692 2180 693
3 693 2181 694
3 694 2182 695
3 695 2183 696
3 696 2184 697
3 697 2185 698
3 698 2186 699
3 699 2187 700
3 700 2188 701
3 701 2189 702
3 702 2190 703
3 703 2191 704
3 704 2192 705
3 705 2193 706
3 706 2194 707
3 707 2195 708
4 708 2196 2197 709
3 709 2198 710
3 710 2199 711
3 711 2200 712
3 712 2201 713
4 713 2202 2203 714
3 714 2204 715
3 715 2205 716
3 716 2206 717
3 717 2207 718
3 718 2208 719
4 720 2209 2210 721
4 720 2211 2212 1103
4 721 2213 2214 722
3 722 2215 723
3 723 2216 724
3 724 2217 725
3 725 2218 726
4 726 2219 2220 727
3 727 2221 728
3 728 2222 729
3 729 2223 730
4 730 2224 2225 731
3 731 2226 732
3 732 2227 733
3 733 2228 734
3 734 2229 735
3 735 2230 736
3 736 2231 737
3 737 2232 738
3 738 2233 739
3 739 2234 740
3 740 2235 741
3 741 2236 742
3 742 2237 743
3 743 2238 744
3 744 2239 745
3 745 2240 746
3 746 2241 747
3 747 2242 748
3 748 2243 749
3 749 2244 750
3 750 2245 751
3 751 2246 752
3 752 2247 753
3 753 2248 754
3 754 2249 755
3 755 2250 756
3 756 2251 757
3 757 2252 758
3 758 2253 759
3 759 2254 760
3 760 2255 761
3 761 2256 762
3 762 2257 763
3 763 2258 764
3 764 2259 765
3 765 2260 766
3 766 2261 767
3 767 2262 768
3 768 2263 769
3 769 2264 770
3 770 2265 771
3 771 2266 772
3 772 2267 773
3 773 2268 774
3 774 2269 775
3 775 2270 776
3 776 2271 777
3 777 2272 778
3 778 2273 779
3 779 2274 780
3 780 2275 781
3 781 2276 782
4 782 2277 2278 783
3 783 2279 784
3 784 2280 785
3 785 2281 786
3 786 2282 787
3 787 2283 788
3 788 2284 789
3 789 2285 790
3 790 2286 791
3 791 2287 792
3 792 2288 793
3 793 2289 794
3 794 2290 795
3 795 2291 796
3 796 2292 797
3 797 2293 798
3 798 2294 799
3 799 2295 800
3 800 2296 801
3 801 2297 802
3 802 2298 803
3 803 2299 804
3 804 2300 805
3 805 2301 806
3 806 2302 807
3 807 2303 808
3 808 2304 809
3 809 2305 810
3 810 2306 811
3 811 2307 812
3 812 2308 813
3 813 2309 814
3 814 2310 815
3 815 2311 816
4 816 2312 2313 817
3 817 2314 818
3 818 2315 819
3 819 2316 820
3 820 2317 821
3 821 2318 822
3 822 2319 823
3 823 2320 824
3 824 2321 825
3 825 2322 826
3 826 2323 827
3 827 2324 828
3 828 2325 829
3 829 2326 830
3 830 2327 831
3 831 2328 832
3 832 2329 833
3 833 2330 834
3 834 2331 835
3 835 2332 836
3 836 2333 837
3 837 2334 838
3 838 2335 839
3 839 2336 840
3 840 2337 841
3 841 2338 842
3 842 2339 843
3 843 2340 844
3 844 2341 845
3 845 2342 846
5 846 2343 2344 2345 847
3 847 2346 848
3 848 2347 849
3 849 2348 850
3 850 2349 851
3 851 2350 852
3 852 2351 853
3 853 2352 854
3 854 2353 855
3 855 2354 856
3 856 2355 857
3 857 2356 858
3 858 2357 859
3 859 2358 860
3 860 2359 861
3 861 2360 862
3 862 2361 863
3 863 2362 864
3 864 2363 865
3 865 2364 866
3 866 2365 867
3 867 2366 868
3 868 2367 869
3 869 2368 870
3 870 2369 871
3 871 2370 872
3 872 2371 873
3 873 2372 874
4 874 2373 2374 875
3 875 2375 876
3 876 2376 877
3 877 2377 878
3 878 2378 879
3 879 2379 880
4 880 2380 2381 881
3 881 2382 882
3 882 2383 883
3 883 2384 884
3 884 2385 885
3 885 2386 886
3 886 2387 887
3 887 2388 888
3 888 2389 889
3 889 2390 890
3 890 2391 891
3 891 2392 892
3 892 2393 893
3 893 2394 894
3 894 2395 895
3 895 2396 896
3 896 2397 897
3 897 2398 898
3 898 2399 899
4 899 2400 2401 900
3 900 2402 901
4 901 2403 2404 902
3 902 2405 903
3 903 2406 904
3 904 2407 905
3 905 2408 906
3 906 2409 907
3 907 2410 908
3 908 2411 909
3 909 2412 910
3 910 2413 911
3 911 2414 912
3 912 2415 913
3 913 2416 914
3 914 2417 915
3 915 2418 916
3 916 2419 917
3 917 2420 1420
3 918 2421 919
3 918 2422 1421
3 919 2423 920
3 920 2424 921
3 921 2425 922
3 922 2426 923
3 923 2427 924
4 924 2428 2429 925
3 925 2430 926
3 926 2431 927
3 927 2432 928
3 928 2433 929
4 929 2434 2435 930
3 930 2436 931
4 931 2437 2438 932
3 932 2439 933
5 933 2440 2441 2442 934
3 934 2443 935
3 935 2444 936
3 936 2445 937
3 937 2446 938
3 938 2447 939
4 939 2448 2449 940
3 940 2450 941
3 941 2451 942
4 942 2452 2453 943
3 943 2454 944
4 944 2455 2456 945
3 945 2457 946
3 946 2458 947
3 947 2459 948
3 948 2460 949
3 949 2461 950
3 950 2462 951
3 951 2463 952
3 952 2464 953
3 953 2465 954
3 954 2466 955
3 955 2467 956
3 956 2468 957
3 957 2469 958
3 958 2470 959
3 959 2471 960
3 960 2472 961
3 961 2473 962
3 962 2474 963
3 963 2475 964
3 964 2476 965
3 965 2477 966
3 966 2478 967
3 967 2479 968
3 968 2480 969
3 969 2481 970
3 970 2482 971
3 971 2483 972
3 972 2484 973
3 973 2485 974
3 974 2486 975
3 975 2487 976
3 976 2488 977
3 977 2489 978
3 978 2490 979
3 979 2491 980
3 980 2492 981
3 981 2493 982
3 982 2494 983
3 983 2495 984
3 984 2496 985
3 985 2497 986
3 986 2498 987
3 987 2499 988
3 988 2500 989
3 989 2501 990
3 990 2502 991
3 991 2503 992
3 992 2504 993
3 993 2505 994
3 994 2506 995
3 995 2507 996
3 996 2508 997
3 997 2509 998
3 998 2510 999
3 999 2511 1000
3 1000 2512 1001
3 1001 2513 1002
3 1002 2514 1003
3 1003 2515 1004
4 1004 2516 2517 1005
3 1005 2518 1006
3 1006 2519 1007
3 1007 2520 1008
3 1008 2521 1009
3 1009 2522 1010
3 1010 2523 1011
3 1011 2524 1012
3 1012 2525 1013
3 1013 2526 1014
3 1014 2527 1015
3 1015 2528 1016
3 1016 2529 1017
3 1017 2530 1018
3 1018 2531 1019
3 1019 2532 1020
3 1020 2533 1021
3 1021 2534 1022
3 1022 2535 1023
3 1023 2536 1024
3 1024 2537 1025
3 1025 2538 1026
3 1026 2539 1027
3 1027 2540 1028
3 1028 2541 1029
3 1029 2542 1030
3 1030 2543 1031
3 1031 2544 1032
3 1032 2545 1033
3 1033 2546 1034
3 1034 2547 1035
3 1035 2548 1036
3 1036 2549 1037
3 1037 2550 1038
3 1038 2551 1039
3 1039 2552 1040
3 1040 2553 1041
3 1041 2554 1042
3 1042 2555 1043
3 1043 2556 1044
3 1044 2557 1045
3 1045 2558 1046
3 1046 2559 1047
3 1047 2560 1048
3 1048 2561 1049
3 1049 2562 1050
3 1050 2563 1051
3 1051 2564 1052
3 1052 2565 1053
3 1053 2566 1054
3 1054 2567 1055
3 1055 2568 1056
3 1056 2569 1057
3 1057 2570 1058
3 1058 2571 1059
3 1059 2572 1060
3 1060 2573 1061
3 1061 2574 1062
3 1062 2575 1063
3 1063 2576 1064
3 1064 2577 1065
3 1065 2578 1066
3 1066 2579 1067
3 1067 2580 1068
3 1068 2581 1069
3 1069 2582 1070
3 1070 2583 1071
4 1071 2584 2585 1072
3 1072 2586 1073
3 1073 2587 1074
3 1074 2588 1075
3 1075 2589 1076
3 1076 2590 1077
4 1077 2591 2592 1078
3 1078 2593 1079
3 1079 2594 1080
3 1080 2595 1081
3 1081 2596 1082
3 1082 2597 1083
3 1083 2598 1084
3 1084 2599 1085
3 1085 2600 1086
3 1086 2601 1087
3 1087 2602 1088
3 1088 2603 1089
3 1089 2604 1090
3 1090 2605 1091
3 1091 2606 1092
3 1092 2607 1093
4 1093 2608 2609 1094
3 1094 2610 1095
3 1095 2611 1096
3 1096 2612 1097
3 1097 2613 1098
3 1098 2614 1099
3 1099 2615 1100
3 1100 2616 1101
3 1101 2617 1102
4 1102 2618 2619 1103
3 1105 2620 1106
3 1105 2621 1415
3 1106 2622 1107
4 1107 2623 2624 1108
5 1108 2625 2626 2627 1109
4 1109 2628 2629 1110
4 1110 2630 2631 1111
3 1111 2632 1112
3 1112 2633 1113
4 1113 2634 2635 1114
3 1114 2636 1115
4 1115 2637 2638 1116
3 1116 2639 1117
3 1117 2640 1118
3 1118 2641 1119
3 1119 2642 1120
3 1120 2643 1121
3 1121 2644 1122
3 1122 2645 1123
3 1123 2646 1124
3 1124 2647 1125
3 1125 2648 1126
3 1126 2649 1127
3 1127 2650 1128
3 1128 2651 1129
3 1129 2652 1130
3 1130 2653 1131
3 1131 2654 1132
3 1132 2655 1133
3 1133 2656 1134
3 1134 2657 1135
3 1135 2658 1136
3 1136 2659 1137
3 1137 2660 1138
3 1138 2661 1139
3 1139 2662 1140
3 1140 2663 1141
3 1141 2664 1142
3 1142 2665 1143
3 1143 2666 1144
3 1144 2667 1145
3 1145 2668 1146
3 1146 2669 1147
3 1147 2670 1148
3 1148 2671 1149
3 1149 2672 1150
3 1150 2673 1151
3 1151 2674 1152
3 1152 2675 1153
4 1153 2676 2677 1154
3 1154 2678 1155
3 1155 2679 1156
3 1156 2680 1157
6 1157 2681 2682 2683 2684 1158
3 1158 2685 1159
3 1159 2686 1160
3 1160 2687 1161
3 1161 2688 1162
3 1162 2689 1163
3 1163 2690 1164
3 1164 2691 1165
3 1165 2692 1166
3 1166 2693 1167
3 1167 2694 1168
3 1168 2695 1169
3 1169 2696 1170
3 1170 2697 1171
3 1171 2698 1172
3 1172 2699 1173
3 1173 2700 1174
3 1174 2701 1175
3 1175 2702 1176
3 1176 2703 1177
3 1177 2704 1178
3 1178 2705 1179
3 1179 2706 1180
3 1180 2707 1181
3 1181 2708 1182
3 1182 2709 1183
5 1183 2710 2711 2712 1184
3 1184 2713 1185
4 1185 2714 2715 1186
3 1186 2716 1187
3 1187 2717 1188
3 1188 2718 1189
3 1189 2719 1190
3 1190 2720 1191
3 1191 2721 1192
3 1192 2722 1193
3 1193 2723 1194
4 1194 2724 2725 1195
3 1195 2726 1196
3 1196 2727 1197
3 1197 2728 1198
4 1198 2729 2730 1199
3 1199 2731 1200
3 1200 2732 1201
3 1201 2733 1202
3 1202 2734 1203
4 1203 2735 2736 1204
3 1204 2737 1205
3 1205 2738 1206
3 1206 2739 1207
3 1207 2740 1208
3 1208 2741 1209
3 1209 2742 1210
3 1210 2743 1211
3 1211 2744 1212
3 1212 2745 1213
4 1213 2746 2747 1214
3 1214 2748 1215
3 1215 2749 1216
3 1216 2750 1217
3 1217 2751 1218
3 1218 2752 1219
4 1219 2753 2754 1220
3 1220 2755 1221
3 1221 2756 1222
3 1222 2757 1223
3 1223 2758 1224
3 1224 2759 1225
3 1225 2760 1226
3 1226 2761 1227
3 1227 2762 1228
3 1228 2763 1229
3 1229 2764 1230
4 1230 2765 2766 1231
3 1231 2767 1232
3 1232 2768 1233
3 1233 2769 1234
3 1234 2770 1235
3 1235 2771 1236
3 1236 2772 1237
4 1237 2773 2774 1238
3 1238 2775 1239
3 1239 2776 1240
3 1240 2777 1241
3 1241 2778 1242
3 1242 2779 1243
3 1243 2780 1244
3 1244 2781 1245
3 1245 2782 1246
3 1246 2783 1247
3 1247 2784 1248
3 1248 2785 1249
3 1249 2786 1250
3 1250 2787 1251
3 1251 2788 1252
4 1252 2789 2790 1253
3 1253 2791 1254
3 1254 2792 1255
3 1255 2793 1422
3 1256 2794 1257
3 1256 2795 1423
3 1257 2796 1258
3 1258 2797 1259
4 1259 2798 2799 1260
3 1260 2800 1261
3 1261 2801 1262
3 1262 2802 1263
3 1263 2803 1264
3 1264 2804 1265
3 1265 2805 1266
3 1266 2806 1267
3 1267 2807 1268
3 1268 2808 1269
3 1269 2809 1270
3 1270 2810 1271
3 1271 2811 1272
3 1272 2812 1273
4 1273 2813 2814 1274
3 1274 2815 1275
3 1275 2816 1276
3 1276 2817 1277
5 1277 2818 2819 2820 1278
3 1278 2821 1279
3 1279 2822 1280
3 1280 2823 1281
4 1281 2824 2825 1282
3 1282 2826 1283
3 1283 2827 1284
3 1284 2828 1285
3 1285 2829 1286
3 1286 2830 1287
4 1287 2831 2832 1288
3 1288 2833 1289
4 1289 2834 2835 1290
3 1290 2836 1291
4 1291 2837 2838 1292
3 1292 2839 1293
4 1293 2840 2841 1294
3 1294 2842 1295
3 1295 2843 1296
3 1296 2844 1297
3 1297 2845 1298
3 1298 2846 1299
3 1299 2847 1300
3 1300 2848 1301
3 1301 2849 1302
3 1302 2850 1303
3 1303 2851 1304
3 1304 2852 1305
3 1305 2853 1306
3 1306 2854 1307
3 1307 2855 1308
3 1308 2856 1309
3 1309 2857 1310
3 1310 2858 1311
3 1311 2859 1312
3 1312 2860 1313
3 1313 2861 1314
3 1314 2862 1315
3 1315 2863 1316
3 1316 2864 1317
3 1317 2865 1318
3 1318 2866 1319
3 1319 2867 1320
3 1320 2868 1321
3 1321 2869 1322
3 1322 2870 1323
3 1323 2871 1324
3 1324 2872 1325
3 1325 2873 1326
5 1326 2874 2875 2876 1327
3 1327 2877 1328
4 1328 2878 2879 1329
3 1329 2880 1330
4 1330 2881 2882 1331
3 1331 2883 1332
3 1332 2884 1333
3 1333 2885 1334
3 1334 2886 1335
3 1335 2887 1336
3 1336 2888 1337
4 1337 2889 2890 1338
5 1338 2891 2892 2893 1339
3 1339 2894 1340
5 1340 2895 2896 2897 1341
3 1341 2898 1342
4 1342 2899 2900 1343
3 1343 2901 1344
3 1344 2902 1345
3 1345 2903 1346
3 1346 2904 1347
3 1347 2905 1348
3 1348 2906 1349
3 1349 2907 1350
3 1350 2908 1351
3 1351 2909 1352
3 1352 2910 1353
4 1353 2911 2912 1354
3 1354 2913 1355
3 1355 2914 1356
3 1356 2915 1357
3 1357 2916 1358
3 1358 2917 1359
3 1359 2918 1360
3 1360 2919 1361
3 1361 2920 1362
3 1362 2921 1363
3 1363 2922 1364
3 1364 2923 1365
3 1365 2924 1366
3 1366 2925 1367
3 1367 2926 1368
3 1368 2927 1369
3 1369 2928 1370
3 1370 2929 1371
3 1371 2930 1372
3 1372 2931 1373
3 1373 2932 1374
3 1374 2933 1375
3 1375 2934 1376
3 1376 2935 1377
3 1377 2936 1378
3 1378 2937 1379
3 1379 2938 1380
3 1380 2939 1381
6 1381 2940 2941 2942 2943 1382
3 1382 2944 1383
3 1383 2945 1384
3 1384 2946 1385
3 1385 2947 1386
3 1386 2948 1387
3 1387 2949 1388
3 1388 2950 1389
3 1389 2951 1390
3 1390 2952 1391
3 1391 2953 1392
3 1392 2954 1393
3 1393 2955 1394
3 1394 2956 1395
3 1395 2957 1396
3 1396 2958 1397
3 1397 2959 1398
3 1398 2960 1399
3 1399 2961 1400
3 1400 2962 1401
3 1401 2963 1402
3 1402 2964 1403
3 1403 2965 1404
4 1404 2966 2967 1405
3 1405 2968 1406
3 1406 2969 1407
3 1407 2970 1408
3 1408 2971 1409
3 1409 2972 1410
3 1410 2973 1411
4 1411 2974 2975 1412
3 1412 2976 1413
3 1413 2977 1414
3 1414 2978 1415

CELL_TYPES 1412
4
4
4
4
4
4
4
4
4
4
4
4
4
4
4
4
4
4
4
4
4
4
4
4
4
4
4
4
4
4
4
4
4
4
4
4
4
4
4
4
4
4
4
4
4
4
4
4
4
4
4
4
4
4
4
4
4
4
4
4
4
4
4
4
4
4
4
4
4
4
4
4
4
4
4
4
4
4
4
4
4
4
4
4
4
4
4
4
4
4
4
4
4
4
4
4
4
4
4
4
4
4
4
4
4
4
4
4
4
4
4
4
4
4
4
4
4
4
4
4
4
4
4
4
4
4
4
4
4
4
4
4
4
4
4
4
4
4
4
4
4
4
4
4
4
4
4
4
4
4
4
4
4
4
4
4
4
4
4
4
4
4
4
4
4
4
4
4
4
4
4
4
4
4
4
4
4
4
4
4
4
4
4
4
4
4
4
4
4
4
4
4
4
4
4
4
4
4
4
4
4
4
4
4
4
4
4
4
4
4
4
4
4
4
4
4
4
4
4
4
4
4
4
4
4
4
4
4
4
4
4
4
4
4
4
4
4
4
4
4
4
4
4
4
4
4
4
4
4
4
4
4
4
4
4
4
4
4
4
4
4
4
4
4
4
4
4
4
4
4
4
4
4
4
4
4
4
4
4
4
4
4
4
4
4
4
4
4
4
4
4
4
4
4
4
4
4
4
4
4
4
4
4
4
4
4
4
4
4
4
4
4
4
4
4
4
4
4
4
4
4
4
4
4
4
4
4
4
4
4
4
4
4
4
4
4
4
4
4
4
4
4
4
4
4
4
4
4
4
4
4
4
4
4
4
4
4
4
4
4
4
4
4
4
4
4
4
4
4
4
4
4
4
4
4
4
4
4
4
4
4
4
4
4
4
4
4
4
4
4
4
4
4
4
4
4
4
4
4
4
4
4
4
4
4
4
4
4
4
4
4
4
4
4
4
4
4
4
4
4
4
4
4
4
4
4
4
4
4
4
4
4
4
4
4
4
4
4
4
4
4
4
4
4
4
4
4
4
4
4
4
4
4
4
4
4
4
4
4
4
4
4
4
4
4
4
4
4
4
4
4
4
4
4
4
4
4
4
4
4
4
4
4
4
4
4
4
4
4
4
4
4
4
4
4
4
4
4
4
4
4
4
4
4
4
4
4
4
4
4
4
4
4
4
4
4
4
4
4
4
4
4
4
4
4
4
4
4
4
4
4
4
4
4
4
4
4
4
4
4
4
4
4
4
4
4
4
4
4
4
4
4
4
4
4
4
4
4
4
4
4
4
4
4
4
4
4
4
4
4
4
4
4
4
4
4
4
4
4
4
4
4
4
4
4
4
4
4
4
4
4
4
4
4
4
4
4
4
4
4
4
4
4
4
4
4
4
4
4
4
4
4
4
4
4
4
4
4
4
4
4
4
4
4
4
4
4
4
4
4
4
4
4
4
4
4
4
4
4
4
4
4
4
4
4
4
4
4
4
4
4
4
4
4
4
4
4
4
4
4
4
4
4
4
4
4
4
4
4
4
4
4
4
4
4
4
4
4
4
4
4
4
4
4
4
4
4
4
4
4
4
4
4
4
4
4
4
4
4
4
4
4
4
4
4
4
4
4
4
4
4
4
4
4
4
4
4
4
4
4
4
4
4
4
4
4
4
4
4
4
4
4
4
4
4
4
4
4
4
4
4
4
4
4
4
4
4
4
4
4
4
4
4
4
4
4
4
4
4
4
4
4
4
4
4
4
4
4
4
4
4
4
4
4
4
4
4
4
4
4
4
4
4
4
4
4
4
4
4
4
4
4
4
4
4
4
4
4
4
4
4
4
4
4
4
4
4
4
4
4
4
4
4
4
4
4
4
4
4
4
4
4
4
4
4
4
4
4
4
4
4
4
4
4
4
4
4
4
4
4
4
4
4
4
4
4
4
4
4
4
4
4
4
4
4
4
4
4
4
4
4
4
4
4
4
4
4
4
4
4
4
4
4
4
4
4
4
4
4
4
4
4
4
4
4
4
4
4
4
4
4
4
4
4
4
4
4
4
4
4
4
4
4
4
4
4
4
4
4
4
4
4
4
4
4
4
4
4
4
4
4
4
4
4
4
4
4
4
4
4
4
4
4
4
4
4
4
4
4
4
4
4
4
4
4
4
4
4
4
4
4
4
4
4
4
4
4
4
4
4
4
4
4
4
4
4
4
4
4
4
4
4
4
4
4
4
4
4
4
4
4
4
4
4
4
4
4
4
4
4
4
4
4
4
4
4
4
4
4
4
4
4
4
4
4
4
4
4
4
4
4
4
4
4
4
4
4
4
4
4
4
4
4
4
4
4
4
4
4
4
4
4
4
4
4
4
4
4
4
4
4
4
4
4
4
4
4
4
4
4
4
4
4
4
4
4
4
4
4
4
4
4
4
4
4
4
4
4
4
4
4
4
4
4
4
4
4
4
4
4
4
4
4
4
4
4
4
4
4
4
4
4
4
4
4
4
4
4
4
4
4
4
4
4
4
4
4
4
4
4
4
4
4
4
4
4
4
4
4
4
4
4
4
4
4
4
4
4
4
4
4
4
4
4
4
4
4
4
4
4
4
4
4
4
4
4
4
4
4
4
4
4
4
4
4
4
4
4
4
4
4
4
4
4
4
4
4
4
4
4
4
4
4
4
4
4
4
4
4
4
4
4
4
4
4
4
4
4
4
4
4
4
4
4
4
4
4
4
4
4
4
4
4
4
4
4
4
4
4
4
4
4
4
4
4
4
4
4
4
4
4
4
4
4
4
4
4
4
4
4
4
4
4
4
4
4
4
4
4
4
4
4
4
4
4
4
4
4
4
4
4
4
4
4
4
4
4
4
4
4
4
4
4
4
4
4
4
4
4
4
4
4
4
4
4
4
4
4
4
4
4
4
4
4
4
4
4
4
4
4
4
4
4
4
4
4
4
4
4
4
4
4
4
4
4
4
4
4
4
4
4
4
4
4
4
4
4
4
4
4
4
4
4
4
4
4
4
4
4
4
4
4
4
4
4
4
4
4
4
4
4
4
4
4
4
4
4
4
4
4
4
4
4
4
4
4
4
4
4
4
4
4
4
4
4
4
4
4
4
4
4
4
4
4
4
4
4
4
4
4
4
4
4
4
4
4
4
4
4
4
4
4
4
4
4
4
4
4
4
4
4
4
4
4
4
4
4
4
4
4
4
4

POINT_DATA 2979
VECTORS PK_force double
0.000000000000000e+00 0.000000000000000e+00 0.000000000000000e+00
0.000000000000000e+00 0.000000000000000e+00 0.000000000000000e+00
0.000000000000000e+00 0.000000000000000e+00 0.000000000000000e+00
0.000000000000000e+00 0.000000000000000e+00 0.000000000000000e+00
0.000000000000000e+00 0.000000000000000e+00 0.000000000000000e+00
0.000000000000000e+00 0.000000000000000e+00 0.000000000000000e+00
0.000000000000000e+00 0.000000000000000e+00 0.000000000000000e+00
0.000000000000000e+00 0.000000000000000e+00 0.000000000000000e+00
0.000000000000000e+00 0.000000000000000e+00 0.000000000000000e+00
0.000000000000000e+00 0.000000000000000e+00 0.000000000000000e+00
0.000000000000000e+00 0.000000000000000e+00 0.000000000000000e+00
0.000000000000000e+00 0.000000000000000e+00 0.000000000000000e+00
0.000000000000000e+00 0.000000000000000e+00 0.000000000000000e+00
0.000000000000000e+00 0.000000000000000e+00 0.000000000000000e+00
0.000000000000000e+00 0.000000000000000e+00 0.000000000000000e+00
0.000000000000000e+00 0.000000000000000e+00 0.000000000000000e+00
0.000000000000000e+00 0.000000000000000e+00 0.000000000000000e+00
0.000000000000000e+00 0.000000000000000e+00 0.000000000000000e+00
0.000000000000000e+00 0.000000000000000e+00 0.000000000000000e+00
0.000000000000000e+00 0.000000000000000e+00 0.000000000000000e+00
0.000000000000000e+00 0.000000000000000e+00 0.000000000000000e+00
0.000000000000000e+00 0.000000000000000e+00 0.000000000000000e+00
0.000000000000000e+00 0.000000000000000e+00 0.000000000000000e+00
0.000000000000000e+00 0.000000000000000e+00 0.000000000000000e+00
0.000000000000000e+00 0.000000000000000e+00 0.000000000000000e+00
0.000000000000000e+00 0.000000000000000e+00 0.000000000000000e+00
0.000000000000000e+00 0.000000000000000e+00 0.000000000000000e+00
0.000000000000000e+00 0.000000000000000e+00 0.000000000000000e+00
0.000000000000000e+00 0.000000000000000e+00 0.000000000000000e+00
0.000000000000000e+00 0.000000000000000e+00 0.000000000000000e+00
0.000000000000000e+00 0.000000000000000e+00 0.000000000000000e+00
0.000000000000000e+00 0.000000000000000e+00 0.000000000000000e+00
0.000000000000000e+00 0.000000000000000e+00 0.000000000000000e+00
0.000000000000000e+00 0.000000000000000e+00 0.000000000000000e+00
0.000000000000000e+00 0.000000000000000e+00 0.000000000000000e+00
0.000000000000000e+00 0.000000000000000e+00 0.000000000000000e+00
0.000000000000000e+00 0.000000000000000e+00 0.000000000000000e+00
0.000000000000000e+00 0.000000000000000e+00 0.000000000000000e+00
0.000000000000000e+00 0.000000000000000e+00 0.000000000000000e+00
0.000000000000000e+00 0.000000000000000e+00 0.000000000000000e+00
0.000000000000000e+00 0.000000000000000e+00 0.000000000000000e+00
0.000000000000000e+00 0.000000000000000e+00 0.000000000000000e+00
0.000000000000000e+00 0.000000000000000e+00 0.000000000000000e+00
0.000000000000000e+00 0.000000000000000e+00 0.000000000000000e+00
0.000000000000000e+00 0.000000000000000e+00 0.000000000000000e+00
0.000000000000000e+00 0.000000000000000e+00 0.000000000000000e+00
0.000000000000000e+00 0.000000000000000e+00 0.000000000000000e+00
0.000000000000000e+00 0.000000000000000e+00 0.000000000000000e+00
0.000000000000000e+00 0.000000000000000e+00 0.000000000000000e+00
0.000000000000000e+00 0.000000000000000e+00 0.000000000000000e+00
0.000000000000000e+00 0.000000000000000e+00 0.000000000000000e+00
0.000000000000000e+00 0.000000000000000e+00 0.000000000000000e+00
0.000000000000000e+00 0.000000000000000e+00 0.000000000000000e+00
0.000000000000000e+00 0.000000000000000e+00 0.000000000000000e+00
0.000000000000000e+00 0.000000000000000e+00 0.000000000000000e+00
0.000000000000000e+00 0.000000000000000e+00 0.000000000000000e+00
0.000000000000000e+00 0.000000000000000e+00 0.000000000000000e+00
0.000000000000000e+00 0.000000000000000e+00 0.000000000000000e+00
0.000000000000000e+00 0.000000000000000e+00 0.000000000000000e+00
0.000000000000000e+00 0.000000000000000e+00 0.000000000000000e+00
0.000000000000000e+00 0.000000000000000e+00 0.000000000000000e+00
0.000000000000000e+00 0.000000000000000e+00 0.000000000000000e+00
0.000000000000000e+00 0.000000000000000e+00 0.000000000000000e+00
0.000000000000000e+00 0.000000000000000e+00 0.000000000000000e+00
0.000000000000000e+00 0.000000000000000e+00 0.000000000000000e+00
0.000000000000000e+00 0.000000000000000e+00 0.000000000000000e+00
0.000000000000000e+00 0.000000000000000e+00 0.000000000000000e+00
0.000000000000000e+00 0.000000000000000e+00 0.000000000000000e+00
0.000000000000000e+00 0.000000000000000e+00 0.000000000000000e+00
0.000000000000000e+00 0.000000000000000e+00 0.000000000000000e+00
0.000000000000000e+00 0.000000000000000e+00 0.000000000000000e+00
0.000000000000000e+00 0.000000000000000e+00 0.000000000000000e+00
0.000000000000000e+00 0.000000000000000e+00 0.000000000000000e+00
0.000000000000000e+00 0.000000000000000e+00 0.000000000000000e+00
0.000000000000000e+00 0.000000000000000e+00 0.000000000000000e+00
0.000000000000000e+00 0.000000000000000e+00 0.000000000000000e+00
0.000000000000000e+00 0.000000000000000e+00 0.000000000000000e+00
0.000000000000000e+00 0.000000000000000e+00 0.000000000000000e+00
0.000000000000000e+00 0.000000000000000e+00 0.000000000000000e+00
0.000000000000000e+00 0.000000000000000e+00 0.000000000000000e+00
0.000000000000000e+00 0.000000000000000e+00 0.000000000000000e+00
0.000000000000000e+00 0.000000000000000e+00 0.000000000000000e+00
0.000000000000000e+00 0.000000000000000e+00 0.000000000000000e+00
0.000000000000000e+00 0.000000000000000e+00 0.000000000000000e+00
0.000000000000000e+00 0.000000000000000e+00 0.000000000000000e+00
0.000000000000000e+00 0.000000000000000e+00 0.000000000000000e+00
0.000000000000000e+00 0.000000000000000e+00 0.000000000000000e+00
0.000000000000000e+00 0.000000000000000e+00 0.000000000000000e+00
0.000000000000000e+00 0.000000000000000e+00 0.000000000000000e+00
0.000000000000000e+00 0.000000000000000e+00 0.000000000000000e+00
0.000000000000000e+00 0.000000000000000e+00 0.000000000000000e+00
0.000000000000000e+00 0.000000000000000e+00 0.000000000000000e+00
0.000000000000000e+00 0.000000000000000e+00 0.000000000000000e+00
0.000000000000000e+00 0.000000000000000e+00 0.000000000000000e+00
0.000000000000000e+00 0.000000000000000e+00 0.000000000000000e+00
0.000000000000000e+00 0.000000000000000e+00 0.000000000000000e+00
0.000000000000000e+00 0.000000000000000e+00 0.000000000000000e+00
0.000000000000000e+00 0.000000000000000e+00 0.000000000000000e+00
0.000000000000000e+00 0.000000000000000e+00 0.000000000000000e+00
0.000000000000000e+00 0.000000000000000e+00 0.000000000000000e+00
0.000000000000000e+00 0.000000000000000e+00 0.000000000000000e+00
0.000000000000000e+00 0.000000000000000e+00 0.000000000000000e+00
0.000000000000000e+00 0.000000000000000e+00 0.000000000000000e+00
0.000000000000000e+00 0.000000000000000e+00 0.000000000000000e+00
0.000000000000000e+00 0.000000000000000e+00 0.000000000000000e+00
0.000000000000000e+00 0.000000000000000e+00 0.000000000000000e+00
0.000000000000000e+00 0.000000000000000e+00 0.000000000000000e+00
0.000000000000000e+00 0.000000000000000e+00 0.000000000000000e+00
0.000000000000000e+00 0.000000000000000e+00 0.000000000000000e+00
0.000000000000000e+00 0.000000000000000e+00 0.000000000000000e+00
0.000000000000000e+00 0.000000000000000e+00 0.000000000000000e+00
0.000000000000000e+00 0.000000000000000e+00 0.000000000000000e+00
0.000000000000000e+00 0.000000000000000e+00 0.000000000000000e+00
0.000000000000000e+00 0.000000000000000e+00 0.000000000000000e+00
0.000000000000000e+00 0.000000000000000e+00 0.000000000000000e+00
0.000000000000000e+00 0.000000000000000e+00 0.000000000000000e+00
0.000000000000000e+00 0.000000000000000e+00 0.000000000000000e+00
0.000000000000000e+00 0.000000000000000e+00 0.000000000000000e+00
0.000000000000000e+00 0.000000000000000e+00 0.000000000000000e+00
0.000000000000000e+00 0.000000000000000e+00 0.000000000000000e+00
0.000000000000000e+00 0.000000000000000e+00 0.000000000000000e+00
0.000000000000000e+00 0.000000000000000e+00 0.000000000000000e+00
0.000000000000000e+00 0.000000000000000e+00 0.000000000000000e+00
0.000000000000000e+00 0.000000000000000e+00 0.000000000000000e+00
0.000000000000000e+00 0.000000000000000e+00 0.000000000000000e+00
0.000000000000000e+00 0.000000000000000e+00 0.000000000000000e+00
0.000000000000000e+00 0.000000000000000e+00 0.000000000000000e+00
0.000000000000000e+00 0.000000000000000e+00 0.000000000000000e+00
0.000000000000000e+00 0.000000000000000e+00 0.000000000000000e+00
0.000000000000000e+00 0.000000000000000e+00 0.000000000000000e+00
0.000000000000000e+00 0.000000000000000e+00 0.000000000000000e+00
0.000000000000000e+00 0.000000000000000e+00 0.000000000000000e+00
0.000000000000000e+00 0.000000000000000e+00 0.000000000000000e+00
0.000000000000000e+00 0.000000000000000e+00 0.000000000000000e+00
0.000000000000000e+00 0.000000000000000e+00 0.000000000000000e+00
0.000000000000000e+00 0.000000000000000e+00 0.000000000000000e+00
0.000000000000000e+00 0.000000000000000e+00 0.000000000000000e+00
0.000000000000000e+00 0.000000000000000e+00 0.000000000000000e+00
0.000000000000000e+00 0.000000000000000e+00 0.000000000000000e+00
0.000000000000000e+00 0.000000000000000e+00 0.000000000000000e+00
0.000000000000000e+00 0.000000000000000e+00 0.000000000000000e+00
0.000000000000000e+00 0.000000000000000e+00 0.000000000000000e+00
0.000000000000000e+00 0.000000000000000e+00 0.000000000000000e+00
0.000000000000000e+00 0.000000000000000e+00 0.000000000000000e+00
0.000000000000000e+00 0.000000000000000e+00 0.000000000000000e+00
0.000000000000000e+00 0.000000000000000e+00 0.000000000000000e+00
0.000000000000000e+00 0.000000000000000e+00 0.000000000000000e+00
0.000000000000000e+00 0.000000000000000e+00 0.000000000000000e+00
0.000000000000000e+00 0.000000000000000e+00 0.000000000000000e+00
0.000000000000000e+00 0.000000000000000e+00 0.000000000000000e+00
0.000000000000000e+00 0.000000000000000e+00 0.000000000000000e+00
0.000000000000000e+00 0.000000000000000e+00 0.000000000000000e+00
0.000000000000000e+00 0.000000000000000e+00 0.000000000000000e+00
0.000000000000000e+00 0.000000000000000e+00 0.000000000000000e+00
0.000000000000000e+00 0.000000000000000e+00 0.000000000000000e+00
0.000000000000000e+00 0.000000000000000e+00 0.000000000000000e+00
0.000000000000000e+00 0.000000000000000e+00 0.000000000000000e+00
0.000000000000000e+00 0.000000000000000e+00 0.000000000000000e+00
0.000000000000000e+00 0.000000000000000e+00 0.000000000000000e+00
0.000000000000000e+00 0.000000000000000e+00 0.000000000000000e+00
0.000000000000000e+00 0.000000000000000e+00 0.000000000000000e+00
0.000000000000000e+00 0.000000000000000e+00 0.000000000000000e+00
0.000000000000000e+00 0.000000000000000e+00 0.000000000000000e+00
0.000000000000000e+00 0.000000000000000e+00 0.000000000000000e+00
0.000000000000000e+00 0.000000000000000e+00 0.000000000000000e+00
0.000000000000000e+00 0.000000000000000e+00 0.000000000000000e+00
0.000000000000000e+00 0.000000000000000e+00 0.000000000000000e+00
0.000000000000000e+00 0.000000000000000e+00 0.000000000000000e+00
0.000000000000000e+00 0.000000000000000e+00 0.000000000000000e+00
0.000000000000000e+00 0.000000000000000e+00 0.000000000000000e+00
0.000000000000000e+00 0.000000000000000e+00 0.000000000000000e+00
0.000000000000000e+00 0.000000000000000e+00 0.000000000000000e+00
0.000000000000000e+00 0.000000000000000e+00 0.000000000000000e+00
0.000000000000000e+00 0.000000000000000e+00 0.000000000000000e+00
0.000000000000000e+00 0.000000000000000e+00 0.000000000000000e+00
0.000000000000000e+00 0.000000000000000e+00 0.000000000000000e+00
0.000000000000000e+00 0.000000000000000e+00 0.000000000000000e+00
0.000000000000000e+00 0.000000000000000e+00 0.000000000000000e+00
0.000000000000000e+00 0.000000000000000e+00 0.000000000000000e+00
0.000000000000000e+00 0.000000000000000e+00 0.000000000000000e+00
0.000000000000000e+00 0.000000000000000e+00 0.000000000000000e+00
0.000000000000000e+00 0.000000000000000e+00 0.000000000000000e+00
0.000000000000000e+00 0.000000000000000e+00 0.000000000000000e+00
0.000000000000000e+00 0.000000000000000e+00 0.000000000000000e+00
0.000000000000000e+00 0.000000000000000e+00 0.000000000000000e+00
0.000000000000000e+00 0.000000000000000e+00 0.000000000000000e+00
0.000000000000000e+00 0.000000000000000e+00 0.000000000000000e+00
0.000000000000000e+00 0.000000000000000e+00 0.000000000000000e+00
0.000000000000000e+00 0.000000000000000e+00 0.000000000000000e+00
0.000000000000000e+00 0.000000000000000e+00 0.000000000000000e+00
0.000000000000000e+00 0.000000000000000e+00 0.000000000000000e+00
0.000000000000000e+00 0.000000000000000e+00 0.000000000000000e+00
0.000000000000000e+00 0.000000000000000e+00 0.000000000000000e+00
0.000000000000000e+00 0.000000000000000e+00 0.000000000000000e+00
0.000000000000000e+00 0.000000000000000e+00 0.000000000000000e+00
0.000000000000000e+00 0.000000000000000e+00 0.000000000000000e+00
0.000000000000000e+00 0.000000000000000e+00 0.000000000000000e+00
0.000000000000000e+00 0.000000000000000e+00 0.000000000000000e+00
0.000000000000000e+00 0.000000000000000e+00 0.000000000000000e+00
0.000000000000000e+00 0.000000000000000e+00 0.000000000000000e+00
0.000000000000000e+00 0.000000000000000e+00 0.000000000000000e+00
0.000000000000000e+00 0.000000000000000e+00 0.000000000000000e+00
0.000000000000000e+00 0.000000000000000e+00 0.000000000000000e+00
0.000000000000000e+00 0.000000000000000e+00 0.000000000000000e+00
0.000000000000000e+00 0.000000000000000e+00 0.000000000000000e+00
0.000000000000000e+00 0.000000000000000e+00 0.000000000000000e+00
0.000000000000000e+00 0.000000000000000e+00 0.000000000000000e+00
0.000000000000000e+00 0.000000000000000e+00 0.000000000000000e+00
0.000000000000000e+00 0.000000000000000e+00 0.000000000000000e+00
0.000000000000000e+00 0.000000000000000e+00 0.000000000000000e+00
0.000000000000000e+00 0.000000000000000e+00 0.000000000000000e+00
0.000000000000000e+00 0.000000000000000e+00 0.000000000000000e+00
0.000000000000000e+00 0.000000000000000e+00 0.000000000000000e+00
0.000000000000000e+00 0.000000000000000e+00 0.000000000000000e+00
0.000000000000000e+00 0.000000000000000e+00 0.000000000000000e+00
0.000000000000000e+00 0.000000000000000e+00 0.000000000000000e+00
0.000000000000000e+00 0.000000000000000e+00 0.000000000000000e+00
0.000000000000000e+00 0.000000000000000e+00 0.000000000000000e+00
0.000000000000000e+00 0.000000000000000e+00 0.000000000000000e+00
0.000000000000000e+00 0.000000000000000e+00 0.000000000000000e+00
0.000000000000000e+00 0.000000000000000e+00 0.000000000000000e+00
0.000000000000000e+00 0.000000000000000e+00 0.000000000000000e+00
0.000000000000000e+00 0.000000000000000e+00 0.000000000000000e+00
0.000000000000000e+00 0.000000000000000e+00 0.000000000000000e+00
0.000000000000000e+00 0.000000000000000e+00 0.000000000000000e+00
0.000000000000000e+00 0.000000000000000e+00 0.000000000000000e+00
0.000000000000000e+00 0.000000000000000e+00 0.000000000000000e+00
0.000000000000000e+00 0.000000000000000e+00 0.000000000000000e+00
0.000000000000000e+00 0.000000000000000e+00 0.000000000000000e+00
0.000000000000000e+00 0.000000000000000e+00 0.000000000000000e+00
0.000000000000000e+00 0.000000000000000e+00 0.000000000000000e+00
0.000000000000000e+00 0.000000000000000e+00 0.000000000000000e+00
0.000000000000000e+00 0.000000000000000e+00 0.000000000000000e+00
0.000000000000000e+00 0.000000000000000e+00 0.000000000000000e+00
0.000000000000000e+00 0.000000000000000e+00 0.000000000000000e+00
0.000000000000000e+00 0.000000000000000e+00 0.000000000000000e+00
0.000000000000000e+00 0.000000000000000e+00 0.000000000000000e+00
0.000000000000000e+00 0.000000000000000e+00 0.000000000000000e+00
0.000000000000000e+00 0.000000000000000e+00 0.000000000000000e+00
0.000000000000000e+00 0.000000000000000e+00 0.000000000000000e+00
0.000000000000000e+00 0.000000000000000e+00 0.000000000000000e+00
0.000000000000000e+00 0.000000000000000e+00 0.000000000000000e+00
0.000000000000000e+00 0.000000000000000e+00 0.000000000000000e+00
0.000000000000000e+00 0.000000000000000e+00 0.000000000000000e+00
0.000000000000000e+00 0.000000000000000e+00 0.000000000000000e+00
0.000000000000000e+00 0.000000000000000e+00 0.000000000000000e+00
0.000000000000000e+00 0.000000000000000e+00 0.000000000000000e+00
0.000000000000000e+00 0.000000000000000e+00 0.000000000000000e+00
0.000000000000000e+00 0.000000000000000e+00 0.000000000000000e+00
0.000000000000000e+00 0.000000000000000e+00 0.000000000000000e+00
0.000000000000000e+00 0.000000000000000e+00 0.000000000000000e+00
0.000000000000000e+00 0.000000000000000e+00 0.000000000000000e+00
0.000000000000000e+00 0.000000000000000e+00 0.000000000000000e+00
0.000000000000000e+00 0.000000000000000e+00 0.000000000000000e+00
0.000000000000000e+00 0.000000000000000e+00 0.000000000000000e+00
0.000000000000000e+00 0.000000000000000e+00 0.000000000000000e+00
0.000000000000000e+00 0.000000000000000e+00 0.000000000000000e+00
0.000000000000000e+00 0.000000000000000e+00 0.000000000000000e+00
0.000000000000000e+00 0.000000000000000e+00 0.000000000000000e+00
0.000000000000000e+00 0.000000000000000e+00 0.000000000000000e+00
0.000000000000000e+00 0.000000000000000e+00 0.000000000000000e+00
0.000000000000000e+00 0.000000000000000e+00 0.000000000000000e+00
0.000000000000000e+00 0.000000000000000e+00 0.000000000000000e+00
0.000000000000000e+00 0.000000000000000e+00 0.000000000000000e+00
0.000000000000000e+00 0.000000000000000e+00 0.000000000000000e+00
0.000000000000000e+00 0.000000000000000e+00 0.000000000000000e+00
0.000000000000000e+00 0.000000000000000e+00 0.000000000000000e+00
0.000000000000000e+00 0.000000000000000e+00 0.000000000000000e+00
0.000000000000000e+00 0.000000000000000e+00 0.000000000000000e+00
0.000000000000000e+00 0.000000000000000e+00 0.000000000000000e+00
0.000000000000000e+00 0.000000000000000e+00 0.000000000000000e+00
0.000000000000000e+00 0.000000000000000e+00 0.000000000000000e+00
0.000000000000000e+00 0.000000000000000e+00 0.000000000000000e+00
0.000000000000000e+00 0.000000000000000e+00 0.000000000000000e+00
0.000000000000000e+00 0.000000000000000e+00 0.000000000000000e+00
0.000000000000000e+00 0.000000000000000e+00 0.000000000000000e+00
0.000000000000000e+00 0.000000000000000e+00 0.000000000000000e+00
0.000000000000000e+00 0.000000000000000e+00 0.000000000000000e+00
0.000000000000000e+00 0.000000000000000e+00 0.000000000000000e+00
0.000000000000000e+00 0.000000000000000e+00 0.000000000000000e+00
0.000000000000000e+00 0.000000000000000e+00 0.000000000000000e+00
0.000000000000000e+00 0.000000000000000e+00 0.000000000000000e+00
0.000000000000000e+00 0.000000000000000e+00 0.000000000000000e+00
0.000000000000000e+00 0.000000000000000e+00 0.000000000000000e+00
0.000000000000000e+00 0.000000000000000e+00 0.000000000000000e+00
0.000000000000000e+00 0.000000000000000e+00 0.000000000000000e+00
0.000000000000000e+00 0.000000000000000e+00 0.000000000000000e+00
0.000000000000000e+00 0.000000000000000e+00 0.000000000000000e+00
0.000000000000000e+00 0.000000000000000e+00 0.000000000000000e+00
0.000000000000000e+00 0.000000000000000e+00 0.000000000000000e+00
0.000000000000000e+00 0.000000000000000e+00 0.000000000000000e+00
0.000000000000000e+00 0.000000000000000e+00 0.000000000000000e+00
0.000000000000000e+00 0.000000000000000e+00 0.000000000000000e+00
0.000000000000000e+00 0.000000000000000e+00 0.000000000000000e+00
0.000000000000000e+00 0.000000000000000e+00 0.000000000000000e+00
0.000000000000000e+00 0.000000000000000e+00 0.000000000000000e+00
0.000000000000000e+00 0.000000000000000e+00 0.000000000000000e+00
0.000000000000000e+00 0.000000000000000e+00 0.000000000000000e+00
0.000000000000000e+00 0.000000000000000e+00 0.000000000000000e+00
0.000000000000000e+00 0.000000000000000e+00 0.000000000000000e+00
0.000000000000000e+00 0.000000000000000e+00 0.000000000000000e+00
0.000000000000000e+00 0.000000000000000e+00 0.000000000000000e+00
0.000000000000000e+00 0.000000000000000e+00 0.000000000000000e+00
0.000000000000000e+00 0.000000000000000e+00 0.000000000000000e+00
0.000000000000000e+00 0.000000000000000e+00 0.000000000000000e+00
0.000000000000000e+00 0.000000000000000e+00 0.000000000000000e+00
0.000000000000000e+00 0.000000000000000e+00 0.000000000000000e+00
0.000000000000000e+00 0.000000000000000e+00 0.000000000000000e+00
0.000000000000000e+00 0.000000000000000e+00 0.000000000000000e+00
0.000000000000000e+00 0.000000000000000e+00 0.000000000000000e+00
0.000000000000000e+00 0.000000000000000e+00 0.000000000000000e+00
0.000000000000000e+00 0.000000000000000e+00 0.000000000000000e+00
0.000000000000000e+00 0.000000000000000e+00 0.000000000000000e+00
0.000000000000000e+00 0.000000000000000e+00 0.000000000000000e+00
0.000000000000000e+00 0.000000000000000e+00 0.000000000000000e+00
0.000000000000000e+00 0.000000000000000e+00 0.000000000000000e+00
0.000000000000000e+00 0.000000000000000e+00 0.000000000000000e+00
0.000000000000000e+00 0.000000000000000e+00 0.000000000000000e+00
0.000000000000000e+00 0.000000000000000e+00 0.000000000000000e+00
0.000000000000000e+00 0.000000000000000e+00 0.000000000000000e+00
0.000000000000000e+00 0.000000000000000e+00 0.000000000000000e+00
0.000000000000000e+00 0.000000000000000e+00 0.000000000000000e+00
0.000000000000000e+00 0.000000000000000e+00 0.000000000000000e+00
0.000000000000000e+00 0.000000000000000e+00 0.000000000000000e+00
0.000000000000000e+00 0.000000000000000e+00 0.000000000000000e+00
0.000000000000000e+00 0.000000000000000e+00 0.000000000000000e+00
0.000000000000000e+00 0.000000000000000e+00 0.000000000000000e+00
0.000000000000000e+00 0.000000000000000e+00 0.000000000000000e+00
0.000000000000000e+00 0.000000000000000e+00 0.000000000000000e+00
0.000000000000000e+00 0.000000000000000e+00 0.000000000000000e+00
0.000000000000000e+00 0.000000000000000e+00 0.000000000000000e+00
0.000000000000000e+00 0.000000000000000e+00 0.000000000000000e+00
0.000000000000000e+00 0.000000000000000e+00 0.000000000000000e+00
0.000000000000000e+00 0.000000000000000e+00 0.000000000000000e+00
0.000000000000000e+00 0.000000000000000e+00 0.000000000000000e+00
0.000000000000000e+00 0.000000000000000e+00 0.000000000000000e+00
0.000000000000000e+00 0.000000000000000e+00 0.000000000000000e+00
0.000000000000000e+00 0.000000000000000e+00 0.000000000000000e+00
0.000000000000000e+00 0.000000000000000e+00 0.000000000000000e+00
0.000000000000000e+00 0.000000000000000e+00 0.000000000000000e+00
0.000000000000000e+00 0.000000000000000e+00 0.000000000000000e+00
0.000000000000000e+00 0.000000000000000e+00 0.000000000000000e+00
0.000000000000000e+00 0.000000000000000e+00 0.000000000000000e+00
0.000000000000000e+00 0.000000000000000e+00 0.000000000000000e+00
0.000000000000000e+00 0.000000000000000e+00 0.000000000000000e+00
0.000000000000000e+00 0.000000000000000e+00 0.000000000000000e+00
0.000000000000000e+00 0.000000000000000e+00 0.000000000000000e+00
0.000000000000000e+00 0.000000000000000e+00 0.000000000000000e+00
0.000000000000000e+00 0.000000000000000e+00 0.000000000000000e+00
0.000000000000000e+00 0.000000000000000e+00 0.000000000000000e+00
0.000000000000000e+00 0.000000000000000e+00 0.000000000000000e+00
0.000000000000000e+00 0.000000000000000e+00 0.000000000000000e+00
0.000000000000000e+00 0.000000000000000e+00 0.000000000000000e+00
0.000000000000000e+00 0.000000000000000e+00 0.000000000000000e+00
0.000000000000000e+00 0.000000000000000e+00 0.000000000000000e+00
0.000000000000000e+00 0.000000000000000e+00 0.000000000000000e+00
0.000000000000000e+00 0.000000000000000e+00 0.000000000000000e+00
0.000000000000000e+00 0.000000000000000e+00 0.000000000000000e+00
0.000000000000000e+00 0.000000000000000e+00 0.000000000000000e+00
0.000000000000000e+00 0.000000000000000e+00 0.000000000000000e+00
0.000000000000000e+00 0.000000000000000e+00 0.000000000000000e+00
0.000000000000000e+00 0.000000000000000e+00 0.000000000000000e+00
0.000000000000000e+00 0.000000000000000e+00 0.000000000000000e+00
0.000000000000000e+00 0.000000000000000e+00 0.000000000000000e+00
0.000000000000000e+00 0.000000000000000e+00 0.000000000000000e+00
0.000000000000000e+00 0.000000000000000e+00 0.000000000000000e+00
0.000000000000000e+00 0.000000000000000e+00 0.000000000000000e+00
0.000000000000000e+00 0.000000000000000e+00 0.000000000000000e+00
0.000000000000000e+00 0.000000000000000e+00 0.000000000000000e+00
0.000000000000000e+00 0.000000000000000e+00 0.000000000000000e+00
0.000000000000000e+00 0.000000000000000e+00 0.000000000000000e+00
0.000000000000000e+00 0.000000000000000e+00 0.000000000000000e+00
0.000000000000000e+00 0.000000000000000e+00 0.000000000000000e+00
0.000000000000000e+00 0.000000000000000e+00 0.000000000000000e+00
0.000000000000000e+00 0.000000000000000e+00 0.000000000000000e+00
0.000000000000000e+00 0.000000000000000e+00 0.000000000000000e+00
0.000000000000000e+00 0.000000000000000e+00 0.000000000000000e+00
0.000000000000000e+00 0.000000000000000e+00 0.000000000000000e+00
0.000000000000000e+00 0.000000000000000e+00 0.000000000000000e+00
0.000000000000000e+00 0.000000000000000e+00 0.000000000000000e+00
0.000000000000000e+00 0.000000000000000e+00 0.000000000000000e+00
0.000000000000000e+00 0.000000000000000e+00 0.000000000000000e+00
0.000000000000000e+00 0.000000000000000e+00 0.000000000000000e+00
0.000000000000000e+00 0.000000000000000e+00 0.000000000000000e+00
0.000000000000000e+00 0.000000000000000e+00 0.000000000000000e+00
0.000000000000000e+00 0.000000000000000e+00 0.000000000000000e+00
0.000000000000000e+00 0.000000000000000e+00 0.000000000000000e+00
0.000000000000000e+00 0.000000000000000e+00 0.000000000000000e+00
0.000000000000000e+00 0.000000000000000e+00 0.000000000000000e+00
0.000000000000000e+00 0.000000000000000e+00 0.000000000000000e+00
0.000000000000000e+00 0.000000000000000e+00 0.000000000000000e+00
0.000000000000000e+00 0.000000000000000e+00 0.000000000000000e+00
0.000000000000000e+00 0.000000000000000e+00 0.000000000000000e+00
0.000000000000000e+00 0.000000000000000e+00 0.000000000000000e+00
0.000000000000000e+00 0.000000000000000e+00 0.000000000000000e+00
0.000000000000000e+00 0.000000000000000e+00 0.000000000000000e+00
0.000000000000000e+00 0.000000000000000e+00 0.000000000000000e+00
0.000000000000000e+00 0.000000000000000e+00 0.000000000000000e+00
0.000000000000000e+00 0.000000000000000e+00 0.000000000000000e+00
0.000000000000000e+00 0.000000000000000e+00 0.000000000000000e+00
0.000000000000000e+00 0.000000000000000e+00 0.000000000000000e+00
0.000000000000000e+00 0.000000000000000e+00 0.000000000000000e+00
0.000000000000000e+00 0.000000000000000e+00 0.000000000000000e+00
0.000000000000000e+00 0.000000000000000e+00 0.000000000000000e+00
0.000000000000000e+00 0.000000000000000e+00 0.000000000000000e+00
0.000000000000000e+00 0.000000000000000e+00 0.000000000000000e+00
0.000000000000000e+00 0.000000000000000e+00 0.000000000000000e+00
0.000000000000000e+00 0.000000000000000e+00 0.000000000000000e+00
0.000000000000000e+00 0.000000000000000e+00 0.000000000000000e+00
0.000000000000000e+00 0.000000000000000e+00 0.000000000000000e+00
0.000000000000000e+00 0.000000000000000e+00 0.000000000000000e+00
0.000000000000000e+00 0.000000000000000e+00 0.000000000000000e+00
0.000000000000000e+00 0.000000000000000e+00 0.000000000000000e+00
0.000000000000000e+00 0.000000000000000e+00 0.000000000000000e+00
0.000000000000000e+00 0.000000000000000e+00 0.000000000000000e+00
0.000000000000000e+00 0.000000000000000e+00 0.000000000000000e+00
0.000000000000000e+00 0.000000000000000e+00 0.000000000000000e+00
0.000000000000000e+00 0.000000000000000e+00 0.000000000000000e+00
0.000000000000000e+00 0.000000000000000e+00 0.000000000000000e+00
0.000000000000000e+00 0.000000000000000e+00 0.000000000000000e+00
0.000000000000000e+00 0.000000000000000e+00 0.000000000000000e+00
0.000000000000000e+00 0.000000000000000e+00 0.000000000000000e+00
0.000000000000000e+00 0.000000000000000e+00 0.000000000000000e+00
0.000000000000000e+00 0.000000000000000e+00 0.000000000000000e+00
0.000000000000000e+00 0.000000000000000e+00 0.000000000000000e+00
0.000000000000000e+00 0.000000000000000e+00 0.000000000000000e+00
0.000000000000000e+00 0.000000000000000e+00 0.000000000000000e+00
0.000000000000000e+00 0.000000000000000e+00 0.000000000000000e+00
0.000000000000000e+00 0.000000000000000e+00 0.000000000000000e+00
0.000000000000000e+00 0.000000000000000e+00 0.000000000000000e+00
0.000000000000000e+00 0.000000000000000e+00 0.000000000000000e+00
0.000000000000000e+00 0.000000000000000e+00 0.000000000000000e+00
0.000000000000000e+00 0.000000000000000e+00 0.000000000000000e+00
0.000000000000000e+00 0.000000000000000e+00 0.000000000000000e+00
0.000000000000000e+00 0.000000000000000e+00 0.000000000000000e+00
0.000000000000000e+00 0.000000000000000e+00 0.000000000000000e+00
0.000000000000000e+00 0.000000000000000e+00 0.000000000000000e+00
0.000000000000000e+00 0.000000000000000e+00 0.000000000000000e+00
0.000000000000000e+00 0.000000000000000e+00 0.000000000000000e+00
0.000000000000000e+00 0.000000000000000e+00 0.000000000000000e+00
0.000000000000000e+00 0.000000000000000e+00 0.000000000000000e+00
0.000000000000000e+00 0.000000000000000e+00 0.000000000000000e+00
0.000000000000000e+00 0.000000000000000e+00 0.000000000000000e+00
0.000000000000000e+00 0.000000000000000e+00 0.000000000000000e+00
0.000000000000000e+00 0.000000000000000e+00 0.000000000000000e+00
0.000000000000000e+00 0.000000000000000e+00 0.000000000000000e+00
0.000000000000000e+00 0.000000000000000e+00 0.000000000000000e+00
0.000000000000000e+00 0.000000000000000e+00 0.000000000000000e+00
0.000000000000000e+00 0.000000000000000e+00 0.000000000000000e+00
0.000000000000000e+00 0.000000000000000e+00 0.000000000000000e+00
0.000000000000000e+00 0.000000000000000e+00 0.000000000000000e+00
0.000000000000000e+00 0.000000000000000e+00 0.000000000000000e+00
0.000000000000000e+00 0.000000000000000e+00 0.000000000000000e+00
0.000000000000000e+00 0.000000000000000e+00 0.000000000000000e+00
0.000000000000000e+00 0.000000000000000e+00 0.000000000000000e+00
0.000000000000000e+00 0.000000000000000e+00 0.000000000000000e+00
0.000000000000000e+00 0.000000000000000e+00 0.000000000000000e+00
0.000000000000000e+00 0.000000000000000e+00 0.000000000000000e+00
0.000000000000000e+00 0.000000000000000e+00 0.000000000000000e+00
0.000000000000000e+00 0.000000000000000e+00 0.000000000000000e+00
0.000000000000000e+00 0.000000000000000e+00 0.000000000000000e+00
0.000000000000000e+00 0.000000000000000e+00 0.000000000000000e+00
0.000000000000000e+00 0.000000000000000e+00 0.000000000000000e+00
0.000000000000000e+00 0.000000000000000e+00 0.000000000000000e+00
0.000000000000000e+00 0.000000000000000e+00 0.000000000000000e+00
0.000000000000000e+00 0.000000000000000e+00 0.000000000000000e+00
0.000000000000000e+00 0.000000000000000e+00 0.000000000000000e+00
0.000000000000000e+00 0.000000000000000e+00 0.000000000000000e+00
0.000000000000000e+00 0.000000000000000e+00 0.000000000000000e+00
0.000000000000000e+00 0.000000000000000e+00 0.000000000000000e+00
0.000000000000000e+00 0.000000000000000e+00 0.000000000000000e+00
0.000000000000000e+00 0.000000000000000e+00 0.000000000000000e+00
0.000000000000000e+00 0.000000000000000e+00 0.000000000000000e+00
0.000000000000000e+00 0.000000000000000e+00 0.000000000000000e+00
0.000000000000000e+00 0.000000000000000e+00 0.000000000000000e+00
0.000000000000000e+00 0.000000000000000e+00 0.000000000000000e+00
0.000000000000000e+00 0.000000000000000e+00 0.000000000000000e+00
0.000000000000000e+00 0.000000000000000e+00 0.000000000000000e+00
0.000000000000000e+00 0.000000000000000e+00 0.000000000000000e+00
0.000000000000000e+00 0.000000000000000e+00 0.000000000000000e+00
0.000000000000000e+00 0.000000000000000e+00 0.000000000000000e+00
0.000000000000000e+00 0.000000000000000e+00 0.000000000000000e+00
0.000000000000000e+00 0.000000000000000e+00 0.000000000000000e+00
0.000000000000000e+00 0.000000000000000e+00 0.000000000000000e+00
0.000000000000000e+00 0.000000000000000e+00 0.000000000000000e+00
0.000000000000000e+00 0.000000000000000e+00 0.000000000000000e+00
0.000000000000000e+00 0.000000000000000e+00 0.000000000000000e+00
0.000000000000000e+00 0.000000000000000e+00 0.000000000000000e+00
0.000000000000000e+00 0.000000000000000e+00 0.000000000000000e+00
0.000000000000000e+00 0.000000000000000e+00 0.000000000000000e+00
0.000000000000000e+00 0.000000000000000e+00 0.000000000000000e+00
0.000000000000000e+00 0.000000000000000e+00 0.000000000000000e+00
0.000000000000000e+00 0.000000000000000e+00 0.000000000000000e+00
0.000000000000000e+00 0.000000000000000e+00 0.000000000000000e+00
0.000000000000000e+00 0.000000000000000e+00 0.000000000000000e+00
0.000000000000000e+00 0.000000000000000e+00 0.000000000000000e+00
0.000000000000000e+00 0.000000000000000e+00 0.000000000000000e+00
0.000000000000000e+00 0.000000000000000e+00 0.000000000000000e+00
0.000000000000000e+00 0.000000000000000e+00 0.000000000000000e+00
0.000000000000000e+00 0.000000000000000e+00 0.000000000000000e+00
0.000000000000000e+00 0.000000000000000e+00 0.000000000000000e+00
0.000000000000000e+00 0.000000000000000e+00 0.000000000000000e+00
0.000000000000000e+00 0.000000000000000e+00 0.000000000000000e+00
0.000000000000000e+00 0.000000000000000e+00 0.000000000000000e+00
0.000000000000000e+00 0.000000000000000e+00 0.000000000000000e+00
0.000000000000000e+00 0.000000000000000e+00 0.000000000000000e+00
0.000000000000000e+00 0.000000000000000e+00 0.000000000000000e+00
0.000000000000000e+00 0.000000000000000e+00 0.000000000000000e+00
0.000000000000000e+00 0.000000000000000e+00 0.000000000000000e+00
0.000000000000000e+00 0.000000000000000e+00 0.000000000000000e+00
0.000000000000000e+00 0.000000000000000e+00 0.000000000000000e+00
0.000000000000000e+00 0.000000000000000e+00 0.000000000000000e+00
0.000000000000000e+00 0.000000000000000e+00 0.000000000000000e+00
0.000000000000000e+00 0.000000000000000e+00 0.000000000000000e+00
0.000000000000000e+00 0.000000000000000e+00 0.000000000000000e+00
0.000000000000000e+00 0.000000000000000e+00 0.000000000000000e+00
0.000000000000000e+00 0.000000000000000e+00 0.000000000000000e+00
0.000000000000000e+00 0.000000000000000e+00 0.000000000000000e+00
0.000000000000000e+00 0.000000000000000e+00 0.000000000000000e+00
0.000000000000000e+00 0.000000000000000e+00 0.000000000000000e+00
0.000000000000000e+00 0.000000000000000e+00 0.000000000000000e+00
0.000000000000000e+00 0.000000000000000e+00 0.000000000000000e+00
0.000000000000000e+00 0.000000000000000e+00 0.000000000000000e+00
0.000000000000000e+00 0.000000000000000e+00 0.000000000000000e+00
0.000000000000000e+00 0.000000000000000e+00 0.000000000000000e+00
0.000000000000000e+00 0.000000000000000e+00 0.000000000000000e+00
0.000000000000000e+00 0.000000000000000e+00 0.000000000000000e+00
0.000000000000000e+00 0.000000000000000e+00 0.000000000000000e+00
0.000000000000000e+00 0.000000000000000e+00 0.000000000000000e+00
0.000000000000000e+00 0.000000000000000e+00 0.000000000000000e+00
0.000000000000000e+00 0.000000000000000e+00 0.000000000000000e+00
0.000000000000000e+00 0.000000000000000e+00 0.000000000000000e+00
0.000000000000000e+00 0.000000000000000e+00 0.000000000000000e+00
0.000000000000000e+00 0.000000000000000e+00 0.000000000000000e+00
0.000000000000000e+00 0.000000000000000e+00 0.000000000000000e+00
0.000000000000000e+00 0.000000000000000e+00 0.000000000000000e+00
0.000000000000000e+00 0.000000000000000e+00 0.000000000000000e+00
0.000000000000000e+00 0.000000000000000e+00 0.000000000000000e+00
0.000000000000000e+00 0.000000000000000e+00 0.000000000000000e+00
0.000000000000000e+00 0.000000000000000e+00 0.000000000000000e+00
0.000000000000000e+00 0.000000000000000e+00 0.000000000000000e+00
0.000000000000000e+00 0.000000000000000e+00 0.000000000000000e+00
0.000000000000000e+00 0.000000000000000e+00 0.000000000000000e+00
0.000000000000000e+00 0.000000000000000e+00 0.000000000000000e+00
0.000000000000000e+00 0.000000000000000e+00 0.000000000000000e+00
0.000000000000000e+00 0.000000000000000e+00 0.000000000000000e+00
0.000000000000000e+00 0.000000000000000e+00 0.000000000000000e+00
0.000000000000000e+00 0.000000000000000e+00 0.000000000000000e+00
0.000000000000000e+00 0.000000000000000e+00 0.000000000000000e+00
0.000000000000000e+00 0.000000000000000e+00 0.000000000000000e+00
0.000000000000000e+00 0.000000000000000e+00 0.000000000000000e+00
0.000000000000000e+00 0.000000000000000e+00 0.000000000000000e+00
0.000000000000000e+00 0.000000000000000e+00 0.000000000000000e+00
0.000000000000000e+00 0.000000000000000e+00 0.000000000000000e+00
0.000000000000000e+00 0.000000000000000e+00 0.000000000000000e+00
0.000000000000000e+00 0.000000000000000e+00 0.000000000000000e+00
0.000000000000000e+00 0.000000000000000e+00 0.000000000000000e+00
0.000000000000000e+00 0.000000000000000e+00 0.000000000000000e+00
0.000000000000000e+00 0.000000000000000e+00 0.000000000000000e+00
0.000000000000000e+00 0.000000000000000e+00 0.000000000000000e+00
0.000000000000000e+00 0.000000000000000e+00 0.000000000000000e+00
0.000000000000000e+00 0.000000000000000e+00 0.000000000000000e+00
0.000000000000000e+00 0.000000000000000e+00 0.000000000000000e+00
0.000000000000000e+00 0.000000000000000e+00 0.000000000000000e+00
0.000000000000000e+00 0.000000000000000e+00 0.000000000000000e+00
0.000000000000000e+00 0.000000000000000e+00 0.000000000000000e+00
0.000000000000000e+00 0.000000000000000e+00 0.000000000000000e+00
0.000000000000000e+00 0.000000000000000e+00 0.000000000000000e+00
0.000000000000000e+00 0.000000000000000e+00 0.000000000000000e+00
0.000000000000000e+00 0.000000000000000e+00 0.000000000000000e+00
0.000000000000000e+00 0.000000000000000e+00 0.000000000000000e+00
0.000000000000000e+00 0.000000000000000e+00 0.000000000000000e+00
0.000000000000000e+00 0.000000000000000e+00 0.000000000000000e+00
0.000000000000000e+00 0.000000000000000e+00 0.000000000000000e+00
0.000000000000000e+00 0.000000000000000e+00 0.000000000000000e+00
0.000000000000000e+00 0.000000000000000e+00 0.000000000000000e+00
0.000000000000000e+00 0.000000000000000e+00 0.000000000000000e+00
0.000000000000000e+00 0.000000000000000e+00 0.000000000000000e+00
0.000000000000000e+00 0.000000000000000e+00 0.000000000000000e+00
0.000000000000000e+00 0.000000000000000e+00 0.000000000000000e+00
0.000000000000000e+00 0.000000000000000e+00 0.000000000000000e+00
0.000000000000000e+00 0.000000000000000e+00 0.000000000000000e+00
0.000000000000000e+00 0.000000000000000e+00 0.000000000000000e+00
0.000000000000000e+00 0.000000000000000e+00 0.000000000000000e+00
0.000000000000000e+00 0.000000000000000e+00 0.000000000000000e+00
0.000000000000000e+00 0.000000000000000e+00 0.000000000000000e+00
0.000000000000000e+00 0.000000000000000e+00 0.000000000000000e+00
0.000000000000000e+00 0.000000000000000e+00 0.000000000000000e+00
0.000000000000000e+00 0.000000000000000e+00 0.000000000000000e+00
0.000000000000000e+00 0.000000000000000e+00 0.000000000000000e+00
0.000000000000000e+00 0.000000000000000e+00 0.000000000000000e+00
0.000000000000000e+00 0.000000000000000e+00 0.000000000000000e+00
0.000000000000000e+00 0.000000000000000e+00 0.000000000000000e+00
0.000000000000000e+00 0.000000000000000e+00 0.000000000000000e+00
0.000000000000000e+00 0.000000000000000e+00 0.000000000000000e+00
0.000000000000000e+00 0.000000000000000e+00 0.000000000000000e+00
0.000000000000000e+00 0.000000000000000e+00 0.000000000000000e+00
0.000000000000000e+00 0.000000000000000e+00 0.000000000000000e+00
0.000000000000000e+00 0.000000000000000e+00 0.000000000000000e+00
0.000000000000000e+00 0.000000000000000e+00 0.000000000000000e+00
0.000000000000000e+00 0.000000000000000e+00 0.000000000000000e+00
0.000000000000000e+00 0.000000000000000e+00 0.000000000000000e+00
0.000000000000000e+00 0.000000000000000e+00 0.000000000000000e+00
0.000000000000000e+00 0.000000000000000e+00 0.000000000000000e+00
0.000000000000000e+00 0.000000000000000e+00 0.000000000000000e+00
0.000000000000000e+00 0.000000000000000e+00 0.000000000000000e+00
0.000000000000000e+00 0.000000000000000e+00 0.000000000000000e+00
0.000000000000000e+00 0.000000000000000e+00 0.000000000000000e+00
0.000000000000000e+00 0.000000000000000e+00 0.000000000000000e+00
0.000000000000000e+00 0.000000000000000e+00 0.000000000000000e+00
0.000000000000000e+00 0.000000000000000e+00 0.000000000000000e+00
0.000000000000000e+00 0.000000000000000e+00 0.000000000000000e+00
0.000000000000000e+00 0.000000000000000e+00 0.000000000000000e+00
0.000000000000000e+00 0.000000000000000e+00 0.000000000000000e+00
0.000000000000000e+00 0.000000000000000e+00 0.000000000000000e+00
0.000000000000000e+00 0.000000000000000e+00 0.000000000000000e+00
0.000000000000000e+00 0.000000000000000e+00 0.000000000000000e+00
0.000000000000000e+00 0.000000000000000e+00 0.000000000000000e+00
0.000000000000000e+00 0.000000000000000e+00 0.000000000000000e+00
0.000000000000000e+00 0.000000000000000e+00 0.000000000000000e+00
0.000000000000000e+00 0.000000000000000e+00 0.000000000000000e+00
0.000000000000000e+00 0.000000000000000e+00 0.000000000000000e+00
0.000000000000000e+00 0.000000000000000e+00 0.000000000000000e+00
0.000000000000000e+00 0.000000000000000e+00 0.000000000000000e+00
0.000000000000000e+00 0.000000000000000e+00 0.000000000000000e+00
0.000000000000000e+00 0.000000000000000e+00 0.000000000000000e+00
0.000000000000000e+00 0.000000000000000e+00 0.000000000000000e+00
0.000000000000000e+00 0.000000000000000e+00 0.000000000000000e+00
0.000000000000000e+00 0.000000000000000e+00 0.000000000000000e+00
0.000000000000000e+00 0.000000000000000e+00 0.000000000000000e+00
0.000000000000000e+00 0.000000000000000e+00 0.000000000000000e+00
0.000000000000000e+00 0.000000000000000e+00 0.000000000000000e+00
0.000000000000000e+00 0.000000000000000e+00 0.000000000000000e+00
0.000000000000000e+00 0.000000000000000e+00 0.000000000000000e+00
0.000000000000000e+00 0.000000000000000e+00 0.000000000000000e+00
0.000000000000000e+00 0.000000000000000e+00 0.000000000000000e+00
0.000000000000000e+00 0.000000000000000e+00 0.000000000000000e+00
0.000000000000000e+00 0.000000000000000e+00 0.000000000000000e+00
0.000000000000000e+00 0.000000000000000e+00 0.000000000000000e+00
0.000000000000000e+00 0.000000000000000e+00 0.000000000000000e+00
0.000000000000000e+00 0.000000000000000e+00 0.000000000000000e+00
0.000000000000000e+00 0.000000000000000e+00 0.000000000000000e+00
0.000000000000000e+00 0.000000000000000e+00 0.000000000000000e+00
0.000000000000000e+00 0.000000000000000e+00 0.000000000000000e+00
0.000000000000000e+00 0.000000000000000e+00 0.000000000000000e+00
0.000000000000000e+00 0.000000000000000e+00 0.000000000000000e+00
0.000000000000000e+00 0.000000000000000e+00 0.000000000000000e+00
0.000000000000000e+00 0.000000000000000e+00 0.000000000000000e+00
0.000000000000000e+00 0.000000000000000e+00 0.000000000000000e+00
0.000000000000000e+00 0.000000000000000e+00 0.000000000000000e+00
0.000000000000000e+00 0.000000000000000e+00 0.000000000000000e+00
0.000000000000000e+00 0.000000000000000e+00 0.000000000000000e+00
0.000000000000000e+00 0.000000000000000e+00 0.000000000000000e+00
0.000000000000000e+00 0.000000000000000e+00 0.000000000000000e+00
0.000000000000000e+00 0.000000000000000e+00 0.000000000000000e+00
0.000000000000000e+00 0.000000000000000e+00 0.000000000000000e+00
0.000000000000000e+00 0.000000000000000e+00 0.000000000000000e+00
0.000000000000000e+00 0.000000000000000e+00 0.000000000000000e+00
0.000000000000000e+00 0.000000000000000e+00 0.000000000000000e+00
0.000000000000000e+00 0.000000000000000e+00 0.000000000000000e+00
0.000000000000000e+00 0.000000000000000e+00 0.000000000000000e+00
0.000000000000000e+00 0.000000000000000e+00 0.000000000000000e+00
0.000000000000000e+00 0.000000000000000e+00 0.000000000000000e+00
0.000000000000000e+00 0.000000000000000e+00 0.000000000000000e+00
0.000000000000000e+00 0.000000000000000e+00 0.000000000000000e+00
0.000000000000000e+00 0.000000000000000e+00 0.000000000000000e+00
0.000000000000000e+00 0.000000000000000e+00 0.000000000000000e+00
0.000000000000000e+00 0.000000000000000e+00 0.000000000000000e+00
0.000000000000000e+00 0.000000000000000e+00 0.000000000000000e+00
0.000000000000000e+00 0.000000000000000e+00 0.000000000000000e+00
0.000000000000000e+00 0.000000000000000e+00 0.000000000000000e+00
0.000000000000000e+00 0.000000000000000e+00 0.000000000000000e+00
0.000000000000000e+00 0.000000000000000e+00 0.000000000000000e+00
0.000000000000000e+00 0.000000000000000e+00 0.000000000000000e+00
0.000000000000000e+00 0.000000000000000e+00 0.000000000000000e+00
0.000000000000000e+00 0.000000000000000e+00 0.000000000000000e+00
0.000000000000000e+00 0.000000000000000e+00 0.000000000000000e+00
0.000000000000000e+00 0.000000000000000e+00 0.000000000000000e+00
0.000000000000000e+00 0.000000000000000e+00 0.000000000000000e+00
0.000000000000000e+00 0.000000000000000e+00 0.000000000000000e+00
0.000000000000000e+00 0.000000000000000e+00 0.000000000000000e+00
0.000000000000000e+00 0.000000000000000e+00 0.000000000000000e+00
0.000000000000000e+00 0.000000000000000e+00 0.000000000000000e+00
0.000000000000000e+00 0.000000000000000e+00 0.000000000000000e+00
0.000000000000000e+00 0.000000000000000e+00 0.000000000000000e+00
0.000000000000000e+00 0.000000000000000e+00 0.000000000000000e+00
0.000000000000000e+00 0.000000000000000e+00 0.000000000000000e+00
0.000000000000000e+00 0.000000000000000e+00 0.000000000000000e+00
0.000000000000000e+00 0.000000000000000e+00 0.000000000000000e+00
0.000000000000000e+00 0.000000000000000e+00 0.000000000000000e+00
0.000000000000000e+00 0.000000000000000e+00 0.000000000000000e+00
0.000000000000000e+00 0.000000000000000e+00 0.000000000000000e+00
0.000000000000000e+00 0.000000000000000e+00 0.000000000000000e+00
0.000000000000000e+00 0.000000000000000e+00 0.000000000000000e+00
0.000000000000000e+00 0.000000000000000e+00 0.000000000000000e+00
0.000000000000000e+00 0.000000000000000e+00 0.000000000000000e+00
0.000000000000000e+00 0.000000000000000e+00 0.000000000000000e+00
0.000000000000000e+00 0.000000000000000e+00 0.000000000000000e+00
0.000000000000000e+00 0.000000000000000e+00 0.000000000000000e+00
0.000000000000000e+00 0.000000000000000e+00 0.000000000000000e+00
0.000000000000000e+00 0.000000000000000e+00 0.000000000000000e+00
0.000000000000000e+00 0.000000000000000e+00 0.000000000000000e+00
0.000000000000000e+00 0.000000000000000e+00 0.000000000000000e+00
0.000000000000000e+00 0.000000000000000e+00 0.000000000000000e+00
0.000000000000000e+00 0.000000000000000e+00 0.000000000000000e+00
0.000000000000000e+00 0.000000000000000e+00 0.000000000000000e+00
0.000000000000000e+00 0.000000000000000e+00 0.000000000000000e+00
0.000000000000000e+00 0.000000000000000e+00 0.000000000000000e+00
0.000000000000000e+00 0.000000000000000e+00 0.000000000000000e+00
0.000000000000000e+00 0.000000000000000e+00 0.000000000000000e+00
0.000000000000000e+00 0.000000000000000e+00 0.000000000000000e+00
0.000000000000000e+00 0.000000000000000e+00 0.000000000000000e+00
0.000000000000000e+00 0.000000000000000e+00 0.000000000000000e+00
0.000000000000000e+00 0.000000000000000e+00 0.000000000000000e+00
0.000000000000000e+00 0.000000000000000e+00 0.000000000000000e+00
0.000000000000000e+00 0.000000000000000e+00 0.000000000000000e+00
0.000000000000000e+00 0.000000000000000e+00 0.000000000000000e+00
0.000000000000000e+00 0.000000000000000e+00 0.000000000000000e+00
0.000000000000000e+00 0.000000000000000e+00 0.000000000000000e+00
0.000000000000000e+00 0.000000000000000e+00 0.000000000000000e+00
0.000000000000000e+00 0.000000000000000e+00 0.000000000000000e+00
0.000000000000000e+00 0.000000000000000e+00 0.000000000000000e+00
0.000000000000000e+00 0.000000000000000e+00 0.000000000000000e+00
0.000000000000000e+00 0.000000000000000e+00 0.000000000000000e+00
0.000000000000000e+00 0.000000000000000e+00 0.000000000000000e+00
0.000000000000000e+00 0.000000000000000e+00 0.000000000000000e+00
0.000000000000000e+00 0.000000000000000e+00 0.000000000000000e+00
0.000000000000000e+00 0.000000000000000e+00 0.000000000000000e+00
0.000000000000000e+00 0.000000000000000e+00 0.000000000000000e+00
0.000000000000000e+00 0.000000000000000e+00 0.000000000000000e+00
0.000000000000000e+00 0.000000000000000e+00 0.000000000000000e+00
0.000000000000000e+00 0.000000000000000e+00 0.000000000000000e+00
0.000000000000000e+00 0.000000000000000e+00 0.000000000000000e+00
0.000000000000000e+00 0.000000000000000e+00 0.000000000000000e+00
0.000000000000000e+00 0.000000000000000e+00 0.000000000000000e+00
0.000000000000000e+00 0.000000000000000e+00 0.000000000000000e+00
0.000000000000000e+00 0.000000000000000e+00 0.000000000000000e+00
0.000000000000000e+00 0.000000000000000e+00 0.000000000000000e+00
0.000000000000000e+00 0.000000000000000e+00 0.000000000000000e+00
0.000000000000000e+00 0.000000000000000e+00 0.000000000000000e+00
0.000000000000000e+00 0.000000000000000e+00 0.000000000000000e+00
0.000000000000000e+00 0.000000000000000e+00 0.000000000000000e+00
0.000000000000000e+00 0.000000000000000e+00 0.000000000000000e+00
0.000000000000000e+00 0.000000000000000e+00 0.000000000000000e+00
0.000000000000000e+00 0.000000000000000e+00 0.000000000000000e+00
0.000000000000000e+00 0.000000000000000e+00 0.000000000000000e+00
0.000000000000000e+00 0.000000000000000e+00 0.000000000000000e+00
0.000000000000000e+00 0.000000000000000e+00 0.000000000000000e+00
0.000000000000000e+00 0.000000000000000e+00 0.000000000000000e+00
0.000000000000000e+00 0.000000000000000e+00 0.000000000000000e+00
0.000000000000000e+00 0.000000000000000e+00 0.000000000000000e+00
0.000000000000000e+00 0.000000000000000e+00 0.000000000000000e+00
0.000000000000000e+00 0.000000000000000e+00 0.000000000000000e+00
0.000000000000000e+00 0.000000000000000e+00 0.000000000000000e+00
0.000000000000000e+00 0.000000000000000e+00 0.000000000000000e+00
0.000000000000000e+00 0.000000000000000e+00 0.000000000000000e+00
0.000000000000000e+00 0.000000000000000e+00 0.000000000000000e+00
0.000000000000000e+00 0.000000000000000e+00 0.000000000000000e+00
0.000000000000000e+00 0.000000000000000e+00 0.000000000000000e+00
0.000000000000000e+00 0.000000000000000e+00 0.000000000000000e+00
0.000000000000000e+00 0.000000000000000e+00 0.000000000000000e+00
0.000000000000000e+00 0.000000000000000e+00 0.000000000000000e+00
0.000000000000000e+00 0.000000000000000e+00 0.000000000000000e+00
0.000000000000000e+00 0.000000000000000e+00 0.000000000000000e+00
0.000000000000000e+00 0.000000000000000e+00 0.000000000000000e+00
0.000000000000000e+00 0.000000000000000e+00 0.000000000000000e+00
0.000000000000000e+00 0.000000000000000e+00 0.000000000000000e+00
0.000000000000000e+00 0.000000000000000e+00 0.000000000000000e+00
0.000000000000000e+00 0.000000000000000e+00 0.000000000000000e+00
0.000000000000000e+00 0.000000000000000e+00 0.000000000000000e+00
0.000000000000000e+00 0.000000000000000e+00 0.000000000000000e+00
0.000000000000000e+00 0.000000000000000e+00 0.000000000000000e+00
0.000000000000000e+00 0.000000000000000e+00 0.000000000000000e+00
0.000000000000000e+00 0.000000000000000e+00 0.000000000000000e+00
0.000000000000000e+00 0.000000000000000e+00 0.000000000000000e+00
0.000000000000000e+00 0.000000000000000e+00 0.000000000000000e+00
0.000000000000000e+00 0.000000000000000e+00 0.000000000000000e+00
0.000000000000000e+00 0.000000000000000e+00 0.000000000000000e+00
0.000000000000000e+00 0.000000000000000e+00 0.000000000000000e+00
0.000000000000000e+00 0.000000000000000e+00 0.000000000000000e+00
0.000000000000000e+00 0.000000000000000e+00 0.000000000000000e+00
0.000000000000000e+00 0.000000000000000e+00 0.000000000000000e+00
0.000000000000000e+00 0.000000000000000e+00 0.000000000000000e+00
0.000000000000000e+00 0.000000000000000e+00 0.000000000000000e+00
0.000000000000000e+00 0.000000000000000e+00 0.000000000000000e+00
0.000000000000000e+00 0.000000000000000e+00 0.000000000000000e+00
0.000000000000000e+00 0.000000000000000e+00 0.000000000000000e+00
0.000000000000000e+00 0.000000000000000e+00 0.000000000000000e+00
0.000000000000000e+00 0.000000000000000e+00 0.000000000000000e+00
0.000000000000000e+00 0.000000000000000e+00 0.000000000000000e+00
0.000000000000000e+00 0.000000000000000e+00 0.000000000000000e+00
0.000000000000000e+00 0.000000000000000e+00 0.000000000000000e+00
0.000000000000000e+00 0.000000000000000e+00 0.000000000000000e+00
0.000000000000000e+00 0.000000000000000e+00 0.000000000000000e+00
0.000000000000000e+00 0.000000000000000e+00 0.000000000000000e+00
0.000000000000000e+00 0.000000000000000e+00 0.000000000000000e+00
0.000000000000000e+00 0.000000000000000e+00 0.000000000000000e+00
0.000000000000000e+00 0.000000000000000e+00 0.000000000000000e+00
0.000000000000000e+00 0.000000000000000e+00 0.000000000000000e+00
0.000000000000000e+00 0.000000000000000e+00 0.000000000000000e+00
0.000000000000000e+00 0.000000000000000e+00 0.000000000000000e+00
0.000000000000000e+00 0.000000000000000e+00 0.000000000000000e+00
0.000000000000000e+00 0.000000000000000e+00 0.000000000000000e+00
0.000000000000000e+00 0.000000000000000e+00 0.000000000000000e+00
0.000000000000000e+00 0.000000000000000e+00 0.000000000000000e+00
0.000000000000000e+00 0.000000000000000e+00 0.000000000000000e+00
0.000000000000000e+00 0.000000000000000e+00 0.000000000000000e+00
0.000000000000000e+00 0.000000000000000e+00 0.000000000000000e+00
0.000000000000000e+00 0.000000000000000e+00 0.000000000000000e+00
0.000000000000000e+00 0.000000000000000e+00 0.000000000000000e+00
0.000000000000000e+00 0.000000000000000e+00 0.000000000000000e+00
0.000000000000000e+00 0.000000000000000e+00 0.000000000000000e+00
0.000000000000000e+00 0.000000000000000e+00 0.000000000000000e+00
0.000000000000000e+00 0.000000000000000e+00 0.000000000000000e+00
0.000000000000000e+00 0.000000000000000e+00 0.000000000000000e+00
0.000000000000000e+00 0.000000000000000e+00 0.000000000000000e+00
0.000000000000000e+00 0.000000000000000e+00 0.000000000000000e+00
0.000000000000000e+00 0.000000000000000e+00 0.000000000000000e+00
0.000000000000000e+00 0.000000000000000e+00 0.000000000000000e+00
0.000000000000000e+00 0.000000000000000e+00 0.000000000000000e+00
0.000000000000000e+00 0.000000000000000e+00 0.000000000000000e+00
0.000000000000000e+00 0.000000000000000e+00 0.000000000000000e+00
0.000000000000000e+00 0.000000000000000e+00 0.000000000000000e+00
0.000000000000000e+00 0.000000000000000e+00 0.000000000000000e+00
0.000000000000000e+00 0.000000000000000e+00 0.000000000000000e+00
0.000000000000000e+00 0.000000000000000e+00 0.000000000000000e+00
0.000000000000000e+00 0.000000000000000e+00 0.000000000000000e+00
0.000000000000000e+00 0.000000000000000e+00 0.000000000000000e+00
0.000000000000000e+00 0.000000000000000e+00 0.000000000000000e+00
0.000000000000000e+00 0.000000000000000e+00 0.000000000000000e+00
0.000000000000000e+00 0.000000000000000e+00 0.000000000000000e+00
0.000000000000000e+00 0.000000000000000e+00 0.000000000000000e+00
0.000000000000000e+00 0.000000000000000e+00 0.000000000000000e+00
0.000000000000000e+00 0.000000000000000e+00 0.000000000000000e+00
0.000000000000000e+00 0.000000000000000e+00 0.000000000000000e+00
0.000000000000000e+00 0.000000000000000e+00 0.000000000000000e+00
0.000000000000000e+00 0.000000000000000e+00 0.000000000000000e+00
0.000000000000000e+00 0.000000000000000e+00 0.000000000000000e+00
0.000000000000000e+00 0.000000000000000e+00 0.000000000000000e+00
0.000000000000000e+00 0.000000000000000e+00 0.000000000000000e+00
0.000000000000000e+00 0.000000000000000e+00 0.000000000000000e+00
0.000000000000000e+00 0.000000000000000e+00 0.000000000000000e+00
0.000000000000000e+00 0.000000000000000e+00 0.000000000000000e+00
0.000000000000000e+00 0.000000000000000e+00 0.000000000000000e+00
0.000000000000000e+00 0.000000000000000e+00 0.000000000000000e+00
0.000000000000000e+00 0.000000000000000e+00 0.000000000000000e+00
0.000000000000000e+00 0.000000000000000e+00 0.000000000000000e+00
0.000000000000000e+00 0.000000000000000e+00 0.000000000000000e+00
0.000000000000000e+00 0.000000000000000e+00 0.000000000000000e+00
0.000000000000000e+00 0.000000000000000e+00 0.000000000000000e+00
0.000000000000000e+00 0.000000000000000e+00 0.000000000000000e+00
0.000000000000000e+00 0.000000000000000e+00 0.000000000000000e+00
0.000000000000000e+00 0.000000000000000e+00 0.000000000000000e+00
0.000000000000000e+00 0.000000000000000e+00 0.000000000000000e+00
0.000000000000000e+00 0.000000000000000e+00 0.000000000000000e+00
0.000000000000000e+00 0.000000000000000e+00 0.000000000000000e+00
0.000000000000000e+00 0.000000000000000e+00 0.000000000000000e+00
0.000000000000000e+00 0.000000000000000e+00 0.000000000000000e+00
0.000000000000000e+00 0.000000000000000e+00 0.000000000000000e+00
0.000000000000000e+00 0.000000000000000e+00 0.000000000000000e+00
0.000000000000000e+00 0.000000000000000e+00 0.000000000000000e+00
0.000000000000000e+00 0.000000000000000e+00 0.000000000000000e+00
0.000000000000000e+00 0.000000000000000e+00 0.000000000000000e+00
0.000000000000000e+00 0.000000000000000e+00 0.000000000000000e+00
0.000000000000000e+00 0.000000000000000e+00 0.000000000000000e+00
0.000000000000000e+00 0.000000000000000e+00 0.000000000000000e+00
0.000000000000000e+00 0.000000000000000e+00 0.000000000000000e+00
0.000000000000000e+00 0.000000000000000e+00 0.000000000000000e+00
0.000000000000000e+00 0.000000000000000e+00 0.000000000000000e+00
0.000000000000000e+00 0.000000000000000e+00 0.000000000000000e+00
0.000000000000000e+00 0.000000000000000e+00 0.000000000000000e+00
0.000000000000000e+00 0.000000000000000e+00 0.000000000000000e+00
0.000000000000000e+00 0.000000000000000e+00 0.000000000000000e+00
0.000000000000000e+00 0.000000000000000e+00 0.000000000000000e+00
0.000000000000000e+00 0.000000000000000e+00 0.000000000000000e+00
0.000000000000000e+00 0.000000000000000e+00 0.000000000000000e+00
0.000000000000000e+00 0.000000000000000e+00 0.000000000000000e+00
0.000000000000000e+00 0.000000000000000e+00 0.000000000000000e+00
0.000000000000000e+00 0.000000000000000e+00 0.000000000000000e+00
0.000000000000000e+00 0.000000000000000e+00 0.000000000000000e+00
0.000000000000000e+00 0.000000000000000e+00 0.000000000000000e+00
0.000000000000000e+00 0.000000000000000e+00 0.000000000000000e+00
0.000000000000000e+00 0.000000000000000e+00 0.000000000000000e+00
0.000000000000000e+00 0.000000000000000e+00 0.000000000000000e+00
0.000000000000000e+00 0.000000000000000e+00 0.000000000000000e+00
0.000000000000000e+00 0.000000000000000e+00 0.000000000000000e+00
0.000000000000000e+00 0.000000000000000e+00 0.000000000000000e+00
0.000000000000000e+00 0.000000000000000e+00 0.000000000000000e+00
0.000000000000000e+00 0.000000000000000e+00 0.000000000000000e+00
0.000000000000000e+00 0.000000000000000e+00 0.000000000000000e+00
0.000000000000000e+00 0.000000000000000e+00 0.000000000000000e+00
0.000000000000000e+00 0.000000000000000e+00 0.000000000000000e+00
0.000000000000000e+00 0.000000000000000e+00 0.000000000000000e+00
0.000000000000000e+00 0.000000000000000e+00 0.000000000000000e+00
0.000000000000000e+00 0.000000000000000e+00 0.000000000000000e+00
0.000000000000000e+00 0.000000000000000e+00 0.000000000000000e+00
0.000000000000000e+00 0.000000000000000e+00 0.000000000000000e+00
0.000000000000000e+00 0.000000000000000e+00 0.000000000000000e+00
0.000000000000000e+00 0.000000000000000e+00 0.000000000000000e+00
0.000000000000000e+00 0.000000000000000e+00 0.000000000000000e+00
0.000000000000000e+00 0.000000000000000e+00 0.000000000000000e+00
0.000000000000000e+00 0.000000000000000e+00 0.000000000000000e+00
0.000000000000000e+00 0.000000000000000e+00 0.000000000000000e+00
0.000000000000000e+00 0.000000000000000e+00 0.000000000000000e+00
0.000000000000000e+00 0.000000000000000e+00 0.000000000000000e+00
0.000000000000000e+00 0.000000000000000e+00 0.000000000000000e+00
0.000000000000000e+00 0.000000000000000e+00 0.000000000000000e+00
0.000000000000000e+00 0.000000000000000e+00 0.000000000000000e+00
0.000000000000000e+00 0.000000000000000e+00 0.000000000000000e+00
0.000000000000000e+00 0.000000000000000e+00 0.000000000000000e+00
0.000000000000000e+00 0.000000000000000e+00 0.000000000000000e+00
0.000000000000000e+00 0.000000000000000e+00 0.000000000000000e+00
0.000000000000000e+00 0.000000000000000e+00 0.000000000000000e+00
0.000000000000000e+00 0.000000000000000e+00 0.000000000000000e+00
0.000000000000000e+00 0.000000000000000e+00 0.000000000000000e+00
0.000000000000000e+00 0.000000000000000e+00 0.000000000000000e+00
0.000000000000000e+00 0.000000000000000e+00 0.000000000000000e+00
0.000000000000000e+00 0.000000000000000e+00 0.000000000000000e+00
0.000000000000000e+00 0.000000000000000e+00 0.000000000000000e+00
0.000000000000000e+00 0.000000000000000e+00 0.000000000000000e+00
0.000000000000000e+00 0.000000000000000e+00 0.000000000000000e+00
0.000000000000000e+00 0.000000000000000e+00 0.000000000000000e+00
0.000000000000000e+00 0.000000000000000e+00 0.000000000000000e+00
0.000000000000000e+00 0.000000000000000e+00 0.000000000000000e+00
0.000000000000000e+00 0.000000000000000e+00 0.000000000000000e+00
0.000000000000000e+00 0.000000000000000e+00 0.000000000000000e+00
0.000000000000000e+00 0.000000000000000e+00 0.000000000000000e+00
0.000000000000000e+00 0.000000000000000e+00 0.000000000000000e+00
0.000000000000000e+00 0.000000000000000e+00 0.000000000000000e+00
0.000000000000000e+00 0.000000000000000e+00 0.000000000000000e+00
0.000000000000000e+00 0.000000000000000e+00 0.000000000000000e+00
0.000000000000000e+00 0.000000000000000e+00 0.000000000000000e+00
0.000000000000000e+00 0.000000000000000e+00 0.000000000000000e+00
0.000000000000000e+00 0.000000000000000e+00 0.000000000000000e+00
0.000000000000000e+00 0.000000000000000e+00 0.000000000000000e+00
0.000000000000000e+00 0.000000000000000e+00 0.000000000000000e+00
0.000000000000000e+00 0.000000000000000e+00 0.000000000000000e+00
0.000000000000000e+00 0.000000000000000e+00 0.000000000000000e+00
0.000000000000000e+00 0.000000000000000e+00 0.000000000000000e+00
0.000000000000000e+00 0.000000000000000e+00 0.000000000000000e+00
0.000000000000000e+00 0.000000000000000e+00 0.000000000000000e+00
0.000000000000000e+00 0.000000000000000e+00 0.000000000000000e+00
0.000000000000000e+00 0.000000000000000e+00 0.000000000000000e+00
0.000000000000000e+00 0.000000000000000e+00 0.000000000000000e+00
0.000000000000000e+00 0.000000000000000e+00 0.000000000000000e+00
0.000000000000000e+00 0.000000000000000e+00 0.000000000000000e+00
0.000000000000000e+00 0.000000000000000e+00 0.000000000000000e+00
0.000000000000000e+00 0.000000000000000e+00 0.000000000000000e+00
0.000000000000000e+00 0.000000000000000e+00 0.000000000000000e+00
0.000000000000000e+00 0.000000000000000e+00 0.000000000000000e+00
0.000000000000000e+00 0.000000000000000e+00 0.000000000000000e+00
0.000000000000000e+00 0.000000000000000e+00 0.000000000000000e+00
0.000000000000000e+00 0.000000000000000e+00 0.000000000000000e+00
0.000000000000000e+00 0.000000000000000e+00 0.000000000000000e+00
0.000000000000000e+00 0.000000000000000e+00 0.000000000000000e+00
0.000000000000000e+00 0.000000000000000e+00 0.000000000000000e+00
0.000000000000000e+00 0.000000000000000e+00 0.000000000000000e+00
0.000000000000000e+00 0.000000000000000e+00 0.000000000000000e+00
0.000000000000000e+00 0.000000000000000e+00 0.000000000000000e+00
0.000000000000000e+00 0.000000000000000e+00 0.000000000000000e+00
0.000000000000000e+00 0.000000000000000e+00 0.000000000000000e+00
0.000000000000000e+00 0.000000000000000e+00 0.000000000000000e+00
0.000000000000000e+00 0.000000000000000e+00 0.000000000000000e+00
0.000000000000000e+00 0.000000000000000e+00 0.000000000000000e+00
0.000000000000000e+00 0.000000000000000e+00 0.000000000000000e+00
0.000000000000000e+00 0.000000000000000e+00 0.000000000000000e+00
0.000000000000000e+00 0.000000000000000e+00 0.000000000000000e+00
0.000000000000000e+00 0.000000000000000e+00 0.000000000000000e+00
0.000000000000000e+00 0.000000000000000e+00 0.000000000000000e+00
0.000000000000000e+00 0.000000000000000e+00 0.000000000000000e+00
0.000000000000000e+00 0.000000000000000e+00 0.000000000000000e+00
0.000000000000000e+00 0.000000000000000e+00 0.000000000000000e+00
0.000000000000000e+00 0.000000000000000e+00 0.000000000000000e+00
0.000000000000000e+00 0.000000000000000e+00 0.000000000000000e+00
0.000000000000000e+00 0.000000000000000e+00 0.000000000000000e+00
0.000000000000000e+00 0.000000000000000e+00 0.000000000000000e+00
0.000000000000000e+00 0.000000000000000e+00 0.000000000000000e+00
0.000000000000000e+00 0.000000000000000e+00 0.000000000000000e+00
0.000000000000000e+00 0.000000000000000e+00 0.000000000000000e+00
0.000000000000000e+00 0.000000000000000e+00 0.000000000000000e+00
0.000000000000000e+00 0.000000000000000e+00 0.000000000000000e+00
0.000000000000000e+00 0.000000000000000e+00 0.000000000000000e+00
0.000000000000000e+00 0.000000000000000e+00 0.000000000000000e+00
0.000000000000000e+00 0.000000000000000e+00 0.000000000000000e+00
0.000000000000000e+00 0.000000000000000e+00 0.000000000000000e+00
0.000000000000000e+00 0.000000000000000e+00 0.000000000000000e+00
0.000000000000000e+00 0.000000000000000e+00 0.000000000000000e+00
0.000000000000000e+00 0.000000000000000e+00 0.000000000000000e+00
0.000000000000000e+00 0.000000000000000e+00 0.000000000000000e+00
0.000000000000000e+00 0.000000000000000e+00 0.000000000000000e+00
0.000000000000000e+00 0.000000000000000e+00 0.000000000000000e+00
0.000000000000000e+00 0.000000000000000e+00 0.000000000000000e+00
0.000000000000000e+00 0.000000000000000e+00 0.000000000000000e+00
0.000000000000000e+00 0.000000000000000e+00 0.000000000000000e+00
0.000000000000000e+00 0.000000000000000e+00 0.000000000000000e+00
0.000000000000000e+00 0.000000000000000e+00 0.000000000000000e+00
0.000000000000000e+00 0.000000000000000e+00 0.000000000000000e+00
0.000000000000000e+00 0.000000000000000e+00 0.000000000000000e+00
0.000000000000000e+00 0.000000000000000e+00 0.000000000000000e+00
0.000000000000000e+00 0.000000000000000e+00 0.000000000000000e+00
0.000000000000000e+00 0.000000000000000e+00 0.000000000000000e+00
0.000000000000000e+00 0.000000000000000e+00 0.000000000000000e+00
0.000000000000000e+00 0.000000000000000e+00 0.000000000000000e+00
0.000000000000000e+00 0.000000000000000e+00 0.000000000000000e+00
0.000000000000000e+00 0.000000000000000e+00 0.000000000000000e+00
0.000000000000000e+00 0.000000000000000e+00 0.000000000000000e+00
0.000000000000000e+00 0.000000000000000e+00 0.000000000000000e+00
0.000000000000000e+00 0.000000000000000e+00 0.000000000000000e+00
0.000000000000000e+00 0.000000000000000e+00 0.000000000000000e+00
0.000000000000000e+00 0.000000000000000e+00 0.000000000000000e+00
0.000000000000000e+00 0.000000000000000e+00 0.000000000000000e+00
0.000000000000000e+00 0.000000000000000e+00 0.000000000000000e+00
0.000000000000000e+00 0.000000000000000e+00 0.000000000000000e+00
0.000000000000000e+00 0.000000000000000e+00 0.000000000000000e+00
0.000000000000000e+00 0.000000000000000e+00 0.000000000000000e+00
0.000000000000000e+00 0.000000000000000e+00 0.000000000000000e+00
0.000000000000000e+00 0.000000000000000e+00 0.000000000000000e+00
0.000000000000000e+00 0.000000000000000e+00 0.000000000000000e+00
0.000000000000000e+00 0.000000000000000e+00 0.000000000000000e+00
0.000000000000000e+00 0.000000000000000e+00 0.000000000000000e+00
0.000000000000000e+00 0.000000000000000e+00 0.000000000000000e+00
0.000000000000000e+00 0.000000000000000e+00 0.000000000000000e+00
0.000000000000000e+00 0.000000000000000e+00 0.000000000000000e+00
0.000000000000000e+00 0.000000000000000e+00 0.000000000000000e+00
0.000000000000000e+00 0.000000000000000e+00 0.000000000000000e+00
0.000000000000000e+00 0.000000000000000e+00 0.000000000000000e+00
0.000000000000000e+00 0.000000000000000e+00 0.000000000000000e+00
0.000000000000000e+00 0.000000000000000e+00 0.000000000000000e+00
0.000000000000000e+00 0.000000000000000e+00 0.000000000000000e+00
0.000000000000000e+00 0.000000000000000e+00 0.000000000000000e+00
0.000000000000000e+00 0.000000000000000e+00 0.000000000000000e+00
0.000000000000000e+00 0.000000000000000e+00 0.000000000000000e+00
0.000000000000000e+00 0.000000000000000e+00 0.000000000000000e+00
0.000000000000000e+00 0.000000000000000e+00 0.000000000000000e+00
0.000000000000000e+00 0.000000000000000e+00 0.000000000000000e+00
0.000000000000000e+00 0.000000000000000e+00 0.000000000000000e+00
0.000000000000000e+00 0.000000000000000e+00 0.000000000000000e+00
0.000000000000000e+00 0.000000000000000e+00 0.000000000000000e+00
0.000000000000000e+00 0.000000000000000e+00 0.000000000000000e+00
0.000000000000000e+00 0.000000000000000e+00 0.000000000000000e+00
0.000000000000000e+00 0.000000000000000e+00 0.000000000000000e+00
0.000000000000000e+00 0.000000000000000e+00 0.000000000000000e+00
0.000000000000000e+00 0.000000000000000e+00 0.000000000000000e+00
0.000000000000000e+00 0.000000000000000e+00 0.000000000000000e+00
0.000000000000000e+00 0.000000000000000e+00 0.000000000000000e+00
0.000000000000000e+00 0.000000000000000e+00 0.000000000000000e+00
0.000000000000000e+00 0.000000000000000e+00 0.000000000000000e+00
0.000000000000000e+00 0.000000000000000e+00 0.000000000000000e+00
0.000000000000000e+00 0.000000000000000e+00 0.000000000000000e+00
0.000000000000000e+00 0.000000000000000e+00 0.000000000000000e+00
0.000000000000000e+00 0.000000000000000e+00 0.000000000000000e+00
0.000000000000000e+00 0.000000000000000e+00 0.000000000000000e+00
0.000000000000000e+00 0.000000000000000e+00 0.000000000000000e+00
0.000000000000000e+00 0.000000000000000e+00 0.000000000000000e+00
0.000000000000000e+00 0.000000000000000e+00 0.000000000000000e+00
0.000000000000000e+00 0.000000000000000e+00 0.000000000000000e+00
0.000000000000000e+00 0.000000000000000e+00 0.000000000000000e+00
0.000000000000000e+00 0.000000000000000e+00 0.000000000000000e+00
0.000000000000000e+00 0.000000000000000e+00 0.000000000000000e+00
0.000000000000000e+00 0.000000000000000e+00 0.000000000000000e+00
0.000000000000000e+00 0.000000000000000e+00 0.000000000000000e+00
0.000000000000000e+00 0.000000000000000e+00 0.000000000000000e+00
0.000000000000000e+00 0.000000000000000e+00 0.000000000000000e+00
0.000000000000000e+00 0.000000000000000e+00 0.000000000000000e+00
0.000000000000000e+00 0.000000000000000e+00 0.000000000000000e+00
0.000000000000000e+00 0.000000000000000e+00 0.000000000000000e+00
0.000000000000000e+00 0.000000000000000e+00 0.000000000000000e+00
0.000000000000000e+00 0.000000000000000e+00 0.000000000000000e+00
0.000000000000000e+00 0.000000000000000e+00 0.000000000000000e+00
0.000000000000000e+00 0.000000000000000e+00 0.000000000000000e+00
0.000000000000000e+00 0.000000000000000e+00 0.000000000000000e+00
0.000000000000000e+00 0.000000000000000e+00 0.000000000000000e+00
0.000000000000000e+00 0.000000000000000e+00 0.000000000000000e+00
0.000000000000000e+00 0.000000000000000e+00 0.000000000000000e+00
0.000000000000000e+00 0.000000000000000e+00 0.000000000000000e+00
0.000000000000000e+00 0.000000000000000e+00 0.000000000000000e+00
0.000000000000000e+00 0.000000000000000e+00 0.000000000000000e+00
0.000000000000000e+00 0.000000000000000e+00 0.000000000000000e+00
0.000000000000000e+00 0.000000000000000e+00 0.000000000000000e+00
0.000000000000000e+00 0.000000000000000e+00 0.000000000000000e+00
0.000000000000000e+00 0.000000000000000e+00 0.000000000000000e+00
0.000000000000000e+00 0.000000000000000e+00 0.000000000000000e+00
0.000000000000000e+00 0.000000000000000e+00 0.000000000000000e+00
0.000000000000000e+00 0.000000000000000e+00 0.000000000000000e+00
0.000000000000000e+00 0.000000000000000e+00 0.000000000000000e+00
0.000000000000000e+00 0.000000000000000e+00 0.000000000000000e+00
0.000000000000000e+00 0.000000000000000e+00 0.000000000000000e+00
0.000000000000000e+00 0.000000000000000e+00 0.000000000000000e+00
0.000000000000000e+00 0.000000000000000e+00 0.000000000000000e+00
0.000000000000000e+00 0.000000000000000e+00 0.000000000000000e+00
0.000000000000000e+00 0.000000000000000e+00 0.000000000000000e+00
0.000000000000000e+00 0.000000000000000e+00 0.000000000000000e+00
0.000000000000000e+00 0.000000000000000e+00 0.000000000000000e+00
0.000000000000000e+00 0.000000000000000e+00 0.000000000000000e+00
0.000000000000000e+00 0.000000000000000e+00 0.000000000000000e+00
0.000000000000000e+00 0.000000000000000e+00 0.000000000000000e+00
0.000000000000000e+00 0.000000000000000e+00 0.000000000000000e+00
0.000000000000000e+00 0.000000000000000e+00 0.000000000000000e+00
0.000000000000000e+00 0.000000000000000e+00 0.000000000000000e+00
0.000000000000000e+00 0.000000000000000e+00 0.000000000000000e+00
0.000000000000000e+00 0.000000000000000e+00 0.000000000000000e+00
0.000000000000000e+00 0.000000000000000e+00 0.000000000000000e+00
0.000000000000000e+00 0.000000000000000e+00 0.000000000000000e+00
0.000000000000000e+00 0.000000000000000e+00 0.000000000000000e+00
0.000000000000000e+00 0.000000000000000e+00 0.000000000000000e+00
0.000000000000000e+00 0.000000000000000e+00 0.000000000000000e+00
0.000000000000000e+00 0.000000000000000e+00 0.000000000000000e+00
0.000000000000000e+00 0.000000000000000e+00 0.000000000000000e+00
0.000000000000000e+00 0.000000000000000e+00 0.000000000000000e+00
0.000000000000000e+00 0.000000000000000e+00 0.000000000000000e+00
0.000000000000000e+00 0.000000000000000e+00 0.000000000000000e+00
0.000000000000000e+00 0.000000000000000e+00 0.000000000000000e+00
0.000000000000000e+00 0.000000000000000e+00 0.000000000000000e+00
0.000000000000000e+00 0.000000000000000e+00 0.000000000000000e+00
0.000000000000000e+00 0.000000000000000e+00 0.000000000000000e+00
0.000000000000000e+00 0.000000000000000e+00 0.000000000000000e+00
0.000000000000000e+00 0.000000000000000e+00 0.000000000000000e+00
0.000000000000000e+00 0.000000000000000e+00 0.000000000000000e+00
0.000000000000000e+00 0.000000000000000e+00 0.000000000000000e+00
0.000000000000000e+00 0.000000000000000e+00 0.000000000000000e+00
0.000000000000000e+00 0.000000000000000e+00 0.000000000000000e+00
0.000000000000000e+00 0.000000000000000e+00 0.000000000000000e+00
0.000000000000000e+00 0.000000000000000e+00 0.000000000000000e+00
0.000000000000000e+00 0.000000000000000e+00 0.000000000000000e+00
0.000000000000000e+00 0.000000000000000e+00 0.000000000000000e+00
0.000000000000000e+00 0.000000000000000e+00 0.000000000000000e+00
0.000000000000000e+00 0.000000000000000e+00 0.000000000000000e+00
0.000000000000000e+00 0.000000000000000e+00 0.000000000000000e+00
0.000000000000000e+00 0.000000000000000e+00 0.000000000000000e+00
0.000000000000000e+00 0.000000000000000e+00 0.000000000000000e+00
0.000000000000000e+00 0.000000000000000e+00 0.000000000000000e+00
0.000000000000000e+00 0.000000000000000e+00 0.000000000000000e+00
0.000000000000000e+00 0.000000000000000e+00 0.000000000000000e+00
0.000000000000000e+00 0.000000000000000e+00 0.000000000000000e+00
0.000000000000000e+00 0.000000000000000e+00 0.000000000000000e+00
0.000000000000000e+00 0.000000000000000e+00 0.000000000000000e+00
0.000000000000000e+00 0.000000000000000e+00 0.000000000000000e+00
0.000000000000000e+00 0.000000000000000e+00 0.000000000000000e+00
0.000000000000000e+00 0.000000000000000e+00 0.000000000000000e+00
0.000000000000000e+00 0.000000000000000e+00 0.000000000000000e+00
0.000000000000000e+00 0.000000000000000e+00 0.000000000000000e+00
0.000000000000000e+00 0.000000000000000e+00 0.000000000000000e+00
0.000000000000000e+00 0.000000000000000e+00 0.000000000000000e+00
0.000000000000000e+00 0.000000000000000e+00 0.000000000000000e+00
0.000000000000000e+00 0.000000000000000e+00 0.000000000000000e+00
0.000000000000000e+00 0.000000000000000e+00 0.000000000000000e+00
0.000000000000000e+00 0.000000000000000e+00 0.000000000000000e+00
0.000000000000000e+00 0.000000000000000e+00 0.000000000000000e+00
0.000000000000000e+00 0.000000000000000e+00 0.000000000000000e+00
0.000000000000000e+00 0.000000000000000e+00 0.000000000000000e+00
0.000000000000000e+00 0.000000000000000e+00 0.000000000000000e+00
0.000000000000000e+00 0.000000000000000e+00 0.000000000000000e+00
0.000000000000000e+00 0.000000000000000e+00 0.000000000000000e+00
0.000000000000000e+00 0.000000000000000e+00 0.000000000000000e+00
0.000000000000000e+00 0.000000000000000e+00 0.000000000000000e+00
0.000000000000000e+00 0.000000000000000e+00 0.000000000000000e+00
0.000000000000000e+00 0.000000000000000e+00 0.000000000000000e+00
0.000000000000000e+00 0.000000000000000e+00 0.000000000000000e+00
0.000000000000000e+00 0.000000000000000e+00 0.000000000000000e+00
0.000000000000000e+00 0.000000000000000e+00 0.000000000000000e+00
0.000000000000000e+00 0.000000000000000e+00 0.000000000000000e+00
0.000000000000000e+00 0.000000000000000e+00 0.000000000000000e+00
0.000000000000000e+00 0.000000000000000e+00 0.000000000000000e+00
0.000000000000000e+00 0.000000000000000e+00 0.000000000000000e+00
0.000000000000000e+00 0.000000000000000e+00 0.000000000000000e+00
0.000000000000000e+00 0.000000000000000e+00 0.000000000000000e+00
0.000000000000000e+00 0.000000000000000e+00 0.000000000000000e+00
0.000000000000000e+00 0.000000000000000e+00 0.000000000000000e+00
0.000000000000000e+00 0.000000000000000e+00 0.000000000000000e+00
0.000000000000000e+00 0.000000000000000e+00 0.000000000000000e+00
0.000000000000000e+00 0.000000000000000e+00 0.000000000000000e+00
0.000000000000000e+00 0.000000000000000e+00 0.000000000000000e+00
0.000000000000000e+00 0.000000000000000e+00 0.000000000000000e+00
0.000000000000000e+00 0.000000000000000e+00 0.000000000000000e+00
0.000000000000000e+00 0.000000000000000e+00 0.000000000000000e+00
0.000000000000000e+00 0.000000000000000e+00 0.000000000000000e+00
0.000000000000000e+00 0.000000000000000e+00 0.000000000000000e+00
0.000000000000000e+00 0.000000000000000e+00 0.000000000000000e+00
0.000000000000000e+00 0.000000000000000e+00 0.000000000000000e+00
0.000000000000000e+00 0.000000000000000e+00 0.000000000000000e+00
0.000000000000000e+00 0.000000000000000e+00 0.000000000000000e+00
0.000000000000000e+00 0.000000000000000e+00 0.000000000000000e+00
0.000000000000000e+00 0.000000000000000e+00 0.000000000000000e+00
0.000000000000000e+00 0.000000000000000e+00 0.000000000000000e+00
0.000000000000000e+00 0.000000000000000e+00 0.000000000000000e+00
0.000000000000000e+00 0.000000000000000e+00 0.000000000000000e+00
0.000000000000000e+00 0.000000000000000e+00 0.000000000000000e+00
0.000000000000000e+00 0.000000000000000e+00 0.000000000000000e+00
0.000000000000000e+00 0.000000000000000e+00 0.000000000000000e+00
0.000000000000000e+00 0.000000000000000e+00 0.000000000000000e+00
0.000000000000000e+00 0.000000000000000e+00 0.000000000000000e+00
0.000000000000000e+00 0.000000000000000e+00 0.000000000000000e+00
0.000000000000000e+00 0.000000000000000e+00 0.000000000000000e+00
0.000000000000000e+00 0.000000000000000e+00 0.000000000000000e+00
0.000000000000000e+00 0.000000000000000e+00 0.000000000000000e+00
0.000000000000000e+00 0.000000000000000e+00 0.000000000000000e+00
0.000000000000000e+00 0.000000000000000e+00 0.000000000000000e+00
0.000000000000000e+00 0.000000000000000e+00 0.000000000000000e+00
0.000000000000000e+00 0.000000000000000e+00 0.000000000000000e+00
0.000000000000000e+00 0.000000000000000e+00 0.000000000000000e+00
0.000000000000000e+00 0.000000000000000e+00 0.000000000000000e+00
0.000000000000000e+00 0.000000000000000e+00 0.000000000000000e+00
0.000000000000000e+00 0.000000000000000e+00 0.000000000000000e+00
0.000000000000000e+00 0.000000000000000e+00 0.000000000000000e+00
0.000000000000000e+00 0.000000000000000e+00 0.000000000000000e+00
0.000000000000000e+00 0.000000000000000e+00 0.000000000000000e+00
0.000000000000000e+00 0.000000000000000e+00 0.000000000000000e+00
0.000000000000000e+00 0.000000000000000e+00 0.000000000000000e+00
0.000000000000000e+00 0.000000000000000e+00 0.000000000000000e+00
0.000000000000000e+00 0.000000000000000e+00 0.000000000000000e+00
0.000000000000000e+00 0.000000000000000e+00 0.000000000000000e+00
0.000000000000000e+00 0.000000000000000e+00 0.000000000000000e+00
0.000000000000000e+00 0.000000000000000e+00 0.000000000000000e+00
0.000000000000000e+00 0.000000000000000e+00 0.000000000000000e+00
0.000000000000000e+00 0.000000000000000e+00 0.000000000000000e+00
0.000000000000000e+00 0.000000000000000e+00 0.000000000000000e+00
0.000000000000000e+00 0.000000000000000e+00 0.000000000000000e+00
0.000000000000000e+00 0.000000000000000e+00 0.000000000000000e+00
0.000000000000000e+00 0.000000000000000e+00 0.000000000000000e+00
0.000000000000000e+00 0.000000000000000e+00 0.000000000000000e+00
0.000000000000000e+00 0.000000000000000e+00 0.000000000000000e+00
0.000000000000000e+00 0.000000000000000e+00 0.000000000000000e+00
0.000000000000000e+00 0.000000000000000e+00 0.000000000000000e+00
0.000000000000000e+00 0.000000000000000e+00 0.000000000000000e+00
0.000000000000000e+00 0.000000000000000e+00 0.000000000000000e+00
0.000000000000000e+00 0.000000000000000e+00 0.000000000000000e+00
0.000000000000000e+00 0.000000000000000e+00 0.000000000000000e+00
0.000000000000000e+00 0.000000000000000e+00 0.000000000000000e+00
0.000000000000000e+00 0.000000000000000e+00 0.000000000000000e+00
0.000000000000000e+00 0.000000000000000e+00 0.000000000000000e+00
0.000000000000000e+00 0.000000000000000e+00 0.000000000000000e+00
0.000000000000000e+00 0.000000000000000e+00 0.000000000000000e+00
0.000000000000000e+00 0.000000000000000e+00 0.000000000000000e+00
0.000000000000000e+00 0.000000000000000e+00 0.000000000000000e+00
0.000000000000000e+00 0.000000000000000e+00 0.000000000000000e+00
0.000000000000000e+00 0.000000000000000e+00 0.000000000000000e+00
0.000000000000000e+00 0.000000000000000e+00 0.000000000000000e+00
0.000000000000000e+00 0.000000000000000e+00 0.000000000000000e+00
0.000000000000000e+00 0.000000000000000e+00 0.000000000000000e+00
0.000000000000000e+00 0.000000000000000e+00 0.000000000000000e+00
0.000000000000000e+00 0.000000000000000e+00 0.000000000000000e+00
0.000000000000000e+00 0.000000000000000e+00 0.000000000000000e+00
0.000000000000000e+00 0.000000000000000e+00 0.000000000000000e+00
0.000000000000000e+00 0.000000000000000e+00 0.000000000000000e+00
0.000000000000000e+00 0.000000000000000e+00 0.000000000000000e+00
0.000000000000000e+00 0.000000000000000e+00 0.000000000000000e+00
0.000000000000000e+00 0.000000000000000e+00 0.000000000000000e+00
0.000000000000000e+00 0.000000000000000e+00 0.000000000000000e+00
0.000000000000000e+00 0.000000000000000e+00 0.000000000000000e+00
0.000000000000000e+00 0.000000000000000e+00 0.000000000000000e+00
0.000000000000000e+00 0.000000000000000e+00 0.000000000000000e+00
0.000000000000000e+00 0.000000000000000e+00 0.000000000000000e+00
0.000000000000000e+00 0.000000000000000e+00 0.000000000000000e+00
0.000000000000000e+00 0.000000000000000e+00 0.000000000000000e+00
0.000000000000000e+00 0.000000000000000e+00 0.000000000000000e+00
0.000000000000000e+00 0.000000000000000e+00 0.000000000000000e+00
0.000000000000000e+00 0.000000000000000e+00 0.000000000000000e+00
0.000000000000000e+00 0.000000000000000e+00 0.000000000000000e+00
0.000000000000000e+00 0.000000000000000e+00 0.000000000000000e+00
0.000000000000000e+00 0.000000000000000e+00 0.000000000000000e+00
0.000000000000000e+00 0.000000000000000e+00 0.000000000000000e+00
0.000000000000000e+00 0.000000000000000e+00 0.000000000000000e+00
0.000000000000000e+00 0.000000000000000e+00 0.000000000000000e+00
0.000000000000000e+00 0.000000000000000e+00 0.000000000000000e+00
0.000000000000000e+00 0.000000000000000e+00 0.000000000000000e+00
0.000000000000000e+00 0.000000000000000e+00 0.000000000000000e+00
0.000000000000000e+00 0.000000000000000e+00 0.000000000000000e+00
0.000000000000000e+00 0.000000000000000e+00 0.000000000000000e+00
0.000000000000000e+00 0.000000000000000e+00 0.000000000000000e+00
0.000000000000000e+00 0.000000000000000e+00 0.000000000000000e+00
0.000000000000000e+00 0.000000000000000e+00 0.000000000000000e+00
0.000000000000000e+00 0.000000000000000e+00 0.000000000000000e+00
0.000000000000000e+00 0.000000000000000e+00 0.000000000000000e+00
0.000000000000000e+00 0.000000000000000e+00 0.000000000000000e+00
0.000000000000000e+00 0.000000000000000e+00 0.000000000000000e+00
0.000000000000000e+00 0.000000000000000e+00 0.000000000000000e+00
0.000000000000000e+00 0.000000000000000e+00 0.000000000000000e+00
0.000000000000000e+00 0.000000000000000e+00 0.000000000000000e+00
0.000000000000000e+00 0.000000000000000e+00 0.000000000000000e+00
0.000000000000000e+00 0.000000000000000e+00 0.000000000000000e+00
0.000000000000000e+00 0.000000000000000e+00 0.000000000000000e+00
0.000000000000000e+00 0.000000000000000e+00 0.000000000000000e+00
0.000000000000000e+00 0.000000000000000e+00 0.000000000000000e+00
0.000000000000000e+00 0.000000000000000e+00 0.000000000000000e+00
0.000000000000000e+00 0.000000000000000e+00 0.000000000000000e+00
0.000000000000000e+00 0.000000000000000e+00 0.000000000000000e+00
0.000000000000000e+00 0.000000000000000e+00 0.000000000000000e+00
0.000000000000000e+00 0.000000000000000e+00 0.000000000000000e+00
0.000000000000000e+00 0.000000000000000e+00 0.000000000000000e+00
0.000000000000000e+00 0.000000000000000e+00 0.000000000000000e+00
0.000000000000000e+00 0.000000000000000e+00 0.000000000000000e+00
0.000000000000000e+00 0.000000000000000e+00 0.000000000000000e+00
0.000000000000000e+00 0.000000000000000e+00 0.000000000000000e+00
0.000000000000000e+00 0.000000000000000e+00 0.000000000000000e+00
0.000000000000000e+00 0.000000000000000e+00 0.000000000000000e+00
0.000000000000000e+00 0.000000000000000e+00 0.000000000000000e+00
0.000000000000000e+00 0.000000000000000e+00 0.000000000000000e+00
0.000000000000000e+00 0.000000000000000e+00 0.000000000000000e+00
0.000000000000000e+00 0.000000000000000e+00 0.000000000000000e+00
0.000000000000000e+00 0.000000000000000e+00 0.000000000000000e+00
0.000000000000000e+00 0.000000000000000e+00 0.000000000000000e+00
0.000000000000000e+00 0.000000000000000e+00 0.000000000000000e+00
0.000000000000000e+00 0.000000000000000e+00 0.000000000000000e+00
0.000000000000000e+00 0.000000000000000e+00 0.000000000000000e+00
0.000000000000000e+00 0.000000000000000e+00 0.000000000000000e+00
0.000000000000000e+00 0.000000000000000e+00 0.000000000000000e+00
0.000000000000000e+00 0.000000000000000e+00 0.000000000000000e+00
0.000000000000000e+00 0.000000000000000e+00 0.000000000000000e+00
0.000000000000000e+00 0.000000000000000e+00 0.000000000000000e+00
0.000000000000000e+00 0.000000000000000e+00 0.000000000000000e+00
0.000000000000000e+00 0.000000000000000e+00 0.000000000000000e+00
0.000000000000000e+00 0.000000000000000e+00 0.000000000000000e+00
0.000000000000000e+00 0.000000000000000e+00 0.000000000000000e+00
0.000000000000000e+00 0.000000000000000e+00 0.000000000000000e+00
0.000000000000000e+00 0.000000000000000e+00 0.000000000000000e+00
0.000000000000000e+00 0.000000000000000e+00 0.000000000000000e+00
0.000000000000000e+00 0.000000000000000e+00 0.000000000000000e+00
0.000000000000000e+00 0.000000000000000e+00 0.000000000000000e+00
0.000000000000000e+00 0.000000000000000e+00 0.000000000000000e+00
0.000000000000000e+00 0.000000000000000e+00 0.000000000000000e+00
0.000000000000000e+00 0.000000000000000e+00 0.000000000000000e+00
0.000000000000000e+00 0.000000000000000e+00 0.000000000000000e+00
0.000000000000000e+00 0.000000000000000e+00 0.000000000000000e+00
0.000000000000000e+00 0.000000000000000e+00 0.000000000000000e+00
0.000000000000000e+00 0.000000000000000e+00 0.000000000000000e+00
0.000000000000000e+00 0.000000000000000e+00 0.000000000000000e+00
0.000000000000000e+00 0.000000000000000e+00 0.000000000000000e+00
0.000000000000000e+00 0.000000000000000e+00 0.000000000000000e+00
0.000000000000000e+00 0.000000000000000e+00 0.000000000000000e+00
0.000000000000000e+00 0.000000000000000e+00 0.000000000000000e+00
0.000000000000000e+00 0.000000000000000e+00 0.000000000000000e+00
0.000000000000000e+00 0.000000000000000e+00 0.000000000000000e+00
0.000000000000000e+00 0.000000000000000e+00 0.000000000000000e+00
0.000000000000000e+00 0.000000000000000e+00 0.000000000000000e+00
0.000000000000000e+00 0.000000000000000e+00 0.000000000000000e+00
0.000000000000000e+00 0.000000000000000e+00 0.000000000000000e+00
0.000000000000000e+00 0.000000000000000e+00 0.000000000000000e+00
0.000000000000000e+00 0.000000000000000e+00 0.000000000000000e+00
0.000000000000000e+00 0.000000000000000e+00 0.000000000000000e+00
0.000000000000000e+00 0.000000000000000e+00 0.000000000000000e+00
0.000000000000000e+00 0.000000000000000e+00 0.000000000000000e+00
0.000000000000000e+00 0.000000000000000e+00 0.000000000000000e+00
0.000000000000000e+00 0.000000000000000e+00 0.000000000000000e+00
0.000000000000000e+00 0.000000000000000e+00 0.000000000000000e+00
0.000000000000000e+00 0.000000000000000e+00 0.000000000000000e+00
0.000000000000000e+00 0.000000000000000e+00 0.000000000000000e+00
0.000000000000000e+00 0.000000000000000e+00 0.000000000000000e+00
0.000000000000000e+00 0.000000000000000e+00 0.000000000000000e+00
0.000000000000000e+00 0.000000000000000e+00 0.000000000000000e+00
0.000000000000000e+00 0.000000000000000e+00 0.000000000000000e+00
0.000000000000000e+00 0.000000000000000e+00 0.000000000000000e+00
0.000000000000000e+00 0.000000000000000e+00 0.000000000000000e+00
0.000000000000000e+00 0.000000000000000e+00 0.000000000000000e+00
0.000000000000000e+00 0.000000000000000e+00 0.000000000000000e+00
0.000000000000000e+00 0.000000000000000e+00 0.000000000000000e+00
0.000000000000000e+00 0.000000000000000e+00 0.000000000000000e+00
0.000000000000000e+00 0.000000000000000e+00 0.000000000000000e+00
0.000000000000000e+00 0.000000000000000e+00 0.000000000000000e+00
0.000000000000000e+00 0.000000000000000e+00 0.000000000000000e+00
0.000000000000000e+00 0.000000000000000e+00 0.000000000000000e+00
0.000000000000000e+00 0.000000000000000e+00 0.000000000000000e+00
0.000000000000000e+00 0.000000000000000e+00 0.000000000000000e+00
0.000000000000000e+00 0.000000000000000e+00 0.000000000000000e+00
0.000000000000000e+00 0.000000000000000e+00 0.000000000000000e+00
0.000000000000000e+00 0.000000000000000e+00 0.000000000000000e+00
0.000000000000000e+00 0.000000000000000e+00 0.000000000000000e+00
0.000000000000000e+00 0.000000000000000e+00 0.000000000000000e+00
0.000000000000000e+00 0.000000000000000e+00 0.000000000000000e+00
0.000000000000000e+00 0.000000000000000e+00 0.000000000000000e+00
0.000000000000000e+00 0.000000000000000e+00 0.000000000000000e+00
0.000000000000000e+00 0.000000000000000e+00 0.000000000000000e+00
0.000000000000000e+00 0.000000000000000e+00 0.000000000000000e+00
0.000000000000000e+00 0.000000000000000e+00 0.000000000000000e+00
0.000000000000000e+00 0.000000000000000e+00 0.000000000000000e+00
0.000000000000000e+00 0.000000000000000e+00 0.000000000000000e+00
0.000000000000000e+00 0.000000000000000e+00 0.000000000000000e+00
0.000000000000000e+00 0.000000000000000e+00 0.000000000000000e+00
0.000000000000000e+00 0.000000000000000e+00 0.000000000000000e+00
0.000000000000000e+00 0.000000000000000e+00 0.000000000000000e+00
0.000000000000000e+00 0.000000000000000e+00 0.000000000000000e+00
0.000000000000000e+00 0.000000000000000e+00 0.000000000000000e+00
0.000000000000000e+00 0.000000000000000e+00 0.000000000000000e+00
0.000000000000000e+00 0.000000000000000e+00 0.000000000000000e+00
0.000000000000000e+00 0.000000000000000e+00 0.000000000000000e+00
0.000000000000000e+00 0.000000000000000e+00 0.000000000000000e+00
0.000000000000000e+00 0.000000000000000e+00 0.000000000000000e+00
0.000000000000000e+00 0.000000000000000e+00 0.000000000000000e+00
0.000000000000000e+00 0.000000000000000e+00 0.000000000000000e+00
0.000000000000000e+00 0.000000000000000e+00 0.000000000000000e+00
0.000000000000000e+00 0.000000000000000e+00 0.000000000000000e+00
0.000000000000000e+00 0.000000000000000e+00 0.000000000000000e+00
0.000000000000000e+00 0.000000000000000e+00 0.000000000000000e+00
0.000000000000000e+00 0.000000000000000e+00 0.000000000000000e+00
0.000000000000000e+00 0.000000000000000e+00 0.000000000000000e+00
0.000000000000000e+00 0.000000000000000e+00 0.000000000000000e+00
0.000000000000000e+00 0.000000000000000e+00 0.000000000000000e+00
0.000000000000000e+00 0.000000000000000e+00 0.000000000000000e+00
0.000000000000000e+00 0.000000000000000e+00 0.000000000000000e+00
0.000000000000000e+00 0.000000000000000e+00 0.000000000000000e+00
0.000000000000000e+00 0.000000000000000e+00 0.000000000000000e+00
0.000000000000000e+00 0.000000000000000e+00 0.000000000000000e+00
0.000000000000000e+00 0.000000000000000e+00 0.000000000000000e+00
0.000000000000000e+00 0.000000000000000e+00 0.000000000000000e+00
0.000000000000000e+00 0.000000000000000e+00 0.000000000000000e+00
0.000000000000000e+00 0.000000000000000e+00 0.000000000000000e+00
0.000000000000000e+00 0.000000000000000e+00 0.000000000000000e+00
0.000000000000000e+00 0.000000000000000e+00 0.000000000000000e+00
0.000000000000000e+00 0.000000000000000e+00 0.000000000000000e+00
0.000000000000000e+00 0.000000000000000e+00 0.000000000000000e+00
0.000000000000000e+00 0.000000000000000e+00 0.000000000000000e+00
0.000000000000000e+00 0.000000000000000e+00 0.000000000000000e+00
0.000000000000000e+00 0.000000000000000e+00 0.000000000000000e+00
0.000000000000000e+00 0.000000000000000e+00 0.000000000000000e+00
0.000000000000000e+00 0.000000000000000e+00 0.000000000000000e+00
0.000000000000000e+00 0.000000000000000e+00 0.000000000000000e+00
0.000000000000000e+00 0.000000000000000e+00 0.000000000000000e+00
0.000000000000000e+00 0.000000000000000e+00 0.000000000000000e+00
0.000000000000000e+00 0.000000000000000e+00 0.000000000000000e+00
0.000000000000000e+00 0.000000000000000e+00 0.000000000000000e+00
0.000000000000000e+00 0.000000000000000e+00 0.000000000000000e+00
0.000000000000000e+00 0.000000000000000e+00 0.000000000000000e+00
0.000000000000000e+00 0.000000000000000e+00 0.000000000000000e+00
0.000000000000000e+00 0.000000000000000e+00 0.000000000000000e+00
0.000000000000000e+00 0.000000000000000e+00 0.000000000000000e+00
 6.887515711512557e-03 -1.231753784951419e-07  3.121536944883200e-19
 6.864196436905091e-03 -6.238195411811482e-06  3.117907729494485e-19
6.901119186764889e-03 5.865463598503565e-05 3.163908980931407e-19
6.906849144309131e-03 1.812335114565565e-06 3.133612684405557e-19
6.912830048891705e-03 8.895570625645075e-05 3.136082151940456e-19
6.920279228257276e-03 6.543424637690969e-06 3.146061322653381e-19
6.895344466727453e-03 7.195126793494366e-05 3.174431700229102e-19
6.892502014730499e-03 5.683192136717032e-05 3.113611198323693e-19
6.881099546410309e-03 5.673790265211156e-05 3.126502376169859e-19
6.888655056856686e-03 9.860788640040769e-05 3.182077127149825e-19
6.888116080692289e-03 4.950338374979278e-05 3.133536684853208e-19
6.862395069051713e-03 1.290735474316157e-04 3.086465817955866e-19
6.844004175044515e-03 5.847653024035201e-05 3.062651026638476e-19
6.840440473651244e-03 1.114570893255447e-04 3.146137677271497e-19
6.836189030168695e-03 6.325834428466581e-05 3.113347043175762e-19
6.829106475508500e-03 1.250194036797941e-04 3.158185705858063e-19
6.808220914154455e-03 1.246370549149352e-04 3.167507101916164e-19
6.778791577983211e-03 1.381717265480752e-04 3.084513911581571e-19
6.767310144204340e-03 1.458960613433767e-04 3.097506133822085e-19
6.766078335764089e-03 3.647591496682945e-05 3.096547040561327e-19
6.679723648756989e-03 1.540333989953524e-05 3.056955368324174e-19
6.749293941868561e-03 1.426373807448559e-04 3.052915371826559e-19
 6.836552142177137e-03 -1.927081740624012e-04  3.220699255084992e-19
 6.923267926211517e-03 -1.697388309117015e-04  3.116258333473560e-19
 7.193234240031410e-03 -1.763576367966855e-04  3.204100394442332e-19
 6.267426911892685e-03 -6.432758490596843e-04  3.134691395050100e-19
7.274913602905342e-03 2.749442395075833e-03 4.422848605836052e-19
 6.665453046216996e-03 -2.471630477948666e-03  2.728982661431714e-19
4.760853863826677e-03 3.384355212246711e-03 2.415549171519641e-20
 7.420752699127088e-03 -1.523395087335369e-04  3.349936695281841e-19
6.807269719765986e-03 9.238842632116574e-04 3.790592449534587e-19
 6.892852138770168e-03 -9.910773177077971e-05  3.070875114428129e-19
 6.526475404367057e-03 -3.691449252720998e-04  2.779951373454534e-19
6.801945624052096e-03 2.506428230201376e-04 3.098951018736764e-19
 6.802129626595381e-03 -5.833740249522661e-04  3.052548731246097e-19
6.768626788233968e-03 3.243336444064995e-04 3.072907097952700e-19
 6.891015358747444e-03 -3.323795935755184e-05  3.135577127333310e-19
6.813026026385314e-03 1.725146772100296e-04 3.006311514738260e-19
 6.643561707807163e-03 -6.234148120657614e-04  2.951324072240238e-19
6.724420768106291e-03 3.441987610372017e-04 3.015265106547965e-19
 6.783259084629823e-03 -2.828715868261289e-04  3.154014912437198e-19
6.893059606511741e-03 5.416430131150013e-04 3.208157206552728e-19
 6.871683109718331e-03 -5.708414146899355e-04  3.260502623564858e-19
6.807289496709682e-03 3.426816362348989e-04 3.113525136768478e-19
 6.786516299944426e-03 -3.637723914617060e-04  2.886877184489447e-19
6.823910260739026e-03 6.278591180769933e-04 3.280895554889671e-19
 6.893067552615932e-03 -3.324425164097038e-04  3.188639590828921e-19
6.836501473463193e-03 4.474987777739911e-04 3.115704099362597e-19
 6.896890566304815e-03 -2.360069781839314e-04  3.250456559711483e-19
6.930828900843950e-03 3.687982174391214e-04 2.868919405527695e-19
 6.821522699107685e-03 -4.998976732506689e-04  3.030241751075424e-19
6.769870352895510e-03 4.256177274352192e-04 3.309964901128077e-19
 6.815437579693363e-03 -1.816590082415579e-04  1.032184530981703e-19
6.792493466380618e-03 5.798019217115087e-04 1.727401072440721e-18
 6.905520537191782e-03 -1.033641709960678e-04  5.971015776171356e-19
6.929525127949496e-03 3.077436987936741e-04 3.288724212221231e-19
 6.875406181251365e-03 -3.634157184315290e-04  3.107117526261331e-19
6.863491605502344e-03 2.955594970850622e-04 2.977857721885581e-19
 6.849022701419730e-03 -3.872446622428808e-04  3.198249059718885e-19
6.872909881816658e-03 3.112376328858843e-04 3.114475972015917e-19
 6.853737590662498e-03 -4.823374345274182e-04  3.203515346971185e-19
6.825184234684805e-03 2.954178984867927e-04 3.142006106007189e-19
 6.735527719046475e-03 -4.715003100004181e-04  3.132996302707842e-19
6.718138627053295e-03 3.662793403406684e-04 3.174814073700700e-19
 6.804475217750740e-03 -2.496594113457658e-04  3.004743164139803e-19
6.313408109291808e-03 2.560896520843525e-03 2.090869894305659e-19
 6.823407789856379e-03 -2.829805214992002e-04  3.107687862762680e-19
6.851551070721008e-03 1.455165577812771e-04 3.126172938032399e-19
 6.802712577976621e-03 -1.900832882933158e-04  3.035326412639215e-19
6.802725217051205e-03 3.168730792765555e-04 3.054027548810778e-19
 6.894085243234141e-03 -1.432425695612871e-04  3.112630798235237e-19
 6.845675636036629e-03 -1.078294437955609e-04  3.132094737710636e-19
 6.920930647438298e-03 -3.060564198916090e-05  3.121658872685718e-19
 6.732173256562340e-03 -2.977092171493073e-05  3.068291581742930e-19
6.838317111066084e-03 1.501574082544066e-03 2.668125455290371e-19
 7.022134990280841e-03 -4.863865609988475e-04  3.420255568786541e-19
 6.580925604998398e-03 -2.147010095534941e-04  3.287858071725662e-19
6.504875476197933e-03 1.563917948800559e-03 2.737539077879400e-19
 7.055680148788949e-03 -2.093245581729621e-05  3.151297711936293e-19
 6.819555761599602e-03 -1.246012791257603e-04  3.035483621711943e-19
 6.803839487076161e-03 -6.761980515503375e-05  3.038779237096183e-19
6.848449067486624e-03 3.889840846186494e-05 3.095595238711387e-19
 6.831316633611318e-03 -7.868854823041776e-05  3.080212225711734e-19
6.859838362416586e-03 3.965461638301396e-05 3.028041159138290e-19
 6.810948253367509e-03 -1.527355677458532e-04  3.049766019054846e-19
6.838758015737038e-03 1.291772727346357e-04 3.057061855803225e-19
 6.834684059952260e-03 -1.630323967022094e-04  3.192710318782501e-19
6.899561522769183e-03 2.541802753769134e-04 3.005085927460414e-19
 6.895655207062410e-03 -2.546351334735211e-04  3.263225450610297e-19
6.834963488732026e-03 7.193085681926098e-05 3.046542269682305e-19
 6.660761832602824e-03 -1.646533126239896e-03  2.325754311275514e-19
6.837125372706990e-03 4.593689107922185e-05 3.033051267420023e-19
 6.815230342371859e-03 -1.288143293531749e-04  3.029451024729986e-19
6.858738744847359e-03 7.731787917278711e-05 3.035616628028516e-19
 6.868159839576217e-03 -1.510553298723289e-04  3.248354891007335e-19
 6.832601022446108e-03 -4.079278322526580e-05  3.012895663943485e-19
 6.853835079967858e-03 -7.249132465587295e-05  3.060246804047692e-19
 6.852577180798935e-03 -7.247802016634636e-05  3.022053024489577e-19
 6.859409317935198e-03 -7.255028199719865e-05  2.987352936080754e-19
 6.868059035321647e-03 -5.050542170497898e-05  3.049059450667688e-19
 6.874853705687770e-03 -7.709747382829542e-05  3.061287540948858e-19
 6.891703665001937e-03 -1.958718613383843e-06  3.050713000509401e-19
 6.907892832942734e-03 -1.064912580069263e-04  3.154073537233260e-19
 6.873265649358689e-03 -4.225091271722430e-05  3.061381655813580e-19
6.887794261108506e-03 9.194508556563028e-08 3.043918191259329e-19
 6.882762369358895e-03 -2.329593876201580e-05  3.002646268441769e-19
 6.864945472768368e-03 -2.323563429273036e-05  2.995118830491588e-19
6.925788719778688e-03 1.233122868137549e-04 2.877797194814695e-19
 6.888535121514604e-03 -1.097867795433670e-04  3.096990473042160e-19
6.882627696155465e-03 8.992557944446747e-05 2.965711148970820e-19
 6.851526484748109e-03 -2.493329870925648e-04  2.765262713445890e-19
6.838283084259121e-03 1.085840940117673e-04 3.006842913598416e-19
 6.845978738692179e-03 -2.646980891301522e-05  3.065800134109419e-19
6.887947324721515e-03 2.945769678092871e-04 3.233459256112702e-19
 6.843050253149233e-03 -1.179199970347512e-04  2.946155014304311e-19
6.849829593990170e-03 3.322750618825185e-04 3.027097175615037e-19
 6.852261115862170e-03 -1.198214389477161e-04  3.050171130081522e-19
6.833604558980533e-03 3.526796397559716e-04 2.809255947326245e-19
 6.854504141220595e-03 -6.193591773211439e-05  2.956814836347827e-19
6.870241289038900e-03 4.461507733838357e-04 2.630739847988349e-19
 6.909631001775780e-03 -9.768324981988474e-05  3.049933514255513e-19
6.848843408144312e-03 2.227822890171648e-04 3.141054028939614e-19
 6.825639952310458e-03 -1.298822061381317e-05  2.967842282290757e-19
6.850536842114970e-03 3.415104157572539e-04 3.257647261178536e-19
 6.813614693379110e-03 -1.481912233838366e-04  3.025384465472828e-19
6.734747413537600e-03 3.459493843219093e-04 3.071559809269592e-19
6.771970459773836e-03 1.028116734406110e-04 2.852087896857435e-19
6.672473262629097e-03 2.592518720834763e-04 2.732424522762930e-19
6.550680105455279e-03 2.545197281300319e-04 2.684217562654646e-19
6.424126685359866e-03 5.022658338759604e-04 2.927603812871151e-19
6.219202191439299e-03 2.331725751050515e-04 2.617367823934410e-19
6.211213751601444e-03 6.712357669446176e-04 2.668467413112677e-19
7.317155103238601e-03 3.452216109100045e-04 3.015618027050083e-19
 6.245665429232207e-03 -8.603378118348005e-04  2.705912659178181e-19
 6.323292870775440e-03 -2.010889151751566e-04  2.761923415478581e-19
 6.541879770411419e-03 -4.510817601032093e-04  2.902153262654133e-19
6.766642992488820e-03 1.606670777311643e-04 2.895812984386411e-19
 6.754886928660656e-03 -5.658366645590849e-04  2.947966506086861e-19
6.843138437941370e-03 2.842557582148791e-04 2.944616928552547e-19
 6.970723172033793e-03 -4.960341995840087e-04  2.763524355388778e-19
5.967241794468035e-03 3.147303924055718e-03 4.069000473306881e-19
 7.059609119787264e-03 -1.269004424355435e-04  3.099839521039498e-19
7.142978741184336e-03 4.921914209160674e-04 2.789080714410574e-19
 7.103848893472356e-03 -4.884941664996563e-04  1.627913277214040e-19
6.959710810449289e-03 1.924485025602716e-04 3.231449019666523e-19
 6.983287801287103e-03 -2.723836250818394e-04  2.877968492360845e-19
6.939304662639392e-03 9.356147389967072e-05 2.931908503545502e-19
 6.971335529095158e-03 -3.840555662851628e-04  2.247595434956763e-19
6.931368453267953e-03 4.493642083112034e-05 2.840395174250712e-19
 6.929234868270986e-03 -7.510036304096736e-05  2.811787949144279e-19
6.908520666239291e-03 3.215382053402286e-05 2.793420788633545e-19
 6.904390989043481e-03 -1.014843109557419e-05  2.799155525318994e-19
 6.896992162811027e-03 -2.661904196351247e-06  2.764486002200783e-19
 6.893151757380399e-03 -2.660421986267465e-06  2.743768597862345e-19
 6.888745334946566e-03 -1.376388649060168e-05  2.715113239525136e-19
 6.890643588569011e-03 -5.510557166395604e-07  2.701091817333221e-19
 6.889658769836306e-03 -3.226308322621579e-05  2.715468084266021e-19
 6.884068122077015e-03 -1.828726819232094e-05  2.675447871479454e-19
 6.880745566769441e-03 -2.792234118751702e-05  2.602583270017727e-19
6.881357373036264e-03 4.723127372473713e-05 2.534450443278848e-19
 6.874982116777539e-03 -6.935861042664621e-05  2.536775035413035e-19
 6.856919244635840e-03 -1.406901441139303e-05  2.479623609255096e-19
 6.857682284474170e-03 -1.407058001514291e-05  2.431983517215519e-19
 6.856257575723492e-03 -1.406765680032437e-05  2.384629154095668e-19
 6.868786222934696e-03 -2.290783715388404e-05  2.340197162650729e-19
6.841251193891172e-03 7.148659879385448e-05 2.267451625916510e-19
6.822682461321511e-03 4.328596482315293e-05 2.249439473698600e-19
 6.914090538440639e-03 -2.266248988929266e-04  1.858590200917049e-19
 6.894975128816523e-03 -9.379563064513352e-05  2.235890244042622e-19
6.895889964321447e-03 1.824078737350001e-04 1.314891831822444e-19
6.845079719985003e-03 6.228052924404459e-06 1.756604653739511e-19
6.862560172736557e-03 9.476175598219564e-05 1.661491546766095e-19
6.809794013747015e-03 1.486723093718652e-04 1.121853864497733e-19
6.733883796540598e-03 1.470150276282156e-04 8.729783609367057e-20
6.463066994471580e-03 2.251752905055681e-04 4.446787037855692e-20
2.712436500642073e-03 6.635088384202932e-03 5.679687108767637e-19
 6.632198361407869e-03 -6.479490507789381e-04 -2.539549622295992e-20
 6.850044378358493e-03  3.454431704580232e-04 -1.247519714045556e-20
 6.883790022881318e-03 -7.996019602676400e-04 -4.759894920345328e-20
 6.760486219212040e-03 -3.257550197206560e-05 -1.416475645271527e-19
 6.822942283111099e-03 -8.482249942859570e-05 -2.340554233651476e-19
 6.851066426475577e-03 -8.517213746384158e-05 -3.218407120513104e-19
 6.927242149039775e-03 -1.207732336813317e-04 -4.220980785912856e-19
 6.955367822018764e-03 -5.712949521489439e-04 -6.694429085705181e-19
 7.029165771425949e-03 -1.732070331280348e-05 -7.643554138603092e-19
 7.026828296246401e-03 -1.731494349500965e-05 -1.030573677423505e-18
 7.004289478178260e-03  1.282195522320126e-04 -1.359404727424337e-18
 6.961688188450155e-03 -1.460433303156153e-04 -1.854150366449300e-18
 7.013085088300067e-03 -2.784980408130706e-05 -3.008879475745538e-18
 6.972248889004396e-03  9.220799367600422e-06 -4.661356562766339e-18
 6.936805285860645e-03  9.173925201365658e-06 -6.760219072720930e-18
 6.905997868900110e-03  9.133182391499082e-06 -1.005801613828261e-17
 6.881834477915663e-03 -3.791263773254067e-07 -1.482653286028670e-17
 6.819633221363253e-03  1.328284742425398e-05 -2.196230980136072e-17
 6.892437059173581e-03  5.301506356179904e-04 -2.879701158786263e-17
 6.940118830116517e-03 -1.033904044577836e-04 -3.420165609241793e-17
 6.816413496832961e-03 -3.015729979514818e-04 -4.547219475565488e-17
 6.838906884533611e-03  8.235243087158815e-05 -6.477742177677806e-17
 6.932240732685623e-03  2.518695968169212e-04 -8.509385469968536e-17
 6.875369308488700e-03 -2.127671546650517e-06 -1.184800125704616e-16
 6.841143772526525e-03 -4.841085838989168e-05  2.505310053907523e-16
 6.838915234250975e-03 -2.129368462389618e-05 -6.519788598058364e-15
 6.885796403994443e-03 -2.949380326988115e-05  1.933070618113610e-16
 6.890139342472247e-03 -2.951240529723752e-05 -1.262662055454092e-16
 6.880504936587082e-03 -2.142317855689487e-05 -6.550252794456991e-15
 6.897573176174347e-03  1.173376589696341e-05 -8.256599051835140e-17
 6.886502677380291e-03 -3.047504662568188e-05 -6.447232845369099e-17
 6.881326329511947e-03  2.156664114537332e-05 -4.625729793479535e-17
 6.873400805435940e-03 -1.104326012886024e-05 -2.763575910632592e-17
 6.877035342842393e-03 -1.104909961693371e-05 -1.730856020075533e-17
 6.882832998680588e-03  3.127017364593369e-06 -1.086201136565091e-17
 6.886665799811264e-03  3.128758687634760e-06 -6.887653181852780e-18
 6.885046439985056e-03  3.128022978037120e-06 -4.516664981078860e-18
 6.880666677191225e-03  8.322664522731746e-05 -3.215959415701313e-18
 6.829221611424110e-03 -5.482509766548103e-05 -2.153778871812335e-18
 6.889063169120724e-03  4.192464413619189e-04 -1.674486719463565e-18
 6.982556487407290e-03 -6.481080621825653e-04 -1.325969708321799e-18
 7.026553072341778e-03 -1.294739448677744e-04 -1.047032722800866e-18
 7.016717434600542e-03  2.078232901223566e-04 -7.714567370661909e-19
 6.853220849525595e-03  1.068809695200392e-03 -6.233130928406190e-19
 6.818391598677326e-03 -2.739857737539194e-04 -4.765852757441435e-19
 6.443975145976082e-03 -6.842562937143264e-04 -3.546128142936740e-19
 6.795861319073652e-03  5.337084390229206e-04 -2.949209230257911e-19
 6.796220876889647e-03  7.251582337752199e-05 -2.024846699890391e-19
 6.756132962629441e-03  7.208808446751225e-05 -1.189164417624175e-19
 6.775575696457364e-03  7.229553885691211e-05 -5.208376326971099e-20
 6.733453330517072e-03  1.138449314295965e-04 -9.419983322478986e-21
6.594160675210206e-03 2.028756809921507e-04 1.978807854245085e-20
6.604171970366589e-03 3.417475629408054e-04 3.787701554320363e-20
 6.307764885702827e-03 -3.648522075574240e-03  7.497706991869338e-20
 6.435630281224537e-03 -5.370049162381355e-04  6.754868914900905e-20
6.506278615377758e-03 1.158801741247808e-03 5.713731555093145e-20
 6.820361471070497e-03 -3.975001063861333e-04  1.193517910836812e-19
6.854071082750160e-03 5.504645859770343e-05 1.432814564571675e-19
 6.802589671358278e-03 -4.856965140232450e-04  1.631316035287116e-19
6.840839087544781e-03 1.804284690464287e-04 1.692029665231032e-19
 6.851256570822660e-03 -2.131134032123619e-04  1.915181955718221e-19
6.872892302371322e-03 4.316032927390619e-04 1.907663566166255e-19
 6.916276777672412e-03 -5.669900537619802e-04  2.045624470879769e-19
6.842102526634745e-03 2.703764636051543e-05 2.098716176290519e-19
 6.944669015831208e-03 -2.357211220264702e-05  2.205593929097701e-19
 6.762875121267731e-03 -2.295505384167435e-05  2.216591480929726e-19
6.121782584487611e-03 3.465402762392543e-03 1.473788046470404e-19
 6.934869464405055e-03 -2.977213144996098e-04  2.299663496332286e-19
 6.829763179259121e-03 -1.190925530306471e-05  2.362861523127293e-19
 6.901199936388513e-03 -1.203382163960482e-05  2.425844070048764e-19
 6.801718014010614e-03 -2.387703792229271e-04  2.422593739891345e-19
6.820311932478345e-03 9.997604657119591e-05 2.436530041613918e-19
6.785407759573317e-03 7.393475064670845e-05 2.440589335152261e-19
 6.851256984116779e-03 -1.744182670034541e-04  2.539861395938821e-19
 6.793982883597816e-03 -8.328449332975554e-05  2.555772805729160e-19
6.824502014657669e-03 8.331177327596380e-05 2.580842004851565e-19
6.847099606642511e-03 1.484980465902153e-04 2.625235568237377e-19
 6.810195916286985e-03 -1.702802325646163e-04  2.631079253538639e-19
6.784726799077287e-03 1.118532969293346e-04 2.573678492604655e-19
 6.781738880891658e-03 -6.122859385520482e-05  2.637948782683068e-19
6.826754273629367e-03 2.393034088939975e-04 2.685971609647042e-19
 6.845186468858236e-03 -1.059010678732800e-04  2.681637098398820e-19
6.830468051297884e-03 1.078028294864000e-04 2.691724861311354e-19
 6.836586944752250e-03 -1.623692062367641e-04  2.741030682529052e-19
6.811913253067491e-03 8.399267688332114e-05 2.716091814903085e-19
 6.817673151327148e-03 -4.478370115549928e-05  2.742822040170644e-19
6.818253636044797e-03 1.241386491784165e-04 2.771247693400093e-19
 6.837129289820575e-03 -1.931255344842033e-05  2.763586719905279e-19
6.809875867638146e-03 7.428112131214708e-05 2.773157605841903e-19
6.819064601793424e-03 3.957647245109075e-05 2.780728862420952e-19
6.790254699594992e-03 3.940926560275337e-05 2.786468130991000e-19
6.888157213300895e-03 2.471127939808661e-04 2.842077006494698e-19
 6.780908203242307e-03 -3.212035670170650e-04  2.882581738107234e-19
6.808945206323927e-03 2.311508723248901e-04 2.831181284045335e-19
 6.793142687916503e-03 -3.251516521778486e-04  2.754729043066769e-19
6.859583923950509e-03 3.684417727310099e-04 2.830436934966155e-19
 6.731483716183873e-03 -1.233305525301779e-03  2.443694784633911e-19
6.800531346512782e-03 3.529075758025308e-04 2.728695978992694e-19
 6.563423559975359e-03 -7.723477421685344e-04  2.693342196455621e-19
6.647941216945486e-03 6.537383695795376e-04 2.980433014241763e-19
 6.733884192022675e-03 -2.084108134724805e-04  2.896689149954757e-19
6.818552257458065e-03 1.017640463835557e-03 2.692311019818889e-19
 6.874292433184431e-03 -4.915993183891953e-04  2.960374922350895e-19
6.739149989893893e-03 5.612636256252423e-04 2.780115992334922e-19
 6.664332936599256e-03 -3.991029486940374e-04  2.828247578159041e-19
6.556447217851992e-03 8.257851049008525e-04 2.437722200872885e-19
 6.716901862321482e-03 -9.411980609066654e-05  2.848701323741103e-19
6.691129428510884e-03 6.962437758610260e-04 2.549628029492440e-19
 6.689521669511586e-03 -1.747926589998698e-04  2.862077578256591e-19
6.611851501602370e-03 6.032621550293157e-04 3.041476248867916e-19
 6.726974887121650e-03 -8.602120239654142e-05  2.842028753958560e-19
6.762031818902080e-03 1.518626240874592e-04 2.867126159709737e-19
 6.566410945910796e-03 -6.789025445076889e-04  2.787403260257570e-19
6.491489872813520e-03 3.128886400108731e-04 2.677644968598085e-19
6.784721346982465e-03 3.978106735719651e-04 2.993802766174836e-19
 6.752219034664310e-03 -2.723195338291371e-04  2.794671262079802e-19
 6.574677658541904e-03 -9.031426874649585e-06  2.857837652194628e-19
 6.570423163101399e-03 -1.976281625228971e-05  2.869585394627244e-19
6.701345747278373e-03 2.061823632840272e-04 2.936281781514029e-19
 6.680316215607168e-03 -2.984739143683283e-04  2.866951851709507e-19
6.631090502753386e-03 1.236427721482499e-04 2.887050316749880e-19
 6.758428970903787e-03 -1.047971910015004e-04  2.938437870200570e-19
 6.697589074104253e-03 -2.612081263451576e-05  2.917483334513417e-19
 6.744884709694205e-03 -2.630526713329235e-05  2.936291110792281e-19
 6.774967108327567e-03 -7.146793049799373e-05  2.969103272505668e-19
6.786457144697180e-03 5.299817157311110e-05 2.980839860880894e-19
 6.750639295208628e-03 -3.669929327381724e-05  2.954558165958363e-19
6.806486970675805e-03 1.882304328943169e-04 2.919270238181189e-19
 6.752655485088293e-03 -1.062689169019399e-04  3.011318115059674e-19
6.740518734195532e-03 3.639727915214778e-04 2.954451407182993e-19
 6.758888264825604e-03 -3.773573886763882e-05  2.977680003273826e-19
6.694544985591912e-03 3.259352865453141e-04 2.961370682127742e-19
6.691356994157619e-03 3.030735373641256e-05 2.942698234799463e-19
6.563642031020442e-03 2.309291925789723e-04 2.857745816559884e-19
6.590088761085321e-03 2.009344579037661e-04 2.865364304047723e-19
6.538857393994499e-03 1.366177765970868e-04 2.854215442384778e-19
 6.725064920430661e-03 -1.047258192673389e-04  2.946977807592693e-19
 6.513799848650768e-03 -1.673597618846049e-04  2.835255160005834e-19
 6.600635106494032e-03 -3.571440523382666e-05  2.932810006827073e-19
 6.636379559018211e-03 -1.778523284662307e-04  2.953033041364251e-19
6.674234695464721e-03 2.731657656777299e-05 2.965707807046548e-19
 6.681900522955178e-03 -1.649491662169961e-04  2.984889835908154e-19
6.723094828862221e-03 8.589425719948601e-05 2.970789865490309e-19
 6.715235374629604e-03 -1.908811635071932e-04  3.043053359777286e-19
6.708400276643771e-03 1.240452703728303e-04 3.034304797057792e-19
 6.742828431847227e-03 -1.317988576431877e-04  2.985946372527190e-19
6.748615475216424e-03 1.822228930623416e-04 2.971470753052993e-19
 6.786483469988024e-03 -1.308816150146245e-04  2.990301430125357e-19
 6.774057149679558e-03 -2.554657257645626e-05  3.008368402434531e-19
 6.775241512612701e-03 -2.555103908935389e-05  3.008280930178995e-19
 6.751902815259970e-03 -1.382462956024805e-05  3.008046606750155e-19
6.795842832108320e-03 3.503995855137372e-05 3.002749156712921e-19
 6.671884923866913e-03 -2.438417918712922e-04  3.005647965029020e-19
6.735460894062387e-03 1.841079764060174e-04 2.936938234024729e-19
 6.739065004292154e-03 -2.239035716301940e-04  2.999067536289880e-19
6.683101617558633e-03 1.266907707960903e-04 2.977203618067266e-19
 6.626724567272045e-03 -1.801651279107868e-04  2.981827318451381e-19
6.600365468023981e-03 1.733747942031019e-04 2.947028459649384e-19
 6.922139743534490e-03 -3.189415019219416e-04  3.090599238115421e-19
 6.587960230919091e-03 -2.909324576582145e-04  2.956553921677667e-19
6.672698661128801e-03 1.437802083089481e-05 2.997331452265884e-19
 6.664768088613942e-03 -5.346059952113184e-04  2.974679669128103e-19
 6.734180610230938e-03 -9.720499220416140e-06  3.014089083813726e-19
 6.681434053621455e-03 -5.797962725477086e-04  3.000057392712229e-19
6.757515831056049e-03 1.075284334286191e-04 3.044381185206805e-19
 6.756202937845885e-03 -5.531540295706552e-04  3.073943255121464e-19
6.712753817034166e-03 7.046812272327192e-05 2.994096196081712e-19
 6.831942670294556e-03 -2.736299980499869e-04  3.086617286545631e-19
 6.801415611430623e-03 -1.245991514535990e-04  3.078553166637761e-19
 6.824468216011198e-03 -1.250214657383940e-04  3.081648629536404e-19
 6.889923823457624e-03 -3.529683189729733e-05  3.096199013700889e-19
 6.850465333247505e-03 -2.162192535899775e-04  3.066580352615105e-19
6.856817051637329e-03 7.458410499076145e-06 3.082558080220825e-19
 6.791716840740066e-03 -3.317558824170768e-04  3.045265119966213e-19
6.905756087054168e-03 4.235528411189118e-04 3.125581087704623e-19
 6.848650938543498e-03 -4.587092895028706e-04  3.075808873781678e-19
6.862060886697991e-03 5.189518668824573e-04 3.015452497051123e-19
 6.888783431126609e-03 -3.903006219886200e-04  3.142375014988398e-19
6.976614972579286e-03 6.270328452980041e-04 3.076401921327749e-19
 6.893045824556351e-03 -6.270640705195372e-04  3.087117628113932e-19
6.798362499768624e-03 5.917220883013552e-04 2.952777338524836e-19
 6.908976538897401e-03 -3.485196547796787e-04  3.099025781324749e-19
6.977382267722139e-03 5.696493989530711e-04 3.179029193962548e-19
 6.942277787800848e-03 -5.786135069430231e-04  3.096199089740705e-19
6.860075234219734e-03 3.907929489524569e-04 3.065398288939490e-19
 6.976385064819137e-03 -3.220648411436445e-04  3.158887421636934e-19
6.902004517604820e-03 1.247096960581967e-04 3.125328694119796e-19
 6.881372488493977e-03 -1.058351226363001e-04  3.103264910675586e-19
6.905561769097067e-03 2.006302932287528e-05 3.128985162838941e-19
6.879846287265069e-03 7.034884601256684e-05 3.104646614557242e-19
 6.839308378286278e-03 -1.876060596704649e-04  3.116382836008689e-19
6.857045737459902e-03 1.808511161524238e-04 3.087083838204392e-19
 6.880579407532608e-03 -1.039636479102702e-04  3.134596537577388e-19
6.871067981380632e-03 2.139746079539710e-04 3.120480285221496e-19
 6.830268677735060e-03 -1.738817014574489e-04  3.107247351999792e-19
6.853635340053600e-03 3.488363137628097e-04 3.096354140705832e-19
 6.881439109812463e-03 -1.547429608691374e-04  3.141276277556989e-19
6.896014364636138e-03 4.972264938741711e-04 3.169059409643498e-19
 6.990822744969195e-03 -1.723439366631585e-04  3.183929659047729e-19
6.925303339296760e-03 4.336170513341481e-05 3.143870632932487e-19
 6.927200162379299e-03 -8.949488143328885e-05  3.145455424767548e-19
 6.979400133546641e-03 -9.016927081441473e-05  3.165301876529971e-19
7.031399092303256e-03 5.407891055379354e-05 3.172287433994158e-19
 7.022978315003357e-03 -2.825567994920719e-04  3.152776759445480e-19
7.078175662819877e-03 2.080615823818921e-04 3.187896682257446e-19
 6.990098532129955e-03 -7.376664563262024e-05  3.222151896971360e-19
6.450627530362981e-03 9.432372559131772e-04 3.022944306245430e-19
5.116850177752043e-03 8.303973314341097e-04 2.375121305699746e-19
8.148956290317014e-03 1.946753317230869e-03 3.490493730027255e-19
-1.391144554004207e-03 -6.366394133769290e-03 -2.492414179596461e-20
2.032830395886486e-03 2.708578078843121e-04 1.450478090175824e-19
 7.415480741473509e-03 -7.156129871715212e-04  3.402142972858918e-19
7.074710692694819e-03 2.268815045633702e-04 3.191090006430095e-19
 6.788200777247104e-03 -3.844770619065802e-04  3.065456573793206e-19
 6.752548595055418e-03 -2.830379549775648e-05  3.074960392417034e-19
 6.642471028172966e-03 -2.784239741996805e-05  3.023972004535166e-19
6.736266555473032e-03 1.769762836888822e-04 3.069284808656596e-19
 6.608482794088705e-03 -2.272549691100894e-04  3.040373434287528e-19
6.600909691462610e-03 3.359062720621950e-05 3.008053540323265e-19
 6.650598537155084e-03 -1.853109213823641e-04  3.056371363994873e-19
 6.666090862121788e-03 -3.561323488438280e-05  3.043092167976175e-19
 6.735381834411870e-03 -1.130816373829250e-04  3.052540210357879e-19
 6.784407067477976e-03 -3.259196623128073e-05  3.074847854003805e-19
 6.811738831017607e-03 -3.272326671273253e-05  3.086306595125325e-19
6.841129255119050e-03 1.996916136229050e-05 3.114516875178089e-19
 6.857146884525876e-03 -5.928330198144051e-05  3.105867703277383e-19
-6.858340261257340e-03  5.173427866162851e-04 -3.170761105225290e-19
-6.864943259085824e-03 -7.705596739076167e-05 -3.149944269838693e-19
-6.936492899552682e-03 -1.535529521630257e-05 -3.177251073545951e-19
-6.850374989032471e-03  3.350079979303891e-04 -3.176924956033358e-19
-6.952789346308283e-03  1.727172864537278e-04 -3.190290614264792e-19
-6.909882597492273e-03  1.716514211071833e-04 -3.177592300831536e-19
-6.955087213952054e-03  2.475662824831362e-04 -3.196702577123450e-19
-6.919484469747756e-03  9.902258538994546e-05 -3.182699224626401e-19
-6.898717819695456e-03  2.882713002181036e-04 -3.182707100722824e-19
-6.904345056878481e-03  1.857553320960579e-04 -3.178078185573014e-19
-6.897688063500342e-03  2.069959719822275e-04 -3.177910170008089e-19
-6.897568376307359e-03  2.069923802328446e-04 -3.176299954520887e-19
-6.891028311518233e-03  1.947750432990659e-04 -3.174434792593395e-19
-6.884977966729070e-03  2.080187468932901e-04 -3.170997584946738e-19
-6.885094788271126e-03  1.588879583740516e-04 -3.168471106073089e-19
-6.862387510990355e-03  1.691324815643828e-04 -3.161970678511661e-19
-6.845535146210812e-03  1.969651896534682e-04 -3.156841043662673e-19
-6.865357521676400e-03  1.835036397407804e-04 -3.159682517531153e-19
-6.856502275529501e-03  1.360137633657060e-04 -3.153338485474861e-19
-6.831396361096411e-03  1.359892432354543e-04 -3.145821746298243e-19
-6.835587024939738e-03  1.360726647168887e-04 -3.145470768487320e-19
-6.800990348135942e-03  4.782438725711292e-05 -3.135208948305320e-19
-6.791610285372308e-03  1.901011338554304e-04 -3.128772728584015e-19
-6.769132432526500e-03  7.090077910406078e-06 -3.114439911362187e-19
-6.907597934250602e-03  5.538675687818464e-04 -3.171943185709406e-19
-6.865034490967098e-03 -2.126985849162222e-04 -3.141969667340203e-19
-6.864341748440014e-03  2.135501836101984e-04 -3.155638793361597e-19
-6.820161757908094e-03 -3.880653138510186e-04 -3.123381410039360e-19
-6.809298878485910e-03  2.497487377791988e-04 -3.128090342010141e-19
-6.559663735984681e-03 -8.213854553668189e-04 -3.008880684494604e-19
-6.680575151581569e-03  9.848821937265980e-04 -3.122738824660106e-19
-6.914187821869919e-03 -5.259983598485404e-04 -3.148544620597783e-19
-6.876671644588180e-03  6.727828373345229e-04 -3.169699100886677e-19
-6.905005974064432e-03 -5.721038498187921e-04 -3.132299809727248e-19
-6.926552918728747e-03  5.648562831655708e-04 -3.191847938670413e-19
-6.879651828831714e-03 -8.323689691125950e-04 -3.122086552863290e-19
-6.773737914189950e-03  8.447260976493311e-04 -3.141575207463801e-19
-7.017148124179682e-03 -3.558335288842454e-04 -3.187205492166876e-19
-6.879376797444108e-03  2.396007719807336e-04 -3.161402096284094e-19
-6.969258989456226e-03 -1.243431614113949e-04 -3.169950538803856e-19
-6.886578233310390e-03 -4.226923206379589e-06 -3.199108098029603e-19
-6.898350118659532e-03 -4.234148689584649e-06 -3.197519769170488e-19
-6.903932657839565e-03 -8.844541087099278e-05 -2.092879715991658e-19
-6.941984018362376e-03  4.572380450264709e-05 -5.364266773564131e-19
-6.914043683441616e-03 -2.201831465618313e-04 -3.377479932195102e-19
-6.966510592488171e-03  8.704872796134024e-05 -3.166084873216100e-19
-7.049099432074366e-03 -3.166135667441283e-04 -3.223530327459001e-19
-6.916470872887765e-03  8.813763542784439e-04 -3.129824098004704e-19
-6.857541396437108e-03 -3.124775906835366e-04 -3.117108819248716e-19
-6.938668942063658e-03  3.199017685588524e-04 -3.176059127435804e-19
-7.043161942660395e-03 -1.199499012397461e-04 -3.189534299083277e-19
-6.939297119058331e-03  9.805072888815988e-05 -3.166521433072922e-19
-6.951320680745150e-03 -3.538812260177297e-07 -3.161801916909842e-19
-6.923832736617635e-03 -3.524818563417635e-07 -3.152187242941279e-19
-6.928839992387679e-03 -2.888865387278537e-05 -3.152418487529587e-19
-6.955285556005835e-03 -3.260101088345659e-05 -3.161243134597349e-19
-7.004242954637713e-03 -3.142738834168338e-05 -3.175246540104888e-19
-7.040635654286989e-03 -1.753334874219859e-04 -3.191616226910247e-19
-7.024607029356481e-03 -6.447937832066698e-06 -3.199273306204609e-19
-6.953613568649318e-03 -3.706892742476012e-04 -3.163158751518500e-19
-6.945510472096321e-03  9.776364979959184e-05 -3.178036085502746e-19
-7.050846435797612e-03  3.854829335827204e-04 -3.208054149312677e-19
-7.073333849827482e-03  2.977739188355362e-05 -3.198680301380871e-19
-6.989835669199017e-03  1.520635407499000e-04 -3.167603058781099e-19
-6.945833829302235e-03 -7.164265152036151e-04 -3.123801081242218e-19
-6.908497301522927e-03  1.055838330506858e-04 -3.147172975662844e-19
-6.940108345563162e-03  1.060669504423313e-04 -3.154235558544267e-19
-6.905092592513141e-03  1.148500042508916e-04 -3.139357186897721e-19
-6.866114283767360e-03  1.142016915939405e-04 -3.123099115098827e-19
-6.849859735789413e-03  9.270830028023058e-05 -3.110838976888641e-19
-6.859381957272644e-03 -4.077873350091174e-06 -3.109965383886885e-19
-6.875050710430124e-03 -4.087188357088603e-06 -3.119998900222960e-19
-6.926519852358366e-03  6.528105126502697e-05 -3.129926983667179e-19
-6.945593421177344e-03 -2.065846793339524e-04 -3.127910874251548e-19
-6.932116125776443e-03  9.307117212574891e-06 -3.137833070760473e-19
-6.953079166894257e-03  9.335262367283145e-06 -3.135079197767288e-19
-6.922255991616605e-03 -4.440744879613974e-05 -3.117874889549820e-19
-6.937280434366895e-03 -3.893542846388314e-06 -3.120634498091678e-19
-6.923148771324751e-03 -9.217609753270683e-05 -3.114211408533824e-19
-6.941914440878902e-03  1.933922496217324e-04 -3.114800555452120e-19
-6.905912762486022e-03 -3.181872265992933e-04 -3.088779456152933e-19
-6.883075976101240e-03  1.505903920604380e-04 -3.105814773724001e-19
-6.955553665818956e-03 -9.305324247492652e-05 -3.108834873398313e-19
-6.883819290847831e-03  1.616344365594969e-05 -3.088918214212085e-19
-6.882980513705615e-03  1.616147417846846e-05 -3.081930862629295e-19
-6.883351825265251e-03 -3.901419694249044e-05 -3.078095529144690e-19
-6.901681807164143e-03  4.926155294494199e-05 -3.084386728854947e-19
-6.885430638492245e-03 -6.200359941723012e-05 -3.073368182690518e-19
-6.880026452192850e-03  8.774979701674214e-05 -3.073410602536692e-19
-6.908339283382614e-03 -4.760622921258665e-05 -3.073139198188415e-19
-6.881465587731637e-03  5.898509337054301e-05 -3.067720056840174e-19
-6.867425138751701e-03 -4.719667948939089e-05 -3.060764683621034e-19
-6.869449707801886e-03  7.022112286186309e-05 -3.063979647414176e-19
-6.894801768744397e-03 -2.401037616749013e-06 -3.064204221563870e-19
-6.873403763914223e-03  5.661735709644814e-06 -3.054884905200554e-19
-6.875880546638457e-03  5.663775876304080e-06 -3.055535273041645e-19
-6.853347310867266e-03  5.777941608342353e-05 -3.042778261241382e-19
-6.871753985014799e-03  4.804358541277588e-05 -3.037063205845434e-19
-6.853544670032649e-03 -1.248634545828107e-04 -3.027495304395912e-19
-6.862456017540362e-03  2.794146437673344e-05 -3.034789131529906e-19
-6.831344126424312e-03 -3.021543302787484e-06 -3.016765252230446e-19
-6.858913649958030e-03  9.892714562694291e-05 -3.022296922636560e-19
-6.872455302508013e-03 -9.989458848201961e-05 -3.015927568077752e-19
-6.838395847363342e-03 -3.409068496959272e-06 -3.009785178306663e-19
-6.863718275456838e-03 -3.421692201963619e-06 -3.014171067452072e-19
-6.867951747334746e-03 -1.052077285969178e-07 -3.008573660493734e-19
-6.867825882045231e-03  3.520377480648093e-06 -2.999891248167445e-19
-6.865063685669150e-03  2.522310765455525e-06 -2.989509001151523e-19
-6.866783959569809e-03  1.003956717815006e-05 -2.983578513153456e-19
-6.866127018224341e-03 -3.291571269365020e-06 -2.978206402391449e-19
-6.860762787423905e-03  1.416948761093589e-06 -2.970847557878114e-19
-6.864639934315704e-03  1.417749505654382e-06 -2.966778388725313e-19
-6.866142286741598e-03 -7.881149516344855e-06 -2.960723483722980e-19
-6.866561648133611e-03  1.816675072421720e-05 -2.956505135583684e-19
-6.862584775138670e-03  6.104294819737211e-06 -2.946111849245320e-19
-6.847290166077234e-03  6.090690207783732e-06 -2.935388626057647e-19
-6.853245283977035e-03  6.094618636364141e-05 -2.930180088812956e-19
-6.833996652714112e-03 -2.873706810135417e-05 -2.911107099035963e-19
-6.859960987928734e-03  1.059473516839866e-04 -2.916203903063516e-19
-6.826763637710032e-03 -9.936289672884836e-05 -2.888975503516397e-19
-6.874052917793471e-03  2.403077262178437e-04 -2.913042090914567e-19
-6.843122987456693e-03 -1.849737436429527e-04 -2.874944768381448e-19
-6.838520363397295e-03  2.810429247134219e-04 -2.878212731996298e-19
-6.842929341908392e-03 -3.807790150518796e-04 -2.834156188956871e-19
-6.818214733396358e-03  1.554676548917798e-04 -2.848862334498547e-19
-6.747049338077397e-03 -2.970742811608563e-04 -2.773845911967285e-19
-6.722001351856129e-03  3.347329859538086e-04 -2.812403941143262e-19
-6.794214128007265e-03 -1.684413926015472e-04 -2.778445444073939e-19
-6.064633325020725e-03 -1.503537073807029e-04 -2.529426353708166e-19
-8.096561642577309e-03  2.006259358845121e-03 -2.979054170999785e-19
-1.143980498213743e-05 -7.926063430997228e-03  2.706290346267835e-20
-7.066137377787322e-03  1.342000190308299e-03 -3.298847357284765e-19
-7.787950570011554e-03  2.520517778746563e-03 -3.118376985700047e-19
-7.002802049756886e-03  1.171685184761250e-04 -2.695242540491920e-19
-6.626169251704394e-03  1.108668257188865e-04 -2.617780922984725e-19
-6.706363509231742e-03 -2.630918651356645e-05 -2.614326630583358e-19
-6.788735095663072e-03  1.352674050967090e-04 -2.630393631886664e-19
-6.786803679024699e-03 -1.086660445420620e-04 -2.586314624346597e-19
-6.803945365788332e-03  9.178504874186164e-05 -2.591123010815423e-19
-6.853988555773152e-03 -8.981134839081865e-05 -2.570840315303703e-19
-6.864720278378682e-03 -2.362908482385247e-05 -2.543598885687399e-19
-6.877486645366266e-03 -4.983099444454563e-05 -2.501732721413299e-19
-6.885225853842969e-03 -4.988706906518737e-05 -2.467690565228663e-19
-6.895220126866620e-03 -7.876533124462842e-06 -2.417426060632020e-19
-6.881952326049489e-03 -8.824435180774119e-05 -2.354151276642163e-19
-6.902217381302214e-03  8.322287557276622e-05 -2.327574025600395e-19
-6.884123734208503e-03 -1.274431193935972e-04 -2.246614226404932e-19
-6.870080035513787e-03  1.971713233537123e-04 -2.214045277014304e-19
-6.858828625604314e-03 -9.743377225077139e-05 -2.088039985978714e-19
-6.895113623457352e-03  6.133653611607566e-04 -2.115582910604341e-19
-6.958345711679069e-03 -1.277283278080878e-04 -1.980062348357808e-19
-6.894656080121905e-03  2.678180332311832e-04 -1.931512514086805e-19
-6.969644385662000e-03  8.151460173568776e-05 -1.834983061307495e-19
-6.927995307837588e-03  8.102748821831804e-05 -1.705391519999400e-19
-6.867832273967459e-03 -1.520748342664291e-05 -1.565483123116257e-19
-6.918828508250537e-03  3.114452021090952e-04 -1.489710339585582e-19
-6.761278433230775e-03 -3.554937380167525e-04 -1.220277474951442e-19
-6.761108201049800e-03  5.524496598435104e-04 -1.270845530154049e-19
-6.835179119238547e-03 -1.552234803986802e-04 -9.884987361205679e-20
-6.861958755760583e-03  7.882132300562322e-04 -9.758075857206073e-20
-6.858284920588480e-03 -2.753406254692365e-04 -5.808596537970083e-20
-6.759438507473615e-03  6.076092328652094e-04 -4.672951179304196e-20
-6.739773780775377e-03 -2.279661780325363e-04  5.548986652654133e-21
-6.652797464542586e-03  1.764574364697708e-03 -2.032312983749185e-20
-6.929655422628855e-03 -3.211742787609390e-04  4.948300599356557e-20
-6.849295231535811e-03  4.857008387671851e-04  8.936961202514388e-20
-6.884801274697015e-03 -4.299920938386012e-04  1.795635943321631e-19
-6.984597445244474e-03  2.867367473500934e-04  2.604424197605739e-19
-6.562179608327122e-03 -7.735742314583028e-04  3.921586729008244e-19
-6.738513566534075e-03  8.425722560296507e-04  3.966286003804688e-19
-6.792879119460659e-03 -5.388093801845639e-04  5.664955849875063e-19
-6.694661088699541e-03  9.164638010900288e-04  6.553678805638953e-19
-6.824551479117588e-03 -3.997608444307986e-04  8.201376434797211e-19
-6.802855515725036e-03  7.510769435563053e-04  1.304246687038971e-18
-6.781637460557036e-03 -7.426597181857277e-04  1.778806901430756e-18
-6.728174259789975e-03  3.873991893359476e-04  2.386774267181520e-18
-6.558522965991238e-03 -2.470465831135719e-04  3.337940572727111e-18
-6.570207699608147e-03  1.404441424979411e-03  4.054562015343164e-18
-6.817947962135557e-03 -3.850226259305570e-04  5.069201287608904e-18
-6.729708279577299e-03 -3.112431787113559e-05  6.743904852338775e-18
-6.776894943511091e-03 -3.134255210455856e-05  9.847475005190239e-18
-6.787357308887068e-03 -1.364076082121503e-04  1.358233031234670e-17
-6.788591369943958e-03 -8.709956947025314e-05  2.028564230651782e-17
-6.817783029909816e-03  5.423851931185311e-05  2.663898012190968e-17
-6.820630933682152e-03 -1.026809492430018e-04  3.887794125764609e-17
-6.838417800685738e-03 -7.928752335385593e-05  7.295912537603527e-17
-6.845030047162293e-03 -8.032753197628890e-05  1.363992758704965e-16
-6.848961828146461e-03 -8.037367206048919e-05  1.295490741231078e-16
-6.854573475417312e-03 -5.615405819139278e-05 -1.250617422833538e-15
-6.862979993141363e-03 -8.146776638059731e-05  6.250849465313789e-15
-6.845145992216310e-03 -4.740062835940646e-05  7.041785757243225e-18
-6.843664940764359e-03 -8.123848490548011e-05  6.541894098185715e-15
-6.841485114658810e-03 -1.110587020890453e-04  1.387596506614575e-16
-6.886917474005151e-03  6.243678266704162e-05  8.911769894161183e-17
-6.884798822165912e-03 -1.576664347396159e-04  6.905896317811483e-17
-6.871068946697318e-03 -1.272025472088334e-05  4.459010140490610e-17
-6.859596422775672e-03 -1.853387368200747e-04  3.216938206731620e-17
-6.843104797113420e-03 -6.859851196831111e-06  2.449060805597467e-17
-6.858490417980160e-03 -6.605181731184644e-05  1.552626861880445e-17
-6.858723718745845e-03 -1.192696541609229e-04  9.753255636025142e-18
-6.865277982516811e-03 -2.797574099237020e-06  6.715304932675979e-18
-6.859955047897293e-03 -2.177855059837236e-04  4.741670026038919e-18
-6.938348275450567e-03  1.524596907184795e-04  3.376761577700884e-18
-6.836120506572092e-03 -5.307964886831904e-04  3.107942080395546e-18
-6.867459096143120e-03  1.944470594801985e-04  2.359755281507333e-18
-6.874079718710059e-03 -4.991530601093549e-04  2.160708956737447e-18
-6.931805382418398e-03  1.579184619132646e-04  1.558785997933183e-18
-6.906073579420891e-03 -6.712456866039703e-04  1.494367965382749e-18
-6.936636256710073e-03  1.150549941451926e-04  1.069090390108749e-18
-6.909985583429996e-03 -7.137584601653988e-04  1.014052530323584e-18
-6.962326394857317e-03  1.249130250800784e-04  6.975231269569845e-19
-6.922638217629004e-03 -7.647963099954365e-04  7.109402494997456e-19
-6.938841555384783e-03  1.199451904449002e-04  4.807132703438268e-19
-6.973860916261554e-03 -5.992988150038722e-04  4.704272946398359e-19
-6.974549428765093e-03  6.024453675866485e-05  3.038000310123621e-19
-7.086035280662995e-03 -4.293677935901011e-04  2.520981847030411e-19
-7.324938618470889e-03 -2.917274251337839e-04  1.304453187293879e-19
-7.642616806968356e-03 -7.683497165949286e-04  6.492682117369585e-20
-6.703204194108161e-03 -3.299373649659642e-04  2.316860815692919e-20
-7.519282891000340e-03  1.001010886295549e-03 -1.730321558229014e-21
-7.261529591125876e-03 -3.306697912300207e-04 -4.369110931260774e-20
-7.053908532307829e-03  9.282239525404754e-04 -1.505427355652153e-19
-6.848850271683248e-03 -5.499173232741010e-04 -5.948341926196641e-20
-6.668910182433761e-03  1.664718534916521e-03 -2.732495555046399e-20
-7.083022866636106e-03 -4.103808594269749e-04 -1.148151766174493e-19
-6.953207040322463e-03  5.667039542449061e-04 -1.573887987221742e-19
-6.841609512165722e-03 -5.075184654381383e-04 -1.233170871956392e-19
-6.487031465498373e-03  1.815440770048088e-03 -1.506232116195886e-19
-7.021284140563577e-03 -1.929493693843696e-04 -1.625650220998403e-19
-6.936542509235860e-03  3.617351278199418e-04 -1.695615170956311e-19
-7.032482396679429e-03 -4.615106315330643e-05 -1.833739310789637e-19
-6.908074484302210e-03  1.058842734940138e-04 -1.937101359838630e-19
-6.923281320377276e-03  1.061173579509938e-04 -2.030221232871323e-19
-6.927136079321344e-03  8.545991217932484e-05 -2.090030454609248e-19
-6.909174469095208e-03  8.343093155355420e-05 -2.039761785184461e-19
-6.909364186593493e-03  1.235734899588135e-04 -2.220256374427605e-19
-6.897175187275582e-03  8.321690972235142e-05 -2.192056189641050e-19
-6.883034713236314e-03  1.480965426310201e-04 -2.216022668294906e-19
-6.880901085293869e-03  1.035590371485448e-04 -2.302509991420438e-19
-6.861021518158185e-03  1.146372469345513e-04 -2.363305059026348e-19
-6.866934301138823e-03  1.147360405560009e-04 -2.414991985480123e-19
-6.861928325119492e-03  9.192268362430204e-05 -2.448679336221852e-19
-6.868756826941914e-03  1.926101724451424e-04 -2.499682722353025e-19
-6.871209566671068e-03  9.802688819800574e-05 -2.506641727666543e-19
-6.860999241361724e-03  1.738235833085268e-04 -2.583226531324179e-19
-6.856871164715984e-03  1.338802054121078e-04 -2.649569374789273e-19
-6.849562240282522e-03  1.637643391307979e-04 -2.631241160640615e-19
-6.847878948300686e-03  1.444582428846919e-04 -2.685122040710996e-19
-6.860229705095911e-03  1.447187861329595e-04 -2.712069761920522e-19
-6.814974101375185e-03  1.042303705376390e-04 -2.719872035498155e-19
-6.793956429493516e-03  2.783596285832636e-04 -2.744758692059301e-19
-6.770047621365826e-03  2.988054444772195e-05 -2.719613551205256e-19
-6.741502382113018e-03  3.605417338976801e-04 -2.762990510044411e-19
-6.797977614088717e-03  9.503224691240474e-05 -2.768067672747928e-19
-6.832100649514156e-03  9.550926947882663e-05 -2.787519618598695e-19
-6.751488766104424e-03 -2.746152511966021e-04 -2.775836853751538e-19
-6.673123517179956e-03  5.600453077532881e-04 -2.888491134402140e-19
-6.960020871401627e-03  1.603861285216905e-04 -2.851332289303418e-19
-6.744635304255446e-03 -1.469898894901867e-04 -2.780217271380221e-19
-6.706887638586823e-03  9.685648244422847e-05 -2.799038201794021e-19
-6.788441241599544e-03 -3.908693309837753e-05 -2.828785168505126e-19
-6.787470491247224e-03  1.506896772756294e-05 -2.842923489879320e-19
-6.787217073611194e-03 -1.103464206756608e-04 -2.837337544803514e-19
-6.788190622861724e-03 -8.658666324645214e-06 -2.847658361136034e-19
-6.817958109879380e-03 -7.705866199568916e-05 -2.867941362807649e-19
-6.832295631010446e-03 -7.722070907443173e-05 -2.885580258787088e-19
-6.843544479179769e-03 -3.534061295631077e-05 -2.900204088444669e-19
-6.851583286940117e-03 -6.780467142724592e-05 -2.907505237860934e-19
-6.862578018043765e-03 -1.428955057539252e-04 -2.925140049544796e-19
-6.804515666394713e-03  1.920163675844192e-05 -2.923477821649029e-19
-6.910982821678144e-03  4.712981795331481e-05 -2.955787871879319e-19
-6.911225907180628e-03 -1.496436905819536e-04 -2.943492461587151e-19
-6.892938414179670e-03 -3.835477825303434e-04 -2.969213261042136e-19
-6.881699879078477e-03  3.038139065323524e-04 -3.009202792848526e-19
-6.920797641015135e-03 -9.080609698759859e-06 -2.985428373828318e-19
-6.828219064493413e-03 -8.959139607671162e-06 -2.955253911751810e-19
-6.839124729026573e-03 -2.221114596415613e-04 -2.959164694928998e-19
-6.940297365584146e-03  5.927809521084920e-05 -3.012721471270678e-19
-6.942744700137447e-03 -3.251377419552684e-04 -2.998583988602781e-19
-7.130526111327475e-03  3.640297797844250e-04 -3.107350283674467e-19
-7.090167892741450e-03 -5.942300929536856e-04 -3.073450313181749e-19
-6.751127316521529e-03  1.375445159385625e-03 -3.110692285892660e-19
-7.022047330570803e-03 -2.431439660673947e-04 -3.079351100461695e-19
-7.011020966854306e-03  6.228998688440609e-04 -3.110350905235667e-19
-7.149179940333809e-03 -5.776743947162668e-05 -3.115118929128953e-19
-7.053320408323458e-03  2.687849950448447e-04 -3.085542502522936e-19
-7.073734194627925e-03 -8.137975204978433e-05 -3.084607460819142e-19
-6.962784055720639e-03  8.132326736533275e-05 -3.065019835663442e-19
-6.936790672791720e-03  8.101967230727234e-05 -3.061277586739597e-19
-6.861069725271071e-03  1.871022859237286e-04 -3.045687622154858e-19
-6.888810296757514e-03 -5.564471039463448e-05 -3.047474868375985e-19
-6.903898926237450e-03  3.001300848234126e-04 -3.091045950006371e-19
-6.859211711925729e-03  5.408757764850941e-05 -3.054620652624167e-19
-6.853818333561121e-03  4.306018575892925e-04 -3.041776354627634e-19
-6.880229463427982e-03 -4.373294989746831e-04 -3.027671315237743e-19
-6.757796146261977e-03  9.655219400140579e-05 -3.038567440692729e-19
-6.850436389557753e-03  9.787579396645933e-05 -3.059011845481832e-19
-6.846563335056014e-03 -2.170782747920410e-05 -3.056964860280267e-19
-6.915093274893155e-03  1.397458202478470e-04 -3.091678992214202e-19
-6.759925605450937e-03 -1.330336512323429e-04 -3.054173626290003e-19
-6.555867141551148e-03  1.456515515179289e-03 -3.016822127949255e-19
-7.357585378254520e-03  7.076076428157506e-05 -3.214067542724241e-19
-6.567799832504334e-03 -7.455569131915924e-04 -2.923506876693909e-19
-6.118642725125637e-03  1.424805086811653e-04 -2.826863756708296e-19
-7.564727023477817e-03  2.740900522774624e-03 -3.207887460213272e-19
-6.817072898629008e-03 -2.765629949110012e-03 -2.924897232445043e-19
-6.823418979309004e-03  3.255336928613294e-04 -3.162737905879937e-19
-6.665429970534194e-03  3.179963064552007e-04 -3.021154488538629e-19
-6.553605963946990e-03 -3.564936423229138e-04 -2.934420436802664e-19
-7.032897869586227e-03 -1.179973634557751e-03 -3.146301894906864e-19
-7.702835114670615e-03 -1.857620458768705e-04 -3.440328556338019e-19
-8.103804492790240e-03 -3.019306758884871e-04 -3.578538377317125e-19
-7.347138923391891e-03 -1.171186408368128e-03 -3.340153408682517e-19
-6.241882954505860e-03 -5.106223575425461e-04 -2.984144894597610e-19
-7.200310286845924e-03  1.264460447175008e-03 -3.392874195973895e-19
-7.729027516764232e-03  5.734883876726603e-04 -3.455922525017970e-19
-7.397211190026193e-03  4.035110444825851e-04 -3.328037331400341e-19
-7.158486081769484e-03  2.435090290610045e-04 -3.253454145078640e-19
-7.067070690742543e-03  2.403993669263120e-04 -3.224437348366687e-19
-7.010442946539689e-03  6.289977154122995e-05 -3.198926281191242e-19
-7.049210351202762e-03  2.831744756123030e-04 -3.220974414887968e-19
-7.029927581088508e-03 -1.644784818998288e-04 -3.195827500316267e-19
-7.247847822319750e-03  2.927308216098868e-04 -3.292055126646922e-19
-7.399349673915351e-03 -4.831164948403777e-04 -3.323101798709724e-19
-7.326605883610436e-03  6.126780523814412e-04 -3.360636367932134e-19
-7.178631809439606e-03 -4.937396046743721e-04 -3.289340087854204e-19
-6.621955332453945e-03  4.357792910384880e-04 -3.181424916443092e-19
-7.197334246731592e-03  5.987132889597099e-04 -3.354547605266456e-19
-7.403701950974687e-03  3.599580939105795e-04 -3.375486487761791e-19
-7.249426915717309e-03  3.899059778034133e-04 -3.312024989136636e-19
-7.124438098186830e-03  2.293374094060641e-04 -3.268025658311177e-19
-7.069466426828987e-03  2.275678578251279e-04 -3.250616656833768e-19
-7.071732587386093e-03  4.040531884401733e-05 -3.248958714663060e-19
-7.149527776244206e-03  3.443656460281857e-05 -3.272371117209273e-19
-7.151406838333351e-03 -1.430662856617857e-04 -3.264004754194931e-19
-7.162464213024632e-03 -8.418554158077438e-05 -3.264821417213594e-19
-7.161864944078755e-03 -3.843838194778099e-04 -3.252171542586420e-19
-7.115838962282585e-03 -2.080999891753830e-04 -3.243319427908375e-19
-7.054766789327937e-03 -4.112298403977495e-04 -3.209705761022501e-19
-6.959851521076255e-03 -2.509398670496882e-04 -3.183734991891420e-19
-6.901116829180741e-03 -2.488221673069807e-04 -3.142918996923655e-19
-6.882857191705084e-03 -6.264132555318061e-04 -3.126085501191720e-19
-6.927218625795309e-03 -3.721504537682675e-04 -3.165621799027746e-19
-6.961229390057354e-03 -3.739776115406517e-04 -3.171297310700068e-19
-6.960682591936941e-03 -3.739482359456800e-04 -3.170100118739582e-19
-7.004995131218422e-03 -3.763288352153232e-04 -3.182890804518360e-19
-7.126998709349922e-03 -5.395013613062296e-04 -3.240186134143978e-19
4.700747301000932e-03 4.983753883856188e-03 2.011867963100946e-19
-7.101982888421908e-03 -9.169525663458120e-05 -3.258786667330628e-19
-7.041058418568431e-03  9.542180926071381e-05 -3.198412356535335e-19
-6.983749954034927e-03 -5.741895148281836e-04 -3.172543033346826e-19
-7.280053817842877e-03 -5.985510072815762e-04 -3.325254052175040e-19
-7.230755329114118e-03  1.722559563890214e-04 -3.327474144210802e-19
-7.027806794090428e-03  1.674211787749185e-04 -3.169901344376077e-19
-7.371240721591492e-03 -1.614428642538618e-03 -3.339367845086928e-19
-8.057791864265494e-03  5.003761007395650e-04 -3.657816297978858e-19
-7.192391433147242e-03  8.547235959103899e-04 -3.349124836047648e-19
-7.387519576204747e-03  1.047545077530900e-03 -3.319399271933190e-19
-7.150532365908096e-03 -2.350200534463514e-04 -3.244663057934361e-19
-7.025685773057219e-03  5.337641744627980e-04 -3.250113113908481e-19
-6.914597637480341e-03 -3.629332254152777e-04 -3.182566078259820e-19
-6.882144287574448e-03  7.688411764085102e-04 -3.208009610802151e-19
-7.149379631041647e-03 -3.535224336308982e-04 -3.237224387084081e-19
-6.838488486533921e-03  2.351949301476047e-04 -3.153883459999832e-19
-6.939259791602236e-03 -5.497666387336548e-05 -3.181778719475395e-19
-6.556412277570923e-03 -3.172608620482764e-04 -3.054390759595926e-19
-6.770689626464961e-03  4.742042898012577e-04 -3.151268811102165e-19
-6.849644813471543e-03 -7.513874553574643e-06 -3.135991067055194e-19
-6.770834025316664e-03  6.593206329315692e-05 -3.112878538920878e-19
-6.802777934084520e-03 -1.394225522726721e-04 -3.121196652355238e-19
-6.821857574342894e-03  1.165060208568500e-05 -3.137696659571167e-19
-6.835891258722335e-03  1.167456929266920e-05 -3.134119444049792e-19
-6.824326895743884e-03 -2.168189288744814e-05 -3.128854138364473e-19
-6.814436163835730e-03  4.476491618078389e-06 -3.124588705050655e-19
-6.815186932790057e-03 -6.510313238525590e-07 -3.126891088402120e-19
-6.819058803085030e-03  5.208321778868722e-05 -3.128875211579571e-19
-6.829667322583991e-03  5.645119900493947e-05 -3.134235496053721e-19
-6.823303810112843e-03  5.639860084870258e-05 -3.137277385732687e-19
-6.892307673258454e-03  2.146262958231658e-04 -3.155241292665036e-19
-6.795215066689893e-03 -2.654661119346076e-04 -3.121192009736498e-19
-6.791987165674292e-03  3.271018801621948e-04 -3.133527753485161e-19
-6.847570246292191e-03 -1.925201436454503e-05 -3.143388563431015e-19
-6.870253995567755e-03  4.070004022989803e-04 -3.157338164120067e-19
-6.837090897336415e-03 -7.350422832176306e-05 -3.275475605802443e-19
-6.859141940953894e-03 -7.374129478308852e-05 -3.263705120894619e-19
-6.812250770914295e-03 -8.920671418763240e-05 -3.268452763613203e-19
-6.784760914443628e-03 -8.884673334551369e-05 -3.233533736919045e-19
-6.882754126915695e-03 -6.109316878643225e-05 -3.263329460315173e-19
-6.881646517160754e-03 -6.108333734563686e-05 -3.267884405273322e-19
-6.601284911585410e-03 -7.086800172359474e-04 -3.608651851190459e-19
-6.784245964053593e-03  2.059220446428941e-04 -3.218533628531255e-19
-6.797598320167752e-03 -6.147069086862322e-04 -2.724279169778087e-19
-6.692684428946236e-03 -2.234333360790674e-07 -3.245562547725705e-19
-6.842649353377985e-03 -1.140748520860647e-04 -3.279995681296208e-19
-6.820972670782004e-03 -1.137134768009740e-04 -3.308474947223821e-19
-6.706974597142976e-03  1.232574560768327e-04 -3.269990831393661e-19
-6.706261983911814e-03  8.419023515805226e-05 -3.253560560261591e-19
-6.688797419880830e-03 -2.884313973618273e-04 -3.068154216456279e-19
-6.759413031224071e-03 -1.486457747793113e-04 -3.166638666889963e-19
-6.786165668205520e-03 -1.492340901305300e-04 -3.193536164538967e-19
-6.865541809873728e-03  4.798046560976795e-06 -3.268325814299669e-19
-6.759609062494121e-03 -3.748835146519815e-04 -3.278950947212669e-19
-6.801362262684317e-03  1.684125441187775e-04 -3.321580888461168e-19
-6.847790046044261e-03 -3.118975590303433e-04 -3.354385058039611e-19
-7.016873255774330e-03  6.945178703514466e-04 -3.156520514069560e-19
-6.991669485266734e-03 -5.509808114043165e-04 -3.775946957640204e-19
-7.019112488128028e-03  3.962354920393613e-04 -3.310717738573833e-19
-6.809803336045745e-03 -1.462824791153365e-03 -4.152753169976437e-19
-6.865961430601861e-03  3.881005405633247e-04 -3.153387887312912e-19
-6.818574235332928e-03 -4.095272076229887e-04 -3.521981644790749e-19
-6.978995389277512e-03  1.122788348427421e-03 -2.849659752145085e-19
-7.076086141022103e-03 -7.137615908351739e-04 -3.338094516545211e-19
-7.024064378744862e-03  1.764062437510968e-04 -3.267192792833792e-19
-6.944334109680667e-03 -7.302204710653043e-04 -3.480129455678376e-19
-6.924064724611934e-03  2.386783075332959e-04 -3.396273061321608e-19
-6.927258522025520e-03 -3.261449448977971e-04 -3.316679265110684e-19
-6.839480048217096e-03  2.644857640078567e-04 -3.280752462879390e-19
-6.949515023844604e-03 -1.273296522951873e-04 -3.334182527988758e-19
-6.915042590933201e-03  6.840207105634702e-05 -3.291193008735387e-19
-6.931230420697200e-03 -1.210615706095583e-04 -3.351762914756533e-19
-6.876435095868754e-03  1.661824524550128e-05 -3.289005217822646e-19
-6.880391589219560e-03 -9.958685415770676e-06 -3.297359848098699e-19
-6.830023012706329e-03 -1.180508316632686e-04 -3.225019943361413e-19
-6.865758050720044e-03  3.942896421072494e-05 -3.282056405872768e-19
-6.843033519480179e-03 -1.227694302297067e-04 -3.263260440303903e-19
-6.868736888167152e-03  6.631747794040361e-05 -3.300850714137656e-19
-6.929145233866592e-03 -2.336271339382710e-04 -3.408950629402111e-19
-6.777516401872823e-03 -1.256312840666790e-04 -3.264756275051087e-19
-6.835283794676597e-03 -5.985035947557703e-06 -3.298343471636388e-19
-6.899061837815058e-03  7.615419204991691e-05 -3.318977916095153e-19
-6.871841403162317e-03 -1.881253366906202e-04 -3.348673879735501e-19
-6.832832044034244e-03  2.061938628782341e-05 -3.297173342524386e-19
-6.854906274868313e-03 -7.819977458063297e-05 -3.318269891627958e-19
-6.824181248667080e-03 -1.197875175320680e-05 -3.307167225109333e-19
-6.870304674493558e-03 -1.223899400452945e-05 -3.248022474812185e-19
-6.838908705394853e-03 -9.030132602177101e-05 -3.317834245398638e-19
-6.909530553740908e-03  1.482130284950142e-04 -1.220273700787471e-19
-6.883372418588937e-03 -1.983347381912968e-04  2.894879875191455e-19
-6.861956669560150e-03  5.873933542422849e-05  1.963486072568919e-18
-6.801203383510602e-03 -3.524180292758179e-04 -6.298015644167052e-19
-6.810429009624423e-03  1.606700425619357e-04 -3.634617486265785e-19
-6.822189875255158e-03 -2.738175852198582e-04 -3.117406677860669e-19
-6.780156993693322e-03  1.167578553057669e-03 -2.869379684907953e-19
-6.917492868792758e-03 -2.825279635505480e-04 -3.347587267745188e-19
-6.958430274612307e-03  2.199105248659899e-04 -3.267156163912131e-19
-6.882627424242221e-03 -3.560326252293928e-04 -3.319945445013287e-19
-6.800259564284629e-03  6.062452852648570e-04 -3.187950322590698e-19
-6.946241891130295e-03 -1.454226848452523e-04 -3.313088598528870e-19
-6.902750182905076e-03  1.612216088352664e-04 -3.304065711176446e-19
-6.935014725791987e-03 -9.852418033044432e-05 -3.346403858570164e-19
-6.848777127241515e-03  2.902799013702712e-05 -3.314531730659068e-19
-6.904648772931093e-03  1.247950387753648e-05 -3.327648765313372e-19
-6.910377355170727e-03  1.248985775166148e-05 -3.326457628486820e-19
-6.877966775109353e-03 -1.015112501320031e-04 -3.371489219735829e-19
-6.915577910563050e-03  3.333437520652222e-04 -3.469041407469047e-19
-6.935094120214336e-03 -1.012795068494430e-04 -3.348479126052507e-19
-6.936119779563284e-03  2.263249829682684e-04 -3.452072419369608e-19
-6.924915554232048e-03 -1.782578150710945e-04 -3.385641084727893e-19
-6.888992374190757e-03  1.840431071437349e-04 -3.410399906106802e-19
-6.908389387904118e-03 -8.957877565194621e-05 -3.304058580797444e-19
-6.928860034275336e-03  2.161572548078658e-04 -3.321567075339711e-19
-6.871846897305504e-03 -2.512586225632031e-04 -3.346936746913040e-19
-6.857684028494133e-03  3.742291114381043e-04 -3.337849093529978e-19
-6.882168714572957e-03 -1.220039797622555e-04 -3.439152700998250e-19
-6.885707685639640e-03  3.714424405112866e-04 -3.223515862786016e-19
-6.906001391684903e-03 -1.118191248255659e-04 -3.311194587681942e-19
-6.930925989610475e-03  2.957711435324823e-04 -3.380786072759979e-19
-6.858338957448891e-03 -3.824645658077629e-04 -3.545951498913168e-19
-6.850913554280839e-03  3.216230835438470e-04 -3.370464970593206e-19
-6.772752215847133e-03 -3.508840283576164e-04 -3.521499449438130e-19
-6.861906886755533e-03  6.685952138524126e-04 -3.802404427358085e-19
-6.959004588978789e-03 -3.803664542772075e-04 -3.508313741160803e-19
-6.819717066612032e-03  3.284837195174639e-04 -3.276983681896408e-19
-6.784141396328451e-03 -2.542691144713039e-04 -3.176268045287684e-19
-6.910504563856465e-03  9.786956171899425e-04 -3.092385897531528e-19
-6.920566869611027e-03 -5.087576863023477e-04 -3.241671531770137e-19
-7.024680825456784e-03  8.423307381083056e-04 -3.602874211212435e-19
-6.836391459525183e-03 -1.659634765457119e-03 -4.142872409609628e-19
-6.747414630274265e-03  5.676823126409260e-04 -2.695769322620532e-19
-6.664679131037932e-03 -5.819660145192588e-04 -3.442991588598729e-19
-6.781134499450565e-03  8.589210831383660e-04 -2.920774529204016e-19
-6.854636708094400e-03 -9.063524487718799e-04 -3.084886214718930e-19
-6.721812176939845e-03  3.865300631509883e-04 -3.647536032199684e-19
-6.804407979558407e-03 -2.836877154859848e-04 -3.232349396537593e-19
-6.663708849800983e-03  3.224424099313109e-04 -3.372507697623047e-19
-6.830928756277332e-03  5.071935412371827e-05 -3.326976444080823e-19
-6.854463535574617e-03 -2.052479524705059e-06 -3.362671884374512e-19
-6.825904273305833e-03 -2.043927826859831e-06 -3.369635191602044e-19
-6.786181929408440e-03  4.626548833311311e-04 -3.157566726778727e-19
-7.071741004968305e-03 -3.921008348432057e-04 -3.563657040026747e-19
-6.574527133471402e-03 -5.832948597527602e-04 -4.144435006545432e-19
-6.841980704110109e-03  2.169175337724179e-04 -3.513416580813290e-19
-6.853477388800870e-03  5.024159351614539e-05 -3.357457047444988e-19
-6.745048950967479e-03  1.061431156707062e-04 -3.491203930111765e-19
-6.693127865208565e-03 -7.729979828946756e-05 -3.277244660589309e-19
-6.781086211728601e-03  2.624354030853990e-04 -3.458643324931591e-19
-6.679691093246270e-03 -2.759761520244106e-04 -3.632337440990366e-19
-6.644523087672765e-03  6.427189033897508e-04 -2.706529487688558e-19
-6.785674829016793e-03 -1.804004054909199e-04 -3.573951208543129e-19
-6.754626757009176e-03  1.162736680503375e-04 -3.451783121273776e-19
-6.797886110851517e-03 -1.822376142648488e-04 -3.183763741340746e-19
-6.758981918969885e-03  1.597098968886687e-05 -3.376560629000863e-19
-6.770278873284646e-03 -1.304348501471994e-04 -3.360734857609234e-19
-6.830841186336642e-03  6.195097441051179e-05 -3.460467478765167e-19
-6.803976127157708e-03 -2.234705040020491e-04 -3.332663100879747e-19
-6.802900444367338e-03  5.905477212676175e-05 -3.396231302361247e-19
-6.718537452347443e-03 -5.291686297287236e-04 -3.810164859122803e-19
-6.696401958819116e-03  8.615010512733274e-05 -3.363146871590272e-19
-6.694324567076176e-03 -1.577553087838288e-04 -3.488578854313497e-19
-6.700131495342024e-03  4.959572046904232e-04 -3.404444562113494e-19
-6.726226517401778e-03 -1.806039663529437e-04 -3.416116934113539e-19
-6.714751261210894e-03  9.188811405969821e-06 -3.398773192729042e-19
-6.738847479837575e-03 -1.187969873408465e-04 -3.433535791455950e-19
-6.707845536116153e-03 -3.387555013810085e-05 -3.395172994136458e-19
-6.721930852764642e-03 -1.047187138812200e-04 -3.432036046764794e-19
-6.587641173190146e-03 -1.577883921129619e-04 -3.443511508757848e-19
-6.613902213536130e-03  4.675190808439593e-04 -3.094299682056297e-19
-6.680416087481856e-03 -5.644602183768210e-05 -3.385262427083888e-19
-6.687756341868712e-03 -5.650804314802996e-05 -3.398901869625546e-19
-6.773660064222850e-03 -5.723388467113903e-05 -3.429975817365844e-19
-6.829982171426233e-03 -5.871338618748010e-06 -3.497478171253950e-19
-6.805556458839246e-03  2.130779113472697e-04 -3.463404733823740e-19
-6.716994965898408e-03 -3.115224409358688e-04 -3.506974324112828e-19
-6.951496744234596e-03  8.783840129951635e-04 -3.651911752695146e-19
-6.920571298039926e-03 -6.435151912025188e-04 -3.423727228600793e-19
-6.868035918795634e-03  5.093605551249542e-04 -3.506970250273234e-19
-6.911958823573751e-03 -9.375666645222019e-04 -3.379810946248084e-19
-7.040959046567621e-03  4.028543934334428e-04 -3.715352712816011e-19
-6.264984203145528e-03 -1.770055093119611e-03 -4.731014368903954e-19
-6.715193758041004e-03  1.361933836909930e-03 -2.520479312682873e-19
-6.818171387386865e-03 -1.329009144791147e-03 -4.013034970967742e-19
-6.887711666332016e-03  1.371777287803775e-03 -2.621934141633777e-19
-6.454262833324165e-03 -1.767876527928212e-03 -3.361921167597657e-19
-6.633626050779046e-03  2.220470105946416e-03 -6.481371821120852e-19
-6.576606441024007e-03 -2.197047230753784e-03 -2.241587980508697e-19
-6.564596111379098e-03  1.863495695460752e-03 -4.644087639131128e-19
-6.799694983514629e-03 -1.829236743435470e-03 -3.869106192190534e-19
-6.870928368788395e-03  1.466289947353927e-03 -2.973998453074992e-19
-6.280345511585288e-03 -2.247125356310731e-03 -1.736889405593288e-19
-6.254756196487008e-03  2.247584448430178e-03 -3.987450466402710e-19
-7.027319425585070e-03 -1.328403576415916e-03 -2.650712775689583e-19
-6.644038326984654e-03  1.342685959748079e-03 -3.664085629108289e-19
-6.832779668511847e-03 -6.251336908808889e-04 -4.284646027912005e-19
-7.005930825649330e-03  1.374976909686971e-03 -3.780634231557717e-19
-6.695000618578629e-03 -2.519344027899052e-03 -3.199698946742079e-19
-6.652448820875265e-03  5.805622237167292e-04 -3.976899580619985e-19
-6.737676947937075e-03 -9.923332176666334e-04 -2.450256278613551e-19
-6.813164456193358e-03  1.010926675919710e-04 -4.099675447938521e-19
-6.827569905987071e-03  1.013064134008197e-04 -4.157833057235691e-19
-6.706461955136026e-03 -2.526707984076472e-04 -4.033761261531233e-19
-6.755012386896543e-03  1.823370714604418e-04 -4.153540119832575e-19
-6.771931021731485e-03 -3.279322091636211e-04 -4.192634482402092e-19
-6.730610410665840e-03  7.732448313603000e-05 -4.370355900585357e-19
-6.795206868314154e-03 -9.200895117390683e-05 -4.458198462504811e-19
-6.784388153294280e-03 -5.674652891990478e-05 -4.584492797198897e-19
-6.814068582011243e-03 -5.699478436586192e-05 -4.732246184428751e-19
-6.766658799435763e-03 -1.355910870187238e-04 -4.672963130843707e-19
-6.879539531568623e-03  2.522151148632601e-04 -5.182359349194084e-19
-6.714084645246384e-03 -4.987675263163610e-04 -4.480156045292557e-19
-6.722653248286215e-03  4.240619803270660e-04 -5.635310837145847e-19
-6.671934144155899e-03 -3.880103066207295e-04 -5.494542714797315e-19
-6.740671788594802e-03  9.810191964804810e-04 -5.699358699359432e-19
-6.701504024294901e-03 -5.558816086141999e-04 -5.334656282129841e-19
-6.654508151855634e-03  1.088505343105091e-03 -6.007471066547542e-19
-6.786456517066788e-03 -5.240703442203229e-04 -5.751028613122758e-19
-6.829526843562921e-03  7.809153351689191e-04 -7.049431575103602e-19
-6.973888846087560e-03 -7.154201505832614e-04 -5.064241928399626e-19
-6.859057678878660e-03  1.487223196266188e-04 -6.663086251489303e-19
-6.418885843683741e-03 -1.220513119082617e-03 -5.799740836674484e-19
-6.657479207568817e-03  7.744362600886174e-04 -8.741343429311404e-19
-6.939338775824547e-03 -5.147031603997523e-04 -7.684213097385333e-19
-6.898417769852819e-03  1.979269259657778e-04 -8.619164455226223e-19
-6.900172063465495e-03 -5.002789866900981e-04 -8.967214665786036e-19
-6.865428592743934e-03  2.111707168234410e-04 -1.064448479211943e-18
-7.103534271703030e-03 -2.038486599319973e-04 -1.128775973327430e-18
-7.176439885276648e-03 -2.059408173088828e-04 -1.271304048541912e-18
-6.240641439172630e-03 -2.933600922508435e-03 -4.601750621863903e-19
-7.173987660401467e-03  2.476347726479671e-04 -1.502913693348090e-18
-7.115081596171638e-03  2.456014279429492e-04 -1.778056414440227e-18
-6.950021957285495e-03  1.658277903437193e-04 -2.322820844039840e-18
-6.923460528611708e-03  4.597149659747902e-05 -2.934285719951441e-18
-6.893896115535151e-03  1.207564377293278e-04 -3.784729038229696e-18
-6.821388720002479e-03 -2.978771746638440e-04 -4.512621322374385e-18
-6.846613449880533e-03  2.159658932967012e-04 -5.767900335416642e-18
-6.900475923601788e-03 -4.790298321890459e-05 -7.393759775534179e-18
-6.880865897527145e-03  1.147286798084111e-04 -1.205494603513546e-17
-6.846398747120763e-03 -5.177638795653563e-05 -1.844631097729897e-17
-6.842594285595482e-03  1.422307925747357e-04 -2.452811814580709e-17
-6.844999927774782e-03 -2.530493707668530e-05 -3.558053345615536e-17
-6.833015303641408e-03  2.170563433164122e-04 -4.971935791736172e-17
-6.858438481679535e-03  1.594371518201315e-07 -6.612500882967686e-17
-6.841184869723128e-03  1.750021726442050e-04 -8.865711445800002e-17
-6.856769484605822e-03  3.390182450829155e-06 -1.218421695897106e-16
-6.835936329685917e-03  6.494305631324255e-05  3.318872677130754e-16
-6.843682913512831e-03  2.786300193489645e-05 -6.264947238011901e-15
-6.840002626156315e-03 -4.300601296643819e-05  8.676338565727258e-16
-6.837655904302842e-03  2.783846390136780e-05 -6.585377884648937e-15
-6.836642611287747e-03  4.578390083260758e-05 -1.433078115068677e-16
-6.830745792301753e-03 -3.891385305089841e-06 -8.780572178492258e-17
-6.845364228549301e-03  4.749037960667749e-05 -6.910880324598280e-17
-6.842824233860266e-03 -4.151517058741064e-05 -4.662538056269217e-17
-6.866230107802955e-03  9.315205968525489e-06 -2.442489440544267e-17
-6.843851029422646e-03  2.566850301254394e-05 -1.372051083561312e-17
-6.827598431077618e-03  2.560754612324470e-05 -9.150979784355541e-18
-6.849367685877262e-03 -5.727218151262154e-05 -5.754449509633288e-18
-6.826151783351999e-03  7.475006272383227e-05 -3.620390847470233e-18
-6.823027573192533e-03 -1.556137658557308e-04 -2.822790558319097e-18
-6.786595755749333e-03 -6.612867195912583e-06 -2.451369778503633e-18
-6.835753189666566e-03 -8.608817608253753e-05 -1.952338391193597e-18
-6.891495745890928e-03 -8.679018723805847e-05 -1.551460603890167e-18
-6.912284897221036e-03 -2.461289371916053e-05 -1.135807457095263e-18
-6.826314994458228e-03  6.744344411456650e-05 -1.048731158281205e-18
-6.746523957277002e-03  6.665511507300542e-05 -9.229891157787119e-19
-6.743579328275493e-03 -1.877607785424189e-04 -8.248466235147445e-19
-6.786647919329770e-03 -5.375069322311492e-05 -7.493139077250493e-19
-6.800359881925983e-03 -5.385929285930595e-05 -6.895208057748797e-19
-6.816599550483832e-03 -5.398791209122627e-05 -6.410471071280730e-19
-6.788478189979488e-03 -1.831920362519903e-04 -6.088460419823857e-19
-6.798183509756502e-03  5.952255322826816e-05 -5.893362877190164e-19
-6.801872189930906e-03 -2.169305788351436e-05 -5.589365566761301e-19
-6.797644203236002e-03 -1.992395631103929e-05 -5.381254850779790e-19
-6.807406041975094e-03 -3.542414226553937e-05 -5.200670522629707e-19
-6.822618867686796e-03 -5.743857403529782e-06 -5.019949815755790e-19
-6.830612253050049e-03 -5.750586911155573e-06 -4.846620062943545e-19
-6.827880430773348e-03 -8.743979156302182e-06 -4.698924864965792e-19
-6.814501696173533e-03  9.302382970578134e-06 -4.575823834856172e-19
-6.797589895613687e-03 -3.758487482775808e-05 -4.450129975393785e-19
-7.447297100456930e-03 -4.117720157057658e-05 -4.454599260056954e-19
-1.042491685793925e-03 -6.631651645754945e-03  1.309411972749882e-19
-6.741483280400791e-03  5.391864118120648e-04 -4.426854807320986e-19
-7.092301773725510e-03  5.672450091185349e-04 -4.341649190671720e-19
-6.791880728160221e-03 -2.608175838160055e-05 -4.114082029173626e-19
-6.773144401911597e-03  6.188811695816556e-04 -4.035038635812390e-19
-6.744547918379439e-03 -1.348103431279142e-04 -3.987001538070258e-19
-6.711872796932952e-03  5.249897343147276e-04 -4.058108676407164e-19
-6.671532639900969e-03 -2.423204029943004e-04 -3.898653201467326e-19
-6.662140434601536e-03  4.753488194490333e-04 -3.911846907136487e-19
-6.708057935323673e-03 -3.027617335866786e-04 -3.803095752725744e-19
-6.660489741150443e-03  2.202552781948906e-04 -3.830511530757441e-19
-6.680985297742435e-03 -1.872442888645366e-04 -3.759979968254172e-19
-6.616580227651353e-03  1.722310382377958e-03 -3.505067900127266e-19
-6.798085795612662e-03 -3.222443860768340e-04 -3.719986260084362e-19
-6.867251995733053e-03  3.995562679956310e-04 -3.745809538051540e-19
-6.721654865465511e-03 -5.640658528356046e-04 -3.716826928996293e-19
-6.653805854949448e-03  1.912500106606060e-03 -3.495908029606919e-19
-7.153273630163486e-03 -6.604586723331936e-04 -3.618904922665696e-19
-6.854694836109048e-03  2.596290887683938e-04 -3.675794470791818e-19
-6.655831210975675e-03 -7.906262289969512e-04 -3.467162193903859e-19
-6.741388027387813e-03  5.803888091148234e-04 -3.642460480731851e-19
-6.639585821923994e-03 -6.127932547153953e-04 -3.477982135582433e-19
-6.544692703157908e-03  1.584897781769599e-03 -3.654878998023142e-19
-6.818234414910362e-03 -4.986752403214685e-04 -3.535942571977582e-19
-6.812534798707609e-03  1.499420685129040e-03 -3.545452099867448e-19
-6.746526804817589e-03 -8.253903331806769e-04 -3.542625552958762e-19
-6.481641268081937e-03  1.355952748674076e-03 -3.487465045603059e-19
-6.600078955978899e-03 -4.076565840587490e-04 -3.467919620093419e-19
-6.611339511905541e-03  1.651297087283843e-03 -3.321794627437715e-19
-5.418388854298370e-03 -5.318814006722030e-03 -2.508376475403363e-19
-6.352865519901543e-03 -7.328933891445775e-05 -3.382850933859039e-19
-6.373203875980157e-03 -8.610341268754407e-04 -3.359442901853789e-19
-6.591168719735670e-03  1.552175150809104e-04 -3.465267038820602e-19
-6.751452971157020e-03 -7.125261361126912e-04 -3.340465325711944e-19
-6.754752072893238e-03 -8.665181677232361e-06 -3.479413092927522e-19
-6.744985052319652e-03 -6.146837283006974e-04 -3.442711958112702e-19
-6.711023902602494e-03  2.741406313375020e-05 -3.461069171412547e-19
-6.799572136399937e-03 -2.251171015751350e-04 -3.391466936902540e-19
-6.797383130515891e-03 -1.028396320436050e-04 -3.463729907185898e-19
-6.829324134680770e-03 -1.517177507853451e-04 -3.430262736034342e-19
-6.764632487427628e-03 -1.213260697978588e-04 -3.433727693455567e-19
-6.858781998676985e-03  1.833286386535692e-04 -3.471221834576173e-19
-6.800246012401851e-03 -2.319798030308621e-04 -3.438183528173183e-19
-6.832135750457284e-03  8.733026239152603e-05 -3.451375019040613e-19
-6.720581340074935e-03 -4.629882988339930e-04 -3.445511797665101e-19
-6.758785630297606e-03  1.605949414826355e-04 -3.441047911330759e-19
-6.762507539266443e-03 -3.163959597208351e-04 -3.443996921966433e-19
-6.905347585327217e-03  4.156626848566198e-04 -3.517257439010557e-19
-6.892646845100841e-03 -5.410948673064201e-04 -3.404092495585368e-19
-6.834111675873289e-03  1.392580227068957e-04 -3.421378642001875e-19
-6.731003777200214e-03 -5.759387645481592e-04 -3.311451152249654e-19
-6.747153709827951e-03  2.810493880821859e-04 -3.373369129849919e-19
-6.721900293982992e-03 -3.642094399497744e-04 -3.332689795795280e-19
-6.745418529477028e-03  5.853477987873309e-04 -3.460903429748571e-19
-6.813822592359555e-03 -3.395357155177855e-04 -3.234200734037690e-19
-6.873574161035636e-03  4.248553247459370e-04 -3.422555464852383e-19
-6.690360997495602e-03 -8.373778435340561e-04 -3.270400502116751e-19
-6.579724563255982e-03  5.500413763876197e-04 -3.382792974999625e-19
-6.780820924479580e-03 -1.793258609659953e-04 -3.363895192119556e-19
-6.772386969603261e-03  3.363617133848144e-04 -3.318495259033403e-19
-6.832637978158880e-03 -1.898786011247054e-04 -3.343682176349842e-19
-6.781452067283714e-03  8.027582256840196e-05 -3.347945293561615e-19
-6.744715742978887e-03  1.794234974335888e-05 -3.338910649243875e-19
-6.676876026446892e-03  1.776188195688850e-05 -3.322852447545408e-19
-6.852179116383058e-03  2.575570646253389e-04 -3.352214796665232e-19
-6.666787938878176e-03 -3.185015582300450e-04 -3.262259279487482e-19
-6.777420786493961e-03  4.879514902813991e-04 -3.445117277347812e-19
-6.672918032472775e-03 -5.345096001008371e-04 -3.262459960665979e-19
-6.625377319100841e-03  5.685571279387157e-04 -3.232283353267968e-19
-6.671477118934516e-03 -3.395373849835128e-04 -3.292741030395166e-19
-6.695157245944670e-03  9.672602156414334e-04 -3.252310795805294e-19
-6.854173567415125e-03 -4.544974188535869e-04 -3.196882586589078e-19
-6.730117079760676e-03  1.541729963306569e-04 -3.307658584218288e-19
-6.762630148951719e-03 -5.013687817195922e-04 -3.309762440796569e-19
-6.709594227557311e-03  6.011534551867442e-05 -3.306013555973378e-19
-6.784547766730284e-03  4.722028491055247e-05 -3.310831536312447e-19
-6.798152572477501e-03  4.288605040282118e-06 -3.318540147505783e-19
-6.767993272057124e-03 -1.365473142362127e-05 -3.313593621226690e-19
-6.762954531302010e-03  6.608129710995955e-05 -3.314344853604865e-19
-6.762478312776652e-03  5.862112173756817e-05 -3.313726171066885e-19
-6.760877172355472e-03  1.083234991448750e-04 -3.301546761255170e-19
-6.735833476225964e-03  5.862385641335959e-05 -3.297216953412510e-19
-6.734400154538380e-03  6.890255064287956e-05 -3.301292071736048e-19
-6.744706774624496e-03  2.421717056920537e-05 -3.293507487366629e-19
-6.742709744048528e-03 -1.864915626687107e-06 -3.290600054022340e-19
-6.754583943667495e-03  4.629353729085232e-05 -3.297252971577986e-19
-6.769366322262217e-03  3.327419417226355e-05 -3.292640488894115e-19
-6.756390994916046e-03  1.693784934991589e-05 -3.292021531454593e-19
-6.708554197291442e-03  6.987186395000591e-05 -3.300518464585441e-19
-6.730398042518872e-03  9.713769048274069e-05 -3.295473675471616e-19
-6.744818013977388e-03  1.618757775261253e-05 -3.276399606651625e-19
-6.853989488773230e-03  3.863090676489654e-05 -3.289871929088905e-19
-6.713071051861751e-03 -2.543824892044287e-04 -3.265132953058962e-19
-6.782247368354428e-03  1.899677614423702e-04 -3.283398279729558e-19
-6.737596988365706e-03 -2.810824497120525e-04 -3.253126056433269e-19
-6.735570325806458e-03  2.497330177928201e-04 -3.330976348349497e-19
-6.781196901226858e-03 -1.156006279486399e-04 -3.268956485651456e-19
-6.826736430198567e-03  5.242947446153233e-04 -3.368125525489923e-19
-6.836836659060209e-03 -1.652187036985579e-04 -3.292796853837382e-19
-6.914306163624931e-03  4.494243310290652e-04 -3.379393929703833e-19
-6.734737403319019e-03 -9.351144783541847e-04 -3.150897919577803e-19
-6.739510567762242e-03  4.566060887421702e-04 -3.311604461150300e-19
-6.690332421255389e-03 -5.346394914190093e-04 -3.279660810679063e-19
-6.870586938375673e-03  7.600856772076277e-04 -3.348615396586479e-19
-6.839874555792788e-03 -7.990701091196347e-04 -3.310005297601556e-19
-6.830889967494002e-03  6.046537061463648e-04 -3.303827101054160e-19
-6.733080497279613e-03 -7.505245962010728e-04 -3.297158039909467e-19
-6.614427556045827e-03  7.066473492584619e-04 -3.288799011048782e-19
-6.775670801097290e-03 -2.006563909259300e-04 -3.283157166995606e-19
-6.814228258431932e-03  7.809580751767350e-04 -3.240210756902647e-19
-6.859103302771805e-03 -2.926020413655248e-04 -3.265204611697021e-19
-6.864930753225817e-03  5.559154888800911e-04 -3.287459982562346e-19
-6.886188721084673e-03 -5.460514918050335e-04 -3.341465805648650e-19
-6.777512261602774e-03  3.635724943925473e-04 -3.292632303628606e-19
-6.762732349348165e-03 -3.879051228423574e-04 -3.245209927988273e-19
-6.779656633258291e-03  4.527748097008149e-04 -3.315126333290543e-19
-6.859596939727501e-03 -3.472976357946571e-04 -3.310925765241574e-19
-6.840405218551627e-03  2.739488065016503e-04 -3.303997922386942e-19
-6.820250472919431e-03 -5.482013973877702e-04 -3.246726546905077e-19
-6.801075941970474e-03  2.416889104240552e-04 -3.310543036256623e-19
-6.780717431996617e-03 -3.099734843477451e-04 -3.290078324971310e-19
-6.743790170657027e-03  3.273234440623128e-04 -3.287405803443348e-19
-6.797945895077481e-03 -1.258486874991618e-04 -3.285155191980991e-19
-6.869378817776156e-03  2.664423427041938e-04 -3.339009214413264e-19
-6.843072338584327e-03 -1.927765372682934e-04 -3.274650405256307e-19
-6.848134823832765e-03  2.819962825208775e-04 -3.300469759453380e-19
-6.911363269953057e-03 -6.332860010556206e-04 -3.226721520463461e-19
-6.843567514818405e-03  8.804272272301137e-05 -3.290665870278991e-19
-6.874842652319055e-03 -1.724994964896100e-04 -3.276358287655573e-19
-6.884624486425495e-03  7.951917614272269e-05 -3.314483379514065e-19
-6.768814476875817e-03  4.666892655399508e-05 -3.284511362627428e-19
-6.720694037518089e-03  4.633715069312552e-05 -3.261741074556904e-19
-6.807464802305436e-03 -5.312458802230957e-04 -3.243509849577465e-19
-6.954537336292711e-03 -1.462576447332784e-04 -3.329954872686316e-19
-7.067636699880956e-03 -3.682164536101148e-04 -3.410204091105361e-19
-7.146182054283592e-03  2.695039297535890e-04 -3.372165627586826e-19
-6.893203231162574e-03 -2.204275453626296e-03 -3.011314857081612e-19
-7.039422687668855e-03  1.029115787288597e-04 -3.379289350929076e-19
-7.278386650137277e-03  1.064050695629886e-04 -3.402205246567625e-19
-7.161766322300992e-03  7.176583051218110e-05 -3.386464105977205e-19
-7.023054219216974e-03  5.621438718249597e-04 -3.319037364314305e-19
-6.841385720052655e-03  1.047629869264275e-05 -3.279132792310519e-19
-6.837526463203388e-03  7.349678976399734e-04 -3.251959421061151e-19
-6.777706554072702e-03 -1.979462400207204e-04 -3.225729897014681e-19
-6.650286904092597e-03  6.301206356836165e-04 -3.208327013577735e-19
-6.725117999807625e-03 -4.529777620772318e-05 -3.211551387232119e-19
-6.679651704118311e-03  4.711630855300320e-04 -3.156450086454983e-19
-6.695760364734610e-03 -3.560014930816109e-04 -3.225347091792673e-19
-6.593064631482978e-03  3.569885383941306e-04 -3.275569065936656e-19
-6.661006118297047e-03  1.422376383235833e-05 -3.197929457859749e-19
-6.716248889745809e-03  5.705865079557119e-04 -3.101782247142957e-19
-6.772959530150979e-03  2.322556229445141e-06 -3.216589393517704e-19
-6.674502735087023e-03  4.485598607077079e-04 -3.165135720228147e-19
-6.621864664379656e-03  1.180069604257882e-04 -3.174922141169488e-19
-6.485862021652545e-03  4.111502184823984e-04 -3.125520614420877e-19
-6.214632839658591e-03  3.939565228620893e-04 -2.993203357818347e-19
-6.170380802961062e-03  7.739440895469925e-04 -3.148808803374193e-19
 1.198567599588865e-03 -6.813169250468015e-03  2.767431003485484e-19
-6.006814306885900e-03 -3.084172816113365e-04 -3.157293005608071e-19
-6.255452220286364e-03 -4.322007467115187e-04 -3.062948113887498e-19
-6.456617228750739e-03 -3.062107890387010e-05 -3.180470216070960e-19
-6.602492039435109e-03 -3.044745000922472e-04 -3.123477924344127e-19
-6.622708141072646e-03 -7.455640129220779e-05 -3.175202347282709e-19
-6.698985289051568e-03 -2.014324863810979e-04 -3.225056892180117e-19
-6.709803357825514e-03 -1.152188428872125e-04 -3.197865807549803e-19
-6.753306243395643e-03 -1.159658621171873e-04 -3.207830681769167e-19
6.679508316264722e-03 5.859802293120230e-04 3.238790077793508e-19
 6.740258198689576e-03 -4.062899674889099e-04  3.286717907238345e-19
 6.841457110862795e-03 -2.808679228808505e-04  3.306477867261222e-19
 6.825001645722697e-03 -2.389583516727078e-04  3.313188184546645e-19
 6.873231199324187e-03 -2.406469746546151e-04  3.322571963600022e-19
 6.883773493282432e-03 -1.733859371553697e-04  3.325446982320109e-19
 6.862649455660347e-03 -1.728538727196087e-04  3.321692635363879e-19
 6.842682607869263e-03 -1.723509551527140e-04  3.317105615972718e-19
 6.852525795254322e-03 -2.842982225475304e-04  3.324316044960049e-19
 6.902780427877610e-03 -2.863831913833246e-04  3.338852634898971e-19
 6.993357663538841e-03 -3.098079844950483e-04  3.363930094874352e-19
 7.066601862865282e-03 -3.130527259856179e-04  3.393480218323080e-19
6.897016435497972e-03 6.656058769862666e-04 3.325769323825766e-19
 7.072935282857340e-03 -5.816046979802609e-05  3.382711528188692e-19
 6.976816797360119e-03 -8.531425714362440e-05  3.358046888429363e-19
 6.939550668553344e-03 -8.485855761931244e-05  3.348314305634569e-19
 6.923519048430854e-03 -1.047211784266333e-04  3.344848266908064e-19
 6.934427213510179e-03 -1.187513523581676e-04  3.347417423555885e-19
 6.937587233844640e-03 -1.188054673811741e-04  3.350018362484729e-19
6.919051670231623e-03 2.525211972448704e-05 3.335948788093048e-19
 6.922454440198003e-03 -2.467375878337253e-04  3.351960432141926e-19
7.039206240878358e-03 3.164686851458232e-04 3.347972344664104e-19
 6.922245555560468e-03 -5.600160049208751e-04  3.368963372510003e-19
6.958629147060020e-03 4.444792787342638e-04 3.329681167386329e-19
 6.958246929283442e-03 -6.148389039589821e-04  3.373833458776816e-19
7.002143892447681e-03 4.685532128869696e-04 3.350347980316720e-19
 6.912007015578553e-03 -6.723739539044975e-04  3.360700048736979e-19
6.883360219739662e-03 8.049301688175280e-04 3.309315813227912e-19
 7.119519212134834e-03 -4.038005561514866e-04  3.405489114851139e-19
7.003062973200662e-03 3.378863755131794e-04 3.368389660883902e-19
 7.110967236409225e-03 -2.719327959619278e-04  3.403376209231671e-19
6.966402396759182e-03 1.211873063940537e-04 3.366568745207930e-19
7.019042311612940e-03 8.230641507939881e-05 3.366822793826801e-19
 6.906322895340550e-03 -2.025611981186957e-04  3.366467953727309e-19
6.913809874626828e-03 2.066414393685512e-04 3.340298215128203e-19
 6.931298008760967e-03 -4.900283030556183e-05  3.354199886557257e-19
6.950014710032750e-03 1.307446911259228e-04 3.637640393701120e-19
 6.969475494702724e-03 -3.753106803532227e-05 -2.279847591149869e-19
6.919182336681730e-03 5.060043948480145e-05 2.649110775570479e-19
6.938843438714982e-03 1.021351911526268e-04 3.377829138566457e-19
6.910265127191360e-03 6.121315467534112e-06 3.366746451188577e-19
6.927369923228318e-03 1.183029589125221e-04 3.344599249906503e-19
 6.897122370597458e-03 -9.439214269683727e-05  3.355395485647102e-19
6.877696059721174e-03 1.270284947975684e-04 3.347553224431952e-19
 6.861051043945727e-03 -7.223326165305042e-05  3.350771615757309e-19
6.879991127545861e-03 3.501002591402144e-04 3.340911411948502e-19
 6.907385650856537e-03 -8.662837671695857e-05  3.360701242311932e-19
6.879228504283692e-03 9.124516585647872e-05 3.348925238355735e-19
 6.760037279671426e-03 -3.698470927722713e-04  3.359104419699025e-19
6.781621345799894e-03 5.284333229444607e-04 3.312261840498017e-19
 6.913809617930127e-03 -2.126642847102977e-04  3.372306575434021e-19
6.920468670924424e-03 4.950763696572245e-05 3.375621204215870e-19
 7.005899764114087e-03 -1.755866443837311e-04  3.398540532965921e-19
 6.922746595440182e-03 -1.394831826367979e-04  3.398021875631650e-19
6.865945509049780e-03 2.781267648921661e-04 3.342658334697676e-19
 6.843125808337311e-03 -3.669344496861824e-04  3.386091432598940e-19
6.814954102688044e-03 1.351008765599244e-04 3.364461376076791e-19
7.384919944644287e-03 1.463999819826785e-04 3.416832714059052e-19
 3.949729054760608e-03 -5.817025280789225e-03  2.167986974861713e-19
7.200286215390972e-03 2.533335715753318e-04 3.475165567308115e-19
7.164924059181597e-03 4.229798981832572e-05 3.451556163182075e-19
7.085466248551061e-03 1.569495458569219e-04 3.435131553700617e-19
7.020138274443653e-03 1.555024715913424e-04 3.415173424820980e-19
6.951896019198861e-03 1.539908433380694e-04 3.397033620377479e-19
6.877083848820993e-03 1.523336854668033e-04 3.378494653044072e-19
6.817542554390254e-03 1.939670652639366e-04 3.348361714449632e-19
 6.786914934223502e-03 -2.223289050065197e-05  3.359737332964945e-19
6.830365314250352e-03 1.369422573562148e-04 3.362019343112556e-19
 6.815026973313125e-03 -1.222412368909158e-04  3.371701194716053e-19
6.809841061180998e-03 1.370043835667688e-04 3.358669133670003e-19
 6.849472432089936e-03 -9.935165772869873e-05  3.353287525904021e-19
6.881059389371644e-03 1.621002134235086e-04 3.381566241702634e-19
 6.785118546819551e-03 -3.361835857330518e-04  3.379586119232296e-19
6.858089956648139e-03 5.094670141768595e-04 3.341078329001458e-19
 6.892743136112126e-03 -4.000811363842178e-04  3.395212870461170e-19
6.880501435348757e-03 2.626253630489568e-04 3.387684188653501e-19
 6.837237594805437e-03 -5.356098830123858e-04  3.365913436267395e-19
6.816189384675170e-03 2.388400135991375e-04 3.373100058883339e-19
 6.795043643998772e-03 -3.417785944837665e-04  3.397444978322764e-19
6.830101043190853e-03 3.938384077882134e-04 3.377638619325780e-19
 6.889031678262575e-03 -3.283756712032923e-04  3.435323571497412e-19
6.820921433830640e-03 2.151653240840356e-04 3.389762997453763e-19
 6.863769294187821e-03 -4.525968397451693e-04  3.366749350476108e-19
6.875728830493655e-03 3.721380421638446e-04 3.385329720454540e-19
 6.794002274433272e-03 -4.914181708370490e-04  3.342131529127435e-19
6.798038436545751e-03 4.950640718358227e-04 3.370077135107848e-19
 6.879463390368074e-03 -3.265740092169084e-04  3.418958527442185e-19
6.871025171655266e-03 2.999991968149552e-04 3.464584843613741e-19
 6.847953767648318e-03 -1.907618190314545e-04  3.415822150319972e-19
6.909024771047836e-03 9.486432582275454e-05 3.455388322489160e-19
 6.871010805017818e-03 -6.072386145123932e-06  3.465860432377861e-19
 6.861422542456198e-03 -6.063912336191412e-06  3.474440577002723e-19
 6.867890610235012e-03 -6.069628613793122e-06  3.484593651063818e-19
6.870930744730374e-03 6.732082300786231e-06 3.476543272866810e-19
 6.865544609300134e-03 -2.557393186761310e-06  3.480018188539759e-19
 6.864123891804412e-03 -2.556863974084002e-06  3.492404512019713e-19
6.876062233724147e-03 7.233941774750513e-07 3.488029035208149e-19
 6.855621413870379e-03 -7.688787117270735e-05  3.494772422965415e-19
6.937731429730889e-03 6.341758078686972e-04 3.372601526483851e-19
 6.989564130330802e-03 -2.671860953606867e-04  3.551384367235395e-19
6.879787108196618e-03 5.210808400048873e-05 3.535060885426388e-19
 6.815682185215913e-03 -1.121996437470704e-04  3.523028013801913e-19
6.788596398509684e-03 3.011801513105884e-04 3.553969555040060e-19
 6.819310834116615e-03 -5.364797289783758e-06  3.523348088106032e-19
 6.946252331220414e-03 -2.889168993794021e-04  3.456060436577688e-19
 7.145975028140281e-03 -2.972240065183740e-04  3.543153392863067e-19
7.032592508084219e-03 7.338329191102427e-04 3.596605087311121e-19
6.914820089087524e-03 1.622966367797919e-04 3.588870944695125e-19
6.767068743421362e-03 1.408766883435921e-04 3.581855284679538e-19
 6.821324465663896e-03 -3.561126420195847e-05  3.609762698889493e-19
 6.915616898603935e-03 -3.610352531027777e-05  3.659435500377150e-19
7.010261744160210e-03 1.010172862445944e-04 3.703555861465998e-19
 7.058776309621128e-03 -7.834514758153697e-05  3.813873062985565e-19
7.072025200663045e-03 8.012245175174714e-05 3.773005232050061e-19
 7.056588432240680e-03 -2.244638454948316e-04  3.747902935421838e-19
7.000002204752979e-03 5.484091187452538e-05 3.758492968533377e-19
6.980012096989760e-03 5.468430110410869e-05 3.761009410184615e-19
6.921675500159831e-03 8.904189609987664e-05 3.781147175183812e-19
6.871465711385611e-03 2.171669071314776e-05 3.794960542944324e-19
6.911218918311452e-03 2.198648688964435e-04 3.781984651186114e-19
 6.886696241695626e-03 -6.312963467840439e-05  3.854573465087667e-19
6.845728208716332e-03 1.383652342056950e-04 3.838945226538840e-19
 6.831683101978067e-03 -4.820373034789833e-05  3.879790252756984e-19
6.819328597770119e-03 1.097683132628257e-04 3.888875026236627e-19
 6.868434796498936e-03 -2.260591789220556e-05  3.901302638369671e-19
6.864038511414686e-03 9.188098584489128e-05 3.989437617837851e-19
6.848011338953291e-03 1.469243495435357e-05 4.053258052170246e-19
6.843521361080803e-03 1.468280168937009e-05 4.109142726949096e-19
6.828029004557645e-03 5.030232122863277e-05 4.163110907270382e-19
 6.796128267702897e-03 -2.420164449252552e-05  4.214499852492803e-19
6.783765869838906e-03 8.242804253809150e-05 4.268529653271999e-19
6.929687438471711e-03 2.667816306680284e-04 4.244334585273107e-19
 6.869445209930558e-03 -1.697903978958124e-04  4.242265224775860e-19
 6.786698907475699e-03 -4.066318859820913e-06  4.311269423077409e-19
 6.831816912739801e-03 -4.093351766131345e-06  4.398327497886811e-19
 6.789376334530713e-03 -2.105671357636506e-04  4.577640671170734e-19
6.790542339195071e-03 2.094719001149128e-05 4.609882706206508e-19
 6.756884068414398e-03 -1.950027037246169e-04  4.694709713655316e-19
6.813872270682818e-03 3.337549155006752e-04 5.074155515649778e-19
 6.891907861861567e-03 -2.808879629248283e-04  4.811620752058871e-19
6.829197145020979e-03 1.308250871686867e-04 4.881665407220281e-19
 6.814808702192044e-03 -2.075601637194476e-04  4.947973775938150e-19
6.825777195653518e-03 1.354427146460784e-04 5.098233415934899e-19
 6.865297852722659e-03 -1.360546559799582e-04  5.296386422837397e-19
 6.870541682120428e-03 -4.421624916400822e-05  5.541666436688054e-19
 6.861164251851899e-03 -7.290942287637971e-05  5.899350081331341e-19
 6.863466756849257e-03 -7.293389019772131e-05  6.218335808419456e-19
 6.874778262896678e-03 -5.660405380346457e-05  6.755675981460133e-19
 6.883807483952054e-03 -7.226928334941776e-05  7.368160847159269e-19
 6.883659030730044e-03 -5.158531126390898e-05  7.561693770387039e-19
 6.899580595058326e-03 -5.812863595622553e-05  8.054363553270086e-19
 6.911687363298948e-03 -6.904222615220114e-05  9.239393053582569e-19
 6.907949801555737e-03 -7.707543070245335e-06  1.002114766907387e-18
 6.911785369085512e-03 -3.039489982138053e-05  1.075855211927416e-18
 6.888737006940030e-03 -3.029354356955126e-05  1.205778870771352e-18
6.867876262576523e-03 2.166588113064196e-05 1.411008027731739e-18
 6.846105095047602e-03 -3.280105424085843e-05  1.765701741106136e-18
 6.858504036705718e-03 -8.981330565463833e-05  2.209791649787548e-18
6.876186284501431e-03 9.854020662350341e-05 2.662477736218061e-18
 6.868410772955011e-03 -1.021393537464778e-04  3.245570937386237e-18
6.849301393299397e-03 1.190204902416289e-04 4.298076774537909e-18
 6.837417888045066e-03 -6.583390472403891e-05  6.126066335016993e-18
6.873118359348576e-03 2.421421955086519e-04 8.335872344803381e-18
 6.841974225682919e-03 -1.711149522139750e-04  1.011495745469878e-17
6.827243659394214e-03 3.284149920641887e-04 1.171470663804018e-17
 6.869654051188899e-03 -1.139671400966880e-04  1.467234174188723e-17
6.834851183798731e-03 2.142515262380886e-04 2.030572523054478e-17
 6.850561887382821e-03 -1.289064643818821e-05  3.275930422446918e-17
6.849798070297314e-03 1.398175559281347e-04 5.133253263810740e-17
6.855494389853979e-03 5.234251172915039e-05 7.707475608575000e-17
6.847559971803160e-03 5.228193150746664e-05 1.325907463638348e-16
 6.859507943300992e-03  9.716429079732198e-05 -1.488157635355251e-16
 6.873285471868007e-03 -1.828403858316062e-05 -1.661616632972106e-15
6.845228823670947e-03 5.429945456036250e-05 6.344143572356985e-15
 6.836915235851485e-03  3.582972893980440e-05 -1.840800896556037e-15
6.846560090093368e-03 5.431001476883015e-05 6.640786589009644e-15
6.838953242095868e-03 6.559646700287109e-05 9.884053606304993e-17
 6.840265157616867e-03 -2.997550098894667e-06  1.381836243122477e-16
6.824693783212665e-03 5.413004127876166e-05 1.057693429223930e-16
6.839647001028385e-03 5.424864268760524e-05 6.761319470512518e-17
 6.847537629604941e-03 -3.855244029984469e-05  4.185652070613078e-17
6.996218131614616e-03 3.411873315138580e-04 2.818834779838575e-17
 6.938464902070721e-03 -3.160776975824125e-04  2.392414662751419e-17
6.915681104452225e-03 1.909582798773734e-04 1.537746663302612e-17
 6.806745445349785e-03 -5.094209665926075e-04  1.185812855488178e-17
6.849412933509419e-03 3.895194919666184e-04 8.845688003595904e-18
 6.963541976925205e-03 -2.267382335579738e-04  6.938823987727047e-18
6.920674969735337e-03 2.702358329093181e-04 4.830053324259726e-18
 6.986970218852774e-03 -2.377633495854084e-04  3.976880079799403e-18
 6.913688182235154e-03 -1.739424922903939e-05  3.223628444048729e-18
7.058358843742295e-03 1.792515143481946e-04 2.550306281190797e-18
 7.066676393141902e-03 -3.688398055500479e-04  2.328024208961549e-18
6.981156373899923e-03 1.647531654107463e-04 1.957240453244439e-18
7.069499209298861e-03 2.018113988186784e-04 1.660654605390861e-18
6.995916711025532e-03 1.997108558430769e-04 1.399592469982348e-18
6.996140829771185e-03 1.582317969316732e-04 1.230087214699802e-18
 6.969655840047708e-03 -7.317185050928957e-06  1.149552129539427e-18
6.976950735092716e-03 1.859807031439656e-04 1.037424654821284e-18
7.020176751697012e-03 7.359499910870132e-05 9.454043342121414e-19
7.061621127493769e-03 7.402947517785239e-05 8.605296081796951e-19
7.211858944888623e-03 7.560447142486207e-05 7.933506567764501e-19
 6.988324215313267e-03 -3.870621371146262e-04  7.755884438330147e-19
7.023795062663546e-03 7.388445517311519e-04 6.542425387216723e-19
 7.079912864154473e-03 -1.569719107822352e-03  7.303680512744292e-19
7.089234528731813e-03 8.168818383503897e-05 6.337872747945324e-19
7.136352720391956e-03 8.223111967482668e-05 6.008752370759912e-19
6.720520960743318e-03 1.075513366776488e-03 5.116619861979056e-19
 6.538613864565789e-03 -4.187731136621494e-04  5.450470143721909e-19
 6.755703978493957e-03 -1.783123566572890e-04  5.196740450579578e-19
 6.938154522539199e-03 -2.692251088173320e-04  5.071277748847796e-19
6.984744139796058e-03 3.360062999433931e-05 4.834686712477946e-19
 6.922809292575651e-03 -3.292461287314770e-05  4.673339276451341e-19
 6.885565612643163e-03 -3.274748337384695e-05  4.516382554054554e-19
 6.869078468329661e-03 -3.580160179465741e-05  4.397499834592116e-19
 6.849134206629867e-03 -3.629250820800781e-05  4.314358816138334e-19
 6.821543100267987e-03 -3.614630718114850e-05  4.231349094451013e-19
6.808103667969822e-03 9.630535362690324e-07 4.171520569908859e-19
 6.768365678163277e-03 -4.147724661797309e-05  4.115796640247618e-19
 6.716610454461697e-03 -4.116008524116325e-05  4.036917143886131e-19
 6.800817187773271e-03 -4.773481398781467e-05  4.011276483799632e-19
 6.715964200864563e-03 -1.772743959118685e-04  3.989493628809722e-19
 6.773313425238075e-03 -1.787881843721345e-04  3.951794014226219e-19
 6.799259106781161e-03 -2.071110309664336e-04  3.914853855747012e-19
 6.823416633019046e-03 -1.091786388471776e-04  3.871700867534712e-19
 6.837135555442271e-03 -3.306605821789535e-04  3.873606861773615e-19
 6.849234947570394e-03 -9.804768179575019e-05  3.810243130801461e-19
 6.897692622600956e-03 -3.841475672386055e-04  3.809196409536261e-19
 6.962752891418660e-03 -2.896213313557738e-05  3.763176077193190e-19
 6.780856117056270e-03 -8.492905937126805e-04  3.776313814531878e-19
6.854183718040339e-03 1.103672239916587e-04 3.690115680064326e-19
 6.882712779286612e-03 -5.384754938462437e-04  3.730328757995187e-19
7.052231356917096e-03 6.040804557018970e-04 3.648690589055534e-19
 6.858614087729891e-03 -8.541568481313398e-04  3.721992024681951e-19
6.978138354504756e-03 8.564682369236740e-04 3.574466581224200e-19
 6.843496663456679e-03 -1.669037237435397e-03  3.722889436307224e-19
6.736477364996371e-03 5.023729618849589e-04 3.555176460490094e-19
 6.762160354613157e-03 -6.858561698656828e-04  3.642364492740076e-19
6.675552870890606e-03 1.973836817714293e-03 3.356974162919987e-19
 6.967215558176700e-03 -7.522980565754793e-04  3.688805701474134e-19
6.834634363446466e-03 1.114427146182960e-03 3.480525876305359e-19
 7.052704546757316e-03 -4.913154326613193e-04  3.682858319396529e-19
6.997638616815783e-03 6.856394623217346e-04 3.558940817392094e-19
 6.968044917511186e-03 -5.955434142649836e-04  3.608734075967792e-19
6.862626324009532e-03 5.965106360203815e-04 3.529377541748634e-19
 7.012848334008063e-03 -3.004020897369958e-04  3.617839784068376e-19
7.015151255667892e-03 2.931495210867201e-04 3.563841353314809e-19
 6.955968511458011e-03 -9.340841608983146e-04  3.626314857796140e-19
6.899896708785758e-03 2.121677283644438e-04 3.529515293001482e-19
 6.907256798761653e-03 -1.393536796926707e-04  3.545555958025340e-19
6.872691207311139e-03 1.955033659785832e-04 3.517556900249479e-19
 6.899396843905150e-03 -8.804292157786227e-06  3.528656617425833e-19
6.869609814063775e-03 1.945442063657637e-04 3.502852806048944e-19
6.885871278766056e-03 3.971555509283726e-05 3.508686159680556e-19
6.883362755676134e-03 9.344165271908694e-05 3.496657046165207e-19
6.874013444725096e-03 6.508129382255007e-05 3.486875043310813e-19
6.872149468992157e-03 6.506364620615694e-05 3.483216376147597e-19
6.873750443048492e-03 6.507880379404947e-05 3.479926086755835e-19
6.888963760613501e-03 5.829636389765899e-05 3.478959672738828e-19
6.877346323980829e-03 4.391929237424122e-05 3.471292005888621e-19
6.875609282736632e-03 4.390819948773002e-05 3.466318890105577e-19
6.868336703857355e-03 1.394316781598149e-05 3.459105494544201e-19
6.839741179249640e-03 3.372257658316327e-05 3.445720893877571e-19
6.799684508680558e-03 3.352508166259075e-05 3.428376373204254e-19
 6.748856876073781e-03 -4.586364425091558e-05  3.412223383901200e-19
6.846035659361093e-03 1.065746964857414e-03 3.351298954160189e-19
 6.810383275043004e-03 -2.563914332387544e-04  3.427695865069184e-19
6.797318687651132e-03 6.588197569866547e-05 3.409092508405589e-19
 6.830698691662730e-03 -2.170684416075410e-04  3.417782784554140e-19
 6.874041253261316e-03 -3.454958155818652e-05  3.427593060755172e-19
 6.890278061724904e-03 -1.095086822016855e-04  3.422410845158172e-19
 6.916145428630956e-03 -1.099197978687940e-04  3.432952066914320e-19
 6.914185552604097e-03 -2.154328866901802e-05  3.424141966374063e-19
 6.874677995942115e-03 -2.142019062785306e-05  3.412927956597900e-19
 6.865575184842638e-03 -2.139182799776110e-05  3.405811223580306e-19
 6.894566578818998e-03 -2.832481701602285e-04  3.427620809612783e-19
 6.923419754401898e-03 -2.426182682275414e-05  3.427309513603955e-19
 6.948531894239645e-03 -2.434982760986586e-05  3.430877145775723e-19
 6.919013799773023e-03 -2.424638698059712e-05  3.429383862363434e-19
6.996937950146468e-03 8.206511195813084e-06 3.438711738173721e-19
 7.066434822531421e-03 -2.448563909927201e-04  3.470537181452760e-19
 7.044621330181695e-03 -2.441005398250746e-04  3.505346143073999e-19
7.155745417552033e-03 1.035570093942773e-03 3.444706869194733e-19
 7.297799520674147e-03 -2.729086386735620e-04  3.543034901774460e-19
7.339821057872794e-03 2.767590644848569e-04 3.553662668230344e-19
 7.284740742425390e-03 -3.591499311705576e-04  3.572642243532864e-19
7.234279913645427e-03 5.895822826095351e-04 3.537741142451614e-19
 7.512235670214850e-03 -6.132561473281958e-05  3.594269152562352e-19
7.218749675030224e-03 2.100062409595692e-05 3.540908898618926e-19
7.127269517238806e-03 2.063401377837481e-05 3.516743358305096e-19
7.153844162673276e-03 3.511201312604207e-04 3.502592714430349e-19
 7.099967819406439e-03 -7.529662391692429e-05  3.497772608619818e-19
 7.058519402686452e-03 -7.762840029525301e-05  3.488592327120903e-19
 7.054537072138851e-03 -7.758460329871294e-05  3.482481094969298e-19
 7.060440448098108e-03 -1.798977810354739e-04  3.492972644087142e-19
 7.106218483784415e-03 -6.367736578793347e-05  3.497900934495094e-19
 7.163335267983485e-03 -2.349829946499863e-04  3.509843072377522e-19
 7.081621155961929e-03 -2.388908530678354e-04  3.515470345832076e-19
 7.110327840572237e-03 -1.321445195388422e-04  3.508516612786173e-19
 7.097051439450740e-03 -4.259239940962046e-04  3.516394836183307e-19
 7.184984367498248e-03 -6.823635370089946e-05  3.531447218769061e-19
 7.239897080219398e-03 -5.020938581014301e-04  3.533129532831303e-19
 7.424379049094046e-03 -3.793889030101807e-04  3.620302767035757e-19
 7.772534529138488e-03 -1.441432018653085e-03  3.666523937654766e-19
 8.616691137470127e-03 -3.931113104030643e-04  3.913766253449297e-19
 8.286711829452367e-03 -2.200773229044668e-03  3.827841683102132e-19
5.678858613579582e-03 2.224113002215323e-03 3.460289607354518e-19
7.940711760372345e-03 2.205178824371993e-03 3.752996135108514e-19
8.634925512765916e-03 1.676970144519786e-03 3.664449178890181e-19
8.088832145247991e-03 1.395599643736353e-03 3.615743838278095e-19
7.388888498946069e-03 1.156258852291044e-03 3.475266183380162e-19
7.085879542940678e-03 4.945100448008031e-04 3.430387355254097e-19
6.803285042252882e-03 9.641047495845257e-04 3.318419496554453e-19
 5.971499967050626e-03 -3.877376082043462e-03  2.935343551449122e-19
6.659007991171029e-03 5.037937784649774e-04 3.283528251270043e-19
6.736057447090337e-03 1.782669877281977e-04 3.328067266852359e-19
6.812403361975834e-03 3.978754226065038e-04 3.333106410745167e-19
6.822037448961499e-03 3.779687613048376e-04 3.326147064155624e-19
6.808450195148306e-03 2.740931450881780e-04 3.331937085606349e-19
6.839374374823298e-03 2.543139297579784e-04 3.340254773714605e-19
6.867889194066243e-03 2.689254383555071e-04 3.349309101503026e-19
6.881080833915252e-03 1.910370325740076e-04 3.354155414852560e-19
6.915981096263703e-03 1.920059563108488e-04 3.367782234931496e-19
6.935680085914101e-03 1.925528524480035e-04 3.376940458534464e-19
6.906364495695712e-03 1.917389740038100e-04 3.375264940580583e-19
7.012703904093473e-03 2.588467515720700e-04 3.382584001052696e-19
 7.078900223484416e-03 -2.064623628004331e-04  3.438586455360212e-19
7.031962598538103e-03 5.996633172867083e-04 3.395891548250272e-19
 6.648756045225954e-03 -3.885441421410905e-04  3.337505425560606e-19
6.812701794744689e-03 1.300794260679634e-03 3.244224389310691e-19
 6.778092733354860e-03 -8.192430317330297e-04  3.359052681905122e-19
6.628140905619535e-03 7.532334903636464e-04 3.301033128392420e-19
 7.009890883732352e-03 -4.503773503342616e-04  3.399873767479667e-19
 7.245828189124097e-03 -3.348110108453109e-04  3.463546455518959e-19
 6.626056496574285e-03 -6.213491824292235e-04  3.395831643220835e-19
2.077419089163658e-03 6.713170548198954e-03 7.789673289046884e-20
 7.231151496878866e-03 -5.414898481362400e-04  3.401906614721482e-19
 7.082506174150524e-03 -3.009159613112360e-04  3.431446086817274e-19
 6.631137112687231e-03 -3.287186049819153e-05  3.357110404880069e-19
7.183795382948479e-03 9.178196519175484e-04 3.354014383862388e-19
 7.171025012141974e-03 -1.708881510226797e-04  3.404669332347985e-19
6.825722502734081e-03 5.042690349638558e-04 3.279390317412661e-19
 6.740681718185291e-03 -7.507703028409081e-04  3.305441537147063e-19
6.712913035205115e-03 3.997546829434737e-04 3.263714399957523e-19
 6.840068767635942e-03 -2.306169832284814e-04  3.312391003915188e-19
6.765872321122679e-03 5.011640212242317e-04 3.259483234685580e-19
 6.777731465056122e-03 -1.006577290888878e-04  3.274227397560848e-19
6.642559651505196e-03 2.824546895938862e-04 3.227556729731304e-19
6.400335037149354e-03 2.721548229988794e-04 3.143637874545816e-19
 6.600826821380621e-03 -1.944229666297173e-03  3.152230296048468e-19
 6.408141380900279e-03 -3.727210003213979e-04  3.172622585726823e-19
 6.638742520181380e-03 -2.666797543589271e-05  3.236625179391326e-19
 6.695250291144707e-03 -4.413049677632321e-04  3.280817926003160e-19
 6.684473741458635e-03 -8.749883211630661e-05  3.248792206819990e-19
 6.758852635256191e-03 -2.612665062046981e-04  3.271074040989849e-19
 6.743202336558747e-03 -1.561279968232814e-04  3.273351023958961e-19
 6.780436934814739e-03 -1.569901040162852e-04  3.279206446898283e-19
 6.841337917417815e-03 -2.426819706681250e-04  3.298513674582391e-19
 6.730470013130450e-03 -2.574236245636231e-04  3.283829360004671e-19
6.837151223559827e-03 1.755398754090866e-04 3.284782394080193e-19

VECTORS velocity double
0.000000000000000e+00 0.000000000000000e+00 0.000000000000000e+00
0.000000000000000e+00 0.000000000000000e+00 0.000000000000000e+00
0.000000000000000e+00 0.000000000000000e+00 0.000000000000000e+00
0.000000000000000e+00 0.000000000000000e+00 0.000000000000000e+00
0.000000000000000e+00 0.000000000000000e+00 0.000000000000000e+00
0.000000000000000e+00 0.000000000000000e+00 0.000000000000000e+00
0.000000000000000e+00 0.000000000000000e+00 0.000000000000000e+00
0.000000000000000e+00 0.000000000000000e+00 0.000000000000000e+00
0.000000000000000e+00 0.000000000000000e+00 0.000000000000000e+00
0.000000000000000e+00 0.000000000000000e+00 0.000000000000000e+00
0.000000000000000e+00 0.000000000000000e+00 0.000000000000000e+00
0.000000000000000e+00 0.000000000000000e+00 0.000000000000000e+00
0.000000000000000e+00 0.000000000000000e+00 0.000000000000000e+00
0.000000000000000e+00 0.000000000000000e+00 0.000000000000000e+00
0.000000000000000e+00 0.000000000000000e+00 0.000000000000000e+00
0.000000000000000e+00 0.000000000000000e+00 0.000000000000000e+00
0.000000000000000e+00 0.000000000000000e+00 0.000000000000000e+00
0.000000000000000e+00 0.000000000000000e+00 0.000000000000000e+00
0.000000000000000e+00 0.000000000000000e+00 0.000000000000000e+00
0.000000000000000e+00 0.000000000000000e+00 0.000000000000000e+00
0.000000000000000e+00 0.000000000000000e+00 0.000000000000000e+00
0.000000000000000e+00 0.000000000000000e+00 0.000000000000000e+00
0.000000000000000e+00 0.000000000000000e+00 0.000000000000000e+00
0.000000000000000e+00 0.000000000000000e+00 0.000000000000000e+00
0.000000000000000e+00 0.000000000000000e+00 0.000000000000000e+00
0.000000000000000e+00 0.000000000000000e+00 0.000000000000000e+00
0.000000000000000e+00 0.000000000000000e+00 0.000000000000000e+00
0.000000000000000e+00 0.000000000000000e+00 0.000000000000000e+00
0.000000000000000e+00 0.000000000000000e+00 0.000000000000000e+00
0.000000000000000e+00 0.000000000000000e+00 0.000000000000000e+00
0.000000000000000e+00 0.000000000000000e+00 0.000000000000000e+00
0.000000000000000e+00 0.000000000000000e+00 0.000000000000000e+00
0.000000000000000e+00 0.000000000000000e+00 0.000000000000000e+00
0.000000000000000e+00 0.000000000000000e+00 0.000000000000000e+00
0.000000000000000e+00 0.000000000000000e+00 0.000000000000000e+00
0.000000000000000e+00 0.000000000000000e+00 0.000000000000000e+00
0.000000000000000e+00 0.000000000000000e+00 0.000000000000000e+00
0.000000000000000e+00 0.000000000000000e+00 0.000000000000000e+00
0.000000000000000e+00 0.000000000000000e+00 0.000000000000000e+00
0.000000000000000e+00 0.000000000000000e+00 0.000000000000000e+00
0.000000000000000e+00 0.000000000000000e+00 0.000000000000000e+00
0.000000000000000e+00 0.000000000000000e+00 0.000000000000000e+00
0.000000000000000e+00 0.000000000000000e+00 0.000000000000000e+00
0.000000000000000e+00 0.000000000000000e+00 0.000000000000000e+00
0.000000000000000e+00 0.000000000000000e+00 0.000000000000000e+00
0.000000000000000e+00 0.000000000000000e+00 0.000000000000000e+00
0.000000000000000e+00 0.000000000000000e+00 0.000000000000000e+00
0.000000000000000e+00 0.000000000000000e+00 0.000000000000000e+00
0.000000000000000e+00 0.000000000000000e+00 0.000000000000000e+00
0.000000000000000e+00 0.000000000000000e+00 0.000000000000000e+00
0.000000000000000e+00 0.000000000000000e+00 0.000000000000000e+00
0.000000000000000e+00 0.000000000000000e+00 0.000000000000000e+00
0.000000000000000e+00 0.000000000000000e+00 0.000000000000000e+00
0.000000000000000e+00 0.000000000000000e+00 0.000000000000000e+00
0.000000000000000e+00 0.000000000000000e+00 0.000000000000000e+00
0.000000000000000e+00 0.000000000000000e+00 0.000000000000000e+00
0.000000000000000e+00 0.000000000000000e+00 0.000000000000000e+00
0.000000000000000e+00 0.000000000000000e+00 0.000000000000000e+00
0.000000000000000e+00 0.000000000000000e+00 0.000000000000000e+00
0.000000000000000e+00 0.000000000000000e+00 0.000000000000000e+00
0.000000000000000e+00 0.000000000000000e+00 0.000000000000000e+00
0.000000000000000e+00 0.000000000000000e+00 0.000000000000000e+00
0.000000000000000e+00 0.000000000000000e+00 0.000000000000000e+00
0.000000000000000e+00 0.000000000000000e+00 0.000000000000000e+00
0.000000000000000e+00 0.000000000000000e+00 0.000000000000000e+00
0.000000000000000e+00 0.000000000000000e+00 0.000000000000000e+00
0.000000000000000e+00 0.000000000000000e+00 0.000000000000000e+00
0.000000000000000e+00 0.000000000000000e+00 0.000000000000000e+00
0.000000000000000e+00 0.000000000000000e+00 0.000000000000000e+00
0.000000000000000e+00 0.000000000000000e+00 0.000000000000000e+00
0.000000000000000e+00 0.000000000000000e+00 0.000000000000000e+00
0.000000000000000e+00 0.000000000000000e+00 0.000000000000000e+00
0.000000000000000e+00 0.000000000000000e+00 0.000000000000000e+00
0.000000000000000e+00 0.000000000000000e+00 0.000000000000000e+00
0.000000000000000e+00 0.000000000000000e+00 0.000000000000000e+00
0.000000000000000e+00 0.000000000000000e+00 0.000000000000000e+00
0.000000000000000e+00 0.000000000000000e+00 0.000000000000000e+00
0.000000000000000e+00 0.000000000000000e+00 0.000000000000000e+00
0.000000000000000e+00 0.000000000000000e+00 0.000000000000000e+00
0.000000000000000e+00 0.000000000000000e+00 0.000000000000000e+00
0.000000000000000e+00 0.000000000000000e+00 0.000000000000000e+00
0.000000000000000e+00 0.000000000000000e+00 0.000000000000000e+00
0.000000000000000e+00 0.000000000000000e+00 0.000000000000000e+00
0.000000000000000e+00 0.000000000000000e+00 0.000000000000000e+00
0.000000000000000e+00 0.000000000000000e+00 0.000000000000000e+00
0.000000000000000e+00 0.000000000000000e+00 0.000000000000000e+00
0.000000000000000e+00 0.000000000000000e+00 0.000000000000000e+00
0.000000000000000e+00 0.000000000000000e+00 0.000000000000000e+00
0.000000000000000e+00 0.000000000000000e+00 0.000000000000000e+00
0.000000000000000e+00 0.000000000000000e+00 0.000000000000000e+00
0.000000000000000e+00 0.000000000000000e+00 0.000000000000000e+00
0.000000000000000e+00 0.000000000000000e+00 0.000000000000000e+00
0.000000000000000e+00 0.000000000000000e+00 0.000000000000000e+00
0.000000000000000e+00 0.000000000000000e+00 0.000000000000000e+00
0.000000000000000e+00 0.000000000000000e+00 0.000000000000000e+00
0.000000000000000e+00 0.000000000000000e+00 0.000000000000000e+00
0.000000000000000e+00 0.000000000000000e+00 0.000000000000000e+00
0.000000000000000e+00 0.000000000000000e+00 0.000000000000000e+00
0.000000000000000e+00 0.000000000000000e+00 0.000000000000000e+00
0.000000000000000e+00 0.000000000000000e+00 0.000000000000000e+00
0.000000000000000e+00 0.000000000000000e+00 0.000000000000000e+00
0.000000000000000e+00 0.000000000000000e+00 0.000000000000000e+00
0.000000000000000e+00 0.000000000000000e+00 0.000000000000000e+00
0.000000000000000e+00 0.000000000000000e+00 0.000000000000000e+00
0.000000000000000e+00 0.000000000000000e+00 0.000000000000000e+00
0.000000000000000e+00 0.000000000000000e+00 0.000000000000000e+00
0.000000000000000e+00 0.000000000000000e+00 0.000000000000000e+00
0.000000000000000e+00 0.000000000000000e+00 0.000000000000000e+00
0.000000000000000e+00 0.000000000000000e+00 0.000000000000000e+00
0.000000000000000e+00 0.000000000000000e+00 0.000000000000000e+00
0.000000000000000e+00 0.000000000000000e+00 0.000000000000000e+00
0.000000000000000e+00 0.000000000000000e+00 0.000000000000000e+00
0.000000000000000e+00 0.000000000000000e+00 0.000000000000000e+00
0.000000000000000e+00 0.000000000000000e+00 0.000000000000000e+00
0.000000000000000e+00 0.000000000000000e+00 0.000000000000000e+00
0.000000000000000e+00 0.000000000000000e+00 0.000000000000000e+00
0.000000000000000e+00 0.000000000000000e+00 0.000000000000000e+00
0.000000000000000e+00 0.000000000000000e+00 0.000000000000000e+00
0.000000000000000e+00 0.000000000000000e+00 0.000000000000000e+00
0.000000000000000e+00 0.000000000000000e+00 0.000000000000000e+00
0.000000000000000e+00 0.000000000000000e+00 0.000000000000000e+00
0.000000000000000e+00 0.000000000000000e+00 0.000000000000000e+00
0.000000000000000e+00 0.000000000000000e+00 0.000000000000000e+00
0.000000000000000e+00 0.000000000000000e+00 0.000000000000000e+00
0.000000000000000e+00 0.000000000000000e+00 0.000000000000000e+00
0.000000000000000e+00 0.000000000000000e+00 0.000000000000000e+00
0.000000000000000e+00 0.000000000000000e+00 0.000000000000000e+00
0.000000000000000e+00 0.000000000000000e+00 0.000000000000000e+00
0.000000000000000e+00 0.000000000000000e+00 0.000000000000000e+00
0.000000000000000e+00 0.000000000000000e+00 0.000000000000000e+00
0.000000000000000e+00 0.000000000000000e+00 0.000000000000000e+00
0.000000000000000e+00 0.000000000000000e+00 0.000000000000000e+00
0.000000000000000e+00 0.000000000000000e+00 0.000000000000000e+00
0.000000000000000e+00 0.000000000000000e+00 0.000000000000000e+00
0.000000000000000e+00 0.000000000000000e+00 0.000000000000000e+00
0.000000000000000e+00 0.000000000000000e+00 0.000000000000000e+00
0.000000000000000e+00 0.000000000000000e+00 0.000000000000000e+00
0.000000000000000e+00 0.000000000000000e+00 0.000000000000000e+00
0.000000000000000e+00 0.000000000000000e+00 0.000000000000000e+00
0.000000000000000e+00 0.000000000000000e+00 0.000000000000000e+00
0.000000000000000e+00 0.000000000000000e+00 0.000000000000000e+00
0.000000000000000e+00 0.000000000000000e+00 0.000000000000000e+00
0.000000000000000e+00 0.000000000000000e+00 0.000000000000000e+00
0.000000000000000e+00 0.000000000000000e+00 0.000000000000000e+00
0.000000000000000e+00 0.000000000000000e+00 0.000000000000000e+00
0.000000000000000e+00 0.000000000000000e+00 0.000000000000000e+00
0.000000000000000e+00 0.000000000000000e+00 0.000000000000000e+00
0.000000000000000e+00 0.000000000000000e+00 0.000000000000000e+00
0.000000000000000e+00 0.000000000000000e+00 0.000000000000000e+00
0.000000000000000e+00 0.000000000000000e+00 0.000000000000000e+00
0.000000000000000e+00 0.000000000000000e+00 0.000000000000000e+00
0.000000000000000e+00 0.000000000000000e+00 0.000000000000000e+00
0.000000000000000e+00 0.000000000000000e+00 0.000000000000000e+00
0.000000000000000e+00 0.000000000000000e+00 0.000000000000000e+00
0.000000000000000e+00 0.000000000000000e+00 0.000000000000000e+00
0.000000000000000e+00 0.000000000000000e+00 0.000000000000000e+00
0.000000000000000e+00 0.000000000000000e+00 0.000000000000000e+00
0.000000000000000e+00 0.000000000000000e+00 0.000000000000000e+00
0.000000000000000e+00 0.000000000000000e+00 0.000000000000000e+00
0.000000000000000e+00 0.000000000000000e+00 0.000000000000000e+00
0.000000000000000e+00 0.000000000000000e+00 0.000000000000000e+00
0.000000000000000e+00 0.000000000000000e+00 0.000000000000000e+00
0.000000000000000e+00 0.000000000000000e+00 0.000000000000000e+00
0.000000000000000e+00 0.000000000000000e+00 0.000000000000000e+00
0.000000000000000e+00 0.000000000000000e+00 0.000000000000000e+00
0.000000000000000e+00 0.000000000000000e+00 0.000000000000000e+00
0.000000000000000e+00 0.000000000000000e+00 0.000000000000000e+00
0.000000000000000e+00 0.000000000000000e+00 0.000000000000000e+00
0.000000000000000e+00 0.000000000000000e+00 0.000000000000000e+00
0.000000000000000e+00 0.000000000000000e+00 0.000000000000000e+00
0.000000000000000e+00 0.000000000000000e+00 0.000000000000000e+00
0.000000000000000e+00 0.000000000000000e+00 0.000000000000000e+00
0.000000000000000e+00 0.000000000000000e+00 0.000000000000000e+00
0.000000000000000e+00 0.000000000000000e+00 0.000000000000000e+00
0.000000000000000e+00 0.000000000000000e+00 0.000000000000000e+00
0.000000000000000e+00 0.000000000000000e+00 0.000000000000000e+00
0.000000000000000e+00 0.000000000000000e+00 0.000000000000000e+00
0.000000000000000e+00 0.000000000000000e+00 0.000000000000000e+00
0.000000000000000e+00 0.000000000000000e+00 0.000000000000000e+00
0.000000000000000e+00 0.000000000000000e+00 0.000000000000000e+00
0.000000000000000e+00 0.000000000000000e+00 0.000000000000000e+00
0.000000000000000e+00 0.000000000000000e+00 0.000000000000000e+00
0.000000000000000e+00 0.000000000000000e+00 0.000000000000000e+00
0.000000000000000e+00 0.000000000000000e+00 0.000000000000000e+00
0.000000000000000e+00 0.000000000000000e+00 0.000000000000000e+00
0.000000000000000e+00 0.000000000000000e+00 0.000000000000000e+00
0.000000000000000e+00 0.000000000000000e+00 0.000000000000000e+00
0.000000000000000e+00 0.000000000000000e+00 0.000000000000000e+00
0.000000000000000e+00 0.000000000000000e+00 0.000000000000000e+00
0.000000000000000e+00 0.000000000000000e+00 0.000000000000000e+00
0.000000000000000e+00 0.000000000000000e+00 0.000000000000000e+00
0.000000000000000e+00 0.000000000000000e+00 0.000000000000000e+00
0.000000000000000e+00 0.000000000000000e+00 0.000000000000000e+00
0.000000000000000e+00 0.000000000000000e+00 0.000000000000000e+00
0.000000000000000e+00 0.000000000000000e+00 0.000000000000000e+00
0.000000000000000e+00 0.000000000000000e+00 0.000000000000000e+00
0.000000000000000e+00 0.000000000000000e+00 0.000000000000000e+00
0.000000000000000e+00 0.000000000000000e+00 0.000000000000000e+00
0.000000000000000e+00 0.000000000000000e+00 0.000000000000000e+00
0.000000000000000e+00 0.000000000000000e+00 0.000000000000000e+00
0.000000000000000e+00 0.000000000000000e+00 0.000000000000000e+00
0.000000000000000e+00 0.000000000000000e+00 0.000000000000000e+00
0.000000000000000e+00 0.000000000000000e+00 0.000000000000000e+00
0.000000000000000e+00 0.000000000000000e+00 0.000000000000000e+00
0.000000000000000e+00 0.000000000000000e+00 0.000000000000000e+00
0.000000000000000e+00 0.000000000000000e+00 0.000000000000000e+00
0.000000000000000e+00 0.000000000000000e+00 0.000000000000000e+00
0.000000000000000e+00 0.000000000000000e+00 0.000000000000000e+00
0.000000000000000e+00 0.000000000000000e+00 0.000000000000000e+00
0.000000000000000e+00 0.000000000000000e+00 0.000000000000000e+00
0.000000000000000e+00 0.000000000000000e+00 0.000000000000000e+00
0.000000000000000e+00 0.000000000000000e+00 0.000000000000000e+00
0.000000000000000e+00 0.000000000000000e+00 0.000000000000000e+00
0.000000000000000e+00 0.000000000000000e+00 0.000000000000000e+00
0.000000000000000e+00 0.000000000000000e+00 0.000000000000000e+00
0.000000000000000e+00 0.000000000000000e+00 0.000000000000000e+00
0.000000000000000e+00 0.000000000000000e+00 0.000000000000000e+00
0.000000000000000e+00 0.000000000000000e+00 0.000000000000000e+00
0.000000000000000e+00 0.000000000000000e+00 0.000000000000000e+00
0.000000000000000e+00 0.000000000000000e+00 0.000000000000000e+00
0.000000000000000e+00 0.000000000000000e+00 0.000000000000000e+00
0.000000000000000e+00 0.000000000000000e+00 0.000000000000000e+00
0.000000000000000e+00 0.000000000000000e+00 0.000000000000000e+00
0.000000000000000e+00 0.000000000000000e+00 0.000000000000000e+00
0.000000000000000e+00 0.000000000000000e+00 0.000000000000000e+00
0.000000000000000e+00 0.000000000000000e+00 0.000000000000000e+00
0.000000000000000e+00 0.000000000000000e+00 0.000000000000000e+00
0.000000000000000e+00 0.000000000000000e+00 0.000000000000000e+00
0.000000000000000e+00 0.000000000000000e+00 0.000000000000000e+00
0.000000000000000e+00 0.000000000000000e+00 0.000000000000000e+00
0.000000000000000e+00 0.000000000000000e+00 0.000000000000000e+00
0.000000000000000e+00 0.000000000000000e+00 0.000000000000000e+00
0.000000000000000e+00 0.000000000000000e+00 0.000000000000000e+00
0.000000000000000e+00 0.000000000000000e+00 0.000000000000000e+00
0.000000000000000e+00 0.000000000000000e+00 0.000000000000000e+00
0.000000000000000e+00 0.000000000000000e+00 0.000000000000000e+00
0.000000000000000e+00 0.000000000000000e+00 0.000000000000000e+00
0.000000000000000e+00 0.000000000000000e+00 0.000000000000000e+00
0.000000000000000e+00 0.000000000000000e+00 0.000000000000000e+00
0.000000000000000e+00 0.000000000000000e+00 0.000000000000000e+00
0.000000000000000e+00 0.000000000000000e+00 0.000000000000000e+00
0.000000000000000e+00 0.000000000000000e+00 0.000000000000000e+00
0.000000000000000e+00 0.000000000000000e+00 0.000000000000000e+00
0.000000000000000e+00 0.000000000000000e+00 0.000000000000000e+00
0.000000000000000e+00 0.000000000000000e+00 0.000000000000000e+00
0.000000000000000e+00 0.000000000000000e+00 0.000000000000000e+00
0.000000000000000e+00 0.000000000000000e+00 0.000000000000000e+00
0.000000000000000e+00 0.000000000000000e+00 0.000000000000000e+00
0.000000000000000e+00 0.000000000000000e+00 0.000000000000000e+00
0.000000000000000e+00 0.000000000000000e+00 0.000000000000000e+00
0.000000000000000e+00 0.000000000000000e+00 0.000000000000000e+00
0.000000000000000e+00 0.000000000000000e+00 0.000000000000000e+00
0.000000000000000e+00 0.000000000000000e+00 0.000000000000000e+00
0.000000000000000e+00 0.000000000000000e+00 0.000000000000000e+00
0.000000000000000e+00 0.000000000000000e+00 0.000000000000000e+00
0.000000000000000e+00 0.000000000000000e+00 0.000000000000000e+00
0.000000000000000e+00 0.000000000000000e+00 0.000000000000000e+00
0.000000000000000e+00 0.000000000000000e+00 0.000000000000000e+00
0.000000000000000e+00 0.000000000000000e+00 0.000000000000000e+00
0.000000000000000e+00 0.000000000000000e+00 0.000000000000000e+00
0.000000000000000e+00 0.000000000000000e+00 0.000000000000000e+00
0.000000000000000e+00 0.000000000000000e+00 0.000000000000000e+00
0.000000000000000e+00 0.000000000000000e+00 0.000000000000000e+00
0.000000000000000e+00 0.000000000000000e+00 0.000000000000000e+00
0.000000000000000e+00 0.000000000000000e+00 0.000000000000000e+00
0.000000000000000e+00 0.000000000000000e+00 0.000000000000000e+00
0.000000000000000e+00 0.000000000000000e+00 0.000000000000000e+00
0.000000000000000e+00 0.000000000000000e+00 0.000000000000000e+00
0.000000000000000e+00 0.000000000000000e+00 0.000000000000000e+00
0.000000000000000e+00 0.000000000000000e+00 0.000000000000000e+00
0.000000000000000e+00 0.000000000000000e+00 0.000000000000000e+00
0.000000000000000e+00 0.000000000000000e+00 0.000000000000000e+00
0.000000000000000e+00 0.000000000000000e+00 0.000000000000000e+00
0.000000000000000e+00 0.000000000000000e+00 0.000000000000000e+00
0.000000000000000e+00 0.000000000000000e+00 0.000000000000000e+00
0.000000000000000e+00 0.000000000000000e+00 0.000000000000000e+00
0.000000000000000e+00 0.000000000000000e+00 0.000000000000000e+00
0.000000000000000e+00 0.000000000000000e+00 0.000000000000000e+00
0.000000000000000e+00 0.000000000000000e+00 0.000000000000000e+00
0.000000000000000e+00 0.000000000000000e+00 0.000000000000000e+00
0.000000000000000e+00 0.000000000000000e+00 0.000000000000000e+00
0.000000000000000e+00 0.000000000000000e+00 0.000000000000000e+00
0.000000000000000e+00 0.000000000000000e+00 0.000000000000000e+00
0.000000000000000e+00 0.000000000000000e+00 0.000000000000000e+00
0.000000000000000e+00 0.000000000000000e+00 0.000000000000000e+00
0.000000000000000e+00 0.000000000000000e+00 0.000000000000000e+00
0.000000000000000e+00 0.000000000000000e+00 0.000000000000000e+00
0.000000000000000e+00 0.000000000000000e+00 0.000000000000000e+00
0.000000000000000e+00 0.000000000000000e+00 0.000000000000000e+00
0.000000000000000e+00 0.000000000000000e+00 0.000000000000000e+00
0.000000000000000e+00 0.000000000000000e+00 0.000000000000000e+00
0.000000000000000e+00 0.000000000000000e+00 0.000000000000000e+00
0.000000000000000e+00 0.000000000000000e+00 0.000000000000000e+00
0.000000000000000e+00 0.000000000000000e+00 0.000000000000000e+00
0.000000000000000e+00 0.000000000000000e+00 0.000000000000000e+00
0.000000000000000e+00 0.000000000000000e+00 0.000000000000000e+00
0.000000000000000e+00 0.000000000000000e+00 0.000000000000000e+00
0.000000000000000e+00 0.000000000000000e+00 0.000000000000000e+00
0.000000000000000e+00 0.000000000000000e+00 0.000000000000000e+00
0.000000000000000e+00 0.000000000000000e+00 0.000000000000000e+00
0.000000000000000e+00 0.000000000000000e+00 0.000000000000000e+00
0.000000000000000e+00 0.000000000000000e+00 0.000000000000000e+00
0.000000000000000e+00 0.000000000000000e+00 0.000000000000000e+00
0.000000000000000e+00 0.000000000000000e+00 0.000000000000000e+00
0.000000000000000e+00 0.000000000000000e+00 0.000000000000000e+00
0.000000000000000e+00 0.000000000000000e+00 0.000000000000000e+00
0.000000000000000e+00 0.000000000000000e+00 0.000000000000000e+00
0.000000000000000e+00 0.000000000000000e+00 0.000000000000000e+00
0.000000000000000e+00 0.000000000000000e+00 0.000000000000000e+00
0.000000000000000e+00 0.000000000000000e+00 0.000000000000000e+00
0.000000000000000e+00 0.000000000000000e+00 0.000000000000000e+00
0.000000000000000e+00 0.000000000000000e+00 0.000000000000000e+00
0.000000000000000e+00 0.000000000000000e+00 0.000000000000000e+00
0.000000000000000e+00 0.000000000000000e+00 0.000000000000000e+00
0.000000000000000e+00 0.000000000000000e+00 0.000000000000000e+00
0.000000000000000e+00 0.000000000000000e+00 0.000000000000000e+00
0.000000000000000e+00 0.000000000000000e+00 0.000000000000000e+00
0.000000000000000e+00 0.000000000000000e+00 0.000000000000000e+00
0.000000000000000e+00 0.000000000000000e+00 0.000000000000000e+00
0.000000000000000e+00 0.000000000000000e+00 0.000000000000000e+00
0.000000000000000e+00 0.000000000000000e+00 0.000000000000000e+00
0.000000000000000e+00 0.000000000000000e+00 0.000000000000000e+00
0.000000000000000e+00 0.000000000000000e+00 0.000000000000000e+00
0.000000000000000e+00 0.000000000000000e+00 0.000000000000000e+00
0.000000000000000e+00 0.000000000000000e+00 0.000000000000000e+00
0.000000000000000e+00 0.000000000000000e+00 0.000000000000000e+00
0.000000000000000e+00 0.000000000000000e+00 0.000000000000000e+00
0.000000000000000e+00 0.000000000000000e+00 0.000000000000000e+00
0.000000000000000e+00 0.000000000000000e+00 0.000000000000000e+00
0.000000000000000e+00 0.000000000000000e+00 0.000000000000000e+00
0.000000000000000e+00 0.000000000000000e+00 0.000000000000000e+00
0.000000000000000e+00 0.000000000000000e+00 0.000000000000000e+00
0.000000000000000e+00 0.000000000000000e+00 0.000000000000000e+00
0.000000000000000e+00 0.000000000000000e+00 0.000000000000000e+00
0.000000000000000e+00 0.000000000000000e+00 0.000000000000000e+00
0.000000000000000e+00 0.000000000000000e+00 0.000000000000000e+00
0.000000000000000e+00 0.000000000000000e+00 0.000000000000000e+00
0.000000000000000e+00 0.000000000000000e+00 0.000000000000000e+00
0.000000000000000e+00 0.000000000000000e+00 0.000000000000000e+00
0.000000000000000e+00 0.000000000000000e+00 0.000000000000000e+00
0.000000000000000e+00 0.000000000000000e+00 0.000000000000000e+00
0.000000000000000e+00 0.000000000000000e+00 0.000000000000000e+00
0.000000000000000e+00 0.000000000000000e+00 0.000000000000000e+00
0.000000000000000e+00 0.000000000000000e+00 0.000000000000000e+00
0.000000000000000e+00 0.000000000000000e+00 0.000000000000000e+00
0.000000000000000e+00 0.000000000000000e+00 0.000000000000000e+00
0.000000000000000e+00 0.000000000000000e+00 0.000000000000000e+00
0.000000000000000e+00 0.000000000000000e+00 0.000000000000000e+00
0.000000000000000e+00 0.000000000000000e+00 0.000000000000000e+00
0.000000000000000e+00 0.000000000000000e+00 0.000000000000000e+00
0.000000000000000e+00 0.000000000000000e+00 0.000000000000000e+00
0.000000000000000e+00 0.000000000000000e+00 0.000000000000000e+00
0.000000000000000e+00 0.000000000000000e+00 0.000000000000000e+00
0.000000000000000e+00 0.000000000000000e+00 0.000000000000000e+00
0.000000000000000e+00 0.000000000000000e+00 0.000000000000000e+00
0.000000000000000e+00 0.000000000000000e+00 0.000000000000000e+00
0.000000000000000e+00 0.000000000000000e+00 0.000000000000000e+00
0.000000000000000e+00 0.000000000000000e+00 0.000000000000000e+00
0.000000000000000e+00 0.000000000000000e+00 0.000000000000000e+00
0.000000000000000e+00 0.000000000000000e+00 0.000000000000000e+00
0.000000000000000e+00 0.000000000000000e+00 0.000000000000000e+00
0.000000000000000e+00 0.000000000000000e+00 0.000000000000000e+00
0.000000000000000e+00 0.000000000000000e+00 0.000000000000000e+00
0.000000000000000e+00 0.000000000000000e+00 0.000000000000000e+00
0.000000000000000e+00 0.000000000000000e+00 0.000000000000000e+00
0.000000000000000e+00 0.000000000000000e+00 0.000000000000000e+00
0.000000000000000e+00 0.000000000000000e+00 0.000000000000000e+00
0.000000000000000e+00 0.000000000000000e+00 0.000000000000000e+00
0.000000000000000e+00 0.000000000000000e+00 0.000000000000000e+00
0.000000000000000e+00 0.000000000000000e+00 0.000000000000000e+00
0.000000000000000e+00 0.000000000000000e+00 0.000000000000000e+00
0.000000000000000e+00 0.000000000000000e+00 0.000000000000000e+00
0.000000000000000e+00 0.000000000000000e+00 0.000000000000000e+00
0.000000000000000e+00 0.000000000000000e+00 0.000000000000000e+00
0.000000000000000e+00 0.000000000000000e+00 0.000000000000000e+00
0.000000000000000e+00 0.000000000000000e+00 0.000000000000000e+00
0.000000000000000e+00 0.000000000000000e+00 0.000000000000000e+00
0.000000000000000e+00 0.000000000000000e+00 0.000000000000000e+00
0.000000000000000e+00 0.000000000000000e+00 0.000000000000000e+00
0.000000000000000e+00 0.000000000000000e+00 0.000000000000000e+00
0.000000000000000e+00 0.000000000000000e+00 0.000000000000000e+00
0.000000000000000e+00 0.000000000000000e+00 0.000000000000000e+00
0.000000000000000e+00 0.000000000000000e+00 0.000000000000000e+00
0.000000000000000e+00 0.000000000000000e+00 0.000000000000000e+00
0.000000000000000e+00 0.000000000000000e+00 0.000000000000000e+00
0.000000000000000e+00 0.000000000000000e+00 0.000000000000000e+00
0.000000000000000e+00 0.000000000000000e+00 0.000000000000000e+00
0.000000000000000e+00 0.000000000000000e+00 0.000000000000000e+00
0.000000000000000e+00 0.000000000000000e+00 0.000000000000000e+00
0.000000000000000e+00 0.000000000000000e+00 0.000000000000000e+00
0.000000000000000e+00 0.000000000000000e+00 0.000000000000000e+00
0.000000000000000e+00 0.000000000000000e+00 0.000000000000000e+00
0.000000000000000e+00 0.000000000000000e+00 0.000000000000000e+00
0.000000000000000e+00 0.000000000000000e+00 0.000000000000000e+00
0.000000000000000e+00 0.000000000000000e+00 0.000000000000000e+00
0.000000000000000e+00 0.000000000000000e+00 0.000000000000000e+00
0.000000000000000e+00 0.000000000000000e+00 0.000000000000000e+00
0.000000000000000e+00 0.000000000000000e+00 0.000000000000000e+00
0.000000000000000e+00 0.000000000000000e+00 0.000000000000000e+00
0.000000000000000e+00 0.000000000000000e+00 0.000000000000000e+00
0.000000000000000e+00 0.000000000000000e+00 0.000000000000000e+00
0.000000000000000e+00 0.000000000000000e+00 0.000000000000000e+00
0.000000000000000e+00 0.000000000000000e+00 0.000000000000000e+00
0.000000000000000e+00 0.000000000000000e+00 0.000000000000000e+00
0.000000000000000e+00 0.000000000000000e+00 0.000000000000000e+00
0.000000000000000e+00 0.000000000000000e+00 0.000000000000000e+00
0.000000000000000e+00 0.000000000000000e+00 0.000000000000000e+00
0.000000000000000e+00 0.000000000000000e+00 0.000000000000000e+00
0.000000000000000e+00 0.000000000000000e+00 0.000000000000000e+00
0.000000000000000e+00 0.000000000000000e+00 0.000000000000000e+00
0.000000000000000e+00 0.000000000000000e+00 0.000000000000000e+00
0.000000000000000e+00 0.000000000000000e+00 0.000000000000000e+00
0.000000000000000e+00 0.000000000000000e+00 0.000000000000000e+00
0.000000000000000e+00 0.000000000000000e+00 0.000000000000000e+00
0.000000000000000e+00 0.000000000000000e+00 0.000000000000000e+00
0.000000000000000e+00 0.000000000000000e+00 0.000000000000000e+00
0.000000000000000e+00 0.000000000000000e+00 0.000000000000000e+00
0.000000000000000e+00 0.000000000000000e+00 0.000000000000000e+00
0.000000000000000e+00 0.000000000000000e+00 0.000000000000000e+00
0.000000000000000e+00 0.000000000000000e+00 0.000000000000000e+00
0.000000000000000e+00 0.000000000000000e+00 0.000000000000000e+00
0.000000000000000e+00 0.000000000000000e+00 0.000000000000000e+00
0.000000000000000e+00 0.000000000000000e+00 0.000000000000000e+00
0.000000000000000e+00 0.000000000000000e+00 0.000000000000000e+00
0.000000000000000e+00 0.000000000000000e+00 0.000000000000000e+00
0.000000000000000e+00 0.000000000000000e+00 0.000000000000000e+00
0.000000000000000e+00 0.000000000000000e+00 0.000000000000000e+00
0.000000000000000e+00 0.000000000000000e+00 0.000000000000000e+00
0.000000000000000e+00 0.000000000000000e+00 0.000000000000000e+00
0.000000000000000e+00 0.000000000000000e+00 0.000000000000000e+00
0.000000000000000e+00 0.000000000000000e+00 0.000000000000000e+00
0.000000000000000e+00 0.000000000000000e+00 0.000000000000000e+00
0.000000000000000e+00 0.000000000000000e+00 0.000000000000000e+00
0.000000000000000e+00 0.000000000000000e+00 0.000000000000000e+00
0.000000000000000e+00 0.000000000000000e+00 0.000000000000000e+00
0.000000000000000e+00 0.000000000000000e+00 0.000000000000000e+00
0.000000000000000e+00 0.000000000000000e+00 0.000000000000000e+00
0.000000000000000e+00 0.000000000000000e+00 0.000000000000000e+00
0.000000000000000e+00 0.000000000000000e+00 0.000000000000000e+00
0.000000000000000e+00 0.000000000000000e+00 0.000000000000000e+00
0.000000000000000e+00 0.000000000000000e+00 0.000000000000000e+00
0.000000000000000e+00 0.000000000000000e+00 0.000000000000000e+00
0.000000000000000e+00 0.000000000000000e+00 0.000000000000000e+00
0.000000000000000e+00 0.000000000000000e+00 0.000000000000000e+00
0.000000000000000e+00 0.000000000000000e+00 0.000000000000000e+00
0.000000000000000e+00 0.000000000000000e+00 0.000000000000000e+00
0.000000000000000e+00 0.000000000000000e+00 0.000000000000000e+00
0.000000000000000e+00 0.000000000000000e+00 0.000000000000000e+00
0.000000000000000e+00 0.000000000000000e+00 0.000000000000000e+00
0.000000000000000e+00 0.000000000000000e+00 0.000000000000000e+00
0.000000000000000e+00 0.000000000000000e+00 0.000000000000000e+00
0.000000000000000e+00 0.000000000000000e+00 0.000000000000000e+00
0.000000000000000e+00 0.000000000000000e+00 0.000000000000000e+00
0.000000000000000e+00 0.000000000000000e+00 0.000000000000000e+00
0.000000000000000e+00 0.000000000000000e+00 0.000000000000000e+00
0.000000000000000e+00 0.000000000000000e+00 0.000000000000000e+00
0.000000000000000e+00 0.000000000000000e+00 0.000000000000000e+00
0.000000000000000e+00 0.000000000000000e+00 0.000000000000000e+00
0.000000000000000e+00 0.000000000000000e+00 0.000000000000000e+00
0.000000000000000e+00 0.000000000000000e+00 0.000000000000000e+00
0.000000000000000e+00 0.000000000000000e+00 0.000000000000000e+00
0.000000000000000e+00 0.000000000000000e+00 0.000000000000000e+00
0.000000000000000e+00 0.000000000000000e+00 0.000000000000000e+00
0.000000000000000e+00 0.000000000000000e+00 0.000000000000000e+00
0.000000000000000e+00 0.000000000000000e+00 0.000000000000000e+00
0.000000000000000e+00 0.000000000000000e+00 0.000000000000000e+00
0.000000000000000e+00 0.000000000000000e+00 0.000000000000000e+00
0.000000000000000e+00 0.000000000000000e+00 0.000000000000000e+00
0.000000000000000e+00 0.000000000000000e+00 0.000000000000000e+00
0.000000000000000e+00 0.000000000000000e+00 0.000000000000000e+00
0.000000000000000e+00 0.000000000000000e+00 0.000000000000000e+00
0.000000000000000e+00 0.000000000000000e+00 0.000000000000000e+00
0.000000000000000e+00 0.000000000000000e+00 0.000000000000000e+00
0.000000000000000e+00 0.000000000000000e+00 0.000000000000000e+00
0.000000000000000e+00 0.000000000000000e+00 0.000000000000000e+00
0.000000000000000e+00 0.000000000000000e+00 0.000000000000000e+00
0.000000000000000e+00 0.000000000000000e+00 0.000000000000000e+00
0.000000000000000e+00 0.000000000000000e+00 0.000000000000000e+00
0.000000000000000e+00 0.000000000000000e+00 0.000000000000000e+00
0.000000000000000e+00 0.000000000000000e+00 0.000000000000000e+00
0.000000000000000e+00 0.000000000000000e+00 0.000000000000000e+00
0.000000000000000e+00 0.000000000000000e+00 0.000000000000000e+00
0.000000000000000e+00 0.000000000000000e+00 0.000000000000000e+00
0.000000000000000e+00 0.000000000000000e+00 0.000000000000000e+00
0.000000000000000e+00 0.000000000000000e+00 0.000000000000000e+00
0.000000000000000e+00 0.000000000000000e+00 0.000000000000000e+00
0.000000000000000e+00 0.000000000000000e+00 0.000000000000000e+00
0.000000000000000e+00 0.000000000000000e+00 0.000000000000000e+00
0.000000000000000e+00 0.000000000000000e+00 0.000000000000000e+00
0.000000000000000e+00 0.000000000000000e+00 0.000000000000000e+00
0.000000000000000e+00 0.000000000000000e+00 0.000000000000000e+00
0.000000000000000e+00 0.000000000000000e+00 0.000000000000000e+00
0.000000000000000e+00 0.000000000000000e+00 0.000000000000000e+00
0.000000000000000e+00 0.000000000000000e+00 0.000000000000000e+00
0.000000000000000e+00 0.000000000000000e+00 0.000000000000000e+00
0.000000000000000e+00 0.000000000000000e+00 0.000000000000000e+00
0.000000000000000e+00 0.000000000000000e+00 0.000000000000000e+00
0.000000000000000e+00 0.000000000000000e+00 0.000000000000000e+00
0.000000000000000e+00 0.000000000000000e+00 0.000000000000000e+00
0.000000000000000e+00 0.000000000000000e+00 0.000000000000000e+00
0.000000000000000e+00 0.000000000000000e+00 0.000000000000000e+00
0.000000000000000e+00 0.000000000000000e+00 0.000000000000000e+00
0.000000000000000e+00 0.000000000000000e+00 0.000000000000000e+00
0.000000000000000e+00 0.000000000000000e+00 0.000000000000000e+00
0.000000000000000e+00 0.000000000000000e+00 0.000000000000000e+00
0.000000000000000e+00 0.000000000000000e+00 0.000000000000000e+00
0.000000000000000e+00 0.000000000000000e+00 0.000000000000000e+00
0.000000000000000e+00 0.000000000000000e+00 0.000000000000000e+00
0.000000000000000e+00 0.000000000000000e+00 0.000000000000000e+00
0.000000000000000e+00 0.000000000000000e+00 0.000000000000000e+00
0.000000000000000e+00 0.000000000000000e+00 0.000000000000000e+00
0.000000000000000e+00 0.000000000000000e+00 0.000000000000000e+00
0.000000000000000e+00 0.000000000000000e+00 0.000000000000000e+00
0.000000000000000e+00 0.000000000000000e+00 0.000000000000000e+00
0.000000000000000e+00 0.000000000000000e+00 0.000000000000000e+00
0.000000000000000e+00 0.000000000000000e+00 0.000000000000000e+00
0.000000000000000e+00 0.000000000000000e+00 0.000000000000000e+00
0.000000000000000e+00 0.000000000000000e+00 0.000000000000000e+00
0.000000000000000e+00 0.000000000000000e+00 0.000000000000000e+00
0.000000000000000e+00 0.000000000000000e+00 0.000000000000000e+00
0.000000000000000e+00 0.000000000000000e+00 0.000000000000000e+00
0.000000000000000e+00 0.000000000000000e+00 0.000000000000000e+00
0.000000000000000e+00 0.000000000000000e+00 0.000000000000000e+00
0.000000000000000e+00 0.000000000000000e+00 0.000000000000000e+00
0.000000000000000e+00 0.000000000000000e+00 0.000000000000000e+00
0.000000000000000e+00 0.000000000000000e+00 0.000000000000000e+00
0.000000000000000e+00 0.000000000000000e+00 0.000000000000000e+00
0.000000000000000e+00 0.000000000000000e+00 0.000000000000000e+00
0.000000000000000e+00 0.000000000000000e+00 0.000000000000000e+00
0.000000000000000e+00 0.000000000000000e+00 0.000000000000000e+00
0.000000000000000e+00 0.000000000000000e+00 0.000000000000000e+00
0.000000000000000e+00 0.000000000000000e+00 0.000000000000000e+00
0.000000000000000e+00 0.000000000000000e+00 0.000000000000000e+00
0.000000000000000e+00 0.000000000000000e+00 0.000000000000000e+00
0.000000000000000e+00 0.000000000000000e+00 0.000000000000000e+00
0.000000000000000e+00 0.000000000000000e+00 0.000000000000000e+00
0.000000000000000e+00 0.000000000000000e+00 0.000000000000000e+00
0.000000000000000e+00 0.000000000000000e+00 0.000000000000000e+00
0.000000000000000e+00 0.000000000000000e+00 0.000000000000000e+00
0.000000000000000e+00 0.000000000000000e+00 0.000000000000000e+00
0.000000000000000e+00 0.000000000000000e+00 0.000000000000000e+00
0.000000000000000e+00 0.000000000000000e+00 0.000000000000000e+00
0.000000000000000e+00 0.000000000000000e+00 0.000000000000000e+00
0.000000000000000e+00 0.000000000000000e+00 0.000000000000000e+00
0.000000000000000e+00 0.000000000000000e+00 0.000000000000000e+00
0.000000000000000e+00 0.000000000000000e+00 0.000000000000000e+00
0.000000000000000e+00 0.000000000000000e+00 0.000000000000000e+00
0.000000000000000e+00 0.000000000000000e+00 0.000000000000000e+00
0.000000000000000e+00 0.000000000000000e+00 0.000000000000000e+00
0.000000000000000e+00 0.000000000000000e+00 0.000000000000000e+00
0.000000000000000e+00 0.000000000000000e+00 0.000000000000000e+00
0.000000000000000e+00 0.000000000000000e+00 0.000000000000000e+00
0.000000000000000e+00 0.000000000000000e+00 0.000000000000000e+00
0.000000000000000e+00 0.000000000000000e+00 0.000000000000000e+00
0.000000000000000e+00 0.000000000000000e+00 0.000000000000000e+00
0.000000000000000e+00 0.000000000000000e+00 0.000000000000000e+00
0.000000000000000e+00 0.000000000000000e+00 0.000000000000000e+00
0.000000000000000e+00 0.000000000000000e+00 0.000000000000000e+00
0.000000000000000e+00 0.000000000000000e+00 0.000000000000000e+00
0.000000000000000e+00 0.000000000000000e+00 0.000000000000000e+00
0.000000000000000e+00 0.000000000000000e+00 0.000000000000000e+00
0.000000000000000e+00 0.000000000000000e+00 0.000000000000000e+00
0.000000000000000e+00 0.000000000000000e+00 0.000000000000000e+00
0.000000000000000e+00 0.000000000000000e+00 0.000000000000000e+00
0.000000000000000e+00 0.000000000000000e+00 0.000000000000000e+00
0.000000000000000e+00 0.000000000000000e+00 0.000000000000000e+00
0.000000000000000e+00 0.000000000000000e+00 0.000000000000000e+00
0.000000000000000e+00 0.000000000000000e+00 0.000000000000000e+00
0.000000000000000e+00 0.000000000000000e+00 0.000000000000000e+00
0.000000000000000e+00 0.000000000000000e+00 0.000000000000000e+00
0.000000000000000e+00 0.000000000000000e+00 0.000000000000000e+00
0.000000000000000e+00 0.000000000000000e+00 0.000000000000000e+00
0.000000000000000e+00 0.000000000000000e+00 0.000000000000000e+00
0.000000000000000e+00 0.000000000000000e+00 0.000000000000000e+00
0.000000000000000e+00 0.000000000000000e+00 0.000000000000000e+00
0.000000000000000e+00 0.000000000000000e+00 0.000000000000000e+00
0.000000000000000e+00 0.000000000000000e+00 0.000000000000000e+00
0.000000000000000e+00 0.000000000000000e+00 0.000000000000000e+00
0.000000000000000e+00 0.000000000000000e+00 0.000000000000000e+00
0.000000000000000e+00 0.000000000000000e+00 0.000000000000000e+00
0.000000000000000e+00 0.000000000000000e+00 0.000000000000000e+00
0.000000000000000e+00 0.000000000000000e+00 0.000000000000000e+00
0.000000000000000e+00 0.000000000000000e+00 0.000000000000000e+00
0.000000000000000e+00 0.000000000000000e+00 0.000000000000000e+00
0.000000000000000e+00 0.000000000000000e+00 0.000000000000000e+00
0.000000000000000e+00 0.000000000000000e+00 0.000000000000000e+00
0.000000000000000e+00 0.000000000000000e+00 0.000000000000000e+00
0.000000000000000e+00 0.000000000000000e+00 0.000000000000000e+00
0.000000000000000e+00 0.000000000000000e+00 0.000000000000000e+00
0.000000000000000e+00 0.000000000000000e+00 0.000000000000000e+00
0.000000000000000e+00 0.000000000000000e+00 0.000000000000000e+00
0.000000000000000e+00 0.000000000000000e+00 0.000000000000000e+00
0.000000000000000e+00 0.000000000000000e+00 0.000000000000000e+00
0.000000000000000e+00 0.000000000000000e+00 0.000000000000000e+00
0.000000000000000e+00 0.000000000000000e+00 0.000000000000000e+00
0.000000000000000e+00 0.000000000000000e+00 0.000000000000000e+00
0.000000000000000e+00 0.000000000000000e+00 0.000000000000000e+00
0.000000000000000e+00 0.000000000000000e+00 0.000000000000000e+00
0.000000000000000e+00 0.000000000000000e+00 0.000000000000000e+00
0.000000000000000e+00 0.000000000000000e+00 0.000000000000000e+00
0.000000000000000e+00 0.000000000000000e+00 0.000000000000000e+00
0.000000000000000e+00 0.000000000000000e+00 0.000000000000000e+00
0.000000000000000e+00 0.000000000000000e+00 0.000000000000000e+00
0.000000000000000e+00 0.000000000000000e+00 0.000000000000000e+00
0.000000000000000e+00 0.000000000000000e+00 0.000000000000000e+00
0.000000000000000e+00 0.000000000000000e+00 0.000000000000000e+00
0.000000000000000e+00 0.000000000000000e+00 0.000000000000000e+00
0.000000000000000e+00 0.000000000000000e+00 0.000000000000000e+00
0.000000000000000e+00 0.000000000000000e+00 0.000000000000000e+00
0.000000000000000e+00 0.000000000000000e+00 0.000000000000000e+00
0.000000000000000e+00 0.000000000000000e+00 0.000000000000000e+00
0.000000000000000e+00 0.000000000000000e+00 0.000000000000000e+00
0.000000000000000e+00 0.000000000000000e+00 0.000000000000000e+00
0.000000000000000e+00 0.000000000000000e+00 0.000000000000000e+00
0.000000000000000e+00 0.000000000000000e+00 0.000000000000000e+00
0.000000000000000e+00 0.000000000000000e+00 0.000000000000000e+00
0.000000000000000e+00 0.000000000000000e+00 0.000000000000000e+00
0.000000000000000e+00 0.000000000000000e+00 0.000000000000000e+00
0.000000000000000e+00 0.000000000000000e+00 0.000000000000000e+00
0.000000000000000e+00 0.000000000000000e+00 0.000000000000000e+00
0.000000000000000e+00 0.000000000000000e+00 0.000000000000000e+00
0.000000000000000e+00 0.000000000000000e+00 0.000000000000000e+00
0.000000000000000e+00 0.000000000000000e+00 0.000000000000000e+00
0.000000000000000e+00 0.000000000000000e+00 0.000000000000000e+00
0.000000000000000e+00 0.000000000000000e+00 0.000000000000000e+00
0.000000000000000e+00 0.000000000000000e+00 0.000000000000000e+00
0.000000000000000e+00 0.000000000000000e+00 0.000000000000000e+00
0.000000000000000e+00 0.000000000000000e+00 0.000000000000000e+00
0.000000000000000e+00 0.000000000000000e+00 0.000000000000000e+00
0.000000000000000e+00 0.000000000000000e+00 0.000000000000000e+00
0.000000000000000e+00 0.000000000000000e+00 0.000000000000000e+00
0.000000000000000e+00 0.000000000000000e+00 0.000000000000000e+00
0.000000000000000e+00 0.000000000000000e+00 0.000000000000000e+00
0.000000000000000e+00 0.000000000000000e+00 0.000000000000000e+00
0.000000000000000e+00 0.000000000000000e+00 0.000000000000000e+00
0.000000000000000e+00 0.000000000000000e+00 0.000000000000000e+00
0.000000000000000e+00 0.000000000000000e+00 0.000000000000000e+00
0.000000000000000e+00 0.000000000000000e+00 0.000000000000000e+00
0.000000000000000e+00 0.000000000000000e+00 0.000000000000000e+00
0.000000000000000e+00 0.000000000000000e+00 0.000000000000000e+00
0.000000000000000e+00 0.000000000000000e+00 0.000000000000000e+00
0.000000000000000e+00 0.000000000000000e+00 0.000000000000000e+00
0.000000000000000e+00 0.000000000000000e+00 0.000000000000000e+00
0.000000000000000e+00 0.000000000000000e+00 0.000000000000000e+00
0.000000000000000e+00 0.000000000000000e+00 0.000000000000000e+00
0.000000000000000e+00 0.000000000000000e+00 0.000000000000000e+00
0.000000000000000e+00 0.000000000000000e+00 0.000000000000000e+00
0.000000000000000e+00 0.000000000000000e+00 0.000000000000000e+00
0.000000000000000e+00 0.000000000000000e+00 0.000000000000000e+00
0.000000000000000e+00 0.000000000000000e+00 0.000000000000000e+00
0.000000000000000e+00 0.000000000000000e+00 0.000000000000000e+00
0.000000000000000e+00 0.000000000000000e+00 0.000000000000000e+00
0.000000000000000e+00 0.000000000000000e+00 0.000000000000000e+00
0.000000000000000e+00 0.000000000000000e+00 0.000000000000000e+00
0.000000000000000e+00 0.000000000000000e+00 0.000000000000000e+00
0.000000000000000e+00 0.000000000000000e+00 0.000000000000000e+00
0.000000000000000e+00 0.000000000000000e+00 0.000000000000000e+00
0.000000000000000e+00 0.000000000000000e+00 0.000000000000000e+00
0.000000000000000e+00 0.000000000000000e+00 0.000000000000000e+00
0.000000000000000e+00 0.000000000000000e+00 0.000000000000000e+00
0.000000000000000e+00 0.000000000000000e+00 0.000000000000000e+00
0.000000000000000e+00 0.000000000000000e+00 0.000000000000000e+00
0.000000000000000e+00 0.000000000000000e+00 0.000000000000000e+00
0.000000000000000e+00 0.000000000000000e+00 0.000000000000000e+00
0.000000000000000e+00 0.000000000000000e+00 0.000000000000000e+00
0.000000000000000e+00 0.000000000000000e+00 0.000000000000000e+00
0.000000000000000e+00 0.000000000000000e+00 0.000000000000000e+00
0.000000000000000e+00 0.000000000000000e+00 0.000000000000000e+00
0.000000000000000e+00 0.000000000000000e+00 0.000000000000000e+00
0.000000000000000e+00 0.000000000000000e+00 0.000000000000000e+00
0.000000000000000e+00 0.000000000000000e+00 0.000000000000000e+00
0.000000000000000e+00 0.000000000000000e+00 0.000000000000000e+00
0.000000000000000e+00 0.000000000000000e+00 0.000000000000000e+00
0.000000000000000e+00 0.000000000000000e+00 0.000000000000000e+00
0.000000000000000e+00 0.000000000000000e+00 0.000000000000000e+00
0.000000000000000e+00 0.000000000000000e+00 0.000000000000000e+00
0.000000000000000e+00 0.000000000000000e+00 0.000000000000000e+00
0.000000000000000e+00 0.000000000000000e+00 0.000000000000000e+00
0.000000000000000e+00 0.000000000000000e+00 0.000000000000000e+00
0.000000000000000e+00 0.000000000000000e+00 0.000000000000000e+00
0.000000000000000e+00 0.000000000000000e+00 0.000000000000000e+00
0.000000000000000e+00 0.000000000000000e+00 0.000000000000000e+00
0.000000000000000e+00 0.000000000000000e+00 0.000000000000000e+00
0.000000000000000e+00 0.000000000000000e+00 0.000000000000000e+00
0.000000000000000e+00 0.000000000000000e+00 0.000000000000000e+00
0.000000000000000e+00 0.000000000000000e+00 0.000000000000000e+00
0.000000000000000e+00 0.000000000000000e+00 0.000000000000000e+00
0.000000000000000e+00 0.000000000000000e+00 0.000000000000000e+00
0.000000000000000e+00 0.000000000000000e+00 0.000000000000000e+00
0.000000000000000e+00 0.000000000000000e+00 0.000000000000000e+00
0.000000000000000e+00 0.000000000000000e+00 0.000000000000000e+00
0.000000000000000e+00 0.000000000000000e+00 0.000000000000000e+00
0.000000000000000e+00 0.000000000000000e+00 0.000000000000000e+00
0.000000000000000e+00 0.000000000000000e+00 0.000000000000000e+00
0.000000000000000e+00 0.000000000000000e+00 0.000000000000000e+00
0.000000000000000e+00 0.000000000000000e+00 0.000000000000000e+00
0.000000000000000e+00 0.000000000000000e+00 0.000000000000000e+00
0.000000000000000e+00 0.000000000000000e+00 0.000000000000000e+00
0.000000000000000e+00 0.000000000000000e+00 0.000000000000000e+00
0.000000000000000e+00 0.000000000000000e+00 0.000000000000000e+00
0.000000000000000e+00 0.000000000000000e+00 0.000000000000000e+00
0.000000000000000e+00 0.000000000000000e+00 0.000000000000000e+00
0.000000000000000e+00 0.000000000000000e+00 0.000000000000000e+00
0.000000000000000e+00 0.000000000000000e+00 0.000000000000000e+00
0.000000000000000e+00 0.000000000000000e+00 0.000000000000000e+00
0.000000000000000e+00 0.000000000000000e+00 0.000000000000000e+00
0.000000000000000e+00 0.000000000000000e+00 0.000000000000000e+00
0.000000000000000e+00 0.000000000000000e+00 0.000000000000000e+00
0.000000000000000e+00 0.000000000000000e+00 0.000000000000000e+00
0.000000000000000e+00 0.000000000000000e+00 0.000000000000000e+00
0.000000000000000e+00 0.000000000000000e+00 0.000000000000000e+00
0.000000000000000e+00 0.000000000000000e+00 0.000000000000000e+00
0.000000000000000e+00 0.000000000000000e+00 0.000000000000000e+00
0.000000000000000e+00 0.000000000000000e+00 0.000000000000000e+00
0.000000000000000e+00 0.000000000000000e+00 0.000000000000000e+00
0.000000000000000e+00 0.000000000000000e+00 0.000000000000000e+00
0.000000000000000e+00 0.000000000000000e+00 0.000000000000000e+00
0.000000000000000e+00 0.000000000000000e+00 0.000000000000000e+00
0.000000000000000e+00 0.000000000000000e+00 0.000000000000000e+00
0.000000000000000e+00 0.000000000000000e+00 0.000000000000000e+00
0.000000000000000e+00 0.000000000000000e+00 0.000000000000000e+00
0.000000000000000e+00 0.000000000000000e+00 0.000000000000000e+00
0.000000000000000e+00 0.000000000000000e+00 0.000000000000000e+00
0.000000000000000e+00 0.000000000000000e+00 0.000000000000000e+00
0.000000000000000e+00 0.000000000000000e+00 0.000000000000000e+00
0.000000000000000e+00 0.000000000000000e+00 0.000000000000000e+00
0.000000000000000e+00 0.000000000000000e+00 0.000000000000000e+00
0.000000000000000e+00 0.000000000000000e+00 0.000000000000000e+00
0.000000000000000e+00 0.000000000000000e+00 0.000000000000000e+00
0.000000000000000e+00 0.000000000000000e+00 0.000000000000000e+00
0.000000000000000e+00 0.000000000000000e+00 0.000000000000000e+00
0.000000000000000e+00 0.000000000000000e+00 0.000000000000000e+00
0.000000000000000e+00 0.000000000000000e+00 0.000000000000000e+00
0.000000000000000e+00 0.000000000000000e+00 0.000000000000000e+00
0.000000000000000e+00 0.000000000000000e+00 0.000000000000000e+00
0.000000000000000e+00 0.000000000000000e+00 0.000000000000000e+00
0.000000000000000e+00 0.000000000000000e+00 0.000000000000000e+00
0.000000000000000e+00 0.000000000000000e+00 0.000000000000000e+00
0.000000000000000e+00 0.000000000000000e+00 0.000000000000000e+00
0.000000000000000e+00 0.000000000000000e+00 0.000000000000000e+00
0.000000000000000e+00 0.000000000000000e+00 0.000000000000000e+00
0.000000000000000e+00 0.000000000000000e+00 0.000000000000000e+00
0.000000000000000e+00 0.000000000000000e+00 0.000000000000000e+00
0.000000000000000e+00 0.000000000000000e+00 0.000000000000000e+00
0.000000000000000e+00 0.000000000000000e+00 0.000000000000000e+00
0.000000000000000e+00 0.000000000000000e+00 0.000000000000000e+00
0.000000000000000e+00 0.000000000000000e+00 0.000000000000000e+00
0.000000000000000e+00 0.000000000000000e+00 0.000000000000000e+00
0.000000000000000e+00 0.000000000000000e+00 0.000000000000000e+00
0.000000000000000e+00 0.000000000000000e+00 0.000000000000000e+00
0.000000000000000e+00 0.000000000000000e+00 0.000000000000000e+00
0.000000000000000e+00 0.000000000000000e+00 0.000000000000000e+00
0.000000000000000e+00 0.000000000000000e+00 0.000000000000000e+00
0.000000000000000e+00 0.000000000000000e+00 0.000000000000000e+00
0.000000000000000e+00 0.000000000000000e+00 0.000000000000000e+00
0.000000000000000e+00 0.000000000000000e+00 0.000000000000000e+00
0.000000000000000e+00 0.000000000000000e+00 0.000000000000000e+00
0.000000000000000e+00 0.000000000000000e+00 0.000000000000000e+00
0.000000000000000e+00 0.000000000000000e+00 0.000000000000000e+00
0.000000000000000e+00 0.000000000000000e+00 0.000000000000000e+00
0.000000000000000e+00 0.000000000000000e+00 0.000000000000000e+00
0.000000000000000e+00 0.000000000000000e+00 0.000000000000000e+00
0.000000000000000e+00 0.000000000000000e+00 0.000000000000000e+00
0.000000000000000e+00 0.000000000000000e+00 0.000000000000000e+00
0.000000000000000e+00 0.000000000000000e+00 0.000000000000000e+00
0.000000000000000e+00 0.000000000000000e+00 0.000000000000000e+00
0.000000000000000e+00 0.000000000000000e+00 0.000000000000000e+00
0.000000000000000e+00 0.000000000000000e+00 0.000000000000000e+00
0.000000000000000e+00 0.000000000000000e+00 0.000000000000000e+00
0.000000000000000e+00 0.000000000000000e+00 0.000000000000000e+00
0.000000000000000e+00 0.000000000000000e+00 0.000000000000000e+00
0.000000000000000e+00 0.000000000000000e+00 0.000000000000000e+00
0.000000000000000e+00 0.000000000000000e+00 0.000000000000000e+00
0.000000000000000e+00 0.000000000000000e+00 0.000000000000000e+00
0.000000000000000e+00 0.000000000000000e+00 0.000000000000000e+00
0.000000000000000e+00 0.000000000000000e+00 0.000000000000000e+00
0.000000000000000e+00 0.000000000000000e+00 0.000000000000000e+00
0.000000000000000e+00 0.000000000000000e+00 0.000000000000000e+00
0.000000000000000e+00 0.000000000000000e+00 0.000000000000000e+00
0.000000000000000e+00 0.000000000000000e+00 0.000000000000000e+00
0.000000000000000e+00 0.000000000000000e+00 0.000000000000000e+00
0.000000000000000e+00 0.000000000000000e+00 0.000000000000000e+00
0.000000000000000e+00 0.000000000000000e+00 0.000000000000000e+00
0.000000000000000e+00 0.000000000000000e+00 0.000000000000000e+00
0.000000000000000e+00 0.000000000000000e+00 0.000000000000000e+00
0.000000000000000e+00 0.000000000000000e+00 0.000000000000000e+00
0.000000000000000e+00 0.000000000000000e+00 0.000000000000000e+00
0.000000000000000e+00 0.000000000000000e+00 0.000000000000000e+00
0.000000000000000e+00 0.000000000000000e+00 0.000000000000000e+00
0.000000000000000e+00 0.000000000000000e+00 0.000000000000000e+00
0.000000000000000e+00 0.000000000000000e+00 0.000000000000000e+00
0.000000000000000e+00 0.000000000000000e+00 0.000000000000000e+00
0.000000000000000e+00 0.000000000000000e+00 0.000000000000000e+00
0.000000000000000e+00 0.000000000000000e+00 0.000000000000000e+00
0.000000000000000e+00 0.000000000000000e+00 0.000000000000000e+00
0.000000000000000e+00 0.000000000000000e+00 0.000000000000000e+00
0.000000000000000e+00 0.000000000000000e+00 0.000000000000000e+00
0.000000000000000e+00 0.000000000000000e+00 0.000000000000000e+00
0.000000000000000e+00 0.000000000000000e+00 0.000000000000000e+00
0.000000000000000e+00 0.000000000000000e+00 0.000000000000000e+00
0.000000000000000e+00 0.000000000000000e+00 0.000000000000000e+00
0.000000000000000e+00 0.000000000000000e+00 0.000000000000000e+00
0.000000000000000e+00 0.000000000000000e+00 0.000000000000000e+00
0.000000000000000e+00 0.000000000000000e+00 0.000000000000000e+00
0.000000000000000e+00 0.000000000000000e+00 0.000000000000000e+00
0.000000000000000e+00 0.000000000000000e+00 0.000000000000000e+00
0.000000000000000e+00 0.000000000000000e+00 0.000000000000000e+00
0.000000000000000e+00 0.000000000000000e+00 0.000000000000000e+00
0.000000000000000e+00 0.000000000000000e+00 0.000000000000000e+00
0.000000000000000e+00 0.000000000000000e+00 0.000000000000000e+00
0.000000000000000e+00 0.000000000000000e+00 0.000000000000000e+00
0.000000000000000e+00 0.000000000000000e+00 0.000000000000000e+00
0.000000000000000e+00 0.000000000000000e+00 0.000000000000000e+00
0.000000000000000e+00 0.000000000000000e+00 0.000000000000000e+00
0.000000000000000e+00 0.000000000000000e+00 0.000000000000000e+00
0.000000000000000e+00 0.000000000000000e+00 0.000000000000000e+00
0.000000000000000e+00 0.000000000000000e+00 0.000000000000000e+00
0.000000000000000e+00 0.000000000000000e+00 0.000000000000000e+00
0.000000000000000e+00 0.000000000000000e+00 0.000000000000000e+00
0.000000000000000e+00 0.000000000000000e+00 0.000000000000000e+00
0.000000000000000e+00 0.000000000000000e+00 0.000000000000000e+00
0.000000000000000e+00 0.000000000000000e+00 0.000000000000000e+00
0.000000000000000e+00 0.000000000000000e+00 0.000000000000000e+00
0.000000000000000e+00 0.000000000000000e+00 0.000000000000000e+00
0.000000000000000e+00 0.000000000000000e+00 0.000000000000000e+00
0.000000000000000e+00 0.000000000000000e+00 0.000000000000000e+00
0.000000000000000e+00 0.000000000000000e+00 0.000000000000000e+00
0.000000000000000e+00 0.000000000000000e+00 0.000000000000000e+00
0.000000000000000e+00 0.000000000000000e+00 0.000000000000000e+00
0.000000000000000e+00 0.000000000000000e+00 0.000000000000000e+00
0.000000000000000e+00 0.000000000000000e+00 0.000000000000000e+00
0.000000000000000e+00 0.000000000000000e+00 0.000000000000000e+00
0.000000000000000e+00 0.000000000000000e+00 0.000000000000000e+00
0.000000000000000e+00 0.000000000000000e+00 0.000000000000000e+00
0.000000000000000e+00 0.000000000000000e+00 0.000000000000000e+00
0.000000000000000e+00 0.000000000000000e+00 0.000000000000000e+00
0.000000000000000e+00 0.000000000000000e+00 0.000000000000000e+00
0.000000000000000e+00 0.000000000000000e+00 0.000000000000000e+00
0.000000000000000e+00 0.000000000000000e+00 0.000000000000000e+00
0.000000000000000e+00 0.000000000000000e+00 0.000000000000000e+00
0.000000000000000e+00 0.000000000000000e+00 0.000000000000000e+00
0.000000000000000e+00 0.000000000000000e+00 0.000000000000000e+00
0.000000000000000e+00 0.000000000000000e+00 0.000000000000000e+00
0.000000000000000e+00 0.000000000000000e+00 0.000000000000000e+00
0.000000000000000e+00 0.000000000000000e+00 0.000000000000000e+00
0.000000000000000e+00 0.000000000000000e+00 0.000000000000000e+00
0.000000000000000e+00 0.000000000000000e+00 0.000000000000000e+00
0.000000000000000e+00 0.000000000000000e+00 0.000000000000000e+00
0.000000000000000e+00 0.000000000000000e+00 0.000000000000000e+00
0.000000000000000e+00 0.000000000000000e+00 0.000000000000000e+00
0.000000000000000e+00 0.000000000000000e+00 0.000000000000000e+00
0.000000000000000e+00 0.000000000000000e+00 0.000000000000000e+00
0.000000000000000e+00 0.000000000000000e+00 0.000000000000000e+00
0.000000000000000e+00 0.000000000000000e+00 0.000000000000000e+00
0.000000000000000e+00 0.000000000000000e+00 0.000000000000000e+00
0.000000000000000e+00 0.000000000000000e+00 0.000000000000000e+00
0.000000000000000e+00 0.000000000000000e+00 0.000000000000000e+00
0.000000000000000e+00 0.000000000000000e+00 0.000000000000000e+00
0.000000000000000e+00 0.000000000000000e+00 0.000000000000000e+00
0.000000000000000e+00 0.000000000000000e+00 0.000000000000000e+00
0.000000000000000e+00 0.000000000000000e+00 0.000000000000000e+00
0.000000000000000e+00 0.000000000000000e+00 0.000000000000000e+00
0.000000000000000e+00 0.000000000000000e+00 0.000000000000000e+00
0.000000000000000e+00 0.000000000000000e+00 0.000000000000000e+00
0.000000000000000e+00 0.000000000000000e+00 0.000000000000000e+00
0.000000000000000e+00 0.000000000000000e+00 0.000000000000000e+00
0.000000000000000e+00 0.000000000000000e+00 0.000000000000000e+00
0.000000000000000e+00 0.000000000000000e+00 0.000000000000000e+00
0.000000000000000e+00 0.000000000000000e+00 0.000000000000000e+00
0.000000000000000e+00 0.000000000000000e+00 0.000000000000000e+00
0.000000000000000e+00 0.000000000000000e+00 0.000000000000000e+00
0.000000000000000e+00 0.000000000000000e+00 0.000000000000000e+00
0.000000000000000e+00 0.000000000000000e+00 0.000000000000000e+00
0.000000000000000e+00 0.000000000000000e+00 0.000000000000000e+00
0.000000000000000e+00 0.000000000000000e+00 0.000000000000000e+00
0.000000000000000e+00 0.000000000000000e+00 0.000000000000000e+00
0.000000000000000e+00 0.000000000000000e+00 0.000000000000000e+00
0.000000000000000e+00 0.000000000000000e+00 0.000000000000000e+00
0.000000000000000e+00 0.000000000000000e+00 0.000000000000000e+00
0.000000000000000e+00 0.000000000000000e+00 0.000000000000000e+00
0.000000000000000e+00 0.000000000000000e+00 0.000000000000000e+00
0.000000000000000e+00 0.000000000000000e+00 0.000000000000000e+00
0.000000000000000e+00 0.000000000000000e+00 0.000000000000000e+00
0.000000000000000e+00 0.000000000000000e+00 0.000000000000000e+00
0.000000000000000e+00 0.000000000000000e+00 0.000000000000000e+00
0.000000000000000e+00 0.000000000000000e+00 0.000000000000000e+00
0.000000000000000e+00 0.000000000000000e+00 0.000000000000000e+00
0.000000000000000e+00 0.000000000000000e+00 0.000000000000000e+00
0.000000000000000e+00 0.000000000000000e+00 0.000000000000000e+00
0.000000000000000e+00 0.000000000000000e+00 0.000000000000000e+00
0.000000000000000e+00 0.000000000000000e+00 0.000000000000000e+00
0.000000000000000e+00 0.000000000000000e+00 0.000000000000000e+00
0.000000000000000e+00 0.000000000000000e+00 0.000000000000000e+00
0.000000000000000e+00 0.000000000000000e+00 0.000000000000000e+00
0.000000000000000e+00 0.000000000000000e+00 0.000000000000000e+00
0.000000000000000e+00 0.000000000000000e+00 0.000000000000000e+00
0.000000000000000e+00 0.000000000000000e+00 0.000000000000000e+00
0.000000000000000e+00 0.000000000000000e+00 0.000000000000000e+00
0.000000000000000e+00 0.000000000000000e+00 0.000000000000000e+00
0.000000000000000e+00 0.000000000000000e+00 0.000000000000000e+00
0.000000000000000e+00 0.000000000000000e+00 0.000000000000000e+00
0.000000000000000e+00 0.000000000000000e+00 0.000000000000000e+00
0.000000000000000e+00 0.000000000000000e+00 0.000000000000000e+00
0.000000000000000e+00 0.000000000000000e+00 0.000000000000000e+00
0.000000000000000e+00 0.000000000000000e+00 0.000000000000000e+00
0.000000000000000e+00 0.000000000000000e+00 0.000000000000000e+00
0.000000000000000e+00 0.000000000000000e+00 0.000000000000000e+00
0.000000000000000e+00 0.000000000000000e+00 0.000000000000000e+00
0.000000000000000e+00 0.000000000000000e+00 0.000000000000000e+00
0.000000000000000e+00 0.000000000000000e+00 0.000000000000000e+00
0.000000000000000e+00 0.000000000000000e+00 0.000000000000000e+00
0.000000000000000e+00 0.000000000000000e+00 0.000000000000000e+00
0.000000000000000e+00 0.000000000000000e+00 0.000000000000000e+00
0.000000000000000e+00 0.000000000000000e+00 0.000000000000000e+00
0.000000000000000e+00 0.000000000000000e+00 0.000000000000000e+00
0.000000000000000e+00 0.000000000000000e+00 0.000000000000000e+00
0.000000000000000e+00 0.000000000000000e+00 0.000000000000000e+00
0.000000000000000e+00 0.000000000000000e+00 0.000000000000000e+00
0.000000000000000e+00 0.000000000000000e+00 0.000000000000000e+00
0.000000000000000e+00 0.000000000000000e+00 0.000000000000000e+00
0.000000000000000e+00 0.000000000000000e+00 0.000000000000000e+00
0.000000000000000e+00 0.000000000000000e+00 0.000000000000000e+00
0.000000000000000e+00 0.000000000000000e+00 0.000000000000000e+00
0.000000000000000e+00 0.000000000000000e+00 0.000000000000000e+00
0.000000000000000e+00 0.000000000000000e+00 0.000000000000000e+00
0.000000000000000e+00 0.000000000000000e+00 0.000000000000000e+00
0.000000000000000e+00 0.000000000000000e+00 0.000000000000000e+00
0.000000000000000e+00 0.000000000000000e+00 0.000000000000000e+00
0.000000000000000e+00 0.000000000000000e+00 0.000000000000000e+00
0.000000000000000e+00 0.000000000000000e+00 0.000000000000000e+00
0.000000000000000e+00 0.000000000000000e+00 0.000000000000000e+00
0.000000000000000e+00 0.000000000000000e+00 0.000000000000000e+00
0.000000000000000e+00 0.000000000000000e+00 0.000000000000000e+00
0.000000000000000e+00 0.000000000000000e+00 0.000000000000000e+00
0.000000000000000e+00 0.000000000000000e+00 0.000000000000000e+00
0.000000000000000e+00 0.000000000000000e+00 0.000000000000000e+00
0.000000000000000e+00 0.000000000000000e+00 0.000000000000000e+00
0.000000000000000e+00 0.000000000000000e+00 0.000000000000000e+00
0.000000000000000e+00 0.000000000000000e+00 0.000000000000000e+00
0.000000000000000e+00 0.000000000000000e+00 0.000000000000000e+00
0.000000000000000e+00 0.000000000000000e+00 0.000000000000000e+00
0.000000000000000e+00 0.000000000000000e+00 0.000000000000000e+00
0.000000000000000e+00 0.000000000000000e+00 0.000000000000000e+00
0.000000000000000e+00 0.000000000000000e+00 0.000000000000000e+00
0.000000000000000e+00 0.000000000000000e+00 0.000000000000000e+00
0.000000000000000e+00 0.000000000000000e+00 0.000000000000000e+00
0.000000000000000e+00 0.000000000000000e+00 0.000000000000000e+00
0.000000000000000e+00 0.000000000000000e+00 0.000000000000000e+00
0.000000000000000e+00 0.000000000000000e+00 0.000000000000000e+00
0.000000000000000e+00 0.000000000000000e+00 0.000000000000000e+00
0.000000000000000e+00 0.000000000000000e+00 0.000000000000000e+00
0.000000000000000e+00 0.000000000000000e+00 0.000000000000000e+00
0.000000000000000e+00 0.000000000000000e+00 0.000000000000000e+00
0.000000000000000e+00 0.000000000000000e+00 0.000000000000000e+00
0.000000000000000e+00 0.000000000000000e+00 0.000000000000000e+00
0.000000000000000e+00 0.000000000000000e+00 0.000000000000000e+00
0.000000000000000e+00 0.000000000000000e+00 0.000000000000000e+00
0.000000000000000e+00 0.000000000000000e+00 0.000000000000000e+00
0.000000000000000e+00 0.000000000000000e+00 0.000000000000000e+00
0.000000000000000e+00 0.000000000000000e+00 0.000000000000000e+00
0.000000000000000e+00 0.000000000000000e+00 0.000000000000000e+00
0.000000000000000e+00 0.000000000000000e+00 0.000000000000000e+00
0.000000000000000e+00 0.000000000000000e+00 0.000000000000000e+00
0.000000000000000e+00 0.000000000000000e+00 0.000000000000000e+00
0.000000000000000e+00 0.000000000000000e+00 0.000000000000000e+00
0.000000000000000e+00 0.000000000000000e+00 0.000000000000000e+00
0.000000000000000e+00 0.000000000000000e+00 0.000000000000000e+00
0.000000000000000e+00 0.000000000000000e+00 0.000000000000000e+00
0.000000000000000e+00 0.000000000000000e+00 0.000000000000000e+00
0.000000000000000e+00 0.000000000000000e+00 0.000000000000000e+00
0.000000000000000e+00 0.000000000000000e+00 0.000000000000000e+00
0.000000000000000e+00 0.000000000000000e+00 0.000000000000000e+00
0.000000000000000e+00 0.000000000000000e+00 0.000000000000000e+00
0.000000000000000e+00 0.000000000000000e+00 0.000000000000000e+00
0.000000000000000e+00 0.000000000000000e+00 0.000000000000000e+00
0.000000000000000e+00 0.000000000000000e+00 0.000000000000000e+00
0.000000000000000e+00 0.000000000000000e+00 0.000000000000000e+00
0.000000000000000e+00 0.000000000000000e+00 0.000000000000000e+00
0.000000000000000e+00 0.000000000000000e+00 0.000000000000000e+00
0.000000000000000e+00 0.000000000000000e+00 0.000000000000000e+00
0.000000000000000e+00 0.000000000000000e+00 0.000000000000000e+00
0.000000000000000e+00 0.000000000000000e+00 0.000000000000000e+00
0.000000000000000e+00 0.000000000000000e+00 0.000000000000000e+00
0.000000000000000e+00 0.000000000000000e+00 0.000000000000000e+00
0.000000000000000e+00 0.000000000000000e+00 0.000000000000000e+00
0.000000000000000e+00 0.000000000000000e+00 0.000000000000000e+00
0.000000000000000e+00 0.000000000000000e+00 0.000000000000000e+00
0.000000000000000e+00 0.000000000000000e+00 0.000000000000000e+00
0.000000000000000e+00 0.000000000000000e+00 0.000000000000000e+00
0.000000000000000e+00 0.000000000000000e+00 0.000000000000000e+00
0.000000000000000e+00 0.000000000000000e+00 0.000000000000000e+00
0.000000000000000e+00 0.000000000000000e+00 0.000000000000000e+00
0.000000000000000e+00 0.000000000000000e+00 0.000000000000000e+00
0.000000000000000e+00 0.000000000000000e+00 0.000000000000000e+00
0.000000000000000e+00 0.000000000000000e+00 0.000000000000000e+00
0.000000000000000e+00 0.000000000000000e+00 0.000000000000000e+00
0.000000000000000e+00 0.000000000000000e+00 0.000000000000000e+00
0.000000000000000e+00 0.000000000000000e+00 0.000000000000000e+00
0.000000000000000e+00 0.000000000000000e+00 0.000000000000000e+00
0.000000000000000e+00 0.000000000000000e+00 0.000000000000000e+00
0.000000000000000e+00 0.000000000000000e+00 0.000000000000000e+00
0.000000000000000e+00 0.000000000000000e+00 0.000000000000000e+00
0.000000000000000e+00 0.000000000000000e+00 0.000000000000000e+00
0.000000000000000e+00 0.000000000000000e+00 0.000000000000000e+00
0.000000000000000e+00 0.000000000000000e+00 0.000000000000000e+00
0.000000000000000e+00 0.000000000000000e+00 0.000000000000000e+00
0.000000000000000e+00 0.000000000000000e+00 0.000000000000000e+00
0.000000000000000e+00 0.000000000000000e+00 0.000000000000000e+00
0.000000000000000e+00 0.000000000000000e+00 0.000000000000000e+00
0.000000000000000e+00 0.000000000000000e+00 0.000000000000000e+00
0.000000000000000e+00 0.000000000000000e+00 0.000000000000000e+00
0.000000000000000e+00 0.000000000000000e+00 0.000000000000000e+00
0.000000000000000e+00 0.000000000000000e+00 0.000000000000000e+00
0.000000000000000e+00 0.000000000000000e+00 0.000000000000000e+00
0.000000000000000e+00 0.000000000000000e+00 0.000000000000000e+00
0.000000000000000e+00 0.000000000000000e+00 0.000000000000000e+00
0.000000000000000e+00 0.000000000000000e+00 0.000000000000000e+00
0.000000000000000e+00 0.000000000000000e+00 0.000000000000000e+00
0.000000000000000e+00 0.000000000000000e+00 0.000000000000000e+00
0.000000000000000e+00 0.000000000000000e+00 0.000000000000000e+00
0.000000000000000e+00 0.000000000000000e+00 0.000000000000000e+00
0.000000000000000e+00 0.000000000000000e+00 0.000000000000000e+00
0.000000000000000e+00 0.000000000000000e+00 0.000000000000000e+00
0.000000000000000e+00 0.000000000000000e+00 0.000000000000000e+00
0.000000000000000e+00 0.000000000000000e+00 0.000000000000000e+00
0.000000000000000e+00 0.000000000000000e+00 0.000000000000000e+00
0.000000000000000e+00 0.000000000000000e+00 0.000000000000000e+00
0.000000000000000e+00 0.000000000000000e+00 0.000000000000000e+00
0.000000000000000e+00 0.000000000000000e+00 0.000000000000000e+00
0.000000000000000e+00 0.000000000000000e+00 0.000000000000000e+00
0.000000000000000e+00 0.000000000000000e+00 0.000000000000000e+00
0.000000000000000e+00 0.000000000000000e+00 0.000000000000000e+00
0.000000000000000e+00 0.000000000000000e+00 0.000000000000000e+00
0.000000000000000e+00 0.000000000000000e+00 0.000000000000000e+00
0.000000000000000e+00 0.000000000000000e+00 0.000000000000000e+00
0.000000000000000e+00 0.000000000000000e+00 0.000000000000000e+00
0.000000000000000e+00 0.000000000000000e+00 0.000000000000000e+00
0.000000000000000e+00 0.000000000000000e+00 0.000000000000000e+00
0.000000000000000e+00 0.000000000000000e+00 0.000000000000000e+00
0.000000000000000e+00 0.000000000000000e+00 0.000000000000000e+00
0.000000000000000e+00 0.000000000000000e+00 0.000000000000000e+00
0.000000000000000e+00 0.000000000000000e+00 0.000000000000000e+00
0.000000000000000e+00 0.000000000000000e+00 0.000000000000000e+00
0.000000000000000e+00 0.000000000000000e+00 0.000000000000000e+00
0.000000000000000e+00 0.000000000000000e+00 0.000000000000000e+00
0.000000000000000e+00 0.000000000000000e+00 0.000000000000000e+00
0.000000000000000e+00 0.000000000000000e+00 0.000000000000000e+00
0.000000000000000e+00 0.000000000000000e+00 0.000000000000000e+00
0.000000000000000e+00 0.000000000000000e+00 0.000000000000000e+00
0.000000000000000e+00 0.000000000000000e+00 0.000000000000000e+00
0.000000000000000e+00 0.000000000000000e+00 0.000000000000000e+00
0.000000000000000e+00 0.000000000000000e+00 0.000000000000000e+00
0.000000000000000e+00 0.000000000000000e+00 0.000000000000000e+00
0.000000000000000e+00 0.000000000000000e+00 0.000000000000000e+00
0.000000000000000e+00 0.000000000000000e+00 0.000000000000000e+00
0.000000000000000e+00 0.000000000000000e+00 0.000000000000000e+00
0.000000000000000e+00 0.000000000000000e+00 0.000000000000000e+00
0.000000000000000e+00 0.000000000000000e+00 0.000000000000000e+00
0.000000000000000e+00 0.000000000000000e+00 0.000000000000000e+00
0.000000000000000e+00 0.000000000000000e+00 0.000000000000000e+00
0.000000000000000e+00 0.000000000000000e+00 0.000000000000000e+00
0.000000000000000e+00 0.000000000000000e+00 0.000000000000000e+00
0.000000000000000e+00 0.000000000000000e+00 0.000000000000000e+00
0.000000000000000e+00 0.000000000000000e+00 0.000000000000000e+00
0.000000000000000e+00 0.000000000000000e+00 0.000000000000000e+00
0.000000000000000e+00 0.000000000000000e+00 0.000000000000000e+00
0.000000000000000e+00 0.000000000000000e+00 0.000000000000000e+00
0.000000000000000e+00 0.000000000000000e+00 0.000000000000000e+00
0.000000000000000e+00 0.000000000000000e+00 0.000000000000000e+00
0.000000000000000e+00 0.000000000000000e+00 0.000000000000000e+00
0.000000000000000e+00 0.000000000000000e+00 0.000000000000000e+00
0.000000000000000e+00 0.000000000000000e+00 0.000000000000000e+00
0.000000000000000e+00 0.000000000000000e+00 0.000000000000000e+00
0.000000000000000e+00 0.000000000000000e+00 0.000000000000000e+00
0.000000000000000e+00 0.000000000000000e+00 0.000000000000000e+00
0.000000000000000e+00 0.000000000000000e+00 0.000000000000000e+00
0.000000000000000e+00 0.000000000000000e+00 0.000000000000000e+00
0.000000000000000e+00 0.000000000000000e+00 0.000000000000000e+00
0.000000000000000e+00 0.000000000000000e+00 0.000000000000000e+00
0.000000000000000e+00 0.000000000000000e+00 0.000000000000000e+00
0.000000000000000e+00 0.000000000000000e+00 0.000000000000000e+00
0.000000000000000e+00 0.000000000000000e+00 0.000000000000000e+00
0.000000000000000e+00 0.000000000000000e+00 0.000000000000000e+00
0.000000000000000e+00 0.000000000000000e+00 0.000000000000000e+00
0.000000000000000e+00 0.000000000000000e+00 0.000000000000000e+00
0.000000000000000e+00 0.000000000000000e+00 0.000000000000000e+00
0.000000000000000e+00 0.000000000000000e+00 0.000000000000000e+00
0.000000000000000e+00 0.000000000000000e+00 0.000000000000000e+00
0.000000000000000e+00 0.000000000000000e+00 0.000000000000000e+00
0.000000000000000e+00 0.000000000000000e+00 0.000000000000000e+00
0.000000000000000e+00 0.000000000000000e+00 0.000000000000000e+00
0.000000000000000e+00 0.000000000000000e+00 0.000000000000000e+00
0.000000000000000e+00 0.000000000000000e+00 0.000000000000000e+00
0.000000000000000e+00 0.000000000000000e+00 0.000000000000000e+00
0.000000000000000e+00 0.000000000000000e+00 0.000000000000000e+00
0.000000000000000e+00 0.000000000000000e+00 0.000000000000000e+00
0.000000000000000e+00 0.000000000000000e+00 0.000000000000000e+00
0.000000000000000e+00 0.000000000000000e+00 0.000000000000000e+00
0.000000000000000e+00 0.000000000000000e+00 0.000000000000000e+00
0.000000000000000e+00 0.000000000000000e+00 0.000000000000000e+00
0.000000000000000e+00 0.000000000000000e+00 0.000000000000000e+00
0.000000000000000e+00 0.000000000000000e+00 0.000000000000000e+00
0.000000000000000e+00 0.000000000000000e+00 0.000000000000000e+00
0.000000000000000e+00 0.000000000000000e+00 0.000000000000000e+00
0.000000000000000e+00 0.000000000000000e+00 0.000000000000000e+00
0.000000000000000e+00 0.000000000000000e+00 0.000000000000000e+00
0.000000000000000e+00 0.000000000000000e+00 0.000000000000000e+00
0.000000000000000e+00 0.000000000000000e+00 0.000000000000000e+00
0.000000000000000e+00 0.000000000000000e+00 0.000000000000000e+00
0.000000000000000e+00 0.000000000000000e+00 0.000000000000000e+00
0.000000000000000e+00 0.000000000000000e+00 0.000000000000000e+00
0.000000000000000e+00 0.000000000000000e+00 0.000000000000000e+00
0.000000000000000e+00 0.000000000000000e+00 0.000000000000000e+00
0.000000000000000e+00 0.000000000000000e+00 0.000000000000000e+00
0.000000000000000e+00 0.000000000000000e+00 0.000000000000000e+00
0.000000000000000e+00 0.000000000000000e+00 0.000000000000000e+00
0.000000000000000e+00 0.000000000000000e+00 0.000000000000000e+00
0.000000000000000e+00 0.000000000000000e+00 0.000000000000000e+00
0.000000000000000e+00 0.000000000000000e+00 0.000000000000000e+00
0.000000000000000e+00 0.000000000000000e+00 0.000000000000000e+00
0.000000000000000e+00 0.000000000000000e+00 0.000000000000000e+00
0.000000000000000e+00 0.000000000000000e+00 0.000000000000000e+00
0.000000000000000e+00 0.000000000000000e+00 0.000000000000000e+00
0.000000000000000e+00 0.000000000000000e+00 0.000000000000000e+00
0.000000000000000e+00 0.000000000000000e+00 0.000000000000000e+00
0.000000000000000e+00 0.000000000000000e+00 0.000000000000000e+00
0.000000000000000e+00 0.000000000000000e+00 0.000000000000000e+00
0.000000000000000e+00 0.000000000000000e+00 0.000000000000000e+00
0.000000000000000e+00 0.000000000000000e+00 0.000000000000000e+00
0.000000000000000e+00 0.000000000000000e+00 0.000000000000000e+00
0.000000000000000e+00 0.000000000000000e+00 0.000000000000000e+00
0.000000000000000e+00 0.000000000000000e+00 0.000000000000000e+00
0.000000000000000e+00 0.000000000000000e+00 0.000000000000000e+00
0.000000000000000e+00 0.000000000000000e+00 0.000000000000000e+00
0.000000000000000e+00 0.000000000000000e+00 0.000000000000000e+00
0.000000000000000e+00 0.000000000000000e+00 0.000000000000000e+00
0.000000000000000e+00 0.000000000000000e+00 0.000000000000000e+00
0.000000000000000e+00 0.000000000000000e+00 0.000000000000000e+00
0.000000000000000e+00 0.000000000000000e+00 0.000000000000000e+00
0.000000000000000e+00 0.000000000000000e+00 0.000000000000000e+00
0.000000000000000e+00 0.000000000000000e+00 0.000000000000000e+00
0.000000000000000e+00 0.000000000000000e+00 0.000000000000000e+00
0.000000000000000e+00 0.000000000000000e+00 0.000000000000000e+00
0.000000000000000e+00 0.000000000000000e+00 0.000000000000000e+00
0.000000000000000e+00 0.000000000000000e+00 0.000000000000000e+00
0.000000000000000e+00 0.000000000000000e+00 0.000000000000000e+00
0.000000000000000e+00 0.000000000000000e+00 0.000000000000000e+00
0.000000000000000e+00 0.000000000000000e+00 0.000000000000000e+00
0.000000000000000e+00 0.000000000000000e+00 0.000000000000000e+00
0.000000000000000e+00 0.000000000000000e+00 0.000000000000000e+00
0.000000000000000e+00 0.000000000000000e+00 0.000000000000000e+00
0.000000000000000e+00 0.000000000000000e+00 0.000000000000000e+00
0.000000000000000e+00 0.000000000000000e+00 0.000000000000000e+00
0.000000000000000e+00 0.000000000000000e+00 0.000000000000000e+00
0.000000000000000e+00 0.000000000000000e+00 0.000000000000000e+00
0.000000000000000e+00 0.000000000000000e+00 0.000000000000000e+00
0.000000000000000e+00 0.000000000000000e+00 0.000000000000000e+00
0.000000000000000e+00 0.000000000000000e+00 0.000000000000000e+00
0.000000000000000e+00 0.000000000000000e+00 0.000000000000000e+00
0.000000000000000e+00 0.000000000000000e+00 0.000000000000000e+00
0.000000000000000e+00 0.000000000000000e+00 0.000000000000000e+00
0.000000000000000e+00 0.000000000000000e+00 0.000000000000000e+00
0.000000000000000e+00 0.000000000000000e+00 0.000000000000000e+00
0.000000000000000e+00 0.000000000000000e+00 0.000000000000000e+00
0.000000000000000e+00 0.000000000000000e+00 0.000000000000000e+00
0.000000000000000e+00 0.000000000000000e+00 0.000000000000000e+00
0.000000000000000e+00 0.000000000000000e+00 0.000000000000000e+00
0.000000000000000e+00 0.000000000000000e+00 0.000000000000000e+00
0.000000000000000e+00 0.000000000000000e+00 0.000000000000000e+00
0.000000000000000e+00 0.000000000000000e+00 0.000000000000000e+00
0.000000000000000e+00 0.000000000000000e+00 0.000000000000000e+00
0.000000000000000e+00 0.000000000000000e+00 0.000000000000000e+00
0.000000000000000e+00 0.000000000000000e+00 0.000000000000000e+00
0.000000000000000e+00 0.000000000000000e+00 0.000000000000000e+00
0.000000000000000e+00 0.000000000000000e+00 0.000000000000000e+00
0.000000000000000e+00 0.000000000000000e+00 0.000000000000000e+00
0.000000000000000e+00 0.000000000000000e+00 0.000000000000000e+00
0.000000000000000e+00 0.000000000000000e+00 0.000000000000000e+00
0.000000000000000e+00 0.000000000000000e+00 0.000000000000000e+00
0.000000000000000e+00 0.000000000000000e+00 0.000000000000000e+00
0.000000000000000e+00 0.000000000000000e+00 0.000000000000000e+00
0.000000000000000e+00 0.000000000000000e+00 0.000000000000000e+00
0.000000000000000e+00 0.000000000000000e+00 0.000000000000000e+00
0.000000000000000e+00 0.000000000000000e+00 0.000000000000000e+00
0.000000000000000e+00 0.000000000000000e+00 0.000000000000000e+00
0.000000000000000e+00 0.000000000000000e+00 0.000000000000000e+00
0.000000000000000e+00 0.000000000000000e+00 0.000000000000000e+00
0.000000000000000e+00 0.000000000000000e+00 0.000000000000000e+00
0.000000000000000e+00 0.000000000000000e+00 0.000000000000000e+00
0.000000000000000e+00 0.000000000000000e+00 0.000000000000000e+00
0.000000000000000e+00 0.000000000000000e+00 0.000000000000000e+00
0.000000000000000e+00 0.000000000000000e+00 0.000000000000000e+00
0.000000000000000e+00 0.000000000000000e+00 0.000000000000000e+00
0.000000000000000e+00 0.000000000000000e+00 0.000000000000000e+00
0.000000000000000e+00 0.000000000000000e+00 0.000000000000000e+00
0.000000000000000e+00 0.000000000000000e+00 0.000000000000000e+00
0.000000000000000e+00 0.000000000000000e+00 0.000000000000000e+00
0.000000000000000e+00 0.000000000000000e+00 0.000000000000000e+00
0.000000000000000e+00 0.000000000000000e+00 0.000000000000000e+00
0.000000000000000e+00 0.000000000000000e+00 0.000000000000000e+00
0.000000000000000e+00 0.000000000000000e+00 0.000000000000000e+00
0.000000000000000e+00 0.000000000000000e+00 0.000000000000000e+00
0.000000000000000e+00 0.000000000000000e+00 0.000000000000000e+00
0.000000000000000e+00 0.000000000000000e+00 0.000000000000000e+00
0.000000000000000e+00 0.000000000000000e+00 0.000000000000000e+00
0.000000000000000e+00 0.000000000000000e+00 0.000000000000000e+00
0.000000000000000e+00 0.000000000000000e+00 0.000000000000000e+00
0.000000000000000e+00 0.000000000000000e+00 0.000000000000000e+00
0.000000000000000e+00 0.000000000000000e+00 0.000000000000000e+00
0.000000000000000e+00 0.000000000000000e+00 0.000000000000000e+00
0.000000000000000e+00 0.000000000000000e+00 0.000000000000000e+00
0.000000000000000e+00 0.000000000000000e+00 0.000000000000000e+00
0.000000000000000e+00 0.000000000000000e+00 0.000000000000000e+00
0.000000000000000e+00 0.000000000000000e+00 0.000000000000000e+00
0.000000000000000e+00 0.000000000000000e+00 0.000000000000000e+00
0.000000000000000e+00 0.000000000000000e+00 0.000000000000000e+00
0.000000000000000e+00 0.000000000000000e+00 0.000000000000000e+00
0.000000000000000e+00 0.000000000000000e+00 0.000000000000000e+00
0.000000000000000e+00 0.000000000000000e+00 0.000000000000000e+00
0.000000000000000e+00 0.000000000000000e+00 0.000000000000000e+00
0.000000000000000e+00 0.000000000000000e+00 0.000000000000000e+00
0.000000000000000e+00 0.000000000000000e+00 0.000000000000000e+00
0.000000000000000e+00 0.000000000000000e+00 0.000000000000000e+00
0.000000000000000e+00 0.000000000000000e+00 0.000000000000000e+00
0.000000000000000e+00 0.000000000000000e+00 0.000000000000000e+00
0.000000000000000e+00 0.000000000000000e+00 0.000000000000000e+00
0.000000000000000e+00 0.000000000000000e+00 0.000000000000000e+00
0.000000000000000e+00 0.000000000000000e+00 0.000000000000000e+00
0.000000000000000e+00 0.000000000000000e+00 0.000000000000000e+00
0.000000000000000e+00 0.000000000000000e+00 0.000000000000000e+00
0.000000000000000e+00 0.000000000000000e+00 0.000000000000000e+00
0.000000000000000e+00 0.000000000000000e+00 0.000000000000000e+00
0.000000000000000e+00 0.000000000000000e+00 0.000000000000000e+00
0.000000000000000e+00 0.000000000000000e+00 0.000000000000000e+00
0.000000000000000e+00 0.000000000000000e+00 0.000000000000000e+00
0.000000000000000e+00 0.000000000000000e+00 0.000000000000000e+00
0.000000000000000e+00 0.000000000000000e+00 0.000000000000000e+00
0.000000000000000e+00 0.000000000000000e+00 0.000000000000000e+00
0.000000000000000e+00 0.000000000000000e+00 0.000000000000000e+00
0.000000000000000e+00 0.000000000000000e+00 0.000000000000000e+00
0.000000000000000e+00 0.000000000000000e+00 0.000000000000000e+00
0.000000000000000e+00 0.000000000000000e+00 0.000000000000000e+00
0.000000000000000e+00 0.000000000000000e+00 0.000000000000000e+00
0.000000000000000e+00 0.000000000000000e+00 0.000000000000000e+00
0.000000000000000e+00 0.000000000000000e+00 0.000000000000000e+00
0.000000000000000e+00 0.000000000000000e+00 0.000000000000000e+00
0.000000000000000e+00 0.000000000000000e+00 0.000000000000000e+00
0.000000000000000e+00 0.000000000000000e+00 0.000000000000000e+00
0.000000000000000e+00 0.000000000000000e+00 0.000000000000000e+00
0.000000000000000e+00 0.000000000000000e+00 0.000000000000000e+00
0.000000000000000e+00 0.000000000000000e+00 0.000000000000000e+00
0.000000000000000e+00 0.000000000000000e+00 0.000000000000000e+00
0.000000000000000e+00 0.000000000000000e+00 0.000000000000000e+00
0.000000000000000e+00 0.000000000000000e+00 0.000000000000000e+00
0.000000000000000e+00 0.000000000000000e+00 0.000000000000000e+00
0.000000000000000e+00 0.000000000000000e+00 0.000000000000000e+00
0.000000000000000e+00 0.000000000000000e+00 0.000000000000000e+00
0.000000000000000e+00 0.000000000000000e+00 0.000000000000000e+00
0.000000000000000e+00 0.000000000000000e+00 0.000000000000000e+00
0.000000000000000e+00 0.000000000000000e+00 0.000000000000000e+00
0.000000000000000e+00 0.000000000000000e+00 0.000000000000000e+00
0.000000000000000e+00 0.000000000000000e+00 0.000000000000000e+00
0.000000000000000e+00 0.000000000000000e+00 0.000000000000000e+00
0.000000000000000e+00 0.000000000000000e+00 0.000000000000000e+00
0.000000000000000e+00 0.000000000000000e+00 0.000000000000000e+00
0.000000000000000e+00 0.000000000000000e+00 0.000000000000000e+00
0.000000000000000e+00 0.000000000000000e+00 0.000000000000000e+00
0.000000000000000e+00 0.000000000000000e+00 0.000000000000000e+00
0.000000000000000e+00 0.000000000000000e+00 0.000000000000000e+00
0.000000000000000e+00 0.000000000000000e+00 0.000000000000000e+00
0.000000000000000e+00 0.000000000000000e+00 0.000000000000000e+00
0.000000000000000e+00 0.000000000000000e+00 0.000000000000000e+00
0.000000000000000e+00 0.000000000000000e+00 0.000000000000000e+00
0.000000000000000e+00 0.000000000000000e+00 0.000000000000000e+00
0.000000000000000e+00 0.000000000000000e+00 0.000000000000000e+00
0.000000000000000e+00 0.000000000000000e+00 0.000000000000000e+00
0.000000000000000e+00 0.000000000000000e+00 0.000000000000000e+00
0.000000000000000e+00 0.000000000000000e+00 0.000000000000000e+00
0.000000000000000e+00 0.000000000000000e+00 0.000000000000000e+00
0.000000000000000e+00 0.000000000000000e+00 0.000000000000000e+00
0.000000000000000e+00 0.000000000000000e+00 0.000000000000000e+00
0.000000000000000e+00 0.000000000000000e+00 0.000000000000000e+00
0.000000000000000e+00 0.000000000000000e+00 0.000000000000000e+00
0.000000000000000e+00 0.000000000000000e+00 0.000000000000000e+00
0.000000000000000e+00 0.000000000000000e+00 0.000000000000000e+00
0.000000000000000e+00 0.000000000000000e+00 0.000000000000000e+00
0.000000000000000e+00 0.000000000000000e+00 0.000000000000000e+00
0.000000000000000e+00 0.000000000000000e+00 0.000000000000000e+00
0.000000000000000e+00 0.000000000000000e+00 0.000000000000000e+00
0.000000000000000e+00 0.000000000000000e+00 0.000000000000000e+00
0.000000000000000e+00 0.000000000000000e+00 0.000000000000000e+00
0.000000000000000e+00 0.000000000000000e+00 0.000000000000000e+00
0.000000000000000e+00 0.000000000000000e+00 0.000000000000000e+00
0.000000000000000e+00 0.000000000000000e+00 0.000000000000000e+00
0.000000000000000e+00 0.000000000000000e+00 0.000000000000000e+00
0.000000000000000e+00 0.000000000000000e+00 0.000000000000000e+00
0.000000000000000e+00 0.000000000000000e+00 0.000000000000000e+00
0.000000000000000e+00 0.000000000000000e+00 0.000000000000000e+00
0.000000000000000e+00 0.000000000000000e+00 0.000000000000000e+00
0.000000000000000e+00 0.000000000000000e+00 0.000000000000000e+00
0.000000000000000e+00 0.000000000000000e+00 0.000000000000000e+00
0.000000000000000e+00 0.000000000000000e+00 0.000000000000000e+00
0.000000000000000e+00 0.000000000000000e+00 0.000000000000000e+00
0.000000000000000e+00 0.000000000000000e+00 0.000000000000000e+00
0.000000000000000e+00 0.000000000000000e+00 0.000000000000000e+00
0.000000000000000e+00 0.000000000000000e+00 0.000000000000000e+00
0.000000000000000e+00 0.000000000000000e+00 0.000000000000000e+00
0.000000000000000e+00 0.000000000000000e+00 0.000000000000000e+00
0.000000000000000e+00 0.000000000000000e+00 0.000000000000000e+00
0.000000000000000e+00 0.000000000000000e+00 0.000000000000000e+00
0.000000000000000e+00 0.000000000000000e+00 0.000000000000000e+00
0.000000000000000e+00 0.000000000000000e+00 0.000000000000000e+00
0.000000000000000e+00 0.000000000000000e+00 0.000000000000000e+00
0.000000000000000e+00 0.000000000000000e+00 0.000000000000000e+00
0.000000000000000e+00 0.000000000000000e+00 0.000000000000000e+00
0.000000000000000e+00 0.000000000000000e+00 0.000000000000000e+00
0.000000000000000e+00 0.000000000000000e+00 0.000000000000000e+00
0.000000000000000e+00 0.000000000000000e+00 0.000000000000000e+00
0.000000000000000e+00 0.000000000000000e+00 0.000000000000000e+00
0.000000000000000e+00 0.000000000000000e+00 0.000000000000000e+00
0.000000000000000e+00 0.000000000000000e+00 0.000000000000000e+00
0.000000000000000e+00 0.000000000000000e+00 0.000000000000000e+00
0.000000000000000e+00 0.000000000000000e+00 0.000000000000000e+00
0.000000000000000e+00 0.000000000000000e+00 0.000000000000000e+00
0.000000000000000e+00 0.000000000000000e+00 0.000000000000000e+00
0.000000000000000e+00 0.000000000000000e+00 0.000000000000000e+00
0.000000000000000e+00 0.000000000000000e+00 0.000000000000000e+00
0.000000000000000e+00 0.000000000000000e+00 0.000000000000000e+00
0.000000000000000e+00 0.000000000000000e+00 0.000000000000000e+00
0.000000000000000e+00 0.000000000000000e+00 0.000000000000000e+00
0.000000000000000e+00 0.000000000000000e+00 0.000000000000000e+00
0.000000000000000e+00 0.000000000000000e+00 0.000000000000000e+00
0.000000000000000e+00 0.000000000000000e+00 0.000000000000000e+00
0.000000000000000e+00 0.000000000000000e+00 0.000000000000000e+00
0.000000000000000e+00 0.000000000000000e+00 0.000000000000000e+00
0.000000000000000e+00 0.000000000000000e+00 0.000000000000000e+00
0.000000000000000e+00 0.000000000000000e+00 0.000000000000000e+00
0.000000000000000e+00 0.000000000000000e+00 0.000000000000000e+00
0.000000000000000e+00 0.000000000000000e+00 0.000000000000000e+00
0.000000000000000e+00 0.000000000000000e+00 0.000000000000000e+00
0.000000000000000e+00 0.000000000000000e+00 0.000000000000000e+00
0.000000000000000e+00 0.000000000000000e+00 0.000000000000000e+00
0.000000000000000e+00 0.000000000000000e+00 0.000000000000000e+00
0.000000000000000e+00 0.000000000000000e+00 0.000000000000000e+00
0.000000000000000e+00 0.000000000000000e+00 0.000000000000000e+00
0.000000000000000e+00 0.000000000000000e+00 0.000000000000000e+00
0.000000000000000e+00 0.000000000000000e+00 0.000000000000000e+00
0.000000000000000e+00 0.000000000000000e+00 0.000000000000000e+00
0.000000000000000e+00 0.000000000000000e+00 0.000000000000000e+00
0.000000000000000e+00 0.000000000000000e+00 0.000000000000000e+00
0.000000000000000e+00 0.000000000000000e+00 0.000000000000000e+00
0.000000000000000e+00 0.000000000000000e+00 0.000000000000000e+00
0.000000000000000e+00 0.000000000000000e+00 0.000000000000000e+00
0.000000000000000e+00 0.000000000000000e+00 0.000000000000000e+00
0.000000000000000e+00 0.000000000000000e+00 0.000000000000000e+00
0.000000000000000e+00 0.000000000000000e+00 0.000000000000000e+00
0.000000000000000e+00 0.000000000000000e+00 0.000000000000000e+00
0.000000000000000e+00 0.000000000000000e+00 0.000000000000000e+00
0.000000000000000e+00 0.000000000000000e+00 0.000000000000000e+00
0.000000000000000e+00 0.000000000000000e+00 0.000000000000000e+00
0.000000000000000e+00 0.000000000000000e+00 0.000000000000000e+00
0.000000000000000e+00 0.000000000000000e+00 0.000000000000000e+00
0.000000000000000e+00 0.000000000000000e+00 0.000000000000000e+00
0.000000000000000e+00 0.000000000000000e+00 0.000000000000000e+00
0.000000000000000e+00 0.000000000000000e+00 0.000000000000000e+00
0.000000000000000e+00 0.000000000000000e+00 0.000000000000000e+00
0.000000000000000e+00 0.000000000000000e+00 0.000000000000000e+00
0.000000000000000e+00 0.000000000000000e+00 0.000000000000000e+00
0.000000000000000e+00 0.000000000000000e+00 0.000000000000000e+00
0.000000000000000e+00 0.000000000000000e+00 0.000000000000000e+00
0.000000000000000e+00 0.000000000000000e+00 0.000000000000000e+00
0.000000000000000e+00 0.000000000000000e+00 0.000000000000000e+00
0.000000000000000e+00 0.000000000000000e+00 0.000000000000000e+00
0.000000000000000e+00 0.000000000000000e+00 0.000000000000000e+00
0.000000000000000e+00 0.000000000000000e+00 0.000000000000000e+00
0.000000000000000e+00 0.000000000000000e+00 0.000000000000000e+00
0.000000000000000e+00 0.000000000000000e+00 0.000000000000000e+00
0.000000000000000e+00 0.000000000000000e+00 0.000000000000000e+00
0.000000000000000e+00 0.000000000000000e+00 0.000000000000000e+00
0.000000000000000e+00 0.000000000000000e+00 0.000000000000000e+00
0.000000000000000e+00 0.000000000000000e+00 0.000000000000000e+00
0.000000000000000e+00 0.000000000000000e+00 0.000000000000000e+00
0.000000000000000e+00 0.000000000000000e+00 0.000000000000000e+00
0.000000000000000e+00 0.000000000000000e+00 0.000000000000000e+00
0.000000000000000e+00 0.000000000000000e+00 0.000000000000000e+00
0.000000000000000e+00 0.000000000000000e+00 0.000000000000000e+00
0.000000000000000e+00 0.000000000000000e+00 0.000000000000000e+00
0.000000000000000e+00 0.000000000000000e+00 0.000000000000000e+00
0.000000000000000e+00 0.000000000000000e+00 0.000000000000000e+00
0.000000000000000e+00 0.000000000000000e+00 0.000000000000000e+00
0.000000000000000e+00 0.000000000000000e+00 0.000000000000000e+00
0.000000000000000e+00 0.000000000000000e+00 0.000000000000000e+00
0.000000000000000e+00 0.000000000000000e+00 0.000000000000000e+00
0.000000000000000e+00 0.000000000000000e+00 0.000000000000000e+00
0.000000000000000e+00 0.000000000000000e+00 0.000000000000000e+00
0.000000000000000e+00 0.000000000000000e+00 0.000000000000000e+00
0.000000000000000e+00 0.000000000000000e+00 0.000000000000000e+00
0.000000000000000e+00 0.000000000000000e+00 0.000000000000000e+00
0.000000000000000e+00 0.000000000000000e+00 0.000000000000000e+00
0.000000000000000e+00 0.000000000000000e+00 0.000000000000000e+00
0.000000000000000e+00 0.000000000000000e+00 0.000000000000000e+00
0.000000000000000e+00 0.000000000000000e+00 0.000000000000000e+00
0.000000000000000e+00 0.000000000000000e+00 0.000000000000000e+00
0.000000000000000e+00 0.000000000000000e+00 0.000000000000000e+00
0.000000000000000e+00 0.000000000000000e+00 0.000000000000000e+00
0.000000000000000e+00 0.000000000000000e+00 0.000000000000000e+00
0.000000000000000e+00 0.000000000000000e+00 0.000000000000000e+00
0.000000000000000e+00 0.000000000000000e+00 0.000000000000000e+00
0.000000000000000e+00 0.000000000000000e+00 0.000000000000000e+00
0.000000000000000e+00 0.000000000000000e+00 0.000000000000000e+00
0.000000000000000e+00 0.000000000000000e+00 0.000000000000000e+00
0.000000000000000e+00 0.000000000000000e+00 0.000000000000000e+00
0.000000000000000e+00 0.000000000000000e+00 0.000000000000000e+00
0.000000000000000e+00 0.000000000000000e+00 0.000000000000000e+00
0.000000000000000e+00 0.000000000000000e+00 0.000000000000000e+00
0.000000000000000e+00 0.000000000000000e+00 0.000000000000000e+00
0.000000000000000e+00 0.000000000000000e+00 0.000000000000000e+00
0.000000000000000e+00 0.000000000000000e+00 0.000000000000000e+00
0.000000000000000e+00 0.000000000000000e+00 0.000000000000000e+00
0.000000000000000e+00 0.000000000000000e+00 0.000000000000000e+00
0.000000000000000e+00 0.000000000000000e+00 0.000000000000000e+00
0.000000000000000e+00 0.000000000000000e+00 0.000000000000000e+00
0.000000000000000e+00 0.000000000000000e+00 0.000000000000000e+00
0.000000000000000e+00 0.000000000000000e+00 0.000000000000000e+00
 1.175085731996336e+00 -5.924987284470190e-04 -2.090596457469813e-17
 3.244999495893118e-01 -1.325738892036078e-04 -5.773501530108780e-18
 6.023138151234135e-01  5.677967472981299e-03 -1.077723173893272e-17
 1.149744370265177e+00 -9.735850396079285e-04 -2.045106929495844e-17
 1.570313748125103e+00  2.351353813279603e-02 -2.818719935363375e-17
 2.749555931589288e-01  1.407035051867124e-03 -4.907619574057301e-18
 1.138899601997845e+00  1.297673494867761e-02 -2.040140817956520e-17
 2.646125284170150e-02  3.155433160372952e-04 -4.741516494718444e-19
 8.146239302309252e-01  6.747188780537942e-03 -1.456652947328283e-17
 1.325850505747874e-01  1.464528624793448e-03 -2.374557199134457e-18
 1.109676463559315e+00  6.332022387432428e-03 -1.981307556801667e-17
 1.046760666849756e-01  2.296508832441902e-03 -1.886431277945520e-18
-5.239245530722867e-01 -3.800392970111611e-03  9.362910040106384e-18
-1.065249219169110e-01 -1.487805824987934e-03  1.911024718154057e-18
 1.562990481609857e+00  7.996066653565953e-03 -2.789743676848340e-17
 1.513464531806658e-01  2.416363488150324e-03 -2.718217922990284e-18
-5.578665726078244e-01 -1.011729241486287e-02  1.003185260156469e-17
 1.386349741654163e+00  2.883105647177955e-02 -2.496797591024685e-17
-2.631985168997801e+00 -5.951119501391543e-02  4.745077154364496e-17
-4.338079436056889e+00 -1.750611614237129e-02  7.738116721593093e-17
 6.735671044684777e+00 -1.765603715605167e-02 -1.196878915061898e-16
-5.252148950492633e+00 -1.392796975641616e-01  9.489930387451908e-17
-8.126115366303516e+00  2.888417729404280e-01  1.416461718356566e-16
 1.936572050211722e+00 -3.848777943667225e-02 -3.406816170774036e-17
-4.745859522176312e+00  1.524245474230929e-01  8.289212441045930e-17
 2.999077708513933e+01 -5.617277615356902e+00 -4.760061656327399e-16
-2.285587452463155e+01 -1.316802779534107e+01  5.420442526705865e-16
-5.457358728760054e+00  3.273875707728512e+00  6.348232477564439e-17
 2.054604602254566e+01  2.441340101206973e+01 -6.164802238718842e-16
-1.748461046313955e+01  1.936645213640331e+00  2.912611735481986e-16
 4.540708757492500e-01  7.487594921534982e-02 -8.850056060537839e-18
-2.258140285168497e+01  6.857688116552700e-01  3.948169743698302e-16
 1.097986370976635e+01 -9.038011295667360e-01 -1.861135436987298e-16
-3.372504132456622e+00 -1.827623966802312e-01  6.189555113914425e-17
 3.943483700994201e+00 -5.151705798956615e-01 -6.488580599202013e-17
 7.386757195481652e+00  5.047200734511658e-01 -1.366419709486897e-16
-7.128312412420700e+00  1.339863433694879e-01  1.254801612783566e-16
-5.442752730664068e+00 -1.937692550190976e-01  9.885118590280809e-17
 1.262849665758262e+00 -2.869245702036987e-01 -1.952587057050457e-17
-1.457349951773878e+00 -7.231025260081024e-02  2.667824236590121e-17
 5.605264337679633e-01 -5.578459907333869e-02 -9.402070018389581e-18
-1.380845384536320e+00 -1.840266536127262e-01  2.646459779424691e-17
 2.079883823169850e+00 -2.457557683699279e-01 -3.448896236458865e-17
-4.938496334281459e-01 -2.243156944894651e-02  9.019119529764876e-18
 8.449336355522707e-01 -9.193927710984343e-02 -1.409195925588087e-17
 7.961095355528884e-01  1.150827753253791e-01 -1.535015252907188e-17
-3.772540640370575e-01  3.968283906196431e-02  6.305959339630217e-18
 5.785439636259634e-01  6.056913307260293e-02 -1.091820580941180e-17
-2.725058112673929e-01  2.304999666511453e-02  4.612735625897695e-18
 1.880300780949153e+00  1.244232450922099e-01 -3.474059897701062e-17
 2.307319760057763e+00 -2.798027258106019e-01 -3.818663605498084e-17
-1.405562659395328e+00 -1.000812567289113e-01  2.604196270152115e-17
-1.606192968395150e+00  6.080297634799048e-02  2.795939132651598e-17
 7.717381106161919e+00  1.012652841151916e+00 -1.477446424563685e-16
-7.814424970934457e-02  8.619838899346968e-03  1.302104417916092e-18
-6.933958362116358e-01 -5.926777158596332e-02  1.294876091176453e-17
-3.300327949171928e-01  3.389171991962692e-02  5.525102117019325e-18
 4.885219925880189e-02  2.080546360188282e-03 -8.907600009164358e-19
 1.657451861382605e+00 -1.487563136962140e-01 -2.796791590014779e-17
-1.824904696160543e+00 -1.246730345143341e-01  3.375732603277211e-17
 2.709425529894293e+00 -2.892124520510018e-01 -4.524590634202973e-17
 6.916107869074897e-01  5.097022886686949e-02 -1.283173951835525e-17
-2.737609720994188e+00  2.513023508322381e-01  4.613699018376985e-17
-1.931730772518068e+00 -1.131940536577972e-01  3.554048113045501e-17
 1.807385214000188e+00 -1.272117941250342e-01 -3.085752080994914e-17
 2.614565521484248e+01  1.857731871151949e+01 -6.561683225086878e-16
-6.858246080586113e+00  4.464294859565325e-01  1.174637690359102e-16
 8.744500707916585e-01  3.061263167673870e-02 -1.587641575256430e-17
 6.429126103804071e-01 -3.843190374772733e-02 -1.104652294346270e-17
 2.995256457201915e-01  3.416963117029789e-02 -5.681496712464788e-18
-6.011905202804614e+00  1.713316539129389e-01  1.052286538444458e-16
 5.433653514009190e+00 -9.284282957158803e-02 -9.574441946157016e-17
 3.303079846176505e-01  4.673593322373994e-03 -5.926244065806887e-18
 1.527075379862347e+01  1.418578823883439e-01 -2.732188176717966e-16
 6.795355468636614e+00  2.053112465186827e+00 -1.420264411454826e-16
-1.613233174219944e+01  1.652729454593523e+00  2.701128919380001e-16
 1.481019233329584e+01 -7.075033002290729e-01 -2.562956994042718e-16
 3.002362639334784e+01  1.075769289697648e+01 -6.448376316513587e-16
-2.051150842864147e+01  4.200545321749587e-01  3.607108518227440e-16
-1.048674148775952e+00  2.037429841881143e-02  1.845306887555020e-17
 3.659789030286280e+00 -3.917434596022834e-02 -6.472780919621475e-17
-9.606006104905643e-01 -9.041551144241025e-03  1.718793229039448e-17
-5.815521757660265e-01  7.322419237040070e-03  1.027417945518144e-17
-4.949021443351695e+00 -6.437505168796191e-02  8.873517027855096e-17
 8.825695579755096e-01 -2.975860709158613e-02 -1.540061918281360e-17
-2.313166041327925e+00 -7.173926785206630e-02  4.190264386525719e-17
 3.828033340110425e-01 -1.519484387483275e-02 -6.656320445165695e-18
-3.135751778372171e+00 -2.024199071725623e-01  5.788423431088010e-17
 1.123021982112756e-01 -2.826543300701439e-04 -1.995647405519334e-18
-4.707144540881517e-02  2.901644051943933e-03  8.078791767274784e-19
-2.965292320845709e+01  1.302370550780936e+01  3.938952904344577e-16
 8.736408413365184e-01  1.771899894395243e-02 -1.572953716016657e-17
-6.787398107812710e-01  1.326273475179338e-02  1.194271477367477e-17
 2.167704266347920e+00  4.951695158157522e-02 -3.908565183093184e-17
-1.679946718137531e+00  4.580757568311260e-02  2.942599955486523e-17
 1.809121002386659e+00 -3.611646977352901e-03 -3.215835787287658e-17
-7.609533636240586e-01  7.856188231963868e-03  1.346135332461763e-17
-1.539705333945391e-01  1.629986808598787e-03  2.723341782179581e-18
 3.781540518771857e-01 -3.920633957328540e-03 -6.689419342531384e-18
 1.076050557604555e-01 -7.165024133280353e-04 -1.907598513785535e-18
 7.537335093532658e-01 -9.573622739226484e-03 -1.331522138899443e-17
 3.572435524512549e-01  4.359188952057941e-05 -6.358023027301766e-18
-1.797711531314743e+00  3.634250641685580e-02  3.161901505275413e-17
 2.178577030091112e+00 -1.287367394807661e-02 -3.863810464115512e-17
 6.090953581314593e-01  5.148467630378108e-04 -1.084486832032844e-17
-3.127699826091656e-01  1.785132275087529e-03  5.547773332460572e-18
 2.035358159174137e+00 -5.505147220500071e-03 -3.616506291278301e-17
-4.001385904851312e+00 -1.237182050684738e-01  7.248059494658921e-17
 1.507454264768773e+00 -3.197041147218464e-02 -2.649846244791770e-17
 5.573353021293247e-01  9.626007353945993e-03 -1.001735025521470e-17
 1.555066087457686e+00 -9.209908850878615e-02 -2.672797106920114e-17
 5.758416525478117e-02  3.507321006001346e-03 -1.060815291225445e-18
 6.449246259130331e-01 -7.034580002871342e-03 -1.140492525798814e-17
-4.207210877803285e-01 -3.231402938967912e-02  7.819248651191481e-18
 2.366776345119007e-01 -9.983999477944169e-03 -4.109378845755141e-18
-4.411571983916252e-02 -1.104642818475519e-03  7.964417008450034e-19
 4.451094321890435e-01 -1.548116894309327e-02 -7.762189890268811e-18
 1.193584032405932e+00  9.252750772638615e-02 -2.219193814452208e-17
 3.805701385339865e-01 -9.226507294796233e-03 -6.677900570294915e-18
 4.119645436782484e-02 -2.340402273454817e-03 -7.090932632268286e-19
 4.615986534683213e-01 -5.583421588438804e-03 -8.157331037471592e-18
 5.596114433918751e-01  2.461155465710004e-02 -1.021182794646773e-17
 5.472060531072239e-01 -1.159189775370778e-02 -9.619081890183835e-18
-2.281138239943066e-02 -3.172588743371801e-04  4.092154618687543e-19
-1.059768329140818e-01 -8.485871550708183e-03  1.973173463038069e-18
 2.721550229515762e+00  1.882352759028497e-01 -5.036728183023886e-17
-1.873297620818575e+00 -2.111961941860059e-02  3.355456213012638e-17
 5.965146417173444e-02 -8.254479703147544e-03 -9.767571792598454e-19
 1.960214608995968e-01  2.597760927658399e-02 -3.755346218638162e-18
 3.591524816395955e+00  4.137546120240917e-01 -6.816664655085552e-17
-6.340227660216684e-01 -1.067559655732455e-01  1.238007018815241e-17
 6.040890024190037e-01  1.489293878877685e-01 -1.228067973588996e-17
-3.243930212783514e+01 -2.604151183199011e+00  6.040527837719565e-16
 2.461146462216170e+00 -5.385360977657526e-01 -3.826577428754198e-17
 1.296969372209969e-01  8.033237963970541e-02 -3.133497723970773e-18
 1.048218726617999e+00 -1.392000872505608e-01 -1.722407227141913e-17
-6.636472108687928e+00 -3.336349729510169e-01  1.215319155842098e-16
 2.200361013944658e+00 -2.606562609444381e-01 -3.647990052806977e-17
 4.977827270714238e-01  4.568431772522311e-02 -9.328027180554492e-18
 1.535537261883574e+00 -1.116220214233155e-01 -2.617984150465998e-17
 2.252766537996252e+01  2.348604305622721e+01 -6.422172380024503e-16
 6.101041194969021e-01  1.829494634073811e-02 -1.104550448990364e-17
 2.271590276357993e+00  1.216290100998985e-01 -4.167535243375650e-17
-1.759862544644889e+00  2.894383089944621e-01  2.834497979394038e-17
 2.444114161555630e+00  8.752912211575335e-02 -4.439525689942981e-17
-2.582230803650801e+00  1.727905792514232e-01  4.417851691537923e-17
 2.594554140997346e+00  4.995736879059200e-02 -4.668647964598089e-17
-1.414008198938146e+01  1.276645783006705e+00  2.385225542754686e-16
 2.167993759486556e+00  2.036087139071235e-02 -3.879123557437113e-17
-4.081710950820016e-01  1.151125955844099e-02  7.145617521487300e-18
 9.211911381992907e-01  5.138877254544465e-03 -1.644649523780494e-17
-8.910653966693188e-02  6.445800272005378e-04  1.579134326893550e-18
 5.508117814700986e-01 -1.897796923194009e-04 -9.800402765786970e-18
 8.525248204541437e-02 -3.641593986206776e-05 -1.516795451479691e-18
 2.288577120649422e-01 -4.367604870377877e-04 -4.068308431930361e-18
-1.793673107724285e-01 -4.088990808633907e-04  3.196256544671609e-18
-8.777001660529284e-02  7.372870246957969e-04  1.554396780567034e-18
 2.309278091987601e-01 -6.088058223822405e-04 -4.103380573003108e-18
 6.148938016284399e-01 -2.971652426924994e-03 -1.091223603007351e-17
-5.592037398442417e-01 -7.061243485046779e-03  1.002424934494274e-17
-3.398877221287400e-01  5.031498267137056e-03  5.997010603070916e-18
 9.382418029857453e-01 -3.074324720294735e-03 -1.666554448964664e-17
 5.031733628792065e-02  2.142252994487382e-06 -8.954790325477756e-19
-4.491333626477921e-01  7.666736524605834e-04  7.984986641318878e-18
 7.795418999555043e-01 -3.769689170985553e-03 -1.383414579413443e-17
 2.375197172024967e+00  3.257448795499179e-02 -4.260415792981562e-17
-2.297959226568888e+00 -1.851015362255727e-02  4.108511065196262e-17
-1.621686756318887e+01  7.428437229539582e-01  2.809660529914223e-16
 4.771739258033236e+00 -7.961360058287753e-02 -8.410079120890389e-17
 1.673904095943347e+00  5.472095241871634e-02 -3.035135801013536e-17
-1.363710213811092e+00  4.358287769239909e-03  2.422407012326350e-17
 1.505487947080352e+00  2.149869241813103e-02 -2.701284508114060e-17
 2.159704273146039e-01  2.557555277552735e-03 -3.869729319599962e-18
 1.747415964349710e-01  7.793016616711897e-03 -3.189805563910851e-18
 1.143516752390537e+01 -9.520443148067266e-02 -2.025242554890560e-16
 1.026567516340467e+00 -1.373442759166410e+01  1.228472607412613e-16
-6.775341320387184e+00  8.882150835450296e-01  1.114491933930637e-16
 4.638899280107242e+00  3.688862812644637e-01 -8.634491870495637e-17
-2.408921791677621e+01  4.277514681853151e+00  3.847464580368198e-16
 2.323224065725747e+00  1.929030163260067e-02 -4.154274435091892e-17
-1.607654798194610e+00  1.838660583150534e-02  2.842121911874980e-17
-7.736557504955639e-01  1.058109487278576e-02  1.365941002308345e-17
-2.103057927443075e+00  2.528184110649649e-02  3.716666271263097e-17
 1.381167186509201e+01 -1.542158430248997e+00 -2.299500583309770e-16
 8.378153051020064e+00 -6.418974202024198e-02 -1.484397010820004e-16
 3.351140779558962e+00  3.722428307596210e-03 -5.967579416832458e-17
-3.912194516177495e+00 -1.309825022922380e-01  7.096796568746143e-17
 4.020282149923867e-01 -4.273073673184281e-03 -7.110667362563152e-18
 3.699446340675471e+00 -1.173533850302504e-02 -6.571548415309002e-17
 1.867827282907746e+00  1.972674811882206e-03 -3.326048304332775e-17
 9.582150486340603e-01  1.338706634752106e-03 -1.706633451509793e-17
 1.559651725216464e-01  8.214825626881142e-05 -2.776430329980899e-18
 1.830731976063756e-01 -4.958394233659384e-06 -3.257954962406649e-18
 3.393465314135919e+00 -9.669871551988445e-03 -6.029140872340260e-17
-2.174430261319939e+01 -2.546485747928950e+00  4.131300184808560e-16
-7.307736845284238e+00  1.314512172350611e-01  1.286992806620763e-16
 8.153698487234994e+00 -4.738706566245379e-01 -1.402359417797395e-16
 6.416176587132413e+00  1.022481266416204e-01 -1.152340782080217e-16
-1.969919084890411e+01 -1.002654014565929e+00  3.608725049703044e-16
-2.759224299339128e+00  4.961836668290617e-03  4.905270665597031e-17
-4.414299563809468e-01  3.305508472641502e-03  7.821809731276039e-18
 8.500628870667551e+00 -1.752516876327848e-02 -1.510987659258944e-16
-9.876959042193063e-03  1.678468107979854e-04  1.740477033158579e-19
 1.080799131253241e+00 -4.451417158374361e-03 -1.918837307013780e-17
 4.831879615865913e-02 -1.696244957318019e-04 -8.581477832056690e-19
 1.471996887191080e+00  4.394119770618128e-03 -2.624108841994413e-17
 2.343738380039933e+00 -1.542349570523188e-02 -4.155114943796837e-17
 3.070332686020567e-02 -1.015223261957879e-04 -5.453592302354098e-19
-6.977429695688651e-01  1.106707115459855e-03  1.240579742841292e-17
 5.625303834551776e-01 -1.069574841092730e-03 -9.999909695469272e-18
 1.809871761709218e-01  1.138547749062823e-04 -3.222052506111728e-18
 5.333397789095566e-01  4.639384828698574e-05 -9.491894235227920e-18
 1.427709024685071e+00  3.158796537808210e-03 -2.544024061738399e-17
-3.901470605842449e-01 -7.629811076377765e-03  7.021525852119676e-18
 3.574035470966288e+00 -6.719556121182363e-02 -6.291381448210339e-17
-9.290108638574528e+00 -8.420581860937578e-01  1.739804068323785e-16
-9.932277258556866e+00  1.275038382984923e+00  1.636561652625984e-16
 1.280172268151079e+01 -2.104292202655768e-01 -2.256598417639972e-16
 1.444224541711089e+01  3.332454115662393e-01 -2.604409600722485e-16
-1.560997463087566e+01 -3.268407547244077e+00  3.113798190373822e-16
-1.351532542817184e+01  7.128850181036908e-01  2.331967030619469e-16
 2.821449200180889e+01 -4.418877534833867e+00 -4.567081792377880e-16
 1.175202865030113e+00  1.426517335273134e-01 -2.237983155199808e-17
-6.811167402748419e+00 -1.299733630772006e-01  1.225482776764511e-16
-2.342579521065872e+00 -1.925450922017288e-02  4.188682999516473e-17
 7.497452946988559e-01 -1.351022299351938e-03 -1.332873058340985e-17
 2.296705508580082e+00  3.639410557755225e-02 -4.124655036309137e-17
 4.563904455476437e+00  1.318268387157924e-01 -8.257459668725658e-17
-9.999644801050104e+00 -6.430325256255439e-01  1.845625328758723e-16
-2.215843114455734e+01  2.383471953134413e+01  1.494426292114930e-16
 1.528162289370581e+01 -1.424420614525877e+00 -2.573193036260924e-16
 4.191998021931743e+00  1.387187912974871e+00 -8.885445706131040e-17
-6.977195862475553e+00  5.959838037111728e-01  1.180440059907514e-16
 6.350736841064860e-01  1.529176694448281e-02 -1.145901109606101e-17
 1.342285583210893e+00 -1.546750818252012e-01 -2.229834272010414e-17
 1.318389367203313e+00  6.106895091423965e-02 -2.408977270696057e-17
 3.067568327985096e+00 -1.512847969969524e-01 -5.303664118981539e-17
-4.044999241867764e+00 -3.810711319300593e-01  7.590095401999880e-17
-9.129575592157691e+00  1.061755953614006e+00  1.515625310763132e-16
 8.426582036781946e+00  1.319451362615900e-01 -1.513167672763606e-16
-1.771063130258018e+00  6.118133209514934e-02  3.088956503989303e-17
 2.086579754845686e+01  2.537687540689452e-01 -3.739391387592114e-16
 2.296359915086175e+01  2.296300752646757e+01 -6.446011989628143e-16
-1.040043976683219e+01  7.891227858401422e-01  1.769802817861113e-16
 4.459438225069843e+00 -1.064238259124190e-02 -7.925167600846040e-17
-3.070456108622868e+00 -8.715247671398734e-03  5.473197502481380e-17
 9.979124373782533e+00 -5.497566299437064e-01 -1.719418721032701e-16
 2.293677387943065e+00  4.528921725341704e-02 -4.128405537548436e-17
-3.478198830796562e+00 -4.509726387730691e-02  6.236205514384541e-17
-9.245163251218358e+00  3.107085791637249e-01  1.613362902979795e-16
 4.628042830058066e+00 -6.561531648065964e-02 -8.168736915442561e-17
 4.203823459696186e+00  5.980857145285513e-02 -7.542656428918143e-17
-2.937104787922913e+00 -7.705286275907554e-02  5.306097338290779e-17
-8.609018672364217e+00  3.495413187782774e-01  1.496163462733404e-16
-1.754556571278428e+00 -3.485192841732564e-02  3.158251798203774e-17
-1.178620351561664e-01 -4.357853473100269e-03  2.142270863806779e-18
-1.024699707768647e+00 -4.601192956779900e-02  1.870850950736975e-17
-6.217139670894379e-01  1.317012001621141e-02  1.092882346673697e-17
-5.937974105799667e-01 -1.069421915569106e-02  1.067721245465001e-17
-1.552662446171497e+00  5.241303065142709e-02  2.709295543903099e-17
 4.174958925642939e-01  1.088459567905209e-02 -7.541672681926764e-18
-7.898205044981073e-01  6.303068057470981e-03  1.399103625288810e-17
 1.148768861846079e+00  3.312916427087733e-02 -2.078410230200409e-17
-1.031795175742900e+00  5.396328987364776e-03  1.830658067713845e-17
 1.319030776159573e+00  2.037164751786047e-02 -2.368303734329882e-17
-1.238497297908051e+00 -5.431353933627623e-03  2.209634193891665e-17
 1.972010524525053e+00  1.490072056616381e-02 -3.524737907407342e-17
-5.405066180045569e+00 -2.823286644770730e-01  9.909042456204685e-17
 7.909357327873103e+00 -6.083757751852835e-01 -1.345056081737588e-16
-2.290894956121791e+00 -1.026406798979294e-01  4.182380411102701e-17
 4.184465578550888e+00 -3.357532011785779e-01 -7.101781419221899e-17
-2.092309605719100e+00 -1.623120726427451e-01  3.890284283030757e-17
 1.522301795706773e+01 -4.604590297491415e+00 -2.236012704477944e-16
-8.683838750438122e-01 -4.995084130974129e-02  1.596715365059238e-17
 5.254805227199390e+00 -1.191719993580939e+00 -8.127103723393711e-17
-1.725064093667669e+00 -1.534559376053357e-01  3.227627729177495e-17
 3.588995447365998e-01 -6.593525196819486e-02 -5.709584734737639e-18
-7.200058572748606e-01 -1.738594734579568e-01  1.459970601588050e-17
-1.314579950960987e+00  1.698784084258830e-01  2.164907939926589e-17
-6.695072892090538e-03  1.345028471534775e-02 -1.904997574870758e-20
-2.463599155798910e+00  1.596683660845219e-01  4.220215126927992e-17
 3.116634014171341e+00  6.888459597048894e-01 -6.254186192430918e-17
-3.777552461991889e+00  1.018343452288186e-01  6.617974118822855e-17
-3.537701748238073e+00 -4.494299000254778e-01  6.757535157583602e-17
-2.795198391128031e+00  9.259507755337670e-02  4.879250882396916e-17
-3.695855348383125e+00 -3.795190229476413e-01  6.967157464143108e-17
-4.449407815071686e+00  9.759445576354223e-02  7.817977193256848e-17
-2.323018247081265e+00 -6.384003742203298e-02  4.199681389219440e-17
-1.521562867573783e+01  2.372312567291644e+00  2.464056125165732e-16
 1.191207771367302e+01  7.392962031268187e-01 -2.195856320439533e-16
-1.493792940893037e+01 -1.064325587437626e+00  2.767738312109434e-16
-1.382160654025292e+01  7.976579877617768e-01  2.377763292323758e-16
 2.565823905978364e+00  2.267607428519448e-02 -4.589488546061965e-17
 8.101067065827957e+00 -8.515175974437755e-02 -1.432932482680708e-16
-6.871998099314347e+00 -2.697548299897397e-01  1.250670362819707e-16
-5.966778632613588e+00  3.460823022267895e-01  1.026300732649838e-16
 2.438922380835521e+00  9.944941708372466e-02 -4.442533968085317e-17
-8.220747720142064e+00  1.829619667801619e-01  1.444181440023773e-16
-4.445684472056672e-01  2.028055450109598e-03  7.890788281514782e-18
-2.392987774320533e+00  8.750426220161736e-03  4.249616444805106e-17
 8.758010192227316e-01 -1.665482165646117e-02 -1.541480159193478e-17
-5.643092122559493e-01 -3.255106400792254e-03  1.007600060375634e-17
 2.058702977897842e-01 -9.954383015454912e-03 -3.561429828018667e-18
-4.113082602001218e+00 -1.540409715885865e-01  7.477992619805033e-17
 1.637498914388159e+00 -5.897068952296621e-02 -2.853534403251889e-17
 2.962457967432126e+00  2.468840163601694e-01 -5.525711689062869e-17
-1.670092575732641e+00  1.414141850523355e-02  2.957599159690838e-17
-4.539293961508131e-01  1.680756977862320e-03  8.060945925785392e-18
-2.596725924014608e+00 -7.703730563593619e-03  4.629098832270569e-17
 3.551575584521244e+00  1.584025323132287e-01 -6.483205250067099e-17
-1.158656901942142e+01 -3.617269484460658e-01  2.099134296482153e-16
-5.331903146548842e+00 -1.124711282823684e-01  9.604317653705589e-17
-3.253460439766537e+01  7.676999689507297e-01  5.711042559071712e-16
-2.633355295564233e+00  6.461273815202608e-02  4.619982623390817e-17
-2.502082495303565e+00  1.658510096562366e-02  4.435713672298154e-17
-1.708623842925240e+00  4.014397973940517e-02  2.999453456845407e-17
-1.615254504379461e+00 -1.301808752434445e-03  2.875875623895419e-17
-7.713713687926466e-01  9.285856428922060e-03  1.363206483121982e-17
-3.667166898856132e+00 -7.102486652787320e-02  6.599136399828066e-17
-1.486186581007123e+00  4.021657669291730e-02  2.603525228230124e-17
 1.329662124380416e+00  6.992824849924505e-02 -2.438141093213821e-17
-1.469182641708303e+00  2.903490473917513e-02  2.584753451781727e-17
 5.452720389180533e-01  5.045336711754006e-02 -1.022215664816506e-17
-1.665280986572074e+00  3.668676800371289e-02  2.925871836470515e-17
 6.902975255463584e-01 -4.850592978440251e-03 -1.223482980179345e-17
-1.042417597592183e+00  3.972829383905305e-03  1.851024521101480e-17
 1.087857317450168e+00 -3.970869460109737e-03 -1.931891938159939e-17
-4.844762587138062e+00 -4.495574697380780e-02  8.668023324966827e-17
 7.339497274301168e+00 -4.244446488035946e-01 -1.262540942989839e-16
-2.115449161600690e+00 -6.609588571081290e-02  3.832605241798682e-17
-2.637901701235490e+00  1.079471141932872e-01  4.583548992356376e-17
-1.131698234782019e+00 -1.180200960090822e-02  2.026118137006537e-17
 1.496861736346986e+00 -1.101438069587954e-01 -2.550675251520348e-17
-1.693005716161588e+00 -3.345587633743832e-02  3.047280317941963e-17
-3.246985111094399e+01  2.125689846414380e+00  5.559990409902946e-16
 1.882733692780413e+00 -1.058236600572410e-01 -3.241819220697130e-17
-2.137992407985463e+00 -3.404475748297651e-03  3.808310494453907e-17
 5.107492723147119e+00 -6.362196294182595e-01 -8.435699977107158e-17
-4.135393839896493e+00 -2.921468960204748e-02  7.389443656359003e-17
 4.960545999144983e+00 -6.356818772267581e-01 -8.174743285258795e-17
-7.993217893054938e-01 -4.116927781840248e-03  1.426718464709370e-17
-6.443360256661172e+00  6.910655569168098e-01  1.075668341116218e-16
 3.025671324389621e+00  1.089328167906522e-01 -5.496467548024739e-17
-3.878206178874731e+00  1.920972444456504e-01  6.704357564162428e-17
 1.637307995268033e+00 -3.621018650255580e-02 -2.876580231512840e-17
 8.163500954508000e-01 -1.066118272691617e-02 -1.441838394259459e-17
-5.031766526359224e+00 -1.393595394587081e-02  8.968947431636611e-17
 2.000949542543804e+00 -7.721137515068112e-02 -3.481596509695789e-17
-1.434524127249477e+00 -1.370545142789708e-02  2.566988654382149e-17
 2.579807324925464e+00 -1.843325574383384e-01 -4.401679858417365e-17
-2.841148564084279e+00 -3.043096678880265e-01  5.368829901717475e-17
 2.360717903061744e+00 -2.241836537445917e-01 -3.970838544933728e-17
-4.532247467698645e+00 -5.515630509214597e-01  8.632385991259942e-17
 2.427597131925194e+00 -1.884582032990028e-01 -4.126564712311827e-17
-5.563841716206397e-01 -1.560967671864955e-01  1.150535759039649e-17
 6.831064652470332e-01 -6.317173049453936e-02 -1.150762779286911e-17
 3.539202567018442e+00  4.941999031541142e-01 -6.806205589994039e-17
-2.031033092657944e-01  3.073989183762763e-02  3.298624446186789e-18
 1.038651552380014e+00  6.082222482380249e-02 -1.910896959460435e-17
 5.818042961422566e-01 -2.547944627942241e-02 -1.009210940836793e-17
 4.054807908479239e+00  3.512420569196961e-01 -7.576902799352811e-17
-1.091038465053628e+00  1.059367602458595e-01  1.832786922383974e-17
 2.011970800140999e+00  5.197536023331024e-02 -3.633944829802939e-17
-1.987258180482402e+00  4.609631623747374e-02  3.489200691010292e-17
 2.822161478409281e+00  1.115894186291230e-02 -5.033838397226996e-17
-1.637344501687441e+00 -2.473889262807763e-02  2.939268164010666e-17
 1.770380954553166e+00 -7.673501444517924e-02 -3.071761646914299e-17
 9.655527671980484e-02  4.599309658679188e-03 -1.765572567625130e-18
 9.970414114830658e-01 -2.311717560892785e-02 -1.750602065475187e-17
-6.341806047929375e-01 -2.932589564268128e-02  1.158731326448492e-17
-4.357411671661909e-01  1.170478654616783e-02  7.634271409691811e-18
-4.784465460678926e-01 -3.520085786530945e-02  8.876203028933366e-18
 5.607628992895465e-01 -1.739767752569778e-02 -9.800689911278579e-18
 6.044190440228503e+00  6.327520019999290e-01 -1.140648754907933e-16
-2.676710038027787e+00  1.214990475502039e-01  4.638688945265464e-17
 6.641708993787687e-01  3.901005794307686e-03 -1.185979482354895e-17
-1.188677880630647e+00  1.681115579572668e-02  2.098121227365490e-17
 3.227260296255265e+00 -4.389097778483073e-02 -5.698198273492466e-17
-1.896205200730404e-01 -2.207013155643407e-02  3.601285930486384e-18
 4.401669632662127e+00 -2.156175855988600e-01 -7.611756921909360e-17
 7.370962269764899e+00  2.903556468245108e-01 -1.341583647781713e-16
 1.672221022485016e+01 -5.862533763472400e-01 -2.915681374660429e-16
 9.690909939700889e+00  1.619515691381073e+00 -1.891012375116172e-16
-3.701519265987473e+00 -7.224039525713238e-01  7.329538885426802e-17
-2.032397485891738e+01 -7.949257763295654e+00  4.433651117090207e-16
 9.705582988857443e-01  4.138746333755849e+00 -5.979635774506462e-17
-3.446679950837549e-02  5.510729322821197e-01 -5.048696379448952e-18
-2.181361338417682e-01  2.564423586659649e-01  1.247140628885430e-18
 4.893796308369382e+00  2.167321926935799e-01 -8.931778738499411e-17
-4.457116975464480e+00  3.327425237256063e-01  7.590090466696485e-17
 2.813400536847875e+00 -3.187628659776878e-02 -4.974030123369620e-17
-5.899718587026949e-01  1.896284949397120e-02  1.030441659291038e-17
-2.525239409663021e+01 -1.216615424455737e+00  4.618967566202165e-16
-2.396644042591739e+00  7.827593234552044e-02  4.184688279417583e-17
-1.772216632060141e+00  5.290711596645813e-03  3.148434880433915e-17
-3.196001060700297e+00  9.349489963285924e-02  5.591602503883733e-17
 1.564552766236644e-01  1.191868372727509e-02 -2.906768435728491e-18
-7.947098214573357e-01  1.116982686233168e-02  1.402804332612746e-17
 1.378600058978665e-01 -2.436592627413331e-03 -2.428348147306402e-18
-1.485024830838317e-02  1.341332825432436e-03  2.504961793206942e-19
 3.112200652437903e-01  2.559097045056960e-03 -5.564826078218760e-18
-4.321943791114877e-01  4.833555345427743e-03  7.641751491124033e-18
-3.601792733943105e+00  3.682726716548624e-01  6.031433015612417e-17
-3.358872924955790e-01 -8.888010766325552e-03  6.068836118730381e-18
 1.495037356023641e+00  2.905264505579986e-02 -2.690447845781894e-17
-1.090102184817291e+01  6.916332336376810e-01  1.868904067727605e-16
 1.696141851764033e+00 -4.296866347036628e-02 -2.974338007490275e-17
-1.915372296407208e+00  4.535561082261805e-02  3.362032233776493e-17
 1.920543833574387e+00 -8.509006782604607e-02 -3.330409893377736e-17
-2.091008806958148e+00  2.212420965267855e-02  3.698467774722031e-17
-2.239986782226345e+00  1.045192544693626e-01  3.878933940264225e-17
 1.589150594089557e-01 -3.069897969632489e-03 -2.796540952425686e-18
-9.289755131063586e-01  2.785483295835632e-02  1.624602908571785e-17
-7.138974488302495e-02  2.029705780241725e-03  1.249611177375364e-18
-2.938173584648365e-01  8.325814763792606e-03  5.143285633405900e-18
 3.325530739534153e-01 -1.067657118565239e-02 -5.808480744227534e-18
 9.856762214041050e-01 -2.125255592815209e-02 -1.732292184243857e-17
-4.531034327701057e-01  1.111876520309148e-02  7.949274803703653e-18
-3.960026745468156e+00  1.195152083346397e-01  6.924542463302737e-17
 1.293529945858303e+00 -3.538296899751785e-02 -2.265636123180155e-17
 1.732003979556609e+00 -3.275427761600628e-02 -3.048653852227876e-17
 2.690678867988926e-01 -5.204004710187352e-03 -4.734914743790646e-18
 1.709163643487700e+00 -3.297896844245112e-02 -3.007775887468934e-17
-1.549266707607203e+00 -3.344058309761368e-03  2.760540804691980e-17
 2.367107335454349e+00 -7.459016729097709e-02 -4.135911174994323e-17
-4.424797319890911e-02 -9.397801124004613e-03  8.840044569340477e-19
 1.145009906833347e+01 -1.380856752949767e+00 -1.895803694539848e-16
 2.368608124700236e-01  1.207153714426361e-02 -4.339251356363969e-18
 1.006842423387268e+00 -4.657699702682220e-02 -1.743940021961151e-17
-7.947493057995629e+00 -7.239415799818162e-01  1.488733557835081e-16
 4.770910045677873e+00 -2.632002235049110e-01 -8.219974851682559e-17
-4.385627154083880e+00 -9.835369325648075e-01  8.815295125165476e-17
 8.667848340530060e-01 -9.539370043738749e-02 -1.444533444602532e-17
 1.155873430113058e+00  1.676750664061130e-01 -2.229294687117414e-17
-9.436540738003089e-01  1.130221653706879e-01  1.563218817758589e-17
 3.589610253650430e+00  4.644623636330185e-01 -6.865357837481852e-17
-4.269970638009053e+00  4.998188112048305e-01  7.085376419465720e-17
 1.208188817137429e+00  2.590883123407461e-01 -2.416319948617734e-17
-1.103242742506713e+01  2.078927154215359e+00  1.749749846919571e-16
 6.302557961634151e+00  5.419721639222502e-01 -1.177301039923344e-16
-5.437369042452883e+00  2.790906209581656e-01  9.389691328978461e-17
 4.020416093443112e+00  1.227295910323043e-01 -7.280910207127785e-17
-2.808252758890680e+00 -1.876547748266556e-04  4.997813573359299e-17
 1.639224844107224e+00 -7.798125381193133e-04 -2.916394915709932e-17
-6.157624619372927e-01 -8.445562864712420e-03  1.104500262239551e-17
 8.966910351120306e-01 -1.945712618506421e-02 -1.575777169028135e-17
-1.326616736108173e+00 -5.006351227443055e-02  2.412311165781425e-17
-4.622539518742713e-01 -2.665320949273664e-03  8.253745669005001e-18
-7.002980360980590e-01 -6.132801617332252e-03  1.252565114081719e-17
 1.590540086853010e+01 -3.570980103755224e+00 -2.463650604281615e-16
-6.659183426272078e+00 -4.275213440381724e-01  1.229007389239709e-16
-6.198909259783640e+00  3.970243730679011e-01  1.062377033623379e-16
 2.497139568017074e+00  9.034666410533543e-02 -4.536785643041578e-17
-3.445945738243893e+00  6.641369045985358e-02  6.064233834482324e-17
 9.210711640995305e-01 -3.030528996838721e-03 -1.636042247139602e-17
-3.458016653068771e-01  6.103486637237387e-04  6.147682010209621e-18
-2.878811392060229e-01 -9.738320764708714e-04  5.133194044209113e-18
-9.375307622769644e-01 -4.380320872813897e-03  1.672948445524499e-17
 1.777440589927079e-01 -2.680396898798349e-03 -3.135627454243554e-18
-1.752345407290664e+00 -4.158090522806267e-02  3.161230547434910e-17
-2.370580619194258e+00  5.664967760310265e-04  4.218148930486505e-17
-3.132551341769071e+01 -2.640578389353027e+00  5.846058585859014e-16
-1.115788014299622e+01  1.523485688405873e-01  1.970024606033517e-16
 1.597493928466695e+00 -1.385412190111913e-01 -2.700584931723137e-17
 3.240509803110626e+00  3.398098483774434e-02 -5.801787965418924e-17
 2.198063940288129e+00 -7.656393691742369e-02 -3.833050310616113e-17
-2.332420145292640e+01 -3.922303928462579e+00  4.553822363305686e-16
-1.040169772651901e+01  1.087419381739975e-01  1.839933347224184e-16
-9.495865860173076e-02 -3.317305060017354e-03  1.723986706839942e-18
-7.401363311361010e-01  1.237868199896855e-02  1.304442242038339e-17
 4.668877313462937e-01 -7.749545391042881e-03 -8.229200340288603e-18
 3.313504130512472e+00 -5.039742455151652e-02 -5.844994326842092e-17
 2.178876414756807e+00  1.688394041888420e-03 -3.879305249260517e-17
-1.740137464509800e+00 -2.722639404569236e-03  3.099579601595137e-17
 2.029789131017859e+00 -3.533567908955666e-02 -3.575945754375172e-17
-9.809517805773507e-01 -2.922253622880931e-02  1.775745802635295e-17
-4.896172901453365e+00  2.302743292356308e-03  8.710957729730649e-17
 6.004087286420164e-01 -5.156903384051495e-03 -1.063200421478652e-17
-2.153668188082167e-01 -6.547177191901509e-04  3.839436426926050e-18
 1.971923880356721e+00 -8.096085373197380e-03 -3.500955338459672e-17
-2.393546758024582e+00 -4.032716674679786e-02  4.301036667476480e-17
 3.152803183913841e+00 -1.539077688051357e-01 -5.452654706707866e-17
 3.514829587465162e-01  3.187256481974721e-02 -6.582537546168722e-18
-5.981884826552928e+00  2.054316557427492e-01  1.043440403638478e-16
 1.980390667635174e+00  4.956785746619963e-02 -3.575270594855089e-17
-2.507364327596047e+00  6.127963893290807e-03  4.455857649957462e-17
 1.214413065421740e+00 -4.301659327190963e-03 -2.156773111196862e-17
-2.854254318672856e-01 -1.785760937171242e-03  5.097834075046231e-18
-6.226930092316675e-01  5.227781822553472e-03  1.102785132153749e-17
-1.343012482068930e+00 -1.750462242820765e-02  2.408036275484248e-17
-9.159328227706038e-01  1.518186506512641e-02  1.614412901787129e-17
 2.603792716695257e+00  3.037978019823220e-02 -4.664973844447324e-17
 1.617180307086393e+00 -2.425060201186544e-02 -2.853048697644448e-17
-1.358960879267274e+00 -1.354575993946197e-02  2.432350762149826e-17
-1.537276221988982e+00  2.096535792660345e-02  2.714225267669165e-17
 1.625739526643950e+00  3.754809989589679e-03 -2.897055340394689e-17
-1.223445113707941e-01  6.490713484549579e-05  2.176599618152610e-18
-1.100465317796379e+00  1.621516273482231e-03  1.956743252231708e-17
-5.245962841153188e-01  5.193654639763903e-03  9.282453716258651e-18
 4.230823212555315e+00 -4.153877728224257e-02 -7.486574993404446e-17
-1.271477891700472e+00 -3.385056907630526e-02  2.297526805685377e-17
-7.015909490927557e-01  4.455420195608236e-03  1.243987000133893e-17
-1.261232376096885e+00 -4.992047042240330e-03  2.249642609039173e-17
 2.305659516223391e+00 -4.503303800685710e-02 -4.056926326507859e-17
 2.386470456145239e+00  5.128411650534152e-02 -4.299701417744444e-17
-1.546700674967578e+00 -2.676481998353248e-03  2.755288336264096e-17
 1.893162000515615e-01 -1.430668318497525e-04 -3.367637644730050e-18
-1.179353061248847e-01 -2.154454361709297e-06  2.098821581244801e-18
-5.446267948565972e-02  3.025784502651008e-05  9.689174608932905e-19
-4.173988311325903e-02  9.501337042395472e-06  7.427133897515435e-19
 9.015031026057244e-02 -1.772585856117405e-04 -1.602511001242549e-18
 1.772416620933844e-01  1.521544271688403e-04 -3.155790118253680e-18
-5.184020135609980e-02  2.403047438356684e-05  9.223113161458482e-19
 2.014535977739958e-01 -3.762571698388286e-05 -3.584720490593998e-18
-2.644367876623531e-01 -4.772226000387094e-04  4.710871352996668e-18
-3.286822570369865e-01  1.139078654947597e-03  5.837589211876983e-18
 3.120960129044599e-01 -8.314690683001338e-05 -5.553266528863010e-18
-6.730197817862391e-01  8.721644846022750e-04  1.196822866468899e-17
 1.689027463648931e+00 -2.101935383025210e-02 -2.984229222268934e-17
 5.902202080500756e-02 -6.250751733007803e-04 -1.043944840768683e-18
 2.896717679509818e+00 -6.873324440121364e-02 -5.084433732521385e-17
-9.635638633157784e-01 -2.433418397399331e-02  1.739779323649016e-17
 3.855489549867107e+00 -2.084410911457931e-01 -6.647137904328322e-17
-1.674646930407428e+00 -7.112210117308294e-02  3.053309348733784e-17
 4.228690757702983e+00 -2.615531340025509e-01 -7.256723276114418e-17
 3.657725162268411e-01  2.537758128464555e-02 -6.770103661911640e-18
 9.540580685585605e-02  5.163959864091476e-03 -1.750917947731646e-18
 2.507017490181453e+00  1.299575046969564e-01 -4.595063286697973e-17
-4.590558850258461e+00  4.315296422776660e-01  7.726066023281791e-17
 1.156897670435583e+01  6.408847559937537e-01 -2.124685984830447e-16
-1.935193912496580e+01 -1.433210342974728e-01  3.458634121080180e-16
 1.068942796087093e+01 -6.125621208486956e+00 -1.272925887201529e-16
 4.590284841343896e-01 -1.240154709302959e+01  1.192524318271212e-16
-2.806328972740360e+01  7.670372674923660e+00  4.206094229963202e-16
 9.913812958037196e+00 -4.760562845491182e+00 -1.275150733498557e-16
 2.205103595870145e+01 -9.515749717735844e-01 -3.826474011607222e-16
 2.129361279747245e-01 -9.362090571394620e-02 -2.827531592131920e-18
 2.690658860828767e+00  1.470447373507188e-02 -4.803456705533443e-17
 6.007395537399735e+00 -1.763623686466063e-01 -1.050967101939980e-16
 1.668148173565515e+00  3.053162009628975e-02 -3.000038787587204e-17
-2.795675187238911e+00  7.702265045845312e-02  4.896099521304472e-17
 7.863954309785527e-01  1.243538117320642e-02 -1.412261376486456e-17
-5.435662767675015e-01 -8.927600541890600e-04  9.682583068611082e-18
 5.643719858493241e-01  4.489396961097215e-03 -1.008979962035250e-17
-1.213249003101732e+00 -8.778988997807083e-03  2.168141415098221e-17
-1.374583576841857e-01 -5.949543374175151e-04  2.452348379127807e-18
-2.253942133608575e+00 -3.948819732168154e-02  4.051731575522804e-17
 7.885477698356722e-01 -1.799198561087469e-02 -1.384828707442400e-17
-1.977701363260602e+00 -5.244818058618124e-02  3.573444084441421e-17
 4.078721066798581e-01 -1.825353732904221e-02 -7.071022198440682e-18
-4.862160952546929e-01 -1.209923942580149e-02  8.777110680398112e-18
 4.356623722994225e+00 -6.510853392796510e-01 -7.084165062704280e-17
-4.391845711279628e-01 -1.463186643285172e-03  7.830847036454202e-18
-1.298292877364807e+01  7.169166965589370e-01  2.236806454457765e-16
 1.777453740868429e+00 -3.072076815123500e-02 -3.131626480792338e-17
 6.660157680011003e-01 -2.923069216567532e-03 -1.182251155175457e-17
-5.043917629708925e+00 -5.505814362370992e-02  9.032823326937124e-17
 3.760279461238474e+00 -2.386842327635255e-01 -6.446626464258190e-17
-3.394195063265130e+00 -3.211237438455246e-01  6.370317971434888e-17
 2.699092857187636e+00 -2.804408138336289e-01 -4.515214950508245e-17
-1.278526823000965e+00 -6.300945020179952e-02  2.340030911628584e-17
 2.286135136154955e+00 -4.010519113750217e-01 -3.656383908966581e-17
-2.046178201840738e-01 -1.470944537464332e-02  3.792552394556874e-18
 5.903532078317157e-01 -4.071910700380185e-02 -1.008766548501540e-17
 4.635189266004364e-01 -1.155967201049448e-02 -8.130100777250116e-18
 1.400542172230614e+01 -5.977515216477649e+00 -1.878263884314551e-16
-4.164083709901831e-01 -6.370590450017127e-03  7.475939178348128e-18
 1.747878159883510e+00 -1.787499104082242e-01 -2.926898641012844e-17
 1.699574086199691e+00  1.714256503055327e-01 -3.200728446503093e-17
-1.657520466986315e+00  7.263359677951850e-02  2.875127005307086e-17
-1.414291241597967e+01 -2.850939800106992e+00  2.809823675183067e-16
 7.470424674962863e+00 -1.280600605975115e+00 -1.197874121150427e-16
-9.462268659680230e-01 -1.465180807505523e-01  1.834465582648836e-17
 2.803608701721933e+00 -4.817855659062416e-01 -4.494338943371855e-17
 3.674700368974472e-01  2.220193672880643e-02 -6.767684479385413e-18
 7.510170865084084e-01 -1.073364440620849e-01 -1.226240193356008e-17
 5.514973339238038e+00  8.908695055971881e-01 -1.072988896117919e-16
-2.069384058167974e+00  2.133196263190261e-01  3.463537609620820e-17
 3.635612392071960e+00  1.430717794936426e-01 -6.617006978233803e-17
-1.041435625531533e+01  3.661987809786041e+00  1.477102978064185e-16
 9.319219592052317e+00  7.726478011525751e-01 -1.737853044821604e-16
-4.265556173271444e+00 -3.000745213340672e-02  7.621897591196085e-17
 3.264831856056498e+00  4.234142240493692e-03 -5.814508159229296e-17
 3.672820627471404e+00  8.464276473770627e-02 -6.623189778351532e-17
-5.315388689769364e-01 -7.491433958234407e-03  9.536339981747108e-18
 8.545725501690407e+00 -1.574434652946618e-01 -1.504637044070233e-16
 9.356616481061808e-01  1.471118652409272e-02 -1.680236722699739e-17
-1.694713832935310e-01 -1.711242278057271e-03  3.033527823413733e-18
 2.845229962888868e-01  3.349678026425464e-03 -5.097842829562033e-18
-1.525518467159339e-01 -1.735815217115337e-03  2.732676939797708e-18
 1.599311976954714e-01  1.256755232307066e-03 -2.859078906236093e-18
 2.131273522401828e-01  2.577003093026998e-03 -3.819333231194798e-18
 4.925068270245829e-01  2.981174326746571e-03 -8.795376954939022e-18
-1.228272538233086e+00 -1.578751093043421e-02  2.202078587781894e-17
-5.416747453170327e-01 -1.168084018963007e-02  9.759764595688536e-18
 6.084152850061261e-01 -1.346217280159197e-02 -1.068915680555840e-17
-1.121921337515063e-01 -1.661998842270527e-03  2.013669280932126e-18
-1.617751367950055e-01  9.615264772627436e-05  2.877993595922540e-18
 2.072106136892175e+00  7.375111542145726e-02 -3.763336629131560e-17
-1.424674375246459e+00  5.543604434801118e-03  2.529682141723282e-17
 9.572919211696954e-01  9.253423800560054e-03 -1.713122720406953e-17
-1.589503512819147e+00 -3.379115369296205e-02  2.863430285220957e-17
 1.778173000618806e+00 -9.320708674537220e-03 -3.154894273491186e-17
-1.623114188354214e+00 -6.765176305566864e-02  2.958035039189018e-17
 2.312081435176495e+00 -1.079454313132119e-01 -4.003714696918521e-17
-1.716649382592693e+00 -1.896771638359004e-01  3.249868736324689e-17
 2.212713853826883e+00 -1.158955543728156e-01 -3.818709774409585e-17
-5.469238199040705e-01 -4.564814156706241e-02  1.020217983293318e-17
 8.457999788807919e-01 -5.818150716113184e-02 -1.445422568063389e-17
-6.508912696439033e-01 -5.585512551010832e-02  1.215727766601820e-17
-2.247121385410173e-01 -1.084032991365980e-02  4.110401007660423e-18
-1.880602647975484e-01  8.720562723141992e-03  3.257156108032410e-18
-1.467367269077289e+00  3.430749619014369e-02  2.576105382596102e-17
 9.239430828242972e-01  1.868239030990361e-01 -1.836221702823841e-17
-1.088876751969763e+00  2.422699745854333e-02  1.912893705232209e-17
 6.840698319813632e-01  1.159373683922392e-01 -1.336505299002935e-17
-2.382402524823595e+00  4.618405620391353e-02  4.192317035506933e-17
 2.328124656054177e-01  4.201496597442480e-02 -4.574864046800665e-18
-1.901579181181921e+00 -1.099891944383253e-01  3.497096883180746e-17
-4.652977720813217e+00 -4.223775804416138e-01  8.714506501495673e-17
-3.244177301661730e+01 -2.572944610611851e+00  6.037761199896333e-16
 1.073429829003909e+00 -4.348902187955567e-01 -1.463462522692354e-17
-3.136976383114798e+00 -8.084611946443984e-02  5.665690115170391e-17
-2.450977057059250e-01 -8.618084684419054e-02  5.247282937309635e-18
 1.942774019786326e-01  2.928039419275739e-02 -3.758243546328837e-18
-1.683702474253434e+00  6.147026248829102e-01  2.364764779667751e-17
 2.178938552284593e+00  3.238274405284588e-01 -4.210401998058263e-17
-2.176259886514810e+00  2.072730676164107e-01  3.659948514372828e-17
 1.538941430302986e+00  1.814492187947876e-01 -2.925162326957650e-17
-2.059519902218929e+01  9.024608566562939e+00  2.737915585076716e-16
 6.694994810994634e+00  4.191379912954178e-01 -1.234519093700671e-16
-5.472784928422469e+00  3.618590830003759e-01  9.367676535998995e-17
 6.166423904355997e+00  1.415001007234005e-01 -1.111927310837397e-16
-2.822772095096608e+00  4.071455814397580e-02  4.981626926791061e-17
-3.239211747683678e-01  4.127623030465339e-03  5.722153881152234e-18
 3.948100281408543e+00 -4.566789306388657e-02 -6.979193297133254e-17
-9.974429315811072e-01  1.177528808761276e-02  1.762969996017527e-17
-6.465727593779614e-01  1.176732839604491e-02  1.138562848850118e-17
-8.827053857736735e-01  9.802813802259502e-03  1.560807491890740e-17
-9.476332153878646e-01  2.196709212432265e-02  1.663855960798083e-17
 4.465657868173871e-01 -6.038965036150477e-03 -7.885122666949133e-18
-2.140325625899759e-01  3.648477964876534e-03  3.771477972351546e-18
 4.165633888755718e-01 -6.941157495859166e-03 -7.341924526511120e-18
-1.571342821282837e+00  1.711423791711444e-02  2.778807729037546e-17
-1.697561025608956e-01  5.124353844018330e-03  2.968361455858332e-18
-5.463362483480891e-02  8.461496293454155e-04  9.635766442860765e-19
-3.423218244959036e-01  9.314095001943344e-03  5.996326259338992e-18
 3.330423874365421e-01 -6.114126080703814e-03 -5.864066127494416e-18
 1.378304342512450e-01 -3.271197969001854e-03 -2.419246617183674e-18
 4.963331527469951e-01 -1.072947308625172e-02 -8.722599062527986e-18
 8.354542404321592e-01 -1.694178742193122e-02 -1.469383406371981e-17
-4.549093719750676e+00  4.336162937942364e-02  8.051102411970053e-17
 2.933003768886454e+00 -1.365443603350139e-01 -5.079335697445464e-17
 1.737462106309556e+00 -3.271393626135207e-03 -3.088659832589312e-17
-5.621337584117407e+00  4.386135600670023e-01  9.553181268965153e-17
 4.391025491280570e+00 -9.355783571556948e-02 -7.718226364644933e-17
 5.898438469814856e+00 -4.519600876987142e-02 -1.045053759275779e-16
-4.727002546812430e+00 -3.320527771732696e-01  8.753437055991982e-17
-1.203332362171932e+01  1.352718103286436e+00  2.002486606120646e-16
 1.554977035789261e+01 -3.289576657451564e-01 -2.733467914380633e-16
 3.357312178683790e+00  9.268937092245969e-02 -6.069972456106417e-17
-2.679185102387776e+00  7.138292586220941e-02  4.694586111287535e-17
 3.833039223580192e+00  3.303969031696521e-02 -6.855297601284488e-17
 2.187755952995949e+00 -8.330432645502484e-03 -3.884813464440151e-17
 2.387989089143978e+00  4.692062662703439e-02 -4.297920662762392e-17
 1.424269992925375e+00  2.175576273645249e-04 -2.534881879369332e-17
 1.868913810262881e+00  2.110470728511452e-02 -3.347639377318369e-17
-5.118656929411141e-01 -6.470319467169690e-03  9.175740755779701e-18
-4.614651470929589e-01 -1.075416479794952e-03  8.223372244700636e-18
 1.907408118997907e+00  1.740171238485143e-02 -3.412339899003797e-17
-6.390322263225157e-01 -1.558611091760562e-02  1.153248238555401e-17
-8.467701787739040e+00  5.361082777507842e-02  1.501420221679616e-16
 8.287612072148825e+00 -1.003482810645705e-01 -1.464569005056835e-16
 5.460074863209579e+00  1.116073891263839e-01 -9.831527059185134e-17
-8.033935687439085e+00 -5.705132553939039e-01  1.488352852394934e-16
-8.225826561144014e+00  5.387569417473409e-01  1.408528639241207e-16
 5.055478272396593e+00 -3.743873208837945e-02 -8.958359687827566e-17
 4.011614048680648e+00  3.235042287225613e-02 -7.172384606213102e-17
 7.049142781745428e-01  2.649986977960479e-02 -1.281706696639000e-17
 2.048273334851755e+00 -6.082219335958598e-02 -3.582654130243520e-17
-3.562783422751944e+00 -2.044684458116879e-01  6.550481985305814e-17
 1.846450804623916e+00 -2.724570467164651e-01 -3.006039744990029e-17
-3.940702656924474e+00 -3.660486353213874e-01  7.389052115772099e-17
-3.060205502400512e+01  1.009236304082247e+01  4.409047086275606e-16
 4.924859938825371e-01  7.608410665446731e-02 -9.546112269935545e-18
-1.479156290329863e+01  1.785479399657923e+00  2.448883537114788e-16
 3.112889881777996e+00  1.208757297689308e-01 -5.663954280256404e-17
-2.193925634948490e+00  8.324418681653552e-02  3.818821990383154e-17
 2.016703990727602e+00  7.398657018705891e-02 -3.664983831645875e-17
-3.610270207906073e+00  3.281434201627411e-02  6.391190939196696e-17
-2.444946568954231e+00  3.399070296363581e-02  4.316149850745179e-17
 2.090620660632395e+00 -7.179916381591332e-02 -3.646737812021115e-17
-5.328639067893246e-01 -6.466749182121517e-03  9.549392341610417e-18
-5.956697634636398e+00  3.365746646889148e-01  1.025483573923774e-16
-2.043148220203731e+00 -4.484643825025513e-03  3.640633781812197e-17
 6.118215649496766e+00 -5.146339989111226e-01 -1.035932681720530e-16
 6.690315471396863e+00  6.637912369735173e-01 -1.258823581341828e-16
-7.923031407200364e+00  8.930133011356357e-02  1.400822560988524e-16
 3.448059324996586e+00 -7.021352575102791e-02 -6.064091021020744e-17
 4.189566410909020e-01  2.290654887905553e-03 -7.479368824818949e-18
 2.883357030405918e+00 -9.062421967805545e-02 -5.038164678898074e-17
-9.591271648409005e+00 -4.337372351442474e-01  1.751446123888171e-16
-2.355551346991877e+01  7.130220846479641e+00  3.459380312540122e-16
 2.915101116544602e+01  1.929560108686336e-02 -5.189752715659485e-16
-1.024791068065797e+01 -1.674979548213222e+00  1.995836012679641e-16
-2.745343726541979e+01  1.022900828133497e-01  4.875156703364540e-16
 2.766763351812133e+01 -1.552128499406812e+01 -3.329029767283816e-16
-2.255808555446437e+01 -1.274980998160316e+01  5.324477066175424e-16
-2.300588769472889e+01  8.255764510529099e-01  4.009347158152617e-16
 1.240136045958229e+01 -9.132617300371948e-01 -2.113135697416081e-16
 1.971165735254583e+01  1.096259360485567e+00 -3.620561221916040e-16
-7.745614465948153e+00 -1.478862095002444e+00  1.530372195275630e-16
-1.430443853508083e+01 -2.386638001753845e-01  2.570167305334193e-16
 1.427752157621851e+01  2.057944865068724e-01 -2.561999908742446e-16
 1.647345762743556e+01  3.011323683236436e+00 -3.241050857398856e-16
-3.226233204625807e+01 -4.269877851053225e+00  6.180181264737488e-16
 4.588018951994545e+00 -1.040344077781562e+00 -7.096011256292805e-17
 3.219298523732192e+00 -1.331838539549794e-01 -5.592284162672237e-17
 5.673092350996804e+00 -3.171054552886816e-01 -9.770130224408184e-17
-1.026788689746746e+00  2.237634918885245e-02  1.804302067607794e-17
 8.553247816954195e-01 -1.539467247986667e-02 -1.506335008771579e-17
-1.284613788734621e+00  1.425118656611972e-02  2.271480895683259e-17
 4.304736525374437e+00 -2.633167531206502e-01 -7.390243737640115e-17
-1.006339789493353e+00 -1.138142520716924e-02  1.802595696818721e-17
 3.766605862038263e+00 -3.521935910407917e-01 -6.341258311331211e-17
 1.154417094193576e+00  2.245365985078242e-01 -2.285126125727499e-17
 3.971555496689762e+00 -1.012194970864915e+00 -6.027863173534840e-17
 3.309211071472432e+00  3.064915259260005e-01 -6.204044757530619e-17
-3.236299925911369e+01  3.424354666288609e+00  5.407541754284025e-16
 2.372064971003766e+00 -2.259741624593556e-01 -3.989192329881378e-17
-1.647299997408746e+00  1.016133709581766e-01  2.827162795801880e-17
 1.284735181837080e+00 -9.533965801177223e-02 -2.188381469568951e-17
-5.853142012310151e-01  4.961069351371568e-03  1.036539120989532e-17
 9.143511542709581e-01 -1.452513137213701e-02 -1.612272901889912e-17
 1.665000716743834e-01  7.802405363328495e-03 -3.043234264637363e-18
 1.466647768961584e+00 -2.142182404992162e-02 -2.588064510379067e-17
 1.699821394463740e-01  1.927994949343102e-02 -3.223129425428686e-18
 8.638808203604224e-01 -1.447399722493434e-02 -1.522507461037108e-17
-5.884624456132201e-01 -2.191954459587587e-03  1.049491272621048e-17
-2.726548244855718e+00 -8.058432904934559e-02  4.935015307045015e-17
-1.089324818620833e+00 -5.178483717993698e-02  1.991790490374363e-17
-4.048446838613940e+00 -1.314071664001921e-01  7.339710155565598e-17
 5.636163235230652e+00  2.117876075272838e-01 -1.024782885563715e-16
 1.958677243765973e+00  2.231312911503640e-01 -3.714959092049044e-17
-5.318056631553674e+00 -3.099617877048367e-01  9.782590613430428e-17
-1.974495168565874e+00 -1.037746825788634e-01  3.620474395260468e-17
-7.943127887349352e-01 -4.431144275559005e-02  1.459102754386375e-17
 1.329121035961566e+00  7.816691101126012e-02 -2.445643088078405e-17
-2.068484467599121e+00 -1.496771354857755e-01  3.834902668665824e-17
-2.745852867277766e+01 -1.746765951844074e+01  6.681311289580290e-16
-2.975594097415228e+00 -3.996504497799759e-02  5.336487270743023e-17
 1.323721065674805e+01 -4.798381181037276e-01 -2.306417912095546e-16
 9.680580265656308e+00  9.091108713920908e-01 -1.816182571904876e-16
-1.462767817872071e+01 -1.214822025215333e+00  2.727988367151806e-16
-1.677768118411542e+01  6.833872443488991e-01  2.915572941340370e-16
 2.076837671232941e+01 -4.413646259112733e-01 -3.650631758174394e-16
-7.677540938637521e+00 -1.738904255552872e+00  1.544976086468972e-16
-2.064442414503815e+01  1.574048895606527e+00  3.512193726267399e-16
-3.183137249651447e+01  4.049251992902976e+00  5.248726501561953e-16
 1.028548127993654e+01 -1.799640801657099e+00 -1.645517528674755e-16
 6.293813604858949e+00  5.590203803794158e-01 -1.177496519574167e-16
-2.044509836388472e+00  1.544308790824403e-01  3.479777013916321e-17
-4.479402312806006e+00 -3.988503117587892e-01  8.381434943039281e-17
-5.379474135092894e+00  7.610503452279167e-01  8.791464329995600e-17
 2.135235271826886e+01  2.064929211579408e+00 -4.012069841575618e-16
-1.102973761741680e+00  5.268501809769909e-02  1.908741434676623e-17
 9.929268154983863e+00  1.017613044845495e-01 -1.777487312983683e-16
-2.869715182403840e+01 -2.263124375694898e+00  5.339528288260349e-16
 9.616968176263468e-01 -6.815311589331512e-02 -1.641429351283091e-17
 7.431832741007240e+00  7.744849163624527e-02 -1.330540837540433e-16
 3.813775680126544e+00 -5.123966019705800e-02 -6.734421856570035e-17
 8.644343687083429e-01  1.874771639753979e-02 -1.557626670220204e-17
-2.454662800433465e+00  1.047019132336860e-03  4.367289481977610e-17
 1.340521226062668e+00 -4.696332108446479e-03 -2.380792113967338e-17
 8.363291104782201e-01  3.159677384013460e-03 -1.491593865004028e-17
 4.170032868259589e-01 -1.846821605278824e-04 -7.419173368165924e-18
-2.274816847759370e-01 -9.512696022590021e-04  4.058081875799117e-18
-2.469752824325022e-01  2.576024610596351e-03  4.368752036007654e-18
 8.043383123827740e-01 -5.581214759908407e-03 -1.425681476419007e-17
-2.782460175738112e+00  2.897397806434985e-02  4.921950076816623e-17
 3.018246113804967e+00 -1.300637295415089e-01 -5.237693231749743e-17
-6.320728245096447e+00 -4.249293148363338e-01  1.168508931043202e-16
-2.000724091963046e-02  1.221726088514465e-02  2.305248132601675e-19
-2.018257274368124e-01 -5.242037721705145e-03  3.645589599492458e-18
 5.448797516020470e-01 -4.744261366996234e-02 -9.209329499772310e-18
 1.232470059944899e-01  1.226565778663639e-03 -2.205930004851814e-18
-8.153647469733008e-02 -7.959770661007998e-04  1.459217202489762e-18
 4.363755353493092e-01  5.862205958268599e-03 -7.826055211032152e-18
 5.194480923803991e-01  6.482106957779094e-03 -9.310799717591971e-18
-1.021003780159000e+00 -6.371947611073313e-03  1.823544961189436e-17
 6.959304816528757e+00  8.111308762616699e-02 -1.246825381210313e-16
-3.199526926179474e+01 -5.931141403374601e+00  6.303343050345072e-16
 4.246408038374322e+00 -1.742877054785084e-01 -7.377915347462190e-17
 1.530652297232544e+01  1.922442735674840e+00 -2.921502353244578e-16
-5.575266691913924e+00  9.162692786447560e-02  9.827708778781829e-17
 2.426709696768294e+00  4.379258984052781e-02 -4.363614668932351e-17
-3.127810975381029e+00 -5.322279001234679e-02  5.620997212789041e-17
-2.196100299512346e+01  6.252085058583580e-01  3.843984540924513e-16
 5.325860953368937e+00 -8.579909810981751e-02 -9.389849401890564e-17
 6.043593851839557e+00  3.072394706607852e-01 -1.107097355964880e-16
-1.387816342116873e+00 -4.133407433224286e-02  2.512253985119092e-17
-1.901513762878184e+00 -2.915374733204734e-02  3.413924979799688e-17
 4.671916039081890e+00 -5.570931154683392e-02 -8.256992583421871e-17
-2.068907703942415e+00 -1.663313704672994e-01  3.852767491454417e-17
 4.321934479349088e+00 -1.923666311072269e-01 -7.493748219817084e-17
-2.480721899829879e+00 -1.544234614977345e-01  4.573405028539581e-17
 7.019937031197102e+00 -1.250300436042442e+00 -1.120817703304144e-16
-2.227683214309720e+00 -1.911953947454234e-01  4.160874329501322e-17
-2.335072885522446e+00  1.483114420847490e-01  4.003156118518357e-17
-3.577581916404342e+00 -1.051410858997383e+00  7.447020206592706e-17
-3.225267405986067e+00  2.893156211985037e-01  5.442486782387681e-17
-3.547405034560077e+00 -3.345373415242191e-01  6.656755374506721e-17
 1.230559982491551e+01 -3.222212649923742e+00 -1.858857630895577e-16
 1.359568647260161e+00  3.113609105594631e-01 -2.739426606835137e-17
-3.392858173600795e+00  1.229871802780567e-01  5.911630974539154e-17
-1.440218911513863e+00 -1.551723002623495e-01  2.722475243907716e-17
-4.148047866907088e+00  2.191039694824942e-01  7.156824606677868e-17
 3.105398446979306e+00  2.216429212671897e-01 -5.754157012196290e-17
-1.006980853024470e+01  6.295704387961297e-01  1.727356469569942e-16
 1.314641591461756e+00  4.249242235327794e-02 -2.383220949896462e-17
-3.037416873795404e+00  4.796837524111115e-02  5.356159878555883e-17
 1.436371060744429e+00  4.042271332045425e-02 -2.597726516049147e-17
-2.228076337522294e+00  1.091713603169763e-02  3.953910656424254e-17
 1.169814919702038e+00  6.962258349332964e-04 -2.082540537263853e-17
-3.780950235767246e+00 -9.629133674544091e-02  6.827587803134180e-17
 1.413359796198139e+00 -1.478612679536522e-02 -2.500050147089059e-17
-1.460539888511448e+00 -3.829327138406332e-02  2.638549890087970e-17
 1.119190618797019e+00 -1.883211780297064e-02 -1.972383892675782e-17
 1.245024373204436e+01  5.315168576950337e-01 -2.270280809374442e-16
-1.590453472776107e+01 -3.082111278646272e-01  2.862069243351872e-16
-3.242730331361945e+00 -2.284999073778709e-03  5.773173183345024e-17
 2.400964857849017e+00 -4.102598750854040e-02 -4.230650650147820e-17
 2.940952917559599e+00  1.156642503903439e-01 -5.352617343339296e-17
-7.871999468587907e-01  7.272227687444973e-03  1.393444257270703e-17
 1.947382323463949e+00  2.798932352700651e-02 -3.494357150541258e-17
-2.678704981568584e+00 -4.904854609081695e-04  4.767578996585536e-17
 3.045461332326576e+00  3.276980771877155e-04 -5.420098409818221e-17
-1.270545125663246e+00 -2.312549862807400e-02  2.284847215304471e-17
 4.558519103045188e+00 -1.696380009893075e-01 -7.938131615621724e-17
-2.166349276551017e+00 -8.359422972153889e-02  3.941166983923707e-17
 1.234497423960552e+00 -2.087406612570037e-02 -2.175488077874992e-17
-2.413678255470464e+00 -1.940842197420735e-01  4.494842856467675e-17
 1.121751314211353e+00 -3.387287780614635e-02 -1.961487119338322e-17
-3.918024615410555e-01 -3.037905550361636e-02  7.284725939531005e-18
-1.913765871551538e+00  5.341138719291986e-01  2.856991957448407e-17
 3.114895509216303e-01  3.011860791481219e-02 -5.852785872849762e-18
-1.896010140110958e+00  7.510082810309708e-02  3.297012832661751e-17
-2.387723793237899e+00 -1.738078821452453e-01  4.427820592078407e-17
-5.897273407033371e+00  8.181647020396566e-01  9.654266980792059e-17
 2.047955756611395e+00  7.934617455897884e-02 -3.726106870897998e-17
-3.275875483028984e+00  1.116029629949603e-01  5.715143188113653e-17
 2.018200917209710e+00  4.374800098438443e-02 -3.636578750556530e-17
-1.142949158623509e+01  9.690762217635956e-02  2.024057457280132e-16
-3.013498426917900e-01  1.766659340975019e-04  5.361064737702900e-18
 1.322844372696746e+00  2.395677743242676e-05 -2.354183970977806e-17
-2.952805721946866e+00 -6.691530911838993e-02  5.323623052644392e-17
-4.196180040256010e-01  1.422494423736042e-02  7.321446879166549e-18
-3.753218557279907e-01 -8.860364271595553e-04  6.688403825212689e-18
-1.313772826544835e+00  4.917452937081360e-02  2.287490415431711e-17
 1.393581412029580e-01  1.654203508480062e-02 -2.650007786873899e-18
-2.328171624055735e-01  5.338003858406480e-03  4.088413041826756e-18
-1.183791479423371e+00 -2.133888343024307e-02  2.128623072137585e-17
-3.056482064165075e-01  3.218952159785993e-03  5.406300864394118e-18
-1.225664257823138e+00 -6.856171449919488e-02  2.251660418252574e-17
 6.761093726978087e-01 -5.362183867632712e-02 -1.148122786342943e-17
-9.785965665004135e-01 -2.800097051574781e-02  1.770299298594744e-17
 1.080898153019533e+00 -9.051353588718375e-02 -1.830587831500254e-17
-7.711235585620176e-01 -1.625181866291019e-02  1.389004508740218e-17
 1.306303056459848e+00 -9.354063710654911e-02 -2.228612503682040e-17
-3.877747758662188e+00 -3.410106544321868e-01  7.251290749721676e-17
 1.368499662172463e+00 -8.991253669464878e-02 -2.343026525503086e-17
-2.681829865202806e+00 -2.513262069447454e-01  5.030864692433403e-17
 4.774935405569338e+00 -6.898432416460918e-01 -7.788778260268196e-17
-3.343306145620617e+00 -2.529513811313185e-01  6.209710445251823e-17
 8.875164172827918e-01 -5.131264495855235e-02 -1.526719452487869e-17
-1.364747427438784e+00 -1.103814217700601e-01  2.542143741648929e-17
 4.472546273169167e+00 -1.021521244206501e+00 -6.909853632581127e-17
-2.191345361281639e+00 -2.170041049592694e-01  4.122724298197781e-17
 4.708859815396472e-01 -2.156645448493208e-01 -6.164102875204567e-18
 4.800234504681806e+00  2.032935275853395e+00 -1.063135703902206e-16
-5.817513520697601e+00  7.710153983406501e-01  9.560768932487944e-17
-3.126279320077231e+00 -5.610886415043074e-01  6.140085159633811e-17
 8.495847895409515e+00 -1.521705226743080e+00 -1.355587790704556e-16
 5.687042367127329e+00  1.157161086313855e+00 -1.130971124644771e-16
-4.293774809705115e+00  4.165548394203387e-01  7.213289488612693e-17
 6.383731445957452e+00  3.899061812994499e-01 -1.176122602467938e-16
-1.507491428460823e+01  1.131206468844196e+00  2.566533461709020e-16
 2.606034775363457e+00 -1.469984009694218e-02 -4.622646189850847e-17
 2.281888999233865e+00  1.636466586375645e-02 -4.077707767362243e-17
-7.543641328418365e+00  2.934085942642358e-02  1.339466291330808e-16
 1.855020033534693e+00 -1.537913775061921e-01 -3.143214369519196e-17
 2.336089469483679e+01  1.636723980452283e+00 -4.325517312855206e-16
-2.238137356330490e+01 -2.586197202277409e+00  4.248754767956690e-16
-6.012997175028186e+00  2.736848497379998e-01  1.041964448815656e-16
 2.931562697432519e+00 -8.248485485966168e-03 -5.208590491128704e-17
 2.781960244033318e+00 -4.910265130544516e-02 -4.900378908234830e-17
 1.136008429467994e+00  5.375980653704306e-03 -2.027186132030126e-17
 7.955461357864700e+00 -4.484075940316458e-01 -1.369696993352329e-16
-8.440276788473380e-01 -9.299162948426185e-02  1.597593453304913e-17
-2.158895069268048e+00  4.276190506264463e-01  3.402648255689688e-17
 4.819364329272950e+00  1.809393460948068e-01 -8.762542301631798e-17
-2.026844009272560e+00  7.362060775962462e-02  3.531368182437643e-17
 4.560385180181075e+00  1.617601467234679e-01 -8.281952084745292e-17
 1.302469997634711e+00 -3.401840841093997e-03 -2.314405455484132e-17
 6.935150969532492e-01  1.120393835667619e-02 -1.245704480156111e-17
 2.669520011374386e+00 -4.698898648845694e-02 -4.702449815473031e-17
-2.147957722963624e+00 -1.028542423342328e-01  3.928225979893320e-17
 1.834654473121848e+00 -2.649380303504597e-02 -3.237765059939795e-17
 2.157341897999881e-01 -3.113921234854881e-02 -3.519303171531734e-18
 5.277922942884606e-01  8.759765065444522e-03 -9.482696845967996e-18
 2.591819174175244e+00  6.665704982263945e-02 -4.680939077834229e-17
 1.198898276789111e+01 -1.468859066900007e+00 -1.982662568976094e-16
 2.619478904481253e+00  7.809971879636560e-02 -4.741919797391818e-17
-1.403691597148661e+00  2.087545312474470e-02  2.476587870457711e-17
 3.751049802853891e+00  7.655970113976542e-02 -6.754102877338771e-17
 2.189608774841250e+00  9.944317981151455e-03 -3.906887426437765e-17
 3.360215464980090e+00  5.269043077624595e-02 -6.034041743617420e-17
-7.285972528360056e+00 -2.788498219926265e-01  1.325276527922134e-16
 2.069571307016411e+01 -2.174397671703194e+00 -3.459637546469006e-16
 8.015442002181883e+00  2.202048065864384e-02 -1.428706040343392e-16
 2.608363333198580e+00  2.431091421013137e-02 -4.666872269472752e-17
-2.711744389869774e-01 -6.200133154805427e-03  4.889576726164748e-18
-3.872233806623419e+00 -1.540467199281464e-02  6.906929695730203e-17
 5.019553505435717e+00 -2.163834031936465e-01 -8.710568130982631e-17
-2.777113492375914e+00 -2.399582131838567e-01  5.188753073292455e-17
 1.321408268051102e+01 -2.637166422818201e+00 -2.080644366211892e-16
-5.382838380734178e+00 -6.974073254150591e-01  1.029596367886441e-16
 4.142981831535628e+00 -4.869792484892254e-01 -6.872576874721899e-17
-2.502653030956118e+00 -4.152231826665947e-01  4.880396331257488e-17
 5.245176998473542e-01 -1.428512266449090e-01 -7.866673673908067e-18
-6.564887427574096e+00 -3.366075783852252e+00  1.514152085414798e-16
 4.761861455371450e+00 -1.413242630876672e+00 -7.022245010358565e-17
-1.273190999173167e+00 -2.819271816173245e-01  2.555465190711598e-17
-1.248046610134892e-01 -8.876175179353077e-02  3.133042549550631e-18
-4.056755770864787e+00 -1.950464672634791e+00  9.223512398208738e-17
 6.636554147884222e+00 -3.512536094742445e+00 -8.201536506940208e-17
-8.037359616311610e-01 -2.751454816777986e-01  1.713046004127319e-17
-7.257011324638326e-01  3.766329603737553e-01  9.044950451874597e-18
-3.556736594806171e-01  9.025567930030633e-02  5.402292721051658e-18
-2.258435900948022e-01 -9.716568698934908e-02  5.017498242475414e-18
 4.217476608344008e-01 -1.018819077137964e-01 -6.458703118578074e-18
 2.434047052992494e+00 -8.863090586529729e-01 -3.421026713510915e-17
-1.365242234150793e+00 -6.378048692987080e-02  2.495143541044046e-17
-5.293785246716588e-01  2.489610988801630e-01  6.862937462587657e-18
 2.334419763380061e-01  3.178079577563103e-02 -4.480914564643391e-18
-1.054626597558112e-01 -1.196372601550844e-01  3.106063224200846e-18
 8.341460645029021e-01  1.042517112943576e+00 -2.555610889641571e-17
-3.584677652489165e+00  6.060497303769151e-01  5.756667396573762e-17
 1.111179265797219e+01  2.414584224999990e+00 -2.225565807380606e-16
-1.036673254908973e+01  9.492893162472787e-02  1.835130113097658e-16
 4.413198340544788e+00 -1.221989730986510e-01 -7.728257866613834e-17
 6.094697043835372e+00  3.372494920664856e-01 -1.119275199279603e-16
 4.000644504422901e+00 -1.450668034269147e-01 -6.970573242263929e-17
 4.700970775476813e+00  3.021510168300601e-01 -8.676387443786888e-17
-2.010125027687318e+00  5.658585872320509e-02  3.519117345333686e-17
 3.695510242820357e+00  6.252636098197564e-02 -6.640844856169805e-17
 3.016952617238758e-01  3.166187871824883e-03 -5.401558492070118e-18
 1.834323408218990e+00  1.559869345622837e-02 -3.280424401813151e-17
-4.473687797175693e+00 -1.401428120248303e-01  8.105452724874455e-17
 6.966445756909362e+00 -4.025349294534660e-01 -1.198403119655920e-16
-2.781942215934985e+00 -3.461234628304954e-01  5.306427299111541e-17
 2.962467487595130e-01  2.187801167387290e-02 -5.496852909098210e-18
-2.618469447700351e+00 -3.042376768844982e-01  4.972471885014305e-17
 1.382946002955846e+01 -3.006567420226280e+00 -2.152203494439072e-16
-1.606540652316140e-01 -8.384912505567110e-02  3.720550014146183e-18
 2.175007364716378e+00 -4.223898176268819e-01 -3.436694856386764e-17
 2.266570093714682e+00  2.369405076121302e-01 -4.277079614044254e-17
-1.346143779906343e+00  2.284144711192888e-01  2.160935857784410e-17
 3.287460216331542e+00  5.682009611310139e-01 -6.434233440754123e-17
 1.473902555348326e+00 -6.512935854218166e-02 -2.556067361068471e-17
 1.650709243693355e+00  1.094755134774940e-01 -3.050116115017594e-17
 4.570327267792128e-01  3.142189523189300e-02 -8.456291105117333e-18
 4.007898035698865e+00  4.699574438041893e-01 -7.615396834611140e-17
-1.701845076976359e+00  7.546249664135449e-02  2.951101343779129e-17
 5.555508904514395e+00  5.786220407073583e-01 -1.048120390781387e-16
-3.965308880815511e+00  2.191176689514995e-01  6.831604705159328e-17
 1.948116620071444e+00 -2.358893907775256e-05 -3.466881668465594e-17
 1.073317931330482e+01  4.964622634468535e-01 -1.961106983048906e-16
-2.395505661478881e+01 -2.202828156048921e+01  6.526413980196337e-16
-1.704675786000313e+01  4.991779872240090e-01  2.982385177462578e-16
-6.663679041691988e-01  3.567112569969071e-03  1.182216095333781e-17
 4.551382489018109e-01 -1.099769416784508e-02 -7.986730733223410e-18
 2.782113381003960e+00  6.156423099331090e-05 -4.951165882401697e-17
 1.403724880460212e+00 -3.279150619162216e-02 -2.464403786194820e-17
 1.695289434144551e-01 -1.991690989583892e-04 -3.014923260952506e-18
-8.553719474343967e-01  3.905881414151167e-02  1.482104901398522e-17
 4.182113826829369e-01  9.394020970370022e-03 -7.539090550951550e-18
-4.486771622858985e-01  8.648122962353854e-03  7.895888983300692e-18
 1.241284126852574e+00  1.743248427034616e-02 -2.226924413781013e-17
 6.288578552419837e-01 -1.569600722499241e-02 -1.103000486720135e-17
 2.900357275966443e-02 -1.055111857951704e-03 -5.053122828662858e-19
-3.063661784404479e+00  1.387915779088812e-01  5.309548287851019e-17
 1.110555419809398e+00  4.350328290881255e-03 -1.980835644495056e-17
-7.117860923048818e-01  2.887184818573350e-02  1.237043480993684e-17
 3.809061602884249e-01  6.333050032205118e-04 -6.785186457656190e-18
 1.671745008960044e-01 -1.295127699504501e-03 -2.961762686799090e-18
 1.575952183914810e+01 -4.084593720468242e-02 -2.800398127041988e-16
-1.278933334033974e+00 -1.506643334965051e-02  2.291494635593466e-17
 8.876557622136145e-01 -4.049858592940829e-03 -1.575528229434684e-17
 8.835751397864136e-02 -1.956047466323074e-04 -1.570417592995154e-18
 1.525450887266609e+00  3.360874519351518e-03 -2.718174994373842e-17
 3.863756696441091e+00 -3.864108067213546e-02 -6.836313622625056e-17
 2.718394125914879e-01  1.652299021532490e-03 -4.854683379668022e-18
-6.949577220713044e-01  1.305322690617427e-03  1.235418991904994e-17
-3.910586005583259e-01  2.474832902089396e-03  6.933926259481042e-18
 2.189155658227068e+00 -6.970278495890598e-03 -3.888701917809346e-17
-2.367787826264492e-01 -3.695813399041809e-03  4.251734021985580e-18
 4.985627800970401e-01 -5.634495015448921e-03 -8.814626990742360e-18
 7.596295207684299e+00  2.436844299536714e-01 -1.376889034111799e-16
 9.477814625556894e-01  8.543761486511091e-04 -1.687568008129574e-17
 1.612747606613516e+00  2.087453411612539e-02 -2.891524567013933e-17
-1.370430100828668e+00 -1.784720149756295e-02  2.457181186448556e-17
-2.783825069425268e+00 -1.122673313981942e-02  4.965683838621974e-17
-1.994537230863112e+00  2.856603871228189e-02  3.520166352280197e-17
 6.058928071493718e+00 -5.495728491715418e-02 -1.072611862451625e-16
 3.734777603425113e+00  1.271204073322017e-01 -6.777093847783188e-17
-1.483596858072493e+00 -1.584509110070503e-02  2.656517834215999e-17
 6.312417122706843e-01  5.382425099495210e-03 -1.128900170766062e-17
 3.012739050341514e+00  2.509171007936509e-02 -5.387309333640382e-17
-1.586401977340573e+00 -6.690056735910220e-02  2.891929453742682e-17
-1.581263143409582e+00  2.640509963028911e-02  2.786916102423729e-17
 2.059973849100727e+00  8.429531310005655e-03 -3.674630224230764e-17
 1.340257870880268e+00  3.721651312799645e-03 -2.388972620337286e-17
 1.863710082919585e-01  5.078809152005345e-04 -3.321912695975525e-18
-1.884164904460378e-02 -1.595615771781645e-04  3.369490570857546e-19
 5.294659010059073e-01  3.872383558045749e-04 -9.426456010741486e-18
 5.233323590529310e-02 -1.162501663486668e-04 -9.301378935325347e-19
 1.295638250247815e+00 -2.680346964862888e-03 -2.302988856746972e-17
-3.746126880135548e+00  2.126503052654087e-01  6.448189173837323e-17
 3.004003071960582e+01  1.548317957541531e+00 -5.505065842548926e-16
-3.089999484147597e+00  1.711176644759992e+01 -1.208269573053013e-16
-3.059584527182552e+01  1.518756729190205e+00  5.288848889866980e-16
 8.926618357199818e+00 -1.255812247220348e+00 -1.459568070828383e-16
 5.390699948475612e+00  1.211426207143249e-01 -9.717863226767733e-17
 7.192970394221056e+00 -8.800346975899314e-01 -1.189654514251907e-16
 1.105567992109801e+00  1.587265204728301e-02 -1.983798694024680e-17
 3.913959110908907e+00 -3.791269256707572e-01 -6.575817968255947e-17
 3.429493261557409e+00  1.561594475314567e-01 -6.263640502818233e-17
 4.435711863514174e+00 -3.926395001660468e-01 -7.490455547216372e-17
 4.260840164897933e+00  2.508456914989058e-01 -7.840408159653132e-17
 2.063131937881773e+00 -6.320202604423095e-02 -3.606651599428993e-17
-8.208809727799233e-01 -7.829586190649025e-02  1.541301763473994e-17
-2.364552133095253e+01  9.944923062070087e+00  3.186197862958131e-16
 5.264017601873070e+00  3.740558000678496e-01 -9.752275982259797e-17
 9.670012662949185e+00 -9.360880332653138e-01 -1.624714456404377e-16
-7.999843767424356e+00 -1.047878939106177e+00  1.531333378629836e-16
-2.025006431741499e+01  8.704593473856603e+00  2.709375139084167e-16
 9.530777702420821e+00  1.577741571789638e+00 -1.858222794471850e-16
 9.333719173240697e-01 -5.670612751190810e-02 -1.602783177243073e-17
-4.305296603999964e+00 -8.750193480910901e-01  8.560839454547356e-17
 2.274127921895370e+00 -2.436183424400453e-01 -3.796772908070632e-17
-1.482384751063785e+00 -3.241451882419098e-01  2.971127897222952e-17
-2.041057017905290e+00  9.289818266422857e-01  2.677809336425503e-17
-4.107080607488106e-01 -6.641452685088509e-02  7.991424990631490e-18
 3.462789527625170e+00 -1.262259755549768e+00 -4.865520970778012e-17
-2.268065731221377e+00 -4.870239856330618e-01  4.536692968141698e-17
-1.829224571796135e+00  8.085938836560993e-01  2.424522479608884e-17
-1.498062510235395e+00 -3.300602082976556e-01  3.005105806902690e-17
 1.918995703309935e-01 -8.720530175229495e-03 -3.325481437149346e-18
-1.218608501287511e+01 -2.041747036746193e+01  4.266480098460859e-16
-5.865278311568720e+00  4.013392876062127e-01  1.002560085137123e-16
 2.476697575058484e+00  2.317509632598184e-01 -4.645694458214847e-17
-2.639287953868120e+00  2.491157913139131e-01  4.440970313661683e-17
 4.526359650357741e+00  6.044789269668505e-01 -8.676277060000220e-17
-1.528066513558301e+00  4.831197074554358e-02  2.669737840360255e-17
 3.736686537129004e+00  4.240073668046590e-01 -7.085531587137640e-17
-3.351022578272124e+00  9.279595610635175e-02  5.868199928796118e-17
 2.115403067473612e+00  7.706490894199196e-02 -3.843793487482203e-17
-3.682396781148800e+00 -3.684668697211865e-02  6.591122957526527e-17
 6.009358747131058e-01  1.357104909018239e-02 -1.083380828087163e-17
-4.246464676875343e+00 -9.476520518811693e-02  7.654458234195431e-17
 1.274902337326244e+01 -5.877361788425044e-01 -2.208453027829292e-16
 6.700725901105610e-01  2.232339246546321e-02 -1.215410577018554e-17
 2.998163759722160e+00 -7.958588676265127e-02 -5.253818441498846e-17
-6.664238331444802e+00 -6.759577480722463e-01  1.255432908439816e-16
 3.577382173831924e+00 -1.307598997161601e-01 -6.232027256708458e-17
-3.696776850120023e-01 -4.214091360450123e-02  7.011837968118832e-18
 1.364408650773514e+00 -1.578983921639142e-01 -2.265893077390199e-17
-2.867047199178538e+00 -2.988841925760760e-01  5.409345135840087e-17
 4.989485910929183e-01 -1.271540891641216e-02 -8.748739139385163e-18
-1.898399701353659e+00 -2.844920708117096e-01  3.670733984742330e-17
 2.343646317304840e-01  1.647577921275134e-02 -4.340080826993845e-18
 1.430478919128315e+00  7.416165309182016e-02 -2.621906278141101e-17
 9.326673211407327e-02  3.547548615225923e-02 -2.024290483855944e-18
-4.066096419711948e-01 -4.307590865171095e-02  7.678692896337634e-18
 4.079267528681368e+00 -3.967132135065016e-01 -6.851934747572077e-17
 3.021116927334814e+00  4.732417575690011e-01 -5.862676663794565e-17
-8.089276545579498e+00  1.130217161065585e+00  1.323457546588483e-16
 4.058485827928945e+00  1.595779937211416e-01 -7.386520236107778e-17
-1.718502385943791e+00  1.547253300113123e-01  2.899305335680091e-17
 2.270877263099319e+00  8.887747318725593e-02 -4.132615344841432e-17
-1.294214009816454e+00  2.814641340050656e-02  2.274288792712930e-17
 2.848929943547186e+00 -4.321062719112497e-03 -5.065570932287047e-17
-1.799706013193275e+00  7.543716777344100e-03  3.195040632747030e-17
 1.718892560238799e+01 -1.033620423165701e+00 -2.952773604705876e-16
-3.196682003261639e+00 -2.601522038182962e-01  5.956173879249071e-17
 4.323144216788056e+00 -4.429725382968577e-01 -7.238412626005894e-17
-1.250501838917998e+00 -2.265602353102368e-01  2.458199597819173e-17
 2.332105995546781e+00 -1.939756520012142e-01 -3.950957866548912e-17
 1.620805361131663e+00  6.734766705416195e-02 -2.953613758474264e-17
-7.325868785875788e+00  1.686044422238369e+00  1.130490794658939e-16
 5.155222968286405e+00  5.156533136903144e-01 -9.704149257010025e-17
 1.096668953983506e+00 -1.764749155028750e-02 -1.933521062290507e-17
 1.026812575857399e+01  1.066775175841212e+00 -1.936942735218591e-16
-4.819792561816650e+00  9.436803168744849e-02  8.480436067670423e-17
 2.121013156326593e+00 -1.522214995058820e-02 -3.758955709231607e-17
 4.645231440916468e+00 -6.910322461649103e-04 -8.266033441826044e-17
-9.009028020906433e-03 -1.729739227279371e-03  1.780988419256377e-19
-1.800167603881738e+00  2.292352681586568e-02  3.180059889856886e-17
-7.783030846174502e-01  4.462865141087895e-03  1.380497745618158e-17
 1.686060764485973e+00 -2.793579067581298e-02 -2.971843241245991e-17
 2.100155299182465e+00 -1.776417799862464e-02 -3.719224823025694e-17
 3.995918716565795e+00 -4.426110863536049e-02 -7.065737323666525e-17
 3.432622750603012e+00 -1.203437768464070e-02 -6.096396756008806e-17
 1.239852789874625e+00  1.401391547717793e-04 -2.206609922509692e-17
-8.187965798039818e-01  8.864917609230402e-03  1.448037799103734e-17
 1.524961806831308e+00 -7.523900165678374e-03 -2.706120904391905e-17
 7.398309704000582e-01 -2.465751450123278e-03 -1.314083992677049e-17
-4.917576005595918e+00  5.529630580718706e-02  8.694598146314159e-17
 2.513849893405979e+00 -3.782475815324596e-02 -4.434832183775764e-17
 3.579632171511942e+00 -4.219793973825853e-03 -6.366046757578639e-17
 1.481874071245299e+01 -1.871377009152249e-01 -2.617943955535161e-16
-7.376921201240318e+00 -4.065540734542640e-01  1.354583077031346e-16
 1.209089278331436e-01  6.998836136943983e-03 -2.223629078359009e-18
 2.252036633508698e+00  1.148414482391941e-01 -4.125763227098756e-17
 2.620662484841548e+00 -1.163943230052950e-01 -4.544190556231399e-17
-1.104900000835553e+00 -4.661124299819368e-02  2.014192705943644e-17
 2.827132521390031e-01 -2.366859598633247e-02 -4.788033329432366e-18
-4.970996774225332e-01 -2.801853440542867e-02  9.134361987053162e-18
 5.172798840426626e+00 -5.096916000434976e-01 -8.681922965297129e-17
-6.110531829602867e+00 -1.358012782018694e+00  1.226972908219747e-16
-8.853125540081915e-01  1.269285071566203e-01  1.445104863201233e-17
-8.659812203896174e-02 -7.993076581577777e-02  2.362376352131924e-18
 1.107978057433555e+01 -1.840257449734701e+00 -1.782699349155076e-16
-5.867201623473833e+00 -1.009373926481434e+00  1.147848018958273e-16
-3.399500716283461e+00  4.363306207209193e-01  5.601503170380921e-17
 6.739240914978588e+00  1.131158871865070e+00 -1.315550774463352e-16
 9.609140010420827e-01 -3.223671670028261e-02 -1.676939033748658e-17
 1.393206658824676e+00  5.052993908407603e-02 -2.531295115307869e-17
-5.900897042456179e-01  1.019257060254368e-01  9.454100571695585e-18
 1.410773993731641e+00  1.000024973753139e-01 -2.613389535858246e-17
-2.231852106202999e+00  2.481536536477893e-01  3.716878183534678e-17
 4.543061480629676e+00  5.925804142125052e-01 -8.693774670744711e-17
 1.901623316837226e-01  7.177214730290490e-03 -3.457908805741960e-18
 2.787867421225213e+00  2.162403873189541e-01 -5.183521761533721e-17
 3.075455572762091e-01 -4.371312516266929e-03 -5.428226458587696e-18
 1.855402962821165e+00  1.460298520872820e-01 -3.451951260766203e-17
 5.408081256094901e-01 -2.765104294343167e-02 -9.340221259089177e-18
 4.013818195113776e+00  4.815471854733078e-01 -7.637840499368109e-17
-7.524642524376800e-01  5.337038579232537e-02  1.284263761604141e-17
-1.404050897647118e+00 -1.229219604982979e-01  2.624973902624839e-17
 2.386188445612342e+00 -1.389613119064827e-01 -4.103729274201381e-17
 1.661186981299858e+00  4.015144887209077e-02 -2.997534542002548e-17
-2.412097997990011e+00  1.402762761101611e-01  4.148487335142202e-17
-1.321861803480863e-01 -9.170782931657830e-03  2.446637191263342e-18
-5.400055963077507e-02  6.045894860028374e-03  8.988849790515961e-19
 2.305914376346362e+01  3.216555153036862e+00 -4.434139048306785e-16
-2.582421248847349e+00  7.163251484856815e-02  4.522126838022103e-17
-1.587060230202818e+00 -5.279274398955265e-02  2.878605617654877e-17
-2.541340101909214e+00  4.057516634563471e-02  4.480928343977088e-17
 5.467164298362684e-01  1.746312859319010e-03 -9.747413742326097e-18
 9.461205648593197e+00 -1.385697905242787e-02 -1.682310648272010e-16
 1.043250439626379e+01  1.053564191585056e+00 -1.964838493943950e-16
-3.340826221238087e+00 -4.743702916583242e-02  5.994138593462214e-17
-1.107390162010125e+01 -7.324072018195499e-01  2.045985066921861e-16
 2.994550758543708e+00 -2.972298434022644e-01 -5.023767411956798e-17
-9.042175655260781e+00 -3.876904047924373e+00  2.007500823993553e-16
-2.075634272093622e+01  1.764067824641114e-02  3.692026262207637e-16
-2.027850160773350e+00 -3.045221678770702e-02  3.640089798353429e-17
-1.282769479946234e+01  1.797655340168443e-02  2.280994278320067e-16
-4.287457997511936e-01  5.067835415120779e-03  7.577972746606186e-18
 3.534954145823419e-01  7.587890977120105e-04 -6.298668849418754e-18
 3.506873544715866e+00 -5.085453252482617e-01 -5.718387939482721e-17
 2.540693260081104e+00  1.204383303452690e-01 -4.645212732473618e-17
 3.574911115717939e-02  3.898651142237373e-02 -1.036770318304085e-18
 2.465255380604389e+00  3.294015281647952e-02 -4.421060826841476e-17
 5.873809033467107e-01 -1.453993852586058e-02 -1.030375125599861e-17
 1.046889491777056e+01  9.749135120532637e-01 -1.963233550599994e-16
 2.372388207283836e+00 -1.196069652537417e-01 -4.099055992569673e-17
 2.499521227115150e-01 -3.394821697558334e-02 -4.099390579953703e-18
-6.652923121909977e-01  1.055528615234167e-01  1.075515297919284e-17
 7.201057405714062e-01 -8.096025596643791e-03 -1.273195688614729e-17
 3.559747309561266e-01 -5.822731355518583e-03 -6.275168508601531e-18
 1.418308284644777e+00 -5.138497477507576e-02 -2.471252585225824e-17
 6.838635908698075e-02 -4.182420385878450e-02 -7.872883366439388e-19
 1.244941583551692e+00 -2.709439174932471e-02 -2.187683547072626e-17
 1.561925628790656e+01 -2.336077650900393e+00 -2.539609477669332e-16
 1.634355049764914e+01 -2.814210871729220e+01 -1.703032720445626e-18
-2.777659256164331e+00  1.697025590731787e-01  4.768812762739751e-17
 1.763240977049433e+00  7.311513148842416e-02 -3.213020780194642e-17
-4.224992933859725e+00  1.074921515733402e-01  7.408434620679082e-17
 4.017129473132192e+00  1.965517591968434e-01 -7.350910864380972e-17
-3.993631247647506e-01  1.643580393594126e-02  6.938271267859373e-18
 1.850485434295989e+00  5.540216453514622e-02 -3.350083276286755e-17
-1.298374752813439e-01 -5.574448849029817e-03  2.367888189960064e-18
 9.429853096852218e-01  1.680151382909132e-02 -1.695417786208453e-17
 1.020157737727313e+01  1.547312715927258e+00 -1.974473143806639e-16
 3.068693537845875e-01 -5.129441093778577e-02 -4.934074763364822e-18
-7.039000344376285e+00  3.638230755573839e-01  1.215292576164285e-16
 2.635728383753487e-01 -1.085158738099141e-02 -4.579096941905061e-18
 1.563154606923099e+00 -5.229009693984298e-02 -2.728093907631808e-17
 2.073295435133796e+00 -5.223774689104738e-02 -3.636004151162449e-17
-2.420072561538024e-01  5.454429588631936e-03  4.250765517553699e-18
-2.651508118437808e+00  7.153449623627513e-02  4.645175884020761e-17
-2.856586955492666e+00  1.125925809645148e-01  4.967952446595005e-17
 7.049672445253800e-01 -2.987178227641467e-02 -1.223881131568438e-17
 7.004465663842879e-01 -2.657690372460792e-02 -1.219221413833281e-17
 9.605906781129105e+00 -3.966748143897801e-01 -1.668728798737791e-16
 3.205470408350766e+01  5.613678015279881e+00 -6.281301976654426e-16
-9.302625283646146e-02  9.827911952129077e-03  1.554534898066065e-18
 7.578609235959957e-01 -9.684254259503876e-03 -1.338753694710698e-17
 5.253548763015881e-01 -6.130326124049824e-03 -9.286329815802962e-18
 5.133338314408262e-02 -6.961426922900584e-04 -9.063861719453500e-19
 1.441811793078373e-01 -6.817653409824213e-04 -2.558871180106912e-18
 3.539506245754253e+00 -5.683464929786661e-02 -6.240578034394705e-17
-9.759813585547553e-01 -1.673110982568083e-02  1.754065854610628e-17
 3.123150015181544e+00 -1.427416413639204e-01 -5.411356144193233e-17
-2.672349485159181e+00 -2.545554915577325e-01  5.017311201564175e-17
 6.079674666238124e+00 -6.756759312020012e-01 -1.012527380590997e-16
-9.950380549452390e-01 -1.434230800365429e-01  1.918150917613504e-17
 2.546941271448093e+00 -2.716553398409466e-01 -4.253469809140401e-17
 1.974740894680604e+00  1.401058512977051e-01 -3.658240650953330e-17
 7.822233945268054e-01 -6.942931764978134e-02 -1.320723734229612e-17
 1.010589556390857e+01  1.723877918770799e+00 -1.975586856691794e-16
-3.443473681823066e+00  3.958003426532484e-01  5.721401696586160e-17
 6.871766041580047e+00  4.474379335893317e-01 -1.268885358572779e-16
-5.679569622667714e+00  4.120105451418148e-01  9.684145764020611e-17
 4.286093624716452e+00  9.159864035744951e-02 -7.721729144483522e-17
-4.508135122924092e+00 -7.531682296443352e-02  8.100149500769335e-17
 8.510794128158825e+00 -3.788943110682068e-01 -1.475667320940163e-16
 6.230861756856293e-01  1.880271687349353e-02 -1.128175280774535e-17
 5.189602758153351e-02  4.568587430059707e-03 -9.704922908389848e-19
 2.359855504497843e+00  5.231004755328011e-02 -4.253391037723984e-17
-3.280076609687711e+00  4.571517031432345e-02  5.790316920751498e-17
 1.942596692574620e+00  1.478536723785234e-02 -3.472273963603068e-17
-1.675638866707578e+00 -3.388347408809657e-02  3.016813279481546e-17
 8.615245095033970e-01 -1.922283804023330e-04 -1.532988123255980e-17
-1.094618252764233e+00 -3.007602761467467e-02  1.978905777060775e-17
 1.432709734706362e+00 -2.871043103662698e-02 -2.520178951070819e-17
-2.198324204860712e-01 -6.801764572563658e-03  3.982065793298864e-18
 3.078458515245295e-01 -5.866533409601888e-03 -5.418207634947986e-18
-1.321994179549427e+00 -1.104162708911238e-01  2.466095042915001e-17
-9.706350599766749e-03  3.798320342353625e-03  1.337097247816782e-19
-2.307462607316002e+00 -5.396212730124154e-02  4.161849081162267e-17
 2.754886610934211e+00 -2.454719987025057e-01 -4.650435776929837e-17
-1.201009847213275e+00 -1.121838711170721e-01  2.252605149180450e-17
-3.071577028432346e+00  1.399556704011357e-01  5.322438345853113e-17
 3.451268296476598e+00  5.247647939720015e-02 -6.195861292024494e-17
-3.516264241783938e+00  1.127051784755452e-01  6.141811178509714e-17
 8.649615615882665e+00 -2.320445701575144e-01 -1.515460538665784e-16
-4.775961884265850e+00 -2.894625173339893e-01  8.796806092015583e-17
-4.591579813437528e-01  3.119110469855639e-02  7.850786707143523e-18
 1.153461560887621e+01  7.825880453721989e-01 -2.133130516197262e-16
-3.019890917288696e+01  3.302375753020100e-01  5.340325401729621e-16
-5.347490890849933e+00  2.132722468566845e+01 -1.239645070493604e-16
 1.789760871851888e+01  1.395818617488847e+00 -3.328508254194378e-16
 2.975548571345048e+00  2.034801808098513e-02 -5.316250468235350e-17
 3.961905267632640e+00  8.172676279654112e-02 -7.134654296686092e-17
 2.343671274722229e+00  5.182350148129648e-02 -4.224089361685578e-17
 1.338253190968664e+00  3.017694630094999e-02 -2.412586901907998e-17
 3.896925127086411e-01  9.288637051133799e-03 -7.030480470643063e-18
-3.775746821995101e+00 -1.264894148750612e-01  6.849355135909223e-17
-1.887780473989811e+00  1.200196005590721e-02  3.347198957876169e-17
-1.823685227279658e+00 -4.821776131379329e-02  3.295007395527722e-17
-2.435239949500572e-01  8.739477462705706e-04  4.324820473271290e-18
-1.747321222806301e+00 -4.586658221660695e-02  3.156692790452218e-17
 3.146211562031981e-01 -8.405387755161513e-03 -5.512696463033818e-18
-1.306464413667560e+00 -4.945759712571215e-02  2.375825150542550e-17
 2.053793812239930e+00 -1.741375875749214e-01 -3.476051034422990e-17
-2.607622469737096e+00 -2.949416566027857e-01  4.943617066259007e-17
 6.623349771289488e-01 -4.435289257130248e-02 -1.133133112698690e-17
-3.193010311655731e-01 -2.345300449518779e-02  5.923313833049972e-18
 8.939748510994424e-01 -1.091001931319251e-01 -1.478838401103012e-17
-8.014654073400515e-01 -3.326909121562653e-02  1.460486077616787e-17
 1.131204125214072e+00 -1.022687701698817e-01 -1.908035228332356e-17
-1.302730426068469e+00 -1.046535934097877e-01  2.425891946929244e-17
 6.220321182271411e-01 -3.559511903725712e-02 -1.070407661945125e-17
-2.175165349845188e+00 -1.008338524009561e-01  3.974569323137317e-17
 2.660358475054759e+00 -2.505852816792412e-01 -4.476957971629621e-17
 3.264199735087397e-01  2.006909535394308e-02 -6.015235460687221e-18
-1.640930715476044e+00  1.545143377461724e-01  2.761474076254579e-17
 8.965068518697032e-01  1.200773737743366e-01 -1.718816020639059e-17
-9.376943012841221e-01  7.246393480590933e-02  1.594284800568389e-17
 1.998314132697869e+00  1.273381459169364e-01 -3.687073685556917e-17
-2.426353239393970e+00  9.735258711093575e-02  4.217958768914105e-17
 2.934493649616393e+00  6.003155236375619e-02 -5.283961728015945e-17
-1.611121668866382e+00 -2.337608370142259e-03  2.869584998976599e-17
-3.823791014450704e-01  8.047990626998615e-04  6.796623210894888e-18
 6.224572925576716e-01 -1.280150271299844e-03 -1.106421694049987e-17
 1.979330009842888e-01  2.743241936111382e-04 -3.525272437441670e-18
-1.244811736186758e-01  4.194175523661592e-05  2.214860034446794e-18
 3.629556419557063e-02 -1.996235086289813e-05 -6.457177575835110e-19
-1.337589427594834e+00 -2.546263066646137e-03  2.383016132547881e-17
 4.399953960354883e+00 -9.070926810013945e-02 -7.737042439968132e-17
-5.532350218420661e-01 -1.222571846452911e-01  1.110162500623941e-17
-6.083715815063258e+00  3.822905327117079e-01  1.043390835016810e-16
 1.699650494819107e+00  2.320893238111680e-02 -3.048577131992341e-17
 4.506144805066752e+00 -1.299759519407176e-01 -7.885676624003248e-17
 9.380385106518044e-01  6.874819662944799e-02 -1.739987699190943e-17
-9.245721543572389e+00 -3.903085609944035e-03  1.645787463571901e-16
-5.469169108707794e+00  3.148040914950470e-01  9.409589047400739e-17
 1.568305973870551e+01 -5.853669920504528e-01 -2.730843222830839e-16
 1.510137862406277e+01  2.059416213912313e+00 -2.899067996515674e-16
-7.091692503682342e+00 -9.862926918227057e-02  1.272185072917049e-16
-4.424663299939527e+00 -1.035754617191376e-01  7.980636159206137e-17
-4.138190645098474e+00  2.321885628127978e-02  7.340547342748008e-17
 3.548624759201947e+00 -2.444082710680932e-02 -6.290088992450805e-17
 2.004493799448136e+00  3.074236546188708e-02 -3.598822481070120e-17
 2.020146953008203e+00 -2.081800420676292e-02 -3.573702731913411e-17
 2.053755629612819e+00  2.159530581262214e-02 -3.677091515402628e-17
 1.310234705444408e+00 -2.371125816429927e-02 -2.307356483627167e-17
 5.830607587279826e+00  3.298788212862468e-02 -1.041015555144152e-16
 1.543173803722657e+00  1.280322881410305e-02 -2.759416712495167e-17
 1.997174244970458e-01  1.620637749901041e-03 -3.570861268990556e-18
 7.959877181637113e-01  7.600320266563564e-05 -1.416633183934006e-17
-4.496274316078364e+00 -2.072833960379379e-01  8.214632645697510e-17
 1.207235179418115e+00 -1.855924718524643e-02 -2.129350054025572e-17
-3.338375927364080e-02  4.354208256096199e-04  5.896300229001804e-19
-2.944857332294265e+00  3.567524054089722e-02  5.204069882691004e-17
-2.694196741571535e-01 -2.123280577806416e-03  4.816460413584243e-18
 4.580655855420925e-01 -2.856566179420488e-03 -8.122473304400269e-18
 4.586834558078966e-01  8.060429503857641e-03 -8.245637213807657e-18
-1.739919441152987e+00 -3.930946181758336e-03  3.100433094814084e-17
 6.292410694581060e-01  4.842784302750208e-04 -1.120307119977988e-17
-5.700436856677417e-01 -4.413360562111151e-03  1.018995303655517e-17
-1.236880177582349e+00  5.910227122538541e-03  2.195103271954383e-17
 8.867895314845835e+00  1.054274783806877e-01 -1.588980041943610e-16
-2.761142135121351e+01 -1.523863775759200e+00  5.070353257524601e-16
 2.108015643230008e-03  6.025163050372888e-04 -4.370524545042481e-20
 1.717633762246688e+00  1.505156696860912e-03 -3.058280660391344e-17
-3.299457825404792e+00 -6.233484719503025e-04  5.872419241801324e-17
 1.574013041257585e+00 -8.566768314011115e-02 -2.713123541058094e-17
-1.614289508406473e+00 -8.753142975237761e-03  2.881814275904272e-17
 2.970671531657000e-01 -2.602536345745298e-02 -5.019263204437368e-18
 4.130708657341110e+00  3.299233761218771e-01 -7.690073080311774e-17
-7.513405405100724e+00  4.236259690172862e-01  1.293574086188599e-16
-4.369644769987122e-01 -8.738355565230614e-03  7.866087686637388e-18
 1.313768896731675e+00 -5.635734797965512e-02 -2.280103336312460e-17
 5.947353827997083e-01  2.730430405585463e-02 -1.086456736826497e-17
-1.111850851098736e+00  2.781183081854575e-02  1.950095571368297e-17
 7.452923800048227e-01 -3.312281079820533e-03 -1.322933443377803e-17
-7.428281444073800e-01  7.856235640879053e-03  1.313879293984774e-17
 4.483761125857752e-01 -4.968887520872022e-03 -7.928334254017940e-18
 1.910508382407609e-01 -1.519278559845808e-03 -3.384367506309420e-18
 1.897004564259338e-01 -1.976360590069038e-03 -3.355639516568991e-18
 1.658110670163395e+00 -1.134726460025088e-02 -2.939146815317325e-17
 1.114376038992559e-01 -9.757122113937890e-04 -1.973140010752873e-18
 8.583154649275881e-01 -8.841170411947118e-03 -1.518390772462861e-17
 3.386749663555434e+00  3.169035754602427e-03 -6.030381082819069e-17
 2.623672443992620e-03  4.529112859282452e-04 -5.134488166062335e-20
 1.361422742168651e+00 -5.699327469530399e-03 -2.416958314656943e-17
 1.551413465717847e-02  2.314920019456695e-05 -2.763303808947102e-19
-1.258743933085317e+00  6.040936881070277e-03  2.233878133725791e-17
 2.358609867281047e+00 -4.240223755321756e-02 -4.153860844492769e-17
-2.147048728907767e-01 -5.606197825962199e-03  3.878530968393447e-18
 1.013144726371610e+00 -2.276081043061562e-02 -1.779625987036246e-17
 4.767498595812544e-02  2.463796326082815e-03 -8.737478523265392e-19
 4.343769334664796e-01 -1.005505569097311e-02 -7.626943640658999e-18
 4.838013624335035e-01  2.191861793259016e-02 -8.835028174179412e-18
-5.464462637186661e-01  1.834888304925044e-02  9.536134979865294e-18
-1.839203214900680e+00 -1.201142883265407e-01  3.396494573407594e-17
 2.961711241082330e-01 -7.711630418598542e-03 -5.191484230393068e-18
 8.797054810829354e-01  4.088605282853295e-02 -1.607549771152635e-17
-1.008520815423272e+00  6.494746428520595e-03  1.788109975971984e-17
 1.644149822587060e+00  4.425244770958846e-02 -2.971428511510289e-17
-1.512553022946146e+00 -1.172082636864352e-02  2.703811251936295e-17
 6.091901080676917e-01  3.849485276222287e-03 -1.088081669646135e-17
-6.681841614684664e-02 -9.502098218948722e-04  1.198876446374401e-18
-5.024263436236695e+00  4.412778763264691e-02  8.895936402782595e-17
 3.061727628948044e-01  2.797728066315223e-03 -5.477455186196898e-18
 1.534723454140281e-01  2.024840211027525e-04 -2.733303917504541e-18
-9.604583229395776e-01 -7.878494828878634e-03  1.717345020958848e-17
-4.991501516451943e-01 -4.980094408684833e-03  8.934141007758733e-18
-6.480108826529966e-01  1.811284699086357e-03  1.151351620748829e-17
 4.436913677589280e-01  5.083463499259834e-03 -7.948247883130652e-18
-2.022012401478509e+00 -1.522058888555944e-02  3.614050864222106e-17
 1.561937084855251e+00 -2.022135032473071e-02 -2.758876654104780e-17
-6.334400551512605e+00 -4.939696501438202e-01  1.178035724189418e-16
 4.228296052641935e+00 -2.675568766043542e-01 -7.249852224221115e-17
-2.961982136637512e-01 -2.163611195989596e-02  5.493503722199420e-18
 5.465692692318871e-01 -8.052027836964429e-02 -8.899535488396150e-18
 1.492462696667195e+00  1.256348060303357e-01 -2.785100595361647e-17
 1.453275665651468e+00 -5.266902906858081e-02 -2.532161885366008e-17
 1.359162671997597e+00  6.273371828189808e-02 -2.483248717125265e-17
-9.651487547081066e+00  5.007560321686495e-01  1.666146472766655e-16
 8.815308596012594e+00 -2.216398219330860e-02 -1.566512048891452e-16
-8.704613973894351e-01 -5.368336136500201e-02  1.604247592633976e-17
-3.040837523827332e+00  2.944466483226670e-01  5.108999848714432e-17
 1.166646041580162e+01  3.563233304104169e-01 -2.112796721457619e-16
 2.943435356318024e+00  8.424481039915944e-02 -5.324752804558467e-17
 8.596286149205767e-01  2.445108172015052e-02 -1.554934258614963e-17
-2.374473648158298e+00 -5.999315853594765e-02  4.287299888522698e-17
 2.940942890150748e+00 -1.740236608110293e-02 -5.215878380877654e-17
 9.066956420545877e-01  2.173367423499261e-02 -1.635903612023656e-17
 1.191497100751414e+00  7.802603785384499e-03 -2.128428109596010e-17
 7.205185159961566e-01  2.786483851935155e-03 -1.285111656651249e-17
-3.193852090352715e+00  4.282065623673090e-02  5.639844102654133e-17
 2.012274385287338e+01 -1.927934155333185e+00 -3.382994070816781e-16
-5.015640108254362e+00 -8.185308924629358e-01  9.766940617289319e-17
-1.514414925960943e+01  5.387459409439599e+00  2.141540123490178e-16
 1.830045357401920e+01 -3.305909522569412e-01 -3.222816989822332e-16
 1.356666523606920e+01  5.076099746812848e-01 -2.466504988762785e-16
-5.619007200659970e+00 -1.173049820935514e+00  1.120495965052219e-16
-1.629784291891490e+01  1.459778004152824e+00  2.750408668167129e-16
 1.992548469616588e+00 -3.199219508435384e-02 -3.513106863827351e-17
 4.970570531722951e+00 -2.229868804122734e-01 -8.616612252826799e-17
 4.435258657941018e+00  4.314526824045409e-02 -7.937402034204319e-17
-1.748111131583353e-01  2.128481833684829e-04  3.108785342347331e-18
 2.841920647051984e-01 -1.406918318083013e-03 -5.043081215072127e-18
-1.033616711127414e-01  5.487347451650730e-04  1.833806157449523e-18
-2.570917192661336e-01  1.391595562566863e-03  4.560955679167928e-18
 5.462424481432196e-02 -1.134654829775570e-04 -9.709377760282563e-19
-1.397564918432805e+00 -2.054323060536062e-03  2.489244222246086e-17
-1.557979141108922e+00  9.403015040093644e-03  2.762948467734480e-17
-1.795448673026551e+00  1.104142234156193e-02  3.183870422512994e-17
-3.208670592571370e+01  3.302629026056098e-02  5.706818731204872e-16
-2.644329019796979e+00  6.879396970410771e-02  4.635215612840641e-17
-1.305700090760402e+00  3.472092944703936e-02  2.287974567753962e-17
 1.161830787614604e+00 -4.090880454818194e-02 -2.025584165778214e-17
-2.048018942469543e+00  2.490591649789539e-02  3.619104079581871e-17
 1.136544459691288e+00 -6.920725824683562e-02 -1.951508494487453e-17
-8.409605672153818e-01  7.208486823371836e-03  1.489183184338539e-17
 1.838377595314693e+00 -1.207382332918628e-01 -3.147558071208593e-17
 2.592050612385656e-01 -1.244248841290023e-02 -4.485021201081403e-18
 1.158160529848960e+01 -2.146805141933044e+00 -1.840508383651318e-16
-1.656634649195820e+00 -5.737245405143529e-02  3.007127082710857e-17
 4.240053232069562e+00 -4.441778678137683e-01 -7.089303875431819e-17
 1.241166514037656e+00  4.433262157904588e-02 -2.254354021595395e-17
 7.116395868016524e+00 -1.276147756784787e+00 -1.135327986103824e-16
-2.205215186393048e+00 -5.309082532040751e-01  4.469932415606915e-17
-1.399479927925732e+01  5.217780964961576e+00  1.954433428490110e-16
 5.924894945558061e+00  8.019272316496288e-01 -1.136800840299796e-16
 7.005739264372412e+00 -1.103940322102750e+00 -1.133329011797788e-16
-2.518544859436742e+00 -1.321816146140633e+00  5.840169054603123e-17
-2.109017931920012e+00  4.342734042475799e-01  3.307048835928241e-17
 7.272210107178596e+00  1.740842725173023e+00 -1.473041800680774e-16
 7.945085826803591e-01  7.666316086076974e-03 -1.421799656577113e-17
 2.171493588626260e+00  2.251887907073521e-01 -4.095805168520557e-17
-8.102904259273533e-01  1.710069597395885e-01  1.266305028227271e-17
 4.111236712741734e+00  5.148173086150566e-01 -7.845392218232594e-17
-1.013034626953606e+00  1.130264402088544e-01  1.686685396261691e-17
 2.993736851947901e+00  1.480098236730260e-01 -5.479786550949277e-17
-1.617819096449444e+01  3.697992472758955e+00  2.499146772391398e-16
 2.744348488540102e+00  1.138713444020754e-01 -5.000894163422762e-17
-2.621371162965224e+00  1.011972527024003e-01  4.561066171201876e-17
 2.597218563244148e+00  9.466671592471451e-02 -4.719326852380404e-17
-1.185261496424727e+00  1.396566680885749e-02  2.094964996944259e-17
-3.059466666399615e-01 -1.168140027407091e-02  5.564707992368651e-18
-4.728774356243072e-01 -6.341436127540559e-04  8.421933629483874e-18
 4.498363354860098e-01  6.498625011656877e-03 -8.072145174526305e-18
-3.276697460847118e-01 -3.412364122471577e-03  5.866334790832945e-18
-3.965991243195605e-02 -3.409883056518086e-04  7.092989816018708e-19
 8.195816246394876e-02  7.868927023757311e-04 -1.466628299183320e-18
-1.868235726486709e+00 -1.630716647542832e-02  3.341503349708879e-17
-1.907220351618852e-02 -2.317715919292259e-04  3.417939837438929e-19
-2.875846378379982e-01 -1.640355120083610e-03  5.134765723038651e-18
-2.220424683168767e-01 -1.561725131391027e-04  3.953115201437640e-18
 3.047018875626104e-01  2.353356619045576e-03 -5.446713434536885e-18
-2.316018206918680e+00 -1.051928813442491e-02  4.132438850565886e-17
 1.042571774077138e+00 -2.583093334350371e-02 -1.828840488981905e-17
-3.007892742033264e+01 -7.880143980771488e+00  6.162560100655876e-16
-2.130096540853994e+00  1.014749982595354e-01  3.686499007171008e-17
-8.134875079794249e-01 -8.007829258937758e-03  1.455925810931442e-17
-1.560863205915065e+00  5.838472433676345e-02  2.717754077962201e-17
 2.496014058194815e+00  1.569612101467283e-03 -4.443567471519547e-17
-1.281045837967573e+00  2.268523636987893e-02  2.256465621065771e-17
 2.285062949185102e+00 -3.631904001157547e-02 -4.029225595990354e-17
 2.571882783694186e+00 -7.015048933739693e-03 -4.569764490757023e-17
-2.073284521052390e-01 -6.226620440146618e-04  3.696054741727480e-18
-4.651997840322580e+00  3.336168974505394e-02  8.244507142768813e-17
-1.781295495863634e-01  1.656230711034139e-02  2.999856135619816e-18
 4.643180824423875e+00 -3.938975418908899e-02 -8.222622594463247e-17
 1.821707415333742e+00 -4.419367321054915e-03 -3.237404907762191e-17
 4.217014272614707e-01 -2.317235137715245e-03 -7.480871176495290e-18
-8.363015781444584e+00 -8.475839889265237e-02  1.497007033569942e-16
-3.325804547016654e+00  1.901211564650183e-01  5.723323325984521e-17
 1.641673256078017e+01 -4.815927887878156e-01 -2.872071475507497e-16
 1.670272853993512e+01  3.413079033136003e+00 -3.323131251959222e-16
-2.521970343730320e+00  2.533868059616284e-01  4.227801320062732e-17
 3.877379625991569e+00  1.056727465153262e-01 -7.008834458999890e-17
 1.106448003759344e+01 -7.026240982685612e-01 -1.896864130977472e-16
 1.484754717547465e+01  1.529900454364049e+00 -2.799489841848643e-16
-1.568516998255028e+01  4.495299813473726e-01  2.745175525327233e-16
 4.493790942134308e+00  1.358640655539895e-02 -8.011196558445000e-17
 5.631596879147152e+00  7.322991360786460e-03 -1.002962251193965e-16
-1.635003630200233e+01 -1.249045244493982e+00  3.038018851663626e-16
-5.218426022064753e-01  1.871642118276061e-02  9.094507154415439e-18
 2.349927831796057e+00 -2.563542439613349e-02 -4.155637419060784e-17
 7.643050560200222e-01 -6.845968171745002e-03 -1.353138032860718e-17
 1.219225157464886e+00 -2.665972976466704e-02 -2.142364699944153e-17
 2.451396619035235e+00 -2.368986721810744e-02 -4.338212219646764e-17
-5.265329334681033e+00  1.992012954045213e-01  9.165609532693473e-17
 6.878991828026207e+00 -2.433502903952046e-01 -1.199195293518577e-16
 6.998729663894272e-01 -2.517752540478109e-02 -1.219638434707940e-17
 1.457992056027967e+00 -7.150458954266502e-02 -2.521202411118504e-17
-1.465266259531962e+00 -7.473046196551678e-02  2.684398924636059e-17
 1.298243160522674e+00 -6.235740336890684e-02 -2.246308597745158e-17
-7.292427482949038e-01 -6.905428867047853e-02  1.368725230766579e-17
 2.361289455951496e+00 -7.343441374206137e-02 -4.126745055690709e-17
-1.617345547715450e+00 -8.418995293470072e-01  3.743280514514069e-17
 3.523383737010672e+00 -4.356384886164526e-01 -5.822678930256702e-17
 2.658760996606322e+01  1.876669715795568e+01 -6.659792300945067e-16
 3.927806841106449e+00  1.024146858046761e+00 -8.042274492126945e-17
-3.182843722055463e-01  1.029139170071723e-01  4.606846927781179e-18
 1.928549037839331e+00  3.373842201439340e-01 -3.778733084325768e-17
-1.686182275488675e-01 -8.116431977072953e-02  3.834696396511330e-18
-1.313421454821549e-01  5.066392036040160e-02  1.816836774448127e-18
-4.773405962495154e-01 -7.697934414450933e-02  9.285780102956088e-18
-1.806371911489692e+01  2.707013072860997e+01  4.332966706874756e-17
-6.689929340952877e-01 -2.916794214798166e-02  1.220521729204244e-17
-3.687503063678799e+00 -7.151682067247304e-02  6.635832498070837e-17
 1.384847347800406e+00  8.753844686887888e-02 -2.554443619857501e-17
-4.347232650917753e+00 -2.483308532631052e-01  7.991569991111983e-17
-1.936369750783729e+00 -7.635473668947577e-02  3.524452668539216e-17
-4.684607634213425e-01 -1.728526992126276e-02  8.514417943841016e-18
-3.630888660304511e+00 -1.520567833788902e-01  6.617832302583594e-17
-1.103284445435071e+00 -3.255876259909100e-02  1.996879220952258e-17
 4.425594435824582e-01  1.245867750465046e-02 -8.003881588037956e-18
 9.787250279354518e-01  2.704018497209417e-02 -1.769540741464775e-17
 1.633003299571189e+00  4.631809889505775e-02 -2.953714327401511e-17
-1.154221372108693e+01 -6.030473176877678e-01  2.116035533363006e-16
 6.770492845642296e+00 -2.826395908802237e-01 -1.175849772078686e-16
 3.468554327515831e+00  3.341348800137029e-01 -6.516017620984538e-17
 4.495415591697743e+00 -5.994044373175806e-01 -7.384261994767893e-17
-2.037160517540427e+01 -5.716310833725510e+00  4.212700314700110e-16
-7.213684014477990e+00  1.214291716105678e+00  1.158997055668932e-16
 1.165288241701659e+01  2.282764164105442e+00 -2.308315151947518e-16
-7.866980853362990e+00  6.626538331566821e-01  1.331937809632404e-16
-4.522557500122387e+00  1.176082787812990e-01  7.927592306549541e-17
 2.331811508323995e+01 -3.797062144740554e+00 -3.759602385780779e-16
 7.966522670050297e-01 -2.247213535650333e+01  2.167156500531983e-16
-1.709488729304072e+01  2.434228726680757e+00  2.792130950217067e-16
 1.027424061936982e+01 -4.261228349499414e-01 -1.784641100249370e-16
 3.226932735971425e+01 -6.639223222157290e-01 -5.674496119097487e-16
-1.229609418484288e+01 -2.112369178088591e+00  2.405274892751738e-16
 2.813065130871089e+00 -4.528689288516732e-02 -4.959654317544335e-17
-4.406706403535122e+00 -4.344449391124900e-01  8.288636089050103e-17
-1.246640163680779e+01  2.031925872380081e+00  2.009771873953181e-16
 6.522183296425481e+00  6.398295137497906e-01 -1.226440475168221e-16
 1.809280756429382e+00 -1.109854854491333e-01 -3.105797369036927e-17
 5.382520646131674e-01  8.003393319613776e-02 -1.040115712365518e-17
-1.152659767524306e+00  1.956699738819662e-02  2.031191171307507e-17
 1.979374080551062e+00  9.336488392543771e-02 -3.618461311209842e-17
-1.083048277825031e+01 -4.826106031746967e-01  1.977000087341817e-16
-2.862097565596650e+01  1.548966359952659e+01  3.501937356007669e-16
-3.366953026158656e-01  1.784136024684336e-02  5.808581003772130e-18
 1.328118782067758e+00  5.594214220851825e-02 -2.421024315436512e-17
-4.002774268502749e+00  3.026409202429852e-01  6.812461737217377e-17
 1.086757332902359e+00  1.203926885226754e-02 -1.946384217903988e-17
-2.313372292047734e+00  9.693032524684750e-02  4.017329553440693e-17
 4.032004619712806e-01 -8.926656954073901e-03 -7.083715018216546e-18
-2.390452072413053e+00  5.404702187932087e-02  4.198563254671877e-17
-7.243976744441258e+00  2.705213719736285e-01  1.261356982689974e-16
 6.991570566879520e+00 -3.305953919031756e-01 -1.210265905289933e-16
-6.382766988114618e+00 -2.927236619600195e-01  1.165965814878486e-16
VECTORS SF_force double
0.000000000000000e+00 0.000000000000000e+00 0.000000000000000e+00
0.000000000000000e+00 0.000000000000000e+00 0.000000000000000e+00
0.000000000000000e+00 0.000000000000000e+00 0.000000000000000e+00
0.000000000000000e+00 0.000000000000000e+00 0.000000000000000e+00
0.000000000000000e+00 0.000000000000000e+00 0.000000000000000e+00
0.000000000000000e+00 0.000000000000000e+00 0.000000000000000e+00
0.000000000000000e+00 0.000000000000000e+00 0.000000000000000e+00
0.000000000000000e+00 0.000000000000000e+00 0.000000000000000e+00
0.000000000000000e+00 0.000000000000000e+00 0.000000000000000e+00
0.000000000000000e+00 0.000000000000000e+00 0.000000000000000e+00
0.000000000000000e+00 0.000000000000000e+00 0.000000000000000e+00
0.000000000000000e+00 0.000000000000000e+00 0.000000000000000e+00
0.000000000000000e+00 0.000000000000000e+00 0.000000000000000e+00
0.000000000000000e+00 0.000000000000000e+00 0.000000000000000e+00
0.000000000000000e+00 0.000000000000000e+00 0.000000000000000e+00
0.000000000000000e+00 0.000000000000000e+00 0.000000000000000e+00
0.000000000000000e+00 0.000000000000000e+00 0.000000000000000e+00
0.000000000000000e+00 0.000000000000000e+00 0.000000000000000e+00
0.000000000000000e+00 0.000000000000000e+00 0.000000000000000e+00
0.000000000000000e+00 0.000000000000000e+00 0.000000000000000e+00
0.000000000000000e+00 0.000000000000000e+00 0.000000000000000e+00
0.000000000000000e+00 0.000000000000000e+00 0.000000000000000e+00
0.000000000000000e+00 0.000000000000000e+00 0.000000000000000e+00
0.000000000000000e+00 0.000000000000000e+00 0.000000000000000e+00
0.000000000000000e+00 0.000000000000000e+00 0.000000000000000e+00
0.000000000000000e+00 0.000000000000000e+00 0.000000000000000e+00
0.000000000000000e+00 0.000000000000000e+00 0.000000000000000e+00
0.000000000000000e+00 0.000000000000000e+00 0.000000000000000e+00
0.000000000000000e+00 0.000000000000000e+00 0.000000000000000e+00
0.000000000000000e+00 0.000000000000000e+00 0.000000000000000e+00
0.000000000000000e+00 0.000000000000000e+00 0.000000000000000e+00
0.000000000000000e+00 0.000000000000000e+00 0.000000000000000e+00
0.000000000000000e+00 0.000000000000000e+00 0.000000000000000e+00
0.000000000000000e+00 0.000000000000000e+00 0.000000000000000e+00
0.000000000000000e+00 0.000000000000000e+00 0.000000000000000e+00
0.000000000000000e+00 0.000000000000000e+00 0.000000000000000e+00
0.000000000000000e+00 0.000000000000000e+00 0.000000000000000e+00
0.000000000000000e+00 0.000000000000000e+00 0.000000000000000e+00
0.000000000000000e+00 0.000000000000000e+00 0.000000000000000e+00
0.000000000000000e+00 0.000000000000000e+00 0.000000000000000e+00
0.000000000000000e+00 0.000000000000000e+00 0.000000000000000e+00
0.000000000000000e+00 0.000000000000000e+00 0.000000000000000e+00
0.000000000000000e+00 0.000000000000000e+00 0.000000000000000e+00
0.000000000000000e+00 0.000000000000000e+00 0.000000000000000e+00
0.000000000000000e+00 0.000000000000000e+00 0.000000000000000e+00
0.000000000000000e+00 0.000000000000000e+00 0.000000000000000e+00
0.000000000000000e+00 0.000000000000000e+00 0.000000000000000e+00
0.000000000000000e+00 0.000000000000000e+00 0.000000000000000e+00
0.000000000000000e+00 0.000000000000000e+00 0.000000000000000e+00
0.000000000000000e+00 0.000000000000000e+00 0.000000000000000e+00
0.000000000000000e+00 0.000000000000000e+00 0.000000000000000e+00
0.000000000000000e+00 0.000000000000000e+00 0.000000000000000e+00
0.000000000000000e+00 0.000000000000000e+00 0.000000000000000e+00
0.000000000000000e+00 0.000000000000000e+00 0.000000000000000e+00
0.000000000000000e+00 0.000000000000000e+00 0.000000000000000e+00
0.000000000000000e+00 0.000000000000000e+00 0.000000000000000e+00
0.000000000000000e+00 0.000000000000000e+00 0.000000000000000e+00
0.000000000000000e+00 0.000000000000000e+00 0.000000000000000e+00
0.000000000000000e+00 0.000000000000000e+00 0.000000000000000e+00
0.000000000000000e+00 0.000000000000000e+00 0.000000000000000e+00
0.000000000000000e+00 0.000000000000000e+00 0.000000000000000e+00
0.000000000000000e+00 0.000000000000000e+00 0.000000000000000e+00
0.000000000000000e+00 0.000000000000000e+00 0.000000000000000e+00
0.000000000000000e+00 0.000000000000000e+00 0.000000000000000e+00
0.000000000000000e+00 0.000000000000000e+00 0.000000000000000e+00
0.000000000000000e+00 0.000000000000000e+00 0.000000000000000e+00
0.000000000000000e+00 0.000000000000000e+00 0.000000000000000e+00
0.000000000000000e+00 0.000000000000000e+00 0.000000000000000e+00
0.000000000000000e+00 0.000000000000000e+00 0.000000000000000e+00
0.000000000000000e+00 0.000000000000000e+00 0.000000000000000e+00
0.000000000000000e+00 0.000000000000000e+00 0.000000000000000e+00
0.000000000000000e+00 0.000000000000000e+00 0.000000000000000e+00
0.000000000000000e+00 0.000000000000000e+00 0.000000000000000e+00
0.000000000000000e+00 0.000000000000000e+00 0.000000000000000e+00
0.000000000000000e+00 0.000000000000000e+00 0.000000000000000e+00
0.000000000000000e+00 0.000000000000000e+00 0.000000000000000e+00
0.000000000000000e+00 0.000000000000000e+00 0.000000000000000e+00
0.000000000000000e+00 0.000000000000000e+00 0.000000000000000e+00
0.000000000000000e+00 0.000000000000000e+00 0.000000000000000e+00
0.000000000000000e+00 0.000000000000000e+00 0.000000000000000e+00
0.000000000000000e+00 0.000000000000000e+00 0.000000000000000e+00
0.000000000000000e+00 0.000000000000000e+00 0.000000000000000e+00
0.000000000000000e+00 0.000000000000000e+00 0.000000000000000e+00
0.000000000000000e+00 0.000000000000000e+00 0.000000000000000e+00
0.000000000000000e+00 0.000000000000000e+00 0.000000000000000e+00
0.000000000000000e+00 0.000000000000000e+00 0.000000000000000e+00
0.000000000000000e+00 0.000000000000000e+00 0.000000000000000e+00
0.000000000000000e+00 0.000000000000000e+00 0.000000000000000e+00
0.000000000000000e+00 0.000000000000000e+00 0.000000000000000e+00
0.000000000000000e+00 0.000000000000000e+00 0.000000000000000e+00
0.000000000000000e+00 0.000000000000000e+00 0.000000000000000e+00
0.000000000000000e+00 0.000000000000000e+00 0.000000000000000e+00
0.000000000000000e+00 0.000000000000000e+00 0.000000000000000e+00
0.000000000000000e+00 0.000000000000000e+00 0.000000000000000e+00
0.000000000000000e+00 0.000000000000000e+00 0.000000000000000e+00
0.000000000000000e+00 0.000000000000000e+00 0.000000000000000e+00
0.000000000000000e+00 0.000000000000000e+00 0.000000000000000e+00
0.000000000000000e+00 0.000000000000000e+00 0.000000000000000e+00
0.000000000000000e+00 0.000000000000000e+00 0.000000000000000e+00
0.000000000000000e+00 0.000000000000000e+00 0.000000000000000e+00
0.000000000000000e+00 0.000000000000000e+00 0.000000000000000e+00
0.000000000000000e+00 0.000000000000000e+00 0.000000000000000e+00
0.000000000000000e+00 0.000000000000000e+00 0.000000000000000e+00
0.000000000000000e+00 0.000000000000000e+00 0.000000000000000e+00
0.000000000000000e+00 0.000000000000000e+00 0.000000000000000e+00
0.000000000000000e+00 0.000000000000000e+00 0.000000000000000e+00
0.000000000000000e+00 0.000000000000000e+00 0.000000000000000e+00
0.000000000000000e+00 0.000000000000000e+00 0.000000000000000e+00
0.000000000000000e+00 0.000000000000000e+00 0.000000000000000e+00
0.000000000000000e+00 0.000000000000000e+00 0.000000000000000e+00
0.000000000000000e+00 0.000000000000000e+00 0.000000000000000e+00
0.000000000000000e+00 0.000000000000000e+00 0.000000000000000e+00
0.000000000000000e+00 0.000000000000000e+00 0.000000000000000e+00
0.000000000000000e+00 0.000000000000000e+00 0.000000000000000e+00
0.000000000000000e+00 0.000000000000000e+00 0.000000000000000e+00
0.000000000000000e+00 0.000000000000000e+00 0.000000000000000e+00
0.000000000000000e+00 0.000000000000000e+00 0.000000000000000e+00
0.000000000000000e+00 0.000000000000000e+00 0.000000000000000e+00
0.000000000000000e+00 0.000000000000000e+00 0.000000000000000e+00
0.000000000000000e+00 0.000000000000000e+00 0.000000000000000e+00
0.000000000000000e+00 0.000000000000000e+00 0.000000000000000e+00
0.000000000000000e+00 0.000000000000000e+00 0.000000000000000e+00
0.000000000000000e+00 0.000000000000000e+00 0.000000000000000e+00
0.000000000000000e+00 0.000000000000000e+00 0.000000000000000e+00
0.000000000000000e+00 0.000000000000000e+00 0.000000000000000e+00
0.000000000000000e+00 0.000000000000000e+00 0.000000000000000e+00
0.000000000000000e+00 0.000000000000000e+00 0.000000000000000e+00
0.000000000000000e+00 0.000000000000000e+00 0.000000000000000e+00
0.000000000000000e+00 0.000000000000000e+00 0.000000000000000e+00
0.000000000000000e+00 0.000000000000000e+00 0.000000000000000e+00
0.000000000000000e+00 0.000000000000000e+00 0.000000000000000e+00
0.000000000000000e+00 0.000000000000000e+00 0.000000000000000e+00
0.000000000000000e+00 0.000000000000000e+00 0.000000000000000e+00
0.000000000000000e+00 0.000000000000000e+00 0.000000000000000e+00
0.000000000000000e+00 0.000000000000000e+00 0.000000000000000e+00
0.000000000000000e+00 0.000000000000000e+00 0.000000000000000e+00
0.000000000000000e+00 0.000000000000000e+00 0.000000000000000e+00
0.000000000000000e+00 0.000000000000000e+00 0.000000000000000e+00
0.000000000000000e+00 0.000000000000000e+00 0.000000000000000e+00
0.000000000000000e+00 0.000000000000000e+00 0.000000000000000e+00
0.000000000000000e+00 0.000000000000000e+00 0.000000000000000e+00
0.000000000000000e+00 0.000000000000000e+00 0.000000000000000e+00
0.000000000000000e+00 0.000000000000000e+00 0.000000000000000e+00
0.000000000000000e+00 0.000000000000000e+00 0.000000000000000e+00
0.000000000000000e+00 0.000000000000000e+00 0.000000000000000e+00
0.000000000000000e+00 0.000000000000000e+00 0.000000000000000e+00
0.000000000000000e+00 0.000000000000000e+00 0.000000000000000e+00
0.000000000000000e+00 0.000000000000000e+00 0.000000000000000e+00
0.000000000000000e+00 0.000000000000000e+00 0.000000000000000e+00
0.000000000000000e+00 0.000000000000000e+00 0.000000000000000e+00
0.000000000000000e+00 0.000000000000000e+00 0.000000000000000e+00
0.000000000000000e+00 0.000000000000000e+00 0.000000000000000e+00
0.000000000000000e+00 0.000000000000000e+00 0.000000000000000e+00
0.000000000000000e+00 0.000000000000000e+00 0.000000000000000e+00
0.000000000000000e+00 0.000000000000000e+00 0.000000000000000e+00
0.000000000000000e+00 0.000000000000000e+00 0.000000000000000e+00
0.000000000000000e+00 0.000000000000000e+00 0.000000000000000e+00
0.000000000000000e+00 0.000000000000000e+00 0.000000000000000e+00
0.000000000000000e+00 0.000000000000000e+00 0.000000000000000e+00
0.000000000000000e+00 0.000000000000000e+00 0.000000000000000e+00
0.000000000000000e+00 0.000000000000000e+00 0.000000000000000e+00
0.000000000000000e+00 0.000000000000000e+00 0.000000000000000e+00
0.000000000000000e+00 0.000000000000000e+00 0.000000000000000e+00
0.000000000000000e+00 0.000000000000000e+00 0.000000000000000e+00
0.000000000000000e+00 0.000000000000000e+00 0.000000000000000e+00
0.000000000000000e+00 0.000000000000000e+00 0.000000000000000e+00
0.000000000000000e+00 0.000000000000000e+00 0.000000000000000e+00
0.000000000000000e+00 0.000000000000000e+00 0.000000000000000e+00
0.000000000000000e+00 0.000000000000000e+00 0.000000000000000e+00
0.000000000000000e+00 0.000000000000000e+00 0.000000000000000e+00
0.000000000000000e+00 0.000000000000000e+00 0.000000000000000e+00
0.000000000000000e+00 0.000000000000000e+00 0.000000000000000e+00
0.000000000000000e+00 0.000000000000000e+00 0.000000000000000e+00
0.000000000000000e+00 0.000000000000000e+00 0.000000000000000e+00
0.000000000000000e+00 0.000000000000000e+00 0.000000000000000e+00
0.000000000000000e+00 0.000000000000000e+00 0.000000000000000e+00
0.000000000000000e+00 0.000000000000000e+00 0.000000000000000e+00
0.000000000000000e+00 0.000000000000000e+00 0.000000000000000e+00
0.000000000000000e+00 0.000000000000000e+00 0.000000000000000e+00
0.000000000000000e+00 0.000000000000000e+00 0.000000000000000e+00
0.000000000000000e+00 0.000000000000000e+00 0.000000000000000e+00
0.000000000000000e+00 0.000000000000000e+00 0.000000000000000e+00
0.000000000000000e+00 0.000000000000000e+00 0.000000000000000e+00
0.000000000000000e+00 0.000000000000000e+00 0.000000000000000e+00
0.000000000000000e+00 0.000000000000000e+00 0.000000000000000e+00
0.000000000000000e+00 0.000000000000000e+00 0.000000000000000e+00
0.000000000000000e+00 0.000000000000000e+00 0.000000000000000e+00
0.000000000000000e+00 0.000000000000000e+00 0.000000000000000e+00
0.000000000000000e+00 0.000000000000000e+00 0.000000000000000e+00
0.000000000000000e+00 0.000000000000000e+00 0.000000000000000e+00
0.000000000000000e+00 0.000000000000000e+00 0.000000000000000e+00
0.000000000000000e+00 0.000000000000000e+00 0.000000000000000e+00
0.000000000000000e+00 0.000000000000000e+00 0.000000000000000e+00
0.000000000000000e+00 0.000000000000000e+00 0.000000000000000e+00
0.000000000000000e+00 0.000000000000000e+00 0.000000000000000e+00
0.000000000000000e+00 0.000000000000000e+00 0.000000000000000e+00
0.000000000000000e+00 0.000000000000000e+00 0.000000000000000e+00
0.000000000000000e+00 0.000000000000000e+00 0.000000000000000e+00
0.000000000000000e+00 0.000000000000000e+00 0.000000000000000e+00
0.000000000000000e+00 0.000000000000000e+00 0.000000000000000e+00
0.000000000000000e+00 0.000000000000000e+00 0.000000000000000e+00
0.000000000000000e+00 0.000000000000000e+00 0.000000000000000e+00
0.000000000000000e+00 0.000000000000000e+00 0.000000000000000e+00
0.000000000000000e+00 0.000000000000000e+00 0.000000000000000e+00
0.000000000000000e+00 0.000000000000000e+00 0.000000000000000e+00
0.000000000000000e+00 0.000000000000000e+00 0.000000000000000e+00
0.000000000000000e+00 0.000000000000000e+00 0.000000000000000e+00
0.000000000000000e+00 0.000000000000000e+00 0.000000000000000e+00
0.000000000000000e+00 0.000000000000000e+00 0.000000000000000e+00
0.000000000000000e+00 0.000000000000000e+00 0.000000000000000e+00
0.000000000000000e+00 0.000000000000000e+00 0.000000000000000e+00
0.000000000000000e+00 0.000000000000000e+00 0.000000000000000e+00
0.000000000000000e+00 0.000000000000000e+00 0.000000000000000e+00
0.000000000000000e+00 0.000000000000000e+00 0.000000000000000e+00
0.000000000000000e+00 0.000000000000000e+00 0.000000000000000e+00
0.000000000000000e+00 0.000000000000000e+00 0.000000000000000e+00
0.000000000000000e+00 0.000000000000000e+00 0.000000000000000e+00
0.000000000000000e+00 0.000000000000000e+00 0.000000000000000e+00
0.000000000000000e+00 0.000000000000000e+00 0.000000000000000e+00
0.000000000000000e+00 0.000000000000000e+00 0.000000000000000e+00
0.000000000000000e+00 0.000000000000000e+00 0.000000000000000e+00
0.000000000000000e+00 0.000000000000000e+00 0.000000000000000e+00
0.000000000000000e+00 0.000000000000000e+00 0.000000000000000e+00
0.000000000000000e+00 0.000000000000000e+00 0.000000000000000e+00
0.000000000000000e+00 0.000000000000000e+00 0.000000000000000e+00
0.000000000000000e+00 0.000000000000000e+00 0.000000000000000e+00
0.000000000000000e+00 0.000000000000000e+00 0.000000000000000e+00
0.000000000000000e+00 0.000000000000000e+00 0.000000000000000e+00
0.000000000000000e+00 0.000000000000000e+00 0.000000000000000e+00
0.000000000000000e+00 0.000000000000000e+00 0.000000000000000e+00
0.000000000000000e+00 0.000000000000000e+00 0.000000000000000e+00
0.000000000000000e+00 0.000000000000000e+00 0.000000000000000e+00
0.000000000000000e+00 0.000000000000000e+00 0.000000000000000e+00
0.000000000000000e+00 0.000000000000000e+00 0.000000000000000e+00
0.000000000000000e+00 0.000000000000000e+00 0.000000000000000e+00
0.000000000000000e+00 0.000000000000000e+00 0.000000000000000e+00
0.000000000000000e+00 0.000000000000000e+00 0.000000000000000e+00
0.000000000000000e+00 0.000000000000000e+00 0.000000000000000e+00
0.000000000000000e+00 0.000000000000000e+00 0.000000000000000e+00
0.000000000000000e+00 0.000000000000000e+00 0.000000000000000e+00
0.000000000000000e+00 0.000000000000000e+00 0.000000000000000e+00
0.000000000000000e+00 0.000000000000000e+00 0.000000000000000e+00
0.000000000000000e+00 0.000000000000000e+00 0.000000000000000e+00
0.000000000000000e+00 0.000000000000000e+00 0.000000000000000e+00
0.000000000000000e+00 0.000000000000000e+00 0.000000000000000e+00
0.000000000000000e+00 0.000000000000000e+00 0.000000000000000e+00
0.000000000000000e+00 0.000000000000000e+00 0.000000000000000e+00
0.000000000000000e+00 0.000000000000000e+00 0.000000000000000e+00
0.000000000000000e+00 0.000000000000000e+00 0.000000000000000e+00
0.000000000000000e+00 0.000000000000000e+00 0.000000000000000e+00
0.000000000000000e+00 0.000000000000000e+00 0.000000000000000e+00
0.000000000000000e+00 0.000000000000000e+00 0.000000000000000e+00
0.000000000000000e+00 0.000000000000000e+00 0.000000000000000e+00
0.000000000000000e+00 0.000000000000000e+00 0.000000000000000e+00
0.000000000000000e+00 0.000000000000000e+00 0.000000000000000e+00
0.000000000000000e+00 0.000000000000000e+00 0.000000000000000e+00
0.000000000000000e+00 0.000000000000000e+00 0.000000000000000e+00
0.000000000000000e+00 0.000000000000000e+00 0.000000000000000e+00
0.000000000000000e+00 0.000000000000000e+00 0.000000000000000e+00
0.000000000000000e+00 0.000000000000000e+00 0.000000000000000e+00
0.000000000000000e+00 0.000000000000000e+00 0.000000000000000e+00
0.000000000000000e+00 0.000000000000000e+00 0.000000000000000e+00
0.000000000000000e+00 0.000000000000000e+00 0.000000000000000e+00
0.000000000000000e+00 0.000000000000000e+00 0.000000000000000e+00
0.000000000000000e+00 0.000000000000000e+00 0.000000000000000e+00
0.000000000000000e+00 0.000000000000000e+00 0.000000000000000e+00
0.000000000000000e+00 0.000000000000000e+00 0.000000000000000e+00
0.000000000000000e+00 0.000000000000000e+00 0.000000000000000e+00
0.000000000000000e+00 0.000000000000000e+00 0.000000000000000e+00
0.000000000000000e+00 0.000000000000000e+00 0.000000000000000e+00
0.000000000000000e+00 0.000000000000000e+00 0.000000000000000e+00
0.000000000000000e+00 0.000000000000000e+00 0.000000000000000e+00
0.000000000000000e+00 0.000000000000000e+00 0.000000000000000e+00
0.000000000000000e+00 0.000000000000000e+00 0.000000000000000e+00
0.000000000000000e+00 0.000000000000000e+00 0.000000000000000e+00
0.000000000000000e+00 0.000000000000000e+00 0.000000000000000e+00
0.000000000000000e+00 0.000000000000000e+00 0.000000000000000e+00
0.000000000000000e+00 0.000000000000000e+00 0.000000000000000e+00
0.000000000000000e+00 0.000000000000000e+00 0.000000000000000e+00
0.000000000000000e+00 0.000000000000000e+00 0.000000000000000e+00
0.000000000000000e+00 0.000000000000000e+00 0.000000000000000e+00
0.000000000000000e+00 0.000000000000000e+00 0.000000000000000e+00
0.000000000000000e+00 0.000000000000000e+00 0.000000000000000e+00
0.000000000000000e+00 0.000000000000000e+00 0.000000000000000e+00
0.000000000000000e+00 0.000000000000000e+00 0.000000000000000e+00
0.000000000000000e+00 0.000000000000000e+00 0.000000000000000e+00
0.000000000000000e+00 0.000000000000000e+00 0.000000000000000e+00
0.000000000000000e+00 0.000000000000000e+00 0.000000000000000e+00
0.000000000000000e+00 0.000000000000000e+00 0.000000000000000e+00
0.000000000000000e+00 0.000000000000000e+00 0.000000000000000e+00
0.000000000000000e+00 0.000000000000000e+00 0.000000000000000e+00
0.000000000000000e+00 0.000000000000000e+00 0.000000000000000e+00
0.000000000000000e+00 0.000000000000000e+00 0.000000000000000e+00
0.000000000000000e+00 0.000000000000000e+00 0.000000000000000e+00
0.000000000000000e+00 0.000000000000000e+00 0.000000000000000e+00
0.000000000000000e+00 0.000000000000000e+00 0.000000000000000e+00
0.000000000000000e+00 0.000000000000000e+00 0.000000000000000e+00
0.000000000000000e+00 0.000000000000000e+00 0.000000000000000e+00
0.000000000000000e+00 0.000000000000000e+00 0.000000000000000e+00
0.000000000000000e+00 0.000000000000000e+00 0.000000000000000e+00
0.000000000000000e+00 0.000000000000000e+00 0.000000000000000e+00
0.000000000000000e+00 0.000000000000000e+00 0.000000000000000e+00
0.000000000000000e+00 0.000000000000000e+00 0.000000000000000e+00
0.000000000000000e+00 0.000000000000000e+00 0.000000000000000e+00
0.000000000000000e+00 0.000000000000000e+00 0.000000000000000e+00
0.000000000000000e+00 0.000000000000000e+00 0.000000000000000e+00
0.000000000000000e+00 0.000000000000000e+00 0.000000000000000e+00
0.000000000000000e+00 0.000000000000000e+00 0.000000000000000e+00
0.000000000000000e+00 0.000000000000000e+00 0.000000000000000e+00
0.000000000000000e+00 0.000000000000000e+00 0.000000000000000e+00
0.000000000000000e+00 0.000000000000000e+00 0.000000000000000e+00
0.000000000000000e+00 0.000000000000000e+00 0.000000000000000e+00
0.000000000000000e+00 0.000000000000000e+00 0.000000000000000e+00
0.000000000000000e+00 0.000000000000000e+00 0.000000000000000e+00
0.000000000000000e+00 0.000000000000000e+00 0.000000000000000e+00
0.000000000000000e+00 0.000000000000000e+00 0.000000000000000e+00
0.000000000000000e+00 0.000000000000000e+00 0.000000000000000e+00
0.000000000000000e+00 0.000000000000000e+00 0.000000000000000e+00
0.000000000000000e+00 0.000000000000000e+00 0.000000000000000e+00
0.000000000000000e+00 0.000000000000000e+00 0.000000000000000e+00
0.000000000000000e+00 0.000000000000000e+00 0.000000000000000e+00
0.000000000000000e+00 0.000000000000000e+00 0.000000000000000e+00
0.000000000000000e+00 0.000000000000000e+00 0.000000000000000e+00
0.000000000000000e+00 0.000000000000000e+00 0.000000000000000e+00
0.000000000000000e+00 0.000000000000000e+00 0.000000000000000e+00
0.000000000000000e+00 0.000000000000000e+00 0.000000000000000e+00
0.000000000000000e+00 0.000000000000000e+00 0.000000000000000e+00
0.000000000000000e+00 0.000000000000000e+00 0.000000000000000e+00
0.000000000000000e+00 0.000000000000000e+00 0.000000000000000e+00
0.000000000000000e+00 0.000000000000000e+00 0.000000000000000e+00
0.000000000000000e+00 0.000000000000000e+00 0.000000000000000e+00
0.000000000000000e+00 0.000000000000000e+00 0.000000000000000e+00
0.000000000000000e+00 0.000000000000000e+00 0.000000000000000e+00
0.000000000000000e+00 0.000000000000000e+00 0.000000000000000e+00
0.000000000000000e+00 0.000000000000000e+00 0.000000000000000e+00
0.000000000000000e+00 0.000000000000000e+00 0.000000000000000e+00
0.000000000000000e+00 0.000000000000000e+00 0.000000000000000e+00
0.000000000000000e+00 0.000000000000000e+00 0.000000000000000e+00
0.000000000000000e+00 0.000000000000000e+00 0.000000000000000e+00
0.000000000000000e+00 0.000000000000000e+00 0.000000000000000e+00
0.000000000000000e+00 0.000000000000000e+00 0.000000000000000e+00
0.000000000000000e+00 0.000000000000000e+00 0.000000000000000e+00
0.000000000000000e+00 0.000000000000000e+00 0.000000000000000e+00
0.000000000000000e+00 0.000000000000000e+00 0.000000000000000e+00
0.000000000000000e+00 0.000000000000000e+00 0.000000000000000e+00
0.000000000000000e+00 0.000000000000000e+00 0.000000000000000e+00
0.000000000000000e+00 0.000000000000000e+00 0.000000000000000e+00
0.000000000000000e+00 0.000000000000000e+00 0.000000000000000e+00
0.000000000000000e+00 0.000000000000000e+00 0.000000000000000e+00
0.000000000000000e+00 0.000000000000000e+00 0.000000000000000e+00
0.000000000000000e+00 0.000000000000000e+00 0.000000000000000e+00
0.000000000000000e+00 0.000000000000000e+00 0.000000000000000e+00
0.000000000000000e+00 0.000000000000000e+00 0.000000000000000e+00
0.000000000000000e+00 0.000000000000000e+00 0.000000000000000e+00
0.000000000000000e+00 0.000000000000000e+00 0.000000000000000e+00
0.000000000000000e+00 0.000000000000000e+00 0.000000000000000e+00
0.000000000000000e+00 0.000000000000000e+00 0.000000000000000e+00
0.000000000000000e+00 0.000000000000000e+00 0.000000000000000e+00
0.000000000000000e+00 0.000000000000000e+00 0.000000000000000e+00
0.000000000000000e+00 0.000000000000000e+00 0.000000000000000e+00
0.000000000000000e+00 0.000000000000000e+00 0.000000000000000e+00
0.000000000000000e+00 0.000000000000000e+00 0.000000000000000e+00
0.000000000000000e+00 0.000000000000000e+00 0.000000000000000e+00
0.000000000000000e+00 0.000000000000000e+00 0.000000000000000e+00
0.000000000000000e+00 0.000000000000000e+00 0.000000000000000e+00
0.000000000000000e+00 0.000000000000000e+00 0.000000000000000e+00
0.000000000000000e+00 0.000000000000000e+00 0.000000000000000e+00
0.000000000000000e+00 0.000000000000000e+00 0.000000000000000e+00
0.000000000000000e+00 0.000000000000000e+00 0.000000000000000e+00
0.000000000000000e+00 0.000000000000000e+00 0.000000000000000e+00
0.000000000000000e+00 0.000000000000000e+00 0.000000000000000e+00
0.000000000000000e+00 0.000000000000000e+00 0.000000000000000e+00
0.000000000000000e+00 0.000000000000000e+00 0.000000000000000e+00
0.000000000000000e+00 0.000000000000000e+00 0.000000000000000e+00
0.000000000000000e+00 0.000000000000000e+00 0.000000000000000e+00
0.000000000000000e+00 0.000000000000000e+00 0.000000000000000e+00
0.000000000000000e+00 0.000000000000000e+00 0.000000000000000e+00
0.000000000000000e+00 0.000000000000000e+00 0.000000000000000e+00
0.000000000000000e+00 0.000000000000000e+00 0.000000000000000e+00
0.000000000000000e+00 0.000000000000000e+00 0.000000000000000e+00
0.000000000000000e+00 0.000000000000000e+00 0.000000000000000e+00
0.000000000000000e+00 0.000000000000000e+00 0.000000000000000e+00
0.000000000000000e+00 0.000000000000000e+00 0.000000000000000e+00
0.000000000000000e+00 0.000000000000000e+00 0.000000000000000e+00
0.000000000000000e+00 0.000000000000000e+00 0.000000000000000e+00
0.000000000000000e+00 0.000000000000000e+00 0.000000000000000e+00
0.000000000000000e+00 0.000000000000000e+00 0.000000000000000e+00
0.000000000000000e+00 0.000000000000000e+00 0.000000000000000e+00
0.000000000000000e+00 0.000000000000000e+00 0.000000000000000e+00
0.000000000000000e+00 0.000000000000000e+00 0.000000000000000e+00
0.000000000000000e+00 0.000000000000000e+00 0.000000000000000e+00
0.000000000000000e+00 0.000000000000000e+00 0.000000000000000e+00
0.000000000000000e+00 0.000000000000000e+00 0.000000000000000e+00
0.000000000000000e+00 0.000000000000000e+00 0.000000000000000e+00
0.000000000000000e+00 0.000000000000000e+00 0.000000000000000e+00
0.000000000000000e+00 0.000000000000000e+00 0.000000000000000e+00
0.000000000000000e+00 0.000000000000000e+00 0.000000000000000e+00
0.000000000000000e+00 0.000000000000000e+00 0.000000000000000e+00
0.000000000000000e+00 0.000000000000000e+00 0.000000000000000e+00
0.000000000000000e+00 0.000000000000000e+00 0.000000000000000e+00
0.000000000000000e+00 0.000000000000000e+00 0.000000000000000e+00
0.000000000000000e+00 0.000000000000000e+00 0.000000000000000e+00
0.000000000000000e+00 0.000000000000000e+00 0.000000000000000e+00
0.000000000000000e+00 0.000000000000000e+00 0.000000000000000e+00
0.000000000000000e+00 0.000000000000000e+00 0.000000000000000e+00
0.000000000000000e+00 0.000000000000000e+00 0.000000000000000e+00
0.000000000000000e+00 0.000000000000000e+00 0.000000000000000e+00
0.000000000000000e+00 0.000000000000000e+00 0.000000000000000e+00
0.000000000000000e+00 0.000000000000000e+00 0.000000000000000e+00
0.000000000000000e+00 0.000000000000000e+00 0.000000000000000e+00
0.000000000000000e+00 0.000000000000000e+00 0.000000000000000e+00
0.000000000000000e+00 0.000000000000000e+00 0.000000000000000e+00
0.000000000000000e+00 0.000000000000000e+00 0.000000000000000e+00
0.000000000000000e+00 0.000000000000000e+00 0.000000000000000e+00
0.000000000000000e+00 0.000000000000000e+00 0.000000000000000e+00
0.000000000000000e+00 0.000000000000000e+00 0.000000000000000e+00
0.000000000000000e+00 0.000000000000000e+00 0.000000000000000e+00
0.000000000000000e+00 0.000000000000000e+00 0.000000000000000e+00
0.000000000000000e+00 0.000000000000000e+00 0.000000000000000e+00
0.000000000000000e+00 0.000000000000000e+00 0.000000000000000e+00
0.000000000000000e+00 0.000000000000000e+00 0.000000000000000e+00
0.000000000000000e+00 0.000000000000000e+00 0.000000000000000e+00
0.000000000000000e+00 0.000000000000000e+00 0.000000000000000e+00
0.000000000000000e+00 0.000000000000000e+00 0.000000000000000e+00
0.000000000000000e+00 0.000000000000000e+00 0.000000000000000e+00
0.000000000000000e+00 0.000000000000000e+00 0.000000000000000e+00
0.000000000000000e+00 0.000000000000000e+00 0.000000000000000e+00
0.000000000000000e+00 0.000000000000000e+00 0.000000000000000e+00
0.000000000000000e+00 0.000000000000000e+00 0.000000000000000e+00
0.000000000000000e+00 0.000000000000000e+00 0.000000000000000e+00
0.000000000000000e+00 0.000000000000000e+00 0.000000000000000e+00
0.000000000000000e+00 0.000000000000000e+00 0.000000000000000e+00
0.000000000000000e+00 0.000000000000000e+00 0.000000000000000e+00
0.000000000000000e+00 0.000000000000000e+00 0.000000000000000e+00
0.000000000000000e+00 0.000000000000000e+00 0.000000000000000e+00
0.000000000000000e+00 0.000000000000000e+00 0.000000000000000e+00
0.000000000000000e+00 0.000000000000000e+00 0.000000000000000e+00
0.000000000000000e+00 0.000000000000000e+00 0.000000000000000e+00
0.000000000000000e+00 0.000000000000000e+00 0.000000000000000e+00
0.000000000000000e+00 0.000000000000000e+00 0.000000000000000e+00
0.000000000000000e+00 0.000000000000000e+00 0.000000000000000e+00
0.000000000000000e+00 0.000000000000000e+00 0.000000000000000e+00
0.000000000000000e+00 0.000000000000000e+00 0.000000000000000e+00
0.000000000000000e+00 0.000000000000000e+00 0.000000000000000e+00
0.000000000000000e+00 0.000000000000000e+00 0.000000000000000e+00
0.000000000000000e+00 0.000000000000000e+00 0.000000000000000e+00
0.000000000000000e+00 0.000000000000000e+00 0.000000000000000e+00
0.000000000000000e+00 0.000000000000000e+00 0.000000000000000e+00
0.000000000000000e+00 0.000000000000000e+00 0.000000000000000e+00
0.000000000000000e+00 0.000000000000000e+00 0.000000000000000e+00
0.000000000000000e+00 0.000000000000000e+00 0.000000000000000e+00
0.000000000000000e+00 0.000000000000000e+00 0.000000000000000e+00
0.000000000000000e+00 0.000000000000000e+00 0.000000000000000e+00
0.000000000000000e+00 0.000000000000000e+00 0.000000000000000e+00
0.000000000000000e+00 0.000000000000000e+00 0.000000000000000e+00
0.000000000000000e+00 0.000000000000000e+00 0.000000000000000e+00
0.000000000000000e+00 0.000000000000000e+00 0.000000000000000e+00
0.000000000000000e+00 0.000000000000000e+00 0.000000000000000e+00
0.000000000000000e+00 0.000000000000000e+00 0.000000000000000e+00
0.000000000000000e+00 0.000000000000000e+00 0.000000000000000e+00
0.000000000000000e+00 0.000000000000000e+00 0.000000000000000e+00
0.000000000000000e+00 0.000000000000000e+00 0.000000000000000e+00
0.000000000000000e+00 0.000000000000000e+00 0.000000000000000e+00
0.000000000000000e+00 0.000000000000000e+00 0.000000000000000e+00
0.000000000000000e+00 0.000000000000000e+00 0.000000000000000e+00
0.000000000000000e+00 0.000000000000000e+00 0.000000000000000e+00
0.000000000000000e+00 0.000000000000000e+00 0.000000000000000e+00
0.000000000000000e+00 0.000000000000000e+00 0.000000000000000e+00
0.000000000000000e+00 0.000000000000000e+00 0.000000000000000e+00
0.000000000000000e+00 0.000000000000000e+00 0.000000000000000e+00
0.000000000000000e+00 0.000000000000000e+00 0.000000000000000e+00
0.000000000000000e+00 0.000000000000000e+00 0.000000000000000e+00
0.000000000000000e+00 0.000000000000000e+00 0.000000000000000e+00
0.000000000000000e+00 0.000000000000000e+00 0.000000000000000e+00
0.000000000000000e+00 0.000000000000000e+00 0.000000000000000e+00
0.000000000000000e+00 0.000000000000000e+00 0.000000000000000e+00
0.000000000000000e+00 0.000000000000000e+00 0.000000000000000e+00
0.000000000000000e+00 0.000000000000000e+00 0.000000000000000e+00
0.000000000000000e+00 0.000000000000000e+00 0.000000000000000e+00
0.000000000000000e+00 0.000000000000000e+00 0.000000000000000e+00
0.000000000000000e+00 0.000000000000000e+00 0.000000000000000e+00
0.000000000000000e+00 0.000000000000000e+00 0.000000000000000e+00
0.000000000000000e+00 0.000000000000000e+00 0.000000000000000e+00
0.000000000000000e+00 0.000000000000000e+00 0.000000000000000e+00
0.000000000000000e+00 0.000000000000000e+00 0.000000000000000e+00
0.000000000000000e+00 0.000000000000000e+00 0.000000000000000e+00
0.000000000000000e+00 0.000000000000000e+00 0.000000000000000e+00
0.000000000000000e+00 0.000000000000000e+00 0.000000000000000e+00
0.000000000000000e+00 0.000000000000000e+00 0.000000000000000e+00
0.000000000000000e+00 0.000000000000000e+00 0.000000000000000e+00
0.000000000000000e+00 0.000000000000000e+00 0.000000000000000e+00
0.000000000000000e+00 0.000000000000000e+00 0.000000000000000e+00
0.000000000000000e+00 0.000000000000000e+00 0.000000000000000e+00
0.000000000000000e+00 0.000000000000000e+00 0.000000000000000e+00
0.000000000000000e+00 0.000000000000000e+00 0.000000000000000e+00
0.000000000000000e+00 0.000000000000000e+00 0.000000000000000e+00
0.000000000000000e+00 0.000000000000000e+00 0.000000000000000e+00
0.000000000000000e+00 0.000000000000000e+00 0.000000000000000e+00
0.000000000000000e+00 0.000000000000000e+00 0.000000000000000e+00
0.000000000000000e+00 0.000000000000000e+00 0.000000000000000e+00
0.000000000000000e+00 0.000000000000000e+00 0.000000000000000e+00
0.000000000000000e+00 0.000000000000000e+00 0.000000000000000e+00
0.000000000000000e+00 0.000000000000000e+00 0.000000000000000e+00
0.000000000000000e+00 0.000000000000000e+00 0.000000000000000e+00
0.000000000000000e+00 0.000000000000000e+00 0.000000000000000e+00
0.000000000000000e+00 0.000000000000000e+00 0.000000000000000e+00
0.000000000000000e+00 0.000000000000000e+00 0.000000000000000e+00
0.000000000000000e+00 0.000000000000000e+00 0.000000000000000e+00
0.000000000000000e+00 0.000000000000000e+00 0.000000000000000e+00
0.000000000000000e+00 0.000000000000000e+00 0.000000000000000e+00
0.000000000000000e+00 0.000000000000000e+00 0.000000000000000e+00
0.000000000000000e+00 0.000000000000000e+00 0.000000000000000e+00
0.000000000000000e+00 0.000000000000000e+00 0.000000000000000e+00
0.000000000000000e+00 0.000000000000000e+00 0.000000000000000e+00
0.000000000000000e+00 0.000000000000000e+00 0.000000000000000e+00
0.000000000000000e+00 0.000000000000000e+00 0.000000000000000e+00
0.000000000000000e+00 0.000000000000000e+00 0.000000000000000e+00
0.000000000000000e+00 0.000000000000000e+00 0.000000000000000e+00
0.000000000000000e+00 0.000000000000000e+00 0.000000000000000e+00
0.000000000000000e+00 0.000000000000000e+00 0.000000000000000e+00
0.000000000000000e+00 0.000000000000000e+00 0.000000000000000e+00
0.000000000000000e+00 0.000000000000000e+00 0.000000000000000e+00
0.000000000000000e+00 0.000000000000000e+00 0.000000000000000e+00
0.000000000000000e+00 0.000000000000000e+00 0.000000000000000e+00
0.000000000000000e+00 0.000000000000000e+00 0.000000000000000e+00
0.000000000000000e+00 0.000000000000000e+00 0.000000000000000e+00
0.000000000000000e+00 0.000000000000000e+00 0.000000000000000e+00
0.000000000000000e+00 0.000000000000000e+00 0.000000000000000e+00
0.000000000000000e+00 0.000000000000000e+00 0.000000000000000e+00
0.000000000000000e+00 0.000000000000000e+00 0.000000000000000e+00
0.000000000000000e+00 0.000000000000000e+00 0.000000000000000e+00
0.000000000000000e+00 0.000000000000000e+00 0.000000000000000e+00
0.000000000000000e+00 0.000000000000000e+00 0.000000000000000e+00
0.000000000000000e+00 0.000000000000000e+00 0.000000000000000e+00
0.000000000000000e+00 0.000000000000000e+00 0.000000000000000e+00
0.000000000000000e+00 0.000000000000000e+00 0.000000000000000e+00
0.000000000000000e+00 0.000000000000000e+00 0.000000000000000e+00
0.000000000000000e+00 0.000000000000000e+00 0.000000000000000e+00
0.000000000000000e+00 0.000000000000000e+00 0.000000000000000e+00
0.000000000000000e+00 0.000000000000000e+00 0.000000000000000e+00
0.000000000000000e+00 0.000000000000000e+00 0.000000000000000e+00
0.000000000000000e+00 0.000000000000000e+00 0.000000000000000e+00
0.000000000000000e+00 0.000000000000000e+00 0.000000000000000e+00
0.000000000000000e+00 0.000000000000000e+00 0.000000000000000e+00
0.000000000000000e+00 0.000000000000000e+00 0.000000000000000e+00
0.000000000000000e+00 0.000000000000000e+00 0.000000000000000e+00
0.000000000000000e+00 0.000000000000000e+00 0.000000000000000e+00
0.000000000000000e+00 0.000000000000000e+00 0.000000000000000e+00
0.000000000000000e+00 0.000000000000000e+00 0.000000000000000e+00
0.000000000000000e+00 0.000000000000000e+00 0.000000000000000e+00
0.000000000000000e+00 0.000000000000000e+00 0.000000000000000e+00
0.000000000000000e+00 0.000000000000000e+00 0.000000000000000e+00
0.000000000000000e+00 0.000000000000000e+00 0.000000000000000e+00
0.000000000000000e+00 0.000000000000000e+00 0.000000000000000e+00
0.000000000000000e+00 0.000000000000000e+00 0.000000000000000e+00
0.000000000000000e+00 0.000000000000000e+00 0.000000000000000e+00
0.000000000000000e+00 0.000000000000000e+00 0.000000000000000e+00
0.000000000000000e+00 0.000000000000000e+00 0.000000000000000e+00
0.000000000000000e+00 0.000000000000000e+00 0.000000000000000e+00
0.000000000000000e+00 0.000000000000000e+00 0.000000000000000e+00
0.000000000000000e+00 0.000000000000000e+00 0.000000000000000e+00
0.000000000000000e+00 0.000000000000000e+00 0.000000000000000e+00
0.000000000000000e+00 0.000000000000000e+00 0.000000000000000e+00
0.000000000000000e+00 0.000000000000000e+00 0.000000000000000e+00
0.000000000000000e+00 0.000000000000000e+00 0.000000000000000e+00
0.000000000000000e+00 0.000000000000000e+00 0.000000000000000e+00
0.000000000000000e+00 0.000000000000000e+00 0.000000000000000e+00
0.000000000000000e+00 0.000000000000000e+00 0.000000000000000e+00
0.000000000000000e+00 0.000000000000000e+00 0.000000000000000e+00
0.000000000000000e+00 0.000000000000000e+00 0.000000000000000e+00
0.000000000000000e+00 0.000000000000000e+00 0.000000000000000e+00
0.000000000000000e+00 0.000000000000000e+00 0.000000000000000e+00
0.000000000000000e+00 0.000000000000000e+00 0.000000000000000e+00
0.000000000000000e+00 0.000000000000000e+00 0.000000000000000e+00
0.000000000000000e+00 0.000000000000000e+00 0.000000000000000e+00
0.000000000000000e+00 0.000000000000000e+00 0.000000000000000e+00
0.000000000000000e+00 0.000000000000000e+00 0.000000000000000e+00
0.000000000000000e+00 0.000000000000000e+00 0.000000000000000e+00
0.000000000000000e+00 0.000000000000000e+00 0.000000000000000e+00
0.000000000000000e+00 0.000000000000000e+00 0.000000000000000e+00
0.000000000000000e+00 0.000000000000000e+00 0.000000000000000e+00
0.000000000000000e+00 0.000000000000000e+00 0.000000000000000e+00
0.000000000000000e+00 0.000000000000000e+00 0.000000000000000e+00
0.000000000000000e+00 0.000000000000000e+00 0.000000000000000e+00
0.000000000000000e+00 0.000000000000000e+00 0.000000000000000e+00
0.000000000000000e+00 0.000000000000000e+00 0.000000000000000e+00
0.000000000000000e+00 0.000000000000000e+00 0.000000000000000e+00
0.000000000000000e+00 0.000000000000000e+00 0.000000000000000e+00
0.000000000000000e+00 0.000000000000000e+00 0.000000000000000e+00
0.000000000000000e+00 0.000000000000000e+00 0.000000000000000e+00
0.000000000000000e+00 0.000000000000000e+00 0.000000000000000e+00
0.000000000000000e+00 0.000000000000000e+00 0.000000000000000e+00
0.000000000000000e+00 0.000000000000000e+00 0.000000000000000e+00
0.000000000000000e+00 0.000000000000000e+00 0.000000000000000e+00
0.000000000000000e+00 0.000000000000000e+00 0.000000000000000e+00
0.000000000000000e+00 0.000000000000000e+00 0.000000000000000e+00
0.000000000000000e+00 0.000000000000000e+00 0.000000000000000e+00
0.000000000000000e+00 0.000000000000000e+00 0.000000000000000e+00
0.000000000000000e+00 0.000000000000000e+00 0.000000000000000e+00
0.000000000000000e+00 0.000000000000000e+00 0.000000000000000e+00
0.000000000000000e+00 0.000000000000000e+00 0.000000000000000e+00
0.000000000000000e+00 0.000000000000000e+00 0.000000000000000e+00
0.000000000000000e+00 0.000000000000000e+00 0.000000000000000e+00
0.000000000000000e+00 0.000000000000000e+00 0.000000000000000e+00
0.000000000000000e+00 0.000000000000000e+00 0.000000000000000e+00
0.000000000000000e+00 0.000000000000000e+00 0.000000000000000e+00
0.000000000000000e+00 0.000000000000000e+00 0.000000000000000e+00
0.000000000000000e+00 0.000000000000000e+00 0.000000000000000e+00
0.000000000000000e+00 0.000000000000000e+00 0.000000000000000e+00
0.000000000000000e+00 0.000000000000000e+00 0.000000000000000e+00
0.000000000000000e+00 0.000000000000000e+00 0.000000000000000e+00
0.000000000000000e+00 0.000000000000000e+00 0.000000000000000e+00
0.000000000000000e+00 0.000000000000000e+00 0.000000000000000e+00
0.000000000000000e+00 0.000000000000000e+00 0.000000000000000e+00
0.000000000000000e+00 0.000000000000000e+00 0.000000000000000e+00
0.000000000000000e+00 0.000000000000000e+00 0.000000000000000e+00
0.000000000000000e+00 0.000000000000000e+00 0.000000000000000e+00
0.000000000000000e+00 0.000000000000000e+00 0.000000000000000e+00
0.000000000000000e+00 0.000000000000000e+00 0.000000000000000e+00
0.000000000000000e+00 0.000000000000000e+00 0.000000000000000e+00
0.000000000000000e+00 0.000000000000000e+00 0.000000000000000e+00
0.000000000000000e+00 0.000000000000000e+00 0.000000000000000e+00
0.000000000000000e+00 0.000000000000000e+00 0.000000000000000e+00
0.000000000000000e+00 0.000000000000000e+00 0.000000000000000e+00
0.000000000000000e+00 0.000000000000000e+00 0.000000000000000e+00
0.000000000000000e+00 0.000000000000000e+00 0.000000000000000e+00
0.000000000000000e+00 0.000000000000000e+00 0.000000000000000e+00
0.000000000000000e+00 0.000000000000000e+00 0.000000000000000e+00
0.000000000000000e+00 0.000000000000000e+00 0.000000000000000e+00
0.000000000000000e+00 0.000000000000000e+00 0.000000000000000e+00
0.000000000000000e+00 0.000000000000000e+00 0.000000000000000e+00
0.000000000000000e+00 0.000000000000000e+00 0.000000000000000e+00
0.000000000000000e+00 0.000000000000000e+00 0.000000000000000e+00
0.000000000000000e+00 0.000000000000000e+00 0.000000000000000e+00
0.000000000000000e+00 0.000000000000000e+00 0.000000000000000e+00
0.000000000000000e+00 0.000000000000000e+00 0.000000000000000e+00
0.000000000000000e+00 0.000000000000000e+00 0.000000000000000e+00
0.000000000000000e+00 0.000000000000000e+00 0.000000000000000e+00
0.000000000000000e+00 0.000000000000000e+00 0.000000000000000e+00
0.000000000000000e+00 0.000000000000000e+00 0.000000000000000e+00
0.000000000000000e+00 0.000000000000000e+00 0.000000000000000e+00
0.000000000000000e+00 0.000000000000000e+00 0.000000000000000e+00
0.000000000000000e+00 0.000000000000000e+00 0.000000000000000e+00
0.000000000000000e+00 0.000000000000000e+00 0.000000000000000e+00
0.000000000000000e+00 0.000000000000000e+00 0.000000000000000e+00
0.000000000000000e+00 0.000000000000000e+00 0.000000000000000e+00
0.000000000000000e+00 0.000000000000000e+00 0.000000000000000e+00
0.000000000000000e+00 0.000000000000000e+00 0.000000000000000e+00
0.000000000000000e+00 0.000000000000000e+00 0.000000000000000e+00
0.000000000000000e+00 0.000000000000000e+00 0.000000000000000e+00
0.000000000000000e+00 0.000000000000000e+00 0.000000000000000e+00
0.000000000000000e+00 0.000000000000000e+00 0.000000000000000e+00
0.000000000000000e+00 0.000000000000000e+00 0.000000000000000e+00
0.000000000000000e+00 0.000000000000000e+00 0.000000000000000e+00
0.000000000000000e+00 0.000000000000000e+00 0.000000000000000e+00
0.000000000000000e+00 0.000000000000000e+00 0.000000000000000e+00
0.000000000000000e+00 0.000000000000000e+00 0.000000000000000e+00
0.000000000000000e+00 0.000000000000000e+00 0.000000000000000e+00
0.000000000000000e+00 0.000000000000000e+00 0.000000000000000e+00
0.000000000000000e+00 0.000000000000000e+00 0.000000000000000e+00
0.000000000000000e+00 0.000000000000000e+00 0.000000000000000e+00
0.000000000000000e+00 0.000000000000000e+00 0.000000000000000e+00
0.000000000000000e+00 0.000000000000000e+00 0.000000000000000e+00
0.000000000000000e+00 0.000000000000000e+00 0.000000000000000e+00
0.000000000000000e+00 0.000000000000000e+00 0.000000000000000e+00
0.000000000000000e+00 0.000000000000000e+00 0.000000000000000e+00
0.000000000000000e+00 0.000000000000000e+00 0.000000000000000e+00
0.000000000000000e+00 0.000000000000000e+00 0.000000000000000e+00
0.000000000000000e+00 0.000000000000000e+00 0.000000000000000e+00
0.000000000000000e+00 0.000000000000000e+00 0.000000000000000e+00
0.000000000000000e+00 0.000000000000000e+00 0.000000000000000e+00
0.000000000000000e+00 0.000000000000000e+00 0.000000000000000e+00
0.000000000000000e+00 0.000000000000000e+00 0.000000000000000e+00
0.000000000000000e+00 0.000000000000000e+00 0.000000000000000e+00
0.000000000000000e+00 0.000000000000000e+00 0.000000000000000e+00
0.000000000000000e+00 0.000000000000000e+00 0.000000000000000e+00
0.000000000000000e+00 0.000000000000000e+00 0.000000000000000e+00
0.000000000000000e+00 0.000000000000000e+00 0.000000000000000e+00
0.000000000000000e+00 0.000000000000000e+00 0.000000000000000e+00
0.000000000000000e+00 0.000000000000000e+00 0.000000000000000e+00
0.000000000000000e+00 0.000000000000000e+00 0.000000000000000e+00
0.000000000000000e+00 0.000000000000000e+00 0.000000000000000e+00
0.000000000000000e+00 0.000000000000000e+00 0.000000000000000e+00
0.000000000000000e+00 0.000000000000000e+00 0.000000000000000e+00
0.000000000000000e+00 0.000000000000000e+00 0.000000000000000e+00
0.000000000000000e+00 0.000000000000000e+00 0.000000000000000e+00
0.000000000000000e+00 0.000000000000000e+00 0.000000000000000e+00
0.000000000000000e+00 0.000000000000000e+00 0.000000000000000e+00
0.000000000000000e+00 0.000000000000000e+00 0.000000000000000e+00
0.000000000000000e+00 0.000000000000000e+00 0.000000000000000e+00
0.000000000000000e+00 0.000000000000000e+00 0.000000000000000e+00
0.000000000000000e+00 0.000000000000000e+00 0.000000000000000e+00
0.000000000000000e+00 0.000000000000000e+00 0.000000000000000e+00
0.000000000000000e+00 0.000000000000000e+00 0.000000000000000e+00
0.000000000000000e+00 0.000000000000000e+00 0.000000000000000e+00
0.000000000000000e+00 0.000000000000000e+00 0.000000000000000e+00
0.000000000000000e+00 0.000000000000000e+00 0.000000000000000e+00
0.000000000000000e+00 0.000000000000000e+00 0.000000000000000e+00
0.000000000000000e+00 0.000000000000000e+00 0.000000000000000e+00
0.000000000000000e+00 0.000000000000000e+00 0.000000000000000e+00
0.000000000000000e+00 0.000000000000000e+00 0.000000000000000e+00
0.000000000000000e+00 0.000000000000000e+00 0.000000000000000e+00
0.000000000000000e+00 0.000000000000000e+00 0.000000000000000e+00
0.000000000000000e+00 0.000000000000000e+00 0.000000000000000e+00
0.000000000000000e+00 0.000000000000000e+00 0.000000000000000e+00
0.000000000000000e+00 0.000000000000000e+00 0.000000000000000e+00
0.000000000000000e+00 0.000000000000000e+00 0.000000000000000e+00
0.000000000000000e+00 0.000000000000000e+00 0.000000000000000e+00
0.000000000000000e+00 0.000000000000000e+00 0.000000000000000e+00
0.000000000000000e+00 0.000000000000000e+00 0.000000000000000e+00
0.000000000000000e+00 0.000000000000000e+00 0.000000000000000e+00
0.000000000000000e+00 0.000000000000000e+00 0.000000000000000e+00
0.000000000000000e+00 0.000000000000000e+00 0.000000000000000e+00
0.000000000000000e+00 0.000000000000000e+00 0.000000000000000e+00
0.000000000000000e+00 0.000000000000000e+00 0.000000000000000e+00
0.000000000000000e+00 0.000000000000000e+00 0.000000000000000e+00
0.000000000000000e+00 0.000000000000000e+00 0.000000000000000e+00
0.000000000000000e+00 0.000000000000000e+00 0.000000000000000e+00
0.000000000000000e+00 0.000000000000000e+00 0.000000000000000e+00
0.000000000000000e+00 0.000000000000000e+00 0.000000000000000e+00
0.000000000000000e+00 0.000000000000000e+00 0.000000000000000e+00
0.000000000000000e+00 0.000000000000000e+00 0.000000000000000e+00
0.000000000000000e+00 0.000000000000000e+00 0.000000000000000e+00
0.000000000000000e+00 0.000000000000000e+00 0.000000000000000e+00
0.000000000000000e+00 0.000000000000000e+00 0.000000000000000e+00
0.000000000000000e+00 0.000000000000000e+00 0.000000000000000e+00
0.000000000000000e+00 0.000000000000000e+00 0.000000000000000e+00
0.000000000000000e+00 0.000000000000000e+00 0.000000000000000e+00
0.000000000000000e+00 0.000000000000000e+00 0.000000000000000e+00
0.000000000000000e+00 0.000000000000000e+00 0.000000000000000e+00
0.000000000000000e+00 0.000000000000000e+00 0.000000000000000e+00
0.000000000000000e+00 0.000000000000000e+00 0.000000000000000e+00
0.000000000000000e+00 0.000000000000000e+00 0.000000000000000e+00
0.000000000000000e+00 0.000000000000000e+00 0.000000000000000e+00
0.000000000000000e+00 0.000000000000000e+00 0.000000000000000e+00
0.000000000000000e+00 0.000000000000000e+00 0.000000000000000e+00
0.000000000000000e+00 0.000000000000000e+00 0.000000000000000e+00
0.000000000000000e+00 0.000000000000000e+00 0.000000000000000e+00
0.000000000000000e+00 0.000000000000000e+00 0.000000000000000e+00
0.000000000000000e+00 0.000000000000000e+00 0.000000000000000e+00
0.000000000000000e+00 0.000000000000000e+00 0.000000000000000e+00
0.000000000000000e+00 0.000000000000000e+00 0.000000000000000e+00
0.000000000000000e+00 0.000000000000000e+00 0.000000000000000e+00
0.000000000000000e+00 0.000000000000000e+00 0.000000000000000e+00
0.000000000000000e+00 0.000000000000000e+00 0.000000000000000e+00
0.000000000000000e+00 0.000000000000000e+00 0.000000000000000e+00
0.000000000000000e+00 0.000000000000000e+00 0.000000000000000e+00
0.000000000000000e+00 0.000000000000000e+00 0.000000000000000e+00
0.000000000000000e+00 0.000000000000000e+00 0.000000000000000e+00
0.000000000000000e+00 0.000000000000000e+00 0.000000000000000e+00
0.000000000000000e+00 0.000000000000000e+00 0.000000000000000e+00
0.000000000000000e+00 0.000000000000000e+00 0.000000000000000e+00
0.000000000000000e+00 0.000000000000000e+00 0.000000000000000e+00
0.000000000000000e+00 0.000000000000000e+00 0.000000000000000e+00
0.000000000000000e+00 0.000000000000000e+00 0.000000000000000e+00
0.000000000000000e+00 0.000000000000000e+00 0.000000000000000e+00
0.000000000000000e+00 0.000000000000000e+00 0.000000000000000e+00
0.000000000000000e+00 0.000000000000000e+00 0.000000000000000e+00
0.000000000000000e+00 0.000000000000000e+00 0.000000000000000e+00
0.000000000000000e+00 0.000000000000000e+00 0.000000000000000e+00
0.000000000000000e+00 0.000000000000000e+00 0.000000000000000e+00
0.000000000000000e+00 0.000000000000000e+00 0.000000000000000e+00
0.000000000000000e+00 0.000000000000000e+00 0.000000000000000e+00
0.000000000000000e+00 0.000000000000000e+00 0.000000000000000e+00
0.000000000000000e+00 0.000000000000000e+00 0.000000000000000e+00
0.000000000000000e+00 0.000000000000000e+00 0.000000000000000e+00
0.000000000000000e+00 0.000000000000000e+00 0.000000000000000e+00
0.000000000000000e+00 0.000000000000000e+00 0.000000000000000e+00
0.000000000000000e+00 0.000000000000000e+00 0.000000000000000e+00
0.000000000000000e+00 0.000000000000000e+00 0.000000000000000e+00
0.000000000000000e+00 0.000000000000000e+00 0.000000000000000e+00
0.000000000000000e+00 0.000000000000000e+00 0.000000000000000e+00
0.000000000000000e+00 0.000000000000000e+00 0.000000000000000e+00
0.000000000000000e+00 0.000000000000000e+00 0.000000000000000e+00
0.000000000000000e+00 0.000000000000000e+00 0.000000000000000e+00
0.000000000000000e+00 0.000000000000000e+00 0.000000000000000e+00
0.000000000000000e+00 0.000000000000000e+00 0.000000000000000e+00
0.000000000000000e+00 0.000000000000000e+00 0.000000000000000e+00
0.000000000000000e+00 0.000000000000000e+00 0.000000000000000e+00
0.000000000000000e+00 0.000000000000000e+00 0.000000000000000e+00
0.000000000000000e+00 0.000000000000000e+00 0.000000000000000e+00
0.000000000000000e+00 0.000000000000000e+00 0.000000000000000e+00
0.000000000000000e+00 0.000000000000000e+00 0.000000000000000e+00
0.000000000000000e+00 0.000000000000000e+00 0.000000000000000e+00
0.000000000000000e+00 0.000000000000000e+00 0.000000000000000e+00
0.000000000000000e+00 0.000000000000000e+00 0.000000000000000e+00
0.000000000000000e+00 0.000000000000000e+00 0.000000000000000e+00
0.000000000000000e+00 0.000000000000000e+00 0.000000000000000e+00
0.000000000000000e+00 0.000000000000000e+00 0.000000000000000e+00
0.000000000000000e+00 0.000000000000000e+00 0.000000000000000e+00
0.000000000000000e+00 0.000000000000000e+00 0.000000000000000e+00
0.000000000000000e+00 0.000000000000000e+00 0.000000000000000e+00
0.000000000000000e+00 0.000000000000000e+00 0.000000000000000e+00
0.000000000000000e+00 0.000000000000000e+00 0.000000000000000e+00
0.000000000000000e+00 0.000000000000000e+00 0.000000000000000e+00
0.000000000000000e+00 0.000000000000000e+00 0.000000000000000e+00
0.000000000000000e+00 0.000000000000000e+00 0.000000000000000e+00
0.000000000000000e+00 0.000000000000000e+00 0.000000000000000e+00
0.000000000000000e+00 0.000000000000000e+00 0.000000000000000e+00
0.000000000000000e+00 0.000000000000000e+00 0.000000000000000e+00
0.000000000000000e+00 0.000000000000000e+00 0.000000000000000e+00
0.000000000000000e+00 0.000000000000000e+00 0.000000000000000e+00
0.000000000000000e+00 0.000000000000000e+00 0.000000000000000e+00
0.000000000000000e+00 0.000000000000000e+00 0.000000000000000e+00
0.000000000000000e+00 0.000000000000000e+00 0.000000000000000e+00
0.000000000000000e+00 0.000000000000000e+00 0.000000000000000e+00
0.000000000000000e+00 0.000000000000000e+00 0.000000000000000e+00
0.000000000000000e+00 0.000000000000000e+00 0.000000000000000e+00
0.000000000000000e+00 0.000000000000000e+00 0.000000000000000e+00
0.000000000000000e+00 0.000000000000000e+00 0.000000000000000e+00
0.000000000000000e+00 0.000000000000000e+00 0.000000000000000e+00
0.000000000000000e+00 0.000000000000000e+00 0.000000000000000e+00
0.000000000000000e+00 0.000000000000000e+00 0.000000000000000e+00
0.000000000000000e+00 0.000000000000000e+00 0.000000000000000e+00
0.000000000000000e+00 0.000000000000000e+00 0.000000000000000e+00
0.000000000000000e+00 0.000000000000000e+00 0.000000000000000e+00
0.000000000000000e+00 0.000000000000000e+00 0.000000000000000e+00
0.000000000000000e+00 0.000000000000000e+00 0.000000000000000e+00
0.000000000000000e+00 0.000000000000000e+00 0.000000000000000e+00
0.000000000000000e+00 0.000000000000000e+00 0.000000000000000e+00
0.000000000000000e+00 0.000000000000000e+00 0.000000000000000e+00
0.000000000000000e+00 0.000000000000000e+00 0.000000000000000e+00
0.000000000000000e+00 0.000000000000000e+00 0.000000000000000e+00
0.000000000000000e+00 0.000000000000000e+00 0.000000000000000e+00
0.000000000000000e+00 0.000000000000000e+00 0.000000000000000e+00
0.000000000000000e+00 0.000000000000000e+00 0.000000000000000e+00
0.000000000000000e+00 0.000000000000000e+00 0.000000000000000e+00
0.000000000000000e+00 0.000000000000000e+00 0.000000000000000e+00
0.000000000000000e+00 0.000000000000000e+00 0.000000000000000e+00
0.000000000000000e+00 0.000000000000000e+00 0.000000000000000e+00
0.000000000000000e+00 0.000000000000000e+00 0.000000000000000e+00
0.000000000000000e+00 0.000000000000000e+00 0.000000000000000e+00
0.000000000000000e+00 0.000000000000000e+00 0.000000000000000e+00
0.000000000000000e+00 0.000000000000000e+00 0.000000000000000e+00
0.000000000000000e+00 0.000000000000000e+00 0.000000000000000e+00
0.000000000000000e+00 0.000000000000000e+00 0.000000000000000e+00
0.000000000000000e+00 0.000000000000000e+00 0.000000000000000e+00
0.000000000000000e+00 0.000000000000000e+00 0.000000000000000e+00
0.000000000000000e+00 0.000000000000000e+00 0.000000000000000e+00
0.000000000000000e+00 0.000000000000000e+00 0.000000000000000e+00
0.000000000000000e+00 0.000000000000000e+00 0.000000000000000e+00
0.000000000000000e+00 0.000000000000000e+00 0.000000000000000e+00
0.000000000000000e+00 0.000000000000000e+00 0.000000000000000e+00
0.000000000000000e+00 0.000000000000000e+00 0.000000000000000e+00
0.000000000000000e+00 0.000000000000000e+00 0.000000000000000e+00
0.000000000000000e+00 0.000000000000000e+00 0.000000000000000e+00
0.000000000000000e+00 0.000000000000000e+00 0.000000000000000e+00
0.000000000000000e+00 0.000000000000000e+00 0.000000000000000e+00
0.000000000000000e+00 0.000000000000000e+00 0.000000000000000e+00
0.000000000000000e+00 0.000000000000000e+00 0.000000000000000e+00
0.000000000000000e+00 0.000000000000000e+00 0.000000000000000e+00
0.000000000000000e+00 0.000000000000000e+00 0.000000000000000e+00
0.000000000000000e+00 0.000000000000000e+00 0.000000000000000e+00
0.000000000000000e+00 0.000000000000000e+00 0.000000000000000e+00
0.000000000000000e+00 0.000000000000000e+00 0.000000000000000e+00
0.000000000000000e+00 0.000000000000000e+00 0.000000000000000e+00
0.000000000000000e+00 0.000000000000000e+00 0.000000000000000e+00
0.000000000000000e+00 0.000000000000000e+00 0.000000000000000e+00
0.000000000000000e+00 0.000000000000000e+00 0.000000000000000e+00
0.000000000000000e+00 0.000000000000000e+00 0.000000000000000e+00
0.000000000000000e+00 0.000000000000000e+00 0.000000000000000e+00
0.000000000000000e+00 0.000000000000000e+00 0.000000000000000e+00
0.000000000000000e+00 0.000000000000000e+00 0.000000000000000e+00
0.000000000000000e+00 0.000000000000000e+00 0.000000000000000e+00
0.000000000000000e+00 0.000000000000000e+00 0.000000000000000e+00
0.000000000000000e+00 0.000000000000000e+00 0.000000000000000e+00
0.000000000000000e+00 0.000000000000000e+00 0.000000000000000e+00
0.000000000000000e+00 0.000000000000000e+00 0.000000000000000e+00
0.000000000000000e+00 0.000000000000000e+00 0.000000000000000e+00
0.000000000000000e+00 0.000000000000000e+00 0.000000000000000e+00
0.000000000000000e+00 0.000000000000000e+00 0.000000000000000e+00
0.000000000000000e+00 0.000000000000000e+00 0.000000000000000e+00
0.000000000000000e+00 0.000000000000000e+00 0.000000000000000e+00
0.000000000000000e+00 0.000000000000000e+00 0.000000000000000e+00
0.000000000000000e+00 0.000000000000000e+00 0.000000000000000e+00
0.000000000000000e+00 0.000000000000000e+00 0.000000000000000e+00
0.000000000000000e+00 0.000000000000000e+00 0.000000000000000e+00
0.000000000000000e+00 0.000000000000000e+00 0.000000000000000e+00
0.000000000000000e+00 0.000000000000000e+00 0.000000000000000e+00
0.000000000000000e+00 0.000000000000000e+00 0.000000000000000e+00
0.000000000000000e+00 0.000000000000000e+00 0.000000000000000e+00
0.000000000000000e+00 0.000000000000000e+00 0.000000000000000e+00
0.000000000000000e+00 0.000000000000000e+00 0.000000000000000e+00
0.000000000000000e+00 0.000000000000000e+00 0.000000000000000e+00
0.000000000000000e+00 0.000000000000000e+00 0.000000000000000e+00
0.000000000000000e+00 0.000000000000000e+00 0.000000000000000e+00
0.000000000000000e+00 0.000000000000000e+00 0.000000000000000e+00
0.000000000000000e+00 0.000000000000000e+00 0.000000000000000e+00
0.000000000000000e+00 0.000000000000000e+00 0.000000000000000e+00
0.000000000000000e+00 0.000000000000000e+00 0.000000000000000e+00
0.000000000000000e+00 0.000000000000000e+00 0.000000000000000e+00
0.000000000000000e+00 0.000000000000000e+00 0.000000000000000e+00
0.000000000000000e+00 0.000000000000000e+00 0.000000000000000e+00
0.000000000000000e+00 0.000000000000000e+00 0.000000000000000e+00
0.000000000000000e+00 0.000000000000000e+00 0.000000000000000e+00
0.000000000000000e+00 0.000000000000000e+00 0.000000000000000e+00
0.000000000000000e+00 0.000000000000000e+00 0.000000000000000e+00
0.000000000000000e+00 0.000000000000000e+00 0.000000000000000e+00
0.000000000000000e+00 0.000000000000000e+00 0.000000000000000e+00
0.000000000000000e+00 0.000000000000000e+00 0.000000000000000e+00
0.000000000000000e+00 0.000000000000000e+00 0.000000000000000e+00
0.000000000000000e+00 0.000000000000000e+00 0.000000000000000e+00
0.000000000000000e+00 0.000000000000000e+00 0.000000000000000e+00
0.000000000000000e+00 0.000000000000000e+00 0.000000000000000e+00
0.000000000000000e+00 0.000000000000000e+00 0.000000000000000e+00
0.000000000000000e+00 0.000000000000000e+00 0.000000000000000e+00
0.000000000000000e+00 0.000000000000000e+00 0.000000000000000e+00
0.000000000000000e+00 0.000000000000000e+00 0.000000000000000e+00
0.000000000000000e+00 0.000000000000000e+00 0.000000000000000e+00
0.000000000000000e+00 0.000000000000000e+00 0.000000000000000e+00
0.000000000000000e+00 0.000000000000000e+00 0.000000000000000e+00
0.000000000000000e+00 0.000000000000000e+00 0.000000000000000e+00
0.000000000000000e+00 0.000000000000000e+00 0.000000000000000e+00
0.000000000000000e+00 0.000000000000000e+00 0.000000000000000e+00
0.000000000000000e+00 0.000000000000000e+00 0.000000000000000e+00
0.000000000000000e+00 0.000000000000000e+00 0.000000000000000e+00
0.000000000000000e+00 0.000000000000000e+00 0.000000000000000e+00
0.000000000000000e+00 0.000000000000000e+00 0.000000000000000e+00
0.000000000000000e+00 0.000000000000000e+00 0.000000000000000e+00
0.000000000000000e+00 0.000000000000000e+00 0.000000000000000e+00
0.000000000000000e+00 0.000000000000000e+00 0.000000000000000e+00
0.000000000000000e+00 0.000000000000000e+00 0.000000000000000e+00
0.000000000000000e+00 0.000000000000000e+00 0.000000000000000e+00
0.000000000000000e+00 0.000000000000000e+00 0.000000000000000e+00
0.000000000000000e+00 0.000000000000000e+00 0.000000000000000e+00
0.000000000000000e+00 0.000000000000000e+00 0.000000000000000e+00
0.000000000000000e+00 0.000000000000000e+00 0.000000000000000e+00
0.000000000000000e+00 0.000000000000000e+00 0.000000000000000e+00
0.000000000000000e+00 0.000000000000000e+00 0.000000000000000e+00
0.000000000000000e+00 0.000000000000000e+00 0.000000000000000e+00
0.000000000000000e+00 0.000000000000000e+00 0.000000000000000e+00
0.000000000000000e+00 0.000000000000000e+00 0.000000000000000e+00
0.000000000000000e+00 0.000000000000000e+00 0.000000000000000e+00
0.000000000000000e+00 0.000000000000000e+00 0.000000000000000e+00
0.000000000000000e+00 0.000000000000000e+00 0.000000000000000e+00
0.000000000000000e+00 0.000000000000000e+00 0.000000000000000e+00
0.000000000000000e+00 0.000000000000000e+00 0.000000000000000e+00
0.000000000000000e+00 0.000000000000000e+00 0.000000000000000e+00
0.000000000000000e+00 0.000000000000000e+00 0.000000000000000e+00
0.000000000000000e+00 0.000000000000000e+00 0.000000000000000e+00
0.000000000000000e+00 0.000000000000000e+00 0.000000000000000e+00
0.000000000000000e+00 0.000000000000000e+00 0.000000000000000e+00
0.000000000000000e+00 0.000000000000000e+00 0.000000000000000e+00
0.000000000000000e+00 0.000000000000000e+00 0.000000000000000e+00
0.000000000000000e+00 0.000000000000000e+00 0.000000000000000e+00
0.000000000000000e+00 0.000000000000000e+00 0.000000000000000e+00
0.000000000000000e+00 0.000000000000000e+00 0.000000000000000e+00
0.000000000000000e+00 0.000000000000000e+00 0.000000000000000e+00
0.000000000000000e+00 0.000000000000000e+00 0.000000000000000e+00
0.000000000000000e+00 0.000000000000000e+00 0.000000000000000e+00
0.000000000000000e+00 0.000000000000000e+00 0.000000000000000e+00
0.000000000000000e+00 0.000000000000000e+00 0.000000000000000e+00
0.000000000000000e+00 0.000000000000000e+00 0.000000000000000e+00
0.000000000000000e+00 0.000000000000000e+00 0.000000000000000e+00
0.000000000000000e+00 0.000000000000000e+00 0.000000000000000e+00
0.000000000000000e+00 0.000000000000000e+00 0.000000000000000e+00
0.000000000000000e+00 0.000000000000000e+00 0.000000000000000e+00
0.000000000000000e+00 0.000000000000000e+00 0.000000000000000e+00
0.000000000000000e+00 0.000000000000000e+00 0.000000000000000e+00
0.000000000000000e+00 0.000000000000000e+00 0.000000000000000e+00
0.000000000000000e+00 0.000000000000000e+00 0.000000000000000e+00
0.000000000000000e+00 0.000000000000000e+00 0.000000000000000e+00
0.000000000000000e+00 0.000000000000000e+00 0.000000000000000e+00
0.000000000000000e+00 0.000000000000000e+00 0.000000000000000e+00
0.000000000000000e+00 0.000000000000000e+00 0.000000000000000e+00
0.000000000000000e+00 0.000000000000000e+00 0.000000000000000e+00
0.000000000000000e+00 0.000000000000000e+00 0.000000000000000e+00
0.000000000000000e+00 0.000000000000000e+00 0.000000000000000e+00
0.000000000000000e+00 0.000000000000000e+00 0.000000000000000e+00
0.000000000000000e+00 0.000000000000000e+00 0.000000000000000e+00
0.000000000000000e+00 0.000000000000000e+00 0.000000000000000e+00
0.000000000000000e+00 0.000000000000000e+00 0.000000000000000e+00
0.000000000000000e+00 0.000000000000000e+00 0.000000000000000e+00
0.000000000000000e+00 0.000000000000000e+00 0.000000000000000e+00
0.000000000000000e+00 0.000000000000000e+00 0.000000000000000e+00
0.000000000000000e+00 0.000000000000000e+00 0.000000000000000e+00
0.000000000000000e+00 0.000000000000000e+00 0.000000000000000e+00
0.000000000000000e+00 0.000000000000000e+00 0.000000000000000e+00
0.000000000000000e+00 0.000000000000000e+00 0.000000000000000e+00
0.000000000000000e+00 0.000000000000000e+00 0.000000000000000e+00
0.000000000000000e+00 0.000000000000000e+00 0.000000000000000e+00
0.000000000000000e+00 0.000000000000000e+00 0.000000000000000e+00
0.000000000000000e+00 0.000000000000000e+00 0.000000000000000e+00
0.000000000000000e+00 0.000000000000000e+00 0.000000000000000e+00
0.000000000000000e+00 0.000000000000000e+00 0.000000000000000e+00
0.000000000000000e+00 0.000000000000000e+00 0.000000000000000e+00
0.000000000000000e+00 0.000000000000000e+00 0.000000000000000e+00
0.000000000000000e+00 0.000000000000000e+00 0.000000000000000e+00
0.000000000000000e+00 0.000000000000000e+00 0.000000000000000e+00
0.000000000000000e+00 0.000000000000000e+00 0.000000000000000e+00
0.000000000000000e+00 0.000000000000000e+00 0.000000000000000e+00
0.000000000000000e+00 0.000000000000000e+00 0.000000000000000e+00
0.000000000000000e+00 0.000000000000000e+00 0.000000000000000e+00
0.000000000000000e+00 0.000000000000000e+00 0.000000000000000e+00
0.000000000000000e+00 0.000000000000000e+00 0.000000000000000e+00
0.000000000000000e+00 0.000000000000000e+00 0.000000000000000e+00
0.000000000000000e+00 0.000000000000000e+00 0.000000000000000e+00
0.000000000000000e+00 0.000000000000000e+00 0.000000000000000e+00
0.000000000000000e+00 0.000000000000000e+00 0.000000000000000e+00
0.000000000000000e+00 0.000000000000000e+00 0.000000000000000e+00
0.000000000000000e+00 0.000000000000000e+00 0.000000000000000e+00
0.000000000000000e+00 0.000000000000000e+00 0.000000000000000e+00
0.000000000000000e+00 0.000000000000000e+00 0.000000000000000e+00
0.000000000000000e+00 0.000000000000000e+00 0.000000000000000e+00
0.000000000000000e+00 0.000000000000000e+00 0.000000000000000e+00
0.000000000000000e+00 0.000000000000000e+00 0.000000000000000e+00
0.000000000000000e+00 0.000000000000000e+00 0.000000000000000e+00
0.000000000000000e+00 0.000000000000000e+00 0.000000000000000e+00
0.000000000000000e+00 0.000000000000000e+00 0.000000000000000e+00
0.000000000000000e+00 0.000000000000000e+00 0.000000000000000e+00
0.000000000000000e+00 0.000000000000000e+00 0.000000000000000e+00
0.000000000000000e+00 0.000000000000000e+00 0.000000000000000e+00
0.000000000000000e+00 0.000000000000000e+00 0.000000000000000e+00
0.000000000000000e+00 0.000000000000000e+00 0.000000000000000e+00
0.000000000000000e+00 0.000000000000000e+00 0.000000000000000e+00
0.000000000000000e+00 0.000000000000000e+00 0.000000000000000e+00
0.000000000000000e+00 0.000000000000000e+00 0.000000000000000e+00
0.000000000000000e+00 0.000000000000000e+00 0.000000000000000e+00
0.000000000000000e+00 0.000000000000000e+00 0.000000000000000e+00
0.000000000000000e+00 0.000000000000000e+00 0.000000000000000e+00
0.000000000000000e+00 0.000000000000000e+00 0.000000000000000e+00
0.000000000000000e+00 0.000000000000000e+00 0.000000000000000e+00
0.000000000000000e+00 0.000000000000000e+00 0.000000000000000e+00
0.000000000000000e+00 0.000000000000000e+00 0.000000000000000e+00
0.000000000000000e+00 0.000000000000000e+00 0.000000000000000e+00
0.000000000000000e+00 0.000000000000000e+00 0.000000000000000e+00
0.000000000000000e+00 0.000000000000000e+00 0.000000000000000e+00
0.000000000000000e+00 0.000000000000000e+00 0.000000000000000e+00
0.000000000000000e+00 0.000000000000000e+00 0.000000000000000e+00
0.000000000000000e+00 0.000000000000000e+00 0.000000000000000e+00
0.000000000000000e+00 0.000000000000000e+00 0.000000000000000e+00
0.000000000000000e+00 0.000000000000000e+00 0.000000000000000e+00
0.000000000000000e+00 0.000000000000000e+00 0.000000000000000e+00
0.000000000000000e+00 0.000000000000000e+00 0.000000000000000e+00
0.000000000000000e+00 0.000000000000000e+00 0.000000000000000e+00
0.000000000000000e+00 0.000000000000000e+00 0.000000000000000e+00
0.000000000000000e+00 0.000000000000000e+00 0.000000000000000e+00
0.000000000000000e+00 0.000000000000000e+00 0.000000000000000e+00
0.000000000000000e+00 0.000000000000000e+00 0.000000000000000e+00
0.000000000000000e+00 0.000000000000000e+00 0.000000000000000e+00
0.000000000000000e+00 0.000000000000000e+00 0.000000000000000e+00
0.000000000000000e+00 0.000000000000000e+00 0.000000000000000e+00
0.000000000000000e+00 0.000000000000000e+00 0.000000000000000e+00
0.000000000000000e+00 0.000000000000000e+00 0.000000000000000e+00
0.000000000000000e+00 0.000000000000000e+00 0.000000000000000e+00
0.000000000000000e+00 0.000000000000000e+00 0.000000000000000e+00
0.000000000000000e+00 0.000000000000000e+00 0.000000000000000e+00
0.000000000000000e+00 0.000000000000000e+00 0.000000000000000e+00
0.000000000000000e+00 0.000000000000000e+00 0.000000000000000e+00
0.000000000000000e+00 0.000000000000000e+00 0.000000000000000e+00
0.000000000000000e+00 0.000000000000000e+00 0.000000000000000e+00
0.000000000000000e+00 0.000000000000000e+00 0.000000000000000e+00
0.000000000000000e+00 0.000000000000000e+00 0.000000000000000e+00
0.000000000000000e+00 0.000000000000000e+00 0.000000000000000e+00
0.000000000000000e+00 0.000000000000000e+00 0.000000000000000e+00
0.000000000000000e+00 0.000000000000000e+00 0.000000000000000e+00
0.000000000000000e+00 0.000000000000000e+00 0.000000000000000e+00
0.000000000000000e+00 0.000000000000000e+00 0.000000000000000e+00
0.000000000000000e+00 0.000000000000000e+00 0.000000000000000e+00
0.000000000000000e+00 0.000000000000000e+00 0.000000000000000e+00
0.000000000000000e+00 0.000000000000000e+00 0.000000000000000e+00
0.000000000000000e+00 0.000000000000000e+00 0.000000000000000e+00
0.000000000000000e+00 0.000000000000000e+00 0.000000000000000e+00
0.000000000000000e+00 0.000000000000000e+00 0.000000000000000e+00
0.000000000000000e+00 0.000000000000000e+00 0.000000000000000e+00
0.000000000000000e+00 0.000000000000000e+00 0.000000000000000e+00
0.000000000000000e+00 0.000000000000000e+00 0.000000000000000e+00
0.000000000000000e+00 0.000000000000000e+00 0.000000000000000e+00
0.000000000000000e+00 0.000000000000000e+00 0.000000000000000e+00
0.000000000000000e+00 0.000000000000000e+00 0.000000000000000e+00
0.000000000000000e+00 0.000000000000000e+00 0.000000000000000e+00
0.000000000000000e+00 0.000000000000000e+00 0.000000000000000e+00
0.000000000000000e+00 0.000000000000000e+00 0.000000000000000e+00
0.000000000000000e+00 0.000000000000000e+00 0.000000000000000e+00
0.000000000000000e+00 0.000000000000000e+00 0.000000000000000e+00
0.000000000000000e+00 0.000000000000000e+00 0.000000000000000e+00
0.000000000000000e+00 0.000000000000000e+00 0.000000000000000e+00
0.000000000000000e+00 0.000000000000000e+00 0.000000000000000e+00
0.000000000000000e+00 0.000000000000000e+00 0.000000000000000e+00
0.000000000000000e+00 0.000000000000000e+00 0.000000000000000e+00
0.000000000000000e+00 0.000000000000000e+00 0.000000000000000e+00
0.000000000000000e+00 0.000000000000000e+00 0.000000000000000e+00
0.000000000000000e+00 0.000000000000000e+00 0.000000000000000e+00
0.000000000000000e+00 0.000000000000000e+00 0.000000000000000e+00
0.000000000000000e+00 0.000000000000000e+00 0.000000000000000e+00
0.000000000000000e+00 0.000000000000000e+00 0.000000000000000e+00
0.000000000000000e+00 0.000000000000000e+00 0.000000000000000e+00
0.000000000000000e+00 0.000000000000000e+00 0.000000000000000e+00
0.000000000000000e+00 0.000000000000000e+00 0.000000000000000e+00
0.000000000000000e+00 0.000000000000000e+00 0.000000000000000e+00
0.000000000000000e+00 0.000000000000000e+00 0.000000000000000e+00
0.000000000000000e+00 0.000000000000000e+00 0.000000000000000e+00
0.000000000000000e+00 0.000000000000000e+00 0.000000000000000e+00
0.000000000000000e+00 0.000000000000000e+00 0.000000000000000e+00
0.000000000000000e+00 0.000000000000000e+00 0.000000000000000e+00
0.000000000000000e+00 0.000000000000000e+00 0.000000000000000e+00
0.000000000000000e+00 0.000000000000000e+00 0.000000000000000e+00
0.000000000000000e+00 0.000000000000000e+00 0.000000000000000e+00
0.000000000000000e+00 0.000000000000000e+00 0.000000000000000e+00
0.000000000000000e+00 0.000000000000000e+00 0.000000000000000e+00
0.000000000000000e+00 0.000000000000000e+00 0.000000000000000e+00
0.000000000000000e+00 0.000000000000000e+00 0.000000000000000e+00
0.000000000000000e+00 0.000000000000000e+00 0.000000000000000e+00
0.000000000000000e+00 0.000000000000000e+00 0.000000000000000e+00
0.000000000000000e+00 0.000000000000000e+00 0.000000000000000e+00
0.000000000000000e+00 0.000000000000000e+00 0.000000000000000e+00
0.000000000000000e+00 0.000000000000000e+00 0.000000000000000e+00
0.000000000000000e+00 0.000000000000000e+00 0.000000000000000e+00
0.000000000000000e+00 0.000000000000000e+00 0.000000000000000e+00
0.000000000000000e+00 0.000000000000000e+00 0.000000000000000e+00
0.000000000000000e+00 0.000000000000000e+00 0.000000000000000e+00
0.000000000000000e+00 0.000000000000000e+00 0.000000000000000e+00
0.000000000000000e+00 0.000000000000000e+00 0.000000000000000e+00
0.000000000000000e+00 0.000000000000000e+00 0.000000000000000e+00
0.000000000000000e+00 0.000000000000000e+00 0.000000000000000e+00
0.000000000000000e+00 0.000000000000000e+00 0.000000000000000e+00
0.000000000000000e+00 0.000000000000000e+00 0.000000000000000e+00
0.000000000000000e+00 0.000000000000000e+00 0.000000000000000e+00
0.000000000000000e+00 0.000000000000000e+00 0.000000000000000e+00
0.000000000000000e+00 0.000000000000000e+00 0.000000000000000e+00
0.000000000000000e+00 0.000000000000000e+00 0.000000000000000e+00
0.000000000000000e+00 0.000000000000000e+00 0.000000000000000e+00
0.000000000000000e+00 0.000000000000000e+00 0.000000000000000e+00
0.000000000000000e+00 0.000000000000000e+00 0.000000000000000e+00
0.000000000000000e+00 0.000000000000000e+00 0.000000000000000e+00
0.000000000000000e+00 0.000000000000000e+00 0.000000000000000e+00
0.000000000000000e+00 0.000000000000000e+00 0.000000000000000e+00
0.000000000000000e+00 0.000000000000000e+00 0.000000000000000e+00
0.000000000000000e+00 0.000000000000000e+00 0.000000000000000e+00
0.000000000000000e+00 0.000000000000000e+00 0.000000000000000e+00
0.000000000000000e+00 0.000000000000000e+00 0.000000000000000e+00
0.000000000000000e+00 0.000000000000000e+00 0.000000000000000e+00
0.000000000000000e+00 0.000000000000000e+00 0.000000000000000e+00
0.000000000000000e+00 0.000000000000000e+00 0.000000000000000e+00
0.000000000000000e+00 0.000000000000000e+00 0.000000000000000e+00
0.000000000000000e+00 0.000000000000000e+00 0.000000000000000e+00
0.000000000000000e+00 0.000000000000000e+00 0.000000000000000e+00
0.000000000000000e+00 0.000000000000000e+00 0.000000000000000e+00
0.000000000000000e+00 0.000000000000000e+00 0.000000000000000e+00
0.000000000000000e+00 0.000000000000000e+00 0.000000000000000e+00
0.000000000000000e+00 0.000000000000000e+00 0.000000000000000e+00
0.000000000000000e+00 0.000000000000000e+00 0.000000000000000e+00
0.000000000000000e+00 0.000000000000000e+00 0.000000000000000e+00
0.000000000000000e+00 0.000000000000000e+00 0.000000000000000e+00
0.000000000000000e+00 0.000000000000000e+00 0.000000000000000e+00
0.000000000000000e+00 0.000000000000000e+00 0.000000000000000e+00
0.000000000000000e+00 0.000000000000000e+00 0.000000000000000e+00
0.000000000000000e+00 0.000000000000000e+00 0.000000000000000e+00
0.000000000000000e+00 0.000000000000000e+00 0.000000000000000e+00
0.000000000000000e+00 0.000000000000000e+00 0.000000000000000e+00
0.000000000000000e+00 0.000000000000000e+00 0.000000000000000e+00
0.000000000000000e+00 0.000000000000000e+00 0.000000000000000e+00
0.000000000000000e+00 0.000000000000000e+00 0.000000000000000e+00
0.000000000000000e+00 0.000000000000000e+00 0.000000000000000e+00
0.000000000000000e+00 0.000000000000000e+00 0.000000000000000e+00
0.000000000000000e+00 0.000000000000000e+00 0.000000000000000e+00
0.000000000000000e+00 0.000000000000000e+00 0.000000000000000e+00
0.000000000000000e+00 0.000000000000000e+00 0.000000000000000e+00
0.000000000000000e+00 0.000000000000000e+00 0.000000000000000e+00
0.000000000000000e+00 0.000000000000000e+00 0.000000000000000e+00
0.000000000000000e+00 0.000000000000000e+00 0.000000000000000e+00
0.000000000000000e+00 0.000000000000000e+00 0.000000000000000e+00
0.000000000000000e+00 0.000000000000000e+00 0.000000000000000e+00
0.000000000000000e+00 0.000000000000000e+00 0.000000000000000e+00
0.000000000000000e+00 0.000000000000000e+00 0.000000000000000e+00
0.000000000000000e+00 0.000000000000000e+00 0.000000000000000e+00
0.000000000000000e+00 0.000000000000000e+00 0.000000000000000e+00
0.000000000000000e+00 0.000000000000000e+00 0.000000000000000e+00
0.000000000000000e+00 0.000000000000000e+00 0.000000000000000e+00
0.000000000000000e+00 0.000000000000000e+00 0.000000000000000e+00
0.000000000000000e+00 0.000000000000000e+00 0.000000000000000e+00
0.000000000000000e+00 0.000000000000000e+00 0.000000000000000e+00
0.000000000000000e+00 0.000000000000000e+00 0.000000000000000e+00
0.000000000000000e+00 0.000000000000000e+00 0.000000000000000e+00
0.000000000000000e+00 0.000000000000000e+00 0.000000000000000e+00
0.000000000000000e+00 0.000000000000000e+00 0.000000000000000e+00
0.000000000000000e+00 0.000000000000000e+00 0.000000000000000e+00
0.000000000000000e+00 0.000000000000000e+00 0.000000000000000e+00
0.000000000000000e+00 0.000000000000000e+00 0.000000000000000e+00
0.000000000000000e+00 0.000000000000000e+00 0.000000000000000e+00
0.000000000000000e+00 0.000000000000000e+00 0.000000000000000e+00
0.000000000000000e+00 0.000000000000000e+00 0.000000000000000e+00
0.000000000000000e+00 0.000000000000000e+00 0.000000000000000e+00
0.000000000000000e+00 0.000000000000000e+00 0.000000000000000e+00
0.000000000000000e+00 0.000000000000000e+00 0.000000000000000e+00
0.000000000000000e+00 0.000000000000000e+00 0.000000000000000e+00
0.000000000000000e+00 0.000000000000000e+00 0.000000000000000e+00
0.000000000000000e+00 0.000000000000000e+00 0.000000000000000e+00
0.000000000000000e+00 0.000000000000000e+00 0.000000000000000e+00
0.000000000000000e+00 0.000000000000000e+00 0.000000000000000e+00
0.000000000000000e+00 0.000000000000000e+00 0.000000000000000e+00
0.000000000000000e+00 0.000000000000000e+00 0.000000000000000e+00
0.000000000000000e+00 0.000000000000000e+00 0.000000000000000e+00
0.000000000000000e+00 0.000000000000000e+00 0.000000000000000e+00
0.000000000000000e+00 0.000000000000000e+00 0.000000000000000e+00
0.000000000000000e+00 0.000000000000000e+00 0.000000000000000e+00
0.000000000000000e+00 0.000000000000000e+00 0.000000000000000e+00
0.000000000000000e+00 0.000000000000000e+00 0.000000000000000e+00
0.000000000000000e+00 0.000000000000000e+00 0.000000000000000e+00
0.000000000000000e+00 0.000000000000000e+00 0.000000000000000e+00
0.000000000000000e+00 0.000000000000000e+00 0.000000000000000e+00
0.000000000000000e+00 0.000000000000000e+00 0.000000000000000e+00
0.000000000000000e+00 0.000000000000000e+00 0.000000000000000e+00
0.000000000000000e+00 0.000000000000000e+00 0.000000000000000e+00
0.000000000000000e+00 0.000000000000000e+00 0.000000000000000e+00
0.000000000000000e+00 0.000000000000000e+00 0.000000000000000e+00
0.000000000000000e+00 0.000000000000000e+00 0.000000000000000e+00
0.000000000000000e+00 0.000000000000000e+00 0.000000000000000e+00
0.000000000000000e+00 0.000000000000000e+00 0.000000000000000e+00
0.000000000000000e+00 0.000000000000000e+00 0.000000000000000e+00
0.000000000000000e+00 0.000000000000000e+00 0.000000000000000e+00
0.000000000000000e+00 0.000000000000000e+00 0.000000000000000e+00
0.000000000000000e+00 0.000000000000000e+00 0.000000000000000e+00
0.000000000000000e+00 0.000000000000000e+00 0.000000000000000e+00
0.000000000000000e+00 0.000000000000000e+00 0.000000000000000e+00
0.000000000000000e+00 0.000000000000000e+00 0.000000000000000e+00
0.000000000000000e+00 0.000000000000000e+00 0.000000000000000e+00
0.000000000000000e+00 0.000000000000000e+00 0.000000000000000e+00
0.000000000000000e+00 0.000000000000000e+00 0.000000000000000e+00
0.000000000000000e+00 0.000000000000000e+00 0.000000000000000e+00
0.000000000000000e+00 0.000000000000000e+00 0.000000000000000e+00
0.000000000000000e+00 0.000000000000000e+00 0.000000000000000e+00
0.000000000000000e+00 0.000000000000000e+00 0.000000000000000e+00
0.000000000000000e+00 0.000000000000000e+00 0.000000000000000e+00
0.000000000000000e+00 0.000000000000000e+00 0.000000000000000e+00
0.000000000000000e+00 0.000000000000000e+00 0.000000000000000e+00
0.000000000000000e+00 0.000000000000000e+00 0.000000000000000e+00
0.000000000000000e+00 0.000000000000000e+00 0.000000000000000e+00
0.000000000000000e+00 0.000000000000000e+00 0.000000000000000e+00
0.000000000000000e+00 0.000000000000000e+00 0.000000000000000e+00
0.000000000000000e+00 0.000000000000000e+00 0.000000000000000e+00
0.000000000000000e+00 0.000000000000000e+00 0.000000000000000e+00
0.000000000000000e+00 0.000000000000000e+00 0.000000000000000e+00
0.000000000000000e+00 0.000000000000000e+00 0.000000000000000e+00
0.000000000000000e+00 0.000000000000000e+00 0.000000000000000e+00
0.000000000000000e+00 0.000000000000000e+00 0.000000000000000e+00
0.000000000000000e+00 0.000000000000000e+00 0.000000000000000e+00
0.000000000000000e+00 0.000000000000000e+00 0.000000000000000e+00
0.000000000000000e+00 0.000000000000000e+00 0.000000000000000e+00
0.000000000000000e+00 0.000000000000000e+00 0.000000000000000e+00
0.000000000000000e+00 0.000000000000000e+00 0.000000000000000e+00
0.000000000000000e+00 0.000000000000000e+00 0.000000000000000e+00
0.000000000000000e+00 0.000000000000000e+00 0.000000000000000e+00
0.000000000000000e+00 0.000000000000000e+00 0.000000000000000e+00
0.000000000000000e+00 0.000000000000000e+00 0.000000000000000e+00
0.000000000000000e+00 0.000000000000000e+00 0.000000000000000e+00
0.000000000000000e+00 0.000000000000000e+00 0.000000000000000e+00
0.000000000000000e+00 0.000000000000000e+00 0.000000000000000e+00
0.000000000000000e+00 0.000000000000000e+00 0.000000000000000e+00
0.000000000000000e+00 0.000000000000000e+00 0.000000000000000e+00
0.000000000000000e+00 0.000000000000000e+00 0.000000000000000e+00
0.000000000000000e+00 0.000000000000000e+00 0.000000000000000e+00
0.000000000000000e+00 0.000000000000000e+00 0.000000000000000e+00
0.000000000000000e+00 0.000000000000000e+00 0.000000000000000e+00
0.000000000000000e+00 0.000000000000000e+00 0.000000000000000e+00
0.000000000000000e+00 0.000000000000000e+00 0.000000000000000e+00
0.000000000000000e+00 0.000000000000000e+00 0.000000000000000e+00
0.000000000000000e+00 0.000000000000000e+00 0.000000000000000e+00
0.000000000000000e+00 0.000000000000000e+00 0.000000000000000e+00
0.000000000000000e+00 0.000000000000000e+00 0.000000000000000e+00
0.000000000000000e+00 0.000000000000000e+00 0.000000000000000e+00
0.000000000000000e+00 0.000000000000000e+00 0.000000000000000e+00
0.000000000000000e+00 0.000000000000000e+00 0.000000000000000e+00
0.000000000000000e+00 0.000000000000000e+00 0.000000000000000e+00
0.000000000000000e+00 0.000000000000000e+00 0.000000000000000e+00
0.000000000000000e+00 0.000000000000000e+00 0.000000000000000e+00
0.000000000000000e+00 0.000000000000000e+00 0.000000000000000e+00
0.000000000000000e+00 0.000000000000000e+00 0.000000000000000e+00
0.000000000000000e+00 0.000000000000000e+00 0.000000000000000e+00
0.000000000000000e+00 0.000000000000000e+00 0.000000000000000e+00
0.000000000000000e+00 0.000000000000000e+00 0.000000000000000e+00
0.000000000000000e+00 0.000000000000000e+00 0.000000000000000e+00
0.000000000000000e+00 0.000000000000000e+00 0.000000000000000e+00
0.000000000000000e+00 0.000000000000000e+00 0.000000000000000e+00
0.000000000000000e+00 0.000000000000000e+00 0.000000000000000e+00
0.000000000000000e+00 0.000000000000000e+00 0.000000000000000e+00
0.000000000000000e+00 0.000000000000000e+00 0.000000000000000e+00
0.000000000000000e+00 0.000000000000000e+00 0.000000000000000e+00
0.000000000000000e+00 0.000000000000000e+00 0.000000000000000e+00
0.000000000000000e+00 0.000000000000000e+00 0.000000000000000e+00
0.000000000000000e+00 0.000000000000000e+00 0.000000000000000e+00
0.000000000000000e+00 0.000000000000000e+00 0.000000000000000e+00
0.000000000000000e+00 0.000000000000000e+00 0.000000000000000e+00
0.000000000000000e+00 0.000000000000000e+00 0.000000000000000e+00
0.000000000000000e+00 0.000000000000000e+00 0.000000000000000e+00
0.000000000000000e+00 0.000000000000000e+00 0.000000000000000e+00
0.000000000000000e+00 0.000000000000000e+00 0.000000000000000e+00
0.000000000000000e+00 0.000000000000000e+00 0.000000000000000e+00
0.000000000000000e+00 0.000000000000000e+00 0.000000000000000e+00
0.000000000000000e+00 0.000000000000000e+00 0.000000000000000e+00
0.000000000000000e+00 0.000000000000000e+00 0.000000000000000e+00
0.000000000000000e+00 0.000000000000000e+00 0.000000000000000e+00
0.000000000000000e+00 0.000000000000000e+00 0.000000000000000e+00
0.000000000000000e+00 0.000000000000000e+00 0.000000000000000e+00
0.000000000000000e+00 0.000000000000000e+00 0.000000000000000e+00
0.000000000000000e+00 0.000000000000000e+00 0.000000000000000e+00
0.000000000000000e+00 0.000000000000000e+00 0.000000000000000e+00
0.000000000000000e+00 0.000000000000000e+00 0.000000000000000e+00
0.000000000000000e+00 0.000000000000000e+00 0.000000000000000e+00
0.000000000000000e+00 0.000000000000000e+00 0.000000000000000e+00
0.000000000000000e+00 0.000000000000000e+00 0.000000000000000e+00
0.000000000000000e+00 0.000000000000000e+00 0.000000000000000e+00
0.000000000000000e+00 0.000000000000000e+00 0.000000000000000e+00
0.000000000000000e+00 0.000000000000000e+00 0.000000000000000e+00
0.000000000000000e+00 0.000000000000000e+00 0.000000000000000e+00
0.000000000000000e+00 0.000000000000000e+00 0.000000000000000e+00
0.000000000000000e+00 0.000000000000000e+00 0.000000000000000e+00
0.000000000000000e+00 0.000000000000000e+00 0.000000000000000e+00
0.000000000000000e+00 0.000000000000000e+00 0.000000000000000e+00
0.000000000000000e+00 0.000000000000000e+00 0.000000000000000e+00
0.000000000000000e+00 0.000000000000000e+00 0.000000000000000e+00
0.000000000000000e+00 0.000000000000000e+00 0.000000000000000e+00
0.000000000000000e+00 0.000000000000000e+00 0.000000000000000e+00
0.000000000000000e+00 0.000000000000000e+00 0.000000000000000e+00
0.000000000000000e+00 0.000000000000000e+00 0.000000000000000e+00
0.000000000000000e+00 0.000000000000000e+00 0.000000000000000e+00
0.000000000000000e+00 0.000000000000000e+00 0.000000000000000e+00
0.000000000000000e+00 0.000000000000000e+00 0.000000000000000e+00
0.000000000000000e+00 0.000000000000000e+00 0.000000000000000e+00
0.000000000000000e+00 0.000000000000000e+00 0.000000000000000e+00
0.000000000000000e+00 0.000000000000000e+00 0.000000000000000e+00
0.000000000000000e+00 0.000000000000000e+00 0.000000000000000e+00
0.000000000000000e+00 0.000000000000000e+00 0.000000000000000e+00
0.000000000000000e+00 0.000000000000000e+00 0.000000000000000e+00
0.000000000000000e+00 0.000000000000000e+00 0.000000000000000e+00
0.000000000000000e+00 0.000000000000000e+00 0.000000000000000e+00
0.000000000000000e+00 0.000000000000000e+00 0.000000000000000e+00
0.000000000000000e+00 0.000000000000000e+00 0.000000000000000e+00
0.000000000000000e+00 0.000000000000000e+00 0.000000000000000e+00
0.000000000000000e+00 0.000000000000000e+00 0.000000000000000e+00
0.000000000000000e+00 0.000000000000000e+00 0.000000000000000e+00
0.000000000000000e+00 0.000000000000000e+00 0.000000000000000e+00
0.000000000000000e+00 0.000000000000000e+00 0.000000000000000e+00
0.000000000000000e+00 0.000000000000000e+00 0.000000000000000e+00
0.000000000000000e+00 0.000000000000000e+00 0.000000000000000e+00
0.000000000000000e+00 0.000000000000000e+00 0.000000000000000e+00
0.000000000000000e+00 0.000000000000000e+00 0.000000000000000e+00
0.000000000000000e+00 0.000000000000000e+00 0.000000000000000e+00
0.000000000000000e+00 0.000000000000000e+00 0.000000000000000e+00
0.000000000000000e+00 0.000000000000000e+00 0.000000000000000e+00
0.000000000000000e+00 0.000000000000000e+00 0.000000000000000e+00
0.000000000000000e+00 0.000000000000000e+00 0.000000000000000e+00
0.000000000000000e+00 0.000000000000000e+00 0.000000000000000e+00
0.000000000000000e+00 0.000000000000000e+00 0.000000000000000e+00
0.000000000000000e+00 0.000000000000000e+00 0.000000000000000e+00
0.000000000000000e+00 0.000000000000000e+00 0.000000000000000e+00
0.000000000000000e+00 0.000000000000000e+00 0.000000000000000e+00
0.000000000000000e+00 0.000000000000000e+00 0.000000000000000e+00
0.000000000000000e+00 0.000000000000000e+00 0.000000000000000e+00
0.000000000000000e+00 0.000000000000000e+00 0.000000000000000e+00
0.000000000000000e+00 0.000000000000000e+00 0.000000000000000e+00
0.000000000000000e+00 0.000000000000000e+00 0.000000000000000e+00
0.000000000000000e+00 0.000000000000000e+00 0.000000000000000e+00
0.000000000000000e+00 0.000000000000000e+00 0.000000000000000e+00
0.000000000000000e+00 0.000000000000000e+00 0.000000000000000e+00
0.000000000000000e+00 0.000000000000000e+00 0.000000000000000e+00
0.000000000000000e+00 0.000000000000000e+00 0.000000000000000e+00
0.000000000000000e+00 0.000000000000000e+00 0.000000000000000e+00
0.000000000000000e+00 0.000000000000000e+00 0.000000000000000e+00
0.000000000000000e+00 0.000000000000000e+00 0.000000000000000e+00
0.000000000000000e+00 0.000000000000000e+00 0.000000000000000e+00
0.000000000000000e+00 0.000000000000000e+00 0.000000000000000e+00
0.000000000000000e+00 0.000000000000000e+00 0.000000000000000e+00
0.000000000000000e+00 0.000000000000000e+00 0.000000000000000e+00
0.000000000000000e+00 0.000000000000000e+00 0.000000000000000e+00
0.000000000000000e+00 0.000000000000000e+00 0.000000000000000e+00
0.000000000000000e+00 0.000000000000000e+00 0.000000000000000e+00
0.000000000000000e+00 0.000000000000000e+00 0.000000000000000e+00
0.000000000000000e+00 0.000000000000000e+00 0.000000000000000e+00
0.000000000000000e+00 0.000000000000000e+00 0.000000000000000e+00
0.000000000000000e+00 0.000000000000000e+00 0.000000000000000e+00
0.000000000000000e+00 0.000000000000000e+00 0.000000000000000e+00
0.000000000000000e+00 0.000000000000000e+00 0.000000000000000e+00
0.000000000000000e+00 0.000000000000000e+00 0.000000000000000e+00
0.000000000000000e+00 0.000000000000000e+00 0.000000000000000e+00
0.000000000000000e+00 0.000000000000000e+00 0.000000000000000e+00
0.000000000000000e+00 0.000000000000000e+00 0.000000000000000e+00
0.000000000000000e+00 0.000000000000000e+00 0.000000000000000e+00
0.000000000000000e+00 0.000000000000000e+00 0.000000000000000e+00
0.000000000000000e+00 0.000000000000000e+00 0.000000000000000e+00
0.000000000000000e+00 0.000000000000000e+00 0.000000000000000e+00
0.000000000000000e+00 0.000000000000000e+00 0.000000000000000e+00
0.000000000000000e+00 0.000000000000000e+00 0.000000000000000e+00
0.000000000000000e+00 0.000000000000000e+00 0.000000000000000e+00
0.000000000000000e+00 0.000000000000000e+00 0.000000000000000e+00
0.000000000000000e+00 0.000000000000000e+00 0.000000000000000e+00
0.000000000000000e+00 0.000000000000000e+00 0.000000000000000e+00
0.000000000000000e+00 0.000000000000000e+00 0.000000000000000e+00
0.000000000000000e+00 0.000000000000000e+00 0.000000000000000e+00
0.000000000000000e+00 0.000000000000000e+00 0.000000000000000e+00
0.000000000000000e+00 0.000000000000000e+00 0.000000000000000e+00
0.000000000000000e+00 0.000000000000000e+00 0.000000000000000e+00
0.000000000000000e+00 0.000000000000000e+00 0.000000000000000e+00
0.000000000000000e+00 0.000000000000000e+00 0.000000000000000e+00
0.000000000000000e+00 0.000000000000000e+00 0.000000000000000e+00
0.000000000000000e+00 0.000000000000000e+00 0.000000000000000e+00
0.000000000000000e+00 0.000000000000000e+00 0.000000000000000e+00
0.000000000000000e+00 0.000000000000000e+00 0.000000000000000e+00
0.000000000000000e+00 0.000000000000000e+00 0.000000000000000e+00
0.000000000000000e+00 0.000000000000000e+00 0.000000000000000e+00
0.000000000000000e+00 0.000000000000000e+00 0.000000000000000e+00
0.000000000000000e+00 0.000000000000000e+00 0.000000000000000e+00
0.000000000000000e+00 0.000000000000000e+00 0.000000000000000e+00
0.000000000000000e+00 0.000000000000000e+00 0.000000000000000e+00
0.000000000000000e+00 0.000000000000000e+00 0.000000000000000e+00
0.000000000000000e+00 0.000000000000000e+00 0.000000000000000e+00
0.000000000000000e+00 0.000000000000000e+00 0.000000000000000e+00
0.000000000000000e+00 0.000000000000000e+00 0.000000000000000e+00
0.000000000000000e+00 0.000000000000000e+00 0.000000000000000e+00
0.000000000000000e+00 0.000000000000000e+00 0.000000000000000e+00
0.000000000000000e+00 0.000000000000000e+00 0.000000000000000e+00
0.000000000000000e+00 0.000000000000000e+00 0.000000000000000e+00
0.000000000000000e+00 0.000000000000000e+00 0.000000000000000e+00
0.000000000000000e+00 0.000000000000000e+00 0.000000000000000e+00
0.000000000000000e+00 0.000000000000000e+00 0.000000000000000e+00
0.000000000000000e+00 0.000000000000000e+00 0.000000000000000e+00
0.000000000000000e+00 0.000000000000000e+00 0.000000000000000e+00
0.000000000000000e+00 0.000000000000000e+00 0.000000000000000e+00
0.000000000000000e+00 0.000000000000000e+00 0.000000000000000e+00
0.000000000000000e+00 0.000000000000000e+00 0.000000000000000e+00
0.000000000000000e+00 0.000000000000000e+00 0.000000000000000e+00
0.000000000000000e+00 0.000000000000000e+00 0.000000000000000e+00
0.000000000000000e+00 0.000000000000000e+00 0.000000000000000e+00
0.000000000000000e+00 0.000000000000000e+00 0.000000000000000e+00
-1.099999999824089e-01  1.967224787545825e-06  1.957560999916516e-18
-1.099999545743692e-01  9.996817810107627e-05  1.956553267631937e-18
-1.099960271259908e-01 -9.348884950789507e-04  1.967116150386262e-18
-1.099999962131354e-01 -2.886364702252166e-05  1.957877708845671e-18
-1.099908936440604e-01 -1.415385241165335e-03  1.971961723467166e-18
-1.099999508271506e-01 -1.040097320709460e-04  1.958648999873381e-18
-1.099940118565613e-01 -1.147761167918405e-03  1.969267475645727e-18
-1.099962608626408e-01 -9.069709134169604e-04  1.966833466998845e-18
-1.099962608626408e-01 -9.069709134169604e-04  1.966833466998845e-18
-1.099887319081867e-01 -1.574437432533647e-03  1.973557456285871e-18
-1.099971593696482e-01 -7.905255265552288e-04  1.965653022954098e-18
-1.099805477189251e-01 -2.068604226325225e-03  1.978489193165032e-18
-1.099959850367825e-01 -9.398275309028270e-04  1.967166148157475e-18
-1.099854009874001e-01 -1.792085277194900e-03  1.975734431115855e-18
-1.099952908522648e-01 -1.017836099575032e-03  1.967955304020751e-18
-1.099815718973804e-01 -2.013415749730726e-03  1.977940378093718e-18
-1.099815718973804e-01 -2.013415749730726e-03  1.977940378093718e-18
-1.099771565762405e-01 -2.241658182018940e-03  1.980206910265051e-18
-1.099744455637306e-01 -2.370932928190236e-03  1.981486915618712e-18
-1.099984015775549e-01 -5.930011660110266e-04  1.963645638475924e-18
-1.099997075350912e-01 -2.536576321279064e-04  1.960182248011249e-18
-1.099754434548001e-01 -2.324185216372988e-03  1.981024358523806e-18
-1.099563252938978e-01  3.099439927221934e-03  1.924958349943263e-18
-1.099669548984307e-01  2.696076847280626e-03  1.929291925551487e-18
-1.099669548984307e-01  2.696076847280626e-03  1.929291925551487e-18
-1.094251377878959e-01  1.123117180439916e-02  1.831954643638523e-18
-1.028965907810745e-01 -3.888819365349876e-02  2.230729635265192e-18
-1.031375184829786e-01  3.824463728646374e-02  1.442505413356027e-18
-8.965523142340857e-02 -6.373334667515101e-02  2.250358772393293e-18
-1.099768284742985e-01  2.257697662370267e-03  1.933971824485997e-18
-1.090006854610747e-01 -1.479359892033667e-02  2.091796073318389e-18
-1.099886312555004e-01  1.581453300440340e-03  1.941130034214921e-18
-1.098244670815113e-01  6.211797667501419e-03  1.890633430616984e-18
-1.099253955166090e-01 -4.050607425684564e-03  1.997872056805147e-18
-1.095976728875882e-01  9.399473263175046e-03  1.853845148652175e-18
-1.098739338561513e-01 -5.264851277483731e-03  2.009432149648736e-18
-1.099987204496470e-01  5.305652083690373e-04  1.952107076847988e-18
-1.099647526953041e-01 -2.784450513214323e-03  1.985563162429984e-18
-1.095188745130288e-01  1.027697063338172e-02  1.843426870873645e-18
-1.098561800435242e-01 -5.623140247648331e-03  2.012797488387814e-18
-1.099044790678021e-01  4.583173664065470e-03  1.908790859357497e-18
-1.096619667537615e-01 -8.617020813299323e-03  2.040102266451247e-18
-1.096224045900213e-01  9.106503824278541e-03  1.857295433355246e-18
-1.098608858064850e-01 -5.530440291187640e-03  2.011928774675552e-18
-1.098423137823217e-01  5.887792705752358e-03  1.894280067226443e-18
-1.095373274799058e-01 -1.007838720033171e-02  2.052899170651962e-18
-1.098722932287614e-01  5.298979208583635e-03  1.900863432020897e-18
-1.097650985461945e-01 -7.184924574700768e-03  2.027223351105710e-18
-1.099356535627904e-01  3.761924470541618e-03  1.917783683809178e-18
-1.098446007578717e-01 -5.844970859096264e-03  2.014870650135259e-18
-1.097058171635924e-01  8.039507476727586e-03  1.869742859461849e-18
-1.097832514017789e-01 -6.902007798729806e-03  2.024639535726829e-18
-1.099609466989990e-01  2.930904478115942e-03  1.926772233875098e-18
-1.096014359211699e-01 -9.355492719126042e-03  2.046612578648106e-18
-1.099876792561639e-01  1.646332847012000e-03  1.940446478479004e-18
-1.098916840923579e-01 -4.880345002696502e-03  2.005797373981991e-18
-1.098466568021161e-01  5.806202665945904e-03  1.895195664463907e-18
-1.098981505202667e-01 -4.732495348622365e-03  2.004393350294008e-18
-1.098245971600043e-01  6.209497454924552e-03  1.890659379367556e-18
-1.098873844744509e-01 -4.976216772219496e-03  2.006705904756940e-18
-1.097286060781569e-01  7.722241134839224e-03  1.873408211789227e-18
-1.098971041549773e-01 -4.756731898057969e-03  2.004623750716537e-18
-1.097314712129268e-01  7.681420796085948e-03  1.873878614431941e-18
-1.098368741776733e-01 -5.988411381818306e-03  2.016206945687152e-18
-1.099260341779414e-01  4.033238141987265e-03  1.914824845967777e-18
-1.019334095175152e-01 -4.134706790250640e-02  2.238852715425717e-18
-1.099055257734069e-01  4.558004439546634e-03  1.909068091370961e-18
-1.099751993637204e-01 -2.335706511932081e-03  1.981138391758394e-18
-1.099570827292596e-01  3.072451410630458e-03  1.925249126612848e-18
-1.098808589297181e-01 -5.118284953703507e-03  2.008049473859903e-18
-1.099762637007432e-01  2.285043199705782e-03  1.933680808204626e-18
-1.099863565570334e-01  1.732446625167809e-03  1.939538151682328e-18
-1.099989244507225e-01  4.864356937571214e-04  1.952564122022113e-18
-1.099989244507225e-01  4.864356937571214e-04  1.952564122022113e-18
-1.074402978816313e-01 -2.359199845511707e-02  2.154427474057112e-18
-1.097370772174420e-01  7.600913351243044e-03  1.874805564719078e-18
-1.099415061266741e-01  3.586813432338493e-03  1.919687039469378e-18
-1.069523421422262e-01 -2.571374166262308e-02  2.167543860308134e-18
-1.099995159141152e-01  3.263413247539861e-04  1.954219559302504e-18
-1.099816436300996e-01  2.009493573442024e-03  1.936607722775485e-18
-1.099945678690631e-01  1.093178529791340e-03  1.946252529226858e-18
-1.099982256822956e-01 -6.247773576916794e-04  1.963968997036105e-18
-1.099927031787189e-01  1.266983598225803e-03  1.944433560898151e-18
-1.099981621437231e-01 -6.358655542882624e-04  1.964081793483420e-18
-1.099723519736830e-01  2.466130851418898e-03  1.931750584518132e-18
-1.099803815703269e-01 -2.077418986441251e-03  1.978576804810579e-18
-1.099687184443976e-01  2.623159106258062e-03  1.930072513255676e-18
-1.099254304353333e-01 -4.049659690223981e-03  1.997862940587928e-18
-1.099250788576753e-01  4.059191807958119e-03  1.914541180414470e-18
-1.099939090548917e-01 -1.157571088164803e-03  1.969366439534257e-18
-1.067856837609554e-01  2.639730561449656e-02  1.629155895298913e-18
-1.099975173008343e-01 -7.390450950927434e-04  1.965130450034604e-18
-1.099803567374187e-01  2.078733246486730e-03  1.935873408497430e-18
-1.099930113604041e-01 -1.239940268697900e-03  1.970196777397650e-18
-1.099734052147689e-01  2.418707396146624e-03  1.932256586974943e-18
-1.099980395957679e-01  6.567229916825948e-04  1.950798734847030e-18
-1.099938477917846e-01  1.163377822400175e-03  1.945518442362588e-18
-1.099938477917846e-01  1.163377822400175e-03  1.945518442362588e-18
-1.099938477917846e-01  1.163377822400175e-03  1.945518442362588e-18
-1.099970259173019e-01  8.088815415936015e-04  1.949217321404088e-18
-1.099930836796187e-01  1.233508268440244e-03  1.944784279218458e-18
-1.099999955572323e-01  3.126353790634588e-05  1.957259912190438e-18
-1.099869316119245e-01  1.695545515098281e-03  1.939927530970912e-18
-1.099979217570648e-01  6.761724089141601e-04  1.950596802070109e-18
-1.099999999901990e-01 -1.468388721833055e-06  1.957596299735898e-18
-1.099993699226918e-01  3.723125175710581e-04  1.953744623904805e-18
-1.099993699226918e-01  3.723125175710581e-04  1.953744623904805e-18
-1.099825685436155e-01 -1.958217697001470e-03  1.977390974662396e-18
-1.099860322548918e-01  1.752914380635760e-03  1.939322081586795e-18
-1.099906121741523e-01 -1.437092048250307e-03  1.972179743931736e-18
-1.099272360278525e-01  4.000347394506428e-03  1.915184174802660e-18
-1.099861350328177e-01 -1.746453704715023e-03  1.975278646499080e-18
-1.099991777794246e-01  4.253091234353420e-04  1.953196683613065e-18
-1.098995418029140e-01 -4.700075691888557e-03  2.004085009632494e-18
-1.099836716822892e-01  1.895247551730021e-03  1.937817650754123e-18
-1.098708087712052e-01 -5.329669779751156e-03  2.010042521598471e-18
-1.099831862587478e-01  1.923210953982991e-03  1.937521698263325e-18
-1.098537966708400e-01 -5.669511178369605e-03  2.013231517895836e-18
-1.099955097640280e-01  9.938972540227645e-04  1.947289370413759e-18
-1.097687876420027e-01 -7.128341995501676e-03  2.026707637519695e-18
-1.099890092308693e-01  1.554943218151501e-03  1.941409142202637e-18
-1.099418506235997e-01 -3.576238450945271e-03  1.993290926171665e-18
-1.099998008528604e-01  2.093139531142212e-04  1.955427043858259e-18
-1.098635690734662e-01 -5.476877800320214e-03  2.011426191476260e-18
-1.099739925081020e-01  2.391855310811267e-03  1.932542933982580e-18
-1.098551605849649e-01 -5.643021606506000e-03  2.012983619646630e-18
-1.099873251634419e-01 -1.669821365063623e-03  1.974512456841599e-18
-1.099170643161917e-01 -4.270710960730692e-03  1.999985277021178e-18
-1.099170643161917e-01 -4.270710960730692e-03  1.999985277021178e-18
-1.096653303998961e-01 -8.574106850369651e-03  2.039721201166830e-18
-1.099227691684096e-01 -4.121264168731664e-03  1.998551290173351e-18
-1.093632395063809e-01 -1.181870740266931e-02  2.067682225373826e-18
-1.098777778767445e-01 -5.184007028227743e-03  2.008669913287809e-18
-1.089709988663681e-01  1.501070971226660e-02  1.785039320808263e-18
-1.099444194165535e-01  3.496375145332456e-03  1.920668105483220e-18
-1.097394309506493e-01  7.566855002416282e-03  1.875197389370908e-18
-1.099690053765263e-01 -2.611102544417022e-03  1.983857756558089e-18
-1.096160890886498e-01  9.182211765642585e-03  1.856405169879956e-18
-1.099052216810619e-01 -4.565331010623681e-03  2.002801637188238e-18
-1.097225500040721e-01  7.807817915642002e-03  1.872421166391795e-18
-9.729627647155371e-02 -5.131700093313041e-02  2.258766841598040e-18
-1.099822326597432e-01  1.976992457762432e-03  1.936952142417494e-18
-1.097397870592480e-01 -7.561688712902754e-03  2.030644017655237e-18
-1.097408464561914e-01  7.546298369302810e-03  1.875433791918108e-18
-1.099579699015330e-01 -3.040535336661691e-03  1.988073633056637e-18
-1.099164186091901e-01  4.287297532154692e-03  1.912043357510533e-18
-1.099900030923095e-01 -1.482976653114934e-03  1.972640352240220e-18
-1.098334549760804e-01  6.050798956935229e-03  1.892447584186824e-18
-1.099976884250200e-01 -7.131207135853103e-04  1.964867131791211e-18
-1.099935399193643e-01  1.192130868291178e-03  1.945217536304258e-18
-1.099988086189755e-01 -5.119593791728784e-04  1.962820207343945e-18
-1.099998811746649e-01  1.616835165322943e-04  1.955917858713683e-18
-1.099999918072815e-01  4.245465746202387e-05  1.957144860767569e-18
-1.099999918072815e-01  4.245465746202387e-05  1.957144860767569e-18
-1.099997804349076e-01  2.197823287524564e-04  1.955319121739613e-18
-1.099999996482496e-01  8.796874755947992e-06  1.957490821797345e-18
-1.099987939318232e-01  5.151053719733189e-04  1.952267228753813e-18
-1.099996118784644e-01  2.922098340400745e-04  1.954571955770658e-18
-1.099990942882816e-01  4.463807317434804e-04  1.952978694667931e-18
-1.099974090535625e-01 -7.549844390262144e-04  1.965292294613888e-18
-1.099944025894606e-01  1.109684183715374e-03  1.946079998281141e-18
-1.099997684575638e-01  2.256973244784876e-04  1.955258134156156e-18
-1.099997684575638e-01  2.256973244784876e-04  1.955258134156156e-18
-1.099997684575638e-01  2.256973244784876e-04  1.955258134156156e-18
-1.099993882594896e-01  3.668549277107424e-04  1.953801024983223e-18
-1.099939951063319e-01 -1.149365280567509e-03  1.969283659230155e-18
-1.099977862250679e-01 -6.978721832879694e-04  1.964712199150272e-18
-1.099409584097750e-01  3.603562673251594e-03  1.919505199827957e-18
-1.099898234112102e-01  1.496243954279804e-03  1.942026745125509e-18
-1.099615371576837e-01 -2.908667378589614e-03  1.986782221269689e-18
-1.099999544687062e-01 -1.000843768280735e-04  1.958608733080055e-18
-1.099895143717433e-01 -1.518791713171832e-03  1.972999641606275e-18
-1.099737940628252e-01 -2.400962187798937e-03  1.981783861116668e-18
-1.099737940628252e-01 -2.400962187798937e-03  1.981783861116668e-18
-1.099332991018637e-01 -3.830110779088649e-03  1.995747187588856e-18
-4.162440033137626e-02 -1.018204758241350e-01  1.786924255900899e-18
-1.094787645193829e-01  1.069579914309540e-02  1.838409754902913e-18
-1.098603947474378e-01 -5.540186453276543e-03  2.012020173969012e-18
-1.092653384375077e-01  1.269195871947422e-02  1.814101768692570e-18
-1.099987230276409e-01  5.300304597513486e-04  1.952112617074251e-18
-1.099915005448261e-01  1.367409191663241e-03  1.943380322102656e-18
-1.099915005448261e-01  1.367409191663241e-03  1.943380322102656e-18
-1.099832858480063e-01  1.917507255698173e-03  1.937582074000861e-18
-1.096308077811863e-01  9.004775690960420e-03  1.858490197780634e-18
-1.099996660478941e-01  2.710523043670557e-04  1.954790305711738e-18
-1.099996660478941e-01  2.710523043670557e-04  1.954790305711738e-18
-1.099815738800365e-01 -2.013307445473830e-03  1.977939300590552e-18
-1.099758034362179e-01  2.307088762551484e-03  1.933446107098659e-18
-1.099991326714836e-01  4.368197812294168e-04  1.953077613036109e-18
-1.099999038047777e-01 -1.454748761248018e-04  1.959074202346214e-18
-1.099999038047777e-01 -1.454748761248018e-04  1.959074202346214e-18
-1.099999038047777e-01 -1.454748761248018e-04  1.959074202346214e-18
-1.099999998330743e-01  6.059997748614830e-06  1.957518945503542e-18
-1.099997913483674e-01 -2.142505905747318e-04  1.959778846531970e-18
-1.096760382204076e-01 -8.436032259043052e-03  2.038493093338258e-18
-1.099877955822970e-01  1.638542934067138e-03  1.940528587166957e-18
-1.098925024031239e-01  4.861883953709421e-03  1.905714073344663e-18
-1.099920256567254e-01 -1.324496859257817e-03  1.971048023875906e-18
-1.099274667411804e-01 -3.994002487054463e-03  1.997327321535577e-18
-1.099999947328002e-01  3.404091452014403e-05  1.957231360982919e-18
-1.099972459329413e-01  7.783875435453824e-04  1.949534551597183e-18
-1.099994668041931e-01  3.424949534678302e-04  1.954052712665977e-18
-1.099989909564354e-01  4.711566257277857e-04  1.952722292444156e-18
-1.099989909564354e-01  4.711566257277857e-04  1.952722292444156e-18
-1.099994668041929e-01  3.424949535285647e-04  1.954052712665348e-18
-1.099998408363268e-01 -1.871255799844334e-04  1.959501027599166e-18
-1.099989229208298e-01  4.867815292946783e-04  1.952560541461331e-18
-1.099994597681224e-01 -3.447473294254136e-04  1.961113752251940e-18
-1.099998580245953e-01  1.767330439020215e-04  1.955762818303919e-18
-1.099998580245953e-01  1.767330439020215e-04  1.955762818303919e-18
-1.099999886475720e-01 -4.997533351048457e-05  1.958094489116837e-18
-1.099999886475720e-01 -4.997533351048457e-05  1.958094489116837e-18
-1.099999886475720e-01 -4.997533351048457e-05  1.958094489116837e-18
-1.099919540231918e-01 -1.330432320707110e-03  1.971107733781936e-18
-1.099964554744293e-01  8.830532610267365e-04  1.948445082220013e-18
-1.097968687018101e-01 -6.681887703141930e-03  2.022620217805366e-18
-1.095292032155513e-01  1.016629937422670e-02  1.844747789439666e-18
-1.099813305203588e-01  2.026557912204263e-03  1.936426820732363e-18
-1.099517832954799e-01 -3.256585657362713e-03  1.990183373582564e-18
-1.086861718087177e-01 -1.695039992347750e-02  2.108359274512297e-18
-1.099112988434197e-01  4.416603508627214e-03  1.910623673236483e-18
-1.093850514150599e-01  1.161509909232938e-02  1.827296545403486e-18
-1.096623408358839e-01 -8.612258843901341e-03  2.040059996183160e-18
-1.099937388197968e-01 -1.173635566203094e-03  1.969528466673758e-18
-1.099937388197968e-01 -1.173635566203094e-03  1.969528466673758e-18
-1.099937388197968e-01 -1.173635566203094e-03  1.969528466673758e-18
-1.099842811314393e-01 -1.859544030251809e-03  1.976407616125043e-18
-1.099479769937587e-01 -3.382655019337551e-03  1.991410952800005e-18
-1.098530174911365e-01 -5.684588647561470e-03  2.013372566982305e-18
-9.521875786701764e-02  5.507620312133169e-02  1.128643397829318e-18
-1.096190426421651e-01  9.146884180699049e-03  1.856820709989677e-18
-1.082957607035295e-01 -1.928803291276205e-02  2.125429772965846e-18
-1.098136550020549e-01  6.400091803215775e-03  1.888506362923360e-18
-1.099964526565313e-01 -8.834041993364465e-04  1.966594740773841e-18
-1.097206893315252e-01  7.833921917843467e-03  1.872119844364549e-18
-1.099617591486763e-01 -2.900262906778673e-03  1.986699818969448e-18
-1.099468223993829e-01  3.419977233622147e-03  1.921495830218694e-18
-1.097837426279351e-01 -6.894189916388789e-03  2.024567951781193e-18
-1.096322213408257e-01  8.987549381012389e-03  1.858692347837462e-18
-1.099991411521855e-01 -4.346789406992441e-04  1.962032096737537e-18
-1.099993663450492e-01  3.733680323417441e-04  1.953733715205558e-18
-1.099993663450492e-01  3.733680323417441e-04  1.953733715205558e-18
-9.572662636940210e-02 -5.418867966589352e-02  2.260338501464105e-18
-1.098987707214080e-01  4.718070996001916e-03  1.907303251442955e-18
-1.099998327679085e-01  1.918098852542576e-04  1.955607459763143e-18
-1.099998327679085e-01  1.918098852542576e-04  1.955607459763143e-18
-1.099322849542863e-01  3.859109318161872e-03  1.916725196397808e-18
-1.099881838457982e-01 -1.612269922448110e-03  1.973936417952322e-18
-1.099934706591146e-01 -1.198504218773591e-03  1.969779210805636e-18
-1.099643717024737e-01  2.799456390109657e-03  1.928183767250352e-18
-1.099917359460212e-01  1.348341047611464e-03  1.943580429600939e-18
-1.099918043203360e-01 -1.342751785268492e-03  1.971231647664103e-18
-1.099741394529660e-01 -2.385089427991144e-03  1.981626920905316e-18
-1.099656308834234e-01  2.749549855997859e-03  1.928718947385737e-18
-1.099850546178916e-01 -1.813218326438314e-03  1.975945401461231e-18
-1.099955170635375e-01  9.930890820867302e-04  1.947297803990296e-18
-1.099324800816170e-01 -3.853546821411588e-03  1.995973408967825e-18
-1.099868382132553e-01  1.701593327191309e-03  1.939863729757924e-18
-1.099863025111531e-01 -1.735874397830830e-03  1.975172928440758e-18
-1.099689895790256e-01  2.611767786016570e-03  1.930194380097144e-18
-1.099916390081593e-01 -1.356225755065072e-03  1.971367145881679e-18
-1.099976268988593e-01  7.225486968224189e-04  1.950115055205544e-18
-1.099817726950984e-01 -2.002417250135790e-03  1.977830945940732e-18
-1.099995611744524e-01  3.107111646473109e-04  1.954380958981297e-18
-1.099934566153944e-01 -1.199792397570418e-03  1.969792196450062e-18
-1.099981474229819e-01 -6.384070111334228e-04  1.964107644056116e-18
-1.099981474229819e-01 -6.384070111334228e-04  1.964107644056116e-18
-1.099292823062752e-01 -3.943715459711070e-03  1.996842950744011e-18
-1.098767980519289e-01  5.204733408692644e-03  1.901911942079783e-18
-1.099366686278745e-01 -3.732142950750109e-03  1.994800568476270e-18
-1.098742095436677e-01  5.259094708610633e-03  1.901307333878840e-18
-1.098416688334234e-01 -5.899812529943036e-03  2.015381951287912e-18
-1.081990008883499e-01  1.982362748749001e-02  1.721849714172061e-18
-1.098521835141131e-01 -5.700682168086750e-03  2.013523080443451e-18
-1.092462182604620e-01  1.285549671492412e-02  1.812081208840106e-18
-1.094719678063825e-01 -1.076514117874382e-02  2.058792164947852e-18
-1.099473546475771e-01  3.402823239579067e-03  1.921681553267436e-18
-1.087950059470277e-01 -1.623720052798999e-02  2.102968243121919e-18
-1.097198004971747e-01  7.846360867313782e-03  1.871976220809949e-18
-1.096204804824066e-01 -9.129636291016187e-03  2.044630906580849e-18
-1.098032779922651e-01  6.575723698063985e-03  1.886517137738491e-18
-1.091377567843960e-01 -1.374591008518368e-02  2.083470798835721e-18
-1.099892025106994e-01  1.541210907136314e-03  1.941553676354891e-18
-1.094092861484053e-01 -1.138455552475810e-02  2.064040927464515e-18
-1.099624684393110e-01  2.873244635157861e-03  1.927391748999369e-18
-1.095449831821037e-01 -9.994831646032969e-03  2.052176910037553e-18
-1.099910074919276e-01  1.406510188610357e-03  1.942969799098836e-18
-1.099722702583008e-01 -2.469772101869880e-03  1.982463740067900e-18
-1.094167475331645e-01  1.131261946958716e-02  1.830968483875123e-18
-1.098724449681975e-01 -5.295832013039697e-03  2.009723968915010e-18
-1.098114035570931e-01 -6.438606124090684e-03  2.020379253045427e-18
-1.099106493260923e-01  4.432737835322200e-03  1.910446339955219e-18
-1.099998962170800e-01  1.511033803479157e-04  1.956026833467237e-18
-1.099995024110508e-01  3.308614833518212e-04  1.954172876011816e-18
-1.099479724395240e-01 -3.382803044459372e-03  1.991412392656319e-18
-1.098903694029680e-01  4.909858702565074e-03  1.905183190945919e-18
-1.099808831197029e-01 -2.050694567746643e-03  1.978311146786125e-18
-1.099867781520729e-01  1.705471115737872e-03  1.939822818028915e-18
-1.099991634457557e-01  4.290002725651444e-04  1.953158503311910e-18
-1.099991634457557e-01  4.290002725651444e-04  1.953158503311910e-18
-1.099938802387906e-01  1.160306000371281e-03  1.945550581651208e-18
-1.099966458816925e-01 -8.590080194435246e-04  1.966347517560108e-18
-1.099983745311207e-01  5.979970829467980e-04  1.951408082799974e-18
-1.099579614894148e-01 -3.040839537414726e-03  1.988076608905188e-18
-1.099863809958610e-01  1.730894402684225e-03  1.939554535122558e-18
-1.098399832547233e-01 -5.931111076522422e-03  2.015673535600546e-18
-1.099982856175249e-01  6.141345172922420e-04  1.951240694200846e-18
-1.098698596191999e-01 -5.349200618525844e-03  2.010226302579762e-18
-1.099988717024584e-01 -4.982210212672054e-04  1.962680173353044e-18
-1.099319814101462e-01 -3.867746532439224e-03  1.996110431386626e-18
-1.099489040688220e-01 -3.352386323935269e-03  1.991116451357106e-18
-1.099759988955792e-01 -2.297752580130719e-03  1.980762657519857e-18
-1.099866648384552e-01  1.712763180723588e-03  1.939745878159193e-18
-1.099637104975673e-01  2.825309471035174e-03  1.927906369305506e-18
-1.099983898418001e-01  5.951741016577955e-04  1.951437360379013e-18
-1.099605192399684e-01  2.946898110975040e-03  1.926600297964162e-18
-1.099990786877910e-01 -4.502086594889078e-04  1.962190547328187e-18
-1.099664984817406e-01  2.714629194800326e-03  1.929093184440827e-18
-1.099910236596728e-01 -1.405245280090382e-03  1.971859852833589e-18
-1.099555876987574e-01  3.125497371745320e-03  1.924677492781354e-18
-1.099811993086053e-01 -2.033666305164118e-03  1.978141814532655e-18
-1.099789923565614e-01  2.149707011508919e-03  1.935119898059721e-18
-1.099599223914157e-01 -2.969085326117465e-03  1.987374257040520e-18
-1.099795492489301e-01  2.121024988558000e-03  1.935424505990167e-18
-1.099992177859214e-01  4.148330813321212e-04  1.953305033103361e-18
-1.099992177859214e-01  4.148330813321212e-04  1.953305033103361e-18
-1.099997694230101e-01  2.252262962892281e-04  1.955262990980958e-18
-1.099985378411907e-01 -5.671620580241228e-04  1.963382576001909e-18
-1.099266082796232e-01  4.017560471007253e-03  1.914996145166088e-18
-1.099589295009471e-01 -3.005631881262586e-03  1.987732089948066e-18
-1.099393366952843e-01  3.652704066966358e-03  1.918971429515390e-18
-1.099802403392443e-01 -2.084882471981340e-03  1.978650976037653e-18
-1.099593682397653e-01  2.989537809032847e-03  1.926141707134823e-18
-1.099620707748956e-01 -2.888423600648287e-03  1.986583720160135e-18
-1.098834229087870e-01  5.062940830049974e-03  1.903486706546347e-18
-1.098928948275756e-01  4.853005915444315e-03  1.905812275623919e-18
-1.099997446379421e-01 -2.370223353574743e-04  1.960011986669551e-18
-1.096478151722181e-01  8.795261676551619e-03  1.860945544978788e-18
-1.099998854039543e-01  1.587800895465343e-04  1.955947765636480e-18
-1.095881587826987e-01  9.509755760162893e-03  1.852542721212761e-18
-1.099860763621597e-01 -1.750144696048053e-03  1.975315525979850e-18
-1.096331633130088e-01  8.976051580905286e-03  1.858827247075364e-18
-1.099939394678375e-01 -1.154677593801629e-03  1.969337251165448e-18
-1.099118789702838e-01  4.402142798866971e-03  1.910782575825654e-18
-1.099815462372198e-01  2.014816932181256e-03  1.936551293975794e-18
-1.099815462372198e-01  2.014816932181256e-03  1.936551293975794e-18
-1.099985565665883e-01  5.635186483277809e-04  1.951765575728938e-18
-1.099452496456097e-01  3.470170077171688e-03  1.920952127955407e-18
-1.099999349256637e-01 -1.196509493207720e-04  1.958809424712687e-18
-1.098690020568835e-01  5.366785539264802e-03  1.900108176275832e-18
-1.097936843191578e-01 -6.734009476162872e-03  2.023099080201038e-18
-1.097540937939040e-01  7.351115254085366e-03  1.877674979699108e-18
-1.096867798642537e-01 -8.295198792715818e-03  2.037237240997859e-18
-1.098238705155080e-01  6.222335975568665e-03  1.890514536726222e-18
-1.095583966541945e-01 -9.846711256156571e-03  2.050893735575505e-18
-1.095476456037358e-01  9.965607993405651e-03  1.847138024768776e-18
-1.095856850967035e-01 -9.538219010175319e-03  2.048209720199750e-18
-1.098603110910402e-01  5.541845088034981e-03  1.898154836902214e-18
-1.096352221437326e-01 -8.950869538448343e-03  2.043056488586856e-18
-1.096199153202831e-01  9.136419713098030e-03  1.856943758940914e-18
-1.098219496120594e-01 -6.256147649011351e-03  2.018692238123855e-18
-1.098829706119490e-01  5.072747726181680e-03  1.903377895089408e-18
-1.099820482691280e-01 -1.987223824110252e-03  1.977679743176232e-18
-1.099869924605398e-01  1.691593770708178e-03  1.939969216582655e-18
-1.099995357467769e-01 -3.195864413328993e-04  1.960856585397808e-18
-1.099942497712762e-01 -1.124729858245625e-03  1.969035071281603e-18
-1.099586393798634e-01  3.016227068554958e-03  1.925854513757311e-18
-1.099617611801793e-01 -2.900185882512208e-03  1.986699063726113e-18
-1.099874454447907e-01  1.661879817890624e-03  1.940282578048711e-18
-1.099467005241627e-01 -3.423893083905019e-03  1.991811942633737e-18
-1.099643726234040e-01  2.799420215164790e-03  1.928184155323824e-18
-1.098577929046591e-01 -5.591541658339781e-03  2.012501527149321e-18
-1.099721989445481e-01  2.472945470621618e-03  1.931677843445385e-18
-1.097151701338922e-01 -7.910843348911996e-03  2.033793367151487e-18
-1.099665881733468e-01  2.710993455076428e-03  1.929132136514849e-18
-1.099978438199576e-01 -6.887343175233047e-04  1.964619335868832e-18
-1.099908211293838e-01  1.421009248322815e-03  1.942817509983618e-18
-1.099908211293838e-01  1.421009248322815e-03  1.942817509983618e-18
-1.099967467623212e-01 -8.459915517921935e-04  1.966215573374625e-18
-1.099110789252119e-01  4.422072986254628e-03  1.910563562633932e-18
-1.099525077788466e-01 -3.232032354818700e-03  1.989943990364142e-18
-1.099938753695018e-01  1.160767504040927e-03  1.945545753213849e-18
-1.088425464036721e-01 -1.591540424759657e-02  2.100507942374573e-18
-1.085794631219093e-01 -1.762101552572584e-02  2.113350597841418e-18
-1.069893481423356e-01 -2.555933066568915e-02  2.166615909322045e-18
 2.348242538234525e-02  1.074642996448705e-01 -1.522054410669880e-18
-1.090363773342981e-01 -1.452819389368468e-02  2.089704312542424e-18
-1.094913488750006e-01  1.056619711782961e-02  1.839965322251185e-18
-1.099434791507352e-01 -3.525817952161220e-03  1.992801855445939e-18
-1.098239845346540e-01  6.220323217646695e-03  1.890537246189404e-18
-1.099990337024336e-01  4.610689002881512e-04  1.952826700874492e-18
-1.099990337024336e-01  4.610689002881512e-04  1.952826700874492e-18
-1.099620571845198e-01 -2.888940938877988e-03  1.986588793765562e-18
-1.099350168195930e-01  3.780486327936172e-03  1.917581635862711e-18
-1.099985757609181e-01 -5.597593853433532e-04  1.963307191056075e-18
-1.099573233365013e-01  3.063828433845281e-03  1.925342006459707e-18
-1.099984302381031e-01  5.876607466067555e-04  1.951515276273171e-18
-1.099845000384024e-01  1.846551191432334e-03  1.938332729751318e-18
-1.099987307344279e-01  5.284286278701912e-04  1.952129212466399e-18
-1.099987307344279e-01  5.284286278701912e-04  1.952129212466399e-18
-1.099995313765950e-01 -3.210871056400379e-04  1.960871926405816e-18
-1.099958892959586e-01  9.509668717414802e-04  1.947737218719745e-18
 1.096883745873443e-01 -8.274084867003121e-03 -1.867022250541441e-18
 1.099930711636453e-01  1.234623824978887e-03 -1.970143217139761e-18
 1.099997304759383e-01  2.435061002197050e-04 -1.960078352968395e-18
 1.098686995481945e-01 -5.372974929078238e-03 -1.900039199040961e-18
 1.099660753625975e-01 -2.731715458728614e-03 -1.928910099376049e-18
 1.099660753625975e-01 -2.731715458728614e-03 -1.928910099376049e-18
 1.099303809537295e-01 -3.912971168797966e-03 -1.916137901487910e-18
 1.099887379608169e-01 -1.574014544620312e-03 -1.941208363677074e-18
 1.099040907580566e-01 -4.592475873076378e-03 -1.908688372104024e-18
 1.099602108553819e-01 -2.958382774401584e-03 -1.926476809147933e-18
 1.099505021694013e-01 -3.299556439341166e-03 -1.922798596031364e-18
 1.099505021694013e-01 -3.299556439341166e-03 -1.922798596031364e-18
 1.099560861905163e-01 -3.107910819776487e-03 -1.924867059469612e-18
 1.099498275485455e-01 -3.321960572467552e-03 -1.922556396019425e-18
 1.099707213269199e-01 -2.537804333837447e-03 -1.930985146218957e-18
 1.099666059991710e-01 -2.710270285970548e-03 -1.929139884046512e-18
 1.099544951922362e-01 -3.163698313750973e-03 -1.924265549522822e-18
 1.099607270877211e-01 -2.939132242629699e-03 -1.926683788338979e-18
 1.099783631017676e-01 -2.181662085588139e-03 -1.934780372942265e-18
 1.099782116779591e-01 -2.189282101042357e-03 -1.934699385284309e-18
 1.099782116779591e-01 -2.189282101042357e-03 -1.934699385284309e-18
 1.099972804246554e-01 -7.734980152853488e-04 -1.949585403545024e-18
 1.099569343023166e-01 -3.077758735827049e-03 -1.925191954339953e-18
 1.099999396609695e-01 -1.152153765804149e-04 -1.956396342804695e-18
 1.096480892958908e-01 -8.791843592801470e-03 -1.860985542905371e-18
 1.099472413215044e-01  3.406482906283545e-03 -1.991642683517078e-18
 1.099468075874079e-01 -3.420453381852961e-03 -1.921490674371831e-18
 1.098223644003551e-01  6.248862097657459e-03 -2.018624763382827e-18
 1.099260860188704e-01 -4.031824967906984e-03 -1.914840288389256e-18
 1.091476405751711e-01  1.366720735458445e-02 -2.082838050715922e-18
 1.088237656027321e-01 -1.604331761330974e-02 -1.771809458189410e-18
 1.096830658655847e-01  8.344163368829939e-03 -2.037674239193468e-18
 1.094773008604226e-01 -1.071077010846738e-02 -1.838229886115127e-18
 1.096243742635034e-01  9.082762098351977e-03 -2.044218585758567e-18
 1.096360474758619e-01 -8.940754658891050e-03 -1.859241237245022e-18
 1.092036112088405e-01  1.321254324300757e-02 -2.079162606326291e-18
 1.091545109114638e-01 -1.361222787346191e-02 -1.802674029417040e-18
 1.098588442551433e-01  5.570847235752521e-03 -2.012307609510891e-18
 1.099333429598696e-01 -3.828851742703446e-03 -1.917054910465321e-18
 1.099824963096497e-01  1.962270495579035e-03 -1.977431330205929e-18
 1.099999792793050e-01  6.751705264422159e-05 -1.958274557189045e-18
 1.099999792793050e-01  6.751705264422159e-05 -1.958274557189045e-18
 1.099909745939208e-01  1.409080508485794e-03 -1.971898385228538e-18
 1.099976140240678e-01 -7.245060469874981e-04 -1.950094715021377e-18
 1.099442639199651e-01  3.501261357994825e-03 -1.992563511266142e-18
 1.099914136993314e-01 -1.374377103441200e-03 -1.943307183821209e-18
 1.098892106652304e-01  4.935724807215120e-03 -2.006322363769372e-18
 1.091175989280593e-01 -1.390502082613064e-02 -1.799008795416794e-18
 1.098859781980506e-01  5.007174398549092e-03 -2.006998956755442e-18
 1.098832782043656e-01 -5.066080443689000e-03 -1.903451872968949e-18
 1.099840510289536e-01  1.873104177679464e-03 -1.976542846765639e-18
 1.099890208592677e-01 -1.554120464928252e-03 -1.941417802634343e-18
 1.099999998574576e-01  5.599933681571199e-06 -1.957638747497196e-18
 1.099999998574576e-01  5.599933681571199e-06 -1.957638747497196e-18
 1.099990439280561e-01  4.586228444972192e-04 -1.962276381431570e-18
 1.099987916639379e-01  5.155894427809034e-04 -1.962857203193700e-18
 1.099988927382124e-01  4.935548269281567e-04 -1.962632604257639e-18
 1.099659068799450e-01  2.738489377595078e-03 -1.985111468550310e-18
 1.099999536595727e-01  1.009697567085285e-04 -1.958617815637197e-18
 1.098440313964216e-01  5.855661071295246e-03 -2.014970355715989e-18
 1.099891045635161e-01 -1.548185168465060e-03 -1.941480275266325e-18
 1.098359719071059e-01 -6.004937570147326e-03 -1.892963585065842e-18
 1.099990252754224e-01 -4.630750014033426e-04 -1.952805938945577e-18
 1.099739789490811e-01 -2.392478653402817e-03 -1.932536288064944e-18
 1.094194913403841e-01  1.128604956623596e-02 -2.063210428089558e-18
 1.099871555864155e-01 -1.680953898700362e-03 -1.940081440421916e-18
 1.099871555864155e-01 -1.680953898700362e-03 -1.940081440421916e-18
 1.099847876744834e-01 -1.829338732639709e-03 -1.938514700339783e-18
 1.099847876744834e-01 -1.829338732639709e-03 -1.938514700339783e-18
 1.099899265807374e-01 -1.488640575801859e-03 -1.942106703102080e-18
 1.099999805616197e-01  6.539451980322878e-05 -1.958252771755478e-18
 1.099999805616197e-01  6.539451980322878e-05 -1.958252771755478e-18
 1.099951148503710e-01 -1.036681751371104e-03 -1.946842747286295e-18
 1.099513758346278e-01  3.270313757477787e-03 -1.990317173572319e-18
 1.099999008572841e-01 -1.476867888643007e-04 -1.956062020281546e-18
 1.099999008572841e-01 -1.476867888643007e-04 -1.956062020281546e-18
 1.099977365775424e-01  7.056541770015814e-04 -1.964791272771767e-18
 1.099999826749694e-01  6.173739835069128e-05 -1.958215233770660e-18
 1.099902515793544e-01  1.464430780285764e-03 -1.972454222257458e-18
 1.099573391402518e-01 -3.063261202634581e-03 -1.925348115800931e-18
 1.098834277430039e-01  5.062835909642150e-03 -2.007525470171839e-18
 1.099736830100544e-01 -2.406043475085249e-03 -1.932391647861880e-18
 1.099901575320871e-01  1.471477511414412e-03 -1.972524951176623e-18
 1.099996967716802e-01 -2.582830585492641e-04 -1.954922051840236e-18
 1.099996967716802e-01 -2.582830585492641e-04 -1.954922051840236e-18
 1.099982331583280e-01  6.234597389041086e-04 -1.963955592026631e-18
 1.099971981013147e-01 -7.851177364390355e-04 -1.949464550089234e-18
 1.099955402771971e-01  9.905145770987801e-04 -1.967679024116631e-18
 1.099910541475057e-01 -1.402856913729578e-03 -1.943008165462771e-18
 1.099973882748470e-01  7.580057469954220e-04 -1.965322967673688e-18
 1.099959592552578e-01 -9.428401325759637e-04 -1.947821963021639e-18
 1.099974023398757e-01  7.559619563387560e-04 -1.965302218771106e-18
 1.099942532765509e-01 -1.124387003613875e-03 -1.945926274946463e-18
 1.099999933301352e-01  3.830626763267953e-05 -1.957974677035778e-18
 1.099999626820357e-01 -9.060877814950526e-05 -1.956649576352032e-18
 1.099999626820357e-01 -9.060877814950526e-05 -1.956649576352032e-18
 1.099960908678445e-01 -9.273585028625932e-04 -1.947983373345882e-18
 1.099973116712053e-01 -7.690416813488266e-04 -1.949631746826990e-18
 1.099817486586304e-01  2.003737006139567e-03 -1.977844078196622e-18
 1.099990882065497e-01 -4.478769112312773e-04 -1.952963213735541e-18
 1.099999892401069e-01  4.865363604060016e-05 -1.958080919700334e-18
 1.099885602845160e-01 -1.586381586919481e-03 -1.941078134848328e-18
 1.099883813958869e-01  1.598736348759648e-03 -1.973800881038510e-18
 1.099999863313507e-01  5.483705483541800e-05 -1.958144400317405e-18
 1.099999863313507e-01  5.483705483541800e-05 -1.958144400317405e-18
 1.099999999870933e-01  1.685051172468439e-06 -1.957598525808602e-18
 1.099999855488460e-01 -5.638487035761206e-05 -1.957001621514190e-18
 1.099999925754402e-01 -4.041538114966762e-05 -1.957165827261168e-18
 1.099998824330621e-01 -1.608250988785327e-04 -1.955926701037917e-18
 1.099999873600462e-01  5.273319253544476e-05 -1.958122802203409e-18
 1.099999976540096e-01 -2.271822612521355e-05 -1.957347749479375e-18
 1.099999976540096e-01 -2.271822612521355e-05 -1.957347749479375e-18
 1.099999275370855e-01  1.262609831696743e-04 -1.958877208920684e-18
 1.099996150216765e-01 -2.910241964261426e-04 -1.954584193703639e-18
 1.099999564830958e-01 -9.784537263038944e-05 -1.956575112655060e-18
 1.099999564830958e-01 -9.784537263038944e-05 -1.956575112655060e-18
 1.099956505188870e-01 -9.781957507617087e-04 -1.947453202556474e-18
 1.099990274939291e-01  4.625477161918662e-04 -1.962316415597543e-18
 1.099868833803961e-01 -1.698671324025540e-03 -1.939894556082121e-18
 1.099883503615087e-01  1.600869999069270e-03 -1.973822251226569e-18
 1.099328455846807e-01 -3.843105730351559e-03 -1.916899604535526e-18
 1.099598360644257e-01  2.972280721022319e-03 -1.987405552270610e-18
 1.099072243497265e-01 -4.516861270708600e-03 -1.909521050676376e-18
 1.098300905845357e-01  6.111562990971198e-03 -2.017351561602089e-18
 1.099714153995706e-01 -2.507547609722241e-03 -1.931308374918575e-18
 1.098935283155822e-01  4.838639721268826e-03 -2.005401687517806e-18
 1.098638694036651e-01 -5.470849993770606e-03 -1.898947610122958e-18
 1.099662105025903e-01  2.726269924260384e-03 -1.984991321433421e-18
 1.099662105025903e-01  2.726269924260384e-03 -1.984991321433421e-18
 1.067709268114259e-01 -2.645693080894064e-02 -1.628280650566523e-18
 1.587644671647975e-04  1.099998854265035e-01 -1.133034266014805e-18
 1.080682765091869e-01 -2.052431758509518e-02 -1.712323981698979e-18
 1.046554066752754e-01 -3.387101790074565e-02 -1.514455394717765e-18
 1.099846060634248e-01 -1.840225277834194e-03 -1.938399613057260e-18
 1.099846060634248e-01 -1.840225277834194e-03 -1.938399613057260e-18
 1.099991535557944e-01  4.315286881258482e-04 -1.961999949773759e-18
 1.099781705904238e-01 -2.191345153908500e-03 -1.934677456963857e-18
 1.099859026870473e-01  1.761025302282960e-03 -1.975424229500509e-18
 1.099899924983497e-01 -1.483762182062777e-03 -1.942157999908109e-18
 1.099905575987726e-01  1.441263026312343e-03 -1.972221627982144e-18
 1.099993483611893e-01  3.786292561958426e-04 -1.961459894121904e-18
 1.099971127446998e-01  7.969867186569125e-04 -1.965718579609203e-18
 1.099971127446998e-01  7.969867186569125e-04 -1.965718579609203e-18
 1.099999282311144e-01  1.256548830145372e-04 -1.958870993812840e-18
 1.099909581009441e-01  1.410367340905702e-03 -1.971911313451989e-18
 1.099920049072106e-01 -1.326218870357407e-03 -1.943812513421063e-18
 1.099811554171697e-01  2.036038581239658e-03 -1.978165407707097e-18
 1.099547250054069e-01 -3.155701029134844e-03 -1.924351808516570e-18
 1.099889027314472e-01  1.562458297739413e-03 -1.973437415031224e-18
 1.095673366445541e-01 -9.746729739706776e-03 -1.849737344872999e-18
 1.099814725604659e-01  2.018834671643473e-03 -1.977994287728944e-18
 1.099171054509294e-01 -4.269652127421556e-03 -1.912236880802139e-18
 1.099924774043169e-01 -1.286434786827780e-03 -1.944229689076531e-18
 1.099924774043169e-01 -1.286434786827780e-03 -1.944229689076531e-18
 1.099997303276399e-01  2.435730823295728e-04 -1.960079038546092e-18
 1.098887240119379e-01 -4.946547788920757e-03 -1.904776942215637e-18
 1.098482706270452e-01  5.775590034564588e-03 -2.014223097066788e-18
 1.096346204089981e-01 -8.958236867532905e-03 -1.859036217544905e-18
 1.099716462972600e-01  2.497400782868580e-03 -1.982736510597442e-18
 1.092814086417762e-01 -1.255283733938473e-02 -1.815817178788357e-18
 1.099114583472755e-01  4.412632318136179e-03 -2.001343702508638e-18
 1.095582587551829e-01 -9.848245454512640e-03 -1.848532755911269e-18
 1.099371304378046e-01  3.718514636389992e-03 -1.994668760955571e-18
 1.063235677080274e-01 -2.820104519049654e-02 -1.602399220008750e-18
 1.098820434869351e-01  5.092790898440701e-03 -2.007808612312007e-18
 1.097244664606025e-01 -7.780839282240513e-03 -1.872732467679417e-18
 1.097860892790744e-01  6.856719391009332e-03 -2.024224717201101e-18
 1.099074240634013e-01 -4.511999085505493e-03 -1.909574562006116e-18
 1.092435632398542e-01  1.287803908442246e-02 -2.076436691661034e-18
 1.091500518939090e-01 -1.364793653109867e-02 -1.802227782395460e-18
 1.096555852151356e-01  8.697852098424200e-03 -2.040819211450186e-18
 1.089835550139069e-01 -1.491927399475742e-02 -1.786202241212654e-18
 1.098117655569960e-01  6.432429187738745e-03 -2.020322229488398e-18
 1.093356442650802e-01 -1.207132524372359e-02 -1.821729728262972e-18
 1.093462851039560e-01  1.197455360188037e-02 -2.068981764641152e-18
 1.098181105888039e-01 -6.323178528648291e-03 -1.889375911360160e-18
 1.099220445564656e-01  4.140545921291650e-03 -1.998736507842503e-18
 1.075698586769860e-01 -2.299403192598465e-02 -1.678078624164698e-18
 1.098250191207372e-01  6.202029920083917e-03 -2.018190823686918e-18
 1.099988235785643e-01  5.087350310413818e-04 -1.962787344561934e-18
 1.099988235785643e-01  5.087350310413818e-04 -1.962787344561934e-18
 1.099777921294295e-01  2.210257527062233e-03 -1.979895590369445e-18
 1.099909472243869e-01  1.411215320940510e-03 -1.971919832577491e-18
 1.099965192616891e-01 -8.750716043673617e-04 -1.948528226013058e-18
 1.099875370880760e-01  1.655803520658548e-03 -1.974372200034276e-18
 1.099926070571658e-01  1.275301049889348e-03 -1.970552901520434e-18
 1.099924265115809e-01  1.290778871222265e-03 -1.970708717487933e-18
 1.099924265115809e-01  1.290778871222265e-03 -1.970708717487933e-18
 1.099963090152261e-01  9.011121055790245e-04 -1.966774126809340e-18
 1.099922506915507e-01  1.305675230289248e-03 -1.970858643238762e-18
 1.099973627588807e-01  7.616994755958976e-04 -1.965360465306176e-18
 1.099922506915507e-01  1.305675230284919e-03 -1.970858643238718e-18
 1.099855095696966e-01  1.785408831079793e-03 -1.975667765408873e-18
 1.099954797006831e-01 -9.972188408458634e-04 -1.947254707302707e-18
 1.099711671286033e-01  2.518412272192822e-03 -1.982943868639555e-18
 1.099998115029416e-01  2.036401660965910e-04 -1.959670186949610e-18
 1.099598708229875e-01  2.970994545913035e-03 -1.987392955858660e-18
 1.099999447305207e-01  1.102691358503408e-04 -1.958713204476548e-18
 1.099948991218413e-01  1.059323923962047e-03 -1.968374605034826e-18
 1.099833720959857e-01  1.912553893589251e-03 -1.976936095843632e-18
 1.099999908670813e-01  4.482456881567381e-05 -1.958041606379539e-18
 1.099446076289411e-01  3.490451735538747e-03 -1.992458563033451e-18
 1.099734537406849e-01 -2.416500019734023e-03 -1.932280130542265e-18
 1.096699034192310e-01  8.515414494695981e-03 -2.039199540867498e-18
 1.099559331250754e-01 -3.113321472941856e-03 -1.924808742991769e-18
 1.097111397890519e-01  7.966542925700438e-03 -2.034293935274921e-18
 1.099714657299380e-01 -2.505339340089810e-03 -1.931331959775771e-18
 1.094840597438630e-01  1.064145958044107e-02 -2.057736571906535e-18
 1.099848718369542e-01 -1.824271637858989e-03 -1.938568260669484e-18
 1.094178263923163e-01  1.130217977121426e-02 -2.063346530349180e-18
 1.099823003551381e-01 -1.973222894688438e-03 -1.936992078029006e-18
 1.093347918907934e-01  1.207904309938605e-02 -2.069850820832144e-18
 1.099835692605019e-01 -1.901181927194077e-03 -1.937754854484141e-18
 1.095960704036821e-01  9.418139522807817e-03 -2.047160766014225e-18
 1.099958966230588e-01 -9.501189869097352e-04 -1.947746060822868e-18
 1.097986177916137e-01  6.653084326164549e-03 -2.022355400709812e-18
 1.099128649352968e-01  4.377456078034021e-03 -2.001007311331791e-18
 1.094482791504171e-01  1.100337180196582e-02 -2.060818330169320e-18
 1.098669935971488e-01  5.407746103876309e-03 -2.010776831892722e-18
 1.090380306720865e-01 -1.451577993609252e-02 -1.791317455405789e-18
 1.098861270103042e-01  5.003907540634157e-03 -2.006968039268687e-18
 1.090598163399150e-01 -1.435118322313347e-02 -1.793396328784052e-18
 1.096471189018980e-01  8.803937557307651e-03 -2.041758532859348e-18
 1.067251160084455e-01 -2.664112634600471e-02 -1.625572850452028e-18
 1.098158346743989e-01  6.362582397503039e-03 -2.019676993890073e-18
 1.096364637198450e-01 -8.935648997528337e-03 -1.859301103618976e-18
 1.096985870317372e-01  8.137567403120551e-03 -2.035827758362216e-18
 1.059299759928333e-01 -2.964523884467245e-02 -1.580556220781330e-18
 1.099584883090230e-01  3.021729437655486e-03 -1.987889634955656e-18
 1.098507297546727e-01 -5.728627441699034e-03 -1.896065204761318e-18
 1.099976313833675e-01  7.218656722247779e-04 -1.964955967940190e-18
 1.099870808163051e-01 -1.685839110800817e-03 -1.940029916018938e-18
 1.099870808163051e-01 -1.685839110800817e-03 -1.940029916018938e-18
 1.099916299015937e-01 -1.356964108141486e-03 -1.943489943599422e-18
 1.099919810581501e-01 -1.328195355921311e-03 -1.943791781327414e-18
 1.099824113311859e-01 -1.967027650482134e-03 -1.937057706863819e-18
 1.099919943623265e-01 -1.327093138349973e-03 -1.943803342976246e-18
 1.099745468316180e-01 -2.366231007357214e-03 -1.932816079240181e-18
 1.099875441234115e-01 -1.655336129173135e-03 -1.940351568176911e-18
 1.099846486808299e-01 -1.837676400877816e-03 -1.938426560269612e-18
 1.099846486808299e-01 -1.837676400877816e-03 -1.938426560269612e-18
 1.099901313606661e-01 -1.473432476677156e-03 -1.942266605099022e-18
 1.099567776061332e-01 -3.083351824766615e-03 -1.925131698787411e-18
 1.099888076715492e-01 -1.569135746484654e-03 -1.941259732141224e-18
 1.099647144950257e-01 -2.785958726797753e-03 -1.928328551239927e-18
 1.099790386475923e-01 -2.147337456321550e-03 -1.935145068182592e-18
 1.099685739650983e-01 -2.629209022240782e-03 -1.930007781385243e-18
 1.099755324617488e-01 -2.319969774535074e-03 -1.933308937065924e-18
 1.099755324617488e-01 -2.319969774535074e-03 -1.933308937065924e-18
 1.099871368702556e-01 -1.682178077250133e-03 -1.940068529355636e-18
 1.099077888768633e-01 -4.503103840548502e-03 -1.909672449707383e-18
 1.099989286042723e-01 -4.854955325555966e-04 -1.952573855754298e-18
 1.098430251848454e-01 -5.874505786987169e-03 -1.894429245746498e-18
 1.099892531403780e-01 -1.537593451394232e-03 -1.941591745414047e-18
 1.099892531403780e-01 -1.537593451394232e-03 -1.941591745414047e-18
 1.099091187231768e-01  4.470528100186361e-03 -2.001896924235678e-18
 1.096146424702485e-01 -9.199464990940227e-03 -1.856202154957584e-18
 1.099708054159962e-01 -2.534157879261049e-03 -1.931024108680494e-18
 1.099738864448065e-01  2.396726981684142e-03 -1.981741989959923e-18
 1.099885314083334e-01 -1.588382396646559e-03 -1.941057063369106e-18
 1.099981766293683e-01  6.333547301710976e-04 -1.964056253467062e-18
 1.099997289108217e-01 -2.442120915494776e-04 -1.955067197868939e-18
 1.099854651810300e-01  1.788141189157053e-03 -1.975695049446259e-18
 1.099999105137911e-01  1.403102201744330e-04 -1.959021256777392e-18
 1.099929748540010e-01  1.243174471678406e-03 -1.970229357983390e-18
 1.099929748540010e-01  1.243174471678406e-03 -1.970229357983390e-18
 1.099985333044632e-01  5.680412545138918e-04 -1.963391528689976e-18
 1.099946139777842e-01  1.088529227068796e-03 -1.968669604436166e-18
 1.099761612190047e-01  2.289970203172218e-03 -1.980685585162707e-18
 1.099995620322229e-01 -3.104073437822726e-04 -1.954384095895366e-18
 1.099974422420729e-01 -7.501334559735346e-04 -1.949828345638241e-18
 1.099742239324882e-01  2.381190972363572e-03 -1.981588369103808e-18
 1.098301029749944e-01  6.111340319606166e-03 -2.017349494237697e-18
 1.098929584844362e-01 -4.851564236193485e-03 -1.905828221204267e-18
 1.099999053152914e-01  1.443281914716103e-04 -1.959062447459353e-18
 1.099999053152914e-01  1.443281914716103e-04 -1.959062447459353e-18
 1.099420357538589e-01  3.570542577416916e-03 -1.993235697754102e-18
 1.099959879046009e-01 -9.394918258335393e-04 -1.947856875506308e-18
 1.098795736774361e-01  5.145802995144242e-03 -2.008309339141724e-18
 1.098569310334167e-01 -5.608449332842058e-03 -1.897410350324951e-18
 1.096156929585246e-01  9.186939491603660e-03 -2.045134476452023e-18
 1.077857473058708e-01 -2.195979685049233e-02 -1.692547009529600e-18
 1.099341172269798e-01  3.806556123926462e-03 -1.995519731576132e-18
 1.095684066059213e-01 -9.734694337236238e-03 -1.849880045500092e-18
 1.099964091670374e-01  8.888027664270022e-04 -1.966649435142133e-18
 1.099202165501136e-01 -4.188793809208681e-03 -1.913123036369295e-18
 1.099927212830137e-01  1.265410904482469e-03 -1.970453316654403e-18
 1.099924979138857e-01 -1.284679984967010e-03 -1.944248084020422e-18
 1.099924979138857e-01 -1.284679984967010e-03 -1.944248084020422e-18
 1.099591214890450e-01 -2.998599899515300e-03 -1.926044206223713e-18
 1.099964116007264e-01  8.885015270129283e-04 -1.966646383326983e-18
 1.098962046573177e-01 -4.777468149225548e-03 -1.906647301099472e-18
 1.099965802915232e-01 -8.673662262449610e-04 -1.948608482072816e-18
 1.097835458325050e-01 -6.897322991001092e-03 -1.882861664511098e-18
 1.097784555800956e-01  6.977871484120197e-03 -2.025333660167587e-18
 1.099887743802949e-01 -1.571467569026519e-03 -1.941235181054110e-18
 1.099887743802949e-01 -1.571467569026519e-03 -1.941235181054110e-18
 1.099994470996331e-01  3.487660748306122e-04 -1.961154817950203e-18
 1.099775450930087e-01 -2.222515537667065e-03 -1.934346061121424e-18
 1.099787050928197e-01  2.164353507752380e-03 -1.979440190519206e-18
 1.073817691622353e-01 -2.385698328767395e-02 -1.665864835132641e-18
 1.099949131729412e-01 -1.057863921797846e-03 -1.946621519089606e-18
 1.092980409299444e-01  1.240718537284440e-02 -2.072568336300773e-18
 1.099701882936452e-01 -2.560798051420851e-03 -1.930739408160798e-18
 1.034207173846987e-01 -3.747205913256160e-02 -1.455483235499781e-18
 1.019311554061920e-01  4.135262455465979e-02 -2.238869693408223e-18
 1.098750288097893e-01 -5.241950404944623e-03 -1.901498065188863e-18
 1.098750288097893e-01 -5.241950404944623e-03 -1.901498065188863e-18
 1.098376160441317e-01  5.974788844957624e-03 -2.016080181468144e-18
 1.084836973096797e-01  1.820130264628696e-02 -2.117608570341222e-18
 1.099680268022529e-01  2.651995704922024e-03 -1.984260504030479e-18
 1.099237311152730e-01  4.095526546987463e-03 -1.998303964451559e-18
 1.086284983819045e-01  1.731615832950538e-02 -2.111090941839156e-18
 1.096337665805047e-01  8.968680246910899e-03 -2.043213583662289e-18
 1.083420747826895e-01 -1.902616177220298e-02 -1.732589555314607e-18
 1.096984401760452e-01 -8.139546851180519e-03 -1.868583708937800e-18
 1.098367062322359e-01 -5.991490970820782e-03 -1.893114812180779e-18
 1.099364122070762e-01 -3.739688628182424e-03 -1.918025649991783e-18
 1.099364122070762e-01 -3.739688628182424e-03 -1.918025649991783e-18
 1.099955726517243e-01 -9.869128731381010e-04 -1.947362251551695e-18
 1.099113528605305e-01 -4.415259037462119e-03 -1.910638448488217e-18
 1.099699045455762e-01  2.572954379072674e-03 -1.983481799803125e-18
 1.099103912276931e-01 -4.439132817947191e-03 -1.910376040662977e-18
 1.097662812948663e-01  7.166832682307616e-03 -2.027058511907089e-18
 1.096173945069636e-01 -9.166614506164629e-03 -1.856588657531105e-18
 1.097407386667563e-01  7.547865716521208e-03 -2.030518926379645e-18
 1.097625809536964e-01 -7.223283351993091e-03 -1.879139445187781e-18
 1.096213740897232e-01 -9.118900299974982e-03 -1.857149725088721e-18
 1.098702224341005e-01 -5.341743374705094e-03 -1.900387193487876e-18
 1.098412425409090e-01 -5.907743822232512e-03 -1.894056012733519e-18
 1.099430525995717e-01 -3.539093822963722e-03 -1.920204862450445e-18
 1.099430525995717e-01 -3.539093822963722e-03 -1.920204862450445e-18
 1.099982045328106e-01 -6.284899027920477e-04 -1.951091754830522e-18
 1.099987240311951e-01 -5.298221483821917e-04 -1.952114775257340e-18
 1.099779948674637e-01  2.200146570585240e-03 -1.979795311929820e-18
 1.099924025511601e-01  1.292819021936818e-03 -1.970729252891127e-18
 1.098419102884284e-01  5.895315444381937e-03 -2.015340042347266e-18
 1.099529915296246e-01  3.215533188482404e-03 -1.989783076345846e-18
 1.098135932741723e-01  6.401150850791376e-03 -2.020033382346122e-18
 1.099285702901180e-01  3.963512832138513e-03 -1.997033690377040e-18
 1.099285702901180e-01  3.963512832138513e-03 -1.997033690377040e-18
 1.095472491089189e-01  9.969965529950501e-03 -2.051961744598528e-18
 1.098416043802067e-01  5.901012386199280e-03 -2.015393132353198e-18
 1.098416043802067e-01  5.901012386199280e-03 -2.015393132353198e-18
 1.098416043802067e-01  5.901012386199280e-03 -2.015393132353198e-18
 1.098416043802067e-01  5.901012386199280e-03 -2.015393132353198e-18
 1.096861856138357e-01  8.303052781182532e-03 -2.037307362481190e-18
 7.547653867293108e-02  8.002057304189633e-02 -2.165377356175746e-18
 1.099908326693972e-01  1.420115732116714e-03 -1.972009242426372e-18
 1.099898999791482e-01 -1.490604768842292e-03 -1.942086048325115e-18
 1.096300859474174e-01  9.013559516739373e-03 -2.043609200600212e-18
 1.096300859474174e-01  9.013559516739373e-03 -2.043609200600212e-18
 1.099687996800093e-01 -2.619751312226120e-03 -1.930108972786013e-18
 1.099687996800093e-01 -2.619751312226120e-03 -1.930108972786013e-18
 1.074530041815671e-01  2.353405813615727e-02 -2.154058282091844e-18
 1.097885197176637e-01 -6.817693026537495e-03 -1.883768349688132e-18
 1.092314059203975e-01 -1.298075347016758e-02 -1.810530637921934e-18
 1.089105152550754e-01 -1.544343442612168e-02 -1.779516853559515e-18
 1.099406331392758e-01  3.613472697432778e-03 -1.993651827942374e-18
 1.096839112755091e-01 -8.333043099982954e-03 -1.866337046157277e-18
 1.098487880571474e-01  5.765740401355800e-03 -2.014131103949541e-18
 1.093199413314847e-01 -1.221271580282876e-02 -1.819997539196849e-18
 1.098657654230039e-01  5.432640979984276e-03 -2.011010760877205e-18
 1.099350000106353e-01 -3.780975094012836e-03 -1.917576314833374e-18
 1.099965479846656e-01  8.714536459784580e-04 -1.966473649657245e-18
 1.098714413478745e-01  5.316613220886069e-03 -2.009919627655603e-18
 1.097311972802232e-01 -7.685333008312467e-03 -1.873833542913289e-18
 1.099999338158377e-01  1.206669434841567e-04 -1.958819843932956e-18
 1.099947851622209e-01 -1.071091553878929e-03 -1.946483331871729e-18
 1.099769049254835e-01  2.253970499159530e-03 -1.980328936425558e-18
 1.099998395819682e-01 -1.878614946871181e-04 -1.955648149306203e-18
 1.099998395819682e-01 -1.878614946871181e-04 -1.955648149306203e-18
 1.099994448195725e-01  3.494844571036271e-04 -1.961162158490692e-18
 1.099999762656004e-01 -7.226041302654306e-05 -1.956838340873969e-18
 1.099999994981069e-01  1.050792091299478e-05 -1.957689168887993e-18
 1.099967915857767e-01 -8.401433420147330e-04 -1.948891947552268e-18
 1.099962425978512e-01 -9.091833448686301e-04 -1.948172816708215e-18
 1.099962425978512e-01 -9.091833448686301e-04 -1.948172816708215e-18
 1.099467053607161e-01 -3.423737770890224e-03 -1.921455109221675e-18
 1.099161549001219e-01  4.294053093797246e-03 -2.000208924815153e-18
 1.098726554427320e-01 -5.291463499130836e-03 -1.900947099234953e-18
 1.099995652501140e-01  3.092649120957316e-04 -1.960751060481489e-18
 1.098074845893362e-01 -6.505100165456923e-03 -1.887317630293206e-18
 1.099936436620086e-01  1.182520171089822e-03 -1.969618059315097e-18
 1.099936436620086e-01  1.182520171089822e-03 -1.969618059315097e-18
 1.099905698050329e-01  1.440331199465741e-03 -1.972212271024763e-18
 1.099905698050329e-01  1.440331199465741e-03 -1.972212271024763e-18
 1.099956669088986e-01  9.763509955938067e-04 -1.967535752024071e-18
 1.099956669088986e-01  9.763509955938067e-04 -1.967535752024071e-18
 1.093715483946558e-01  1.174156726146089e-02 -2.067037505023776e-18
 1.099493633178097e-01 -3.337290219362825e-03 -1.922390627926701e-18
 1.095529725388142e-01  9.906876798960414e-03 -2.051415386068081e-18
 1.099999999387002e-01  3.672318217888954e-06 -1.957618943394363e-18
 1.099847171823235e-01  1.833572012294835e-03 -1.976148523121052e-18
 1.099847171823235e-01  1.833572012294835e-03 -1.976148523121052e-18
 1.099814294067776e-01 -2.021184217716844e-03 -1.936483793292890e-18
 1.099913329006818e-01 -1.380828277283387e-03 -1.943239462445160e-18
 1.098978716020495e-01  4.738967961423855e-03 -2.004454890356847e-18
 1.099734115895654e-01  2.418417530537369e-03 -1.981956401854389e-18
 1.099734115895654e-01  2.418417530537369e-03 -1.981956401854389e-18
 1.099999731377853e-01 -7.687448528275695e-05 -1.956790877294497e-18
 1.098312235711674e-01  6.091168103099540e-03 -2.017162174386674e-18
 1.099662930006531e-01 -2.722940266416814e-03 -1.929004134418084e-18
 1.098860771903551e-01  5.005001470056773e-03 -2.006978392390690e-18
 1.094651087093485e-01 -1.083466544248086e-02 -1.836739932694085e-18
 1.096600173335757e-01  8.641793702689578e-03 -2.040322106632889e-18
 1.098251488197346e-01 -6.199732794493135e-03 -1.890769525149211e-18
 1.075466644833336e-01  2.310227171750099e-02 -2.151288630287810e-18
 1.098246889572492e-01 -6.207873665228427e-03 -1.890677696858280e-18
 1.098021354282968e-01  6.594774854833859e-03 -2.021818892614818e-18
 1.086035013764017e-01 -1.747224910496304e-02 -1.753207841554442e-18
 1.094446278855702e-01  1.103962983931179e-02 -2.061125889718206e-18
 1.099653256569394e-01 -2.761730103258697e-03 -1.928588367900497e-18
 1.093968490272245e-01  1.150345265190492e-02 -2.065041218847070e-18
 1.099347050599605e-01 -3.789541315177994e-03 -1.917483051023679e-18
 1.098782861717592e-01  5.173222202550959e-03 -2.008568148837900e-18
 1.099178449305833e-01 -4.250572410418946e-03 -1.912446077885749e-18
 1.099815411996669e-01  2.015091895160070e-03 -1.977957053576678e-18
 1.099946187941700e-01 -1.088042428030694e-03 -1.946306207079671e-18
 1.099832252802978e-01  1.920978121486029e-03 -1.977020038964695e-18
 1.099996787786385e-01 -2.658356566134114e-04 -1.954844131431129e-18
 1.099998847768557e-01  1.592139392153382e-04 -1.959215027603890e-18
 1.099835729656620e-01  1.900967571227778e-03 -1.976820625305844e-18
 1.099981861319356e-01 -6.317022114966455e-04 -1.951058422060004e-18
 1.099823013145633e-01  1.973169418110138e-03 -1.977539842505508e-18
 1.099948733393706e-01 -1.061997672207776e-03 -1.946578337419914e-18
 1.099375288020300e-01  3.706718346837425e-03 -1.994554647732249e-18
 1.099811068126169e-01  2.038662373155685e-03 -1.978191501239891e-18
 1.099999578320133e-01  9.631695210185210e-05 -1.958570084013651e-18
 1.099932991397782e-01 -1.214143462373641e-03 -1.944987079936659e-18
 1.099588028679529e-01  3.010261092770820e-03 -1.987777399829466e-18
 1.099994991476659e-01 -3.319446680052859e-04 -1.954161688607166e-18
 1.099928430453891e-01  1.254782368530284e-03 -1.970346279215249e-18
 1.099998305335587e-01  1.930869967900818e-04 -1.959562095641183e-18
 1.099998254575345e-01  1.959574237329279e-04 -1.959591497901370e-18
 1.099904121650665e-01  1.452319441017189e-03 -1.972332640460477e-18
 1.099747018636734e-01 -2.359014623971300e-03 -1.932892983938320e-18
 1.099543661184157e-01  3.168181102360940e-03 -1.989321013309816e-18
 1.099959700381273e-01 -9.415813142692283e-04 -1.947835088816471e-18
 1.098526215737408e-01  5.692234480101189e-03 -2.013444079311815e-18
 1.099694013457967e-01 -2.594372303091394e-03 -1.930380440245783e-18
 1.099115060802574e-01  4.411443207104848e-03 -2.001332334290112e-18
 1.084043959496827e-01 -1.866780487321356e-02 -1.737380621776920e-18
 1.099083684140581e-01  4.488936684745211e-03 -2.002072713108938e-18
 1.099451082615154e-01 -3.474646653060704e-03 -1.920903616665753e-18
 1.098531198086137e-01  5.682611047249288e-03 -2.013354068719059e-18
 1.095654606771214e-01 -9.767795381258292e-03 -1.849487517980404e-18
 1.099759018075512e-01  2.302394756732196e-03 -1.980808626400798e-18
 1.099700092560357e-01 -2.568475078207973e-03 -1.930657343311582e-18
 1.099889008980581e-01  1.562587353437825e-03 -1.973438708404296e-18
 1.099990119823459e-01 -4.662219510992222e-04 -1.952773368614497e-18
 1.099998203310279e-01 -1.988143393666982e-04 -1.955535270212530e-18
 1.099998203310279e-01 -1.988143393666982e-04 -1.955535270212530e-18
 1.099880215685546e-01  1.623302632018341e-03 -1.974046887118169e-18
 1.098724341609294e-01 -5.296056226306236e-03 -1.900895972658001e-18
 1.099882717918428e-01  1.606259083612273e-03 -1.973876223871620e-18
 1.099414876037611e-01 -3.587381143956251e-03 -1.919680876801407e-18
 1.099635736950937e-01  2.830628941361935e-03 -1.986016647288789e-18
 1.099607664146772e-01 -2.937660548251214e-03 -1.926699609334191e-18
 1.099907537728883e-01  1.426213333206337e-03 -1.972070489004998e-18
 1.099465113195085e-01 -3.429963362654717e-03 -1.921387690333126e-18
 1.099265448071972e-01  4.019296798102205e-03 -1.997570804477937e-18
 1.098365766084141e-01 -5.993866777293915e-03 -1.893088094821800e-18
 1.099827194442158e-01  1.949723994539204e-03 -1.977306390411299e-18
 1.098403010710418e-01 -5.925222411257824e-03 -1.893859672001442e-18
 1.099855836220034e-01  1.780841185298542e-03 -1.975622152356899e-18
 1.098999771791544e-01 -4.689884435816780e-03 -1.907614328464196e-18
 1.098293541639184e-01  6.124782766478353e-03 -2.017474284509739e-18
 1.098789839437187e-01 -5.158380317112811e-03 -1.902427103808836e-18
 1.098526716496162e-01  5.691267999451324e-03 -2.013435040234167e-18
 1.094815335673040e-01 -1.066741804520927e-02 -1.838750638884447e-18
 1.098360538985619e-01  6.003437681211098e-03 -2.016346737609535e-18
 1.098726195460514e-01 -5.292208809997448e-03 -1.900938802612298e-18
 1.099228203387171e-01  4.119899122804287e-03 -1.998538175458990e-18
 1.089131624545304e-01 -1.542475426556408e-02 -1.779755895495272e-18
 1.097039634234216e-01  8.064763430663055e-03 -2.035175403296035e-18
 1.092176122931722e-01 -1.309630348526935e-02 -1.809097929442676e-18
 1.068951723347701e-01  2.595037825388604e-02 -2.168957810401750e-18
 1.096127419287128e-01 -9.222082566826837e-03 -1.855935945177994e-18
 1.095830111139236e-01  9.568891012320630e-03 -2.048477277166321e-18
 1.091280796728438e-01 -1.382252606861043e-02 -1.800042916437651e-18
 1.090508421140825e-01  1.441921753110845e-02 -2.088842038015431e-18
 1.098185817100891e-01 -6.314990988468467e-03 -1.889468419526452e-18
 1.099045233129988e-01  4.582112541444676e-03 -2.002961633028446e-18
 1.098714496808487e-01 -5.316441011494325e-03 -1.900669006398037e-18
 1.099969679758912e-01 -8.167227869530459e-04 -1.949135724320002e-18
 1.099999950685640e-01  3.293806093272306e-05 -1.957919551599467e-18
 1.099999950685640e-01  3.293806093272306e-05 -1.957919551599467e-18
 1.097452493688328e-01 -7.481994451526478e-03 -1.876172846395920e-18
 1.098313036902629e-01  6.089723285767130e-03 -2.017148755228319e-18
 1.095696168140988e-01  9.721063275770171e-03 -2.049802424350746e-18
 1.099447590584846e-01 -3.485678638620344e-03 -1.920784052537255e-18
 1.099970443702599e-01 -8.063682825099313e-04 -1.949243472620576e-18
 1.099863825593880e-01 -1.730795048496893e-03 -1.939555583775570e-18
 1.099926647026348e-01  1.270319492778697e-03 -1.970502743700661e-18
 1.099177148472049e-01 -4.253934974644543e-03 -1.912409213770969e-18
 1.099062357087933e-01  4.540853699816799e-03 -2.002568187544660e-18
 1.094889744858215e-01 -1.059077268394936e-02 -1.839670562149190e-18
 1.099611472754901e-01  2.923369606795533e-03 -1.986926342904901e-18
 1.099837060559915e-01 -1.893251750088206e-03 -1.937838768612010e-18
 1.099604945552558e-01  2.947819052035070e-03 -1.987165936137788e-18
 1.099996929126262e-01 -2.599213879172241e-04 -1.954905149924670e-18
 1.099795912698643e-01  2.118844995165664e-03 -1.978988377661902e-18
 1.099954764040566e-01 -9.975823998968224e-04 -1.947250913198128e-18
 1.099407175216746e-01  3.610904432314461e-03 -1.993626941636702e-18
 1.099958556167443e-01 -9.548545126385605e-04 -1.947696675260004e-18
 1.096603852925783e-01  8.637123218018581e-03 -2.040280667368919e-18
 1.099908979885616e-01 -1.415047585709044e-03 -1.942880131702020e-18
 1.099694693333074e-01  2.591488867568718e-03 -1.983664489817907e-18
 1.096998735978115e-01 -8.120205208254055e-03 -1.868807946742782e-18
 1.099603685898791e-01  2.952514111379510e-03 -1.987211934462837e-18
 1.099998970038722e-01 -1.505295235705293e-04 -1.956032743639063e-18
 1.099829116126542e-01  1.938853579584627e-03 -1.977198120713140e-18
 1.099985973122978e-01  5.555081699944772e-04 -1.963263894895217e-18
 1.099866542137229e-01  1.713445321833750e-03 -1.974948736799486e-18
 1.099684596795776e-01  2.633984757183858e-03 -1.984083151653681e-18
 1.097262072034539e-01 -7.756252493613061e-03 -1.873016066596359e-18
 1.099960735588883e-01  9.294092896097849e-04 -1.967060679869302e-18
 1.099960735588883e-01  9.294092896097849e-04 -1.967060679869302e-18
 1.099960735588883e-01  9.294092896097849e-04 -1.967060679869302e-18
 1.099999593558948e-01  9.456057032314494e-05 -1.958552064948208e-18
 1.099461242765148e-01 -3.442347538111942e-03 -1.921253559537365e-18
 1.098818887131537e-01  5.096129200684421e-03 -2.007840157770790e-18
 1.091322154529927e-01 -1.378983503605270e-02 -1.800452406062549e-18
 1.095275115468984e-01  1.018450854700403e-02 -2.053814842701432e-18
 1.096987263589827e-01 -8.135688982318276e-03 -1.868628440105649e-18
 1.090017906590214e-01  1.478545342986961e-02 -2.091732049678653e-18
 1.098203899799854e-01 -6.283465973797763e-03 -1.889824507919843e-18
 1.058561739316356e-01  2.990769868370482e-02 -2.191127624290709e-18
 1.078051453397610e-01 -2.186436914875344e-02 -1.693872705650698e-18
 1.079680282954209e-01  2.104530508211202e-02 -2.137652717003462e-18
 1.078812041992139e-01 -2.148594378954497e-02 -1.699114446875694e-18
 1.060921483714335e-01  2.905952604454689e-02 -2.186612405176962e-18
 1.043113907109495e-01 -3.491609611551116e-02 -1.497595421265840e-18
 1.043320809584773e-01  3.485422331473909e-02 -2.214828315482200e-18
 1.058190160969117e-01 -3.003890531097130e-02 -1.574536777142214e-18
 1.062234191097965e-01  2.857595549801430e-02 -2.183980012853282e-18
 1.075776402726128e-01 -2.295759816218324e-02 -1.678591450628815e-18
 1.035699423704202e-01  3.705761780508562e-02 -2.223904228153929e-18
 1.035193700116898e-01 -3.719865632496465e-02 -1.460047991202825e-18
 1.080857859831082e-01  2.043190809527375e-02 -2.133445924312155e-18
 1.078203456250614e-01 -2.178928794826165e-02 -1.694914644919373e-18
 1.095424931217001e-01  1.002208564532526e-02 -2.052412621384549e-18
 1.079408308125257e-01 -2.118435846330171e-02 -1.703274253254592e-18
 1.029520637039772e-01  3.874109677193177e-02 -2.230205475076738e-18
 1.095834903794962e-01 -9.563400872431013e-03 -1.851908457368284e-18
 1.088260186071456e-01  1.602802776754417e-02 -2.101370976274867e-18
 1.099878931111656e-01 -1.631983139247554e-03 -1.940597722318294e-18
 1.099878931111656e-01 -1.631983139247554e-03 -1.940597722318294e-18
 1.099220127121649e-01  4.141391228393977e-03 -1.998744626358588e-18
 1.099599481026070e-01 -2.968132960624073e-03 -1.926371953527408e-18
 1.098712513181838e-01  5.320538861473959e-03 -2.009956580381549e-18
 1.099927415339917e-01 -1.263649411998795e-03 -1.944468501028253e-18
 1.099899177427986e-01  1.489293433936310e-03 -1.972703735972099e-18
 1.099961523360745e-01  9.200387269390593e-04 -1.966965802675917e-18
 1.099961523360745e-01  9.200387269390593e-04 -1.966965802675917e-18
 1.099779227153851e-01  2.203750260066860e-03 -1.979831054497822e-18
 1.099261503155742e-01 -4.030071562361801e-03 -1.914859448230810e-18
 1.096977318153486e-01  8.149087959264056e-03 -2.035930908295729e-18
 1.097818042706750e-01 -6.924987442237743e-03 -1.882546429154172e-18
 1.098144564749053e-01  6.386325165625183e-03 -2.019896415503494e-18
 1.088532247862755e-01 -1.584220482219959e-02 -1.774400080370874e-18
 1.096235141576019e-01  9.093137178005467e-03 -2.044309879322548e-18
 1.085572807022422e-01 -1.775716211939708e-02 -1.749457911801210e-18
 1.096734733694888e-01  8.469311605554752e-03 -2.038789381952664e-18
 1.092878753546390e-01 -1.249641150366183e-02 -1.816512016621684e-18
 1.094257201357199e-01  1.122549654933168e-02 -2.062699116681025e-18
 1.099741516407749e-01 -2.384527393806585e-03 -1.932621057623516e-18
 1.080638335209129e-01  2.054769779718369e-02 -2.134244951185580e-18
 1.092632265590001e-01 -1.271012674667713e-02 -1.813877515415802e-18
 1.096986628035369e-01  8.136545895887349e-03 -2.035818611196040e-18
 1.099547513705270e-01 -3.154782250099087e-03 -1.924361717836160e-18
 1.097120220076903e-01  7.954384136062130e-03 -2.034184708261347e-18
 1.099480019878063e-01 -3.381842528754731e-03 -1.921908642641018e-18
 1.099547351256623e-01  3.155348387327527e-03 -1.989195728748727e-18
 1.099547351256623e-01  3.155348387327527e-03 -1.989195728748727e-18
 9.954953995997304e-02  4.679625085151265e-02 -2.252417288335213e-18
 1.099345248046535e-01 -3.794766919718844e-03 -1.917426151977129e-18
 1.099345248046535e-01 -3.794766919718844e-03 -1.917426151977129e-18
 1.099687017843359e-01 -2.623857440442723e-03 -1.930065041639943e-18
 1.099975751818578e-01 -7.303794298106155e-04 -1.950033676903042e-18
 1.099831284928332e-01 -1.926511595843868e-03 -1.937486757353876e-18
 1.098952700327500e-01  4.798919089640137e-03 -2.005024568391789e-18
 1.099453163530878e-01 -3.468055942372111e-03 -1.920975037061612e-18
 1.099973495841249e-01  7.635996777019388e-04 -1.965379754732031e-18
 1.099847127294221e-01 -1.833839095031449e-03 -1.938467127014297e-18
 1.099968545471368e-01  8.318592044359511e-04 -1.966072286798780e-18
 1.099762443091190e-01 -2.285976303667040e-03 -1.933670875803311e-18
 1.099992483392625e-01  4.066507066586052e-04 -1.961746024336517e-18
 1.099445432588842e-01 -3.492478717945935e-03 -1.920710343781155e-18
 1.099999999702770e-01 -2.557154480910453e-06 -1.957554938387319e-18
 1.099640272334864e-01 -2.812954779768359e-03 -1.928038945963663e-18
 1.099999865547259e-01 -5.438713155612423e-05 -1.957022165455488e-18
 1.099950363320470e-01 -1.044979574731864e-03 -1.946756092838391e-18
 1.099990883390721e-01 -4.478443624523817e-04 -1.952963550520814e-18
 1.099978258192833e-01  6.916032320476480e-04 -1.964648492579903e-18
 1.099990883390716e-01 -4.478443625663597e-04 -1.952963550519634e-18
 1.099975334614281e-01 -7.366358679499353e-04 -1.949968651809134e-18
 1.099999821501402e-01  6.266553127794846e-05 -1.958224760659361e-18
 1.099973529315434e-01 -7.631173261259365e-04 -1.949693351701691e-18
 1.099979756127907e-01  6.673537951242505e-04 -1.964402004178788e-18
 1.099998987697506e-01 -1.492335237050558e-04 -1.956046090992794e-18
 1.099992263258346e-01 -4.125623804760669e-04 -1.953328515707718e-18
 1.099992263258346e-01 -4.125623804760669e-04 -1.953328515707718e-18
 1.099961547338289e-01  9.197520163205248e-04 -1.966962899499366e-18
 1.099934053025753e-01 -1.204487419343315e-03 -1.945088181564641e-18
 1.099714020387159e-01  2.508133497058680e-03 -1.982842438464704e-18
 1.099999477798613e-01  1.071840835089234e-04 -1.958681560951104e-18
 1.099912778149102e-01  1.385209241665902e-03 -1.971658512812916e-18
 1.099912778149102e-01  1.385209241665902e-03 -1.971658512812916e-18
 1.099993026663012e-01  3.916796234477991e-04 -1.961593168709551e-18
 1.099946316882588e-01 -1.086738130483557e-03 -1.946319837728845e-18
 1.099946316882588e-01 -1.086738130483557e-03 -1.946319837728845e-18
 1.099573872968228e-01  3.061532109331822e-03 -1.988278999122521e-18
 1.099965501535976e-01  8.711798362292070e-04 -1.966470874960271e-18
 1.099965501535976e-01  8.711798362292070e-04 -1.966470874960271e-18
 1.099965501535976e-01  8.711798362292070e-04 -1.966470874960271e-18
 1.099599692345051e-01  2.967349987219456e-03 -1.987357260692394e-18
 1.099957838596767e-01 -9.630851962551977e-04 -1.947610830973203e-18
 1.099994405722666e-01  3.508187400258424e-04 -1.961175792177137e-18
 1.099995275082888e-01  3.224096046784549e-04 -1.960885445761886e-18
 1.099985106758063e-01  5.724064154760863e-04 -1.963435976429183e-18
 1.099999610176930e-01  9.260726749253146e-05 -1.958532025044883e-18
 1.099999610176930e-01  9.260726749253146e-05 -1.958532025044883e-18
 1.099999097995781e-01  1.408690336971366e-04 -1.959026985673064e-18
 1.099998975098083e-01 -1.501593541219837e-04 -1.956036555999412e-18
 1.099983186077977e-01  6.081968903133848e-04 -1.963800292477159e-18
 1.099983186077977e-01  6.081968903133848e-04 -1.963800292477159e-18
 1.708215832102842e-02  1.086655413049385e-01 -1.420496345479252e-18
 1.096498516077285e-01 -8.769837079619902e-03 -1.861243014275288e-18
 1.096498516077285e-01 -8.769837079619902e-03 -1.861243014275288e-18
 1.099991889427334e-01  4.224120509480070e-04 -1.961906909391361e-18
 1.095436611231894e-01 -1.000931105160585e-02 -1.846618083137659e-18
 1.099780328700237e-01  2.198246128156105e-03 -1.979776461875123e-18
 1.096650425341981e-01 -8.577787941683049e-03 -1.863486590058541e-18
 1.099275126913726e-01  3.992737593191163e-03 -1.997315142949112e-18
 1.097210633398765e-01 -7.828681853720538e-03 -1.872180340044592e-18
 1.098881314148740e-01  4.959694965151297e-03 -2.006549441887025e-18
 1.099399038021118e-01 -3.635595134551036e-03 -1.919157309923235e-18
 1.099568239346897e-01  3.081699238346051e-03 -1.988476183345838e-18
 1.064526369320371e-01 -2.770985547085842e-02 -1.609742956743430e-18
 1.098766244804767e-01  5.208396372807919e-03 -2.008899978881010e-18
 1.098142829914158e-01 -6.389307558821061e-03 -1.888628342936678e-18
 1.096147137811067e-01  9.198615259158893e-03 -2.045237015092023e-18
 1.057196023481348e-01 -3.038693270720537e-02 -1.569191735829824e-18
 1.095341153416560e-01  1.011323767745868e-02 -2.053200082812527e-18
 1.099211818629840e-01 -4.163385382686265e-03 -1.913401277615653e-18
 1.092320482238084e-01  1.297534742623725e-02 -2.077231576077697e-18
 1.095945885628446e-01 -9.435367387695869e-03 -1.853421460324104e-18
 1.095344729787410e-01  1.010936344531319e-02 -2.053166641063162e-18
 1.069098459021747e-01 -2.588985996820425e-02 -1.636579328383014e-18
 1.097069671267620e-01  8.023799838450803e-03 -2.034807971750849e-18
 1.074286968574234e-01 -2.364476879810377e-02 -1.668880396234767e-18
 1.091858981374076e-01  1.335813040539798e-02 -2.080343236297131e-18
 1.076691994204499e-01 -2.252428680689687e-02 -1.684672971646209e-18
 1.097907753244633e-01  6.781272273930564e-03 -2.023532919248313e-18
 1.067215132380771e-01 -2.665555499656494e-02 -1.625360485712793e-18
 7.849970399986810e-02  7.705709877703065e-02 -2.188729567804797e-18
 1.099926808335033e-01  1.268922006685471e-03 -1.970488672106767e-18
 1.090096431606604e-01  1.472744709667824e-02 -2.091275800310625e-18
 1.099695113148438e-01 -2.589706773829430e-03 -1.930430333894462e-18
 1.093924803827457e-01  1.154492250777590e-02 -2.065389561311724e-18
 1.099999094895606e-01  1.411109082791090e-04 -1.959029465329397e-18
 1.095460487045800e-01  9.983146458594983e-03 -2.052075811224989e-18
 1.099990822455471e-01 -4.493385553528735e-04 -1.952948089790014e-18
 1.099397635111692e-01  3.639835038590211e-03 -1.993907215351595e-18
 1.099874129003436e-01  1.664032298153089e-03 -1.974454537664917e-18
 1.099728656569574e-01  2.443116697326363e-03 -1.982200461298674e-18
 1.099823120389626e-01  1.972571561244305e-03 -1.977533890596874e-18
 1.099607267641669e-01 -2.939144347629117e-03 -1.926683658206476e-18
 1.099360508254302e-01  3.750297176008562e-03 -1.994976102014451e-18
 1.099910148355272e-01 -1.405935791842824e-03 -1.942975831505077e-18
 1.097398963045541e-01  7.560103112106337e-03 -2.030629670333592e-18
 1.099689611787357e-01 -2.612963311965207e-03 -1.930181591085286e-18
 1.098798021405808e-01  5.140922246716741e-03 -2.008263256998848e-18
 1.098012553570161e-01 -6.609411624594112e-03 -1.886135011324311e-18
 1.096626072283344e-01  8.608866120693226e-03 -2.040029877956097e-18
 1.099771701122434e-01 -2.240993998795592e-03 -1.934149528416015e-18
 1.095995217995016e-01  9.377890024974867e-03 -2.046808638751067e-18
 1.099046936010263e-01 -4.578026262976038e-03 -1.908847564908417e-18
 1.098388886992028e-01  5.951346849588285e-03 -2.015861971896600e-18
 1.095881599982405e-01 -9.509741752539895e-03 -1.852542886768017e-18
 1.098636848566234e-01  5.474554751255511e-03 -2.011404383490412e-18
 1.097904742798581e-01 -6.786144516865384e-03 -1.884127282930077e-18
 1.091483910500124e-01  1.366121265457637e-02 -2.082789812946042e-18
 1.096176430523253e-01 -9.163641833516379e-03 -1.856623623823865e-18
 1.099615535491541e-01  2.908047636558675e-03 -1.986776145351222e-18
 1.098645778521607e-01 -5.456604563873136e-03 -1.899106584426244e-18
 1.099575491435701e-01  3.055713720121327e-03 -1.988222097542963e-18
 1.099922937838580e-01 -1.302040001474380e-03 -1.944066083419869e-18
 1.099996107830738e-01 -2.926218929771491e-04 -1.954567702520985e-18
 1.099996107830738e-01 -2.926218929771491e-04 -1.954567702520985e-18
 1.099223766611767e-01 -4.131719878980300e-03 -1.913747892022105e-18
 1.098746830302600e-01  5.249193176085748e-03 -2.009284600791925e-18
 1.097160102239272e-01 -7.899183536483554e-03 -1.871366034639558e-18
 1.096487968908307e-01  8.783014311347294e-03 -2.041573415922558e-18
 1.095971911066044e-01 -9.405089129954379e-03 -1.853778873793806e-18
 1.098578158425997e-01  5.591090975240252e-03 -2.012497304752207e-18
 1.088697005908627e-01 -1.572858204848300e-02 -1.775860719690583e-18
 1.097589617129642e-01  7.278071426692044e-03 -2.028071188904717e-18
 1.099711488460545e-01 -2.519210487215445e-03 -1.931183799451347e-18
 1.096989350652045e-01  8.132874372569937e-03 -2.035785732848855e-18
 1.099955851624697e-01 -9.855175116868368e-04 -1.947376811027349e-18
 1.099973358276980e-01 -7.655787409525224e-04 -1.949667757175176e-18
 1.099999781116587e-01 -6.939333231067218e-05 -1.956867831939607e-18
 1.099997761238385e-01  2.219295054312228e-04 -1.959857473653938e-18
 1.099947493172800e-01 -1.074766313528851e-03 -1.946444937147780e-18
 1.099958672922682e-01 -9.535085850089609e-04 -1.947710711957337e-18
 1.099858837821140e-01 -1.762205625704235e-03 -1.939223975168777e-18
 1.099958341454564e-01 -9.573247334231799e-04 -1.947670912531622e-18
 1.099942429320531e-01 -1.125398509166924e-03 -1.945915698001680e-18
 1.099992909462720e-01 -3.949573614318951e-04 -1.953510550880764e-18
 1.099999957926162e-01  3.042407561295871e-05 -1.957893734198939e-18
 1.099974166043955e-01 -7.538835182064727e-04 -1.949789358858038e-18
 1.099986711563661e-01 -5.406882961424280e-04 -1.952002188565812e-18
 1.099996543411940e-01 -2.757622486880833e-04 -1.954741704410136e-18
 1.099940341249973e-01 -1.145625117077703e-03 -1.945704160982514e-18
 1.099885451634764e-01 -1.587429627377310e-03 -1.941067097516410e-18
 1.099996832008001e-01 -2.639994764700358e-04 -1.954863076212713e-18
 1.099982528295384e-01 -6.199793939456400e-04 -1.951180056715177e-18
 1.099211090430948e-01  4.165307519982098e-03 -1.998974275697512e-18
 1.099568759242227e-01 -3.079843662439156e-03 -1.925169493568590e-18
 1.099044009348022e-01  4.585046909489180e-03 -2.002989604728144e-18
 1.099244701906608e-01 -4.075641459018368e-03 -1.914361334269949e-18
 1.099840200387586e-01  1.874922962124288e-03 -1.976560982607610e-18
 1.096770231375235e-01 -8.423217656637168e-03 -1.865287952713574e-18
 1.099678944189702e-01  2.657479455836467e-03 -1.984314491660607e-18
 1.097683644784233e-01 -7.134855270569430e-03 -1.880150936322368e-18
 1.089547357198735e-01  1.512830341487354e-02 -2.094417309955662e-18
 1.097484076692771e-01 -7.435523791780137e-03 -1.876706521267114e-18
 1.096504451065736e-01  8.762413362211709e-03 -2.041391080619134e-18
 1.093329845739442e-01 -1.209539102938188e-02 -1.821435128681384e-18
 1.092569496015046e-01  1.276397131672742e-02 -2.075502913058930e-18
 1.095715713271815e-01 -9.699008036513109e-03 -1.850303029266049e-18
 1.093229189387812e-01  1.218603277135956e-02 -2.070738807501753e-18
 1.093775774707352e-01 -1.168527049893531e-02 -1.826442551937377e-18
 1.099517965031968e-01  3.256139695951704e-03 -1.990179026538148e-18
 1.092846278108263e-01 -1.252478040722228e-02 -1.816162742527254e-18
 1.099000482373068e-01  4.688219004867702e-03 -2.003972199084666e-18
 1.096410959482366e-01 -8.878630483894116e-03 -1.859969384163120e-18
 1.096557849893268e-01  8.695333137637613e-03 -2.040796885263200e-18
 1.098420687687806e-01 -5.892361885902241e-03 -1.894228760252030e-18
 1.098194908234249e-01  6.299161474644462e-03 -2.019090432479843e-18
 1.097555094914865e-01 -7.329947903237790e-03 -1.877917660566758e-18
 1.098592866854916e-01  5.562115510751035e-03 -2.012225767784285e-18
 1.099118919036303e-01 -4.401819869629503e-03 -1.910786123970587e-18
 1.096463740410836e-01  8.813209383803552e-03 -2.041840541821709e-18
 1.099306079394389e-01 -3.906589057648301e-03 -1.916207514842993e-18
 1.098852426642718e-01  5.023290217980998e-03 -2.007151451244719e-18
 1.098706571886896e-01 -5.332793726126238e-03 -1.900486884852379e-18
 1.099811551342004e-01  2.036053866404458e-03 -1.978165559720838e-18
 1.099173496765984e-01 -4.263360185623013e-03 -1.912305874505539e-18
 1.099563775175230e-01  3.097586677386854e-03 -1.988631476484543e-18
 1.099068564117782e-01 -4.525805307426902e-03 -1.909422606053527e-18
 1.095411077319496e-01  1.003721658914340e-02 -2.052543431672477e-18
 1.099908981305738e-01 -1.415036547122026e-03 -1.942880247646771e-18
 1.099653895042746e-01  2.759186686894208e-03 -1.985314918567414e-18
 1.099926632711673e-01 -1.270443432653848e-03 -1.944397302153778e-18
 1.099973855664522e-01 -7.583986716831413e-04 -1.949742414939068e-18
 1.099973855664522e-01 -7.583986716831413e-04 -1.949742414939068e-18
 1.096665698311644e-01  8.558239390569319e-03 -2.039580225939444e-18
 1.099756824777106e-01  2.312847500751105e-03 -1.980912121312271e-18
 1.098510166860280e-01  5.723122665639577e-03 -2.013732883306198e-18
 1.099218584933456e-01 -4.145482525458052e-03 -1.913597264414474e-18
 1.047734908500856e-01  3.350396416973653e-02 -2.208810308831831e-18
 1.099882470341050e-01 -1.607953470918502e-03 -1.940850916911967e-18
 1.099882470341050e-01 -1.607953470918502e-03 -1.940850916911967e-18
 1.099944776348312e-01 -1.102220413787670e-03 -1.946158021327662e-18
 1.096493087949598e-01 -8.776621262622356e-03 -1.861163649258728e-18
 1.099998710297573e-01 -1.684441650003982e-04 -1.955848214965891e-18
 1.093699750621475e-01 -1.175621345949470e-02 -1.825578344859881e-18
 1.099531171547059e-01  3.211234647840190e-03 -1.989741146050457e-18
 1.095095247916132e-01 -1.037612547702818e-02 -1.842241701429959e-18
 1.099975048201294e-01  7.409003614349525e-04 -1.965149290113273e-18
 1.097273656109030e-01 -7.739847291205306e-03 -1.873205239333914e-18
 1.098448517260359e-01  5.840252501830224e-03 -2.014826637006242e-18
 1.098391048688632e-01 -5.947355850026801e-03 -1.893610971113887e-18
 1.099997492097751e-01 -2.348910099452806e-04 -1.955163329840428e-18
 1.096051710772020e-01 -9.311631067501425e-03 -1.854881134530501e-18
 1.099999935324741e-01 -3.772075841889431e-05 -1.957193530562408e-18
 1.097524302430713e-01 -7.375910502420766e-03 -1.877390612658445e-18
 1.099825371988392e-01 -1.959977373830405e-03 -1.937132385860281e-18
 1.097796455528314e-01 -6.959125109859586e-03 -1.882157260061557e-18
 1.097796455528314e-01 -6.959125109859586e-03 -1.882157260061557e-18
 1.091447951767177e-01 -1.368991182704658e-02 -1.801702951925163e-18
-1.905845753762689e-02  1.083363982984778e-01 -7.739491513642617e-19
 1.098552915019633e-01  5.640472410944478e-03 -2.012959757412435e-18
 1.097383837018160e-01  7.582027599064420e-03 -2.030828017902524e-18
 1.099987629528322e-01  5.216788730650041e-04 -1.962919258929379e-18
 1.098832231476340e-01  5.067274483115190e-03 -2.007567433883210e-18
 1.099930302042195e-01  1.238267537171509e-03 -1.970179926037044e-18
 1.099503053896830e-01  3.306107184501743e-03 -1.990665888187594e-18
 1.099837858535466e-01  1.888610420694560e-03 -1.976697448666963e-18
 1.099837858535466e-01  1.888610420694560e-03 -1.976697448666963e-18
-1.095791361636009e-01 -9.613163768447557e-03  2.048863204289295e-18
-1.098007032136801e-01  6.618577927418070e-03  1.886031004843368e-18
-1.099074191410850e-01  4.512118986222590e-03  1.909573242471313e-18
-1.099326399293285e-01  3.848984043689559e-03  1.916835547119093e-18
-1.099326399293285e-01  3.848984043689559e-03  1.916835547119093e-18
-1.099651236759836e-01  2.769760806565269e-03  1.928502260849309e-18
-1.099651236759836e-01  2.769760806565269e-03  1.928502260849309e-18
-1.099651236759836e-01  2.769760806565269e-03  1.928502260849309e-18
-1.099054526390193e-01  4.559767561209934e-03  1.909048674422697e-18
-1.099054526390193e-01  4.559767561209934e-03  1.909048674422697e-18
-1.098922201032550e-01  4.868260549489422e-03  1.905643532276553e-18
-1.098922201032550e-01  4.868260549489422e-03  1.905643532276553e-18
-1.094913093636885e-01 -1.056660654254779e-02  2.057096499766607e-18
-1.099962812489207e-01  9.044951123727214e-04  1.948221674435895e-18
-1.099917767673616e-01  1.345006899187245e-03  1.943615413229243e-18
-1.099917767673616e-01  1.345006899187245e-03  1.943615413229243e-18
-1.099874193396378e-01  1.663606626165288e-03  1.940264371148654e-18
-1.099838741312378e-01  1.883462525243478e-03  1.937942340440638e-18
-1.099838741312378e-01  1.883462525243478e-03  1.937942340440638e-18
-1.099992674101744e-01 -4.014588707580215e-04  1.961693019498311e-18
-1.099301929087493e-01  3.918250508214984e-03  1.916080311708505e-18
-1.098890010041028e-01 -4.940390502810018e-03  2.006366570926838e-18
-1.096417847222343e-01  8.870120795298614e-03  1.860069075677000e-18
-1.097762866527996e-01 -7.011910490182832e-03  2.025644799941059e-18
-1.095730749664263e-01  9.682006114535884e-03  1.850504476892018e-18
-1.097545500379273e-01 -7.344300237060392e-03  2.028673154852498e-18
-1.094832181970949e-01  1.065011423446999e-02  1.838958409250442e-18
-1.092555223409019e-01 -1.277618245081986e-02  2.075602978220851e-18
-1.098234982869199e-01  6.228902312837838e-03  1.890440445744407e-18
-1.098721883188981e-01 -5.301154026865300e-03  2.009774083293308e-18
-1.099196561765277e-01  4.203473091847727e-03  1.912962239556345e-18
-1.099833596948822e-01 -1.913266898821645e-03  1.976943201020951e-18
-1.099924381239197e-01 -1.289788957796164e-03  1.970698753142508e-18
-1.099527173991004e-01  3.224893262345779e-03  1.923605155706908e-18
-1.099509010944165e-01 -3.286236224892687e-03  1.990472322572479e-18
-1.099972510958559e-01  7.776576079567585e-04  1.949542143300412e-18
-1.099805408387971e-01 -2.068969986649524e-03  1.978492828779408e-18
-1.099984050947037e-01  5.923483953023581e-04  1.951466664928930e-18
-1.099970586663127e-01 -8.044157878371768e-04  1.965793948206856e-18
-1.099880856936988e-01 -1.618951955906619e-03  1.974003326685028e-18
-1.099999568418780e-01 -9.744118711085542e-05  1.958581617499328e-18
-1.099839630357134e-01 -1.878263815018948e-03  1.976594294220279e-18
-1.099896999931397e-01  1.505289148006722e-03  1.941931612674040e-18
-1.099812428030001e-01 -2.031312754724638e-03  1.978118406691503e-18
-1.099939043539783e-01  1.158017688915530e-03  1.945574522378666e-18
-1.098578557304680e-01 -5.590307174355979e-03  2.012489961335048e-18
-1.099913502330529e-01  1.379446957969445e-03  1.943253963449535e-18
-1.099903251186209e-01 -1.458896946337387e-03  1.972398672842891e-18
-1.098357386870614e-01  6.009201866099621e-03  1.892915620545141e-18
-1.096675672537141e-01 -8.545448651303281e-03  2.039466556064035e-18
-1.099479993307743e-01  3.381928911141694e-03  1.921907707808318e-18
-1.099971853823807e-01 -7.868976770376379e-04  1.965616211045803e-18
-1.099654686728360e-01  2.756029673911443e-03  1.928649482879715e-18
-1.099776788117357e-01  2.215888801963729e-03  1.934416528107724e-18
-1.099098608463515e-01 -4.452245358873305e-03  2.001722282677415e-18
-1.098422042379362e-01  5.889836003783390e-03  1.894257123608439e-18
-1.099783914727614e-01 -2.180231424414146e-03  1.979597749101877e-18
-1.099783914727614e-01 -2.180231424414146e-03  1.979597749101877e-18
-6.179152539544095e-02  9.100443609684389e-02  1.646163804289412e-19
-1.099319785822791e-01 -3.867826907361269e-03  1.996111206884482e-18
-1.099980832405580e-01 -6.493715448361524e-04  1.964219158454017e-18
-1.099730234650124e-01 -2.436002866131207e-03  1.982130177649974e-18
-1.099730234650124e-01 -2.436002866131207e-03  1.982130177649974e-18
-1.099730234650124e-01 -2.436002866131207e-03  1.982130177649974e-18
-1.099730234650124e-01 -2.436002866131207e-03  1.982130177649974e-18
-1.099555062099415e-01 -3.128362849076550e-03  1.988932184510804e-18
-1.099994097904388e-01  3.603411648310243e-04  1.953868334699473e-18
-1.099778986457097e-01 -2.204951127345289e-03  1.979842964624280e-18
-1.099823087621348e-01  1.972754254949921e-03  1.936997042744610e-18
-1.099777450895870e-01 -2.212596892745840e-03  1.979918789371912e-18
-1.099884300852841e-01  1.595383143489172e-03  1.940983330073944e-18
-1.099694902579070e-01 -2.590600782840939e-03  1.983655737448157e-18
-1.098652272475339e-01  5.443513740930194e-03  1.899252644641753e-18
-1.096977296866839e-01 -8.149116613916469e-03  2.035931164829744e-18
-1.098151672349584e-01  6.374091712398669e-03  1.888800416399790e-18
-1.099199573217883e-01 -4.195590825641218e-03  1.999264929407626e-18
-1.096640263215653e-01  8.590770101858981e-03  1.863335118362799e-18
-1.099325326163777e-01 -3.852047838358961e-03  1.995958942380231e-18
-1.098611183662789e-01  5.525818609981001e-03  1.898333869568082e-18
-1.098175838792836e-01 -6.332319552619693e-03  2.019397183339973e-18
-1.098752475810751e-01  5.237362790319318e-03  1.901549094558578e-18
-1.099453113518480e-01 -3.468214489498246e-03  1.992242606997101e-18
-1.097616325653498e-01  7.237680332061056e-03  1.878974643745690e-18
-1.098392390828183e-01 -5.944876593120639e-03  2.015801727856246e-18
-1.097133752410939e-01  7.935697398899457e-03  1.870943975305036e-18
-1.097094672940760e-01 -7.989542292900321e-03  2.034500481374764e-18
-1.098762675681899e-01  5.215920367825912e-03  1.901787559547673e-18
-1.098953017539698e-01 -4.798192618465664e-03  2.005017668681320e-18
-1.099573448679237e-01  3.063055598004924e-03  1.925350330244562e-18
-1.099896325097039e-01 -1.510212031551761e-03  1.972913590900312e-18
-1.099999570424074e-01  9.721454878527289e-05  1.956581604094524e-18
-1.099999570424074e-01  9.721454878527289e-05  1.956581604094524e-18
-1.099999570424074e-01  9.721454878527289e-05  1.956581604094524e-18
-1.099999472004685e-01 -1.077770574537721e-04  1.958687643231991e-18
-1.099999923685393e-01  4.097464178530408e-05  1.957160077379252e-18
-1.099999923685393e-01  4.097464178530408e-05  1.957160077379252e-18
-1.099999993912580e-01 -1.157251874359455e-05  1.957700105342462e-18
-1.099930825864296e-01  1.233605745306147e-03  1.944783258224466e-18
-1.095432949682777e-01 -1.001331750684404e-02  2.052336801763193e-18
-1.099197186690820e-01  4.201838610635542e-03  1.912980145386586e-18
-1.099968449647573e-01 -8.331253201692092e-04  1.966085125148124e-18
-1.099850982001894e-01  1.810572808443953e-03  1.938713039569116e-18
-1.098919026955993e-01 -4.875420180957434e-03  2.005750663533110e-18
-1.099999659601098e-01  8.653770646539960e-05  1.956691463471922e-18
-1.099049735686003e-01  4.571300130733411e-03  1.908921655830734e-18
-1.099049735686003e-01  4.571300130733411e-03  1.908921655830734e-18
-1.094059853371397e-01 -1.141623284667698e-02  2.064307658565944e-18
-1.099697140938777e-01 -2.581081577702597e-03  1.983561914501515e-18
-1.099761713935174e-01 -2.289481518521249e-03  1.980680745173034e-18
-1.099985010360801e-01  5.742558797683589e-04  1.951654266344784e-18
-1.099985010360801e-01  5.742558797683589e-04  1.951654266344784e-18
-1.099885812651427e-01 -1.584926269914728e-03  1.973662544407005e-18
-1.099932253332913e-01  1.220811525074165e-03  1.944917254540255e-18
-1.099929410233611e-01 -1.246164126981724e-03  1.970259473548983e-18
-1.099443921002681e-01  3.497234007394358e-03  1.920658794861651e-18
-1.099966243634601e-01 -8.617590404637104e-04  1.966375400359110e-18
-1.099966243634601e-01 -8.617590404637104e-04  1.966375400359110e-18
-1.099908992932639e-01 -1.414946168247362e-03  1.971957312686751e-18
-1.099994506514769e-01 -3.476440324014342e-04  1.961143352581147e-18
-1.099443794115943e-01 -3.497632885160721e-03  1.992528285337197e-18
-1.099953785312921e-01  1.008316298452500e-03  1.947138884527196e-18
-1.099775382127061e-01 -2.222855972107059e-03  1.980020516064650e-18
-1.099972618808364e-01  7.761306066986267e-04  1.949558024615218e-18
-1.099857521593211e-01 -1.770401634762055e-03  1.975517889090132e-18
-1.099994042172929e-01  3.620384517874687e-04  1.953850796511791e-18
-1.099901463711265e-01 -1.472311535693895e-03  1.972533321850510e-18
-1.099997468255925e-01 -2.360048845184019e-04  1.960001571663639e-18
-1.099997468255925e-01 -2.360048845184019e-04  1.960001571663639e-18
-1.099970150961232e-01 -8.103517404309002e-04  1.965854162579899e-18
-1.099993025305668e-01  3.917177412501009e-04  1.953544042957614e-18
-1.099918806198643e-01 -1.336487076431805e-03  1.971168637897717e-18
-1.099185736793052e-01 -4.231685279781696e-03  1.999611163243381e-18
-1.099664148973025e-01  2.718012993770964e-03  1.929056929650861e-18
-1.099999802554030e-01  6.590759371979328e-05  1.956903684787846e-18
-1.099999802554030e-01  6.590759371979328e-05  1.956903684787846e-18
-1.099471346712023e-01  3.409923399795697e-03  1.921604686958508e-18
-1.099994766379694e-01 -3.393219308861964e-04  1.961058308471893e-18
-1.099542195735713e-01  3.173262984192080e-03  1.924162371045699e-18
-1.098682806917696e-01 -5.381533037573567e-03  2.010530407542998e-18
-1.099087549343216e-01  4.479463002102142e-03  1.909932542879202e-18
-1.099798216364755e-01 -2.106853770194437e-03  1.978869271830029e-18
-1.099490151276962e-01  3.348741920423392e-03  1.922266769399974e-18
-1.099783508152260e-01 -2.182281366610998e-03  1.979618087963921e-18
-1.099784055156942e-01  2.179522935298139e-03  1.934803106740819e-18
-1.099977221189608e-01  7.079044002225232e-04  1.950267214588543e-18
-1.099937899142126e-01  1.168837160612564e-03  1.945461319645246e-18
-1.099937899142126e-01  1.168837160612564e-03  1.945461319645246e-18
-1.099962716361457e-01  9.056633741157895e-04  1.948209499900084e-18
-1.099939385454207e-01  1.154765459375363e-03  1.945608546333253e-18
-1.099969114274417e-01  8.243035991065680e-04  1.949056827881905e-18
-1.099960963178358e-01  9.267118415929381e-04  1.947990114544612e-18
-1.099945122844712e-01  1.098757162103580e-03  1.946194221612290e-18
-1.099999315307045e-01  1.227323930185485e-04  1.956318963503746e-18
-1.099989364024306e-01  4.837254737921132e-04  1.952592181242608e-18
-1.099989364024306e-01  4.837254737921132e-04  1.952592181242608e-18
-1.099994526473358e-01 -3.470119399907143e-04  1.961136893579938e-18
-1.099987374642230e-01  5.270258787876288e-04  1.952143744968374e-18
-1.099905696154327e-01  1.440345678172632e-03  1.942614359200506e-18
-1.099887065281680e-01 -1.576209459590491e-03  1.973575211552446e-18
-1.099878391381252e-01  1.635616619462381e-03  1.940559429114393e-18
-1.099833959029389e-01 -1.911184359855014e-03  1.976922448055155e-18
-1.099949014406913e-01  1.059083118824401e-03  1.946608783493675e-18
-1.099317988106125e-01 -3.872933031047068e-03  1.996160471199200e-18
-1.099656147592693e-01  2.750194650555641e-03  1.928712035407335e-18
-1.098729528500531e-01 -5.285284477677617e-03  2.009624635184226e-18
-1.099848656901797e-01  1.824642187689033e-03  1.938564344015406e-18
-1.099459951836858e-01 -3.446468202220315e-03  1.992031341398383e-18
-1.099998052584859e-01  2.069857365230544e-04  1.955451043841321e-18
-1.099770915935648e-01 -2.244844008084665e-03  1.980238487026329e-18
-1.099967939133138e-01 -8.398385511185860e-04  1.966153192636069e-18
-1.099967939133138e-01 -8.398385511185860e-04  1.966153192636069e-18
-1.099889662081995e-01 -1.557983456756145e-03  1.973392567310227e-18
-1.099996107972692e-01  2.926165566935653e-04  1.954567757601985e-18
-1.099965393539070e-01 -8.725423567712886e-04  1.966484682170499e-18
-1.099984895011527e-01 -5.764611563336682e-04  1.963477260590304e-18
-1.099965393539069e-01 -8.725423567778000e-04  1.966484682170564e-18
-1.099949404213172e-01 -1.055026876835102e-03  1.968331189410029e-18
-1.099999894379149e-01  4.820434173532999e-05  1.957085742684654e-18
-1.099965401873968e-01 -8.724372770410073e-04  1.966483617347388e-18
-1.099965401873968e-01 -8.724372770410073e-04  1.966483617347388e-18
-1.099982566392804e-01  6.193030913533678e-04  1.951187073277536e-18
-1.098694286197066e-01 -5.358045798531842e-03  2.010309513441024e-18
-1.098860410841642e-01  5.005794127741917e-03  1.904120461706708e-18
-1.099580896292292e-01 -3.036202412612952e-03  1.988031244533234e-18
-1.096932266928929e-01  8.209507762440491e-03  1.867772105837843e-18
-1.098225555054308e-01 -6.245502562368228e-03  2.018593646320932e-18
-1.099417351478426e-01  3.579786681019984e-03  1.919763312491436e-18
-1.099162363932766e-01 -4.291966581567482e-03  2.000188936927860e-18
-1.099363647523869e-01  3.741083403252663e-03  1.918010474671817e-18
-1.099996518611999e-01  2.767497331594578e-04  1.954731514231462e-18
-1.099645455395548e-01 -2.792619608742561e-03  1.985643410335275e-18
-1.098504723131368e-01  5.733561945312739e-03  1.896009923050032e-18
-1.099693807795357e-01 -2.595243912516305e-03  1.983701495620646e-18
-1.099552068672268e-01 -3.138866480964354e-03  1.989034778352105e-18
-1.099552068672268e-01 -3.138866480964354e-03  1.989034778352105e-18
-1.099718766826967e-01 -2.487235189063594e-03  1.982636162797625e-18
-1.099999393783515e-01  1.154848862690551e-04  1.956393568661026e-18
-1.099609396818333e-01 -2.931167734571478e-03  1.987002771458211e-18
-1.099939559588916e-01 -1.153105595069287e-03  1.969321392927516e-18
-1.099939559588916e-01 -1.153105595069287e-03  1.969321392927516e-18
-1.099939559588916e-01 -1.153105595069287e-03  1.969321392927516e-18
-1.098316627756782e-01  6.083243536934454e-03  1.892082333569552e-18
-1.093964140316908e-01 -1.150758867038883e-02  2.065075973670090e-18
-1.073921113427256e-01  2.381038473758029e-02  1.666527669745357e-18
-1.099926980435719e-01 -1.267429325673976e-03  1.970473641625323e-18
-1.099926980435719e-01 -1.267429325673976e-03  1.970473641625323e-18
-1.086178894972475e-01 -1.738257981899374e-02  2.111584600757412e-18
-1.097750866071431e-01  7.030672826565242e-03  1.881341001387018e-18
-1.099617036395804e-01  2.902366737862168e-03  1.927078919449820e-18
-1.099172790009719e-01  4.265181944825231e-03  1.912285898834452e-18
-1.099987272327597e-01 -5.291570399175899e-04  1.962995458695886e-18
-1.099987559668861e-01  5.231498230958952e-04  1.952183899309507e-18
-1.099987559668861e-01  5.231498230958952e-04  1.952183899309507e-18
-1.099985059614553e-01  5.733116496770629e-04  1.951664055618886e-18
-1.099984557551585e-01  5.828648903532884e-04  1.951565006060417e-18
-1.099984557551585e-01  5.828648903532884e-04  1.951565006060417e-18
-1.099999988994462e-01 -1.556026363524681e-05  1.957741069220211e-18
-1.099979346071629e-01  6.740787478266201e-04  1.950618542360040e-18
-1.099979346071629e-01  6.740787478266201e-04  1.950618542360040e-18
-1.099972904640945e-01  7.720690108987267e-04  1.949600264709774e-18
-1.099616989129555e-01  2.902545809539534e-03  1.927076995437457e-18
-1.099616989129555e-01  2.902545809539534e-03  1.927076995437457e-18
-1.099490030888671e-01  3.349137167129846e-03  1.922262494138323e-18
-1.099859216784536e-01  1.759838782685150e-03  1.939248968031557e-18
-1.098715842953530e-01  5.313658290584429e-03  1.900699993470182e-18
-1.099887309714331e-01  1.574502871920148e-03  1.941203221907040e-18
-1.098298067386712e-01  6.116661813938236e-03  1.891705942520742e-18
-1.099990483961717e-01  4.575499280411248e-04  1.952863118528585e-18
-1.091472278507998e-01  1.367050300777378e-02  1.801945662829612e-18
-1.099857423810704e-01 -1.771009001890460e-03  1.975523955551104e-18
-1.096648901743004e-01  8.579735605401966e-03  1.863463867095238e-18
-1.095986555668350e-01 -9.388008198878951e-03  2.046897183668707e-18
-1.091567643723357e-01  1.359414549585042e-02  1.802899922302426e-18
-1.091807189247682e-01 -1.340039607887538e-02  2.080685330471292e-18
-1.068676265478981e-01  2.606358371404363e-02  1.634043036232968e-18
-1.096953910775334e-01 -8.180536433937688e-03  2.036212373727112e-18
-1.094385348374817e-01  1.109986903640076e-02  1.833542148359122e-18
-1.054854430409643e-01 -3.119008346336133e-02  2.197706063624604e-18
-1.093643081577530e-01  1.180881455422207e-02  1.824937038396605e-18
-1.085662307862211e-01 -1.770235952840619e-02  2.113950892721332e-18
-1.097340531167796e-01  7.644448087583551e-03  1.874304443639541e-18
-1.094757506372200e-01 -1.072660348932504e-02  2.058463524175793e-18
-1.096004268650912e-01  9.367306495987607e-03  1.854224660814486e-18
-1.095867946754593e-01 -9.525462338316644e-03  2.048098396308051e-18
-1.098992181036682e-01  4.707638495289587e-03  1.907418403298920e-18
-1.099040823221187e-01 -4.592677751912159e-03  2.003062338769216e-18
-1.090214254603119e-01  1.463997235658681e-02  1.789745913849828e-18
-1.099480329194288e-01 -3.380836752664874e-03  1.991393266034478e-18
-1.099776202199964e-01  2.218794886017152e-03  1.934385626439881e-18
-1.099555211008503e-01 -3.127839420499103e-03  1.988927071473801e-18
-1.099999104369655e-01  1.403704368263581e-04  1.956137363622772e-18
-1.099559167077323e-01 -3.113901244774133e-03  1.988790902077931e-18
-1.099981704034689e-01 -6.344350946904616e-04  1.964067243022729e-18
-1.099898659655149e-01 -1.493112483385167e-03  1.972742053879309e-18
-1.099950702477299e-01 -1.041403474605923e-03  1.968193524316995e-18
-1.099950702477299e-01 -1.041403474605923e-03  1.968193524316995e-18
-1.099950702477299e-01 -1.041403474605923e-03  1.968193524316995e-18
-1.099960616482694e-01 -9.308178501124508e-04  1.967074940353108e-18
-1.099977570567517e-01 -7.024546133209538e-04  1.964758762869218e-18
-1.099977570567517e-01 -7.024546133209538e-04  1.964758762869218e-18
-1.099997733367551e-01 -2.233066556700590e-04  1.959871573772888e-18
-1.099986630445530e-01 -5.423360681862025e-04  1.963129726118077e-18
-1.099986630445530e-01 -5.423360681862025e-04  1.963129726118077e-18
-1.099974600548903e-01  7.475168712418593e-04  1.949855547096162e-18
-1.086908623091528e-01 -1.692029699777012e-02  2.108133450936461e-18
-1.099221308820799e-01  4.138253537769717e-03  1.913676387119331e-18
-1.099948335758576e-01 -1.066108164942837e-03  1.968443144177416e-18
-1.099444994832000e-01  3.493856520895666e-03  1.920695408315845e-18
-1.099986106368472e-01  5.528634218891093e-04  1.951876016554610e-18
-1.099861099428575e-01  1.748033076812698e-03  1.939373617760358e-18
-1.099861099428575e-01  1.748033076812698e-03  1.939373617760358e-18
-1.099994660489211e-01  3.427374392110767e-04  1.954050207772085e-18
-1.099994660489211e-01  3.427374392110767e-04  1.954050207772085e-18
-1.099994660489211e-01  3.427374392110767e-04  1.954050207772085e-18
-1.099072884910223e-01  4.515300272535331e-03  1.909538230836410e-18
-1.099993245948609e-01  3.854720150751550e-04  1.953608608185599e-18
-1.099993245948609e-01  3.854720150751550e-04  1.953608608185599e-18
-1.099993245948609e-01  3.854720150751550e-04  1.953608608185599e-18
-1.099999243405238e-01 -1.290158090683374e-04  1.958905456869417e-18
-1.099340227825506e-01  3.809282720618644e-03  1.917268073313905e-18
-1.099340227825506e-01  3.809282720618644e-03  1.917268073313905e-18
-1.088658909509368e-01 -1.575492898932573e-02  2.099274561456878e-18
-1.099231651616570e-01  4.110688609350253e-03  1.913978012984098e-18
-1.099218853212917e-01 -4.144771092927596e-03  1.998777086166315e-18
-1.098665571743273e-01  5.416605455469978e-03  1.899552785133528e-18
-1.096365003108056e-01 -8.935200031262436e-03  2.042918236600524e-18
-1.099963348952088e-01  8.979474489267257e-04  1.948289903998912e-18
-1.099995345207011e-01 -3.200081702777442e-04  1.960860896690034e-18
-1.099995390211202e-01 -3.184574398774798e-04  1.960845043588833e-18
-1.098677452099686e-01 -5.392454216530644e-03  2.010633089152035e-18
-1.099938146496330e-01  1.166507103345390e-03  1.945485700333534e-18
-1.099933482281846e-01  1.209688204982890e-03  1.945033729674629e-18
-1.099933482281846e-01  1.209688204982890e-03  1.945033729674629e-18
-1.099643105944529e-01  2.801855721956632e-03  1.928158027497111e-18
-1.099955839945276e-01  9.856478594149269e-04  1.947375450966873e-18
-1.099408636283456e-01  3.606453195798396e-03  1.919473814010237e-18
-1.099374646070836e-01  3.708621814934369e-03  1.918363578925699e-18
-1.099810080627948e-01  2.043982752233533e-03  1.936242048314016e-18
-1.098024396542415e-01  6.589707578991630e-03  1.886358539216768e-18
-1.099950396390405e-01  1.044631421065629e-03  1.946759728842730e-18
-1.097364247711935e-01  7.610327091273536e-03  1.874697230900748e-18
-1.098566617359018e-01  5.613721781814206e-03  1.897351385356585e-18
-1.081558502778835e-01  2.005771798256268e-02  1.718676602788419e-18
-1.098857028464062e-01  5.013213535375170e-03  1.904038210644168e-18
-1.063145881397090e-01  2.823487823037329e-02  1.601891795685150e-18
-1.024247605870613e-01 -4.011444152276256e-02  2.234932105539155e-18
-1.059889470845174e-01 -2.943370679875955e-02  2.188620386493691e-18
-1.079824771637138e-01 -2.097104254890481e-02  2.137146831298724e-18
-1.083984278345413e-01 -1.870242879948258e-02  2.121239987497288e-18
-1.086774060557626e-01 -1.700651089997195e-02  2.108779797382256e-18
-1.097331037075840e-01 -7.658064422592294e-03  2.031515304846703e-18
-1.089118417481060e-01 -1.543407681189500e-02  2.096795671137931e-18
-9.225772363810385e-02  5.990419375231774e-02  1.026342411814045e-18
-1.096865345208183e-01 -8.298442312464401e-03  2.037266200805909e-18
-1.099614996281928e-01 -2.910085826726528e-03  1.986796127426956e-18
-1.098128685100896e-01 -6.413572295198352e-03  2.020148110133666e-18
-1.098315589759830e-01 -6.085117328790225e-03  2.017105973807498e-18
-1.099109702799992e-01 -4.424772548854932e-03  2.001459753229705e-18
-1.099240338414713e-01 -4.087393303688807e-03  1.998225785705043e-18
-1.099157672780866e-01 -4.303963716097810e-03  2.000303854662554e-18
-1.099576324323390e-01 -3.052715164339287e-03  1.988192770694586e-18
-1.099576324323390e-01 -3.052715164339287e-03  1.988192770694586e-18
-1.099576324323390e-01 -3.052715164339287e-03  1.988192770694586e-18
-1.099576324323390e-01 -3.052715164339287e-03  1.988192770694586e-18
-1.099251427914368e-01 -4.057460077709860e-03  1.997937967769434e-18
-1.099532441531097e-01  3.206883254281812e-03  1.923799576213175e-18
-1.096022009662019e-01 -9.346525737634143e-03  2.046534061059647e-18
-1.098126507315934e-01  6.417300000859961e-03  1.888311682753013e-18
-1.080480874723757e-01 -2.063033672923953e-02  2.134813816475804e-18
-1.092052209522129e-01  1.319923167378749e-02  1.807819861003227e-18
-1.092965120558285e-01 -1.242064621628454e-02  2.072679433438580e-18
-1.097736652453972e-01  7.052830537553044e-03  1.881088044128152e-18
-1.098827558143459e-01  5.077398413046956e-03  1.903326288391761e-18
-1.095195246189316e-01  1.027004027466301e-02  1.843509647201895e-18
-3.251853855896793e-02 -1.050835127410046e-01  1.658401102748509e-18
-1.096928810464868e-01  8.214124890776544e-03  1.867718515331362e-18
-1.099008502276906e-01  4.669381032929945e-03  1.907840530420668e-18
-1.099986484651773e-01  5.452850945305836e-04  1.951954554315486e-18
-1.091130645143343e-01 -1.394055781849118e-02  2.085031305185738e-18
-1.099687795475771e-01  2.620596271144910e-03  1.930099932859426e-18
-1.097010375063903e-01 -8.104466054065770e-03  2.035531263144940e-18
-1.093239927483815e-01  1.217639558949184e-02  1.820442815991172e-18
-1.098054753849988e-01 -6.538927700654530e-03  2.021304521906860e-18
-1.099375324807455e-01  3.706609238236558e-03  1.918385465312935e-18
-1.096994669727067e-01 -8.125696641150024e-03  2.035721450194463e-18
-1.099878712401724e-01  1.633456474845021e-03  1.940582195109840e-18
-1.099006881919700e-01 -4.673193226406828e-03  2.003829203426016e-18
-1.099006881919700e-01 -4.673193226406828e-03  2.003829203426016e-18
-1.055180372874519e-01  3.107963653268607e-02  1.558487364972168e-18
-1.098144051021185e-01  6.387208472234200e-03  1.888652083394432e-18
-1.099991125050792e-01  4.418688661802932e-04  1.953025376637204e-18
-1.097618259782375e-01  7.234746569374023e-03  1.879008229104595e-18
-1.099905772655314e-01  1.439761367427003e-03  1.942620498923785e-18
-1.099179085670853e-01  4.248926480635021e-03  1.912464121703821e-18
-1.099705274771775e-01  2.546190564611388e-03  1.930895530956834e-18
-1.099705274771775e-01  2.546190564611388e-03  1.930895530956834e-18
-1.099308573526041e-01  3.899564298913613e-03  1.916284130291884e-18
-1.099196302651197e-01  4.204150613306058e-03  1.912954817145069e-18
-1.099637632493787e-01 -2.823255573724157e-03  1.985944261959456e-18

TENSORS stress double
0.000000000000000e+00 0.000000000000000e+00 0.000000000000000e+00
0.000000000000000e+00 0.000000000000000e+00 0.000000000000000e+00
0.000000000000000e+00 0.000000000000000e+00 0.000000000000000e+00

0.000000000000000e+00 0.000000000000000e+00 0.000000000000000e+00
0.000000000000000e+00 0.000000000000000e+00 0.000000000000000e+00
0.000000000000000e+00 0.000000000000000e+00 0.000000000000000e+00

0.000000000000000e+00 0.000000000000000e+00 0.000000000000000e+00
0.000000000000000e+00 0.000000000000000e+00 0.000000000000000e+00
0.000000000000000e+00 0.000000000000000e+00 0.000000000000000e+00

0.000000000000000e+00 0.000000000000000e+00 0.000000000000000e+00
0.000000000000000e+00 0.000000000000000e+00 0.000000000000000e+00
0.000000000000000e+00 0.000000000000000e+00 0.000000000000000e+00

0.000000000000000e+00 0.000000000000000e+00 0.000000000000000e+00
0.000000000000000e+00 0.000000000000000e+00 0.000000000000000e+00
0.000000000000000e+00 0.000000000000000e+00 0.000000000000000e+00

0.000000000000000e+00 0.000000000000000e+00 0.000000000000000e+00
0.000000000000000e+00 0.000000000000000e+00 0.000000000000000e+00
0.000000000000000e+00 0.000000000000000e+00 0.000000000000000e+00

0.000000000000000e+00 0.000000000000000e+00 0.000000000000000e+00
0.000000000000000e+00 0.000000000000000e+00 0.000000000000000e+00
0.000000000000000e+00 0.000000000000000e+00 0.000000000000000e+00

0.000000000000000e+00 0.000000000000000e+00 0.000000000000000e+00
0.000000000000000e+00 0.000000000000000e+00 0.000000000000000e+00
0.000000000000000e+00 0.000000000000000e+00 0.000000000000000e+00

0.000000000000000e+00 0.000000000000000e+00 0.000000000000000e+00
0.000000000000000e+00 0.000000000000000e+00 0.000000000000000e+00
0.000000000000000e+00 0.000000000000000e+00 0.000000000000000e+00

0.000000000000000e+00 0.000000000000000e+00 0.000000000000000e+00
0.000000000000000e+00 0.000000000000000e+00 0.000000000000000e+00
0.000000000000000e+00 0.000000000000000e+00 0.000000000000000e+00

0.000000000000000e+00 0.000000000000000e+00 0.000000000000000e+00
0.000000000000000e+00 0.000000000000000e+00 0.000000000000000e+00
0.000000000000000e+00 0.000000000000000e+00 0.000000000000000e+00

0.000000000000000e+00 0.000000000000000e+00 0.000000000000000e+00
0.000000000000000e+00 0.000000000000000e+00 0.000000000000000e+00
0.000000000000000e+00 0.000000000000000e+00 0.000000000000000e+00

0.000000000000000e+00 0.000000000000000e+00 0.000000000000000e+00
0.000000000000000e+00 0.000000000000000e+00 0.000000000000000e+00
0.000000000000000e+00 0.000000000000000e+00 0.000000000000000e+00

0.000000000000000e+00 0.000000000000000e+00 0.000000000000000e+00
0.000000000000000e+00 0.000000000000000e+00 0.000000000000000e+00
0.000000000000000e+00 0.000000000000000e+00 0.000000000000000e+00

0.000000000000000e+00 0.000000000000000e+00 0.000000000000000e+00
0.000000000000000e+00 0.000000000000000e+00 0.000000000000000e+00
0.000000000000000e+00 0.000000000000000e+00 0.000000000000000e+00

0.000000000000000e+00 0.000000000000000e+00 0.000000000000000e+00
0.000000000000000e+00 0.000000000000000e+00 0.000000000000000e+00
0.000000000000000e+00 0.000000000000000e+00 0.000000000000000e+00

0.000000000000000e+00 0.000000000000000e+00 0.000000000000000e+00
0.000000000000000e+00 0.000000000000000e+00 0.000000000000000e+00
0.000000000000000e+00 0.000000000000000e+00 0.000000000000000e+00

0.000000000000000e+00 0.000000000000000e+00 0.000000000000000e+00
0.000000000000000e+00 0.000000000000000e+00 0.000000000000000e+00
0.000000000000000e+00 0.000000000000000e+00 0.000000000000000e+00

0.000000000000000e+00 0.000000000000000e+00 0.000000000000000e+00
0.000000000000000e+00 0.000000000000000e+00 0.000000000000000e+00
0.000000000000000e+00 0.000000000000000e+00 0.000000000000000e+00

0.000000000000000e+00 0.000000000000000e+00 0.000000000000000e+00
0.000000000000000e+00 0.000000000000000e+00 0.000000000000000e+00
0.000000000000000e+00 0.000000000000000e+00 0.000000000000000e+00

0.000000000000000e+00 0.000000000000000e+00 0.000000000000000e+00
0.000000000000000e+00 0.000000000000000e+00 0.000000000000000e+00
0.000000000000000e+00 0.000000000000000e+00 0.000000000000000e+00

0.000000000000000e+00 0.000000000000000e+00 0.000000000000000e+00
0.000000000000000e+00 0.000000000000000e+00 0.000000000000000e+00
0.000000000000000e+00 0.000000000000000e+00 0.000000000000000e+00

0.000000000000000e+00 0.000000000000000e+00 0.000000000000000e+00
0.000000000000000e+00 0.000000000000000e+00 0.000000000000000e+00
0.000000000000000e+00 0.000000000000000e+00 0.000000000000000e+00

0.000000000000000e+00 0.000000000000000e+00 0.000000000000000e+00
0.000000000000000e+00 0.000000000000000e+00 0.000000000000000e+00
0.000000000000000e+00 0.000000000000000e+00 0.000000000000000e+00

0.000000000000000e+00 0.000000000000000e+00 0.000000000000000e+00
0.000000000000000e+00 0.000000000000000e+00 0.000000000000000e+00
0.000000000000000e+00 0.000000000000000e+00 0.000000000000000e+00

0.000000000000000e+00 0.000000000000000e+00 0.000000000000000e+00
0.000000000000000e+00 0.000000000000000e+00 0.000000000000000e+00
0.000000000000000e+00 0.000000000000000e+00 0.000000000000000e+00

0.000000000000000e+00 0.000000000000000e+00 0.000000000000000e+00
0.000000000000000e+00 0.000000000000000e+00 0.000000000000000e+00
0.000000000000000e+00 0.000000000000000e+00 0.000000000000000e+00

0.000000000000000e+00 0.000000000000000e+00 0.000000000000000e+00
0.000000000000000e+00 0.000000000000000e+00 0.000000000000000e+00
0.000000000000000e+00 0.000000000000000e+00 0.000000000000000e+00

0.000000000000000e+00 0.000000000000000e+00 0.000000000000000e+00
0.000000000000000e+00 0.000000000000000e+00 0.000000000000000e+00
0.000000000000000e+00 0.000000000000000e+00 0.000000000000000e+00

0.000000000000000e+00 0.000000000000000e+00 0.000000000000000e+00
0.000000000000000e+00 0.000000000000000e+00 0.000000000000000e+00
0.000000000000000e+00 0.000000000000000e+00 0.000000000000000e+00

0.000000000000000e+00 0.000000000000000e+00 0.000000000000000e+00
0.000000000000000e+00 0.000000000000000e+00 0.000000000000000e+00
0.000000000000000e+00 0.000000000000000e+00 0.000000000000000e+00

0.000000000000000e+00 0.000000000000000e+00 0.000000000000000e+00
0.000000000000000e+00 0.000000000000000e+00 0.000000000000000e+00
0.000000000000000e+00 0.000000000000000e+00 0.000000000000000e+00

0.000000000000000e+00 0.000000000000000e+00 0.000000000000000e+00
0.000000000000000e+00 0.000000000000000e+00 0.000000000000000e+00
0.000000000000000e+00 0.000000000000000e+00 0.000000000000000e+00

0.000000000000000e+00 0.000000000000000e+00 0.000000000000000e+00
0.000000000000000e+00 0.000000000000000e+00 0.000000000000000e+00
0.000000000000000e+00 0.000000000000000e+00 0.000000000000000e+00

0.000000000000000e+00 0.000000000000000e+00 0.000000000000000e+00
0.000000000000000e+00 0.000000000000000e+00 0.000000000000000e+00
0.000000000000000e+00 0.000000000000000e+00 0.000000000000000e+00

0.000000000000000e+00 0.000000000000000e+00 0.000000000000000e+00
0.000000000000000e+00 0.000000000000000e+00 0.000000000000000e+00
0.000000000000000e+00 0.000000000000000e+00 0.000000000000000e+00

0.000000000000000e+00 0.000000000000000e+00 0.000000000000000e+00
0.000000000000000e+00 0.000000000000000e+00 0.000000000000000e+00
0.000000000000000e+00 0.000000000000000e+00 0.000000000000000e+00

0.000000000000000e+00 0.000000000000000e+00 0.000000000000000e+00
0.000000000000000e+00 0.000000000000000e+00 0.000000000000000e+00
0.000000000000000e+00 0.000000000000000e+00 0.000000000000000e+00

0.000000000000000e+00 0.000000000000000e+00 0.000000000000000e+00
0.000000000000000e+00 0.000000000000000e+00 0.000000000000000e+00
0.000000000000000e+00 0.000000000000000e+00 0.000000000000000e+00

0.000000000000000e+00 0.000000000000000e+00 0.000000000000000e+00
0.000000000000000e+00 0.000000000000000e+00 0.000000000000000e+00
0.000000000000000e+00 0.000000000000000e+00 0.000000000000000e+00

0.000000000000000e+00 0.000000000000000e+00 0.000000000000000e+00
0.000000000000000e+00 0.000000000000000e+00 0.000000000000000e+00
0.000000000000000e+00 0.000000000000000e+00 0.000000000000000e+00

0.000000000000000e+00 0.000000000000000e+00 0.000000000000000e+00
0.000000000000000e+00 0.000000000000000e+00 0.000000000000000e+00
0.000000000000000e+00 0.000000000000000e+00 0.000000000000000e+00

0.000000000000000e+00 0.000000000000000e+00 0.000000000000000e+00
0.000000000000000e+00 0.000000000000000e+00 0.000000000000000e+00
0.000000000000000e+00 0.000000000000000e+00 0.000000000000000e+00

0.000000000000000e+00 0.000000000000000e+00 0.000000000000000e+00
0.000000000000000e+00 0.000000000000000e+00 0.000000000000000e+00
0.000000000000000e+00 0.000000000000000e+00 0.000000000000000e+00

0.000000000000000e+00 0.000000000000000e+00 0.000000000000000e+00
0.000000000000000e+00 0.000000000000000e+00 0.000000000000000e+00
0.000000000000000e+00 0.000000000000000e+00 0.000000000000000e+00

0.000000000000000e+00 0.000000000000000e+00 0.000000000000000e+00
0.000000000000000e+00 0.000000000000000e+00 0.000000000000000e+00
0.000000000000000e+00 0.000000000000000e+00 0.000000000000000e+00

0.000000000000000e+00 0.000000000000000e+00 0.000000000000000e+00
0.000000000000000e+00 0.000000000000000e+00 0.000000000000000e+00
0.000000000000000e+00 0.000000000000000e+00 0.000000000000000e+00

0.000000000000000e+00 0.000000000000000e+00 0.000000000000000e+00
0.000000000000000e+00 0.000000000000000e+00 0.000000000000000e+00
0.000000000000000e+00 0.000000000000000e+00 0.000000000000000e+00

0.000000000000000e+00 0.000000000000000e+00 0.000000000000000e+00
0.000000000000000e+00 0.000000000000000e+00 0.000000000000000e+00
0.000000000000000e+00 0.000000000000000e+00 0.000000000000000e+00

0.000000000000000e+00 0.000000000000000e+00 0.000000000000000e+00
0.000000000000000e+00 0.000000000000000e+00 0.000000000000000e+00
0.000000000000000e+00 0.000000000000000e+00 0.000000000000000e+00

0.000000000000000e+00 0.000000000000000e+00 0.000000000000000e+00
0.000000000000000e+00 0.000000000000000e+00 0.000000000000000e+00
0.000000000000000e+00 0.000000000000000e+00 0.000000000000000e+00

0.000000000000000e+00 0.000000000000000e+00 0.000000000000000e+00
0.000000000000000e+00 0.000000000000000e+00 0.000000000000000e+00
0.000000000000000e+00 0.000000000000000e+00 0.000000000000000e+00

0.000000000000000e+00 0.000000000000000e+00 0.000000000000000e+00
0.000000000000000e+00 0.000000000000000e+00 0.000000000000000e+00
0.000000000000000e+00 0.000000000000000e+00 0.000000000000000e+00

0.000000000000000e+00 0.000000000000000e+00 0.000000000000000e+00
0.000000000000000e+00 0.000000000000000e+00 0.000000000000000e+00
0.000000000000000e+00 0.000000000000000e+00 0.000000000000000e+00

0.000000000000000e+00 0.000000000000000e+00 0.000000000000000e+00
0.000000000000000e+00 0.000000000000000e+00 0.000000000000000e+00
0.000000000000000e+00 0.000000000000000e+00 0.000000000000000e+00

0.000000000000000e+00 0.000000000000000e+00 0.000000000000000e+00
0.000000000000000e+00 0.000000000000000e+00 0.000000000000000e+00
0.000000000000000e+00 0.000000000000000e+00 0.000000000000000e+00

0.000000000000000e+00 0.000000000000000e+00 0.000000000000000e+00
0.000000000000000e+00 0.000000000000000e+00 0.000000000000000e+00
0.000000000000000e+00 0.000000000000000e+00 0.000000000000000e+00

0.000000000000000e+00 0.000000000000000e+00 0.000000000000000e+00
0.000000000000000e+00 0.000000000000000e+00 0.000000000000000e+00
0.000000000000000e+00 0.000000000000000e+00 0.000000000000000e+00

0.000000000000000e+00 0.000000000000000e+00 0.000000000000000e+00
0.000000000000000e+00 0.000000000000000e+00 0.000000000000000e+00
0.000000000000000e+00 0.000000000000000e+00 0.000000000000000e+00

0.000000000000000e+00 0.000000000000000e+00 0.000000000000000e+00
0.000000000000000e+00 0.000000000000000e+00 0.000000000000000e+00
0.000000000000000e+00 0.000000000000000e+00 0.000000000000000e+00

0.000000000000000e+00 0.000000000000000e+00 0.000000000000000e+00
0.000000000000000e+00 0.000000000000000e+00 0.000000000000000e+00
0.000000000000000e+00 0.000000000000000e+00 0.000000000000000e+00

0.000000000000000e+00 0.000000000000000e+00 0.000000000000000e+00
0.000000000000000e+00 0.000000000000000e+00 0.000000000000000e+00
0.000000000000000e+00 0.000000000000000e+00 0.000000000000000e+00

0.000000000000000e+00 0.000000000000000e+00 0.000000000000000e+00
0.000000000000000e+00 0.000000000000000e+00 0.000000000000000e+00
0.000000000000000e+00 0.000000000000000e+00 0.000000000000000e+00

0.000000000000000e+00 0.000000000000000e+00 0.000000000000000e+00
0.000000000000000e+00 0.000000000000000e+00 0.000000000000000e+00
0.000000000000000e+00 0.000000000000000e+00 0.000000000000000e+00

0.000000000000000e+00 0.000000000000000e+00 0.000000000000000e+00
0.000000000000000e+00 0.000000000000000e+00 0.000000000000000e+00
0.000000000000000e+00 0.000000000000000e+00 0.000000000000000e+00

0.000000000000000e+00 0.000000000000000e+00 0.000000000000000e+00
0.000000000000000e+00 0.000000000000000e+00 0.000000000000000e+00
0.000000000000000e+00 0.000000000000000e+00 0.000000000000000e+00

0.000000000000000e+00 0.000000000000000e+00 0.000000000000000e+00
0.000000000000000e+00 0.000000000000000e+00 0.000000000000000e+00
0.000000000000000e+00 0.000000000000000e+00 0.000000000000000e+00

0.000000000000000e+00 0.000000000000000e+00 0.000000000000000e+00
0.000000000000000e+00 0.000000000000000e+00 0.000000000000000e+00
0.000000000000000e+00 0.000000000000000e+00 0.000000000000000e+00

0.000000000000000e+00 0.000000000000000e+00 0.000000000000000e+00
0.000000000000000e+00 0.000000000000000e+00 0.000000000000000e+00
0.000000000000000e+00 0.000000000000000e+00 0.000000000000000e+00

0.000000000000000e+00 0.000000000000000e+00 0.000000000000000e+00
0.000000000000000e+00 0.000000000000000e+00 0.000000000000000e+00
0.000000000000000e+00 0.000000000000000e+00 0.000000000000000e+00

0.000000000000000e+00 0.000000000000000e+00 0.000000000000000e+00
0.000000000000000e+00 0.000000000000000e+00 0.000000000000000e+00
0.000000000000000e+00 0.000000000000000e+00 0.000000000000000e+00

0.000000000000000e+00 0.000000000000000e+00 0.000000000000000e+00
0.000000000000000e+00 0.000000000000000e+00 0.000000000000000e+00
0.000000000000000e+00 0.000000000000000e+00 0.000000000000000e+00

0.000000000000000e+00 0.000000000000000e+00 0.000000000000000e+00
0.000000000000000e+00 0.000000000000000e+00 0.000000000000000e+00
0.000000000000000e+00 0.000000000000000e+00 0.000000000000000e+00

0.000000000000000e+00 0.000000000000000e+00 0.000000000000000e+00
0.000000000000000e+00 0.000000000000000e+00 0.000000000000000e+00
0.000000000000000e+00 0.000000000000000e+00 0.000000000000000e+00

0.000000000000000e+00 0.000000000000000e+00 0.000000000000000e+00
0.000000000000000e+00 0.000000000000000e+00 0.000000000000000e+00
0.000000000000000e+00 0.000000000000000e+00 0.000000000000000e+00

0.000000000000000e+00 0.000000000000000e+00 0.000000000000000e+00
0.000000000000000e+00 0.000000000000000e+00 0.000000000000000e+00
0.000000000000000e+00 0.000000000000000e+00 0.000000000000000e+00

0.000000000000000e+00 0.000000000000000e+00 0.000000000000000e+00
0.000000000000000e+00 0.000000000000000e+00 0.000000000000000e+00
0.000000000000000e+00 0.000000000000000e+00 0.000000000000000e+00

0.000000000000000e+00 0.000000000000000e+00 0.000000000000000e+00
0.000000000000000e+00 0.000000000000000e+00 0.000000000000000e+00
0.000000000000000e+00 0.000000000000000e+00 0.000000000000000e+00

0.000000000000000e+00 0.000000000000000e+00 0.000000000000000e+00
0.000000000000000e+00 0.000000000000000e+00 0.000000000000000e+00
0.000000000000000e+00 0.000000000000000e+00 0.000000000000000e+00

0.000000000000000e+00 0.000000000000000e+00 0.000000000000000e+00
0.000000000000000e+00 0.000000000000000e+00 0.000000000000000e+00
0.000000000000000e+00 0.000000000000000e+00 0.000000000000000e+00

0.000000000000000e+00 0.000000000000000e+00 0.000000000000000e+00
0.000000000000000e+00 0.000000000000000e+00 0.000000000000000e+00
0.000000000000000e+00 0.000000000000000e+00 0.000000000000000e+00

0.000000000000000e+00 0.000000000000000e+00 0.000000000000000e+00
0.000000000000000e+00 0.000000000000000e+00 0.000000000000000e+00
0.000000000000000e+00 0.000000000000000e+00 0.000000000000000e+00

0.000000000000000e+00 0.000000000000000e+00 0.000000000000000e+00
0.000000000000000e+00 0.000000000000000e+00 0.000000000000000e+00
0.000000000000000e+00 0.000000000000000e+00 0.000000000000000e+00

0.000000000000000e+00 0.000000000000000e+00 0.000000000000000e+00
0.000000000000000e+00 0.000000000000000e+00 0.000000000000000e+00
0.000000000000000e+00 0.000000000000000e+00 0.000000000000000e+00

0.000000000000000e+00 0.000000000000000e+00 0.000000000000000e+00
0.000000000000000e+00 0.000000000000000e+00 0.000000000000000e+00
0.000000000000000e+00 0.000000000000000e+00 0.000000000000000e+00

0.000000000000000e+00 0.000000000000000e+00 0.000000000000000e+00
0.000000000000000e+00 0.000000000000000e+00 0.000000000000000e+00
0.000000000000000e+00 0.000000000000000e+00 0.000000000000000e+00

0.000000000000000e+00 0.000000000000000e+00 0.000000000000000e+00
0.000000000000000e+00 0.000000000000000e+00 0.000000000000000e+00
0.000000000000000e+00 0.000000000000000e+00 0.000000000000000e+00

0.000000000000000e+00 0.000000000000000e+00 0.000000000000000e+00
0.000000000000000e+00 0.000000000000000e+00 0.000000000000000e+00
0.000000000000000e+00 0.000000000000000e+00 0.000000000000000e+00

0.000000000000000e+00 0.000000000000000e+00 0.000000000000000e+00
0.000000000000000e+00 0.000000000000000e+00 0.000000000000000e+00
0.000000000000000e+00 0.000000000000000e+00 0.000000000000000e+00

0.000000000000000e+00 0.000000000000000e+00 0.000000000000000e+00
0.000000000000000e+00 0.000000000000000e+00 0.000000000000000e+00
0.000000000000000e+00 0.000000000000000e+00 0.000000000000000e+00

0.000000000000000e+00 0.000000000000000e+00 0.000000000000000e+00
0.000000000000000e+00 0.000000000000000e+00 0.000000000000000e+00
0.000000000000000e+00 0.000000000000000e+00 0.000000000000000e+00

0.000000000000000e+00 0.000000000000000e+00 0.000000000000000e+00
0.000000000000000e+00 0.000000000000000e+00 0.000000000000000e+00
0.000000000000000e+00 0.000000000000000e+00 0.000000000000000e+00

0.000000000000000e+00 0.000000000000000e+00 0.000000000000000e+00
0.000000000000000e+00 0.000000000000000e+00 0.000000000000000e+00
0.000000000000000e+00 0.000000000000000e+00 0.000000000000000e+00

0.000000000000000e+00 0.000000000000000e+00 0.000000000000000e+00
0.000000000000000e+00 0.000000000000000e+00 0.000000000000000e+00
0.000000000000000e+00 0.000000000000000e+00 0.000000000000000e+00

0.000000000000000e+00 0.000000000000000e+00 0.000000000000000e+00
0.000000000000000e+00 0.000000000000000e+00 0.000000000000000e+00
0.000000000000000e+00 0.000000000000000e+00 0.000000000000000e+00

0.000000000000000e+00 0.000000000000000e+00 0.000000000000000e+00
0.000000000000000e+00 0.000000000000000e+00 0.000000000000000e+00
0.000000000000000e+00 0.000000000000000e+00 0.000000000000000e+00

0.000000000000000e+00 0.000000000000000e+00 0.000000000000000e+00
0.000000000000000e+00 0.000000000000000e+00 0.000000000000000e+00
0.000000000000000e+00 0.000000000000000e+00 0.000000000000000e+00

0.000000000000000e+00 0.000000000000000e+00 0.000000000000000e+00
0.000000000000000e+00 0.000000000000000e+00 0.000000000000000e+00
0.000000000000000e+00 0.000000000000000e+00 0.000000000000000e+00

0.000000000000000e+00 0.000000000000000e+00 0.000000000000000e+00
0.000000000000000e+00 0.000000000000000e+00 0.000000000000000e+00
0.000000000000000e+00 0.000000000000000e+00 0.000000000000000e+00

0.000000000000000e+00 0.000000000000000e+00 0.000000000000000e+00
0.000000000000000e+00 0.000000000000000e+00 0.000000000000000e+00
0.000000000000000e+00 0.000000000000000e+00 0.000000000000000e+00

0.000000000000000e+00 0.000000000000000e+00 0.000000000000000e+00
0.000000000000000e+00 0.000000000000000e+00 0.000000000000000e+00
0.000000000000000e+00 0.000000000000000e+00 0.000000000000000e+00

0.000000000000000e+00 0.000000000000000e+00 0.000000000000000e+00
0.000000000000000e+00 0.000000000000000e+00 0.000000000000000e+00
0.000000000000000e+00 0.000000000000000e+00 0.000000000000000e+00

0.000000000000000e+00 0.000000000000000e+00 0.000000000000000e+00
0.000000000000000e+00 0.000000000000000e+00 0.000000000000000e+00
0.000000000000000e+00 0.000000000000000e+00 0.000000000000000e+00

0.000000000000000e+00 0.000000000000000e+00 0.000000000000000e+00
0.000000000000000e+00 0.000000000000000e+00 0.000000000000000e+00
0.000000000000000e+00 0.000000000000000e+00 0.000000000000000e+00

0.000000000000000e+00 0.000000000000000e+00 0.000000000000000e+00
0.000000000000000e+00 0.000000000000000e+00 0.000000000000000e+00
0.000000000000000e+00 0.000000000000000e+00 0.000000000000000e+00

0.000000000000000e+00 0.000000000000000e+00 0.000000000000000e+00
0.000000000000000e+00 0.000000000000000e+00 0.000000000000000e+00
0.000000000000000e+00 0.000000000000000e+00 0.000000000000000e+00

0.000000000000000e+00 0.000000000000000e+00 0.000000000000000e+00
0.000000000000000e+00 0.000000000000000e+00 0.000000000000000e+00
0.000000000000000e+00 0.000000000000000e+00 0.000000000000000e+00

0.000000000000000e+00 0.000000000000000e+00 0.000000000000000e+00
0.000000000000000e+00 0.000000000000000e+00 0.000000000000000e+00
0.000000000000000e+00 0.000000000000000e+00 0.000000000000000e+00

0.000000000000000e+00 0.000000000000000e+00 0.000000000000000e+00
0.000000000000000e+00 0.000000000000000e+00 0.000000000000000e+00
0.000000000000000e+00 0.000000000000000e+00 0.000000000000000e+00

0.000000000000000e+00 0.000000000000000e+00 0.000000000000000e+00
0.000000000000000e+00 0.000000000000000e+00 0.000000000000000e+00
0.000000000000000e+00 0.000000000000000e+00 0.000000000000000e+00

0.000000000000000e+00 0.000000000000000e+00 0.000000000000000e+00
0.000000000000000e+00 0.000000000000000e+00 0.000000000000000e+00
0.000000000000000e+00 0.000000000000000e+00 0.000000000000000e+00

0.000000000000000e+00 0.000000000000000e+00 0.000000000000000e+00
0.000000000000000e+00 0.000000000000000e+00 0.000000000000000e+00
0.000000000000000e+00 0.000000000000000e+00 0.000000000000000e+00

0.000000000000000e+00 0.000000000000000e+00 0.000000000000000e+00
0.000000000000000e+00 0.000000000000000e+00 0.000000000000000e+00
0.000000000000000e+00 0.000000000000000e+00 0.000000000000000e+00

0.000000000000000e+00 0.000000000000000e+00 0.000000000000000e+00
0.000000000000000e+00 0.000000000000000e+00 0.000000000000000e+00
0.000000000000000e+00 0.000000000000000e+00 0.000000000000000e+00

0.000000000000000e+00 0.000000000000000e+00 0.000000000000000e+00
0.000000000000000e+00 0.000000000000000e+00 0.000000000000000e+00
0.000000000000000e+00 0.000000000000000e+00 0.000000000000000e+00

0.000000000000000e+00 0.000000000000000e+00 0.000000000000000e+00
0.000000000000000e+00 0.000000000000000e+00 0.000000000000000e+00
0.000000000000000e+00 0.000000000000000e+00 0.000000000000000e+00

0.000000000000000e+00 0.000000000000000e+00 0.000000000000000e+00
0.000000000000000e+00 0.000000000000000e+00 0.000000000000000e+00
0.000000000000000e+00 0.000000000000000e+00 0.000000000000000e+00

0.000000000000000e+00 0.000000000000000e+00 0.000000000000000e+00
0.000000000000000e+00 0.000000000000000e+00 0.000000000000000e+00
0.000000000000000e+00 0.000000000000000e+00 0.000000000000000e+00

0.000000000000000e+00 0.000000000000000e+00 0.000000000000000e+00
0.000000000000000e+00 0.000000000000000e+00 0.000000000000000e+00
0.000000000000000e+00 0.000000000000000e+00 0.000000000000000e+00

0.000000000000000e+00 0.000000000000000e+00 0.000000000000000e+00
0.000000000000000e+00 0.000000000000000e+00 0.000000000000000e+00
0.000000000000000e+00 0.000000000000000e+00 0.000000000000000e+00

0.000000000000000e+00 0.000000000000000e+00 0.000000000000000e+00
0.000000000000000e+00 0.000000000000000e+00 0.000000000000000e+00
0.000000000000000e+00 0.000000000000000e+00 0.000000000000000e+00

0.000000000000000e+00 0.000000000000000e+00 0.000000000000000e+00
0.000000000000000e+00 0.000000000000000e+00 0.000000000000000e+00
0.000000000000000e+00 0.000000000000000e+00 0.000000000000000e+00

0.000000000000000e+00 0.000000000000000e+00 0.000000000000000e+00
0.000000000000000e+00 0.000000000000000e+00 0.000000000000000e+00
0.000000000000000e+00 0.000000000000000e+00 0.000000000000000e+00

0.000000000000000e+00 0.000000000000000e+00 0.000000000000000e+00
0.000000000000000e+00 0.000000000000000e+00 0.000000000000000e+00
0.000000000000000e+00 0.000000000000000e+00 0.000000000000000e+00

0.000000000000000e+00 0.000000000000000e+00 0.000000000000000e+00
0.000000000000000e+00 0.000000000000000e+00 0.000000000000000e+00
0.000000000000000e+00 0.000000000000000e+00 0.000000000000000e+00

0.000000000000000e+00 0.000000000000000e+00 0.000000000000000e+00
0.000000000000000e+00 0.000000000000000e+00 0.000000000000000e+00
0.000000000000000e+00 0.000000000000000e+00 0.000000000000000e+00

0.000000000000000e+00 0.000000000000000e+00 0.000000000000000e+00
0.000000000000000e+00 0.000000000000000e+00 0.000000000000000e+00
0.000000000000000e+00 0.000000000000000e+00 0.000000000000000e+00

0.000000000000000e+00 0.000000000000000e+00 0.000000000000000e+00
0.000000000000000e+00 0.000000000000000e+00 0.000000000000000e+00
0.000000000000000e+00 0.000000000000000e+00 0.000000000000000e+00

0.000000000000000e+00 0.000000000000000e+00 0.000000000000000e+00
0.000000000000000e+00 0.000000000000000e+00 0.000000000000000e+00
0.000000000000000e+00 0.000000000000000e+00 0.000000000000000e+00

0.000000000000000e+00 0.000000000000000e+00 0.000000000000000e+00
0.000000000000000e+00 0.000000000000000e+00 0.000000000000000e+00
0.000000000000000e+00 0.000000000000000e+00 0.000000000000000e+00

0.000000000000000e+00 0.000000000000000e+00 0.000000000000000e+00
0.000000000000000e+00 0.000000000000000e+00 0.000000000000000e+00
0.000000000000000e+00 0.000000000000000e+00 0.000000000000000e+00

0.000000000000000e+00 0.000000000000000e+00 0.000000000000000e+00
0.000000000000000e+00 0.000000000000000e+00 0.000000000000000e+00
0.000000000000000e+00 0.000000000000000e+00 0.000000000000000e+00

0.000000000000000e+00 0.000000000000000e+00 0.000000000000000e+00
0.000000000000000e+00 0.000000000000000e+00 0.000000000000000e+00
0.000000000000000e+00 0.000000000000000e+00 0.000000000000000e+00

0.000000000000000e+00 0.000000000000000e+00 0.000000000000000e+00
0.000000000000000e+00 0.000000000000000e+00 0.000000000000000e+00
0.000000000000000e+00 0.000000000000000e+00 0.000000000000000e+00

0.000000000000000e+00 0.000000000000000e+00 0.000000000000000e+00
0.000000000000000e+00 0.000000000000000e+00 0.000000000000000e+00
0.000000000000000e+00 0.000000000000000e+00 0.000000000000000e+00

0.000000000000000e+00 0.000000000000000e+00 0.000000000000000e+00
0.000000000000000e+00 0.000000000000000e+00 0.000000000000000e+00
0.000000000000000e+00 0.000000000000000e+00 0.000000000000000e+00

0.000000000000000e+00 0.000000000000000e+00 0.000000000000000e+00
0.000000000000000e+00 0.000000000000000e+00 0.000000000000000e+00
0.000000000000000e+00 0.000000000000000e+00 0.000000000000000e+00

0.000000000000000e+00 0.000000000000000e+00 0.000000000000000e+00
0.000000000000000e+00 0.000000000000000e+00 0.000000000000000e+00
0.000000000000000e+00 0.000000000000000e+00 0.000000000000000e+00

0.000000000000000e+00 0.000000000000000e+00 0.000000000000000e+00
0.000000000000000e+00 0.000000000000000e+00 0.000000000000000e+00
0.000000000000000e+00 0.000000000000000e+00 0.000000000000000e+00

0.000000000000000e+00 0.000000000000000e+00 0.000000000000000e+00
0.000000000000000e+00 0.000000000000000e+00 0.000000000000000e+00
0.000000000000000e+00 0.000000000000000e+00 0.000000000000000e+00

0.000000000000000e+00 0.000000000000000e+00 0.000000000000000e+00
0.000000000000000e+00 0.000000000000000e+00 0.000000000000000e+00
0.000000000000000e+00 0.000000000000000e+00 0.000000000000000e+00

0.000000000000000e+00 0.000000000000000e+00 0.000000000000000e+00
0.000000000000000e+00 0.000000000000000e+00 0.000000000000000e+00
0.000000000000000e+00 0.000000000000000e+00 0.000000000000000e+00

0.000000000000000e+00 0.000000000000000e+00 0.000000000000000e+00
0.000000000000000e+00 0.000000000000000e+00 0.000000000000000e+00
0.000000000000000e+00 0.000000000000000e+00 0.000000000000000e+00

0.000000000000000e+00 0.000000000000000e+00 0.000000000000000e+00
0.000000000000000e+00 0.000000000000000e+00 0.000000000000000e+00
0.000000000000000e+00 0.000000000000000e+00 0.000000000000000e+00

0.000000000000000e+00 0.000000000000000e+00 0.000000000000000e+00
0.000000000000000e+00 0.000000000000000e+00 0.000000000000000e+00
0.000000000000000e+00 0.000000000000000e+00 0.000000000000000e+00

0.000000000000000e+00 0.000000000000000e+00 0.000000000000000e+00
0.000000000000000e+00 0.000000000000000e+00 0.000000000000000e+00
0.000000000000000e+00 0.000000000000000e+00 0.000000000000000e+00

0.000000000000000e+00 0.000000000000000e+00 0.000000000000000e+00
0.000000000000000e+00 0.000000000000000e+00 0.000000000000000e+00
0.000000000000000e+00 0.000000000000000e+00 0.000000000000000e+00

0.000000000000000e+00 0.000000000000000e+00 0.000000000000000e+00
0.000000000000000e+00 0.000000000000000e+00 0.000000000000000e+00
0.000000000000000e+00 0.000000000000000e+00 0.000000000000000e+00

0.000000000000000e+00 0.000000000000000e+00 0.000000000000000e+00
0.000000000000000e+00 0.000000000000000e+00 0.000000000000000e+00
0.000000000000000e+00 0.000000000000000e+00 0.000000000000000e+00

0.000000000000000e+00 0.000000000000000e+00 0.000000000000000e+00
0.000000000000000e+00 0.000000000000000e+00 0.000000000000000e+00
0.000000000000000e+00 0.000000000000000e+00 0.000000000000000e+00

0.000000000000000e+00 0.000000000000000e+00 0.000000000000000e+00
0.000000000000000e+00 0.000000000000000e+00 0.000000000000000e+00
0.000000000000000e+00 0.000000000000000e+00 0.000000000000000e+00

0.000000000000000e+00 0.000000000000000e+00 0.000000000000000e+00
0.000000000000000e+00 0.000000000000000e+00 0.000000000000000e+00
0.000000000000000e+00 0.000000000000000e+00 0.000000000000000e+00

0.000000000000000e+00 0.000000000000000e+00 0.000000000000000e+00
0.000000000000000e+00 0.000000000000000e+00 0.000000000000000e+00
0.000000000000000e+00 0.000000000000000e+00 0.000000000000000e+00

0.000000000000000e+00 0.000000000000000e+00 0.000000000000000e+00
0.000000000000000e+00 0.000000000000000e+00 0.000000000000000e+00
0.000000000000000e+00 0.000000000000000e+00 0.000000000000000e+00

0.000000000000000e+00 0.000000000000000e+00 0.000000000000000e+00
0.000000000000000e+00 0.000000000000000e+00 0.000000000000000e+00
0.000000000000000e+00 0.000000000000000e+00 0.000000000000000e+00

0.000000000000000e+00 0.000000000000000e+00 0.000000000000000e+00
0.000000000000000e+00 0.000000000000000e+00 0.000000000000000e+00
0.000000000000000e+00 0.000000000000000e+00 0.000000000000000e+00

0.000000000000000e+00 0.000000000000000e+00 0.000000000000000e+00
0.000000000000000e+00 0.000000000000000e+00 0.000000000000000e+00
0.000000000000000e+00 0.000000000000000e+00 0.000000000000000e+00

0.000000000000000e+00 0.000000000000000e+00 0.000000000000000e+00
0.000000000000000e+00 0.000000000000000e+00 0.000000000000000e+00
0.000000000000000e+00 0.000000000000000e+00 0.000000000000000e+00

0.000000000000000e+00 0.000000000000000e+00 0.000000000000000e+00
0.000000000000000e+00 0.000000000000000e+00 0.000000000000000e+00
0.000000000000000e+00 0.000000000000000e+00 0.000000000000000e+00

0.000000000000000e+00 0.000000000000000e+00 0.000000000000000e+00
0.000000000000000e+00 0.000000000000000e+00 0.000000000000000e+00
0.000000000000000e+00 0.000000000000000e+00 0.000000000000000e+00

0.000000000000000e+00 0.000000000000000e+00 0.000000000000000e+00
0.000000000000000e+00 0.000000000000000e+00 0.000000000000000e+00
0.000000000000000e+00 0.000000000000000e+00 0.000000000000000e+00

0.000000000000000e+00 0.000000000000000e+00 0.000000000000000e+00
0.000000000000000e+00 0.000000000000000e+00 0.000000000000000e+00
0.000000000000000e+00 0.000000000000000e+00 0.000000000000000e+00

0.000000000000000e+00 0.000000000000000e+00 0.000000000000000e+00
0.000000000000000e+00 0.000000000000000e+00 0.000000000000000e+00
0.000000000000000e+00 0.000000000000000e+00 0.000000000000000e+00

0.000000000000000e+00 0.000000000000000e+00 0.000000000000000e+00
0.000000000000000e+00 0.000000000000000e+00 0.000000000000000e+00
0.000000000000000e+00 0.000000000000000e+00 0.000000000000000e+00

0.000000000000000e+00 0.000000000000000e+00 0.000000000000000e+00
0.000000000000000e+00 0.000000000000000e+00 0.000000000000000e+00
0.000000000000000e+00 0.000000000000000e+00 0.000000000000000e+00

0.000000000000000e+00 0.000000000000000e+00 0.000000000000000e+00
0.000000000000000e+00 0.000000000000000e+00 0.000000000000000e+00
0.000000000000000e+00 0.000000000000000e+00 0.000000000000000e+00

0.000000000000000e+00 0.000000000000000e+00 0.000000000000000e+00
0.000000000000000e+00 0.000000000000000e+00 0.000000000000000e+00
0.000000000000000e+00 0.000000000000000e+00 0.000000000000000e+00

0.000000000000000e+00 0.000000000000000e+00 0.000000000000000e+00
0.000000000000000e+00 0.000000000000000e+00 0.000000000000000e+00
0.000000000000000e+00 0.000000000000000e+00 0.000000000000000e+00

0.000000000000000e+00 0.000000000000000e+00 0.000000000000000e+00
0.000000000000000e+00 0.000000000000000e+00 0.000000000000000e+00
0.000000000000000e+00 0.000000000000000e+00 0.000000000000000e+00

0.000000000000000e+00 0.000000000000000e+00 0.000000000000000e+00
0.000000000000000e+00 0.000000000000000e+00 0.000000000000000e+00
0.000000000000000e+00 0.000000000000000e+00 0.000000000000000e+00

0.000000000000000e+00 0.000000000000000e+00 0.000000000000000e+00
0.000000000000000e+00 0.000000000000000e+00 0.000000000000000e+00
0.000000000000000e+00 0.000000000000000e+00 0.000000000000000e+00

0.000000000000000e+00 0.000000000000000e+00 0.000000000000000e+00
0.000000000000000e+00 0.000000000000000e+00 0.000000000000000e+00
0.000000000000000e+00 0.000000000000000e+00 0.000000000000000e+00

0.000000000000000e+00 0.000000000000000e+00 0.000000000000000e+00
0.000000000000000e+00 0.000000000000000e+00 0.000000000000000e+00
0.000000000000000e+00 0.000000000000000e+00 0.000000000000000e+00

0.000000000000000e+00 0.000000000000000e+00 0.000000000000000e+00
0.000000000000000e+00 0.000000000000000e+00 0.000000000000000e+00
0.000000000000000e+00 0.000000000000000e+00 0.000000000000000e+00

0.000000000000000e+00 0.000000000000000e+00 0.000000000000000e+00
0.000000000000000e+00 0.000000000000000e+00 0.000000000000000e+00
0.000000000000000e+00 0.000000000000000e+00 0.000000000000000e+00

0.000000000000000e+00 0.000000000000000e+00 0.000000000000000e+00
0.000000000000000e+00 0.000000000000000e+00 0.000000000000000e+00
0.000000000000000e+00 0.000000000000000e+00 0.000000000000000e+00

0.000000000000000e+00 0.000000000000000e+00 0.000000000000000e+00
0.000000000000000e+00 0.000000000000000e+00 0.000000000000000e+00
0.000000000000000e+00 0.000000000000000e+00 0.000000000000000e+00

0.000000000000000e+00 0.000000000000000e+00 0.000000000000000e+00
0.000000000000000e+00 0.000000000000000e+00 0.000000000000000e+00
0.000000000000000e+00 0.000000000000000e+00 0.000000000000000e+00

0.000000000000000e+00 0.000000000000000e+00 0.000000000000000e+00
0.000000000000000e+00 0.000000000000000e+00 0.000000000000000e+00
0.000000000000000e+00 0.000000000000000e+00 0.000000000000000e+00

0.000000000000000e+00 0.000000000000000e+00 0.000000000000000e+00
0.000000000000000e+00 0.000000000000000e+00 0.000000000000000e+00
0.000000000000000e+00 0.000000000000000e+00 0.000000000000000e+00

0.000000000000000e+00 0.000000000000000e+00 0.000000000000000e+00
0.000000000000000e+00 0.000000000000000e+00 0.000000000000000e+00
0.000000000000000e+00 0.000000000000000e+00 0.000000000000000e+00

0.000000000000000e+00 0.000000000000000e+00 0.000000000000000e+00
0.000000000000000e+00 0.000000000000000e+00 0.000000000000000e+00
0.000000000000000e+00 0.000000000000000e+00 0.000000000000000e+00

0.000000000000000e+00 0.000000000000000e+00 0.000000000000000e+00
0.000000000000000e+00 0.000000000000000e+00 0.000000000000000e+00
0.000000000000000e+00 0.000000000000000e+00 0.000000000000000e+00

0.000000000000000e+00 0.000000000000000e+00 0.000000000000000e+00
0.000000000000000e+00 0.000000000000000e+00 0.000000000000000e+00
0.000000000000000e+00 0.000000000000000e+00 0.000000000000000e+00

0.000000000000000e+00 0.000000000000000e+00 0.000000000000000e+00
0.000000000000000e+00 0.000000000000000e+00 0.000000000000000e+00
0.000000000000000e+00 0.000000000000000e+00 0.000000000000000e+00

0.000000000000000e+00 0.000000000000000e+00 0.000000000000000e+00
0.000000000000000e+00 0.000000000000000e+00 0.000000000000000e+00
0.000000000000000e+00 0.000000000000000e+00 0.000000000000000e+00

0.000000000000000e+00 0.000000000000000e+00 0.000000000000000e+00
0.000000000000000e+00 0.000000000000000e+00 0.000000000000000e+00
0.000000000000000e+00 0.000000000000000e+00 0.000000000000000e+00

0.000000000000000e+00 0.000000000000000e+00 0.000000000000000e+00
0.000000000000000e+00 0.000000000000000e+00 0.000000000000000e+00
0.000000000000000e+00 0.000000000000000e+00 0.000000000000000e+00

0.000000000000000e+00 0.000000000000000e+00 0.000000000000000e+00
0.000000000000000e+00 0.000000000000000e+00 0.000000000000000e+00
0.000000000000000e+00 0.000000000000000e+00 0.000000000000000e+00

0.000000000000000e+00 0.000000000000000e+00 0.000000000000000e+00
0.000000000000000e+00 0.000000000000000e+00 0.000000000000000e+00
0.000000000000000e+00 0.000000000000000e+00 0.000000000000000e+00

0.000000000000000e+00 0.000000000000000e+00 0.000000000000000e+00
0.000000000000000e+00 0.000000000000000e+00 0.000000000000000e+00
0.000000000000000e+00 0.000000000000000e+00 0.000000000000000e+00

0.000000000000000e+00 0.000000000000000e+00 0.000000000000000e+00
0.000000000000000e+00 0.000000000000000e+00 0.000000000000000e+00
0.000000000000000e+00 0.000000000000000e+00 0.000000000000000e+00

0.000000000000000e+00 0.000000000000000e+00 0.000000000000000e+00
0.000000000000000e+00 0.000000000000000e+00 0.000000000000000e+00
0.000000000000000e+00 0.000000000000000e+00 0.000000000000000e+00

0.000000000000000e+00 0.000000000000000e+00 0.000000000000000e+00
0.000000000000000e+00 0.000000000000000e+00 0.000000000000000e+00
0.000000000000000e+00 0.000000000000000e+00 0.000000000000000e+00

0.000000000000000e+00 0.000000000000000e+00 0.000000000000000e+00
0.000000000000000e+00 0.000000000000000e+00 0.000000000000000e+00
0.000000000000000e+00 0.000000000000000e+00 0.000000000000000e+00

0.000000000000000e+00 0.000000000000000e+00 0.000000000000000e+00
0.000000000000000e+00 0.000000000000000e+00 0.000000000000000e+00
0.000000000000000e+00 0.000000000000000e+00 0.000000000000000e+00

0.000000000000000e+00 0.000000000000000e+00 0.000000000000000e+00
0.000000000000000e+00 0.000000000000000e+00 0.000000000000000e+00
0.000000000000000e+00 0.000000000000000e+00 0.000000000000000e+00

0.000000000000000e+00 0.000000000000000e+00 0.000000000000000e+00
0.000000000000000e+00 0.000000000000000e+00 0.000000000000000e+00
0.000000000000000e+00 0.000000000000000e+00 0.000000000000000e+00

0.000000000000000e+00 0.000000000000000e+00 0.000000000000000e+00
0.000000000000000e+00 0.000000000000000e+00 0.000000000000000e+00
0.000000000000000e+00 0.000000000000000e+00 0.000000000000000e+00

0.000000000000000e+00 0.000000000000000e+00 0.000000000000000e+00
0.000000000000000e+00 0.000000000000000e+00 0.000000000000000e+00
0.000000000000000e+00 0.000000000000000e+00 0.000000000000000e+00

0.000000000000000e+00 0.000000000000000e+00 0.000000000000000e+00
0.000000000000000e+00 0.000000000000000e+00 0.000000000000000e+00
0.000000000000000e+00 0.000000000000000e+00 0.000000000000000e+00

0.000000000000000e+00 0.000000000000000e+00 0.000000000000000e+00
0.000000000000000e+00 0.000000000000000e+00 0.000000000000000e+00
0.000000000000000e+00 0.000000000000000e+00 0.000000000000000e+00

0.000000000000000e+00 0.000000000000000e+00 0.000000000000000e+00
0.000000000000000e+00 0.000000000000000e+00 0.000000000000000e+00
0.000000000000000e+00 0.000000000000000e+00 0.000000000000000e+00

0.000000000000000e+00 0.000000000000000e+00 0.000000000000000e+00
0.000000000000000e+00 0.000000000000000e+00 0.000000000000000e+00
0.000000000000000e+00 0.000000000000000e+00 0.000000000000000e+00

0.000000000000000e+00 0.000000000000000e+00 0.000000000000000e+00
0.000000000000000e+00 0.000000000000000e+00 0.000000000000000e+00
0.000000000000000e+00 0.000000000000000e+00 0.000000000000000e+00

0.000000000000000e+00 0.000000000000000e+00 0.000000000000000e+00
0.000000000000000e+00 0.000000000000000e+00 0.000000000000000e+00
0.000000000000000e+00 0.000000000000000e+00 0.000000000000000e+00

0.000000000000000e+00 0.000000000000000e+00 0.000000000000000e+00
0.000000000000000e+00 0.000000000000000e+00 0.000000000000000e+00
0.000000000000000e+00 0.000000000000000e+00 0.000000000000000e+00

0.000000000000000e+00 0.000000000000000e+00 0.000000000000000e+00
0.000000000000000e+00 0.000000000000000e+00 0.000000000000000e+00
0.000000000000000e+00 0.000000000000000e+00 0.000000000000000e+00

0.000000000000000e+00 0.000000000000000e+00 0.000000000000000e+00
0.000000000000000e+00 0.000000000000000e+00 0.000000000000000e+00
0.000000000000000e+00 0.000000000000000e+00 0.000000000000000e+00

0.000000000000000e+00 0.000000000000000e+00 0.000000000000000e+00
0.000000000000000e+00 0.000000000000000e+00 0.000000000000000e+00
0.000000000000000e+00 0.000000000000000e+00 0.000000000000000e+00

0.000000000000000e+00 0.000000000000000e+00 0.000000000000000e+00
0.000000000000000e+00 0.000000000000000e+00 0.000000000000000e+00
0.000000000000000e+00 0.000000000000000e+00 0.000000000000000e+00

0.000000000000000e+00 0.000000000000000e+00 0.000000000000000e+00
0.000000000000000e+00 0.000000000000000e+00 0.000000000000000e+00
0.000000000000000e+00 0.000000000000000e+00 0.000000000000000e+00

0.000000000000000e+00 0.000000000000000e+00 0.000000000000000e+00
0.000000000000000e+00 0.000000000000000e+00 0.000000000000000e+00
0.000000000000000e+00 0.000000000000000e+00 0.000000000000000e+00

0.000000000000000e+00 0.000000000000000e+00 0.000000000000000e+00
0.000000000000000e+00 0.000000000000000e+00 0.000000000000000e+00
0.000000000000000e+00 0.000000000000000e+00 0.000000000000000e+00

0.000000000000000e+00 0.000000000000000e+00 0.000000000000000e+00
0.000000000000000e+00 0.000000000000000e+00 0.000000000000000e+00
0.000000000000000e+00 0.000000000000000e+00 0.000000000000000e+00

0.000000000000000e+00 0.000000000000000e+00 0.000000000000000e+00
0.000000000000000e+00 0.000000000000000e+00 0.000000000000000e+00
0.000000000000000e+00 0.000000000000000e+00 0.000000000000000e+00

0.000000000000000e+00 0.000000000000000e+00 0.000000000000000e+00
0.000000000000000e+00 0.000000000000000e+00 0.000000000000000e+00
0.000000000000000e+00 0.000000000000000e+00 0.000000000000000e+00

0.000000000000000e+00 0.000000000000000e+00 0.000000000000000e+00
0.000000000000000e+00 0.000000000000000e+00 0.000000000000000e+00
0.000000000000000e+00 0.000000000000000e+00 0.000000000000000e+00

0.000000000000000e+00 0.000000000000000e+00 0.000000000000000e+00
0.000000000000000e+00 0.000000000000000e+00 0.000000000000000e+00
0.000000000000000e+00 0.000000000000000e+00 0.000000000000000e+00

0.000000000000000e+00 0.000000000000000e+00 0.000000000000000e+00
0.000000000000000e+00 0.000000000000000e+00 0.000000000000000e+00
0.000000000000000e+00 0.000000000000000e+00 0.000000000000000e+00

0.000000000000000e+00 0.000000000000000e+00 0.000000000000000e+00
0.000000000000000e+00 0.000000000000000e+00 0.000000000000000e+00
0.000000000000000e+00 0.000000000000000e+00 0.000000000000000e+00

0.000000000000000e+00 0.000000000000000e+00 0.000000000000000e+00
0.000000000000000e+00 0.000000000000000e+00 0.000000000000000e+00
0.000000000000000e+00 0.000000000000000e+00 0.000000000000000e+00

0.000000000000000e+00 0.000000000000000e+00 0.000000000000000e+00
0.000000000000000e+00 0.000000000000000e+00 0.000000000000000e+00
0.000000000000000e+00 0.000000000000000e+00 0.000000000000000e+00

0.000000000000000e+00 0.000000000000000e+00 0.000000000000000e+00
0.000000000000000e+00 0.000000000000000e+00 0.000000000000000e+00
0.000000000000000e+00 0.000000000000000e+00 0.000000000000000e+00

0.000000000000000e+00 0.000000000000000e+00 0.000000000000000e+00
0.000000000000000e+00 0.000000000000000e+00 0.000000000000000e+00
0.000000000000000e+00 0.000000000000000e+00 0.000000000000000e+00

0.000000000000000e+00 0.000000000000000e+00 0.000000000000000e+00
0.000000000000000e+00 0.000000000000000e+00 0.000000000000000e+00
0.000000000000000e+00 0.000000000000000e+00 0.000000000000000e+00

0.000000000000000e+00 0.000000000000000e+00 0.000000000000000e+00
0.000000000000000e+00 0.000000000000000e+00 0.000000000000000e+00
0.000000000000000e+00 0.000000000000000e+00 0.000000000000000e+00

0.000000000000000e+00 0.000000000000000e+00 0.000000000000000e+00
0.000000000000000e+00 0.000000000000000e+00 0.000000000000000e+00
0.000000000000000e+00 0.000000000000000e+00 0.000000000000000e+00

0.000000000000000e+00 0.000000000000000e+00 0.000000000000000e+00
0.000000000000000e+00 0.000000000000000e+00 0.000000000000000e+00
0.000000000000000e+00 0.000000000000000e+00 0.000000000000000e+00

0.000000000000000e+00 0.000000000000000e+00 0.000000000000000e+00
0.000000000000000e+00 0.000000000000000e+00 0.000000000000000e+00
0.000000000000000e+00 0.000000000000000e+00 0.000000000000000e+00

0.000000000000000e+00 0.000000000000000e+00 0.000000000000000e+00
0.000000000000000e+00 0.000000000000000e+00 0.000000000000000e+00
0.000000000000000e+00 0.000000000000000e+00 0.000000000000000e+00

0.000000000000000e+00 0.000000000000000e+00 0.000000000000000e+00
0.000000000000000e+00 0.000000000000000e+00 0.000000000000000e+00
0.000000000000000e+00 0.000000000000000e+00 0.000000000000000e+00

0.000000000000000e+00 0.000000000000000e+00 0.000000000000000e+00
0.000000000000000e+00 0.000000000000000e+00 0.000000000000000e+00
0.000000000000000e+00 0.000000000000000e+00 0.000000000000000e+00

0.000000000000000e+00 0.000000000000000e+00 0.000000000000000e+00
0.000000000000000e+00 0.000000000000000e+00 0.000000000000000e+00
0.000000000000000e+00 0.000000000000000e+00 0.000000000000000e+00

0.000000000000000e+00 0.000000000000000e+00 0.000000000000000e+00
0.000000000000000e+00 0.000000000000000e+00 0.000000000000000e+00
0.000000000000000e+00 0.000000000000000e+00 0.000000000000000e+00

0.000000000000000e+00 0.000000000000000e+00 0.000000000000000e+00
0.000000000000000e+00 0.000000000000000e+00 0.000000000000000e+00
0.000000000000000e+00 0.000000000000000e+00 0.000000000000000e+00

0.000000000000000e+00 0.000000000000000e+00 0.000000000000000e+00
0.000000000000000e+00 0.000000000000000e+00 0.000000000000000e+00
0.000000000000000e+00 0.000000000000000e+00 0.000000000000000e+00

0.000000000000000e+00 0.000000000000000e+00 0.000000000000000e+00
0.000000000000000e+00 0.000000000000000e+00 0.000000000000000e+00
0.000000000000000e+00 0.000000000000000e+00 0.000000000000000e+00

0.000000000000000e+00 0.000000000000000e+00 0.000000000000000e+00
0.000000000000000e+00 0.000000000000000e+00 0.000000000000000e+00
0.000000000000000e+00 0.000000000000000e+00 0.000000000000000e+00

0.000000000000000e+00 0.000000000000000e+00 0.000000000000000e+00
0.000000000000000e+00 0.000000000000000e+00 0.000000000000000e+00
0.000000000000000e+00 0.000000000000000e+00 0.000000000000000e+00

0.000000000000000e+00 0.000000000000000e+00 0.000000000000000e+00
0.000000000000000e+00 0.000000000000000e+00 0.000000000000000e+00
0.000000000000000e+00 0.000000000000000e+00 0.000000000000000e+00

0.000000000000000e+00 0.000000000000000e+00 0.000000000000000e+00
0.000000000000000e+00 0.000000000000000e+00 0.000000000000000e+00
0.000000000000000e+00 0.000000000000000e+00 0.000000000000000e+00

0.000000000000000e+00 0.000000000000000e+00 0.000000000000000e+00
0.000000000000000e+00 0.000000000000000e+00 0.000000000000000e+00
0.000000000000000e+00 0.000000000000000e+00 0.000000000000000e+00

0.000000000000000e+00 0.000000000000000e+00 0.000000000000000e+00
0.000000000000000e+00 0.000000000000000e+00 0.000000000000000e+00
0.000000000000000e+00 0.000000000000000e+00 0.000000000000000e+00

0.000000000000000e+00 0.000000000000000e+00 0.000000000000000e+00
0.000000000000000e+00 0.000000000000000e+00 0.000000000000000e+00
0.000000000000000e+00 0.000000000000000e+00 0.000000000000000e+00

0.000000000000000e+00 0.000000000000000e+00 0.000000000000000e+00
0.000000000000000e+00 0.000000000000000e+00 0.000000000000000e+00
0.000000000000000e+00 0.000000000000000e+00 0.000000000000000e+00

0.000000000000000e+00 0.000000000000000e+00 0.000000000000000e+00
0.000000000000000e+00 0.000000000000000e+00 0.000000000000000e+00
0.000000000000000e+00 0.000000000000000e+00 0.000000000000000e+00

0.000000000000000e+00 0.000000000000000e+00 0.000000000000000e+00
0.000000000000000e+00 0.000000000000000e+00 0.000000000000000e+00
0.000000000000000e+00 0.000000000000000e+00 0.000000000000000e+00

0.000000000000000e+00 0.000000000000000e+00 0.000000000000000e+00
0.000000000000000e+00 0.000000000000000e+00 0.000000000000000e+00
0.000000000000000e+00 0.000000000000000e+00 0.000000000000000e+00

0.000000000000000e+00 0.000000000000000e+00 0.000000000000000e+00
0.000000000000000e+00 0.000000000000000e+00 0.000000000000000e+00
0.000000000000000e+00 0.000000000000000e+00 0.000000000000000e+00

0.000000000000000e+00 0.000000000000000e+00 0.000000000000000e+00
0.000000000000000e+00 0.000000000000000e+00 0.000000000000000e+00
0.000000000000000e+00 0.000000000000000e+00 0.000000000000000e+00

0.000000000000000e+00 0.000000000000000e+00 0.000000000000000e+00
0.000000000000000e+00 0.000000000000000e+00 0.000000000000000e+00
0.000000000000000e+00 0.000000000000000e+00 0.000000000000000e+00

0.000000000000000e+00 0.000000000000000e+00 0.000000000000000e+00
0.000000000000000e+00 0.000000000000000e+00 0.000000000000000e+00
0.000000000000000e+00 0.000000000000000e+00 0.000000000000000e+00

0.000000000000000e+00 0.000000000000000e+00 0.000000000000000e+00
0.000000000000000e+00 0.000000000000000e+00 0.000000000000000e+00
0.000000000000000e+00 0.000000000000000e+00 0.000000000000000e+00

0.000000000000000e+00 0.000000000000000e+00 0.000000000000000e+00
0.000000000000000e+00 0.000000000000000e+00 0.000000000000000e+00
0.000000000000000e+00 0.000000000000000e+00 0.000000000000000e+00

0.000000000000000e+00 0.000000000000000e+00 0.000000000000000e+00
0.000000000000000e+00 0.000000000000000e+00 0.000000000000000e+00
0.000000000000000e+00 0.000000000000000e+00 0.000000000000000e+00

0.000000000000000e+00 0.000000000000000e+00 0.000000000000000e+00
0.000000000000000e+00 0.000000000000000e+00 0.000000000000000e+00
0.000000000000000e+00 0.000000000000000e+00 0.000000000000000e+00

0.000000000000000e+00 0.000000000000000e+00 0.000000000000000e+00
0.000000000000000e+00 0.000000000000000e+00 0.000000000000000e+00
0.000000000000000e+00 0.000000000000000e+00 0.000000000000000e+00

0.000000000000000e+00 0.000000000000000e+00 0.000000000000000e+00
0.000000000000000e+00 0.000000000000000e+00 0.000000000000000e+00
0.000000000000000e+00 0.000000000000000e+00 0.000000000000000e+00

0.000000000000000e+00 0.000000000000000e+00 0.000000000000000e+00
0.000000000000000e+00 0.000000000000000e+00 0.000000000000000e+00
0.000000000000000e+00 0.000000000000000e+00 0.000000000000000e+00

0.000000000000000e+00 0.000000000000000e+00 0.000000000000000e+00
0.000000000000000e+00 0.000000000000000e+00 0.000000000000000e+00
0.000000000000000e+00 0.000000000000000e+00 0.000000000000000e+00

0.000000000000000e+00 0.000000000000000e+00 0.000000000000000e+00
0.000000000000000e+00 0.000000000000000e+00 0.000000000000000e+00
0.000000000000000e+00 0.000000000000000e+00 0.000000000000000e+00

0.000000000000000e+00 0.000000000000000e+00 0.000000000000000e+00
0.000000000000000e+00 0.000000000000000e+00 0.000000000000000e+00
0.000000000000000e+00 0.000000000000000e+00 0.000000000000000e+00

0.000000000000000e+00 0.000000000000000e+00 0.000000000000000e+00
0.000000000000000e+00 0.000000000000000e+00 0.000000000000000e+00
0.000000000000000e+00 0.000000000000000e+00 0.000000000000000e+00

0.000000000000000e+00 0.000000000000000e+00 0.000000000000000e+00
0.000000000000000e+00 0.000000000000000e+00 0.000000000000000e+00
0.000000000000000e+00 0.000000000000000e+00 0.000000000000000e+00

0.000000000000000e+00 0.000000000000000e+00 0.000000000000000e+00
0.000000000000000e+00 0.000000000000000e+00 0.000000000000000e+00
0.000000000000000e+00 0.000000000000000e+00 0.000000000000000e+00

0.000000000000000e+00 0.000000000000000e+00 0.000000000000000e+00
0.000000000000000e+00 0.000000000000000e+00 0.000000000000000e+00
0.000000000000000e+00 0.000000000000000e+00 0.000000000000000e+00

0.000000000000000e+00 0.000000000000000e+00 0.000000000000000e+00
0.000000000000000e+00 0.000000000000000e+00 0.000000000000000e+00
0.000000000000000e+00 0.000000000000000e+00 0.000000000000000e+00

0.000000000000000e+00 0.000000000000000e+00 0.000000000000000e+00
0.000000000000000e+00 0.000000000000000e+00 0.000000000000000e+00
0.000000000000000e+00 0.000000000000000e+00 0.000000000000000e+00

0.000000000000000e+00 0.000000000000000e+00 0.000000000000000e+00
0.000000000000000e+00 0.000000000000000e+00 0.000000000000000e+00
0.000000000000000e+00 0.000000000000000e+00 0.000000000000000e+00

0.000000000000000e+00 0.000000000000000e+00 0.000000000000000e+00
0.000000000000000e+00 0.000000000000000e+00 0.000000000000000e+00
0.000000000000000e+00 0.000000000000000e+00 0.000000000000000e+00

0.000000000000000e+00 0.000000000000000e+00 0.000000000000000e+00
0.000000000000000e+00 0.000000000000000e+00 0.000000000000000e+00
0.000000000000000e+00 0.000000000000000e+00 0.000000000000000e+00

0.000000000000000e+00 0.000000000000000e+00 0.000000000000000e+00
0.000000000000000e+00 0.000000000000000e+00 0.000000000000000e+00
0.000000000000000e+00 0.000000000000000e+00 0.000000000000000e+00

0.000000000000000e+00 0.000000000000000e+00 0.000000000000000e+00
0.000000000000000e+00 0.000000000000000e+00 0.000000000000000e+00
0.000000000000000e+00 0.000000000000000e+00 0.000000000000000e+00

0.000000000000000e+00 0.000000000000000e+00 0.000000000000000e+00
0.000000000000000e+00 0.000000000000000e+00 0.000000000000000e+00
0.000000000000000e+00 0.000000000000000e+00 0.000000000000000e+00

0.000000000000000e+00 0.000000000000000e+00 0.000000000000000e+00
0.000000000000000e+00 0.000000000000000e+00 0.000000000000000e+00
0.000000000000000e+00 0.000000000000000e+00 0.000000000000000e+00

0.000000000000000e+00 0.000000000000000e+00 0.000000000000000e+00
0.000000000000000e+00 0.000000000000000e+00 0.000000000000000e+00
0.000000000000000e+00 0.000000000000000e+00 0.000000000000000e+00

0.000000000000000e+00 0.000000000000000e+00 0.000000000000000e+00
0.000000000000000e+00 0.000000000000000e+00 0.000000000000000e+00
0.000000000000000e+00 0.000000000000000e+00 0.000000000000000e+00

0.000000000000000e+00 0.000000000000000e+00 0.000000000000000e+00
0.000000000000000e+00 0.000000000000000e+00 0.000000000000000e+00
0.000000000000000e+00 0.000000000000000e+00 0.000000000000000e+00

0.000000000000000e+00 0.000000000000000e+00 0.000000000000000e+00
0.000000000000000e+00 0.000000000000000e+00 0.000000000000000e+00
0.000000000000000e+00 0.000000000000000e+00 0.000000000000000e+00

0.000000000000000e+00 0.000000000000000e+00 0.000000000000000e+00
0.000000000000000e+00 0.000000000000000e+00 0.000000000000000e+00
0.000000000000000e+00 0.000000000000000e+00 0.000000000000000e+00

0.000000000000000e+00 0.000000000000000e+00 0.000000000000000e+00
0.000000000000000e+00 0.000000000000000e+00 0.000000000000000e+00
0.000000000000000e+00 0.000000000000000e+00 0.000000000000000e+00

0.000000000000000e+00 0.000000000000000e+00 0.000000000000000e+00
0.000000000000000e+00 0.000000000000000e+00 0.000000000000000e+00
0.000000000000000e+00 0.000000000000000e+00 0.000000000000000e+00

0.000000000000000e+00 0.000000000000000e+00 0.000000000000000e+00
0.000000000000000e+00 0.000000000000000e+00 0.000000000000000e+00
0.000000000000000e+00 0.000000000000000e+00 0.000000000000000e+00

0.000000000000000e+00 0.000000000000000e+00 0.000000000000000e+00
0.000000000000000e+00 0.000000000000000e+00 0.000000000000000e+00
0.000000000000000e+00 0.000000000000000e+00 0.000000000000000e+00

0.000000000000000e+00 0.000000000000000e+00 0.000000000000000e+00
0.000000000000000e+00 0.000000000000000e+00 0.000000000000000e+00
0.000000000000000e+00 0.000000000000000e+00 0.000000000000000e+00

0.000000000000000e+00 0.000000000000000e+00 0.000000000000000e+00
0.000000000000000e+00 0.000000000000000e+00 0.000000000000000e+00
0.000000000000000e+00 0.000000000000000e+00 0.000000000000000e+00

0.000000000000000e+00 0.000000000000000e+00 0.000000000000000e+00
0.000000000000000e+00 0.000000000000000e+00 0.000000000000000e+00
0.000000000000000e+00 0.000000000000000e+00 0.000000000000000e+00

0.000000000000000e+00 0.000000000000000e+00 0.000000000000000e+00
0.000000000000000e+00 0.000000000000000e+00 0.000000000000000e+00
0.000000000000000e+00 0.000000000000000e+00 0.000000000000000e+00

0.000000000000000e+00 0.000000000000000e+00 0.000000000000000e+00
0.000000000000000e+00 0.000000000000000e+00 0.000000000000000e+00
0.000000000000000e+00 0.000000000000000e+00 0.000000000000000e+00

0.000000000000000e+00 0.000000000000000e+00 0.000000000000000e+00
0.000000000000000e+00 0.000000000000000e+00 0.000000000000000e+00
0.000000000000000e+00 0.000000000000000e+00 0.000000000000000e+00

0.000000000000000e+00 0.000000000000000e+00 0.000000000000000e+00
0.000000000000000e+00 0.000000000000000e+00 0.000000000000000e+00
0.000000000000000e+00 0.000000000000000e+00 0.000000000000000e+00

0.000000000000000e+00 0.000000000000000e+00 0.000000000000000e+00
0.000000000000000e+00 0.000000000000000e+00 0.000000000000000e+00
0.000000000000000e+00 0.000000000000000e+00 0.000000000000000e+00

0.000000000000000e+00 0.000000000000000e+00 0.000000000000000e+00
0.000000000000000e+00 0.000000000000000e+00 0.000000000000000e+00
0.000000000000000e+00 0.000000000000000e+00 0.000000000000000e+00

0.000000000000000e+00 0.000000000000000e+00 0.000000000000000e+00
0.000000000000000e+00 0.000000000000000e+00 0.000000000000000e+00
0.000000000000000e+00 0.000000000000000e+00 0.000000000000000e+00

0.000000000000000e+00 0.000000000000000e+00 0.000000000000000e+00
0.000000000000000e+00 0.000000000000000e+00 0.000000000000000e+00
0.000000000000000e+00 0.000000000000000e+00 0.000000000000000e+00

0.000000000000000e+00 0.000000000000000e+00 0.000000000000000e+00
0.000000000000000e+00 0.000000000000000e+00 0.000000000000000e+00
0.000000000000000e+00 0.000000000000000e+00 0.000000000000000e+00

0.000000000000000e+00 0.000000000000000e+00 0.000000000000000e+00
0.000000000000000e+00 0.000000000000000e+00 0.000000000000000e+00
0.000000000000000e+00 0.000000000000000e+00 0.000000000000000e+00

0.000000000000000e+00 0.000000000000000e+00 0.000000000000000e+00
0.000000000000000e+00 0.000000000000000e+00 0.000000000000000e+00
0.000000000000000e+00 0.000000000000000e+00 0.000000000000000e+00

0.000000000000000e+00 0.000000000000000e+00 0.000000000000000e+00
0.000000000000000e+00 0.000000000000000e+00 0.000000000000000e+00
0.000000000000000e+00 0.000000000000000e+00 0.000000000000000e+00

0.000000000000000e+00 0.000000000000000e+00 0.000000000000000e+00
0.000000000000000e+00 0.000000000000000e+00 0.000000000000000e+00
0.000000000000000e+00 0.000000000000000e+00 0.000000000000000e+00

0.000000000000000e+00 0.000000000000000e+00 0.000000000000000e+00
0.000000000000000e+00 0.000000000000000e+00 0.000000000000000e+00
0.000000000000000e+00 0.000000000000000e+00 0.000000000000000e+00

0.000000000000000e+00 0.000000000000000e+00 0.000000000000000e+00
0.000000000000000e+00 0.000000000000000e+00 0.000000000000000e+00
0.000000000000000e+00 0.000000000000000e+00 0.000000000000000e+00

0.000000000000000e+00 0.000000000000000e+00 0.000000000000000e+00
0.000000000000000e+00 0.000000000000000e+00 0.000000000000000e+00
0.000000000000000e+00 0.000000000000000e+00 0.000000000000000e+00

0.000000000000000e+00 0.000000000000000e+00 0.000000000000000e+00
0.000000000000000e+00 0.000000000000000e+00 0.000000000000000e+00
0.000000000000000e+00 0.000000000000000e+00 0.000000000000000e+00

0.000000000000000e+00 0.000000000000000e+00 0.000000000000000e+00
0.000000000000000e+00 0.000000000000000e+00 0.000000000000000e+00
0.000000000000000e+00 0.000000000000000e+00 0.000000000000000e+00

0.000000000000000e+00 0.000000000000000e+00 0.000000000000000e+00
0.000000000000000e+00 0.000000000000000e+00 0.000000000000000e+00
0.000000000000000e+00 0.000000000000000e+00 0.000000000000000e+00

0.000000000000000e+00 0.000000000000000e+00 0.000000000000000e+00
0.000000000000000e+00 0.000000000000000e+00 0.000000000000000e+00
0.000000000000000e+00 0.000000000000000e+00 0.000000000000000e+00

0.000000000000000e+00 0.000000000000000e+00 0.000000000000000e+00
0.000000000000000e+00 0.000000000000000e+00 0.000000000000000e+00
0.000000000000000e+00 0.000000000000000e+00 0.000000000000000e+00

0.000000000000000e+00 0.000000000000000e+00 0.000000000000000e+00
0.000000000000000e+00 0.000000000000000e+00 0.000000000000000e+00
0.000000000000000e+00 0.000000000000000e+00 0.000000000000000e+00

0.000000000000000e+00 0.000000000000000e+00 0.000000000000000e+00
0.000000000000000e+00 0.000000000000000e+00 0.000000000000000e+00
0.000000000000000e+00 0.000000000000000e+00 0.000000000000000e+00

0.000000000000000e+00 0.000000000000000e+00 0.000000000000000e+00
0.000000000000000e+00 0.000000000000000e+00 0.000000000000000e+00
0.000000000000000e+00 0.000000000000000e+00 0.000000000000000e+00

0.000000000000000e+00 0.000000000000000e+00 0.000000000000000e+00
0.000000000000000e+00 0.000000000000000e+00 0.000000000000000e+00
0.000000000000000e+00 0.000000000000000e+00 0.000000000000000e+00

0.000000000000000e+00 0.000000000000000e+00 0.000000000000000e+00
0.000000000000000e+00 0.000000000000000e+00 0.000000000000000e+00
0.000000000000000e+00 0.000000000000000e+00 0.000000000000000e+00

0.000000000000000e+00 0.000000000000000e+00 0.000000000000000e+00
0.000000000000000e+00 0.000000000000000e+00 0.000000000000000e+00
0.000000000000000e+00 0.000000000000000e+00 0.000000000000000e+00

0.000000000000000e+00 0.000000000000000e+00 0.000000000000000e+00
0.000000000000000e+00 0.000000000000000e+00 0.000000000000000e+00
0.000000000000000e+00 0.000000000000000e+00 0.000000000000000e+00

0.000000000000000e+00 0.000000000000000e+00 0.000000000000000e+00
0.000000000000000e+00 0.000000000000000e+00 0.000000000000000e+00
0.000000000000000e+00 0.000000000000000e+00 0.000000000000000e+00

0.000000000000000e+00 0.000000000000000e+00 0.000000000000000e+00
0.000000000000000e+00 0.000000000000000e+00 0.000000000000000e+00
0.000000000000000e+00 0.000000000000000e+00 0.000000000000000e+00

0.000000000000000e+00 0.000000000000000e+00 0.000000000000000e+00
0.000000000000000e+00 0.000000000000000e+00 0.000000000000000e+00
0.000000000000000e+00 0.000000000000000e+00 0.000000000000000e+00

0.000000000000000e+00 0.000000000000000e+00 0.000000000000000e+00
0.000000000000000e+00 0.000000000000000e+00 0.000000000000000e+00
0.000000000000000e+00 0.000000000000000e+00 0.000000000000000e+00

0.000000000000000e+00 0.000000000000000e+00 0.000000000000000e+00
0.000000000000000e+00 0.000000000000000e+00 0.000000000000000e+00
0.000000000000000e+00 0.000000000000000e+00 0.000000000000000e+00

0.000000000000000e+00 0.000000000000000e+00 0.000000000000000e+00
0.000000000000000e+00 0.000000000000000e+00 0.000000000000000e+00
0.000000000000000e+00 0.000000000000000e+00 0.000000000000000e+00

0.000000000000000e+00 0.000000000000000e+00 0.000000000000000e+00
0.000000000000000e+00 0.000000000000000e+00 0.000000000000000e+00
0.000000000000000e+00 0.000000000000000e+00 0.000000000000000e+00

0.000000000000000e+00 0.000000000000000e+00 0.000000000000000e+00
0.000000000000000e+00 0.000000000000000e+00 0.000000000000000e+00
0.000000000000000e+00 0.000000000000000e+00 0.000000000000000e+00

0.000000000000000e+00 0.000000000000000e+00 0.000000000000000e+00
0.000000000000000e+00 0.000000000000000e+00 0.000000000000000e+00
0.000000000000000e+00 0.000000000000000e+00 0.000000000000000e+00

0.000000000000000e+00 0.000000000000000e+00 0.000000000000000e+00
0.000000000000000e+00 0.000000000000000e+00 0.000000000000000e+00
0.000000000000000e+00 0.000000000000000e+00 0.000000000000000e+00

0.000000000000000e+00 0.000000000000000e+00 0.000000000000000e+00
0.000000000000000e+00 0.000000000000000e+00 0.000000000000000e+00
0.000000000000000e+00 0.000000000000000e+00 0.000000000000000e+00

0.000000000000000e+00 0.000000000000000e+00 0.000000000000000e+00
0.000000000000000e+00 0.000000000000000e+00 0.000000000000000e+00
0.000000000000000e+00 0.000000000000000e+00 0.000000000000000e+00

0.000000000000000e+00 0.000000000000000e+00 0.000000000000000e+00
0.000000000000000e+00 0.000000000000000e+00 0.000000000000000e+00
0.000000000000000e+00 0.000000000000000e+00 0.000000000000000e+00

0.000000000000000e+00 0.000000000000000e+00 0.000000000000000e+00
0.000000000000000e+00 0.000000000000000e+00 0.000000000000000e+00
0.000000000000000e+00 0.000000000000000e+00 0.000000000000000e+00

0.000000000000000e+00 0.000000000000000e+00 0.000000000000000e+00
0.000000000000000e+00 0.000000000000000e+00 0.000000000000000e+00
0.000000000000000e+00 0.000000000000000e+00 0.000000000000000e+00

0.000000000000000e+00 0.000000000000000e+00 0.000000000000000e+00
0.000000000000000e+00 0.000000000000000e+00 0.000000000000000e+00
0.000000000000000e+00 0.000000000000000e+00 0.000000000000000e+00

0.000000000000000e+00 0.000000000000000e+00 0.000000000000000e+00
0.000000000000000e+00 0.000000000000000e+00 0.000000000000000e+00
0.000000000000000e+00 0.000000000000000e+00 0.000000000000000e+00

0.000000000000000e+00 0.000000000000000e+00 0.000000000000000e+00
0.000000000000000e+00 0.000000000000000e+00 0.000000000000000e+00
0.000000000000000e+00 0.000000000000000e+00 0.000000000000000e+00

0.000000000000000e+00 0.000000000000000e+00 0.000000000000000e+00
0.000000000000000e+00 0.000000000000000e+00 0.000000000000000e+00
0.000000000000000e+00 0.000000000000000e+00 0.000000000000000e+00

0.000000000000000e+00 0.000000000000000e+00 0.000000000000000e+00
0.000000000000000e+00 0.000000000000000e+00 0.000000000000000e+00
0.000000000000000e+00 0.000000000000000e+00 0.000000000000000e+00

0.000000000000000e+00 0.000000000000000e+00 0.000000000000000e+00
0.000000000000000e+00 0.000000000000000e+00 0.000000000000000e+00
0.000000000000000e+00 0.000000000000000e+00 0.000000000000000e+00

0.000000000000000e+00 0.000000000000000e+00 0.000000000000000e+00
0.000000000000000e+00 0.000000000000000e+00 0.000000000000000e+00
0.000000000000000e+00 0.000000000000000e+00 0.000000000000000e+00

0.000000000000000e+00 0.000000000000000e+00 0.000000000000000e+00
0.000000000000000e+00 0.000000000000000e+00 0.000000000000000e+00
0.000000000000000e+00 0.000000000000000e+00 0.000000000000000e+00

0.000000000000000e+00 0.000000000000000e+00 0.000000000000000e+00
0.000000000000000e+00 0.000000000000000e+00 0.000000000000000e+00
0.000000000000000e+00 0.000000000000000e+00 0.000000000000000e+00

0.000000000000000e+00 0.000000000000000e+00 0.000000000000000e+00
0.000000000000000e+00 0.000000000000000e+00 0.000000000000000e+00
0.000000000000000e+00 0.000000000000000e+00 0.000000000000000e+00

0.000000000000000e+00 0.000000000000000e+00 0.000000000000000e+00
0.000000000000000e+00 0.000000000000000e+00 0.000000000000000e+00
0.000000000000000e+00 0.000000000000000e+00 0.000000000000000e+00

0.000000000000000e+00 0.000000000000000e+00 0.000000000000000e+00
0.000000000000000e+00 0.000000000000000e+00 0.000000000000000e+00
0.000000000000000e+00 0.000000000000000e+00 0.000000000000000e+00

0.000000000000000e+00 0.000000000000000e+00 0.000000000000000e+00
0.000000000000000e+00 0.000000000000000e+00 0.000000000000000e+00
0.000000000000000e+00 0.000000000000000e+00 0.000000000000000e+00

0.000000000000000e+00 0.000000000000000e+00 0.000000000000000e+00
0.000000000000000e+00 0.000000000000000e+00 0.000000000000000e+00
0.000000000000000e+00 0.000000000000000e+00 0.000000000000000e+00

0.000000000000000e+00 0.000000000000000e+00 0.000000000000000e+00
0.000000000000000e+00 0.000000000000000e+00 0.000000000000000e+00
0.000000000000000e+00 0.000000000000000e+00 0.000000000000000e+00

0.000000000000000e+00 0.000000000000000e+00 0.000000000000000e+00
0.000000000000000e+00 0.000000000000000e+00 0.000000000000000e+00
0.000000000000000e+00 0.000000000000000e+00 0.000000000000000e+00

0.000000000000000e+00 0.000000000000000e+00 0.000000000000000e+00
0.000000000000000e+00 0.000000000000000e+00 0.000000000000000e+00
0.000000000000000e+00 0.000000000000000e+00 0.000000000000000e+00

0.000000000000000e+00 0.000000000000000e+00 0.000000000000000e+00
0.000000000000000e+00 0.000000000000000e+00 0.000000000000000e+00
0.000000000000000e+00 0.000000000000000e+00 0.000000000000000e+00

0.000000000000000e+00 0.000000000000000e+00 0.000000000000000e+00
0.000000000000000e+00 0.000000000000000e+00 0.000000000000000e+00
0.000000000000000e+00 0.000000000000000e+00 0.000000000000000e+00

0.000000000000000e+00 0.000000000000000e+00 0.000000000000000e+00
0.000000000000000e+00 0.000000000000000e+00 0.000000000000000e+00
0.000000000000000e+00 0.000000000000000e+00 0.000000000000000e+00

0.000000000000000e+00 0.000000000000000e+00 0.000000000000000e+00
0.000000000000000e+00 0.000000000000000e+00 0.000000000000000e+00
0.000000000000000e+00 0.000000000000000e+00 0.000000000000000e+00

0.000000000000000e+00 0.000000000000000e+00 0.000000000000000e+00
0.000000000000000e+00 0.000000000000000e+00 0.000000000000000e+00
0.000000000000000e+00 0.000000000000000e+00 0.000000000000000e+00

0.000000000000000e+00 0.000000000000000e+00 0.000000000000000e+00
0.000000000000000e+00 0.000000000000000e+00 0.000000000000000e+00
0.000000000000000e+00 0.000000000000000e+00 0.000000000000000e+00

0.000000000000000e+00 0.000000000000000e+00 0.000000000000000e+00
0.000000000000000e+00 0.000000000000000e+00 0.000000000000000e+00
0.000000000000000e+00 0.000000000000000e+00 0.000000000000000e+00

0.000000000000000e+00 0.000000000000000e+00 0.000000000000000e+00
0.000000000000000e+00 0.000000000000000e+00 0.000000000000000e+00
0.000000000000000e+00 0.000000000000000e+00 0.000000000000000e+00

0.000000000000000e+00 0.000000000000000e+00 0.000000000000000e+00
0.000000000000000e+00 0.000000000000000e+00 0.000000000000000e+00
0.000000000000000e+00 0.000000000000000e+00 0.000000000000000e+00

0.000000000000000e+00 0.000000000000000e+00 0.000000000000000e+00
0.000000000000000e+00 0.000000000000000e+00 0.000000000000000e+00
0.000000000000000e+00 0.000000000000000e+00 0.000000000000000e+00

0.000000000000000e+00 0.000000000000000e+00 0.000000000000000e+00
0.000000000000000e+00 0.000000000000000e+00 0.000000000000000e+00
0.000000000000000e+00 0.000000000000000e+00 0.000000000000000e+00

0.000000000000000e+00 0.000000000000000e+00 0.000000000000000e+00
0.000000000000000e+00 0.000000000000000e+00 0.000000000000000e+00
0.000000000000000e+00 0.000000000000000e+00 0.000000000000000e+00

0.000000000000000e+00 0.000000000000000e+00 0.000000000000000e+00
0.000000000000000e+00 0.000000000000000e+00 0.000000000000000e+00
0.000000000000000e+00 0.000000000000000e+00 0.000000000000000e+00

0.000000000000000e+00 0.000000000000000e+00 0.000000000000000e+00
0.000000000000000e+00 0.000000000000000e+00 0.000000000000000e+00
0.000000000000000e+00 0.000000000000000e+00 0.000000000000000e+00

0.000000000000000e+00 0.000000000000000e+00 0.000000000000000e+00
0.000000000000000e+00 0.000000000000000e+00 0.000000000000000e+00
0.000000000000000e+00 0.000000000000000e+00 0.000000000000000e+00

0.000000000000000e+00 0.000000000000000e+00 0.000000000000000e+00
0.000000000000000e+00 0.000000000000000e+00 0.000000000000000e+00
0.000000000000000e+00 0.000000000000000e+00 0.000000000000000e+00

0.000000000000000e+00 0.000000000000000e+00 0.000000000000000e+00
0.000000000000000e+00 0.000000000000000e+00 0.000000000000000e+00
0.000000000000000e+00 0.000000000000000e+00 0.000000000000000e+00

0.000000000000000e+00 0.000000000000000e+00 0.000000000000000e+00
0.000000000000000e+00 0.000000000000000e+00 0.000000000000000e+00
0.000000000000000e+00 0.000000000000000e+00 0.000000000000000e+00

0.000000000000000e+00 0.000000000000000e+00 0.000000000000000e+00
0.000000000000000e+00 0.000000000000000e+00 0.000000000000000e+00
0.000000000000000e+00 0.000000000000000e+00 0.000000000000000e+00

0.000000000000000e+00 0.000000000000000e+00 0.000000000000000e+00
0.000000000000000e+00 0.000000000000000e+00 0.000000000000000e+00
0.000000000000000e+00 0.000000000000000e+00 0.000000000000000e+00

0.000000000000000e+00 0.000000000000000e+00 0.000000000000000e+00
0.000000000000000e+00 0.000000000000000e+00 0.000000000000000e+00
0.000000000000000e+00 0.000000000000000e+00 0.000000000000000e+00

0.000000000000000e+00 0.000000000000000e+00 0.000000000000000e+00
0.000000000000000e+00 0.000000000000000e+00 0.000000000000000e+00
0.000000000000000e+00 0.000000000000000e+00 0.000000000000000e+00

0.000000000000000e+00 0.000000000000000e+00 0.000000000000000e+00
0.000000000000000e+00 0.000000000000000e+00 0.000000000000000e+00
0.000000000000000e+00 0.000000000000000e+00 0.000000000000000e+00

0.000000000000000e+00 0.000000000000000e+00 0.000000000000000e+00
0.000000000000000e+00 0.000000000000000e+00 0.000000000000000e+00
0.000000000000000e+00 0.000000000000000e+00 0.000000000000000e+00

0.000000000000000e+00 0.000000000000000e+00 0.000000000000000e+00
0.000000000000000e+00 0.000000000000000e+00 0.000000000000000e+00
0.000000000000000e+00 0.000000000000000e+00 0.000000000000000e+00

0.000000000000000e+00 0.000000000000000e+00 0.000000000000000e+00
0.000000000000000e+00 0.000000000000000e+00 0.000000000000000e+00
0.000000000000000e+00 0.000000000000000e+00 0.000000000000000e+00

0.000000000000000e+00 0.000000000000000e+00 0.000000000000000e+00
0.000000000000000e+00 0.000000000000000e+00 0.000000000000000e+00
0.000000000000000e+00 0.000000000000000e+00 0.000000000000000e+00

0.000000000000000e+00 0.000000000000000e+00 0.000000000000000e+00
0.000000000000000e+00 0.000000000000000e+00 0.000000000000000e+00
0.000000000000000e+00 0.000000000000000e+00 0.000000000000000e+00

0.000000000000000e+00 0.000000000000000e+00 0.000000000000000e+00
0.000000000000000e+00 0.000000000000000e+00 0.000000000000000e+00
0.000000000000000e+00 0.000000000000000e+00 0.000000000000000e+00

0.000000000000000e+00 0.000000000000000e+00 0.000000000000000e+00
0.000000000000000e+00 0.000000000000000e+00 0.000000000000000e+00
0.000000000000000e+00 0.000000000000000e+00 0.000000000000000e+00

0.000000000000000e+00 0.000000000000000e+00 0.000000000000000e+00
0.000000000000000e+00 0.000000000000000e+00 0.000000000000000e+00
0.000000000000000e+00 0.000000000000000e+00 0.000000000000000e+00

0.000000000000000e+00 0.000000000000000e+00 0.000000000000000e+00
0.000000000000000e+00 0.000000000000000e+00 0.000000000000000e+00
0.000000000000000e+00 0.000000000000000e+00 0.000000000000000e+00

0.000000000000000e+00 0.000000000000000e+00 0.000000000000000e+00
0.000000000000000e+00 0.000000000000000e+00 0.000000000000000e+00
0.000000000000000e+00 0.000000000000000e+00 0.000000000000000e+00

0.000000000000000e+00 0.000000000000000e+00 0.000000000000000e+00
0.000000000000000e+00 0.000000000000000e+00 0.000000000000000e+00
0.000000000000000e+00 0.000000000000000e+00 0.000000000000000e+00

0.000000000000000e+00 0.000000000000000e+00 0.000000000000000e+00
0.000000000000000e+00 0.000000000000000e+00 0.000000000000000e+00
0.000000000000000e+00 0.000000000000000e+00 0.000000000000000e+00

0.000000000000000e+00 0.000000000000000e+00 0.000000000000000e+00
0.000000000000000e+00 0.000000000000000e+00 0.000000000000000e+00
0.000000000000000e+00 0.000000000000000e+00 0.000000000000000e+00

0.000000000000000e+00 0.000000000000000e+00 0.000000000000000e+00
0.000000000000000e+00 0.000000000000000e+00 0.000000000000000e+00
0.000000000000000e+00 0.000000000000000e+00 0.000000000000000e+00

0.000000000000000e+00 0.000000000000000e+00 0.000000000000000e+00
0.000000000000000e+00 0.000000000000000e+00 0.000000000000000e+00
0.000000000000000e+00 0.000000000000000e+00 0.000000000000000e+00

0.000000000000000e+00 0.000000000000000e+00 0.000000000000000e+00
0.000000000000000e+00 0.000000000000000e+00 0.000000000000000e+00
0.000000000000000e+00 0.000000000000000e+00 0.000000000000000e+00

0.000000000000000e+00 0.000000000000000e+00 0.000000000000000e+00
0.000000000000000e+00 0.000000000000000e+00 0.000000000000000e+00
0.000000000000000e+00 0.000000000000000e+00 0.000000000000000e+00

0.000000000000000e+00 0.000000000000000e+00 0.000000000000000e+00
0.000000000000000e+00 0.000000000000000e+00 0.000000000000000e+00
0.000000000000000e+00 0.000000000000000e+00 0.000000000000000e+00

0.000000000000000e+00 0.000000000000000e+00 0.000000000000000e+00
0.000000000000000e+00 0.000000000000000e+00 0.000000000000000e+00
0.000000000000000e+00 0.000000000000000e+00 0.000000000000000e+00

0.000000000000000e+00 0.000000000000000e+00 0.000000000000000e+00
0.000000000000000e+00 0.000000000000000e+00 0.000000000000000e+00
0.000000000000000e+00 0.000000000000000e+00 0.000000000000000e+00

0.000000000000000e+00 0.000000000000000e+00 0.000000000000000e+00
0.000000000000000e+00 0.000000000000000e+00 0.000000000000000e+00
0.000000000000000e+00 0.000000000000000e+00 0.000000000000000e+00

0.000000000000000e+00 0.000000000000000e+00 0.000000000000000e+00
0.000000000000000e+00 0.000000000000000e+00 0.000000000000000e+00
0.000000000000000e+00 0.000000000000000e+00 0.000000000000000e+00

0.000000000000000e+00 0.000000000000000e+00 0.000000000000000e+00
0.000000000000000e+00 0.000000000000000e+00 0.000000000000000e+00
0.000000000000000e+00 0.000000000000000e+00 0.000000000000000e+00

0.000000000000000e+00 0.000000000000000e+00 0.000000000000000e+00
0.000000000000000e+00 0.000000000000000e+00 0.000000000000000e+00
0.000000000000000e+00 0.000000000000000e+00 0.000000000000000e+00

0.000000000000000e+00 0.000000000000000e+00 0.000000000000000e+00
0.000000000000000e+00 0.000000000000000e+00 0.000000000000000e+00
0.000000000000000e+00 0.000000000000000e+00 0.000000000000000e+00

0.000000000000000e+00 0.000000000000000e+00 0.000000000000000e+00
0.000000000000000e+00 0.000000000000000e+00 0.000000000000000e+00
0.000000000000000e+00 0.000000000000000e+00 0.000000000000000e+00

0.000000000000000e+00 0.000000000000000e+00 0.000000000000000e+00
0.000000000000000e+00 0.000000000000000e+00 0.000000000000000e+00
0.000000000000000e+00 0.000000000000000e+00 0.000000000000000e+00

0.000000000000000e+00 0.000000000000000e+00 0.000000000000000e+00
0.000000000000000e+00 0.000000000000000e+00 0.000000000000000e+00
0.000000000000000e+00 0.000000000000000e+00 0.000000000000000e+00

0.000000000000000e+00 0.000000000000000e+00 0.000000000000000e+00
0.000000000000000e+00 0.000000000000000e+00 0.000000000000000e+00
0.000000000000000e+00 0.000000000000000e+00 0.000000000000000e+00

0.000000000000000e+00 0.000000000000000e+00 0.000000000000000e+00
0.000000000000000e+00 0.000000000000000e+00 0.000000000000000e+00
0.000000000000000e+00 0.000000000000000e+00 0.000000000000000e+00

0.000000000000000e+00 0.000000000000000e+00 0.000000000000000e+00
0.000000000000000e+00 0.000000000000000e+00 0.000000000000000e+00
0.000000000000000e+00 0.000000000000000e+00 0.000000000000000e+00

0.000000000000000e+00 0.000000000000000e+00 0.000000000000000e+00
0.000000000000000e+00 0.000000000000000e+00 0.000000000000000e+00
0.000000000000000e+00 0.000000000000000e+00 0.000000000000000e+00

0.000000000000000e+00 0.000000000000000e+00 0.000000000000000e+00
0.000000000000000e+00 0.000000000000000e+00 0.000000000000000e+00
0.000000000000000e+00 0.000000000000000e+00 0.000000000000000e+00

0.000000000000000e+00 0.000000000000000e+00 0.000000000000000e+00
0.000000000000000e+00 0.000000000000000e+00 0.000000000000000e+00
0.000000000000000e+00 0.000000000000000e+00 0.000000000000000e+00

0.000000000000000e+00 0.000000000000000e+00 0.000000000000000e+00
0.000000000000000e+00 0.000000000000000e+00 0.000000000000000e+00
0.000000000000000e+00 0.000000000000000e+00 0.000000000000000e+00

0.000000000000000e+00 0.000000000000000e+00 0.000000000000000e+00
0.000000000000000e+00 0.000000000000000e+00 0.000000000000000e+00
0.000000000000000e+00 0.000000000000000e+00 0.000000000000000e+00

0.000000000000000e+00 0.000000000000000e+00 0.000000000000000e+00
0.000000000000000e+00 0.000000000000000e+00 0.000000000000000e+00
0.000000000000000e+00 0.000000000000000e+00 0.000000000000000e+00

0.000000000000000e+00 0.000000000000000e+00 0.000000000000000e+00
0.000000000000000e+00 0.000000000000000e+00 0.000000000000000e+00
0.000000000000000e+00 0.000000000000000e+00 0.000000000000000e+00

0.000000000000000e+00 0.000000000000000e+00 0.000000000000000e+00
0.000000000000000e+00 0.000000000000000e+00 0.000000000000000e+00
0.000000000000000e+00 0.000000000000000e+00 0.000000000000000e+00

0.000000000000000e+00 0.000000000000000e+00 0.000000000000000e+00
0.000000000000000e+00 0.000000000000000e+00 0.000000000000000e+00
0.000000000000000e+00 0.000000000000000e+00 0.000000000000000e+00

0.000000000000000e+00 0.000000000000000e+00 0.000000000000000e+00
0.000000000000000e+00 0.000000000000000e+00 0.000000000000000e+00
0.000000000000000e+00 0.000000000000000e+00 0.000000000000000e+00

0.000000000000000e+00 0.000000000000000e+00 0.000000000000000e+00
0.000000000000000e+00 0.000000000000000e+00 0.000000000000000e+00
0.000000000000000e+00 0.000000000000000e+00 0.000000000000000e+00

0.000000000000000e+00 0.000000000000000e+00 0.000000000000000e+00
0.000000000000000e+00 0.000000000000000e+00 0.000000000000000e+00
0.000000000000000e+00 0.000000000000000e+00 0.000000000000000e+00

0.000000000000000e+00 0.000000000000000e+00 0.000000000000000e+00
0.000000000000000e+00 0.000000000000000e+00 0.000000000000000e+00
0.000000000000000e+00 0.000000000000000e+00 0.000000000000000e+00

0.000000000000000e+00 0.000000000000000e+00 0.000000000000000e+00
0.000000000000000e+00 0.000000000000000e+00 0.000000000000000e+00
0.000000000000000e+00 0.000000000000000e+00 0.000000000000000e+00

0.000000000000000e+00 0.000000000000000e+00 0.000000000000000e+00
0.000000000000000e+00 0.000000000000000e+00 0.000000000000000e+00
0.000000000000000e+00 0.000000000000000e+00 0.000000000000000e+00

0.000000000000000e+00 0.000000000000000e+00 0.000000000000000e+00
0.000000000000000e+00 0.000000000000000e+00 0.000000000000000e+00
0.000000000000000e+00 0.000000000000000e+00 0.000000000000000e+00

0.000000000000000e+00 0.000000000000000e+00 0.000000000000000e+00
0.000000000000000e+00 0.000000000000000e+00 0.000000000000000e+00
0.000000000000000e+00 0.000000000000000e+00 0.000000000000000e+00

0.000000000000000e+00 0.000000000000000e+00 0.000000000000000e+00
0.000000000000000e+00 0.000000000000000e+00 0.000000000000000e+00
0.000000000000000e+00 0.000000000000000e+00 0.000000000000000e+00

0.000000000000000e+00 0.000000000000000e+00 0.000000000000000e+00
0.000000000000000e+00 0.000000000000000e+00 0.000000000000000e+00
0.000000000000000e+00 0.000000000000000e+00 0.000000000000000e+00

0.000000000000000e+00 0.000000000000000e+00 0.000000000000000e+00
0.000000000000000e+00 0.000000000000000e+00 0.000000000000000e+00
0.000000000000000e+00 0.000000000000000e+00 0.000000000000000e+00

0.000000000000000e+00 0.000000000000000e+00 0.000000000000000e+00
0.000000000000000e+00 0.000000000000000e+00 0.000000000000000e+00
0.000000000000000e+00 0.000000000000000e+00 0.000000000000000e+00

0.000000000000000e+00 0.000000000000000e+00 0.000000000000000e+00
0.000000000000000e+00 0.000000000000000e+00 0.000000000000000e+00
0.000000000000000e+00 0.000000000000000e+00 0.000000000000000e+00

0.000000000000000e+00 0.000000000000000e+00 0.000000000000000e+00
0.000000000000000e+00 0.000000000000000e+00 0.000000000000000e+00
0.000000000000000e+00 0.000000000000000e+00 0.000000000000000e+00

0.000000000000000e+00 0.000000000000000e+00 0.000000000000000e+00
0.000000000000000e+00 0.000000000000000e+00 0.000000000000000e+00
0.000000000000000e+00 0.000000000000000e+00 0.000000000000000e+00

0.000000000000000e+00 0.000000000000000e+00 0.000000000000000e+00
0.000000000000000e+00 0.000000000000000e+00 0.000000000000000e+00
0.000000000000000e+00 0.000000000000000e+00 0.000000000000000e+00

0.000000000000000e+00 0.000000000000000e+00 0.000000000000000e+00
0.000000000000000e+00 0.000000000000000e+00 0.000000000000000e+00
0.000000000000000e+00 0.000000000000000e+00 0.000000000000000e+00

0.000000000000000e+00 0.000000000000000e+00 0.000000000000000e+00
0.000000000000000e+00 0.000000000000000e+00 0.000000000000000e+00
0.000000000000000e+00 0.000000000000000e+00 0.000000000000000e+00

0.000000000000000e+00 0.000000000000000e+00 0.000000000000000e+00
0.000000000000000e+00 0.000000000000000e+00 0.000000000000000e+00
0.000000000000000e+00 0.000000000000000e+00 0.000000000000000e+00

0.000000000000000e+00 0.000000000000000e+00 0.000000000000000e+00
0.000000000000000e+00 0.000000000000000e+00 0.000000000000000e+00
0.000000000000000e+00 0.000000000000000e+00 0.000000000000000e+00

0.000000000000000e+00 0.000000000000000e+00 0.000000000000000e+00
0.000000000000000e+00 0.000000000000000e+00 0.000000000000000e+00
0.000000000000000e+00 0.000000000000000e+00 0.000000000000000e+00

0.000000000000000e+00 0.000000000000000e+00 0.000000000000000e+00
0.000000000000000e+00 0.000000000000000e+00 0.000000000000000e+00
0.000000000000000e+00 0.000000000000000e+00 0.000000000000000e+00

0.000000000000000e+00 0.000000000000000e+00 0.000000000000000e+00
0.000000000000000e+00 0.000000000000000e+00 0.000000000000000e+00
0.000000000000000e+00 0.000000000000000e+00 0.000000000000000e+00

0.000000000000000e+00 0.000000000000000e+00 0.000000000000000e+00
0.000000000000000e+00 0.000000000000000e+00 0.000000000000000e+00
0.000000000000000e+00 0.000000000000000e+00 0.000000000000000e+00

0.000000000000000e+00 0.000000000000000e+00 0.000000000000000e+00
0.000000000000000e+00 0.000000000000000e+00 0.000000000000000e+00
0.000000000000000e+00 0.000000000000000e+00 0.000000000000000e+00

0.000000000000000e+00 0.000000000000000e+00 0.000000000000000e+00
0.000000000000000e+00 0.000000000000000e+00 0.000000000000000e+00
0.000000000000000e+00 0.000000000000000e+00 0.000000000000000e+00

0.000000000000000e+00 0.000000000000000e+00 0.000000000000000e+00
0.000000000000000e+00 0.000000000000000e+00 0.000000000000000e+00
0.000000000000000e+00 0.000000000000000e+00 0.000000000000000e+00

0.000000000000000e+00 0.000000000000000e+00 0.000000000000000e+00
0.000000000000000e+00 0.000000000000000e+00 0.000000000000000e+00
0.000000000000000e+00 0.000000000000000e+00 0.000000000000000e+00

0.000000000000000e+00 0.000000000000000e+00 0.000000000000000e+00
0.000000000000000e+00 0.000000000000000e+00 0.000000000000000e+00
0.000000000000000e+00 0.000000000000000e+00 0.000000000000000e+00

0.000000000000000e+00 0.000000000000000e+00 0.000000000000000e+00
0.000000000000000e+00 0.000000000000000e+00 0.000000000000000e+00
0.000000000000000e+00 0.000000000000000e+00 0.000000000000000e+00

0.000000000000000e+00 0.000000000000000e+00 0.000000000000000e+00
0.000000000000000e+00 0.000000000000000e+00 0.000000000000000e+00
0.000000000000000e+00 0.000000000000000e+00 0.000000000000000e+00

0.000000000000000e+00 0.000000000000000e+00 0.000000000000000e+00
0.000000000000000e+00 0.000000000000000e+00 0.000000000000000e+00
0.000000000000000e+00 0.000000000000000e+00 0.000000000000000e+00

0.000000000000000e+00 0.000000000000000e+00 0.000000000000000e+00
0.000000000000000e+00 0.000000000000000e+00 0.000000000000000e+00
0.000000000000000e+00 0.000000000000000e+00 0.000000000000000e+00

0.000000000000000e+00 0.000000000000000e+00 0.000000000000000e+00
0.000000000000000e+00 0.000000000000000e+00 0.000000000000000e+00
0.000000000000000e+00 0.000000000000000e+00 0.000000000000000e+00

0.000000000000000e+00 0.000000000000000e+00 0.000000000000000e+00
0.000000000000000e+00 0.000000000000000e+00 0.000000000000000e+00
0.000000000000000e+00 0.000000000000000e+00 0.000000000000000e+00

0.000000000000000e+00 0.000000000000000e+00 0.000000000000000e+00
0.000000000000000e+00 0.000000000000000e+00 0.000000000000000e+00
0.000000000000000e+00 0.000000000000000e+00 0.000000000000000e+00

0.000000000000000e+00 0.000000000000000e+00 0.000000000000000e+00
0.000000000000000e+00 0.000000000000000e+00 0.000000000000000e+00
0.000000000000000e+00 0.000000000000000e+00 0.000000000000000e+00

0.000000000000000e+00 0.000000000000000e+00 0.000000000000000e+00
0.000000000000000e+00 0.000000000000000e+00 0.000000000000000e+00
0.000000000000000e+00 0.000000000000000e+00 0.000000000000000e+00

0.000000000000000e+00 0.000000000000000e+00 0.000000000000000e+00
0.000000000000000e+00 0.000000000000000e+00 0.000000000000000e+00
0.000000000000000e+00 0.000000000000000e+00 0.000000000000000e+00

0.000000000000000e+00 0.000000000000000e+00 0.000000000000000e+00
0.000000000000000e+00 0.000000000000000e+00 0.000000000000000e+00
0.000000000000000e+00 0.000000000000000e+00 0.000000000000000e+00

0.000000000000000e+00 0.000000000000000e+00 0.000000000000000e+00
0.000000000000000e+00 0.000000000000000e+00 0.000000000000000e+00
0.000000000000000e+00 0.000000000000000e+00 0.000000000000000e+00

0.000000000000000e+00 0.000000000000000e+00 0.000000000000000e+00
0.000000000000000e+00 0.000000000000000e+00 0.000000000000000e+00
0.000000000000000e+00 0.000000000000000e+00 0.000000000000000e+00

0.000000000000000e+00 0.000000000000000e+00 0.000000000000000e+00
0.000000000000000e+00 0.000000000000000e+00 0.000000000000000e+00
0.000000000000000e+00 0.000000000000000e+00 0.000000000000000e+00

0.000000000000000e+00 0.000000000000000e+00 0.000000000000000e+00
0.000000000000000e+00 0.000000000000000e+00 0.000000000000000e+00
0.000000000000000e+00 0.000000000000000e+00 0.000000000000000e+00

0.000000000000000e+00 0.000000000000000e+00 0.000000000000000e+00
0.000000000000000e+00 0.000000000000000e+00 0.000000000000000e+00
0.000000000000000e+00 0.000000000000000e+00 0.000000000000000e+00

0.000000000000000e+00 0.000000000000000e+00 0.000000000000000e+00
0.000000000000000e+00 0.000000000000000e+00 0.000000000000000e+00
0.000000000000000e+00 0.000000000000000e+00 0.000000000000000e+00

0.000000000000000e+00 0.000000000000000e+00 0.000000000000000e+00
0.000000000000000e+00 0.000000000000000e+00 0.000000000000000e+00
0.000000000000000e+00 0.000000000000000e+00 0.000000000000000e+00

0.000000000000000e+00 0.000000000000000e+00 0.000000000000000e+00
0.000000000000000e+00 0.000000000000000e+00 0.000000000000000e+00
0.000000000000000e+00 0.000000000000000e+00 0.000000000000000e+00

0.000000000000000e+00 0.000000000000000e+00 0.000000000000000e+00
0.000000000000000e+00 0.000000000000000e+00 0.000000000000000e+00
0.000000000000000e+00 0.000000000000000e+00 0.000000000000000e+00

0.000000000000000e+00 0.000000000000000e+00 0.000000000000000e+00
0.000000000000000e+00 0.000000000000000e+00 0.000000000000000e+00
0.000000000000000e+00 0.000000000000000e+00 0.000000000000000e+00

0.000000000000000e+00 0.000000000000000e+00 0.000000000000000e+00
0.000000000000000e+00 0.000000000000000e+00 0.000000000000000e+00
0.000000000000000e+00 0.000000000000000e+00 0.000000000000000e+00

0.000000000000000e+00 0.000000000000000e+00 0.000000000000000e+00
0.000000000000000e+00 0.000000000000000e+00 0.000000000000000e+00
0.000000000000000e+00 0.000000000000000e+00 0.000000000000000e+00

0.000000000000000e+00 0.000000000000000e+00 0.000000000000000e+00
0.000000000000000e+00 0.000000000000000e+00 0.000000000000000e+00
0.000000000000000e+00 0.000000000000000e+00 0.000000000000000e+00

0.000000000000000e+00 0.000000000000000e+00 0.000000000000000e+00
0.000000000000000e+00 0.000000000000000e+00 0.000000000000000e+00
0.000000000000000e+00 0.000000000000000e+00 0.000000000000000e+00

0.000000000000000e+00 0.000000000000000e+00 0.000000000000000e+00
0.000000000000000e+00 0.000000000000000e+00 0.000000000000000e+00
0.000000000000000e+00 0.000000000000000e+00 0.000000000000000e+00

0.000000000000000e+00 0.000000000000000e+00 0.000000000000000e+00
0.000000000000000e+00 0.000000000000000e+00 0.000000000000000e+00
0.000000000000000e+00 0.000000000000000e+00 0.000000000000000e+00

0.000000000000000e+00 0.000000000000000e+00 0.000000000000000e+00
0.000000000000000e+00 0.000000000000000e+00 0.000000000000000e+00
0.000000000000000e+00 0.000000000000000e+00 0.000000000000000e+00

0.000000000000000e+00 0.000000000000000e+00 0.000000000000000e+00
0.000000000000000e+00 0.000000000000000e+00 0.000000000000000e+00
0.000000000000000e+00 0.000000000000000e+00 0.000000000000000e+00

0.000000000000000e+00 0.000000000000000e+00 0.000000000000000e+00
0.000000000000000e+00 0.000000000000000e+00 0.000000000000000e+00
0.000000000000000e+00 0.000000000000000e+00 0.000000000000000e+00

0.000000000000000e+00 0.000000000000000e+00 0.000000000000000e+00
0.000000000000000e+00 0.000000000000000e+00 0.000000000000000e+00
0.000000000000000e+00 0.000000000000000e+00 0.000000000000000e+00

0.000000000000000e+00 0.000000000000000e+00 0.000000000000000e+00
0.000000000000000e+00 0.000000000000000e+00 0.000000000000000e+00
0.000000000000000e+00 0.000000000000000e+00 0.000000000000000e+00

0.000000000000000e+00 0.000000000000000e+00 0.000000000000000e+00
0.000000000000000e+00 0.000000000000000e+00 0.000000000000000e+00
0.000000000000000e+00 0.000000000000000e+00 0.000000000000000e+00

0.000000000000000e+00 0.000000000000000e+00 0.000000000000000e+00
0.000000000000000e+00 0.000000000000000e+00 0.000000000000000e+00
0.000000000000000e+00 0.000000000000000e+00 0.000000000000000e+00

0.000000000000000e+00 0.000000000000000e+00 0.000000000000000e+00
0.000000000000000e+00 0.000000000000000e+00 0.000000000000000e+00
0.000000000000000e+00 0.000000000000000e+00 0.000000000000000e+00

0.000000000000000e+00 0.000000000000000e+00 0.000000000000000e+00
0.000000000000000e+00 0.000000000000000e+00 0.000000000000000e+00
0.000000000000000e+00 0.000000000000000e+00 0.000000000000000e+00

0.000000000000000e+00 0.000000000000000e+00 0.000000000000000e+00
0.000000000000000e+00 0.000000000000000e+00 0.000000000000000e+00
0.000000000000000e+00 0.000000000000000e+00 0.000000000000000e+00

0.000000000000000e+00 0.000000000000000e+00 0.000000000000000e+00
0.000000000000000e+00 0.000000000000000e+00 0.000000000000000e+00
0.000000000000000e+00 0.000000000000000e+00 0.000000000000000e+00

0.000000000000000e+00 0.000000000000000e+00 0.000000000000000e+00
0.000000000000000e+00 0.000000000000000e+00 0.000000000000000e+00
0.000000000000000e+00 0.000000000000000e+00 0.000000000000000e+00

0.000000000000000e+00 0.000000000000000e+00 0.000000000000000e+00
0.000000000000000e+00 0.000000000000000e+00 0.000000000000000e+00
0.000000000000000e+00 0.000000000000000e+00 0.000000000000000e+00

0.000000000000000e+00 0.000000000000000e+00 0.000000000000000e+00
0.000000000000000e+00 0.000000000000000e+00 0.000000000000000e+00
0.000000000000000e+00 0.000000000000000e+00 0.000000000000000e+00

0.000000000000000e+00 0.000000000000000e+00 0.000000000000000e+00
0.000000000000000e+00 0.000000000000000e+00 0.000000000000000e+00
0.000000000000000e+00 0.000000000000000e+00 0.000000000000000e+00

0.000000000000000e+00 0.000000000000000e+00 0.000000000000000e+00
0.000000000000000e+00 0.000000000000000e+00 0.000000000000000e+00
0.000000000000000e+00 0.000000000000000e+00 0.000000000000000e+00

0.000000000000000e+00 0.000000000000000e+00 0.000000000000000e+00
0.000000000000000e+00 0.000000000000000e+00 0.000000000000000e+00
0.000000000000000e+00 0.000000000000000e+00 0.000000000000000e+00

0.000000000000000e+00 0.000000000000000e+00 0.000000000000000e+00
0.000000000000000e+00 0.000000000000000e+00 0.000000000000000e+00
0.000000000000000e+00 0.000000000000000e+00 0.000000000000000e+00

0.000000000000000e+00 0.000000000000000e+00 0.000000000000000e+00
0.000000000000000e+00 0.000000000000000e+00 0.000000000000000e+00
0.000000000000000e+00 0.000000000000000e+00 0.000000000000000e+00

0.000000000000000e+00 0.000000000000000e+00 0.000000000000000e+00
0.000000000000000e+00 0.000000000000000e+00 0.000000000000000e+00
0.000000000000000e+00 0.000000000000000e+00 0.000000000000000e+00

0.000000000000000e+00 0.000000000000000e+00 0.000000000000000e+00
0.000000000000000e+00 0.000000000000000e+00 0.000000000000000e+00
0.000000000000000e+00 0.000000000000000e+00 0.000000000000000e+00

0.000000000000000e+00 0.000000000000000e+00 0.000000000000000e+00
0.000000000000000e+00 0.000000000000000e+00 0.000000000000000e+00
0.000000000000000e+00 0.000000000000000e+00 0.000000000000000e+00

0.000000000000000e+00 0.000000000000000e+00 0.000000000000000e+00
0.000000000000000e+00 0.000000000000000e+00 0.000000000000000e+00
0.000000000000000e+00 0.000000000000000e+00 0.000000000000000e+00

0.000000000000000e+00 0.000000000000000e+00 0.000000000000000e+00
0.000000000000000e+00 0.000000000000000e+00 0.000000000000000e+00
0.000000000000000e+00 0.000000000000000e+00 0.000000000000000e+00

0.000000000000000e+00 0.000000000000000e+00 0.000000000000000e+00
0.000000000000000e+00 0.000000000000000e+00 0.000000000000000e+00
0.000000000000000e+00 0.000000000000000e+00 0.000000000000000e+00

0.000000000000000e+00 0.000000000000000e+00 0.000000000000000e+00
0.000000000000000e+00 0.000000000000000e+00 0.000000000000000e+00
0.000000000000000e+00 0.000000000000000e+00 0.000000000000000e+00

0.000000000000000e+00 0.000000000000000e+00 0.000000000000000e+00
0.000000000000000e+00 0.000000000000000e+00 0.000000000000000e+00
0.000000000000000e+00 0.000000000000000e+00 0.000000000000000e+00

0.000000000000000e+00 0.000000000000000e+00 0.000000000000000e+00
0.000000000000000e+00 0.000000000000000e+00 0.000000000000000e+00
0.000000000000000e+00 0.000000000000000e+00 0.000000000000000e+00

0.000000000000000e+00 0.000000000000000e+00 0.000000000000000e+00
0.000000000000000e+00 0.000000000000000e+00 0.000000000000000e+00
0.000000000000000e+00 0.000000000000000e+00 0.000000000000000e+00

0.000000000000000e+00 0.000000000000000e+00 0.000000000000000e+00
0.000000000000000e+00 0.000000000000000e+00 0.000000000000000e+00
0.000000000000000e+00 0.000000000000000e+00 0.000000000000000e+00

0.000000000000000e+00 0.000000000000000e+00 0.000000000000000e+00
0.000000000000000e+00 0.000000000000000e+00 0.000000000000000e+00
0.000000000000000e+00 0.000000000000000e+00 0.000000000000000e+00

0.000000000000000e+00 0.000000000000000e+00 0.000000000000000e+00
0.000000000000000e+00 0.000000000000000e+00 0.000000000000000e+00
0.000000000000000e+00 0.000000000000000e+00 0.000000000000000e+00

0.000000000000000e+00 0.000000000000000e+00 0.000000000000000e+00
0.000000000000000e+00 0.000000000000000e+00 0.000000000000000e+00
0.000000000000000e+00 0.000000000000000e+00 0.000000000000000e+00

0.000000000000000e+00 0.000000000000000e+00 0.000000000000000e+00
0.000000000000000e+00 0.000000000000000e+00 0.000000000000000e+00
0.000000000000000e+00 0.000000000000000e+00 0.000000000000000e+00

0.000000000000000e+00 0.000000000000000e+00 0.000000000000000e+00
0.000000000000000e+00 0.000000000000000e+00 0.000000000000000e+00
0.000000000000000e+00 0.000000000000000e+00 0.000000000000000e+00

0.000000000000000e+00 0.000000000000000e+00 0.000000000000000e+00
0.000000000000000e+00 0.000000000000000e+00 0.000000000000000e+00
0.000000000000000e+00 0.000000000000000e+00 0.000000000000000e+00

0.000000000000000e+00 0.000000000000000e+00 0.000000000000000e+00
0.000000000000000e+00 0.000000000000000e+00 0.000000000000000e+00
0.000000000000000e+00 0.000000000000000e+00 0.000000000000000e+00

0.000000000000000e+00 0.000000000000000e+00 0.000000000000000e+00
0.000000000000000e+00 0.000000000000000e+00 0.000000000000000e+00
0.000000000000000e+00 0.000000000000000e+00 0.000000000000000e+00

0.000000000000000e+00 0.000000000000000e+00 0.000000000000000e+00
0.000000000000000e+00 0.000000000000000e+00 0.000000000000000e+00
0.000000000000000e+00 0.000000000000000e+00 0.000000000000000e+00

0.000000000000000e+00 0.000000000000000e+00 0.000000000000000e+00
0.000000000000000e+00 0.000000000000000e+00 0.000000000000000e+00
0.000000000000000e+00 0.000000000000000e+00 0.000000000000000e+00

0.000000000000000e+00 0.000000000000000e+00 0.000000000000000e+00
0.000000000000000e+00 0.000000000000000e+00 0.000000000000000e+00
0.000000000000000e+00 0.000000000000000e+00 0.000000000000000e+00

0.000000000000000e+00 0.000000000000000e+00 0.000000000000000e+00
0.000000000000000e+00 0.000000000000000e+00 0.000000000000000e+00
0.000000000000000e+00 0.000000000000000e+00 0.000000000000000e+00

0.000000000000000e+00 0.000000000000000e+00 0.000000000000000e+00
0.000000000000000e+00 0.000000000000000e+00 0.000000000000000e+00
0.000000000000000e+00 0.000000000000000e+00 0.000000000000000e+00

0.000000000000000e+00 0.000000000000000e+00 0.000000000000000e+00
0.000000000000000e+00 0.000000000000000e+00 0.000000000000000e+00
0.000000000000000e+00 0.000000000000000e+00 0.000000000000000e+00

0.000000000000000e+00 0.000000000000000e+00 0.000000000000000e+00
0.000000000000000e+00 0.000000000000000e+00 0.000000000000000e+00
0.000000000000000e+00 0.000000000000000e+00 0.000000000000000e+00

0.000000000000000e+00 0.000000000000000e+00 0.000000000000000e+00
0.000000000000000e+00 0.000000000000000e+00 0.000000000000000e+00
0.000000000000000e+00 0.000000000000000e+00 0.000000000000000e+00

0.000000000000000e+00 0.000000000000000e+00 0.000000000000000e+00
0.000000000000000e+00 0.000000000000000e+00 0.000000000000000e+00
0.000000000000000e+00 0.000000000000000e+00 0.000000000000000e+00

0.000000000000000e+00 0.000000000000000e+00 0.000000000000000e+00
0.000000000000000e+00 0.000000000000000e+00 0.000000000000000e+00
0.000000000000000e+00 0.000000000000000e+00 0.000000000000000e+00

0.000000000000000e+00 0.000000000000000e+00 0.000000000000000e+00
0.000000000000000e+00 0.000000000000000e+00 0.000000000000000e+00
0.000000000000000e+00 0.000000000000000e+00 0.000000000000000e+00

0.000000000000000e+00 0.000000000000000e+00 0.000000000000000e+00
0.000000000000000e+00 0.000000000000000e+00 0.000000000000000e+00
0.000000000000000e+00 0.000000000000000e+00 0.000000000000000e+00

0.000000000000000e+00 0.000000000000000e+00 0.000000000000000e+00
0.000000000000000e+00 0.000000000000000e+00 0.000000000000000e+00
0.000000000000000e+00 0.000000000000000e+00 0.000000000000000e+00

0.000000000000000e+00 0.000000000000000e+00 0.000000000000000e+00
0.000000000000000e+00 0.000000000000000e+00 0.000000000000000e+00
0.000000000000000e+00 0.000000000000000e+00 0.000000000000000e+00

0.000000000000000e+00 0.000000000000000e+00 0.000000000000000e+00
0.000000000000000e+00 0.000000000000000e+00 0.000000000000000e+00
0.000000000000000e+00 0.000000000000000e+00 0.000000000000000e+00

0.000000000000000e+00 0.000000000000000e+00 0.000000000000000e+00
0.000000000000000e+00 0.000000000000000e+00 0.000000000000000e+00
0.000000000000000e+00 0.000000000000000e+00 0.000000000000000e+00

0.000000000000000e+00 0.000000000000000e+00 0.000000000000000e+00
0.000000000000000e+00 0.000000000000000e+00 0.000000000000000e+00
0.000000000000000e+00 0.000000000000000e+00 0.000000000000000e+00

0.000000000000000e+00 0.000000000000000e+00 0.000000000000000e+00
0.000000000000000e+00 0.000000000000000e+00 0.000000000000000e+00
0.000000000000000e+00 0.000000000000000e+00 0.000000000000000e+00

0.000000000000000e+00 0.000000000000000e+00 0.000000000000000e+00
0.000000000000000e+00 0.000000000000000e+00 0.000000000000000e+00
0.000000000000000e+00 0.000000000000000e+00 0.000000000000000e+00

0.000000000000000e+00 0.000000000000000e+00 0.000000000000000e+00
0.000000000000000e+00 0.000000000000000e+00 0.000000000000000e+00
0.000000000000000e+00 0.000000000000000e+00 0.000000000000000e+00

0.000000000000000e+00 0.000000000000000e+00 0.000000000000000e+00
0.000000000000000e+00 0.000000000000000e+00 0.000000000000000e+00
0.000000000000000e+00 0.000000000000000e+00 0.000000000000000e+00

0.000000000000000e+00 0.000000000000000e+00 0.000000000000000e+00
0.000000000000000e+00 0.000000000000000e+00 0.000000000000000e+00
0.000000000000000e+00 0.000000000000000e+00 0.000000000000000e+00

0.000000000000000e+00 0.000000000000000e+00 0.000000000000000e+00
0.000000000000000e+00 0.000000000000000e+00 0.000000000000000e+00
0.000000000000000e+00 0.000000000000000e+00 0.000000000000000e+00

0.000000000000000e+00 0.000000000000000e+00 0.000000000000000e+00
0.000000000000000e+00 0.000000000000000e+00 0.000000000000000e+00
0.000000000000000e+00 0.000000000000000e+00 0.000000000000000e+00

0.000000000000000e+00 0.000000000000000e+00 0.000000000000000e+00
0.000000000000000e+00 0.000000000000000e+00 0.000000000000000e+00
0.000000000000000e+00 0.000000000000000e+00 0.000000000000000e+00

0.000000000000000e+00 0.000000000000000e+00 0.000000000000000e+00
0.000000000000000e+00 0.000000000000000e+00 0.000000000000000e+00
0.000000000000000e+00 0.000000000000000e+00 0.000000000000000e+00

0.000000000000000e+00 0.000000000000000e+00 0.000000000000000e+00
0.000000000000000e+00 0.000000000000000e+00 0.000000000000000e+00
0.000000000000000e+00 0.000000000000000e+00 0.000000000000000e+00

0.000000000000000e+00 0.000000000000000e+00 0.000000000000000e+00
0.000000000000000e+00 0.000000000000000e+00 0.000000000000000e+00
0.000000000000000e+00 0.000000000000000e+00 0.000000000000000e+00

0.000000000000000e+00 0.000000000000000e+00 0.000000000000000e+00
0.000000000000000e+00 0.000000000000000e+00 0.000000000000000e+00
0.000000000000000e+00 0.000000000000000e+00 0.000000000000000e+00

0.000000000000000e+00 0.000000000000000e+00 0.000000000000000e+00
0.000000000000000e+00 0.000000000000000e+00 0.000000000000000e+00
0.000000000000000e+00 0.000000000000000e+00 0.000000000000000e+00

0.000000000000000e+00 0.000000000000000e+00 0.000000000000000e+00
0.000000000000000e+00 0.000000000000000e+00 0.000000000000000e+00
0.000000000000000e+00 0.000000000000000e+00 0.000000000000000e+00

0.000000000000000e+00 0.000000000000000e+00 0.000000000000000e+00
0.000000000000000e+00 0.000000000000000e+00 0.000000000000000e+00
0.000000000000000e+00 0.000000000000000e+00 0.000000000000000e+00

0.000000000000000e+00 0.000000000000000e+00 0.000000000000000e+00
0.000000000000000e+00 0.000000000000000e+00 0.000000000000000e+00
0.000000000000000e+00 0.000000000000000e+00 0.000000000000000e+00

0.000000000000000e+00 0.000000000000000e+00 0.000000000000000e+00
0.000000000000000e+00 0.000000000000000e+00 0.000000000000000e+00
0.000000000000000e+00 0.000000000000000e+00 0.000000000000000e+00

0.000000000000000e+00 0.000000000000000e+00 0.000000000000000e+00
0.000000000000000e+00 0.000000000000000e+00 0.000000000000000e+00
0.000000000000000e+00 0.000000000000000e+00 0.000000000000000e+00

0.000000000000000e+00 0.000000000000000e+00 0.000000000000000e+00
0.000000000000000e+00 0.000000000000000e+00 0.000000000000000e+00
0.000000000000000e+00 0.000000000000000e+00 0.000000000000000e+00

0.000000000000000e+00 0.000000000000000e+00 0.000000000000000e+00
0.000000000000000e+00 0.000000000000000e+00 0.000000000000000e+00
0.000000000000000e+00 0.000000000000000e+00 0.000000000000000e+00

0.000000000000000e+00 0.000000000000000e+00 0.000000000000000e+00
0.000000000000000e+00 0.000000000000000e+00 0.000000000000000e+00
0.000000000000000e+00 0.000000000000000e+00 0.000000000000000e+00

0.000000000000000e+00 0.000000000000000e+00 0.000000000000000e+00
0.000000000000000e+00 0.000000000000000e+00 0.000000000000000e+00
0.000000000000000e+00 0.000000000000000e+00 0.000000000000000e+00

0.000000000000000e+00 0.000000000000000e+00 0.000000000000000e+00
0.000000000000000e+00 0.000000000000000e+00 0.000000000000000e+00
0.000000000000000e+00 0.000000000000000e+00 0.000000000000000e+00

0.000000000000000e+00 0.000000000000000e+00 0.000000000000000e+00
0.000000000000000e+00 0.000000000000000e+00 0.000000000000000e+00
0.000000000000000e+00 0.000000000000000e+00 0.000000000000000e+00

0.000000000000000e+00 0.000000000000000e+00 0.000000000000000e+00
0.000000000000000e+00 0.000000000000000e+00 0.000000000000000e+00
0.000000000000000e+00 0.000000000000000e+00 0.000000000000000e+00

0.000000000000000e+00 0.000000000000000e+00 0.000000000000000e+00
0.000000000000000e+00 0.000000000000000e+00 0.000000000000000e+00
0.000000000000000e+00 0.000000000000000e+00 0.000000000000000e+00

0.000000000000000e+00 0.000000000000000e+00 0.000000000000000e+00
0.000000000000000e+00 0.000000000000000e+00 0.000000000000000e+00
0.000000000000000e+00 0.000000000000000e+00 0.000000000000000e+00

0.000000000000000e+00 0.000000000000000e+00 0.000000000000000e+00
0.000000000000000e+00 0.000000000000000e+00 0.000000000000000e+00
0.000000000000000e+00 0.000000000000000e+00 0.000000000000000e+00

0.000000000000000e+00 0.000000000000000e+00 0.000000000000000e+00
0.000000000000000e+00 0.000000000000000e+00 0.000000000000000e+00
0.000000000000000e+00 0.000000000000000e+00 0.000000000000000e+00

0.000000000000000e+00 0.000000000000000e+00 0.000000000000000e+00
0.000000000000000e+00 0.000000000000000e+00 0.000000000000000e+00
0.000000000000000e+00 0.000000000000000e+00 0.000000000000000e+00

0.000000000000000e+00 0.000000000000000e+00 0.000000000000000e+00
0.000000000000000e+00 0.000000000000000e+00 0.000000000000000e+00
0.000000000000000e+00 0.000000000000000e+00 0.000000000000000e+00

0.000000000000000e+00 0.000000000000000e+00 0.000000000000000e+00
0.000000000000000e+00 0.000000000000000e+00 0.000000000000000e+00
0.000000000000000e+00 0.000000000000000e+00 0.000000000000000e+00

0.000000000000000e+00 0.000000000000000e+00 0.000000000000000e+00
0.000000000000000e+00 0.000000000000000e+00 0.000000000000000e+00
0.000000000000000e+00 0.000000000000000e+00 0.000000000000000e+00

0.000000000000000e+00 0.000000000000000e+00 0.000000000000000e+00
0.000000000000000e+00 0.000000000000000e+00 0.000000000000000e+00
0.000000000000000e+00 0.000000000000000e+00 0.000000000000000e+00

0.000000000000000e+00 0.000000000000000e+00 0.000000000000000e+00
0.000000000000000e+00 0.000000000000000e+00 0.000000000000000e+00
0.000000000000000e+00 0.000000000000000e+00 0.000000000000000e+00

0.000000000000000e+00 0.000000000000000e+00 0.000000000000000e+00
0.000000000000000e+00 0.000000000000000e+00 0.000000000000000e+00
0.000000000000000e+00 0.000000000000000e+00 0.000000000000000e+00

0.000000000000000e+00 0.000000000000000e+00 0.000000000000000e+00
0.000000000000000e+00 0.000000000000000e+00 0.000000000000000e+00
0.000000000000000e+00 0.000000000000000e+00 0.000000000000000e+00

0.000000000000000e+00 0.000000000000000e+00 0.000000000000000e+00
0.000000000000000e+00 0.000000000000000e+00 0.000000000000000e+00
0.000000000000000e+00 0.000000000000000e+00 0.000000000000000e+00

0.000000000000000e+00 0.000000000000000e+00 0.000000000000000e+00
0.000000000000000e+00 0.000000000000000e+00 0.000000000000000e+00
0.000000000000000e+00 0.000000000000000e+00 0.000000000000000e+00

0.000000000000000e+00 0.000000000000000e+00 0.000000000000000e+00
0.000000000000000e+00 0.000000000000000e+00 0.000000000000000e+00
0.000000000000000e+00 0.000000000000000e+00 0.000000000000000e+00

0.000000000000000e+00 0.000000000000000e+00 0.000000000000000e+00
0.000000000000000e+00 0.000000000000000e+00 0.000000000000000e+00
0.000000000000000e+00 0.000000000000000e+00 0.000000000000000e+00

0.000000000000000e+00 0.000000000000000e+00 0.000000000000000e+00
0.000000000000000e+00 0.000000000000000e+00 0.000000000000000e+00
0.000000000000000e+00 0.000000000000000e+00 0.000000000000000e+00

0.000000000000000e+00 0.000000000000000e+00 0.000000000000000e+00
0.000000000000000e+00 0.000000000000000e+00 0.000000000000000e+00
0.000000000000000e+00 0.000000000000000e+00 0.000000000000000e+00

0.000000000000000e+00 0.000000000000000e+00 0.000000000000000e+00
0.000000000000000e+00 0.000000000000000e+00 0.000000000000000e+00
0.000000000000000e+00 0.000000000000000e+00 0.000000000000000e+00

0.000000000000000e+00 0.000000000000000e+00 0.000000000000000e+00
0.000000000000000e+00 0.000000000000000e+00 0.000000000000000e+00
0.000000000000000e+00 0.000000000000000e+00 0.000000000000000e+00

0.000000000000000e+00 0.000000000000000e+00 0.000000000000000e+00
0.000000000000000e+00 0.000000000000000e+00 0.000000000000000e+00
0.000000000000000e+00 0.000000000000000e+00 0.000000000000000e+00

0.000000000000000e+00 0.000000000000000e+00 0.000000000000000e+00
0.000000000000000e+00 0.000000000000000e+00 0.000000000000000e+00
0.000000000000000e+00 0.000000000000000e+00 0.000000000000000e+00

0.000000000000000e+00 0.000000000000000e+00 0.000000000000000e+00
0.000000000000000e+00 0.000000000000000e+00 0.000000000000000e+00
0.000000000000000e+00 0.000000000000000e+00 0.000000000000000e+00

0.000000000000000e+00 0.000000000000000e+00 0.000000000000000e+00
0.000000000000000e+00 0.000000000000000e+00 0.000000000000000e+00
0.000000000000000e+00 0.000000000000000e+00 0.000000000000000e+00

0.000000000000000e+00 0.000000000000000e+00 0.000000000000000e+00
0.000000000000000e+00 0.000000000000000e+00 0.000000000000000e+00
0.000000000000000e+00 0.000000000000000e+00 0.000000000000000e+00

0.000000000000000e+00 0.000000000000000e+00 0.000000000000000e+00
0.000000000000000e+00 0.000000000000000e+00 0.000000000000000e+00
0.000000000000000e+00 0.000000000000000e+00 0.000000000000000e+00

0.000000000000000e+00 0.000000000000000e+00 0.000000000000000e+00
0.000000000000000e+00 0.000000000000000e+00 0.000000000000000e+00
0.000000000000000e+00 0.000000000000000e+00 0.000000000000000e+00

0.000000000000000e+00 0.000000000000000e+00 0.000000000000000e+00
0.000000000000000e+00 0.000000000000000e+00 0.000000000000000e+00
0.000000000000000e+00 0.000000000000000e+00 0.000000000000000e+00

0.000000000000000e+00 0.000000000000000e+00 0.000000000000000e+00
0.000000000000000e+00 0.000000000000000e+00 0.000000000000000e+00
0.000000000000000e+00 0.000000000000000e+00 0.000000000000000e+00

0.000000000000000e+00 0.000000000000000e+00 0.000000000000000e+00
0.000000000000000e+00 0.000000000000000e+00 0.000000000000000e+00
0.000000000000000e+00 0.000000000000000e+00 0.000000000000000e+00

0.000000000000000e+00 0.000000000000000e+00 0.000000000000000e+00
0.000000000000000e+00 0.000000000000000e+00 0.000000000000000e+00
0.000000000000000e+00 0.000000000000000e+00 0.000000000000000e+00

0.000000000000000e+00 0.000000000000000e+00 0.000000000000000e+00
0.000000000000000e+00 0.000000000000000e+00 0.000000000000000e+00
0.000000000000000e+00 0.000000000000000e+00 0.000000000000000e+00

0.000000000000000e+00 0.000000000000000e+00 0.000000000000000e+00
0.000000000000000e+00 0.000000000000000e+00 0.000000000000000e+00
0.000000000000000e+00 0.000000000000000e+00 0.000000000000000e+00

0.000000000000000e+00 0.000000000000000e+00 0.000000000000000e+00
0.000000000000000e+00 0.000000000000000e+00 0.000000000000000e+00
0.000000000000000e+00 0.000000000000000e+00 0.000000000000000e+00

0.000000000000000e+00 0.000000000000000e+00 0.000000000000000e+00
0.000000000000000e+00 0.000000000000000e+00 0.000000000000000e+00
0.000000000000000e+00 0.000000000000000e+00 0.000000000000000e+00

0.000000000000000e+00 0.000000000000000e+00 0.000000000000000e+00
0.000000000000000e+00 0.000000000000000e+00 0.000000000000000e+00
0.000000000000000e+00 0.000000000000000e+00 0.000000000000000e+00

0.000000000000000e+00 0.000000000000000e+00 0.000000000000000e+00
0.000000000000000e+00 0.000000000000000e+00 0.000000000000000e+00
0.000000000000000e+00 0.000000000000000e+00 0.000000000000000e+00

0.000000000000000e+00 0.000000000000000e+00 0.000000000000000e+00
0.000000000000000e+00 0.000000000000000e+00 0.000000000000000e+00
0.000000000000000e+00 0.000000000000000e+00 0.000000000000000e+00

0.000000000000000e+00 0.000000000000000e+00 0.000000000000000e+00
0.000000000000000e+00 0.000000000000000e+00 0.000000000000000e+00
0.000000000000000e+00 0.000000000000000e+00 0.000000000000000e+00

0.000000000000000e+00 0.000000000000000e+00 0.000000000000000e+00
0.000000000000000e+00 0.000000000000000e+00 0.000000000000000e+00
0.000000000000000e+00 0.000000000000000e+00 0.000000000000000e+00

0.000000000000000e+00 0.000000000000000e+00 0.000000000000000e+00
0.000000000000000e+00 0.000000000000000e+00 0.000000000000000e+00
0.000000000000000e+00 0.000000000000000e+00 0.000000000000000e+00

0.000000000000000e+00 0.000000000000000e+00 0.000000000000000e+00
0.000000000000000e+00 0.000000000000000e+00 0.000000000000000e+00
0.000000000000000e+00 0.000000000000000e+00 0.000000000000000e+00

0.000000000000000e+00 0.000000000000000e+00 0.000000000000000e+00
0.000000000000000e+00 0.000000000000000e+00 0.000000000000000e+00
0.000000000000000e+00 0.000000000000000e+00 0.000000000000000e+00

0.000000000000000e+00 0.000000000000000e+00 0.000000000000000e+00
0.000000000000000e+00 0.000000000000000e+00 0.000000000000000e+00
0.000000000000000e+00 0.000000000000000e+00 0.000000000000000e+00

0.000000000000000e+00 0.000000000000000e+00 0.000000000000000e+00
0.000000000000000e+00 0.000000000000000e+00 0.000000000000000e+00
0.000000000000000e+00 0.000000000000000e+00 0.000000000000000e+00

0.000000000000000e+00 0.000000000000000e+00 0.000000000000000e+00
0.000000000000000e+00 0.000000000000000e+00 0.000000000000000e+00
0.000000000000000e+00 0.000000000000000e+00 0.000000000000000e+00

0.000000000000000e+00 0.000000000000000e+00 0.000000000000000e+00
0.000000000000000e+00 0.000000000000000e+00 0.000000000000000e+00
0.000000000000000e+00 0.000000000000000e+00 0.000000000000000e+00

0.000000000000000e+00 0.000000000000000e+00 0.000000000000000e+00
0.000000000000000e+00 0.000000000000000e+00 0.000000000000000e+00
0.000000000000000e+00 0.000000000000000e+00 0.000000000000000e+00

0.000000000000000e+00 0.000000000000000e+00 0.000000000000000e+00
0.000000000000000e+00 0.000000000000000e+00 0.000000000000000e+00
0.000000000000000e+00 0.000000000000000e+00 0.000000000000000e+00

0.000000000000000e+00 0.000000000000000e+00 0.000000000000000e+00
0.000000000000000e+00 0.000000000000000e+00 0.000000000000000e+00
0.000000000000000e+00 0.000000000000000e+00 0.000000000000000e+00

0.000000000000000e+00 0.000000000000000e+00 0.000000000000000e+00
0.000000000000000e+00 0.000000000000000e+00 0.000000000000000e+00
0.000000000000000e+00 0.000000000000000e+00 0.000000000000000e+00

0.000000000000000e+00 0.000000000000000e+00 0.000000000000000e+00
0.000000000000000e+00 0.000000000000000e+00 0.000000000000000e+00
0.000000000000000e+00 0.000000000000000e+00 0.000000000000000e+00

0.000000000000000e+00 0.000000000000000e+00 0.000000000000000e+00
0.000000000000000e+00 0.000000000000000e+00 0.000000000000000e+00
0.000000000000000e+00 0.000000000000000e+00 0.000000000000000e+00

0.000000000000000e+00 0.000000000000000e+00 0.000000000000000e+00
0.000000000000000e+00 0.000000000000000e+00 0.000000000000000e+00
0.000000000000000e+00 0.000000000000000e+00 0.000000000000000e+00

0.000000000000000e+00 0.000000000000000e+00 0.000000000000000e+00
0.000000000000000e+00 0.000000000000000e+00 0.000000000000000e+00
0.000000000000000e+00 0.000000000000000e+00 0.000000000000000e+00

0.000000000000000e+00 0.000000000000000e+00 0.000000000000000e+00
0.000000000000000e+00 0.000000000000000e+00 0.000000000000000e+00
0.000000000000000e+00 0.000000000000000e+00 0.000000000000000e+00

0.000000000000000e+00 0.000000000000000e+00 0.000000000000000e+00
0.000000000000000e+00 0.000000000000000e+00 0.000000000000000e+00
0.000000000000000e+00 0.000000000000000e+00 0.000000000000000e+00

0.000000000000000e+00 0.000000000000000e+00 0.000000000000000e+00
0.000000000000000e+00 0.000000000000000e+00 0.000000000000000e+00
0.000000000000000e+00 0.000000000000000e+00 0.000000000000000e+00

0.000000000000000e+00 0.000000000000000e+00 0.000000000000000e+00
0.000000000000000e+00 0.000000000000000e+00 0.000000000000000e+00
0.000000000000000e+00 0.000000000000000e+00 0.000000000000000e+00

0.000000000000000e+00 0.000000000000000e+00 0.000000000000000e+00
0.000000000000000e+00 0.000000000000000e+00 0.000000000000000e+00
0.000000000000000e+00 0.000000000000000e+00 0.000000000000000e+00

0.000000000000000e+00 0.000000000000000e+00 0.000000000000000e+00
0.000000000000000e+00 0.000000000000000e+00 0.000000000000000e+00
0.000000000000000e+00 0.000000000000000e+00 0.000000000000000e+00

0.000000000000000e+00 0.000000000000000e+00 0.000000000000000e+00
0.000000000000000e+00 0.000000000000000e+00 0.000000000000000e+00
0.000000000000000e+00 0.000000000000000e+00 0.000000000000000e+00

0.000000000000000e+00 0.000000000000000e+00 0.000000000000000e+00
0.000000000000000e+00 0.000000000000000e+00 0.000000000000000e+00
0.000000000000000e+00 0.000000000000000e+00 0.000000000000000e+00

0.000000000000000e+00 0.000000000000000e+00 0.000000000000000e+00
0.000000000000000e+00 0.000000000000000e+00 0.000000000000000e+00
0.000000000000000e+00 0.000000000000000e+00 0.000000000000000e+00

0.000000000000000e+00 0.000000000000000e+00 0.000000000000000e+00
0.000000000000000e+00 0.000000000000000e+00 0.000000000000000e+00
0.000000000000000e+00 0.000000000000000e+00 0.000000000000000e+00

0.000000000000000e+00 0.000000000000000e+00 0.000000000000000e+00
0.000000000000000e+00 0.000000000000000e+00 0.000000000000000e+00
0.000000000000000e+00 0.000000000000000e+00 0.000000000000000e+00

0.000000000000000e+00 0.000000000000000e+00 0.000000000000000e+00
0.000000000000000e+00 0.000000000000000e+00 0.000000000000000e+00
0.000000000000000e+00 0.000000000000000e+00 0.000000000000000e+00

0.000000000000000e+00 0.000000000000000e+00 0.000000000000000e+00
0.000000000000000e+00 0.000000000000000e+00 0.000000000000000e+00
0.000000000000000e+00 0.000000000000000e+00 0.000000000000000e+00

0.000000000000000e+00 0.000000000000000e+00 0.000000000000000e+00
0.000000000000000e+00 0.000000000000000e+00 0.000000000000000e+00
0.000000000000000e+00 0.000000000000000e+00 0.000000000000000e+00

0.000000000000000e+00 0.000000000000000e+00 0.000000000000000e+00
0.000000000000000e+00 0.000000000000000e+00 0.000000000000000e+00
0.000000000000000e+00 0.000000000000000e+00 0.000000000000000e+00

0.000000000000000e+00 0.000000000000000e+00 0.000000000000000e+00
0.000000000000000e+00 0.000000000000000e+00 0.000000000000000e+00
0.000000000000000e+00 0.000000000000000e+00 0.000000000000000e+00

0.000000000000000e+00 0.000000000000000e+00 0.000000000000000e+00
0.000000000000000e+00 0.000000000000000e+00 0.000000000000000e+00
0.000000000000000e+00 0.000000000000000e+00 0.000000000000000e+00

0.000000000000000e+00 0.000000000000000e+00 0.000000000000000e+00
0.000000000000000e+00 0.000000000000000e+00 0.000000000000000e+00
0.000000000000000e+00 0.000000000000000e+00 0.000000000000000e+00

0.000000000000000e+00 0.000000000000000e+00 0.000000000000000e+00
0.000000000000000e+00 0.000000000000000e+00 0.000000000000000e+00
0.000000000000000e+00 0.000000000000000e+00 0.000000000000000e+00

0.000000000000000e+00 0.000000000000000e+00 0.000000000000000e+00
0.000000000000000e+00 0.000000000000000e+00 0.000000000000000e+00
0.000000000000000e+00 0.000000000000000e+00 0.000000000000000e+00

0.000000000000000e+00 0.000000000000000e+00 0.000000000000000e+00
0.000000000000000e+00 0.000000000000000e+00 0.000000000000000e+00
0.000000000000000e+00 0.000000000000000e+00 0.000000000000000e+00

0.000000000000000e+00 0.000000000000000e+00 0.000000000000000e+00
0.000000000000000e+00 0.000000000000000e+00 0.000000000000000e+00
0.000000000000000e+00 0.000000000000000e+00 0.000000000000000e+00

0.000000000000000e+00 0.000000000000000e+00 0.000000000000000e+00
0.000000000000000e+00 0.000000000000000e+00 0.000000000000000e+00
0.000000000000000e+00 0.000000000000000e+00 0.000000000000000e+00

0.000000000000000e+00 0.000000000000000e+00 0.000000000000000e+00
0.000000000000000e+00 0.000000000000000e+00 0.000000000000000e+00
0.000000000000000e+00 0.000000000000000e+00 0.000000000000000e+00

0.000000000000000e+00 0.000000000000000e+00 0.000000000000000e+00
0.000000000000000e+00 0.000000000000000e+00 0.000000000000000e+00
0.000000000000000e+00 0.000000000000000e+00 0.000000000000000e+00

0.000000000000000e+00 0.000000000000000e+00 0.000000000000000e+00
0.000000000000000e+00 0.000000000000000e+00 0.000000000000000e+00
0.000000000000000e+00 0.000000000000000e+00 0.000000000000000e+00

0.000000000000000e+00 0.000000000000000e+00 0.000000000000000e+00
0.000000000000000e+00 0.000000000000000e+00 0.000000000000000e+00
0.000000000000000e+00 0.000000000000000e+00 0.000000000000000e+00

0.000000000000000e+00 0.000000000000000e+00 0.000000000000000e+00
0.000000000000000e+00 0.000000000000000e+00 0.000000000000000e+00
0.000000000000000e+00 0.000000000000000e+00 0.000000000000000e+00

0.000000000000000e+00 0.000000000000000e+00 0.000000000000000e+00
0.000000000000000e+00 0.000000000000000e+00 0.000000000000000e+00
0.000000000000000e+00 0.000000000000000e+00 0.000000000000000e+00

0.000000000000000e+00 0.000000000000000e+00 0.000000000000000e+00
0.000000000000000e+00 0.000000000000000e+00 0.000000000000000e+00
0.000000000000000e+00 0.000000000000000e+00 0.000000000000000e+00

0.000000000000000e+00 0.000000000000000e+00 0.000000000000000e+00
0.000000000000000e+00 0.000000000000000e+00 0.000000000000000e+00
0.000000000000000e+00 0.000000000000000e+00 0.000000000000000e+00

0.000000000000000e+00 0.000000000000000e+00 0.000000000000000e+00
0.000000000000000e+00 0.000000000000000e+00 0.000000000000000e+00
0.000000000000000e+00 0.000000000000000e+00 0.000000000000000e+00

0.000000000000000e+00 0.000000000000000e+00 0.000000000000000e+00
0.000000000000000e+00 0.000000000000000e+00 0.000000000000000e+00
0.000000000000000e+00 0.000000000000000e+00 0.000000000000000e+00

0.000000000000000e+00 0.000000000000000e+00 0.000000000000000e+00
0.000000000000000e+00 0.000000000000000e+00 0.000000000000000e+00
0.000000000000000e+00 0.000000000000000e+00 0.000000000000000e+00

0.000000000000000e+00 0.000000000000000e+00 0.000000000000000e+00
0.000000000000000e+00 0.000000000000000e+00 0.000000000000000e+00
0.000000000000000e+00 0.000000000000000e+00 0.000000000000000e+00

0.000000000000000e+00 0.000000000000000e+00 0.000000000000000e+00
0.000000000000000e+00 0.000000000000000e+00 0.000000000000000e+00
0.000000000000000e+00 0.000000000000000e+00 0.000000000000000e+00

0.000000000000000e+00 0.000000000000000e+00 0.000000000000000e+00
0.000000000000000e+00 0.000000000000000e+00 0.000000000000000e+00
0.000000000000000e+00 0.000000000000000e+00 0.000000000000000e+00

0.000000000000000e+00 0.000000000000000e+00 0.000000000000000e+00
0.000000000000000e+00 0.000000000000000e+00 0.000000000000000e+00
0.000000000000000e+00 0.000000000000000e+00 0.000000000000000e+00

0.000000000000000e+00 0.000000000000000e+00 0.000000000000000e+00
0.000000000000000e+00 0.000000000000000e+00 0.000000000000000e+00
0.000000000000000e+00 0.000000000000000e+00 0.000000000000000e+00

0.000000000000000e+00 0.000000000000000e+00 0.000000000000000e+00
0.000000000000000e+00 0.000000000000000e+00 0.000000000000000e+00
0.000000000000000e+00 0.000000000000000e+00 0.000000000000000e+00

0.000000000000000e+00 0.000000000000000e+00 0.000000000000000e+00
0.000000000000000e+00 0.000000000000000e+00 0.000000000000000e+00
0.000000000000000e+00 0.000000000000000e+00 0.000000000000000e+00

0.000000000000000e+00 0.000000000000000e+00 0.000000000000000e+00
0.000000000000000e+00 0.000000000000000e+00 0.000000000000000e+00
0.000000000000000e+00 0.000000000000000e+00 0.000000000000000e+00

0.000000000000000e+00 0.000000000000000e+00 0.000000000000000e+00
0.000000000000000e+00 0.000000000000000e+00 0.000000000000000e+00
0.000000000000000e+00 0.000000000000000e+00 0.000000000000000e+00

0.000000000000000e+00 0.000000000000000e+00 0.000000000000000e+00
0.000000000000000e+00 0.000000000000000e+00 0.000000000000000e+00
0.000000000000000e+00 0.000000000000000e+00 0.000000000000000e+00

0.000000000000000e+00 0.000000000000000e+00 0.000000000000000e+00
0.000000000000000e+00 0.000000000000000e+00 0.000000000000000e+00
0.000000000000000e+00 0.000000000000000e+00 0.000000000000000e+00

0.000000000000000e+00 0.000000000000000e+00 0.000000000000000e+00
0.000000000000000e+00 0.000000000000000e+00 0.000000000000000e+00
0.000000000000000e+00 0.000000000000000e+00 0.000000000000000e+00

0.000000000000000e+00 0.000000000000000e+00 0.000000000000000e+00
0.000000000000000e+00 0.000000000000000e+00 0.000000000000000e+00
0.000000000000000e+00 0.000000000000000e+00 0.000000000000000e+00

0.000000000000000e+00 0.000000000000000e+00 0.000000000000000e+00
0.000000000000000e+00 0.000000000000000e+00 0.000000000000000e+00
0.000000000000000e+00 0.000000000000000e+00 0.000000000000000e+00

0.000000000000000e+00 0.000000000000000e+00 0.000000000000000e+00
0.000000000000000e+00 0.000000000000000e+00 0.000000000000000e+00
0.000000000000000e+00 0.000000000000000e+00 0.000000000000000e+00

0.000000000000000e+00 0.000000000000000e+00 0.000000000000000e+00
0.000000000000000e+00 0.000000000000000e+00 0.000000000000000e+00
0.000000000000000e+00 0.000000000000000e+00 0.000000000000000e+00

0.000000000000000e+00 0.000000000000000e+00 0.000000000000000e+00
0.000000000000000e+00 0.000000000000000e+00 0.000000000000000e+00
0.000000000000000e+00 0.000000000000000e+00 0.000000000000000e+00

0.000000000000000e+00 0.000000000000000e+00 0.000000000000000e+00
0.000000000000000e+00 0.000000000000000e+00 0.000000000000000e+00
0.000000000000000e+00 0.000000000000000e+00 0.000000000000000e+00

0.000000000000000e+00 0.000000000000000e+00 0.000000000000000e+00
0.000000000000000e+00 0.000000000000000e+00 0.000000000000000e+00
0.000000000000000e+00 0.000000000000000e+00 0.000000000000000e+00

0.000000000000000e+00 0.000000000000000e+00 0.000000000000000e+00
0.000000000000000e+00 0.000000000000000e+00 0.000000000000000e+00
0.000000000000000e+00 0.000000000000000e+00 0.000000000000000e+00

0.000000000000000e+00 0.000000000000000e+00 0.000000000000000e+00
0.000000000000000e+00 0.000000000000000e+00 0.000000000000000e+00
0.000000000000000e+00 0.000000000000000e+00 0.000000000000000e+00

0.000000000000000e+00 0.000000000000000e+00 0.000000000000000e+00
0.000000000000000e+00 0.000000000000000e+00 0.000000000000000e+00
0.000000000000000e+00 0.000000000000000e+00 0.000000000000000e+00

0.000000000000000e+00 0.000000000000000e+00 0.000000000000000e+00
0.000000000000000e+00 0.000000000000000e+00 0.000000000000000e+00
0.000000000000000e+00 0.000000000000000e+00 0.000000000000000e+00

0.000000000000000e+00 0.000000000000000e+00 0.000000000000000e+00
0.000000000000000e+00 0.000000000000000e+00 0.000000000000000e+00
0.000000000000000e+00 0.000000000000000e+00 0.000000000000000e+00

0.000000000000000e+00 0.000000000000000e+00 0.000000000000000e+00
0.000000000000000e+00 0.000000000000000e+00 0.000000000000000e+00
0.000000000000000e+00 0.000000000000000e+00 0.000000000000000e+00

0.000000000000000e+00 0.000000000000000e+00 0.000000000000000e+00
0.000000000000000e+00 0.000000000000000e+00 0.000000000000000e+00
0.000000000000000e+00 0.000000000000000e+00 0.000000000000000e+00

0.000000000000000e+00 0.000000000000000e+00 0.000000000000000e+00
0.000000000000000e+00 0.000000000000000e+00 0.000000000000000e+00
0.000000000000000e+00 0.000000000000000e+00 0.000000000000000e+00

0.000000000000000e+00 0.000000000000000e+00 0.000000000000000e+00
0.000000000000000e+00 0.000000000000000e+00 0.000000000000000e+00
0.000000000000000e+00 0.000000000000000e+00 0.000000000000000e+00

0.000000000000000e+00 0.000000000000000e+00 0.000000000000000e+00
0.000000000000000e+00 0.000000000000000e+00 0.000000000000000e+00
0.000000000000000e+00 0.000000000000000e+00 0.000000000000000e+00

0.000000000000000e+00 0.000000000000000e+00 0.000000000000000e+00
0.000000000000000e+00 0.000000000000000e+00 0.000000000000000e+00
0.000000000000000e+00 0.000000000000000e+00 0.000000000000000e+00

0.000000000000000e+00 0.000000000000000e+00 0.000000000000000e+00
0.000000000000000e+00 0.000000000000000e+00 0.000000000000000e+00
0.000000000000000e+00 0.000000000000000e+00 0.000000000000000e+00

0.000000000000000e+00 0.000000000000000e+00 0.000000000000000e+00
0.000000000000000e+00 0.000000000000000e+00 0.000000000000000e+00
0.000000000000000e+00 0.000000000000000e+00 0.000000000000000e+00

0.000000000000000e+00 0.000000000000000e+00 0.000000000000000e+00
0.000000000000000e+00 0.000000000000000e+00 0.000000000000000e+00
0.000000000000000e+00 0.000000000000000e+00 0.000000000000000e+00

0.000000000000000e+00 0.000000000000000e+00 0.000000000000000e+00
0.000000000000000e+00 0.000000000000000e+00 0.000000000000000e+00
0.000000000000000e+00 0.000000000000000e+00 0.000000000000000e+00

0.000000000000000e+00 0.000000000000000e+00 0.000000000000000e+00
0.000000000000000e+00 0.000000000000000e+00 0.000000000000000e+00
0.000000000000000e+00 0.000000000000000e+00 0.000000000000000e+00

0.000000000000000e+00 0.000000000000000e+00 0.000000000000000e+00
0.000000000000000e+00 0.000000000000000e+00 0.000000000000000e+00
0.000000000000000e+00 0.000000000000000e+00 0.000000000000000e+00

0.000000000000000e+00 0.000000000000000e+00 0.000000000000000e+00
0.000000000000000e+00 0.000000000000000e+00 0.000000000000000e+00
0.000000000000000e+00 0.000000000000000e+00 0.000000000000000e+00

0.000000000000000e+00 0.000000000000000e+00 0.000000000000000e+00
0.000000000000000e+00 0.000000000000000e+00 0.000000000000000e+00
0.000000000000000e+00 0.000000000000000e+00 0.000000000000000e+00

0.000000000000000e+00 0.000000000000000e+00 0.000000000000000e+00
0.000000000000000e+00 0.000000000000000e+00 0.000000000000000e+00
0.000000000000000e+00 0.000000000000000e+00 0.000000000000000e+00

0.000000000000000e+00 0.000000000000000e+00 0.000000000000000e+00
0.000000000000000e+00 0.000000000000000e+00 0.000000000000000e+00
0.000000000000000e+00 0.000000000000000e+00 0.000000000000000e+00

0.000000000000000e+00 0.000000000000000e+00 0.000000000000000e+00
0.000000000000000e+00 0.000000000000000e+00 0.000000000000000e+00
0.000000000000000e+00 0.000000000000000e+00 0.000000000000000e+00

0.000000000000000e+00 0.000000000000000e+00 0.000000000000000e+00
0.000000000000000e+00 0.000000000000000e+00 0.000000000000000e+00
0.000000000000000e+00 0.000000000000000e+00 0.000000000000000e+00

0.000000000000000e+00 0.000000000000000e+00 0.000000000000000e+00
0.000000000000000e+00 0.000000000000000e+00 0.000000000000000e+00
0.000000000000000e+00 0.000000000000000e+00 0.000000000000000e+00

0.000000000000000e+00 0.000000000000000e+00 0.000000000000000e+00
0.000000000000000e+00 0.000000000000000e+00 0.000000000000000e+00
0.000000000000000e+00 0.000000000000000e+00 0.000000000000000e+00

0.000000000000000e+00 0.000000000000000e+00 0.000000000000000e+00
0.000000000000000e+00 0.000000000000000e+00 0.000000000000000e+00
0.000000000000000e+00 0.000000000000000e+00 0.000000000000000e+00

0.000000000000000e+00 0.000000000000000e+00 0.000000000000000e+00
0.000000000000000e+00 0.000000000000000e+00 0.000000000000000e+00
0.000000000000000e+00 0.000000000000000e+00 0.000000000000000e+00

0.000000000000000e+00 0.000000000000000e+00 0.000000000000000e+00
0.000000000000000e+00 0.000000000000000e+00 0.000000000000000e+00
0.000000000000000e+00 0.000000000000000e+00 0.000000000000000e+00

0.000000000000000e+00 0.000000000000000e+00 0.000000000000000e+00
0.000000000000000e+00 0.000000000000000e+00 0.000000000000000e+00
0.000000000000000e+00 0.000000000000000e+00 0.000000000000000e+00

0.000000000000000e+00 0.000000000000000e+00 0.000000000000000e+00
0.000000000000000e+00 0.000000000000000e+00 0.000000000000000e+00
0.000000000000000e+00 0.000000000000000e+00 0.000000000000000e+00

0.000000000000000e+00 0.000000000000000e+00 0.000000000000000e+00
0.000000000000000e+00 0.000000000000000e+00 0.000000000000000e+00
0.000000000000000e+00 0.000000000000000e+00 0.000000000000000e+00

0.000000000000000e+00 0.000000000000000e+00 0.000000000000000e+00
0.000000000000000e+00 0.000000000000000e+00 0.000000000000000e+00
0.000000000000000e+00 0.000000000000000e+00 0.000000000000000e+00

0.000000000000000e+00 0.000000000000000e+00 0.000000000000000e+00
0.000000000000000e+00 0.000000000000000e+00 0.000000000000000e+00
0.000000000000000e+00 0.000000000000000e+00 0.000000000000000e+00

0.000000000000000e+00 0.000000000000000e+00 0.000000000000000e+00
0.000000000000000e+00 0.000000000000000e+00 0.000000000000000e+00
0.000000000000000e+00 0.000000000000000e+00 0.000000000000000e+00

0.000000000000000e+00 0.000000000000000e+00 0.000000000000000e+00
0.000000000000000e+00 0.000000000000000e+00 0.000000000000000e+00
0.000000000000000e+00 0.000000000000000e+00 0.000000000000000e+00

0.000000000000000e+00 0.000000000000000e+00 0.000000000000000e+00
0.000000000000000e+00 0.000000000000000e+00 0.000000000000000e+00
0.000000000000000e+00 0.000000000000000e+00 0.000000000000000e+00

0.000000000000000e+00 0.000000000000000e+00 0.000000000000000e+00
0.000000000000000e+00 0.000000000000000e+00 0.000000000000000e+00
0.000000000000000e+00 0.000000000000000e+00 0.000000000000000e+00

0.000000000000000e+00 0.000000000000000e+00 0.000000000000000e+00
0.000000000000000e+00 0.000000000000000e+00 0.000000000000000e+00
0.000000000000000e+00 0.000000000000000e+00 0.000000000000000e+00

0.000000000000000e+00 0.000000000000000e+00 0.000000000000000e+00
0.000000000000000e+00 0.000000000000000e+00 0.000000000000000e+00
0.000000000000000e+00 0.000000000000000e+00 0.000000000000000e+00

0.000000000000000e+00 0.000000000000000e+00 0.000000000000000e+00
0.000000000000000e+00 0.000000000000000e+00 0.000000000000000e+00
0.000000000000000e+00 0.000000000000000e+00 0.000000000000000e+00

0.000000000000000e+00 0.000000000000000e+00 0.000000000000000e+00
0.000000000000000e+00 0.000000000000000e+00 0.000000000000000e+00
0.000000000000000e+00 0.000000000000000e+00 0.000000000000000e+00

0.000000000000000e+00 0.000000000000000e+00 0.000000000000000e+00
0.000000000000000e+00 0.000000000000000e+00 0.000000000000000e+00
0.000000000000000e+00 0.000000000000000e+00 0.000000000000000e+00

0.000000000000000e+00 0.000000000000000e+00 0.000000000000000e+00
0.000000000000000e+00 0.000000000000000e+00 0.000000000000000e+00
0.000000000000000e+00 0.000000000000000e+00 0.000000000000000e+00

0.000000000000000e+00 0.000000000000000e+00 0.000000000000000e+00
0.000000000000000e+00 0.000000000000000e+00 0.000000000000000e+00
0.000000000000000e+00 0.000000000000000e+00 0.000000000000000e+00

0.000000000000000e+00 0.000000000000000e+00 0.000000000000000e+00
0.000000000000000e+00 0.000000000000000e+00 0.000000000000000e+00
0.000000000000000e+00 0.000000000000000e+00 0.000000000000000e+00

0.000000000000000e+00 0.000000000000000e+00 0.000000000000000e+00
0.000000000000000e+00 0.000000000000000e+00 0.000000000000000e+00
0.000000000000000e+00 0.000000000000000e+00 0.000000000000000e+00

0.000000000000000e+00 0.000000000000000e+00 0.000000000000000e+00
0.000000000000000e+00 0.000000000000000e+00 0.000000000000000e+00
0.000000000000000e+00 0.000000000000000e+00 0.000000000000000e+00

0.000000000000000e+00 0.000000000000000e+00 0.000000000000000e+00
0.000000000000000e+00 0.000000000000000e+00 0.000000000000000e+00
0.000000000000000e+00 0.000000000000000e+00 0.000000000000000e+00

0.000000000000000e+00 0.000000000000000e+00 0.000000000000000e+00
0.000000000000000e+00 0.000000000000000e+00 0.000000000000000e+00
0.000000000000000e+00 0.000000000000000e+00 0.000000000000000e+00

0.000000000000000e+00 0.000000000000000e+00 0.000000000000000e+00
0.000000000000000e+00 0.000000000000000e+00 0.000000000000000e+00
0.000000000000000e+00 0.000000000000000e+00 0.000000000000000e+00

0.000000000000000e+00 0.000000000000000e+00 0.000000000000000e+00
0.000000000000000e+00 0.000000000000000e+00 0.000000000000000e+00
0.000000000000000e+00 0.000000000000000e+00 0.000000000000000e+00

0.000000000000000e+00 0.000000000000000e+00 0.000000000000000e+00
0.000000000000000e+00 0.000000000000000e+00 0.000000000000000e+00
0.000000000000000e+00 0.000000000000000e+00 0.000000000000000e+00

0.000000000000000e+00 0.000000000000000e+00 0.000000000000000e+00
0.000000000000000e+00 0.000000000000000e+00 0.000000000000000e+00
0.000000000000000e+00 0.000000000000000e+00 0.000000000000000e+00

0.000000000000000e+00 0.000000000000000e+00 0.000000000000000e+00
0.000000000000000e+00 0.000000000000000e+00 0.000000000000000e+00
0.000000000000000e+00 0.000000000000000e+00 0.000000000000000e+00

0.000000000000000e+00 0.000000000000000e+00 0.000000000000000e+00
0.000000000000000e+00 0.000000000000000e+00 0.000000000000000e+00
0.000000000000000e+00 0.000000000000000e+00 0.000000000000000e+00

0.000000000000000e+00 0.000000000000000e+00 0.000000000000000e+00
0.000000000000000e+00 0.000000000000000e+00 0.000000000000000e+00
0.000000000000000e+00 0.000000000000000e+00 0.000000000000000e+00

0.000000000000000e+00 0.000000000000000e+00 0.000000000000000e+00
0.000000000000000e+00 0.000000000000000e+00 0.000000000000000e+00
0.000000000000000e+00 0.000000000000000e+00 0.000000000000000e+00

0.000000000000000e+00 0.000000000000000e+00 0.000000000000000e+00
0.000000000000000e+00 0.000000000000000e+00 0.000000000000000e+00
0.000000000000000e+00 0.000000000000000e+00 0.000000000000000e+00

0.000000000000000e+00 0.000000000000000e+00 0.000000000000000e+00
0.000000000000000e+00 0.000000000000000e+00 0.000000000000000e+00
0.000000000000000e+00 0.000000000000000e+00 0.000000000000000e+00

0.000000000000000e+00 0.000000000000000e+00 0.000000000000000e+00
0.000000000000000e+00 0.000000000000000e+00 0.000000000000000e+00
0.000000000000000e+00 0.000000000000000e+00 0.000000000000000e+00

0.000000000000000e+00 0.000000000000000e+00 0.000000000000000e+00
0.000000000000000e+00 0.000000000000000e+00 0.000000000000000e+00
0.000000000000000e+00 0.000000000000000e+00 0.000000000000000e+00

0.000000000000000e+00 0.000000000000000e+00 0.000000000000000e+00
0.000000000000000e+00 0.000000000000000e+00 0.000000000000000e+00
0.000000000000000e+00 0.000000000000000e+00 0.000000000000000e+00

0.000000000000000e+00 0.000000000000000e+00 0.000000000000000e+00
0.000000000000000e+00 0.000000000000000e+00 0.000000000000000e+00
0.000000000000000e+00 0.000000000000000e+00 0.000000000000000e+00

0.000000000000000e+00 0.000000000000000e+00 0.000000000000000e+00
0.000000000000000e+00 0.000000000000000e+00 0.000000000000000e+00
0.000000000000000e+00 0.000000000000000e+00 0.000000000000000e+00

0.000000000000000e+00 0.000000000000000e+00 0.000000000000000e+00
0.000000000000000e+00 0.000000000000000e+00 0.000000000000000e+00
0.000000000000000e+00 0.000000000000000e+00 0.000000000000000e+00

0.000000000000000e+00 0.000000000000000e+00 0.000000000000000e+00
0.000000000000000e+00 0.000000000000000e+00 0.000000000000000e+00
0.000000000000000e+00 0.000000000000000e+00 0.000000000000000e+00

0.000000000000000e+00 0.000000000000000e+00 0.000000000000000e+00
0.000000000000000e+00 0.000000000000000e+00 0.000000000000000e+00
0.000000000000000e+00 0.000000000000000e+00 0.000000000000000e+00

0.000000000000000e+00 0.000000000000000e+00 0.000000000000000e+00
0.000000000000000e+00 0.000000000000000e+00 0.000000000000000e+00
0.000000000000000e+00 0.000000000000000e+00 0.000000000000000e+00

0.000000000000000e+00 0.000000000000000e+00 0.000000000000000e+00
0.000000000000000e+00 0.000000000000000e+00 0.000000000000000e+00
0.000000000000000e+00 0.000000000000000e+00 0.000000000000000e+00

0.000000000000000e+00 0.000000000000000e+00 0.000000000000000e+00
0.000000000000000e+00 0.000000000000000e+00 0.000000000000000e+00
0.000000000000000e+00 0.000000000000000e+00 0.000000000000000e+00

0.000000000000000e+00 0.000000000000000e+00 0.000000000000000e+00
0.000000000000000e+00 0.000000000000000e+00 0.000000000000000e+00
0.000000000000000e+00 0.000000000000000e+00 0.000000000000000e+00

0.000000000000000e+00 0.000000000000000e+00 0.000000000000000e+00
0.000000000000000e+00 0.000000000000000e+00 0.000000000000000e+00
0.000000000000000e+00 0.000000000000000e+00 0.000000000000000e+00

0.000000000000000e+00 0.000000000000000e+00 0.000000000000000e+00
0.000000000000000e+00 0.000000000000000e+00 0.000000000000000e+00
0.000000000000000e+00 0.000000000000000e+00 0.000000000000000e+00

0.000000000000000e+00 0.000000000000000e+00 0.000000000000000e+00
0.000000000000000e+00 0.000000000000000e+00 0.000000000000000e+00
0.000000000000000e+00 0.000000000000000e+00 0.000000000000000e+00

0.000000000000000e+00 0.000000000000000e+00 0.000000000000000e+00
0.000000000000000e+00 0.000000000000000e+00 0.000000000000000e+00
0.000000000000000e+00 0.000000000000000e+00 0.000000000000000e+00

0.000000000000000e+00 0.000000000000000e+00 0.000000000000000e+00
0.000000000000000e+00 0.000000000000000e+00 0.000000000000000e+00
0.000000000000000e+00 0.000000000000000e+00 0.000000000000000e+00

0.000000000000000e+00 0.000000000000000e+00 0.000000000000000e+00
0.000000000000000e+00 0.000000000000000e+00 0.000000000000000e+00
0.000000000000000e+00 0.000000000000000e+00 0.000000000000000e+00

0.000000000000000e+00 0.000000000000000e+00 0.000000000000000e+00
0.000000000000000e+00 0.000000000000000e+00 0.000000000000000e+00
0.000000000000000e+00 0.000000000000000e+00 0.000000000000000e+00

0.000000000000000e+00 0.000000000000000e+00 0.000000000000000e+00
0.000000000000000e+00 0.000000000000000e+00 0.000000000000000e+00
0.000000000000000e+00 0.000000000000000e+00 0.000000000000000e+00

0.000000000000000e+00 0.000000000000000e+00 0.000000000000000e+00
0.000000000000000e+00 0.000000000000000e+00 0.000000000000000e+00
0.000000000000000e+00 0.000000000000000e+00 0.000000000000000e+00

0.000000000000000e+00 0.000000000000000e+00 0.000000000000000e+00
0.000000000000000e+00 0.000000000000000e+00 0.000000000000000e+00
0.000000000000000e+00 0.000000000000000e+00 0.000000000000000e+00

0.000000000000000e+00 0.000000000000000e+00 0.000000000000000e+00
0.000000000000000e+00 0.000000000000000e+00 0.000000000000000e+00
0.000000000000000e+00 0.000000000000000e+00 0.000000000000000e+00

0.000000000000000e+00 0.000000000000000e+00 0.000000000000000e+00
0.000000000000000e+00 0.000000000000000e+00 0.000000000000000e+00
0.000000000000000e+00 0.000000000000000e+00 0.000000000000000e+00

0.000000000000000e+00 0.000000000000000e+00 0.000000000000000e+00
0.000000000000000e+00 0.000000000000000e+00 0.000000000000000e+00
0.000000000000000e+00 0.000000000000000e+00 0.000000000000000e+00

0.000000000000000e+00 0.000000000000000e+00 0.000000000000000e+00
0.000000000000000e+00 0.000000000000000e+00 0.000000000000000e+00
0.000000000000000e+00 0.000000000000000e+00 0.000000000000000e+00

0.000000000000000e+00 0.000000000000000e+00 0.000000000000000e+00
0.000000000000000e+00 0.000000000000000e+00 0.000000000000000e+00
0.000000000000000e+00 0.000000000000000e+00 0.000000000000000e+00

0.000000000000000e+00 0.000000000000000e+00 0.000000000000000e+00
0.000000000000000e+00 0.000000000000000e+00 0.000000000000000e+00
0.000000000000000e+00 0.000000000000000e+00 0.000000000000000e+00

0.000000000000000e+00 0.000000000000000e+00 0.000000000000000e+00
0.000000000000000e+00 0.000000000000000e+00 0.000000000000000e+00
0.000000000000000e+00 0.000000000000000e+00 0.000000000000000e+00

0.000000000000000e+00 0.000000000000000e+00 0.000000000000000e+00
0.000000000000000e+00 0.000000000000000e+00 0.000000000000000e+00
0.000000000000000e+00 0.000000000000000e+00 0.000000000000000e+00

0.000000000000000e+00 0.000000000000000e+00 0.000000000000000e+00
0.000000000000000e+00 0.000000000000000e+00 0.000000000000000e+00
0.000000000000000e+00 0.000000000000000e+00 0.000000000000000e+00

0.000000000000000e+00 0.000000000000000e+00 0.000000000000000e+00
0.000000000000000e+00 0.000000000000000e+00 0.000000000000000e+00
0.000000000000000e+00 0.000000000000000e+00 0.000000000000000e+00

0.000000000000000e+00 0.000000000000000e+00 0.000000000000000e+00
0.000000000000000e+00 0.000000000000000e+00 0.000000000000000e+00
0.000000000000000e+00 0.000000000000000e+00 0.000000000000000e+00

0.000000000000000e+00 0.000000000000000e+00 0.000000000000000e+00
0.000000000000000e+00 0.000000000000000e+00 0.000000000000000e+00
0.000000000000000e+00 0.000000000000000e+00 0.000000000000000e+00

0.000000000000000e+00 0.000000000000000e+00 0.000000000000000e+00
0.000000000000000e+00 0.000000000000000e+00 0.000000000000000e+00
0.000000000000000e+00 0.000000000000000e+00 0.000000000000000e+00

0.000000000000000e+00 0.000000000000000e+00 0.000000000000000e+00
0.000000000000000e+00 0.000000000000000e+00 0.000000000000000e+00
0.000000000000000e+00 0.000000000000000e+00 0.000000000000000e+00

0.000000000000000e+00 0.000000000000000e+00 0.000000000000000e+00
0.000000000000000e+00 0.000000000000000e+00 0.000000000000000e+00
0.000000000000000e+00 0.000000000000000e+00 0.000000000000000e+00

0.000000000000000e+00 0.000000000000000e+00 0.000000000000000e+00
0.000000000000000e+00 0.000000000000000e+00 0.000000000000000e+00
0.000000000000000e+00 0.000000000000000e+00 0.000000000000000e+00

0.000000000000000e+00 0.000000000000000e+00 0.000000000000000e+00
0.000000000000000e+00 0.000000000000000e+00 0.000000000000000e+00
0.000000000000000e+00 0.000000000000000e+00 0.000000000000000e+00

0.000000000000000e+00 0.000000000000000e+00 0.000000000000000e+00
0.000000000000000e+00 0.000000000000000e+00 0.000000000000000e+00
0.000000000000000e+00 0.000000000000000e+00 0.000000000000000e+00

0.000000000000000e+00 0.000000000000000e+00 0.000000000000000e+00
0.000000000000000e+00 0.000000000000000e+00 0.000000000000000e+00
0.000000000000000e+00 0.000000000000000e+00 0.000000000000000e+00

0.000000000000000e+00 0.000000000000000e+00 0.000000000000000e+00
0.000000000000000e+00 0.000000000000000e+00 0.000000000000000e+00
0.000000000000000e+00 0.000000000000000e+00 0.000000000000000e+00

0.000000000000000e+00 0.000000000000000e+00 0.000000000000000e+00
0.000000000000000e+00 0.000000000000000e+00 0.000000000000000e+00
0.000000000000000e+00 0.000000000000000e+00 0.000000000000000e+00

0.000000000000000e+00 0.000000000000000e+00 0.000000000000000e+00
0.000000000000000e+00 0.000000000000000e+00 0.000000000000000e+00
0.000000000000000e+00 0.000000000000000e+00 0.000000000000000e+00

0.000000000000000e+00 0.000000000000000e+00 0.000000000000000e+00
0.000000000000000e+00 0.000000000000000e+00 0.000000000000000e+00
0.000000000000000e+00 0.000000000000000e+00 0.000000000000000e+00

0.000000000000000e+00 0.000000000000000e+00 0.000000000000000e+00
0.000000000000000e+00 0.000000000000000e+00 0.000000000000000e+00
0.000000000000000e+00 0.000000000000000e+00 0.000000000000000e+00

0.000000000000000e+00 0.000000000000000e+00 0.000000000000000e+00
0.000000000000000e+00 0.000000000000000e+00 0.000000000000000e+00
0.000000000000000e+00 0.000000000000000e+00 0.000000000000000e+00

0.000000000000000e+00 0.000000000000000e+00 0.000000000000000e+00
0.000000000000000e+00 0.000000000000000e+00 0.000000000000000e+00
0.000000000000000e+00 0.000000000000000e+00 0.000000000000000e+00

0.000000000000000e+00 0.000000000000000e+00 0.000000000000000e+00
0.000000000000000e+00 0.000000000000000e+00 0.000000000000000e+00
0.000000000000000e+00 0.000000000000000e+00 0.000000000000000e+00

0.000000000000000e+00 0.000000000000000e+00 0.000000000000000e+00
0.000000000000000e+00 0.000000000000000e+00 0.000000000000000e+00
0.000000000000000e+00 0.000000000000000e+00 0.000000000000000e+00

0.000000000000000e+00 0.000000000000000e+00 0.000000000000000e+00
0.000000000000000e+00 0.000000000000000e+00 0.000000000000000e+00
0.000000000000000e+00 0.000000000000000e+00 0.000000000000000e+00

0.000000000000000e+00 0.000000000000000e+00 0.000000000000000e+00
0.000000000000000e+00 0.000000000000000e+00 0.000000000000000e+00
0.000000000000000e+00 0.000000000000000e+00 0.000000000000000e+00

0.000000000000000e+00 0.000000000000000e+00 0.000000000000000e+00
0.000000000000000e+00 0.000000000000000e+00 0.000000000000000e+00
0.000000000000000e+00 0.000000000000000e+00 0.000000000000000e+00

0.000000000000000e+00 0.000000000000000e+00 0.000000000000000e+00
0.000000000000000e+00 0.000000000000000e+00 0.000000000000000e+00
0.000000000000000e+00 0.000000000000000e+00 0.000000000000000e+00

0.000000000000000e+00 0.000000000000000e+00 0.000000000000000e+00
0.000000000000000e+00 0.000000000000000e+00 0.000000000000000e+00
0.000000000000000e+00 0.000000000000000e+00 0.000000000000000e+00

0.000000000000000e+00 0.000000000000000e+00 0.000000000000000e+00
0.000000000000000e+00 0.000000000000000e+00 0.000000000000000e+00
0.000000000000000e+00 0.000000000000000e+00 0.000000000000000e+00

0.000000000000000e+00 0.000000000000000e+00 0.000000000000000e+00
0.000000000000000e+00 0.000000000000000e+00 0.000000000000000e+00
0.000000000000000e+00 0.000000000000000e+00 0.000000000000000e+00

0.000000000000000e+00 0.000000000000000e+00 0.000000000000000e+00
0.000000000000000e+00 0.000000000000000e+00 0.000000000000000e+00
0.000000000000000e+00 0.000000000000000e+00 0.000000000000000e+00

0.000000000000000e+00 0.000000000000000e+00 0.000000000000000e+00
0.000000000000000e+00 0.000000000000000e+00 0.000000000000000e+00
0.000000000000000e+00 0.000000000000000e+00 0.000000000000000e+00

0.000000000000000e+00 0.000000000000000e+00 0.000000000000000e+00
0.000000000000000e+00 0.000000000000000e+00 0.000000000000000e+00
0.000000000000000e+00 0.000000000000000e+00 0.000000000000000e+00

0.000000000000000e+00 0.000000000000000e+00 0.000000000000000e+00
0.000000000000000e+00 0.000000000000000e+00 0.000000000000000e+00
0.000000000000000e+00 0.000000000000000e+00 0.000000000000000e+00

0.000000000000000e+00 0.000000000000000e+00 0.000000000000000e+00
0.000000000000000e+00 0.000000000000000e+00 0.000000000000000e+00
0.000000000000000e+00 0.000000000000000e+00 0.000000000000000e+00

0.000000000000000e+00 0.000000000000000e+00 0.000000000000000e+00
0.000000000000000e+00 0.000000000000000e+00 0.000000000000000e+00
0.000000000000000e+00 0.000000000000000e+00 0.000000000000000e+00

0.000000000000000e+00 0.000000000000000e+00 0.000000000000000e+00
0.000000000000000e+00 0.000000000000000e+00 0.000000000000000e+00
0.000000000000000e+00 0.000000000000000e+00 0.000000000000000e+00

0.000000000000000e+00 0.000000000000000e+00 0.000000000000000e+00
0.000000000000000e+00 0.000000000000000e+00 0.000000000000000e+00
0.000000000000000e+00 0.000000000000000e+00 0.000000000000000e+00

0.000000000000000e+00 0.000000000000000e+00 0.000000000000000e+00
0.000000000000000e+00 0.000000000000000e+00 0.000000000000000e+00
0.000000000000000e+00 0.000000000000000e+00 0.000000000000000e+00

0.000000000000000e+00 0.000000000000000e+00 0.000000000000000e+00
0.000000000000000e+00 0.000000000000000e+00 0.000000000000000e+00
0.000000000000000e+00 0.000000000000000e+00 0.000000000000000e+00

0.000000000000000e+00 0.000000000000000e+00 0.000000000000000e+00
0.000000000000000e+00 0.000000000000000e+00 0.000000000000000e+00
0.000000000000000e+00 0.000000000000000e+00 0.000000000000000e+00

0.000000000000000e+00 0.000000000000000e+00 0.000000000000000e+00
0.000000000000000e+00 0.000000000000000e+00 0.000000000000000e+00
0.000000000000000e+00 0.000000000000000e+00 0.000000000000000e+00

0.000000000000000e+00 0.000000000000000e+00 0.000000000000000e+00
0.000000000000000e+00 0.000000000000000e+00 0.000000000000000e+00
0.000000000000000e+00 0.000000000000000e+00 0.000000000000000e+00

0.000000000000000e+00 0.000000000000000e+00 0.000000000000000e+00
0.000000000000000e+00 0.000000000000000e+00 0.000000000000000e+00
0.000000000000000e+00 0.000000000000000e+00 0.000000000000000e+00

0.000000000000000e+00 0.000000000000000e+00 0.000000000000000e+00
0.000000000000000e+00 0.000000000000000e+00 0.000000000000000e+00
0.000000000000000e+00 0.000000000000000e+00 0.000000000000000e+00

0.000000000000000e+00 0.000000000000000e+00 0.000000000000000e+00
0.000000000000000e+00 0.000000000000000e+00 0.000000000000000e+00
0.000000000000000e+00 0.000000000000000e+00 0.000000000000000e+00

0.000000000000000e+00 0.000000000000000e+00 0.000000000000000e+00
0.000000000000000e+00 0.000000000000000e+00 0.000000000000000e+00
0.000000000000000e+00 0.000000000000000e+00 0.000000000000000e+00

0.000000000000000e+00 0.000000000000000e+00 0.000000000000000e+00
0.000000000000000e+00 0.000000000000000e+00 0.000000000000000e+00
0.000000000000000e+00 0.000000000000000e+00 0.000000000000000e+00

0.000000000000000e+00 0.000000000000000e+00 0.000000000000000e+00
0.000000000000000e+00 0.000000000000000e+00 0.000000000000000e+00
0.000000000000000e+00 0.000000000000000e+00 0.000000000000000e+00

0.000000000000000e+00 0.000000000000000e+00 0.000000000000000e+00
0.000000000000000e+00 0.000000000000000e+00 0.000000000000000e+00
0.000000000000000e+00 0.000000000000000e+00 0.000000000000000e+00

0.000000000000000e+00 0.000000000000000e+00 0.000000000000000e+00
0.000000000000000e+00 0.000000000000000e+00 0.000000000000000e+00
0.000000000000000e+00 0.000000000000000e+00 0.000000000000000e+00

0.000000000000000e+00 0.000000000000000e+00 0.000000000000000e+00
0.000000000000000e+00 0.000000000000000e+00 0.000000000000000e+00
0.000000000000000e+00 0.000000000000000e+00 0.000000000000000e+00

0.000000000000000e+00 0.000000000000000e+00 0.000000000000000e+00
0.000000000000000e+00 0.000000000000000e+00 0.000000000000000e+00
0.000000000000000e+00 0.000000000000000e+00 0.000000000000000e+00

0.000000000000000e+00 0.000000000000000e+00 0.000000000000000e+00
0.000000000000000e+00 0.000000000000000e+00 0.000000000000000e+00
0.000000000000000e+00 0.000000000000000e+00 0.000000000000000e+00

0.000000000000000e+00 0.000000000000000e+00 0.000000000000000e+00
0.000000000000000e+00 0.000000000000000e+00 0.000000000000000e+00
0.000000000000000e+00 0.000000000000000e+00 0.000000000000000e+00

0.000000000000000e+00 0.000000000000000e+00 0.000000000000000e+00
0.000000000000000e+00 0.000000000000000e+00 0.000000000000000e+00
0.000000000000000e+00 0.000000000000000e+00 0.000000000000000e+00

0.000000000000000e+00 0.000000000000000e+00 0.000000000000000e+00
0.000000000000000e+00 0.000000000000000e+00 0.000000000000000e+00
0.000000000000000e+00 0.000000000000000e+00 0.000000000000000e+00

0.000000000000000e+00 0.000000000000000e+00 0.000000000000000e+00
0.000000000000000e+00 0.000000000000000e+00 0.000000000000000e+00
0.000000000000000e+00 0.000000000000000e+00 0.000000000000000e+00

0.000000000000000e+00 0.000000000000000e+00 0.000000000000000e+00
0.000000000000000e+00 0.000000000000000e+00 0.000000000000000e+00
0.000000000000000e+00 0.000000000000000e+00 0.000000000000000e+00

0.000000000000000e+00 0.000000000000000e+00 0.000000000000000e+00
0.000000000000000e+00 0.000000000000000e+00 0.000000000000000e+00
0.000000000000000e+00 0.000000000000000e+00 0.000000000000000e+00

0.000000000000000e+00 0.000000000000000e+00 0.000000000000000e+00
0.000000000000000e+00 0.000000000000000e+00 0.000000000000000e+00
0.000000000000000e+00 0.000000000000000e+00 0.000000000000000e+00

0.000000000000000e+00 0.000000000000000e+00 0.000000000000000e+00
0.000000000000000e+00 0.000000000000000e+00 0.000000000000000e+00
0.000000000000000e+00 0.000000000000000e+00 0.000000000000000e+00

0.000000000000000e+00 0.000000000000000e+00 0.000000000000000e+00
0.000000000000000e+00 0.000000000000000e+00 0.000000000000000e+00
0.000000000000000e+00 0.000000000000000e+00 0.000000000000000e+00

0.000000000000000e+00 0.000000000000000e+00 0.000000000000000e+00
0.000000000000000e+00 0.000000000000000e+00 0.000000000000000e+00
0.000000000000000e+00 0.000000000000000e+00 0.000000000000000e+00

0.000000000000000e+00 0.000000000000000e+00 0.000000000000000e+00
0.000000000000000e+00 0.000000000000000e+00 0.000000000000000e+00
0.000000000000000e+00 0.000000000000000e+00 0.000000000000000e+00

0.000000000000000e+00 0.000000000000000e+00 0.000000000000000e+00
0.000000000000000e+00 0.000000000000000e+00 0.000000000000000e+00
0.000000000000000e+00 0.000000000000000e+00 0.000000000000000e+00

0.000000000000000e+00 0.000000000000000e+00 0.000000000000000e+00
0.000000000000000e+00 0.000000000000000e+00 0.000000000000000e+00
0.000000000000000e+00 0.000000000000000e+00 0.000000000000000e+00

0.000000000000000e+00 0.000000000000000e+00 0.000000000000000e+00
0.000000000000000e+00 0.000000000000000e+00 0.000000000000000e+00
0.000000000000000e+00 0.000000000000000e+00 0.000000000000000e+00

0.000000000000000e+00 0.000000000000000e+00 0.000000000000000e+00
0.000000000000000e+00 0.000000000000000e+00 0.000000000000000e+00
0.000000000000000e+00 0.000000000000000e+00 0.000000000000000e+00

0.000000000000000e+00 0.000000000000000e+00 0.000000000000000e+00
0.000000000000000e+00 0.000000000000000e+00 0.000000000000000e+00
0.000000000000000e+00 0.000000000000000e+00 0.000000000000000e+00

0.000000000000000e+00 0.000000000000000e+00 0.000000000000000e+00
0.000000000000000e+00 0.000000000000000e+00 0.000000000000000e+00
0.000000000000000e+00 0.000000000000000e+00 0.000000000000000e+00

0.000000000000000e+00 0.000000000000000e+00 0.000000000000000e+00
0.000000000000000e+00 0.000000000000000e+00 0.000000000000000e+00
0.000000000000000e+00 0.000000000000000e+00 0.000000000000000e+00

0.000000000000000e+00 0.000000000000000e+00 0.000000000000000e+00
0.000000000000000e+00 0.000000000000000e+00 0.000000000000000e+00
0.000000000000000e+00 0.000000000000000e+00 0.000000000000000e+00

0.000000000000000e+00 0.000000000000000e+00 0.000000000000000e+00
0.000000000000000e+00 0.000000000000000e+00 0.000000000000000e+00
0.000000000000000e+00 0.000000000000000e+00 0.000000000000000e+00

0.000000000000000e+00 0.000000000000000e+00 0.000000000000000e+00
0.000000000000000e+00 0.000000000000000e+00 0.000000000000000e+00
0.000000000000000e+00 0.000000000000000e+00 0.000000000000000e+00

0.000000000000000e+00 0.000000000000000e+00 0.000000000000000e+00
0.000000000000000e+00 0.000000000000000e+00 0.000000000000000e+00
0.000000000000000e+00 0.000000000000000e+00 0.000000000000000e+00

0.000000000000000e+00 0.000000000000000e+00 0.000000000000000e+00
0.000000000000000e+00 0.000000000000000e+00 0.000000000000000e+00
0.000000000000000e+00 0.000000000000000e+00 0.000000000000000e+00

0.000000000000000e+00 0.000000000000000e+00 0.000000000000000e+00
0.000000000000000e+00 0.000000000000000e+00 0.000000000000000e+00
0.000000000000000e+00 0.000000000000000e+00 0.000000000000000e+00

0.000000000000000e+00 0.000000000000000e+00 0.000000000000000e+00
0.000000000000000e+00 0.000000000000000e+00 0.000000000000000e+00
0.000000000000000e+00 0.000000000000000e+00 0.000000000000000e+00

0.000000000000000e+00 0.000000000000000e+00 0.000000000000000e+00
0.000000000000000e+00 0.000000000000000e+00 0.000000000000000e+00
0.000000000000000e+00 0.000000000000000e+00 0.000000000000000e+00

0.000000000000000e+00 0.000000000000000e+00 0.000000000000000e+00
0.000000000000000e+00 0.000000000000000e+00 0.000000000000000e+00
0.000000000000000e+00 0.000000000000000e+00 0.000000000000000e+00

0.000000000000000e+00 0.000000000000000e+00 0.000000000000000e+00
0.000000000000000e+00 0.000000000000000e+00 0.000000000000000e+00
0.000000000000000e+00 0.000000000000000e+00 0.000000000000000e+00

0.000000000000000e+00 0.000000000000000e+00 0.000000000000000e+00
0.000000000000000e+00 0.000000000000000e+00 0.000000000000000e+00
0.000000000000000e+00 0.000000000000000e+00 0.000000000000000e+00

0.000000000000000e+00 0.000000000000000e+00 0.000000000000000e+00
0.000000000000000e+00 0.000000000000000e+00 0.000000000000000e+00
0.000000000000000e+00 0.000000000000000e+00 0.000000000000000e+00

0.000000000000000e+00 0.000000000000000e+00 0.000000000000000e+00
0.000000000000000e+00 0.000000000000000e+00 0.000000000000000e+00
0.000000000000000e+00 0.000000000000000e+00 0.000000000000000e+00

0.000000000000000e+00 0.000000000000000e+00 0.000000000000000e+00
0.000000000000000e+00 0.000000000000000e+00 0.000000000000000e+00
0.000000000000000e+00 0.000000000000000e+00 0.000000000000000e+00

0.000000000000000e+00 0.000000000000000e+00 0.000000000000000e+00
0.000000000000000e+00 0.000000000000000e+00 0.000000000000000e+00
0.000000000000000e+00 0.000000000000000e+00 0.000000000000000e+00

0.000000000000000e+00 0.000000000000000e+00 0.000000000000000e+00
0.000000000000000e+00 0.000000000000000e+00 0.000000000000000e+00
0.000000000000000e+00 0.000000000000000e+00 0.000000000000000e+00

0.000000000000000e+00 0.000000000000000e+00 0.000000000000000e+00
0.000000000000000e+00 0.000000000000000e+00 0.000000000000000e+00
0.000000000000000e+00 0.000000000000000e+00 0.000000000000000e+00

0.000000000000000e+00 0.000000000000000e+00 0.000000000000000e+00
0.000000000000000e+00 0.000000000000000e+00 0.000000000000000e+00
0.000000000000000e+00 0.000000000000000e+00 0.000000000000000e+00

0.000000000000000e+00 0.000000000000000e+00 0.000000000000000e+00
0.000000000000000e+00 0.000000000000000e+00 0.000000000000000e+00
0.000000000000000e+00 0.000000000000000e+00 0.000000000000000e+00

0.000000000000000e+00 0.000000000000000e+00 0.000000000000000e+00
0.000000000000000e+00 0.000000000000000e+00 0.000000000000000e+00
0.000000000000000e+00 0.000000000000000e+00 0.000000000000000e+00

0.000000000000000e+00 0.000000000000000e+00 0.000000000000000e+00
0.000000000000000e+00 0.000000000000000e+00 0.000000000000000e+00
0.000000000000000e+00 0.000000000000000e+00 0.000000000000000e+00

0.000000000000000e+00 0.000000000000000e+00 0.000000000000000e+00
0.000000000000000e+00 0.000000000000000e+00 0.000000000000000e+00
0.000000000000000e+00 0.000000000000000e+00 0.000000000000000e+00

0.000000000000000e+00 0.000000000000000e+00 0.000000000000000e+00
0.000000000000000e+00 0.000000000000000e+00 0.000000000000000e+00
0.000000000000000e+00 0.000000000000000e+00 0.000000000000000e+00

0.000000000000000e+00 0.000000000000000e+00 0.000000000000000e+00
0.000000000000000e+00 0.000000000000000e+00 0.000000000000000e+00
0.000000000000000e+00 0.000000000000000e+00 0.000000000000000e+00

0.000000000000000e+00 0.000000000000000e+00 0.000000000000000e+00
0.000000000000000e+00 0.000000000000000e+00 0.000000000000000e+00
0.000000000000000e+00 0.000000000000000e+00 0.000000000000000e+00

0.000000000000000e+00 0.000000000000000e+00 0.000000000000000e+00
0.000000000000000e+00 0.000000000000000e+00 0.000000000000000e+00
0.000000000000000e+00 0.000000000000000e+00 0.000000000000000e+00

0.000000000000000e+00 0.000000000000000e+00 0.000000000000000e+00
0.000000000000000e+00 0.000000000000000e+00 0.000000000000000e+00
0.000000000000000e+00 0.000000000000000e+00 0.000000000000000e+00

0.000000000000000e+00 0.000000000000000e+00 0.000000000000000e+00
0.000000000000000e+00 0.000000000000000e+00 0.000000000000000e+00
0.000000000000000e+00 0.000000000000000e+00 0.000000000000000e+00

0.000000000000000e+00 0.000000000000000e+00 0.000000000000000e+00
0.000000000000000e+00 0.000000000000000e+00 0.000000000000000e+00
0.000000000000000e+00 0.000000000000000e+00 0.000000000000000e+00

0.000000000000000e+00 0.000000000000000e+00 0.000000000000000e+00
0.000000000000000e+00 0.000000000000000e+00 0.000000000000000e+00
0.000000000000000e+00 0.000000000000000e+00 0.000000000000000e+00

0.000000000000000e+00 0.000000000000000e+00 0.000000000000000e+00
0.000000000000000e+00 0.000000000000000e+00 0.000000000000000e+00
0.000000000000000e+00 0.000000000000000e+00 0.000000000000000e+00

0.000000000000000e+00 0.000000000000000e+00 0.000000000000000e+00
0.000000000000000e+00 0.000000000000000e+00 0.000000000000000e+00
0.000000000000000e+00 0.000000000000000e+00 0.000000000000000e+00

0.000000000000000e+00 0.000000000000000e+00 0.000000000000000e+00
0.000000000000000e+00 0.000000000000000e+00 0.000000000000000e+00
0.000000000000000e+00 0.000000000000000e+00 0.000000000000000e+00

0.000000000000000e+00 0.000000000000000e+00 0.000000000000000e+00
0.000000000000000e+00 0.000000000000000e+00 0.000000000000000e+00
0.000000000000000e+00 0.000000000000000e+00 0.000000000000000e+00

0.000000000000000e+00 0.000000000000000e+00 0.000000000000000e+00
0.000000000000000e+00 0.000000000000000e+00 0.000000000000000e+00
0.000000000000000e+00 0.000000000000000e+00 0.000000000000000e+00

0.000000000000000e+00 0.000000000000000e+00 0.000000000000000e+00
0.000000000000000e+00 0.000000000000000e+00 0.000000000000000e+00
0.000000000000000e+00 0.000000000000000e+00 0.000000000000000e+00

0.000000000000000e+00 0.000000000000000e+00 0.000000000000000e+00
0.000000000000000e+00 0.000000000000000e+00 0.000000000000000e+00
0.000000000000000e+00 0.000000000000000e+00 0.000000000000000e+00

0.000000000000000e+00 0.000000000000000e+00 0.000000000000000e+00
0.000000000000000e+00 0.000000000000000e+00 0.000000000000000e+00
0.000000000000000e+00 0.000000000000000e+00 0.000000000000000e+00

0.000000000000000e+00 0.000000000000000e+00 0.000000000000000e+00
0.000000000000000e+00 0.000000000000000e+00 0.000000000000000e+00
0.000000000000000e+00 0.000000000000000e+00 0.000000000000000e+00

0.000000000000000e+00 0.000000000000000e+00 0.000000000000000e+00
0.000000000000000e+00 0.000000000000000e+00 0.000000000000000e+00
0.000000000000000e+00 0.000000000000000e+00 0.000000000000000e+00

0.000000000000000e+00 0.000000000000000e+00 0.000000000000000e+00
0.000000000000000e+00 0.000000000000000e+00 0.000000000000000e+00
0.000000000000000e+00 0.000000000000000e+00 0.000000000000000e+00

0.000000000000000e+00 0.000000000000000e+00 0.000000000000000e+00
0.000000000000000e+00 0.000000000000000e+00 0.000000000000000e+00
0.000000000000000e+00 0.000000000000000e+00 0.000000000000000e+00

0.000000000000000e+00 0.000000000000000e+00 0.000000000000000e+00
0.000000000000000e+00 0.000000000000000e+00 0.000000000000000e+00
0.000000000000000e+00 0.000000000000000e+00 0.000000000000000e+00

0.000000000000000e+00 0.000000000000000e+00 0.000000000000000e+00
0.000000000000000e+00 0.000000000000000e+00 0.000000000000000e+00
0.000000000000000e+00 0.000000000000000e+00 0.000000000000000e+00

0.000000000000000e+00 0.000000000000000e+00 0.000000000000000e+00
0.000000000000000e+00 0.000000000000000e+00 0.000000000000000e+00
0.000000000000000e+00 0.000000000000000e+00 0.000000000000000e+00

0.000000000000000e+00 0.000000000000000e+00 0.000000000000000e+00
0.000000000000000e+00 0.000000000000000e+00 0.000000000000000e+00
0.000000000000000e+00 0.000000000000000e+00 0.000000000000000e+00

0.000000000000000e+00 0.000000000000000e+00 0.000000000000000e+00
0.000000000000000e+00 0.000000000000000e+00 0.000000000000000e+00
0.000000000000000e+00 0.000000000000000e+00 0.000000000000000e+00

0.000000000000000e+00 0.000000000000000e+00 0.000000000000000e+00
0.000000000000000e+00 0.000000000000000e+00 0.000000000000000e+00
0.000000000000000e+00 0.000000000000000e+00 0.000000000000000e+00

0.000000000000000e+00 0.000000000000000e+00 0.000000000000000e+00
0.000000000000000e+00 0.000000000000000e+00 0.000000000000000e+00
0.000000000000000e+00 0.000000000000000e+00 0.000000000000000e+00

0.000000000000000e+00 0.000000000000000e+00 0.000000000000000e+00
0.000000000000000e+00 0.000000000000000e+00 0.000000000000000e+00
0.000000000000000e+00 0.000000000000000e+00 0.000000000000000e+00

0.000000000000000e+00 0.000000000000000e+00 0.000000000000000e+00
0.000000000000000e+00 0.000000000000000e+00 0.000000000000000e+00
0.000000000000000e+00 0.000000000000000e+00 0.000000000000000e+00

0.000000000000000e+00 0.000000000000000e+00 0.000000000000000e+00
0.000000000000000e+00 0.000000000000000e+00 0.000000000000000e+00
0.000000000000000e+00 0.000000000000000e+00 0.000000000000000e+00

0.000000000000000e+00 0.000000000000000e+00 0.000000000000000e+00
0.000000000000000e+00 0.000000000000000e+00 0.000000000000000e+00
0.000000000000000e+00 0.000000000000000e+00 0.000000000000000e+00

0.000000000000000e+00 0.000000000000000e+00 0.000000000000000e+00
0.000000000000000e+00 0.000000000000000e+00 0.000000000000000e+00
0.000000000000000e+00 0.000000000000000e+00 0.000000000000000e+00

0.000000000000000e+00 0.000000000000000e+00 0.000000000000000e+00
0.000000000000000e+00 0.000000000000000e+00 0.000000000000000e+00
0.000000000000000e+00 0.000000000000000e+00 0.000000000000000e+00

0.000000000000000e+00 0.000000000000000e+00 0.000000000000000e+00
0.000000000000000e+00 0.000000000000000e+00 0.000000000000000e+00
0.000000000000000e+00 0.000000000000000e+00 0.000000000000000e+00

0.000000000000000e+00 0.000000000000000e+00 0.000000000000000e+00
0.000000000000000e+00 0.000000000000000e+00 0.000000000000000e+00
0.000000000000000e+00 0.000000000000000e+00 0.000000000000000e+00

0.000000000000000e+00 0.000000000000000e+00 0.000000000000000e+00
0.000000000000000e+00 0.000000000000000e+00 0.000000000000000e+00
0.000000000000000e+00 0.000000000000000e+00 0.000000000000000e+00

0.000000000000000e+00 0.000000000000000e+00 0.000000000000000e+00
0.000000000000000e+00 0.000000000000000e+00 0.000000000000000e+00
0.000000000000000e+00 0.000000000000000e+00 0.000000000000000e+00

0.000000000000000e+00 0.000000000000000e+00 0.000000000000000e+00
0.000000000000000e+00 0.000000000000000e+00 0.000000000000000e+00
0.000000000000000e+00 0.000000000000000e+00 0.000000000000000e+00

0.000000000000000e+00 0.000000000000000e+00 0.000000000000000e+00
0.000000000000000e+00 0.000000000000000e+00 0.000000000000000e+00
0.000000000000000e+00 0.000000000000000e+00 0.000000000000000e+00

0.000000000000000e+00 0.000000000000000e+00 0.000000000000000e+00
0.000000000000000e+00 0.000000000000000e+00 0.000000000000000e+00
0.000000000000000e+00 0.000000000000000e+00 0.000000000000000e+00

0.000000000000000e+00 0.000000000000000e+00 0.000000000000000e+00
0.000000000000000e+00 0.000000000000000e+00 0.000000000000000e+00
0.000000000000000e+00 0.000000000000000e+00 0.000000000000000e+00

0.000000000000000e+00 0.000000000000000e+00 0.000000000000000e+00
0.000000000000000e+00 0.000000000000000e+00 0.000000000000000e+00
0.000000000000000e+00 0.000000000000000e+00 0.000000000000000e+00

0.000000000000000e+00 0.000000000000000e+00 0.000000000000000e+00
0.000000000000000e+00 0.000000000000000e+00 0.000000000000000e+00
0.000000000000000e+00 0.000000000000000e+00 0.000000000000000e+00

0.000000000000000e+00 0.000000000000000e+00 0.000000000000000e+00
0.000000000000000e+00 0.000000000000000e+00 0.000000000000000e+00
0.000000000000000e+00 0.000000000000000e+00 0.000000000000000e+00

0.000000000000000e+00 0.000000000000000e+00 0.000000000000000e+00
0.000000000000000e+00 0.000000000000000e+00 0.000000000000000e+00
0.000000000000000e+00 0.000000000000000e+00 0.000000000000000e+00

0.000000000000000e+00 0.000000000000000e+00 0.000000000000000e+00
0.000000000000000e+00 0.000000000000000e+00 0.000000000000000e+00
0.000000000000000e+00 0.000000000000000e+00 0.000000000000000e+00

0.000000000000000e+00 0.000000000000000e+00 0.000000000000000e+00
0.000000000000000e+00 0.000000000000000e+00 0.000000000000000e+00
0.000000000000000e+00 0.000000000000000e+00 0.000000000000000e+00

0.000000000000000e+00 0.000000000000000e+00 0.000000000000000e+00
0.000000000000000e+00 0.000000000000000e+00 0.000000000000000e+00
0.000000000000000e+00 0.000000000000000e+00 0.000000000000000e+00

0.000000000000000e+00 0.000000000000000e+00 0.000000000000000e+00
0.000000000000000e+00 0.000000000000000e+00 0.000000000000000e+00
0.000000000000000e+00 0.000000000000000e+00 0.000000000000000e+00

0.000000000000000e+00 0.000000000000000e+00 0.000000000000000e+00
0.000000000000000e+00 0.000000000000000e+00 0.000000000000000e+00
0.000000000000000e+00 0.000000000000000e+00 0.000000000000000e+00

0.000000000000000e+00 0.000000000000000e+00 0.000000000000000e+00
0.000000000000000e+00 0.000000000000000e+00 0.000000000000000e+00
0.000000000000000e+00 0.000000000000000e+00 0.000000000000000e+00

0.000000000000000e+00 0.000000000000000e+00 0.000000000000000e+00
0.000000000000000e+00 0.000000000000000e+00 0.000000000000000e+00
0.000000000000000e+00 0.000000000000000e+00 0.000000000000000e+00

0.000000000000000e+00 0.000000000000000e+00 0.000000000000000e+00
0.000000000000000e+00 0.000000000000000e+00 0.000000000000000e+00
0.000000000000000e+00 0.000000000000000e+00 0.000000000000000e+00

0.000000000000000e+00 0.000000000000000e+00 0.000000000000000e+00
0.000000000000000e+00 0.000000000000000e+00 0.000000000000000e+00
0.000000000000000e+00 0.000000000000000e+00 0.000000000000000e+00

0.000000000000000e+00 0.000000000000000e+00 0.000000000000000e+00
0.000000000000000e+00 0.000000000000000e+00 0.000000000000000e+00
0.000000000000000e+00 0.000000000000000e+00 0.000000000000000e+00

0.000000000000000e+00 0.000000000000000e+00 0.000000000000000e+00
0.000000000000000e+00 0.000000000000000e+00 0.000000000000000e+00
0.000000000000000e+00 0.000000000000000e+00 0.000000000000000e+00

0.000000000000000e+00 0.000000000000000e+00 0.000000000000000e+00
0.000000000000000e+00 0.000000000000000e+00 0.000000000000000e+00
0.000000000000000e+00 0.000000000000000e+00 0.000000000000000e+00

0.000000000000000e+00 0.000000000000000e+00 0.000000000000000e+00
0.000000000000000e+00 0.000000000000000e+00 0.000000000000000e+00
0.000000000000000e+00 0.000000000000000e+00 0.000000000000000e+00

0.000000000000000e+00 0.000000000000000e+00 0.000000000000000e+00
0.000000000000000e+00 0.000000000000000e+00 0.000000000000000e+00
0.000000000000000e+00 0.000000000000000e+00 0.000000000000000e+00

0.000000000000000e+00 0.000000000000000e+00 0.000000000000000e+00
0.000000000000000e+00 0.000000000000000e+00 0.000000000000000e+00
0.000000000000000e+00 0.000000000000000e+00 0.000000000000000e+00

0.000000000000000e+00 0.000000000000000e+00 0.000000000000000e+00
0.000000000000000e+00 0.000000000000000e+00 0.000000000000000e+00
0.000000000000000e+00 0.000000000000000e+00 0.000000000000000e+00

0.000000000000000e+00 0.000000000000000e+00 0.000000000000000e+00
0.000000000000000e+00 0.000000000000000e+00 0.000000000000000e+00
0.000000000000000e+00 0.000000000000000e+00 0.000000000000000e+00

0.000000000000000e+00 0.000000000000000e+00 0.000000000000000e+00
0.000000000000000e+00 0.000000000000000e+00 0.000000000000000e+00
0.000000000000000e+00 0.000000000000000e+00 0.000000000000000e+00

0.000000000000000e+00 0.000000000000000e+00 0.000000000000000e+00
0.000000000000000e+00 0.000000000000000e+00 0.000000000000000e+00
0.000000000000000e+00 0.000000000000000e+00 0.000000000000000e+00

0.000000000000000e+00 0.000000000000000e+00 0.000000000000000e+00
0.000000000000000e+00 0.000000000000000e+00 0.000000000000000e+00
0.000000000000000e+00 0.000000000000000e+00 0.000000000000000e+00

0.000000000000000e+00 0.000000000000000e+00 0.000000000000000e+00
0.000000000000000e+00 0.000000000000000e+00 0.000000000000000e+00
0.000000000000000e+00 0.000000000000000e+00 0.000000000000000e+00

0.000000000000000e+00 0.000000000000000e+00 0.000000000000000e+00
0.000000000000000e+00 0.000000000000000e+00 0.000000000000000e+00
0.000000000000000e+00 0.000000000000000e+00 0.000000000000000e+00

0.000000000000000e+00 0.000000000000000e+00 0.000000000000000e+00
0.000000000000000e+00 0.000000000000000e+00 0.000000000000000e+00
0.000000000000000e+00 0.000000000000000e+00 0.000000000000000e+00

0.000000000000000e+00 0.000000000000000e+00 0.000000000000000e+00
0.000000000000000e+00 0.000000000000000e+00 0.000000000000000e+00
0.000000000000000e+00 0.000000000000000e+00 0.000000000000000e+00

0.000000000000000e+00 0.000000000000000e+00 0.000000000000000e+00
0.000000000000000e+00 0.000000000000000e+00 0.000000000000000e+00
0.000000000000000e+00 0.000000000000000e+00 0.000000000000000e+00

0.000000000000000e+00 0.000000000000000e+00 0.000000000000000e+00
0.000000000000000e+00 0.000000000000000e+00 0.000000000000000e+00
0.000000000000000e+00 0.000000000000000e+00 0.000000000000000e+00

0.000000000000000e+00 0.000000000000000e+00 0.000000000000000e+00
0.000000000000000e+00 0.000000000000000e+00 0.000000000000000e+00
0.000000000000000e+00 0.000000000000000e+00 0.000000000000000e+00

0.000000000000000e+00 0.000000000000000e+00 0.000000000000000e+00
0.000000000000000e+00 0.000000000000000e+00 0.000000000000000e+00
0.000000000000000e+00 0.000000000000000e+00 0.000000000000000e+00

0.000000000000000e+00 0.000000000000000e+00 0.000000000000000e+00
0.000000000000000e+00 0.000000000000000e+00 0.000000000000000e+00
0.000000000000000e+00 0.000000000000000e+00 0.000000000000000e+00

0.000000000000000e+00 0.000000000000000e+00 0.000000000000000e+00
0.000000000000000e+00 0.000000000000000e+00 0.000000000000000e+00
0.000000000000000e+00 0.000000000000000e+00 0.000000000000000e+00

0.000000000000000e+00 0.000000000000000e+00 0.000000000000000e+00
0.000000000000000e+00 0.000000000000000e+00 0.000000000000000e+00
0.000000000000000e+00 0.000000000000000e+00 0.000000000000000e+00

0.000000000000000e+00 0.000000000000000e+00 0.000000000000000e+00
0.000000000000000e+00 0.000000000000000e+00 0.000000000000000e+00
0.000000000000000e+00 0.000000000000000e+00 0.000000000000000e+00

0.000000000000000e+00 0.000000000000000e+00 0.000000000000000e+00
0.000000000000000e+00 0.000000000000000e+00 0.000000000000000e+00
0.000000000000000e+00 0.000000000000000e+00 0.000000000000000e+00

0.000000000000000e+00 0.000000000000000e+00 0.000000000000000e+00
0.000000000000000e+00 0.000000000000000e+00 0.000000000000000e+00
0.000000000000000e+00 0.000000000000000e+00 0.000000000000000e+00

0.000000000000000e+00 0.000000000000000e+00 0.000000000000000e+00
0.000000000000000e+00 0.000000000000000e+00 0.000000000000000e+00
0.000000000000000e+00 0.000000000000000e+00 0.000000000000000e+00

0.000000000000000e+00 0.000000000000000e+00 0.000000000000000e+00
0.000000000000000e+00 0.000000000000000e+00 0.000000000000000e+00
0.000000000000000e+00 0.000000000000000e+00 0.000000000000000e+00

0.000000000000000e+00 0.000000000000000e+00 0.000000000000000e+00
0.000000000000000e+00 0.000000000000000e+00 0.000000000000000e+00
0.000000000000000e+00 0.000000000000000e+00 0.000000000000000e+00

0.000000000000000e+00 0.000000000000000e+00 0.000000000000000e+00
0.000000000000000e+00 0.000000000000000e+00 0.000000000000000e+00
0.000000000000000e+00 0.000000000000000e+00 0.000000000000000e+00

0.000000000000000e+00 0.000000000000000e+00 0.000000000000000e+00
0.000000000000000e+00 0.000000000000000e+00 0.000000000000000e+00
0.000000000000000e+00 0.000000000000000e+00 0.000000000000000e+00

0.000000000000000e+00 0.000000000000000e+00 0.000000000000000e+00
0.000000000000000e+00 0.000000000000000e+00 0.000000000000000e+00
0.000000000000000e+00 0.000000000000000e+00 0.000000000000000e+00

0.000000000000000e+00 0.000000000000000e+00 0.000000000000000e+00
0.000000000000000e+00 0.000000000000000e+00 0.000000000000000e+00
0.000000000000000e+00 0.000000000000000e+00 0.000000000000000e+00

0.000000000000000e+00 0.000000000000000e+00 0.000000000000000e+00
0.000000000000000e+00 0.000000000000000e+00 0.000000000000000e+00
0.000000000000000e+00 0.000000000000000e+00 0.000000000000000e+00

0.000000000000000e+00 0.000000000000000e+00 0.000000000000000e+00
0.000000000000000e+00 0.000000000000000e+00 0.000000000000000e+00
0.000000000000000e+00 0.000000000000000e+00 0.000000000000000e+00

0.000000000000000e+00 0.000000000000000e+00 0.000000000000000e+00
0.000000000000000e+00 0.000000000000000e+00 0.000000000000000e+00
0.000000000000000e+00 0.000000000000000e+00 0.000000000000000e+00

0.000000000000000e+00 0.000000000000000e+00 0.000000000000000e+00
0.000000000000000e+00 0.000000000000000e+00 0.000000000000000e+00
0.000000000000000e+00 0.000000000000000e+00 0.000000000000000e+00

0.000000000000000e+00 0.000000000000000e+00 0.000000000000000e+00
0.000000000000000e+00 0.000000000000000e+00 0.000000000000000e+00
0.000000000000000e+00 0.000000000000000e+00 0.000000000000000e+00

0.000000000000000e+00 0.000000000000000e+00 0.000000000000000e+00
0.000000000000000e+00 0.000000000000000e+00 0.000000000000000e+00
0.000000000000000e+00 0.000000000000000e+00 0.000000000000000e+00

0.000000000000000e+00 0.000000000000000e+00 0.000000000000000e+00
0.000000000000000e+00 0.000000000000000e+00 0.000000000000000e+00
0.000000000000000e+00 0.000000000000000e+00 0.000000000000000e+00

0.000000000000000e+00 0.000000000000000e+00 0.000000000000000e+00
0.000000000000000e+00 0.000000000000000e+00 0.000000000000000e+00
0.000000000000000e+00 0.000000000000000e+00 0.000000000000000e+00

0.000000000000000e+00 0.000000000000000e+00 0.000000000000000e+00
0.000000000000000e+00 0.000000000000000e+00 0.000000000000000e+00
0.000000000000000e+00 0.000000000000000e+00 0.000000000000000e+00

0.000000000000000e+00 0.000000000000000e+00 0.000000000000000e+00
0.000000000000000e+00 0.000000000000000e+00 0.000000000000000e+00
0.000000000000000e+00 0.000000000000000e+00 0.000000000000000e+00

0.000000000000000e+00 0.000000000000000e+00 0.000000000000000e+00
0.000000000000000e+00 0.000000000000000e+00 0.000000000000000e+00
0.000000000000000e+00 0.000000000000000e+00 0.000000000000000e+00

0.000000000000000e+00 0.000000000000000e+00 0.000000000000000e+00
0.000000000000000e+00 0.000000000000000e+00 0.000000000000000e+00
0.000000000000000e+00 0.000000000000000e+00 0.000000000000000e+00

0.000000000000000e+00 0.000000000000000e+00 0.000000000000000e+00
0.000000000000000e+00 0.000000000000000e+00 0.000000000000000e+00
0.000000000000000e+00 0.000000000000000e+00 0.000000000000000e+00

0.000000000000000e+00 0.000000000000000e+00 0.000000000000000e+00
0.000000000000000e+00 0.000000000000000e+00 0.000000000000000e+00
0.000000000000000e+00 0.000000000000000e+00 0.000000000000000e+00

0.000000000000000e+00 0.000000000000000e+00 0.000000000000000e+00
0.000000000000000e+00 0.000000000000000e+00 0.000000000000000e+00
0.000000000000000e+00 0.000000000000000e+00 0.000000000000000e+00

0.000000000000000e+00 0.000000000000000e+00 0.000000000000000e+00
0.000000000000000e+00 0.000000000000000e+00 0.000000000000000e+00
0.000000000000000e+00 0.000000000000000e+00 0.000000000000000e+00

0.000000000000000e+00 0.000000000000000e+00 0.000000000000000e+00
0.000000000000000e+00 0.000000000000000e+00 0.000000000000000e+00
0.000000000000000e+00 0.000000000000000e+00 0.000000000000000e+00

0.000000000000000e+00 0.000000000000000e+00 0.000000000000000e+00
0.000000000000000e+00 0.000000000000000e+00 0.000000000000000e+00
0.000000000000000e+00 0.000000000000000e+00 0.000000000000000e+00

0.000000000000000e+00 0.000000000000000e+00 0.000000000000000e+00
0.000000000000000e+00 0.000000000000000e+00 0.000000000000000e+00
0.000000000000000e+00 0.000000000000000e+00 0.000000000000000e+00

0.000000000000000e+00 0.000000000000000e+00 0.000000000000000e+00
0.000000000000000e+00 0.000000000000000e+00 0.000000000000000e+00
0.000000000000000e+00 0.000000000000000e+00 0.000000000000000e+00

0.000000000000000e+00 0.000000000000000e+00 0.000000000000000e+00
0.000000000000000e+00 0.000000000000000e+00 0.000000000000000e+00
0.000000000000000e+00 0.000000000000000e+00 0.000000000000000e+00

0.000000000000000e+00 0.000000000000000e+00 0.000000000000000e+00
0.000000000000000e+00 0.000000000000000e+00 0.000000000000000e+00
0.000000000000000e+00 0.000000000000000e+00 0.000000000000000e+00

0.000000000000000e+00 0.000000000000000e+00 0.000000000000000e+00
0.000000000000000e+00 0.000000000000000e+00 0.000000000000000e+00
0.000000000000000e+00 0.000000000000000e+00 0.000000000000000e+00

0.000000000000000e+00 0.000000000000000e+00 0.000000000000000e+00
0.000000000000000e+00 0.000000000000000e+00 0.000000000000000e+00
0.000000000000000e+00 0.000000000000000e+00 0.000000000000000e+00

0.000000000000000e+00 0.000000000000000e+00 0.000000000000000e+00
0.000000000000000e+00 0.000000000000000e+00 0.000000000000000e+00
0.000000000000000e+00 0.000000000000000e+00 0.000000000000000e+00

0.000000000000000e+00 0.000000000000000e+00 0.000000000000000e+00
0.000000000000000e+00 0.000000000000000e+00 0.000000000000000e+00
0.000000000000000e+00 0.000000000000000e+00 0.000000000000000e+00

0.000000000000000e+00 0.000000000000000e+00 0.000000000000000e+00
0.000000000000000e+00 0.000000000000000e+00 0.000000000000000e+00
0.000000000000000e+00 0.000000000000000e+00 0.000000000000000e+00

0.000000000000000e+00 0.000000000000000e+00 0.000000000000000e+00
0.000000000000000e+00 0.000000000000000e+00 0.000000000000000e+00
0.000000000000000e+00 0.000000000000000e+00 0.000000000000000e+00

0.000000000000000e+00 0.000000000000000e+00 0.000000000000000e+00
0.000000000000000e+00 0.000000000000000e+00 0.000000000000000e+00
0.000000000000000e+00 0.000000000000000e+00 0.000000000000000e+00

0.000000000000000e+00 0.000000000000000e+00 0.000000000000000e+00
0.000000000000000e+00 0.000000000000000e+00 0.000000000000000e+00
0.000000000000000e+00 0.000000000000000e+00 0.000000000000000e+00

0.000000000000000e+00 0.000000000000000e+00 0.000000000000000e+00
0.000000000000000e+00 0.000000000000000e+00 0.000000000000000e+00
0.000000000000000e+00 0.000000000000000e+00 0.000000000000000e+00

0.000000000000000e+00 0.000000000000000e+00 0.000000000000000e+00
0.000000000000000e+00 0.000000000000000e+00 0.000000000000000e+00
0.000000000000000e+00 0.000000000000000e+00 0.000000000000000e+00

0.000000000000000e+00 0.000000000000000e+00 0.000000000000000e+00
0.000000000000000e+00 0.000000000000000e+00 0.000000000000000e+00
0.000000000000000e+00 0.000000000000000e+00 0.000000000000000e+00

0.000000000000000e+00 0.000000000000000e+00 0.000000000000000e+00
0.000000000000000e+00 0.000000000000000e+00 0.000000000000000e+00
0.000000000000000e+00 0.000000000000000e+00 0.000000000000000e+00

0.000000000000000e+00 0.000000000000000e+00 0.000000000000000e+00
0.000000000000000e+00 0.000000000000000e+00 0.000000000000000e+00
0.000000000000000e+00 0.000000000000000e+00 0.000000000000000e+00

0.000000000000000e+00 0.000000000000000e+00 0.000000000000000e+00
0.000000000000000e+00 0.000000000000000e+00 0.000000000000000e+00
0.000000000000000e+00 0.000000000000000e+00 0.000000000000000e+00

0.000000000000000e+00 0.000000000000000e+00 0.000000000000000e+00
0.000000000000000e+00 0.000000000000000e+00 0.000000000000000e+00
0.000000000000000e+00 0.000000000000000e+00 0.000000000000000e+00

0.000000000000000e+00 0.000000000000000e+00 0.000000000000000e+00
0.000000000000000e+00 0.000000000000000e+00 0.000000000000000e+00
0.000000000000000e+00 0.000000000000000e+00 0.000000000000000e+00

0.000000000000000e+00 0.000000000000000e+00 0.000000000000000e+00
0.000000000000000e+00 0.000000000000000e+00 0.000000000000000e+00
0.000000000000000e+00 0.000000000000000e+00 0.000000000000000e+00

0.000000000000000e+00 0.000000000000000e+00 0.000000000000000e+00
0.000000000000000e+00 0.000000000000000e+00 0.000000000000000e+00
0.000000000000000e+00 0.000000000000000e+00 0.000000000000000e+00

0.000000000000000e+00 0.000000000000000e+00 0.000000000000000e+00
0.000000000000000e+00 0.000000000000000e+00 0.000000000000000e+00
0.000000000000000e+00 0.000000000000000e+00 0.000000000000000e+00

0.000000000000000e+00 0.000000000000000e+00 0.000000000000000e+00
0.000000000000000e+00 0.000000000000000e+00 0.000000000000000e+00
0.000000000000000e+00 0.000000000000000e+00 0.000000000000000e+00

0.000000000000000e+00 0.000000000000000e+00 0.000000000000000e+00
0.000000000000000e+00 0.000000000000000e+00 0.000000000000000e+00
0.000000000000000e+00 0.000000000000000e+00 0.000000000000000e+00

0.000000000000000e+00 0.000000000000000e+00 0.000000000000000e+00
0.000000000000000e+00 0.000000000000000e+00 0.000000000000000e+00
0.000000000000000e+00 0.000000000000000e+00 0.000000000000000e+00

0.000000000000000e+00 0.000000000000000e+00 0.000000000000000e+00
0.000000000000000e+00 0.000000000000000e+00 0.000000000000000e+00
0.000000000000000e+00 0.000000000000000e+00 0.000000000000000e+00

0.000000000000000e+00 0.000000000000000e+00 0.000000000000000e+00
0.000000000000000e+00 0.000000000000000e+00 0.000000000000000e+00
0.000000000000000e+00 0.000000000000000e+00 0.000000000000000e+00

0.000000000000000e+00 0.000000000000000e+00 0.000000000000000e+00
0.000000000000000e+00 0.000000000000000e+00 0.000000000000000e+00
0.000000000000000e+00 0.000000000000000e+00 0.000000000000000e+00

0.000000000000000e+00 0.000000000000000e+00 0.000000000000000e+00
0.000000000000000e+00 0.000000000000000e+00 0.000000000000000e+00
0.000000000000000e+00 0.000000000000000e+00 0.000000000000000e+00

0.000000000000000e+00 0.000000000000000e+00 0.000000000000000e+00
0.000000000000000e+00 0.000000000000000e+00 0.000000000000000e+00
0.000000000000000e+00 0.000000000000000e+00 0.000000000000000e+00

0.000000000000000e+00 0.000000000000000e+00 0.000000000000000e+00
0.000000000000000e+00 0.000000000000000e+00 0.000000000000000e+00
0.000000000000000e+00 0.000000000000000e+00 0.000000000000000e+00

0.000000000000000e+00 0.000000000000000e+00 0.000000000000000e+00
0.000000000000000e+00 0.000000000000000e+00 0.000000000000000e+00
0.000000000000000e+00 0.000000000000000e+00 0.000000000000000e+00

0.000000000000000e+00 0.000000000000000e+00 0.000000000000000e+00
0.000000000000000e+00 0.000000000000000e+00 0.000000000000000e+00
0.000000000000000e+00 0.000000000000000e+00 0.000000000000000e+00

0.000000000000000e+00 0.000000000000000e+00 0.000000000000000e+00
0.000000000000000e+00 0.000000000000000e+00 0.000000000000000e+00
0.000000000000000e+00 0.000000000000000e+00 0.000000000000000e+00

0.000000000000000e+00 0.000000000000000e+00 0.000000000000000e+00
0.000000000000000e+00 0.000000000000000e+00 0.000000000000000e+00
0.000000000000000e+00 0.000000000000000e+00 0.000000000000000e+00

0.000000000000000e+00 0.000000000000000e+00 0.000000000000000e+00
0.000000000000000e+00 0.000000000000000e+00 0.000000000000000e+00
0.000000000000000e+00 0.000000000000000e+00 0.000000000000000e+00

0.000000000000000e+00 0.000000000000000e+00 0.000000000000000e+00
0.000000000000000e+00 0.000000000000000e+00 0.000000000000000e+00
0.000000000000000e+00 0.000000000000000e+00 0.000000000000000e+00

0.000000000000000e+00 0.000000000000000e+00 0.000000000000000e+00
0.000000000000000e+00 0.000000000000000e+00 0.000000000000000e+00
0.000000000000000e+00 0.000000000000000e+00 0.000000000000000e+00

0.000000000000000e+00 0.000000000000000e+00 0.000000000000000e+00
0.000000000000000e+00 0.000000000000000e+00 0.000000000000000e+00
0.000000000000000e+00 0.000000000000000e+00 0.000000000000000e+00

0.000000000000000e+00 0.000000000000000e+00 0.000000000000000e+00
0.000000000000000e+00 0.000000000000000e+00 0.000000000000000e+00
0.000000000000000e+00 0.000000000000000e+00 0.000000000000000e+00

0.000000000000000e+00 0.000000000000000e+00 0.000000000000000e+00
0.000000000000000e+00 0.000000000000000e+00 0.000000000000000e+00
0.000000000000000e+00 0.000000000000000e+00 0.000000000000000e+00

0.000000000000000e+00 0.000000000000000e+00 0.000000000000000e+00
0.000000000000000e+00 0.000000000000000e+00 0.000000000000000e+00
0.000000000000000e+00 0.000000000000000e+00 0.000000000000000e+00

0.000000000000000e+00 0.000000000000000e+00 0.000000000000000e+00
0.000000000000000e+00 0.000000000000000e+00 0.000000000000000e+00
0.000000000000000e+00 0.000000000000000e+00 0.000000000000000e+00

0.000000000000000e+00 0.000000000000000e+00 0.000000000000000e+00
0.000000000000000e+00 0.000000000000000e+00 0.000000000000000e+00
0.000000000000000e+00 0.000000000000000e+00 0.000000000000000e+00

0.000000000000000e+00 0.000000000000000e+00 0.000000000000000e+00
0.000000000000000e+00 0.000000000000000e+00 0.000000000000000e+00
0.000000000000000e+00 0.000000000000000e+00 0.000000000000000e+00

0.000000000000000e+00 0.000000000000000e+00 0.000000000000000e+00
0.000000000000000e+00 0.000000000000000e+00 0.000000000000000e+00
0.000000000000000e+00 0.000000000000000e+00 0.000000000000000e+00

0.000000000000000e+00 0.000000000000000e+00 0.000000000000000e+00
0.000000000000000e+00 0.000000000000000e+00 0.000000000000000e+00
0.000000000000000e+00 0.000000000000000e+00 0.000000000000000e+00

0.000000000000000e+00 0.000000000000000e+00 0.000000000000000e+00
0.000000000000000e+00 0.000000000000000e+00 0.000000000000000e+00
0.000000000000000e+00 0.000000000000000e+00 0.000000000000000e+00

0.000000000000000e+00 0.000000000000000e+00 0.000000000000000e+00
0.000000000000000e+00 0.000000000000000e+00 0.000000000000000e+00
0.000000000000000e+00 0.000000000000000e+00 0.000000000000000e+00

0.000000000000000e+00 0.000000000000000e+00 0.000000000000000e+00
0.000000000000000e+00 0.000000000000000e+00 0.000000000000000e+00
0.000000000000000e+00 0.000000000000000e+00 0.000000000000000e+00

0.000000000000000e+00 0.000000000000000e+00 0.000000000000000e+00
0.000000000000000e+00 0.000000000000000e+00 0.000000000000000e+00
0.000000000000000e+00 0.000000000000000e+00 0.000000000000000e+00

0.000000000000000e+00 0.000000000000000e+00 0.000000000000000e+00
0.000000000000000e+00 0.000000000000000e+00 0.000000000000000e+00
0.000000000000000e+00 0.000000000000000e+00 0.000000000000000e+00

0.000000000000000e+00 0.000000000000000e+00 0.000000000000000e+00
0.000000000000000e+00 0.000000000000000e+00 0.000000000000000e+00
0.000000000000000e+00 0.000000000000000e+00 0.000000000000000e+00

0.000000000000000e+00 0.000000000000000e+00 0.000000000000000e+00
0.000000000000000e+00 0.000000000000000e+00 0.000000000000000e+00
0.000000000000000e+00 0.000000000000000e+00 0.000000000000000e+00

0.000000000000000e+00 0.000000000000000e+00 0.000000000000000e+00
0.000000000000000e+00 0.000000000000000e+00 0.000000000000000e+00
0.000000000000000e+00 0.000000000000000e+00 0.000000000000000e+00

0.000000000000000e+00 0.000000000000000e+00 0.000000000000000e+00
0.000000000000000e+00 0.000000000000000e+00 0.000000000000000e+00
0.000000000000000e+00 0.000000000000000e+00 0.000000000000000e+00

0.000000000000000e+00 0.000000000000000e+00 0.000000000000000e+00
0.000000000000000e+00 0.000000000000000e+00 0.000000000000000e+00
0.000000000000000e+00 0.000000000000000e+00 0.000000000000000e+00

0.000000000000000e+00 0.000000000000000e+00 0.000000000000000e+00
0.000000000000000e+00 0.000000000000000e+00 0.000000000000000e+00
0.000000000000000e+00 0.000000000000000e+00 0.000000000000000e+00

0.000000000000000e+00 0.000000000000000e+00 0.000000000000000e+00
0.000000000000000e+00 0.000000000000000e+00 0.000000000000000e+00
0.000000000000000e+00 0.000000000000000e+00 0.000000000000000e+00

0.000000000000000e+00 0.000000000000000e+00 0.000000000000000e+00
0.000000000000000e+00 0.000000000000000e+00 0.000000000000000e+00
0.000000000000000e+00 0.000000000000000e+00 0.000000000000000e+00

0.000000000000000e+00 0.000000000000000e+00 0.000000000000000e+00
0.000000000000000e+00 0.000000000000000e+00 0.000000000000000e+00
0.000000000000000e+00 0.000000000000000e+00 0.000000000000000e+00

0.000000000000000e+00 0.000000000000000e+00 0.000000000000000e+00
0.000000000000000e+00 0.000000000000000e+00 0.000000000000000e+00
0.000000000000000e+00 0.000000000000000e+00 0.000000000000000e+00

0.000000000000000e+00 0.000000000000000e+00 0.000000000000000e+00
0.000000000000000e+00 0.000000000000000e+00 0.000000000000000e+00
0.000000000000000e+00 0.000000000000000e+00 0.000000000000000e+00

0.000000000000000e+00 0.000000000000000e+00 0.000000000000000e+00
0.000000000000000e+00 0.000000000000000e+00 0.000000000000000e+00
0.000000000000000e+00 0.000000000000000e+00 0.000000000000000e+00

0.000000000000000e+00 0.000000000000000e+00 0.000000000000000e+00
0.000000000000000e+00 0.000000000000000e+00 0.000000000000000e+00
0.000000000000000e+00 0.000000000000000e+00 0.000000000000000e+00

0.000000000000000e+00 0.000000000000000e+00 0.000000000000000e+00
0.000000000000000e+00 0.000000000000000e+00 0.000000000000000e+00
0.000000000000000e+00 0.000000000000000e+00 0.000000000000000e+00

0.000000000000000e+00 0.000000000000000e+00 0.000000000000000e+00
0.000000000000000e+00 0.000000000000000e+00 0.000000000000000e+00
0.000000000000000e+00 0.000000000000000e+00 0.000000000000000e+00

0.000000000000000e+00 0.000000000000000e+00 0.000000000000000e+00
0.000000000000000e+00 0.000000000000000e+00 0.000000000000000e+00
0.000000000000000e+00 0.000000000000000e+00 0.000000000000000e+00

0.000000000000000e+00 0.000000000000000e+00 0.000000000000000e+00
0.000000000000000e+00 0.000000000000000e+00 0.000000000000000e+00
0.000000000000000e+00 0.000000000000000e+00 0.000000000000000e+00

0.000000000000000e+00 0.000000000000000e+00 0.000000000000000e+00
0.000000000000000e+00 0.000000000000000e+00 0.000000000000000e+00
0.000000000000000e+00 0.000000000000000e+00 0.000000000000000e+00

0.000000000000000e+00 0.000000000000000e+00 0.000000000000000e+00
0.000000000000000e+00 0.000000000000000e+00 0.000000000000000e+00
0.000000000000000e+00 0.000000000000000e+00 0.000000000000000e+00

0.000000000000000e+00 0.000000000000000e+00 0.000000000000000e+00
0.000000000000000e+00 0.000000000000000e+00 0.000000000000000e+00
0.000000000000000e+00 0.000000000000000e+00 0.000000000000000e+00

0.000000000000000e+00 0.000000000000000e+00 0.000000000000000e+00
0.000000000000000e+00 0.000000000000000e+00 0.000000000000000e+00
0.000000000000000e+00 0.000000000000000e+00 0.000000000000000e+00

0.000000000000000e+00 0.000000000000000e+00 0.000000000000000e+00
0.000000000000000e+00 0.000000000000000e+00 0.000000000000000e+00
0.000000000000000e+00 0.000000000000000e+00 0.000000000000000e+00

0.000000000000000e+00 0.000000000000000e+00 0.000000000000000e+00
0.000000000000000e+00 0.000000000000000e+00 0.000000000000000e+00
0.000000000000000e+00 0.000000000000000e+00 0.000000000000000e+00

0.000000000000000e+00 0.000000000000000e+00 0.000000000000000e+00
0.000000000000000e+00 0.000000000000000e+00 0.000000000000000e+00
0.000000000000000e+00 0.000000000000000e+00 0.000000000000000e+00

0.000000000000000e+00 0.000000000000000e+00 0.000000000000000e+00
0.000000000000000e+00 0.000000000000000e+00 0.000000000000000e+00
0.000000000000000e+00 0.000000000000000e+00 0.000000000000000e+00

0.000000000000000e+00 0.000000000000000e+00 0.000000000000000e+00
0.000000000000000e+00 0.000000000000000e+00 0.000000000000000e+00
0.000000000000000e+00 0.000000000000000e+00 0.000000000000000e+00

0.000000000000000e+00 0.000000000000000e+00 0.000000000000000e+00
0.000000000000000e+00 0.000000000000000e+00 0.000000000000000e+00
0.000000000000000e+00 0.000000000000000e+00 0.000000000000000e+00

0.000000000000000e+00 0.000000000000000e+00 0.000000000000000e+00
0.000000000000000e+00 0.000000000000000e+00 0.000000000000000e+00
0.000000000000000e+00 0.000000000000000e+00 0.000000000000000e+00

0.000000000000000e+00 0.000000000000000e+00 0.000000000000000e+00
0.000000000000000e+00 0.000000000000000e+00 0.000000000000000e+00
0.000000000000000e+00 0.000000000000000e+00 0.000000000000000e+00

0.000000000000000e+00 0.000000000000000e+00 0.000000000000000e+00
0.000000000000000e+00 0.000000000000000e+00 0.000000000000000e+00
0.000000000000000e+00 0.000000000000000e+00 0.000000000000000e+00

0.000000000000000e+00 0.000000000000000e+00 0.000000000000000e+00
0.000000000000000e+00 0.000000000000000e+00 0.000000000000000e+00
0.000000000000000e+00 0.000000000000000e+00 0.000000000000000e+00

0.000000000000000e+00 0.000000000000000e+00 0.000000000000000e+00
0.000000000000000e+00 0.000000000000000e+00 0.000000000000000e+00
0.000000000000000e+00 0.000000000000000e+00 0.000000000000000e+00

0.000000000000000e+00 0.000000000000000e+00 0.000000000000000e+00
0.000000000000000e+00 0.000000000000000e+00 0.000000000000000e+00
0.000000000000000e+00 0.000000000000000e+00 0.000000000000000e+00

0.000000000000000e+00 0.000000000000000e+00 0.000000000000000e+00
0.000000000000000e+00 0.000000000000000e+00 0.000000000000000e+00
0.000000000000000e+00 0.000000000000000e+00 0.000000000000000e+00

0.000000000000000e+00 0.000000000000000e+00 0.000000000000000e+00
0.000000000000000e+00 0.000000000000000e+00 0.000000000000000e+00
0.000000000000000e+00 0.000000000000000e+00 0.000000000000000e+00

0.000000000000000e+00 0.000000000000000e+00 0.000000000000000e+00
0.000000000000000e+00 0.000000000000000e+00 0.000000000000000e+00
0.000000000000000e+00 0.000000000000000e+00 0.000000000000000e+00

0.000000000000000e+00 0.000000000000000e+00 0.000000000000000e+00
0.000000000000000e+00 0.000000000000000e+00 0.000000000000000e+00
0.000000000000000e+00 0.000000000000000e+00 0.000000000000000e+00

0.000000000000000e+00 0.000000000000000e+00 0.000000000000000e+00
0.000000000000000e+00 0.000000000000000e+00 0.000000000000000e+00
0.000000000000000e+00 0.000000000000000e+00 0.000000000000000e+00

0.000000000000000e+00 0.000000000000000e+00 0.000000000000000e+00
0.000000000000000e+00 0.000000000000000e+00 0.000000000000000e+00
0.000000000000000e+00 0.000000000000000e+00 0.000000000000000e+00

0.000000000000000e+00 0.000000000000000e+00 0.000000000000000e+00
0.000000000000000e+00 0.000000000000000e+00 0.000000000000000e+00
0.000000000000000e+00 0.000000000000000e+00 0.000000000000000e+00

0.000000000000000e+00 0.000000000000000e+00 0.000000000000000e+00
0.000000000000000e+00 0.000000000000000e+00 0.000000000000000e+00
0.000000000000000e+00 0.000000000000000e+00 0.000000000000000e+00

0.000000000000000e+00 0.000000000000000e+00 0.000000000000000e+00
0.000000000000000e+00 0.000000000000000e+00 0.000000000000000e+00
0.000000000000000e+00 0.000000000000000e+00 0.000000000000000e+00

0.000000000000000e+00 0.000000000000000e+00 0.000000000000000e+00
0.000000000000000e+00 0.000000000000000e+00 0.000000000000000e+00
0.000000000000000e+00 0.000000000000000e+00 0.000000000000000e+00

0.000000000000000e+00 0.000000000000000e+00 0.000000000000000e+00
0.000000000000000e+00 0.000000000000000e+00 0.000000000000000e+00
0.000000000000000e+00 0.000000000000000e+00 0.000000000000000e+00

0.000000000000000e+00 0.000000000000000e+00 0.000000000000000e+00
0.000000000000000e+00 0.000000000000000e+00 0.000000000000000e+00
0.000000000000000e+00 0.000000000000000e+00 0.000000000000000e+00

0.000000000000000e+00 0.000000000000000e+00 0.000000000000000e+00
0.000000000000000e+00 0.000000000000000e+00 0.000000000000000e+00
0.000000000000000e+00 0.000000000000000e+00 0.000000000000000e+00

0.000000000000000e+00 0.000000000000000e+00 0.000000000000000e+00
0.000000000000000e+00 0.000000000000000e+00 0.000000000000000e+00
0.000000000000000e+00 0.000000000000000e+00 0.000000000000000e+00

0.000000000000000e+00 0.000000000000000e+00 0.000000000000000e+00
0.000000000000000e+00 0.000000000000000e+00 0.000000000000000e+00
0.000000000000000e+00 0.000000000000000e+00 0.000000000000000e+00

0.000000000000000e+00 0.000000000000000e+00 0.000000000000000e+00
0.000000000000000e+00 0.000000000000000e+00 0.000000000000000e+00
0.000000000000000e+00 0.000000000000000e+00 0.000000000000000e+00

0.000000000000000e+00 0.000000000000000e+00 0.000000000000000e+00
0.000000000000000e+00 0.000000000000000e+00 0.000000000000000e+00
0.000000000000000e+00 0.000000000000000e+00 0.000000000000000e+00

0.000000000000000e+00 0.000000000000000e+00 0.000000000000000e+00
0.000000000000000e+00 0.000000000000000e+00 0.000000000000000e+00
0.000000000000000e+00 0.000000000000000e+00 0.000000000000000e+00

0.000000000000000e+00 0.000000000000000e+00 0.000000000000000e+00
0.000000000000000e+00 0.000000000000000e+00 0.000000000000000e+00
0.000000000000000e+00 0.000000000000000e+00 0.000000000000000e+00

0.000000000000000e+00 0.000000000000000e+00 0.000000000000000e+00
0.000000000000000e+00 0.000000000000000e+00 0.000000000000000e+00
0.000000000000000e+00 0.000000000000000e+00 0.000000000000000e+00

0.000000000000000e+00 0.000000000000000e+00 0.000000000000000e+00
0.000000000000000e+00 0.000000000000000e+00 0.000000000000000e+00
0.000000000000000e+00 0.000000000000000e+00 0.000000000000000e+00

0.000000000000000e+00 0.000000000000000e+00 0.000000000000000e+00
0.000000000000000e+00 0.000000000000000e+00 0.000000000000000e+00
0.000000000000000e+00 0.000000000000000e+00 0.000000000000000e+00

0.000000000000000e+00 0.000000000000000e+00 0.000000000000000e+00
0.000000000000000e+00 0.000000000000000e+00 0.000000000000000e+00
0.000000000000000e+00 0.000000000000000e+00 0.000000000000000e+00

0.000000000000000e+00 0.000000000000000e+00 0.000000000000000e+00
0.000000000000000e+00 0.000000000000000e+00 0.000000000000000e+00
0.000000000000000e+00 0.000000000000000e+00 0.000000000000000e+00

0.000000000000000e+00 0.000000000000000e+00 0.000000000000000e+00
0.000000000000000e+00 0.000000000000000e+00 0.000000000000000e+00
0.000000000000000e+00 0.000000000000000e+00 0.000000000000000e+00

0.000000000000000e+00 0.000000000000000e+00 0.000000000000000e+00
0.000000000000000e+00 0.000000000000000e+00 0.000000000000000e+00
0.000000000000000e+00 0.000000000000000e+00 0.000000000000000e+00

0.000000000000000e+00 0.000000000000000e+00 0.000000000000000e+00
0.000000000000000e+00 0.000000000000000e+00 0.000000000000000e+00
0.000000000000000e+00 0.000000000000000e+00 0.000000000000000e+00

0.000000000000000e+00 0.000000000000000e+00 0.000000000000000e+00
0.000000000000000e+00 0.000000000000000e+00 0.000000000000000e+00
0.000000000000000e+00 0.000000000000000e+00 0.000000000000000e+00

0.000000000000000e+00 0.000000000000000e+00 0.000000000000000e+00
0.000000000000000e+00 0.000000000000000e+00 0.000000000000000e+00
0.000000000000000e+00 0.000000000000000e+00 0.000000000000000e+00

0.000000000000000e+00 0.000000000000000e+00 0.000000000000000e+00
0.000000000000000e+00 0.000000000000000e+00 0.000000000000000e+00
0.000000000000000e+00 0.000000000000000e+00 0.000000000000000e+00

0.000000000000000e+00 0.000000000000000e+00 0.000000000000000e+00
0.000000000000000e+00 0.000000000000000e+00 0.000000000000000e+00
0.000000000000000e+00 0.000000000000000e+00 0.000000000000000e+00

0.000000000000000e+00 0.000000000000000e+00 0.000000000000000e+00
0.000000000000000e+00 0.000000000000000e+00 0.000000000000000e+00
0.000000000000000e+00 0.000000000000000e+00 0.000000000000000e+00

0.000000000000000e+00 0.000000000000000e+00 0.000000000000000e+00
0.000000000000000e+00 0.000000000000000e+00 0.000000000000000e+00
0.000000000000000e+00 0.000000000000000e+00 0.000000000000000e+00

0.000000000000000e+00 0.000000000000000e+00 0.000000000000000e+00
0.000000000000000e+00 0.000000000000000e+00 0.000000000000000e+00
0.000000000000000e+00 0.000000000000000e+00 0.000000000000000e+00

0.000000000000000e+00 0.000000000000000e+00 0.000000000000000e+00
0.000000000000000e+00 0.000000000000000e+00 0.000000000000000e+00
0.000000000000000e+00 0.000000000000000e+00 0.000000000000000e+00

0.000000000000000e+00 0.000000000000000e+00 0.000000000000000e+00
0.000000000000000e+00 0.000000000000000e+00 0.000000000000000e+00
0.000000000000000e+00 0.000000000000000e+00 0.000000000000000e+00

0.000000000000000e+00 0.000000000000000e+00 0.000000000000000e+00
0.000000000000000e+00 0.000000000000000e+00 0.000000000000000e+00
0.000000000000000e+00 0.000000000000000e+00 0.000000000000000e+00

0.000000000000000e+00 0.000000000000000e+00 0.000000000000000e+00
0.000000000000000e+00 0.000000000000000e+00 0.000000000000000e+00
0.000000000000000e+00 0.000000000000000e+00 0.000000000000000e+00

0.000000000000000e+00 0.000000000000000e+00 0.000000000000000e+00
0.000000000000000e+00 0.000000000000000e+00 0.000000000000000e+00
0.000000000000000e+00 0.000000000000000e+00 0.000000000000000e+00

0.000000000000000e+00 0.000000000000000e+00 0.000000000000000e+00
0.000000000000000e+00 0.000000000000000e+00 0.000000000000000e+00
0.000000000000000e+00 0.000000000000000e+00 0.000000000000000e+00

0.000000000000000e+00 0.000000000000000e+00 0.000000000000000e+00
0.000000000000000e+00 0.000000000000000e+00 0.000000000000000e+00
0.000000000000000e+00 0.000000000000000e+00 0.000000000000000e+00

0.000000000000000e+00 0.000000000000000e+00 0.000000000000000e+00
0.000000000000000e+00 0.000000000000000e+00 0.000000000000000e+00
0.000000000000000e+00 0.000000000000000e+00 0.000000000000000e+00

0.000000000000000e+00 0.000000000000000e+00 0.000000000000000e+00
0.000000000000000e+00 0.000000000000000e+00 0.000000000000000e+00
0.000000000000000e+00 0.000000000000000e+00 0.000000000000000e+00

0.000000000000000e+00 0.000000000000000e+00 0.000000000000000e+00
0.000000000000000e+00 0.000000000000000e+00 0.000000000000000e+00
0.000000000000000e+00 0.000000000000000e+00 0.000000000000000e+00

0.000000000000000e+00 0.000000000000000e+00 0.000000000000000e+00
0.000000000000000e+00 0.000000000000000e+00 0.000000000000000e+00
0.000000000000000e+00 0.000000000000000e+00 0.000000000000000e+00

0.000000000000000e+00 0.000000000000000e+00 0.000000000000000e+00
0.000000000000000e+00 0.000000000000000e+00 0.000000000000000e+00
0.000000000000000e+00 0.000000000000000e+00 0.000000000000000e+00

0.000000000000000e+00 0.000000000000000e+00 0.000000000000000e+00
0.000000000000000e+00 0.000000000000000e+00 0.000000000000000e+00
0.000000000000000e+00 0.000000000000000e+00 0.000000000000000e+00

0.000000000000000e+00 0.000000000000000e+00 0.000000000000000e+00
0.000000000000000e+00 0.000000000000000e+00 0.000000000000000e+00
0.000000000000000e+00 0.000000000000000e+00 0.000000000000000e+00

0.000000000000000e+00 0.000000000000000e+00 0.000000000000000e+00
0.000000000000000e+00 0.000000000000000e+00 0.000000000000000e+00
0.000000000000000e+00 0.000000000000000e+00 0.000000000000000e+00

0.000000000000000e+00 0.000000000000000e+00 0.000000000000000e+00
0.000000000000000e+00 0.000000000000000e+00 0.000000000000000e+00
0.000000000000000e+00 0.000000000000000e+00 0.000000000000000e+00

0.000000000000000e+00 0.000000000000000e+00 0.000000000000000e+00
0.000000000000000e+00 0.000000000000000e+00 0.000000000000000e+00
0.000000000000000e+00 0.000000000000000e+00 0.000000000000000e+00

0.000000000000000e+00 0.000000000000000e+00 0.000000000000000e+00
0.000000000000000e+00 0.000000000000000e+00 0.000000000000000e+00
0.000000000000000e+00 0.000000000000000e+00 0.000000000000000e+00

0.000000000000000e+00 0.000000000000000e+00 0.000000000000000e+00
0.000000000000000e+00 0.000000000000000e+00 0.000000000000000e+00
0.000000000000000e+00 0.000000000000000e+00 0.000000000000000e+00

0.000000000000000e+00 0.000000000000000e+00 0.000000000000000e+00
0.000000000000000e+00 0.000000000000000e+00 0.000000000000000e+00
0.000000000000000e+00 0.000000000000000e+00 0.000000000000000e+00

0.000000000000000e+00 0.000000000000000e+00 0.000000000000000e+00
0.000000000000000e+00 0.000000000000000e+00 0.000000000000000e+00
0.000000000000000e+00 0.000000000000000e+00 0.000000000000000e+00

0.000000000000000e+00 0.000000000000000e+00 0.000000000000000e+00
0.000000000000000e+00 0.000000000000000e+00 0.000000000000000e+00
0.000000000000000e+00 0.000000000000000e+00 0.000000000000000e+00

0.000000000000000e+00 0.000000000000000e+00 0.000000000000000e+00
0.000000000000000e+00 0.000000000000000e+00 0.000000000000000e+00
0.000000000000000e+00 0.000000000000000e+00 0.000000000000000e+00

0.000000000000000e+00 0.000000000000000e+00 0.000000000000000e+00
0.000000000000000e+00 0.000000000000000e+00 0.000000000000000e+00
0.000000000000000e+00 0.000000000000000e+00 0.000000000000000e+00

0.000000000000000e+00 0.000000000000000e+00 0.000000000000000e+00
0.000000000000000e+00 0.000000000000000e+00 0.000000000000000e+00
0.000000000000000e+00 0.000000000000000e+00 0.000000000000000e+00

0.000000000000000e+00 0.000000000000000e+00 0.000000000000000e+00
0.000000000000000e+00 0.000000000000000e+00 0.000000000000000e+00
0.000000000000000e+00 0.000000000000000e+00 0.000000000000000e+00

0.000000000000000e+00 0.000000000000000e+00 0.000000000000000e+00
0.000000000000000e+00 0.000000000000000e+00 0.000000000000000e+00
0.000000000000000e+00 0.000000000000000e+00 0.000000000000000e+00

0.000000000000000e+00 0.000000000000000e+00 0.000000000000000e+00
0.000000000000000e+00 0.000000000000000e+00 0.000000000000000e+00
0.000000000000000e+00 0.000000000000000e+00 0.000000000000000e+00

0.000000000000000e+00 0.000000000000000e+00 0.000000000000000e+00
0.000000000000000e+00 0.000000000000000e+00 0.000000000000000e+00
0.000000000000000e+00 0.000000000000000e+00 0.000000000000000e+00

0.000000000000000e+00 0.000000000000000e+00 0.000000000000000e+00
0.000000000000000e+00 0.000000000000000e+00 0.000000000000000e+00
0.000000000000000e+00 0.000000000000000e+00 0.000000000000000e+00

0.000000000000000e+00 0.000000000000000e+00 0.000000000000000e+00
0.000000000000000e+00 0.000000000000000e+00 0.000000000000000e+00
0.000000000000000e+00 0.000000000000000e+00 0.000000000000000e+00

0.000000000000000e+00 0.000000000000000e+00 0.000000000000000e+00
0.000000000000000e+00 0.000000000000000e+00 0.000000000000000e+00
0.000000000000000e+00 0.000000000000000e+00 0.000000000000000e+00

0.000000000000000e+00 0.000000000000000e+00 0.000000000000000e+00
0.000000000000000e+00 0.000000000000000e+00 0.000000000000000e+00
0.000000000000000e+00 0.000000000000000e+00 0.000000000000000e+00

0.000000000000000e+00 0.000000000000000e+00 0.000000000000000e+00
0.000000000000000e+00 0.000000000000000e+00 0.000000000000000e+00
0.000000000000000e+00 0.000000000000000e+00 0.000000000000000e+00

0.000000000000000e+00 0.000000000000000e+00 0.000000000000000e+00
0.000000000000000e+00 0.000000000000000e+00 0.000000000000000e+00
0.000000000000000e+00 0.000000000000000e+00 0.000000000000000e+00

0.000000000000000e+00 0.000000000000000e+00 0.000000000000000e+00
0.000000000000000e+00 0.000000000000000e+00 0.000000000000000e+00
0.000000000000000e+00 0.000000000000000e+00 0.000000000000000e+00

0.000000000000000e+00 0.000000000000000e+00 0.000000000000000e+00
0.000000000000000e+00 0.000000000000000e+00 0.000000000000000e+00
0.000000000000000e+00 0.000000000000000e+00 0.000000000000000e+00

0.000000000000000e+00 0.000000000000000e+00 0.000000000000000e+00
0.000000000000000e+00 0.000000000000000e+00 0.000000000000000e+00
0.000000000000000e+00 0.000000000000000e+00 0.000000000000000e+00

0.000000000000000e+00 0.000000000000000e+00 0.000000000000000e+00
0.000000000000000e+00 0.000000000000000e+00 0.000000000000000e+00
0.000000000000000e+00 0.000000000000000e+00 0.000000000000000e+00

0.000000000000000e+00 0.000000000000000e+00 0.000000000000000e+00
0.000000000000000e+00 0.000000000000000e+00 0.000000000000000e+00
0.000000000000000e+00 0.000000000000000e+00 0.000000000000000e+00

0.000000000000000e+00 0.000000000000000e+00 0.000000000000000e+00
0.000000000000000e+00 0.000000000000000e+00 0.000000000000000e+00
0.000000000000000e+00 0.000000000000000e+00 0.000000000000000e+00

0.000000000000000e+00 0.000000000000000e+00 0.000000000000000e+00
0.000000000000000e+00 0.000000000000000e+00 0.000000000000000e+00
0.000000000000000e+00 0.000000000000000e+00 0.000000000000000e+00

0.000000000000000e+00 0.000000000000000e+00 0.000000000000000e+00
0.000000000000000e+00 0.000000000000000e+00 0.000000000000000e+00
0.000000000000000e+00 0.000000000000000e+00 0.000000000000000e+00

0.000000000000000e+00 0.000000000000000e+00 0.000000000000000e+00
0.000000000000000e+00 0.000000000000000e+00 0.000000000000000e+00
0.000000000000000e+00 0.000000000000000e+00 0.000000000000000e+00

0.000000000000000e+00 0.000000000000000e+00 0.000000000000000e+00
0.000000000000000e+00 0.000000000000000e+00 0.000000000000000e+00
0.000000000000000e+00 0.000000000000000e+00 0.000000000000000e+00

0.000000000000000e+00 0.000000000000000e+00 0.000000000000000e+00
0.000000000000000e+00 0.000000000000000e+00 0.000000000000000e+00
0.000000000000000e+00 0.000000000000000e+00 0.000000000000000e+00

0.000000000000000e+00 0.000000000000000e+00 0.000000000000000e+00
0.000000000000000e+00 0.000000000000000e+00 0.000000000000000e+00
0.000000000000000e+00 0.000000000000000e+00 0.000000000000000e+00

0.000000000000000e+00 0.000000000000000e+00 0.000000000000000e+00
0.000000000000000e+00 0.000000000000000e+00 0.000000000000000e+00
0.000000000000000e+00 0.000000000000000e+00 0.000000000000000e+00

0.000000000000000e+00 0.000000000000000e+00 0.000000000000000e+00
0.000000000000000e+00 0.000000000000000e+00 0.000000000000000e+00
0.000000000000000e+00 0.000000000000000e+00 0.000000000000000e+00

0.000000000000000e+00 0.000000000000000e+00 0.000000000000000e+00
0.000000000000000e+00 0.000000000000000e+00 0.000000000000000e+00
0.000000000000000e+00 0.000000000000000e+00 0.000000000000000e+00

0.000000000000000e+00 0.000000000000000e+00 0.000000000000000e+00
0.000000000000000e+00 0.000000000000000e+00 0.000000000000000e+00
0.000000000000000e+00 0.000000000000000e+00 0.000000000000000e+00

0.000000000000000e+00 0.000000000000000e+00 0.000000000000000e+00
0.000000000000000e+00 0.000000000000000e+00 0.000000000000000e+00
0.000000000000000e+00 0.000000000000000e+00 0.000000000000000e+00

0.000000000000000e+00 0.000000000000000e+00 0.000000000000000e+00
0.000000000000000e+00 0.000000000000000e+00 0.000000000000000e+00
0.000000000000000e+00 0.000000000000000e+00 0.000000000000000e+00

0.000000000000000e+00 0.000000000000000e+00 0.000000000000000e+00
0.000000000000000e+00 0.000000000000000e+00 0.000000000000000e+00
0.000000000000000e+00 0.000000000000000e+00 0.000000000000000e+00

0.000000000000000e+00 0.000000000000000e+00 0.000000000000000e+00
0.000000000000000e+00 0.000000000000000e+00 0.000000000000000e+00
0.000000000000000e+00 0.000000000000000e+00 0.000000000000000e+00

0.000000000000000e+00 0.000000000000000e+00 0.000000000000000e+00
0.000000000000000e+00 0.000000000000000e+00 0.000000000000000e+00
0.000000000000000e+00 0.000000000000000e+00 0.000000000000000e+00

0.000000000000000e+00 0.000000000000000e+00 0.000000000000000e+00
0.000000000000000e+00 0.000000000000000e+00 0.000000000000000e+00
0.000000000000000e+00 0.000000000000000e+00 0.000000000000000e+00

0.000000000000000e+00 0.000000000000000e+00 0.000000000000000e+00
0.000000000000000e+00 0.000000000000000e+00 0.000000000000000e+00
0.000000000000000e+00 0.000000000000000e+00 0.000000000000000e+00

0.000000000000000e+00 0.000000000000000e+00 0.000000000000000e+00
0.000000000000000e+00 0.000000000000000e+00 0.000000000000000e+00
0.000000000000000e+00 0.000000000000000e+00 0.000000000000000e+00

0.000000000000000e+00 0.000000000000000e+00 0.000000000000000e+00
0.000000000000000e+00 0.000000000000000e+00 0.000000000000000e+00
0.000000000000000e+00 0.000000000000000e+00 0.000000000000000e+00

0.000000000000000e+00 0.000000000000000e+00 0.000000000000000e+00
0.000000000000000e+00 0.000000000000000e+00 0.000000000000000e+00
0.000000000000000e+00 0.000000000000000e+00 0.000000000000000e+00

0.000000000000000e+00 0.000000000000000e+00 0.000000000000000e+00
0.000000000000000e+00 0.000000000000000e+00 0.000000000000000e+00
0.000000000000000e+00 0.000000000000000e+00 0.000000000000000e+00

0.000000000000000e+00 0.000000000000000e+00 0.000000000000000e+00
0.000000000000000e+00 0.000000000000000e+00 0.000000000000000e+00
0.000000000000000e+00 0.000000000000000e+00 0.000000000000000e+00

0.000000000000000e+00 0.000000000000000e+00 0.000000000000000e+00
0.000000000000000e+00 0.000000000000000e+00 0.000000000000000e+00
0.000000000000000e+00 0.000000000000000e+00 0.000000000000000e+00

0.000000000000000e+00 0.000000000000000e+00 0.000000000000000e+00
0.000000000000000e+00 0.000000000000000e+00 0.000000000000000e+00
0.000000000000000e+00 0.000000000000000e+00 0.000000000000000e+00

0.000000000000000e+00 0.000000000000000e+00 0.000000000000000e+00
0.000000000000000e+00 0.000000000000000e+00 0.000000000000000e+00
0.000000000000000e+00 0.000000000000000e+00 0.000000000000000e+00

0.000000000000000e+00 0.000000000000000e+00 0.000000000000000e+00
0.000000000000000e+00 0.000000000000000e+00 0.000000000000000e+00
0.000000000000000e+00 0.000000000000000e+00 0.000000000000000e+00

0.000000000000000e+00 0.000000000000000e+00 0.000000000000000e+00
0.000000000000000e+00 0.000000000000000e+00 0.000000000000000e+00
0.000000000000000e+00 0.000000000000000e+00 0.000000000000000e+00

0.000000000000000e+00 0.000000000000000e+00 0.000000000000000e+00
0.000000000000000e+00 0.000000000000000e+00 0.000000000000000e+00
0.000000000000000e+00 0.000000000000000e+00 0.000000000000000e+00

0.000000000000000e+00 0.000000000000000e+00 0.000000000000000e+00
0.000000000000000e+00 0.000000000000000e+00 0.000000000000000e+00
0.000000000000000e+00 0.000000000000000e+00 0.000000000000000e+00

0.000000000000000e+00 0.000000000000000e+00 0.000000000000000e+00
0.000000000000000e+00 0.000000000000000e+00 0.000000000000000e+00
0.000000000000000e+00 0.000000000000000e+00 0.000000000000000e+00

0.000000000000000e+00 0.000000000000000e+00 0.000000000000000e+00
0.000000000000000e+00 0.000000000000000e+00 0.000000000000000e+00
0.000000000000000e+00 0.000000000000000e+00 0.000000000000000e+00

0.000000000000000e+00 0.000000000000000e+00 0.000000000000000e+00
0.000000000000000e+00 0.000000000000000e+00 0.000000000000000e+00
0.000000000000000e+00 0.000000000000000e+00 0.000000000000000e+00

0.000000000000000e+00 0.000000000000000e+00 0.000000000000000e+00
0.000000000000000e+00 0.000000000000000e+00 0.000000000000000e+00
0.000000000000000e+00 0.000000000000000e+00 0.000000000000000e+00

0.000000000000000e+00 0.000000000000000e+00 0.000000000000000e+00
0.000000000000000e+00 0.000000000000000e+00 0.000000000000000e+00
0.000000000000000e+00 0.000000000000000e+00 0.000000000000000e+00

0.000000000000000e+00 0.000000000000000e+00 0.000000000000000e+00
0.000000000000000e+00 0.000000000000000e+00 0.000000000000000e+00
0.000000000000000e+00 0.000000000000000e+00 0.000000000000000e+00

0.000000000000000e+00 0.000000000000000e+00 0.000000000000000e+00
0.000000000000000e+00 0.000000000000000e+00 0.000000000000000e+00
0.000000000000000e+00 0.000000000000000e+00 0.000000000000000e+00

0.000000000000000e+00 0.000000000000000e+00 0.000000000000000e+00
0.000000000000000e+00 0.000000000000000e+00 0.000000000000000e+00
0.000000000000000e+00 0.000000000000000e+00 0.000000000000000e+00

0.000000000000000e+00 0.000000000000000e+00 0.000000000000000e+00
0.000000000000000e+00 0.000000000000000e+00 0.000000000000000e+00
0.000000000000000e+00 0.000000000000000e+00 0.000000000000000e+00

0.000000000000000e+00 0.000000000000000e+00 0.000000000000000e+00
0.000000000000000e+00 0.000000000000000e+00 0.000000000000000e+00
0.000000000000000e+00 0.000000000000000e+00 0.000000000000000e+00

0.000000000000000e+00 0.000000000000000e+00 0.000000000000000e+00
0.000000000000000e+00 0.000000000000000e+00 0.000000000000000e+00
0.000000000000000e+00 0.000000000000000e+00 0.000000000000000e+00

0.000000000000000e+00 0.000000000000000e+00 0.000000000000000e+00
0.000000000000000e+00 0.000000000000000e+00 0.000000000000000e+00
0.000000000000000e+00 0.000000000000000e+00 0.000000000000000e+00

0.000000000000000e+00 0.000000000000000e+00 0.000000000000000e+00
0.000000000000000e+00 0.000000000000000e+00 0.000000000000000e+00
0.000000000000000e+00 0.000000000000000e+00 0.000000000000000e+00

0.000000000000000e+00 0.000000000000000e+00 0.000000000000000e+00
0.000000000000000e+00 0.000000000000000e+00 0.000000000000000e+00
0.000000000000000e+00 0.000000000000000e+00 0.000000000000000e+00

0.000000000000000e+00 0.000000000000000e+00 0.000000000000000e+00
0.000000000000000e+00 0.000000000000000e+00 0.000000000000000e+00
0.000000000000000e+00 0.000000000000000e+00 0.000000000000000e+00

0.000000000000000e+00 0.000000000000000e+00 0.000000000000000e+00
0.000000000000000e+00 0.000000000000000e+00 0.000000000000000e+00
0.000000000000000e+00 0.000000000000000e+00 0.000000000000000e+00

0.000000000000000e+00 0.000000000000000e+00 0.000000000000000e+00
0.000000000000000e+00 0.000000000000000e+00 0.000000000000000e+00
0.000000000000000e+00 0.000000000000000e+00 0.000000000000000e+00

0.000000000000000e+00 0.000000000000000e+00 0.000000000000000e+00
0.000000000000000e+00 0.000000000000000e+00 0.000000000000000e+00
0.000000000000000e+00 0.000000000000000e+00 0.000000000000000e+00

0.000000000000000e+00 0.000000000000000e+00 0.000000000000000e+00
0.000000000000000e+00 0.000000000000000e+00 0.000000000000000e+00
0.000000000000000e+00 0.000000000000000e+00 0.000000000000000e+00

0.000000000000000e+00 0.000000000000000e+00 0.000000000000000e+00
0.000000000000000e+00 0.000000000000000e+00 0.000000000000000e+00
0.000000000000000e+00 0.000000000000000e+00 0.000000000000000e+00

0.000000000000000e+00 0.000000000000000e+00 0.000000000000000e+00
0.000000000000000e+00 0.000000000000000e+00 0.000000000000000e+00
0.000000000000000e+00 0.000000000000000e+00 0.000000000000000e+00

0.000000000000000e+00 0.000000000000000e+00 0.000000000000000e+00
0.000000000000000e+00 0.000000000000000e+00 0.000000000000000e+00
0.000000000000000e+00 0.000000000000000e+00 0.000000000000000e+00

0.000000000000000e+00 0.000000000000000e+00 0.000000000000000e+00
0.000000000000000e+00 0.000000000000000e+00 0.000000000000000e+00
0.000000000000000e+00 0.000000000000000e+00 0.000000000000000e+00

0.000000000000000e+00 0.000000000000000e+00 0.000000000000000e+00
0.000000000000000e+00 0.000000000000000e+00 0.000000000000000e+00
0.000000000000000e+00 0.000000000000000e+00 0.000000000000000e+00

0.000000000000000e+00 0.000000000000000e+00 0.000000000000000e+00
0.000000000000000e+00 0.000000000000000e+00 0.000000000000000e+00
0.000000000000000e+00 0.000000000000000e+00 0.000000000000000e+00

0.000000000000000e+00 0.000000000000000e+00 0.000000000000000e+00
0.000000000000000e+00 0.000000000000000e+00 0.000000000000000e+00
0.000000000000000e+00 0.000000000000000e+00 0.000000000000000e+00

0.000000000000000e+00 0.000000000000000e+00 0.000000000000000e+00
0.000000000000000e+00 0.000000000000000e+00 0.000000000000000e+00
0.000000000000000e+00 0.000000000000000e+00 0.000000000000000e+00

0.000000000000000e+00 0.000000000000000e+00 0.000000000000000e+00
0.000000000000000e+00 0.000000000000000e+00 0.000000000000000e+00
0.000000000000000e+00 0.000000000000000e+00 0.000000000000000e+00

0.000000000000000e+00 0.000000000000000e+00 0.000000000000000e+00
0.000000000000000e+00 0.000000000000000e+00 0.000000000000000e+00
0.000000000000000e+00 0.000000000000000e+00 0.000000000000000e+00

0.000000000000000e+00 0.000000000000000e+00 0.000000000000000e+00
0.000000000000000e+00 0.000000000000000e+00 0.000000000000000e+00
0.000000000000000e+00 0.000000000000000e+00 0.000000000000000e+00

0.000000000000000e+00 0.000000000000000e+00 0.000000000000000e+00
0.000000000000000e+00 0.000000000000000e+00 0.000000000000000e+00
0.000000000000000e+00 0.000000000000000e+00 0.000000000000000e+00

0.000000000000000e+00 0.000000000000000e+00 0.000000000000000e+00
0.000000000000000e+00 0.000000000000000e+00 0.000000000000000e+00
0.000000000000000e+00 0.000000000000000e+00 0.000000000000000e+00

0.000000000000000e+00 0.000000000000000e+00 0.000000000000000e+00
0.000000000000000e+00 0.000000000000000e+00 0.000000000000000e+00
0.000000000000000e+00 0.000000000000000e+00 0.000000000000000e+00

0.000000000000000e+00 0.000000000000000e+00 0.000000000000000e+00
0.000000000000000e+00 0.000000000000000e+00 0.000000000000000e+00
0.000000000000000e+00 0.000000000000000e+00 0.000000000000000e+00

0.000000000000000e+00 0.000000000000000e+00 0.000000000000000e+00
0.000000000000000e+00 0.000000000000000e+00 0.000000000000000e+00
0.000000000000000e+00 0.000000000000000e+00 0.000000000000000e+00

0.000000000000000e+00 0.000000000000000e+00 0.000000000000000e+00
0.000000000000000e+00 0.000000000000000e+00 0.000000000000000e+00
0.000000000000000e+00 0.000000000000000e+00 0.000000000000000e+00

0.000000000000000e+00 0.000000000000000e+00 0.000000000000000e+00
0.000000000000000e+00 0.000000000000000e+00 0.000000000000000e+00
0.000000000000000e+00 0.000000000000000e+00 0.000000000000000e+00

0.000000000000000e+00 0.000000000000000e+00 0.000000000000000e+00
0.000000000000000e+00 0.000000000000000e+00 0.000000000000000e+00
0.000000000000000e+00 0.000000000000000e+00 0.000000000000000e+00

0.000000000000000e+00 0.000000000000000e+00 0.000000000000000e+00
0.000000000000000e+00 0.000000000000000e+00 0.000000000000000e+00
0.000000000000000e+00 0.000000000000000e+00 0.000000000000000e+00

0.000000000000000e+00 0.000000000000000e+00 0.000000000000000e+00
0.000000000000000e+00 0.000000000000000e+00 0.000000000000000e+00
0.000000000000000e+00 0.000000000000000e+00 0.000000000000000e+00

0.000000000000000e+00 0.000000000000000e+00 0.000000000000000e+00
0.000000000000000e+00 0.000000000000000e+00 0.000000000000000e+00
0.000000000000000e+00 0.000000000000000e+00 0.000000000000000e+00

0.000000000000000e+00 0.000000000000000e+00 0.000000000000000e+00
0.000000000000000e+00 0.000000000000000e+00 0.000000000000000e+00
0.000000000000000e+00 0.000000000000000e+00 0.000000000000000e+00

0.000000000000000e+00 0.000000000000000e+00 0.000000000000000e+00
0.000000000000000e+00 0.000000000000000e+00 0.000000000000000e+00
0.000000000000000e+00 0.000000000000000e+00 0.000000000000000e+00

0.000000000000000e+00 0.000000000000000e+00 0.000000000000000e+00
0.000000000000000e+00 0.000000000000000e+00 0.000000000000000e+00
0.000000000000000e+00 0.000000000000000e+00 0.000000000000000e+00

0.000000000000000e+00 0.000000000000000e+00 0.000000000000000e+00
0.000000000000000e+00 0.000000000000000e+00 0.000000000000000e+00
0.000000000000000e+00 0.000000000000000e+00 0.000000000000000e+00

0.000000000000000e+00 0.000000000000000e+00 0.000000000000000e+00
0.000000000000000e+00 0.000000000000000e+00 0.000000000000000e+00
0.000000000000000e+00 0.000000000000000e+00 0.000000000000000e+00

0.000000000000000e+00 0.000000000000000e+00 0.000000000000000e+00
0.000000000000000e+00 0.000000000000000e+00 0.000000000000000e+00
0.000000000000000e+00 0.000000000000000e+00 0.000000000000000e+00

0.000000000000000e+00 0.000000000000000e+00 0.000000000000000e+00
0.000000000000000e+00 0.000000000000000e+00 0.000000000000000e+00
0.000000000000000e+00 0.000000000000000e+00 0.000000000000000e+00

0.000000000000000e+00 0.000000000000000e+00 0.000000000000000e+00
0.000000000000000e+00 0.000000000000000e+00 0.000000000000000e+00
0.000000000000000e+00 0.000000000000000e+00 0.000000000000000e+00

0.000000000000000e+00 0.000000000000000e+00 0.000000000000000e+00
0.000000000000000e+00 0.000000000000000e+00 0.000000000000000e+00
0.000000000000000e+00 0.000000000000000e+00 0.000000000000000e+00

0.000000000000000e+00 0.000000000000000e+00 0.000000000000000e+00
0.000000000000000e+00 0.000000000000000e+00 0.000000000000000e+00
0.000000000000000e+00 0.000000000000000e+00 0.000000000000000e+00

0.000000000000000e+00 0.000000000000000e+00 0.000000000000000e+00
0.000000000000000e+00 0.000000000000000e+00 0.000000000000000e+00
0.000000000000000e+00 0.000000000000000e+00 0.000000000000000e+00

0.000000000000000e+00 0.000000000000000e+00 0.000000000000000e+00
0.000000000000000e+00 0.000000000000000e+00 0.000000000000000e+00
0.000000000000000e+00 0.000000000000000e+00 0.000000000000000e+00

0.000000000000000e+00 0.000000000000000e+00 0.000000000000000e+00
0.000000000000000e+00 0.000000000000000e+00 0.000000000000000e+00
0.000000000000000e+00 0.000000000000000e+00 0.000000000000000e+00

0.000000000000000e+00 0.000000000000000e+00 0.000000000000000e+00
0.000000000000000e+00 0.000000000000000e+00 0.000000000000000e+00
0.000000000000000e+00 0.000000000000000e+00 0.000000000000000e+00

0.000000000000000e+00 0.000000000000000e+00 0.000000000000000e+00
0.000000000000000e+00 0.000000000000000e+00 0.000000000000000e+00
0.000000000000000e+00 0.000000000000000e+00 0.000000000000000e+00

0.000000000000000e+00 0.000000000000000e+00 0.000000000000000e+00
0.000000000000000e+00 0.000000000000000e+00 0.000000000000000e+00
0.000000000000000e+00 0.000000000000000e+00 0.000000000000000e+00

0.000000000000000e+00 0.000000000000000e+00 0.000000000000000e+00
0.000000000000000e+00 0.000000000000000e+00 0.000000000000000e+00
0.000000000000000e+00 0.000000000000000e+00 0.000000000000000e+00

0.000000000000000e+00 0.000000000000000e+00 0.000000000000000e+00
0.000000000000000e+00 0.000000000000000e+00 0.000000000000000e+00
0.000000000000000e+00 0.000000000000000e+00 0.000000000000000e+00

0.000000000000000e+00 0.000000000000000e+00 0.000000000000000e+00
0.000000000000000e+00 0.000000000000000e+00 0.000000000000000e+00
0.000000000000000e+00 0.000000000000000e+00 0.000000000000000e+00

0.000000000000000e+00 0.000000000000000e+00 0.000000000000000e+00
0.000000000000000e+00 0.000000000000000e+00 0.000000000000000e+00
0.000000000000000e+00 0.000000000000000e+00 0.000000000000000e+00

0.000000000000000e+00 0.000000000000000e+00 0.000000000000000e+00
0.000000000000000e+00 0.000000000000000e+00 0.000000000000000e+00
0.000000000000000e+00 0.000000000000000e+00 0.000000000000000e+00

0.000000000000000e+00 0.000000000000000e+00 0.000000000000000e+00
0.000000000000000e+00 0.000000000000000e+00 0.000000000000000e+00
0.000000000000000e+00 0.000000000000000e+00 0.000000000000000e+00

0.000000000000000e+00 0.000000000000000e+00 0.000000000000000e+00
0.000000000000000e+00 0.000000000000000e+00 0.000000000000000e+00
0.000000000000000e+00 0.000000000000000e+00 0.000000000000000e+00

0.000000000000000e+00 0.000000000000000e+00 0.000000000000000e+00
0.000000000000000e+00 0.000000000000000e+00 0.000000000000000e+00
0.000000000000000e+00 0.000000000000000e+00 0.000000000000000e+00

0.000000000000000e+00 0.000000000000000e+00 0.000000000000000e+00
0.000000000000000e+00 0.000000000000000e+00 0.000000000000000e+00
0.000000000000000e+00 0.000000000000000e+00 0.000000000000000e+00

0.000000000000000e+00 0.000000000000000e+00 0.000000000000000e+00
0.000000000000000e+00 0.000000000000000e+00 0.000000000000000e+00
0.000000000000000e+00 0.000000000000000e+00 0.000000000000000e+00

0.000000000000000e+00 0.000000000000000e+00 0.000000000000000e+00
0.000000000000000e+00 0.000000000000000e+00 0.000000000000000e+00
0.000000000000000e+00 0.000000000000000e+00 0.000000000000000e+00

0.000000000000000e+00 0.000000000000000e+00 0.000000000000000e+00
0.000000000000000e+00 0.000000000000000e+00 0.000000000000000e+00
0.000000000000000e+00 0.000000000000000e+00 0.000000000000000e+00

0.000000000000000e+00 0.000000000000000e+00 0.000000000000000e+00
0.000000000000000e+00 0.000000000000000e+00 0.000000000000000e+00
0.000000000000000e+00 0.000000000000000e+00 0.000000000000000e+00

0.000000000000000e+00 0.000000000000000e+00 0.000000000000000e+00
0.000000000000000e+00 0.000000000000000e+00 0.000000000000000e+00
0.000000000000000e+00 0.000000000000000e+00 0.000000000000000e+00

0.000000000000000e+00 0.000000000000000e+00 0.000000000000000e+00
0.000000000000000e+00 0.000000000000000e+00 0.000000000000000e+00
0.000000000000000e+00 0.000000000000000e+00 0.000000000000000e+00

0.000000000000000e+00 0.000000000000000e+00 0.000000000000000e+00
0.000000000000000e+00 0.000000000000000e+00 0.000000000000000e+00
0.000000000000000e+00 0.000000000000000e+00 0.000000000000000e+00

0.000000000000000e+00 0.000000000000000e+00 0.000000000000000e+00
0.000000000000000e+00 0.000000000000000e+00 0.000000000000000e+00
0.000000000000000e+00 0.000000000000000e+00 0.000000000000000e+00

0.000000000000000e+00 0.000000000000000e+00 0.000000000000000e+00
0.000000000000000e+00 0.000000000000000e+00 0.000000000000000e+00
0.000000000000000e+00 0.000000000000000e+00 0.000000000000000e+00

0.000000000000000e+00 0.000000000000000e+00 0.000000000000000e+00
0.000000000000000e+00 0.000000000000000e+00 0.000000000000000e+00
0.000000000000000e+00 0.000000000000000e+00 0.000000000000000e+00

0.000000000000000e+00 0.000000000000000e+00 0.000000000000000e+00
0.000000000000000e+00 0.000000000000000e+00 0.000000000000000e+00
0.000000000000000e+00 0.000000000000000e+00 0.000000000000000e+00

0.000000000000000e+00 0.000000000000000e+00 0.000000000000000e+00
0.000000000000000e+00 0.000000000000000e+00 0.000000000000000e+00
0.000000000000000e+00 0.000000000000000e+00 0.000000000000000e+00

0.000000000000000e+00 0.000000000000000e+00 0.000000000000000e+00
0.000000000000000e+00 0.000000000000000e+00 0.000000000000000e+00
0.000000000000000e+00 0.000000000000000e+00 0.000000000000000e+00

0.000000000000000e+00 0.000000000000000e+00 0.000000000000000e+00
0.000000000000000e+00 0.000000000000000e+00 0.000000000000000e+00
0.000000000000000e+00 0.000000000000000e+00 0.000000000000000e+00

0.000000000000000e+00 0.000000000000000e+00 0.000000000000000e+00
0.000000000000000e+00 0.000000000000000e+00 0.000000000000000e+00
0.000000000000000e+00 0.000000000000000e+00 0.000000000000000e+00

0.000000000000000e+00 0.000000000000000e+00 0.000000000000000e+00
0.000000000000000e+00 0.000000000000000e+00 0.000000000000000e+00
0.000000000000000e+00 0.000000000000000e+00 0.000000000000000e+00

0.000000000000000e+00 0.000000000000000e+00 0.000000000000000e+00
0.000000000000000e+00 0.000000000000000e+00 0.000000000000000e+00
0.000000000000000e+00 0.000000000000000e+00 0.000000000000000e+00

0.000000000000000e+00 0.000000000000000e+00 0.000000000000000e+00
0.000000000000000e+00 0.000000000000000e+00 0.000000000000000e+00
0.000000000000000e+00 0.000000000000000e+00 0.000000000000000e+00

0.000000000000000e+00 0.000000000000000e+00 0.000000000000000e+00
0.000000000000000e+00 0.000000000000000e+00 0.000000000000000e+00
0.000000000000000e+00 0.000000000000000e+00 0.000000000000000e+00

0.000000000000000e+00 0.000000000000000e+00 0.000000000000000e+00
0.000000000000000e+00 0.000000000000000e+00 0.000000000000000e+00
0.000000000000000e+00 0.000000000000000e+00 0.000000000000000e+00

0.000000000000000e+00 0.000000000000000e+00 0.000000000000000e+00
0.000000000000000e+00 0.000000000000000e+00 0.000000000000000e+00
0.000000000000000e+00 0.000000000000000e+00 0.000000000000000e+00

0.000000000000000e+00 0.000000000000000e+00 0.000000000000000e+00
0.000000000000000e+00 0.000000000000000e+00 0.000000000000000e+00
0.000000000000000e+00 0.000000000000000e+00 0.000000000000000e+00

0.000000000000000e+00 0.000000000000000e+00 0.000000000000000e+00
0.000000000000000e+00 0.000000000000000e+00 0.000000000000000e+00
0.000000000000000e+00 0.000000000000000e+00 0.000000000000000e+00

0.000000000000000e+00 0.000000000000000e+00 0.000000000000000e+00
0.000000000000000e+00 0.000000000000000e+00 0.000000000000000e+00
0.000000000000000e+00 0.000000000000000e+00 0.000000000000000e+00

0.000000000000000e+00 0.000000000000000e+00 0.000000000000000e+00
0.000000000000000e+00 0.000000000000000e+00 0.000000000000000e+00
0.000000000000000e+00 0.000000000000000e+00 0.000000000000000e+00

0.000000000000000e+00 0.000000000000000e+00 0.000000000000000e+00
0.000000000000000e+00 0.000000000000000e+00 0.000000000000000e+00
0.000000000000000e+00 0.000000000000000e+00 0.000000000000000e+00

0.000000000000000e+00 0.000000000000000e+00 0.000000000000000e+00
0.000000000000000e+00 0.000000000000000e+00 0.000000000000000e+00
0.000000000000000e+00 0.000000000000000e+00 0.000000000000000e+00

0.000000000000000e+00 0.000000000000000e+00 0.000000000000000e+00
0.000000000000000e+00 0.000000000000000e+00 0.000000000000000e+00
0.000000000000000e+00 0.000000000000000e+00 0.000000000000000e+00

0.000000000000000e+00 0.000000000000000e+00 0.000000000000000e+00
0.000000000000000e+00 0.000000000000000e+00 0.000000000000000e+00
0.000000000000000e+00 0.000000000000000e+00 0.000000000000000e+00

0.000000000000000e+00 0.000000000000000e+00 0.000000000000000e+00
0.000000000000000e+00 0.000000000000000e+00 0.000000000000000e+00
0.000000000000000e+00 0.000000000000000e+00 0.000000000000000e+00

0.000000000000000e+00 0.000000000000000e+00 0.000000000000000e+00
0.000000000000000e+00 0.000000000000000e+00 0.000000000000000e+00
0.000000000000000e+00 0.000000000000000e+00 0.000000000000000e+00

0.000000000000000e+00 0.000000000000000e+00 0.000000000000000e+00
0.000000000000000e+00 0.000000000000000e+00 0.000000000000000e+00
0.000000000000000e+00 0.000000000000000e+00 0.000000000000000e+00

0.000000000000000e+00 0.000000000000000e+00 0.000000000000000e+00
0.000000000000000e+00 0.000000000000000e+00 0.000000000000000e+00
0.000000000000000e+00 0.000000000000000e+00 0.000000000000000e+00

0.000000000000000e+00 0.000000000000000e+00 0.000000000000000e+00
0.000000000000000e+00 0.000000000000000e+00 0.000000000000000e+00
0.000000000000000e+00 0.000000000000000e+00 0.000000000000000e+00

0.000000000000000e+00 0.000000000000000e+00 0.000000000000000e+00
0.000000000000000e+00 0.000000000000000e+00 0.000000000000000e+00
0.000000000000000e+00 0.000000000000000e+00 0.000000000000000e+00

0.000000000000000e+00 0.000000000000000e+00 0.000000000000000e+00
0.000000000000000e+00 0.000000000000000e+00 0.000000000000000e+00
0.000000000000000e+00 0.000000000000000e+00 0.000000000000000e+00

0.000000000000000e+00 0.000000000000000e+00 0.000000000000000e+00
0.000000000000000e+00 0.000000000000000e+00 0.000000000000000e+00
0.000000000000000e+00 0.000000000000000e+00 0.000000000000000e+00

0.000000000000000e+00 0.000000000000000e+00 0.000000000000000e+00
0.000000000000000e+00 0.000000000000000e+00 0.000000000000000e+00
0.000000000000000e+00 0.000000000000000e+00 0.000000000000000e+00

0.000000000000000e+00 0.000000000000000e+00 0.000000000000000e+00
0.000000000000000e+00 0.000000000000000e+00 0.000000000000000e+00
0.000000000000000e+00 0.000000000000000e+00 0.000000000000000e+00

0.000000000000000e+00 0.000000000000000e+00 0.000000000000000e+00
0.000000000000000e+00 0.000000000000000e+00 0.000000000000000e+00
0.000000000000000e+00 0.000000000000000e+00 0.000000000000000e+00

0.000000000000000e+00 0.000000000000000e+00 0.000000000000000e+00
0.000000000000000e+00 0.000000000000000e+00 0.000000000000000e+00
0.000000000000000e+00 0.000000000000000e+00 0.000000000000000e+00

0.000000000000000e+00 0.000000000000000e+00 0.000000000000000e+00
0.000000000000000e+00 0.000000000000000e+00 0.000000000000000e+00
0.000000000000000e+00 0.000000000000000e+00 0.000000000000000e+00

0.000000000000000e+00 0.000000000000000e+00 0.000000000000000e+00
0.000000000000000e+00 0.000000000000000e+00 0.000000000000000e+00
0.000000000000000e+00 0.000000000000000e+00 0.000000000000000e+00

0.000000000000000e+00 0.000000000000000e+00 0.000000000000000e+00
0.000000000000000e+00 0.000000000000000e+00 0.000000000000000e+00
0.000000000000000e+00 0.000000000000000e+00 0.000000000000000e+00

0.000000000000000e+00 0.000000000000000e+00 0.000000000000000e+00
0.000000000000000e+00 0.000000000000000e+00 0.000000000000000e+00
0.000000000000000e+00 0.000000000000000e+00 0.000000000000000e+00

0.000000000000000e+00 0.000000000000000e+00 0.000000000000000e+00
0.000000000000000e+00 0.000000000000000e+00 0.000000000000000e+00
0.000000000000000e+00 0.000000000000000e+00 0.000000000000000e+00

0.000000000000000e+00 0.000000000000000e+00 0.000000000000000e+00
0.000000000000000e+00 0.000000000000000e+00 0.000000000000000e+00
0.000000000000000e+00 0.000000000000000e+00 0.000000000000000e+00

0.000000000000000e+00 0.000000000000000e+00 0.000000000000000e+00
0.000000000000000e+00 0.000000000000000e+00 0.000000000000000e+00
0.000000000000000e+00 0.000000000000000e+00 0.000000000000000e+00

0.000000000000000e+00 0.000000000000000e+00 0.000000000000000e+00
0.000000000000000e+00 0.000000000000000e+00 0.000000000000000e+00
0.000000000000000e+00 0.000000000000000e+00 0.000000000000000e+00

0.000000000000000e+00 0.000000000000000e+00 0.000000000000000e+00
0.000000000000000e+00 0.000000000000000e+00 0.000000000000000e+00
0.000000000000000e+00 0.000000000000000e+00 0.000000000000000e+00

0.000000000000000e+00 0.000000000000000e+00 0.000000000000000e+00
0.000000000000000e+00 0.000000000000000e+00 0.000000000000000e+00
0.000000000000000e+00 0.000000000000000e+00 0.000000000000000e+00

0.000000000000000e+00 0.000000000000000e+00 0.000000000000000e+00
0.000000000000000e+00 0.000000000000000e+00 0.000000000000000e+00
0.000000000000000e+00 0.000000000000000e+00 0.000000000000000e+00

0.000000000000000e+00 0.000000000000000e+00 0.000000000000000e+00
0.000000000000000e+00 0.000000000000000e+00 0.000000000000000e+00
0.000000000000000e+00 0.000000000000000e+00 0.000000000000000e+00

0.000000000000000e+00 0.000000000000000e+00 0.000000000000000e+00
0.000000000000000e+00 0.000000000000000e+00 0.000000000000000e+00
0.000000000000000e+00 0.000000000000000e+00 0.000000000000000e+00

0.000000000000000e+00 0.000000000000000e+00 0.000000000000000e+00
0.000000000000000e+00 0.000000000000000e+00 0.000000000000000e+00
0.000000000000000e+00 0.000000000000000e+00 0.000000000000000e+00

0.000000000000000e+00 0.000000000000000e+00 0.000000000000000e+00
0.000000000000000e+00 0.000000000000000e+00 0.000000000000000e+00
0.000000000000000e+00 0.000000000000000e+00 0.000000000000000e+00

0.000000000000000e+00 0.000000000000000e+00 0.000000000000000e+00
0.000000000000000e+00 0.000000000000000e+00 0.000000000000000e+00
0.000000000000000e+00 0.000000000000000e+00 0.000000000000000e+00

0.000000000000000e+00 0.000000000000000e+00 0.000000000000000e+00
0.000000000000000e+00 0.000000000000000e+00 0.000000000000000e+00
0.000000000000000e+00 0.000000000000000e+00 0.000000000000000e+00

0.000000000000000e+00 0.000000000000000e+00 0.000000000000000e+00
0.000000000000000e+00 0.000000000000000e+00 0.000000000000000e+00
0.000000000000000e+00 0.000000000000000e+00 0.000000000000000e+00

0.000000000000000e+00 0.000000000000000e+00 0.000000000000000e+00
0.000000000000000e+00 0.000000000000000e+00 0.000000000000000e+00
0.000000000000000e+00 0.000000000000000e+00 0.000000000000000e+00

0.000000000000000e+00 0.000000000000000e+00 0.000000000000000e+00
0.000000000000000e+00 0.000000000000000e+00 0.000000000000000e+00
0.000000000000000e+00 0.000000000000000e+00 0.000000000000000e+00

0.000000000000000e+00 0.000000000000000e+00 0.000000000000000e+00
0.000000000000000e+00 0.000000000000000e+00 0.000000000000000e+00
0.000000000000000e+00 0.000000000000000e+00 0.000000000000000e+00

0.000000000000000e+00 0.000000000000000e+00 0.000000000000000e+00
0.000000000000000e+00 0.000000000000000e+00 0.000000000000000e+00
0.000000000000000e+00 0.000000000000000e+00 0.000000000000000e+00

0.000000000000000e+00 0.000000000000000e+00 0.000000000000000e+00
0.000000000000000e+00 0.000000000000000e+00 0.000000000000000e+00
0.000000000000000e+00 0.000000000000000e+00 0.000000000000000e+00

0.000000000000000e+00 0.000000000000000e+00 0.000000000000000e+00
0.000000000000000e+00 0.000000000000000e+00 0.000000000000000e+00
0.000000000000000e+00 0.000000000000000e+00 0.000000000000000e+00

0.000000000000000e+00 0.000000000000000e+00 0.000000000000000e+00
0.000000000000000e+00 0.000000000000000e+00 0.000000000000000e+00
0.000000000000000e+00 0.000000000000000e+00 0.000000000000000e+00

0.000000000000000e+00 0.000000000000000e+00 0.000000000000000e+00
0.000000000000000e+00 0.000000000000000e+00 0.000000000000000e+00
0.000000000000000e+00 0.000000000000000e+00 0.000000000000000e+00

0.000000000000000e+00 0.000000000000000e+00 0.000000000000000e+00
0.000000000000000e+00 0.000000000000000e+00 0.000000000000000e+00
0.000000000000000e+00 0.000000000000000e+00 0.000000000000000e+00

0.000000000000000e+00 0.000000000000000e+00 0.000000000000000e+00
0.000000000000000e+00 0.000000000000000e+00 0.000000000000000e+00
0.000000000000000e+00 0.000000000000000e+00 0.000000000000000e+00

0.000000000000000e+00 0.000000000000000e+00 0.000000000000000e+00
0.000000000000000e+00 0.000000000000000e+00 0.000000000000000e+00
0.000000000000000e+00 0.000000000000000e+00 0.000000000000000e+00

0.000000000000000e+00 0.000000000000000e+00 0.000000000000000e+00
0.000000000000000e+00 0.000000000000000e+00 0.000000000000000e+00
0.000000000000000e+00 0.000000000000000e+00 0.000000000000000e+00

0.000000000000000e+00 0.000000000000000e+00 0.000000000000000e+00
0.000000000000000e+00 0.000000000000000e+00 0.000000000000000e+00
0.000000000000000e+00 0.000000000000000e+00 0.000000000000000e+00

0.000000000000000e+00 0.000000000000000e+00 0.000000000000000e+00
0.000000000000000e+00 0.000000000000000e+00 0.000000000000000e+00
0.000000000000000e+00 0.000000000000000e+00 0.000000000000000e+00

0.000000000000000e+00 0.000000000000000e+00 0.000000000000000e+00
0.000000000000000e+00 0.000000000000000e+00 0.000000000000000e+00
0.000000000000000e+00 0.000000000000000e+00 0.000000000000000e+00

0.000000000000000e+00 0.000000000000000e+00 0.000000000000000e+00
0.000000000000000e+00 0.000000000000000e+00 0.000000000000000e+00
0.000000000000000e+00 0.000000000000000e+00 0.000000000000000e+00

0.000000000000000e+00 0.000000000000000e+00 0.000000000000000e+00
0.000000000000000e+00 0.000000000000000e+00 0.000000000000000e+00
0.000000000000000e+00 0.000000000000000e+00 0.000000000000000e+00

0.000000000000000e+00 0.000000000000000e+00 0.000000000000000e+00
0.000000000000000e+00 0.000000000000000e+00 0.000000000000000e+00
0.000000000000000e+00 0.000000000000000e+00 0.000000000000000e+00

0.000000000000000e+00 0.000000000000000e+00 0.000000000000000e+00
0.000000000000000e+00 0.000000000000000e+00 0.000000000000000e+00
0.000000000000000e+00 0.000000000000000e+00 0.000000000000000e+00

0.000000000000000e+00 0.000000000000000e+00 0.000000000000000e+00
0.000000000000000e+00 0.000000000000000e+00 0.000000000000000e+00
0.000000000000000e+00 0.000000000000000e+00 0.000000000000000e+00

0.000000000000000e+00 0.000000000000000e+00 0.000000000000000e+00
0.000000000000000e+00 0.000000000000000e+00 0.000000000000000e+00
0.000000000000000e+00 0.000000000000000e+00 0.000000000000000e+00

0.000000000000000e+00 0.000000000000000e+00 0.000000000000000e+00
0.000000000000000e+00 0.000000000000000e+00 0.000000000000000e+00
0.000000000000000e+00 0.000000000000000e+00 0.000000000000000e+00

0.000000000000000e+00 0.000000000000000e+00 0.000000000000000e+00
0.000000000000000e+00 0.000000000000000e+00 0.000000000000000e+00
0.000000000000000e+00 0.000000000000000e+00 0.000000000000000e+00

0.000000000000000e+00 0.000000000000000e+00 0.000000000000000e+00
0.000000000000000e+00 0.000000000000000e+00 0.000000000000000e+00
0.000000000000000e+00 0.000000000000000e+00 0.000000000000000e+00

0.000000000000000e+00 0.000000000000000e+00 0.000000000000000e+00
0.000000000000000e+00 0.000000000000000e+00 0.000000000000000e+00
0.000000000000000e+00 0.000000000000000e+00 0.000000000000000e+00

0.000000000000000e+00 0.000000000000000e+00 0.000000000000000e+00
0.000000000000000e+00 0.000000000000000e+00 0.000000000000000e+00
0.000000000000000e+00 0.000000000000000e+00 0.000000000000000e+00

0.000000000000000e+00 0.000000000000000e+00 0.000000000000000e+00
0.000000000000000e+00 0.000000000000000e+00 0.000000000000000e+00
0.000000000000000e+00 0.000000000000000e+00 0.000000000000000e+00

0.000000000000000e+00 0.000000000000000e+00 0.000000000000000e+00
0.000000000000000e+00 0.000000000000000e+00 0.000000000000000e+00
0.000000000000000e+00 0.000000000000000e+00 0.000000000000000e+00

0.000000000000000e+00 0.000000000000000e+00 0.000000000000000e+00
0.000000000000000e+00 0.000000000000000e+00 0.000000000000000e+00
0.000000000000000e+00 0.000000000000000e+00 0.000000000000000e+00

0.000000000000000e+00 0.000000000000000e+00 0.000000000000000e+00
0.000000000000000e+00 0.000000000000000e+00 0.000000000000000e+00
0.000000000000000e+00 0.000000000000000e+00 0.000000000000000e+00

0.000000000000000e+00 0.000000000000000e+00 0.000000000000000e+00
0.000000000000000e+00 0.000000000000000e+00 0.000000000000000e+00
0.000000000000000e+00 0.000000000000000e+00 0.000000000000000e+00

0.000000000000000e+00 0.000000000000000e+00 0.000000000000000e+00
0.000000000000000e+00 0.000000000000000e+00 0.000000000000000e+00
0.000000000000000e+00 0.000000000000000e+00 0.000000000000000e+00

0.000000000000000e+00 0.000000000000000e+00 0.000000000000000e+00
0.000000000000000e+00 0.000000000000000e+00 0.000000000000000e+00
0.000000000000000e+00 0.000000000000000e+00 0.000000000000000e+00

0.000000000000000e+00 0.000000000000000e+00 0.000000000000000e+00
0.000000000000000e+00 0.000000000000000e+00 0.000000000000000e+00
0.000000000000000e+00 0.000000000000000e+00 0.000000000000000e+00

0.000000000000000e+00 0.000000000000000e+00 0.000000000000000e+00
0.000000000000000e+00 0.000000000000000e+00 0.000000000000000e+00
0.000000000000000e+00 0.000000000000000e+00 0.000000000000000e+00

0.000000000000000e+00 0.000000000000000e+00 0.000000000000000e+00
0.000000000000000e+00 0.000000000000000e+00 0.000000000000000e+00
0.000000000000000e+00 0.000000000000000e+00 0.000000000000000e+00

0.000000000000000e+00 0.000000000000000e+00 0.000000000000000e+00
0.000000000000000e+00 0.000000000000000e+00 0.000000000000000e+00
0.000000000000000e+00 0.000000000000000e+00 0.000000000000000e+00

0.000000000000000e+00 0.000000000000000e+00 0.000000000000000e+00
0.000000000000000e+00 0.000000000000000e+00 0.000000000000000e+00
0.000000000000000e+00 0.000000000000000e+00 0.000000000000000e+00

0.000000000000000e+00 0.000000000000000e+00 0.000000000000000e+00
0.000000000000000e+00 0.000000000000000e+00 0.000000000000000e+00
0.000000000000000e+00 0.000000000000000e+00 0.000000000000000e+00

0.000000000000000e+00 0.000000000000000e+00 0.000000000000000e+00
0.000000000000000e+00 0.000000000000000e+00 0.000000000000000e+00
0.000000000000000e+00 0.000000000000000e+00 0.000000000000000e+00

0.000000000000000e+00 0.000000000000000e+00 0.000000000000000e+00
0.000000000000000e+00 0.000000000000000e+00 0.000000000000000e+00
0.000000000000000e+00 0.000000000000000e+00 0.000000000000000e+00

0.000000000000000e+00 0.000000000000000e+00 0.000000000000000e+00
0.000000000000000e+00 0.000000000000000e+00 0.000000000000000e+00
0.000000000000000e+00 0.000000000000000e+00 0.000000000000000e+00

0.000000000000000e+00 0.000000000000000e+00 0.000000000000000e+00
0.000000000000000e+00 0.000000000000000e+00 0.000000000000000e+00
0.000000000000000e+00 0.000000000000000e+00 0.000000000000000e+00

0.000000000000000e+00 0.000000000000000e+00 0.000000000000000e+00
0.000000000000000e+00 0.000000000000000e+00 0.000000000000000e+00
0.000000000000000e+00 0.000000000000000e+00 0.000000000000000e+00

0.000000000000000e+00 0.000000000000000e+00 0.000000000000000e+00
0.000000000000000e+00 0.000000000000000e+00 0.000000000000000e+00
0.000000000000000e+00 0.000000000000000e+00 0.000000000000000e+00

0.000000000000000e+00 0.000000000000000e+00 0.000000000000000e+00
0.000000000000000e+00 0.000000000000000e+00 0.000000000000000e+00
0.000000000000000e+00 0.000000000000000e+00 0.000000000000000e+00

0.000000000000000e+00 0.000000000000000e+00 0.000000000000000e+00
0.000000000000000e+00 0.000000000000000e+00 0.000000000000000e+00
0.000000000000000e+00 0.000000000000000e+00 0.000000000000000e+00

0.000000000000000e+00 0.000000000000000e+00 0.000000000000000e+00
0.000000000000000e+00 0.000000000000000e+00 0.000000000000000e+00
0.000000000000000e+00 0.000000000000000e+00 0.000000000000000e+00

0.000000000000000e+00 0.000000000000000e+00 0.000000000000000e+00
0.000000000000000e+00 0.000000000000000e+00 0.000000000000000e+00
0.000000000000000e+00 0.000000000000000e+00 0.000000000000000e+00

0.000000000000000e+00 0.000000000000000e+00 0.000000000000000e+00
0.000000000000000e+00 0.000000000000000e+00 0.000000000000000e+00
0.000000000000000e+00 0.000000000000000e+00 0.000000000000000e+00

0.000000000000000e+00 0.000000000000000e+00 0.000000000000000e+00
0.000000000000000e+00 0.000000000000000e+00 0.000000000000000e+00
0.000000000000000e+00 0.000000000000000e+00 0.000000000000000e+00

0.000000000000000e+00 0.000000000000000e+00 0.000000000000000e+00
0.000000000000000e+00 0.000000000000000e+00 0.000000000000000e+00
0.000000000000000e+00 0.000000000000000e+00 0.000000000000000e+00

0.000000000000000e+00 0.000000000000000e+00 0.000000000000000e+00
0.000000000000000e+00 0.000000000000000e+00 0.000000000000000e+00
0.000000000000000e+00 0.000000000000000e+00 0.000000000000000e+00

0.000000000000000e+00 0.000000000000000e+00 0.000000000000000e+00
0.000000000000000e+00 0.000000000000000e+00 0.000000000000000e+00
0.000000000000000e+00 0.000000000000000e+00 0.000000000000000e+00

0.000000000000000e+00 0.000000000000000e+00 0.000000000000000e+00
0.000000000000000e+00 0.000000000000000e+00 0.000000000000000e+00
0.000000000000000e+00 0.000000000000000e+00 0.000000000000000e+00

0.000000000000000e+00 0.000000000000000e+00 0.000000000000000e+00
0.000000000000000e+00 0.000000000000000e+00 0.000000000000000e+00
0.000000000000000e+00 0.000000000000000e+00 0.000000000000000e+00

0.000000000000000e+00 0.000000000000000e+00 0.000000000000000e+00
0.000000000000000e+00 0.000000000000000e+00 0.000000000000000e+00
0.000000000000000e+00 0.000000000000000e+00 0.000000000000000e+00

0.000000000000000e+00 0.000000000000000e+00 0.000000000000000e+00
0.000000000000000e+00 0.000000000000000e+00 0.000000000000000e+00
0.000000000000000e+00 0.000000000000000e+00 0.000000000000000e+00

0.000000000000000e+00 0.000000000000000e+00 0.000000000000000e+00
0.000000000000000e+00 0.000000000000000e+00 0.000000000000000e+00
0.000000000000000e+00 0.000000000000000e+00 0.000000000000000e+00

0.000000000000000e+00 0.000000000000000e+00 0.000000000000000e+00
0.000000000000000e+00 0.000000000000000e+00 0.000000000000000e+00
0.000000000000000e+00 0.000000000000000e+00 0.000000000000000e+00

0.000000000000000e+00 0.000000000000000e+00 0.000000000000000e+00
0.000000000000000e+00 0.000000000000000e+00 0.000000000000000e+00
0.000000000000000e+00 0.000000000000000e+00 0.000000000000000e+00

0.000000000000000e+00 0.000000000000000e+00 0.000000000000000e+00
0.000000000000000e+00 0.000000000000000e+00 0.000000000000000e+00
0.000000000000000e+00 0.000000000000000e+00 0.000000000000000e+00

0.000000000000000e+00 0.000000000000000e+00 0.000000000000000e+00
0.000000000000000e+00 0.000000000000000e+00 0.000000000000000e+00
0.000000000000000e+00 0.000000000000000e+00 0.000000000000000e+00

0.000000000000000e+00 0.000000000000000e+00 0.000000000000000e+00
0.000000000000000e+00 0.000000000000000e+00 0.000000000000000e+00
0.000000000000000e+00 0.000000000000000e+00 0.000000000000000e+00

0.000000000000000e+00 0.000000000000000e+00 0.000000000000000e+00
0.000000000000000e+00 0.000000000000000e+00 0.000000000000000e+00
0.000000000000000e+00 0.000000000000000e+00 0.000000000000000e+00

0.000000000000000e+00 0.000000000000000e+00 0.000000000000000e+00
0.000000000000000e+00 0.000000000000000e+00 0.000000000000000e+00
0.000000000000000e+00 0.000000000000000e+00 0.000000000000000e+00

0.000000000000000e+00 0.000000000000000e+00 0.000000000000000e+00
0.000000000000000e+00 0.000000000000000e+00 0.000000000000000e+00
0.000000000000000e+00 0.000000000000000e+00 0.000000000000000e+00

0.000000000000000e+00 0.000000000000000e+00 0.000000000000000e+00
0.000000000000000e+00 0.000000000000000e+00 0.000000000000000e+00
0.000000000000000e+00 0.000000000000000e+00 0.000000000000000e+00

0.000000000000000e+00 0.000000000000000e+00 0.000000000000000e+00
0.000000000000000e+00 0.000000000000000e+00 0.000000000000000e+00
0.000000000000000e+00 0.000000000000000e+00 0.000000000000000e+00

0.000000000000000e+00 0.000000000000000e+00 0.000000000000000e+00
0.000000000000000e+00 0.000000000000000e+00 0.000000000000000e+00
0.000000000000000e+00 0.000000000000000e+00 0.000000000000000e+00

0.000000000000000e+00 0.000000000000000e+00 0.000000000000000e+00
0.000000000000000e+00 0.000000000000000e+00 0.000000000000000e+00
0.000000000000000e+00 0.000000000000000e+00 0.000000000000000e+00

0.000000000000000e+00 0.000000000000000e+00 0.000000000000000e+00
0.000000000000000e+00 0.000000000000000e+00 0.000000000000000e+00
0.000000000000000e+00 0.000000000000000e+00 0.000000000000000e+00

0.000000000000000e+00 0.000000000000000e+00 0.000000000000000e+00
0.000000000000000e+00 0.000000000000000e+00 0.000000000000000e+00
0.000000000000000e+00 0.000000000000000e+00 0.000000000000000e+00

0.000000000000000e+00 0.000000000000000e+00 0.000000000000000e+00
0.000000000000000e+00 0.000000000000000e+00 0.000000000000000e+00
0.000000000000000e+00 0.000000000000000e+00 0.000000000000000e+00

0.000000000000000e+00 0.000000000000000e+00 0.000000000000000e+00
0.000000000000000e+00 0.000000000000000e+00 0.000000000000000e+00
0.000000000000000e+00 0.000000000000000e+00 0.000000000000000e+00

0.000000000000000e+00 0.000000000000000e+00 0.000000000000000e+00
0.000000000000000e+00 0.000000000000000e+00 0.000000000000000e+00
0.000000000000000e+00 0.000000000000000e+00 0.000000000000000e+00

0.000000000000000e+00 0.000000000000000e+00 0.000000000000000e+00
0.000000000000000e+00 0.000000000000000e+00 0.000000000000000e+00
0.000000000000000e+00 0.000000000000000e+00 0.000000000000000e+00

0.000000000000000e+00 0.000000000000000e+00 0.000000000000000e+00
0.000000000000000e+00 0.000000000000000e+00 0.000000000000000e+00
0.000000000000000e+00 0.000000000000000e+00 0.000000000000000e+00

0.000000000000000e+00 0.000000000000000e+00 0.000000000000000e+00
0.000000000000000e+00 0.000000000000000e+00 0.000000000000000e+00
0.000000000000000e+00 0.000000000000000e+00 0.000000000000000e+00

0.000000000000000e+00 0.000000000000000e+00 0.000000000000000e+00
0.000000000000000e+00 0.000000000000000e+00 0.000000000000000e+00
0.000000000000000e+00 0.000000000000000e+00 0.000000000000000e+00

0.000000000000000e+00 0.000000000000000e+00 0.000000000000000e+00
0.000000000000000e+00 0.000000000000000e+00 0.000000000000000e+00
0.000000000000000e+00 0.000000000000000e+00 0.000000000000000e+00

0.000000000000000e+00 0.000000000000000e+00 0.000000000000000e+00
0.000000000000000e+00 0.000000000000000e+00 0.000000000000000e+00
0.000000000000000e+00 0.000000000000000e+00 0.000000000000000e+00

0.000000000000000e+00 0.000000000000000e+00 0.000000000000000e+00
0.000000000000000e+00 0.000000000000000e+00 0.000000000000000e+00
0.000000000000000e+00 0.000000000000000e+00 0.000000000000000e+00

0.000000000000000e+00 0.000000000000000e+00 0.000000000000000e+00
0.000000000000000e+00 0.000000000000000e+00 0.000000000000000e+00
0.000000000000000e+00 0.000000000000000e+00 0.000000000000000e+00

0.000000000000000e+00 0.000000000000000e+00 0.000000000000000e+00
0.000000000000000e+00 0.000000000000000e+00 0.000000000000000e+00
0.000000000000000e+00 0.000000000000000e+00 0.000000000000000e+00

0.000000000000000e+00 0.000000000000000e+00 0.000000000000000e+00
0.000000000000000e+00 0.000000000000000e+00 0.000000000000000e+00
0.000000000000000e+00 0.000000000000000e+00 0.000000000000000e+00

0.000000000000000e+00 0.000000000000000e+00 0.000000000000000e+00
0.000000000000000e+00 0.000000000000000e+00 0.000000000000000e+00
0.000000000000000e+00 0.000000000000000e+00 0.000000000000000e+00

0.000000000000000e+00 0.000000000000000e+00 0.000000000000000e+00
0.000000000000000e+00 0.000000000000000e+00 0.000000000000000e+00
0.000000000000000e+00 0.000000000000000e+00 0.000000000000000e+00

0.000000000000000e+00 0.000000000000000e+00 0.000000000000000e+00
0.000000000000000e+00 0.000000000000000e+00 0.000000000000000e+00
0.000000000000000e+00 0.000000000000000e+00 0.000000000000000e+00

0.000000000000000e+00 0.000000000000000e+00 0.000000000000000e+00
0.000000000000000e+00 0.000000000000000e+00 0.000000000000000e+00
0.000000000000000e+00 0.000000000000000e+00 0.000000000000000e+00

0.000000000000000e+00 0.000000000000000e+00 0.000000000000000e+00
0.000000000000000e+00 0.000000000000000e+00 0.000000000000000e+00
0.000000000000000e+00 0.000000000000000e+00 0.000000000000000e+00

0.000000000000000e+00 0.000000000000000e+00 0.000000000000000e+00
0.000000000000000e+00 0.000000000000000e+00 0.000000000000000e+00
0.000000000000000e+00 0.000000000000000e+00 0.000000000000000e+00

0.000000000000000e+00 0.000000000000000e+00 0.000000000000000e+00
0.000000000000000e+00 0.000000000000000e+00 0.000000000000000e+00
0.000000000000000e+00 0.000000000000000e+00 0.000000000000000e+00

0.000000000000000e+00 0.000000000000000e+00 0.000000000000000e+00
0.000000000000000e+00 0.000000000000000e+00 0.000000000000000e+00
0.000000000000000e+00 0.000000000000000e+00 0.000000000000000e+00

0.000000000000000e+00 0.000000000000000e+00 0.000000000000000e+00
0.000000000000000e+00 0.000000000000000e+00 0.000000000000000e+00
0.000000000000000e+00 0.000000000000000e+00 0.000000000000000e+00

0.000000000000000e+00 0.000000000000000e+00 0.000000000000000e+00
0.000000000000000e+00 0.000000000000000e+00 0.000000000000000e+00
0.000000000000000e+00 0.000000000000000e+00 0.000000000000000e+00

0.000000000000000e+00 0.000000000000000e+00 0.000000000000000e+00
0.000000000000000e+00 0.000000000000000e+00 0.000000000000000e+00
0.000000000000000e+00 0.000000000000000e+00 0.000000000000000e+00

0.000000000000000e+00 0.000000000000000e+00 0.000000000000000e+00
0.000000000000000e+00 0.000000000000000e+00 0.000000000000000e+00
0.000000000000000e+00 0.000000000000000e+00 0.000000000000000e+00

0.000000000000000e+00 0.000000000000000e+00 0.000000000000000e+00
0.000000000000000e+00 0.000000000000000e+00 0.000000000000000e+00
0.000000000000000e+00 0.000000000000000e+00 0.000000000000000e+00

0.000000000000000e+00 0.000000000000000e+00 0.000000000000000e+00
0.000000000000000e+00 0.000000000000000e+00 0.000000000000000e+00
0.000000000000000e+00 0.000000000000000e+00 0.000000000000000e+00

0.000000000000000e+00 0.000000000000000e+00 0.000000000000000e+00
0.000000000000000e+00 0.000000000000000e+00 0.000000000000000e+00
0.000000000000000e+00 0.000000000000000e+00 0.000000000000000e+00

0.000000000000000e+00 0.000000000000000e+00 0.000000000000000e+00
0.000000000000000e+00 0.000000000000000e+00 0.000000000000000e+00
0.000000000000000e+00 0.000000000000000e+00 0.000000000000000e+00

0.000000000000000e+00 0.000000000000000e+00 0.000000000000000e+00
0.000000000000000e+00 0.000000000000000e+00 0.000000000000000e+00
0.000000000000000e+00 0.000000000000000e+00 0.000000000000000e+00

0.000000000000000e+00 0.000000000000000e+00 0.000000000000000e+00
0.000000000000000e+00 0.000000000000000e+00 0.000000000000000e+00
0.000000000000000e+00 0.000000000000000e+00 0.000000000000000e+00

0.000000000000000e+00 0.000000000000000e+00 0.000000000000000e+00
0.000000000000000e+00 0.000000000000000e+00 0.000000000000000e+00
0.000000000000000e+00 0.000000000000000e+00 0.000000000000000e+00

0.000000000000000e+00 0.000000000000000e+00 0.000000000000000e+00
0.000000000000000e+00 0.000000000000000e+00 0.000000000000000e+00
0.000000000000000e+00 0.000000000000000e+00 0.000000000000000e+00

0.000000000000000e+00 0.000000000000000e+00 0.000000000000000e+00
0.000000000000000e+00 0.000000000000000e+00 0.000000000000000e+00
0.000000000000000e+00 0.000000000000000e+00 0.000000000000000e+00

0.000000000000000e+00 0.000000000000000e+00 0.000000000000000e+00
0.000000000000000e+00 0.000000000000000e+00 0.000000000000000e+00
0.000000000000000e+00 0.000000000000000e+00 0.000000000000000e+00

0.000000000000000e+00 0.000000000000000e+00 0.000000000000000e+00
0.000000000000000e+00 0.000000000000000e+00 0.000000000000000e+00
0.000000000000000e+00 0.000000000000000e+00 0.000000000000000e+00

0.000000000000000e+00 0.000000000000000e+00 0.000000000000000e+00
0.000000000000000e+00 0.000000000000000e+00 0.000000000000000e+00
0.000000000000000e+00 0.000000000000000e+00 0.000000000000000e+00

0.000000000000000e+00 0.000000000000000e+00 0.000000000000000e+00
0.000000000000000e+00 0.000000000000000e+00 0.000000000000000e+00
0.000000000000000e+00 0.000000000000000e+00 0.000000000000000e+00

0.000000000000000e+00 0.000000000000000e+00 0.000000000000000e+00
0.000000000000000e+00 0.000000000000000e+00 0.000000000000000e+00
0.000000000000000e+00 0.000000000000000e+00 0.000000000000000e+00

0.000000000000000e+00 0.000000000000000e+00 0.000000000000000e+00
0.000000000000000e+00 0.000000000000000e+00 0.000000000000000e+00
0.000000000000000e+00 0.000000000000000e+00 0.000000000000000e+00

0.000000000000000e+00 0.000000000000000e+00 0.000000000000000e+00
0.000000000000000e+00 0.000000000000000e+00 0.000000000000000e+00
0.000000000000000e+00 0.000000000000000e+00 0.000000000000000e+00

0.000000000000000e+00 0.000000000000000e+00 0.000000000000000e+00
0.000000000000000e+00 0.000000000000000e+00 0.000000000000000e+00
0.000000000000000e+00 0.000000000000000e+00 0.000000000000000e+00

0.000000000000000e+00 0.000000000000000e+00 0.000000000000000e+00
0.000000000000000e+00 0.000000000000000e+00 0.000000000000000e+00
0.000000000000000e+00 0.000000000000000e+00 0.000000000000000e+00

0.000000000000000e+00 0.000000000000000e+00 0.000000000000000e+00
0.000000000000000e+00 0.000000000000000e+00 0.000000000000000e+00
0.000000000000000e+00 0.000000000000000e+00 0.000000000000000e+00

0.000000000000000e+00 0.000000000000000e+00 0.000000000000000e+00
0.000000000000000e+00 0.000000000000000e+00 0.000000000000000e+00
0.000000000000000e+00 0.000000000000000e+00 0.000000000000000e+00

0.000000000000000e+00 0.000000000000000e+00 0.000000000000000e+00
0.000000000000000e+00 0.000000000000000e+00 0.000000000000000e+00
0.000000000000000e+00 0.000000000000000e+00 0.000000000000000e+00

0.000000000000000e+00 0.000000000000000e+00 0.000000000000000e+00
0.000000000000000e+00 0.000000000000000e+00 0.000000000000000e+00
0.000000000000000e+00 0.000000000000000e+00 0.000000000000000e+00

0.000000000000000e+00 0.000000000000000e+00 0.000000000000000e+00
0.000000000000000e+00 0.000000000000000e+00 0.000000000000000e+00
0.000000000000000e+00 0.000000000000000e+00 0.000000000000000e+00

0.000000000000000e+00 0.000000000000000e+00 0.000000000000000e+00
0.000000000000000e+00 0.000000000000000e+00 0.000000000000000e+00
0.000000000000000e+00 0.000000000000000e+00 0.000000000000000e+00

0.000000000000000e+00 0.000000000000000e+00 0.000000000000000e+00
0.000000000000000e+00 0.000000000000000e+00 0.000000000000000e+00
0.000000000000000e+00 0.000000000000000e+00 0.000000000000000e+00

0.000000000000000e+00 0.000000000000000e+00 0.000000000000000e+00
0.000000000000000e+00 0.000000000000000e+00 0.000000000000000e+00
0.000000000000000e+00 0.000000000000000e+00 0.000000000000000e+00

0.000000000000000e+00 0.000000000000000e+00 0.000000000000000e+00
0.000000000000000e+00 0.000000000000000e+00 0.000000000000000e+00
0.000000000000000e+00 0.000000000000000e+00 0.000000000000000e+00

0.000000000000000e+00 0.000000000000000e+00 0.000000000000000e+00
0.000000000000000e+00 0.000000000000000e+00 0.000000000000000e+00
0.000000000000000e+00 0.000000000000000e+00 0.000000000000000e+00

0.000000000000000e+00 0.000000000000000e+00 0.000000000000000e+00
0.000000000000000e+00 0.000000000000000e+00 0.000000000000000e+00
0.000000000000000e+00 0.000000000000000e+00 0.000000000000000e+00

0.000000000000000e+00 0.000000000000000e+00 0.000000000000000e+00
0.000000000000000e+00 0.000000000000000e+00 0.000000000000000e+00
0.000000000000000e+00 0.000000000000000e+00 0.000000000000000e+00

0.000000000000000e+00 0.000000000000000e+00 0.000000000000000e+00
0.000000000000000e+00 0.000000000000000e+00 0.000000000000000e+00
0.000000000000000e+00 0.000000000000000e+00 0.000000000000000e+00

0.000000000000000e+00 0.000000000000000e+00 0.000000000000000e+00
0.000000000000000e+00 0.000000000000000e+00 0.000000000000000e+00
0.000000000000000e+00 0.000000000000000e+00 0.000000000000000e+00

0.000000000000000e+00 0.000000000000000e+00 0.000000000000000e+00
0.000000000000000e+00 0.000000000000000e+00 0.000000000000000e+00
0.000000000000000e+00 0.000000000000000e+00 0.000000000000000e+00

0.000000000000000e+00 0.000000000000000e+00 0.000000000000000e+00
0.000000000000000e+00 0.000000000000000e+00 0.000000000000000e+00
0.000000000000000e+00 0.000000000000000e+00 0.000000000000000e+00

0.000000000000000e+00 0.000000000000000e+00 0.000000000000000e+00
0.000000000000000e+00 0.000000000000000e+00 0.000000000000000e+00
0.000000000000000e+00 0.000000000000000e+00 0.000000000000000e+00

0.000000000000000e+00 0.000000000000000e+00 0.000000000000000e+00
0.000000000000000e+00 0.000000000000000e+00 0.000000000000000e+00
0.000000000000000e+00 0.000000000000000e+00 0.000000000000000e+00

0.000000000000000e+00 0.000000000000000e+00 0.000000000000000e+00
0.000000000000000e+00 0.000000000000000e+00 0.000000000000000e+00
0.000000000000000e+00 0.000000000000000e+00 0.000000000000000e+00

0.000000000000000e+00 0.000000000000000e+00 0.000000000000000e+00
0.000000000000000e+00 0.000000000000000e+00 0.000000000000000e+00
0.000000000000000e+00 0.000000000000000e+00 0.000000000000000e+00

0.000000000000000e+00 0.000000000000000e+00 0.000000000000000e+00
0.000000000000000e+00 0.000000000000000e+00 0.000000000000000e+00
0.000000000000000e+00 0.000000000000000e+00 0.000000000000000e+00

0.000000000000000e+00 0.000000000000000e+00 0.000000000000000e+00
0.000000000000000e+00 0.000000000000000e+00 0.000000000000000e+00
0.000000000000000e+00 0.000000000000000e+00 0.000000000000000e+00

0.000000000000000e+00 0.000000000000000e+00 0.000000000000000e+00
0.000000000000000e+00 0.000000000000000e+00 0.000000000000000e+00
0.000000000000000e+00 0.000000000000000e+00 0.000000000000000e+00

0.000000000000000e+00 0.000000000000000e+00 0.000000000000000e+00
0.000000000000000e+00 0.000000000000000e+00 0.000000000000000e+00
0.000000000000000e+00 0.000000000000000e+00 0.000000000000000e+00

0.000000000000000e+00 0.000000000000000e+00 0.000000000000000e+00
0.000000000000000e+00 0.000000000000000e+00 0.000000000000000e+00
0.000000000000000e+00 0.000000000000000e+00 0.000000000000000e+00

0.000000000000000e+00 0.000000000000000e+00 0.000000000000000e+00
0.000000000000000e+00 0.000000000000000e+00 0.000000000000000e+00
0.000000000000000e+00 0.000000000000000e+00 0.000000000000000e+00

0.000000000000000e+00 0.000000000000000e+00 0.000000000000000e+00
0.000000000000000e+00 0.000000000000000e+00 0.000000000000000e+00
0.000000000000000e+00 0.000000000000000e+00 0.000000000000000e+00

0.000000000000000e+00 0.000000000000000e+00 0.000000000000000e+00
0.000000000000000e+00 0.000000000000000e+00 0.000000000000000e+00
0.000000000000000e+00 0.000000000000000e+00 0.000000000000000e+00

0.000000000000000e+00 0.000000000000000e+00 0.000000000000000e+00
0.000000000000000e+00 0.000000000000000e+00 0.000000000000000e+00
0.000000000000000e+00 0.000000000000000e+00 0.000000000000000e+00

0.000000000000000e+00 0.000000000000000e+00 0.000000000000000e+00
0.000000000000000e+00 0.000000000000000e+00 0.000000000000000e+00
0.000000000000000e+00 0.000000000000000e+00 0.000000000000000e+00

0.000000000000000e+00 0.000000000000000e+00 0.000000000000000e+00
0.000000000000000e+00 0.000000000000000e+00 0.000000000000000e+00
0.000000000000000e+00 0.000000000000000e+00 0.000000000000000e+00

0.000000000000000e+00 0.000000000000000e+00 0.000000000000000e+00
0.000000000000000e+00 0.000000000000000e+00 0.000000000000000e+00
0.000000000000000e+00 0.000000000000000e+00 0.000000000000000e+00

0.000000000000000e+00 0.000000000000000e+00 0.000000000000000e+00
0.000000000000000e+00 0.000000000000000e+00 0.000000000000000e+00
0.000000000000000e+00 0.000000000000000e+00 0.000000000000000e+00

0.000000000000000e+00 0.000000000000000e+00 0.000000000000000e+00
0.000000000000000e+00 0.000000000000000e+00 0.000000000000000e+00
0.000000000000000e+00 0.000000000000000e+00 0.000000000000000e+00

0.000000000000000e+00 0.000000000000000e+00 0.000000000000000e+00
0.000000000000000e+00 0.000000000000000e+00 0.000000000000000e+00
0.000000000000000e+00 0.000000000000000e+00 0.000000000000000e+00

0.000000000000000e+00 0.000000000000000e+00 0.000000000000000e+00
0.000000000000000e+00 0.000000000000000e+00 0.000000000000000e+00
0.000000000000000e+00 0.000000000000000e+00 0.000000000000000e+00

0.000000000000000e+00 0.000000000000000e+00 0.000000000000000e+00
0.000000000000000e+00 0.000000000000000e+00 0.000000000000000e+00
0.000000000000000e+00 0.000000000000000e+00 0.000000000000000e+00

0.000000000000000e+00 0.000000000000000e+00 0.000000000000000e+00
0.000000000000000e+00 0.000000000000000e+00 0.000000000000000e+00
0.000000000000000e+00 0.000000000000000e+00 0.000000000000000e+00

0.000000000000000e+00 0.000000000000000e+00 0.000000000000000e+00
0.000000000000000e+00 0.000000000000000e+00 0.000000000000000e+00
0.000000000000000e+00 0.000000000000000e+00 0.000000000000000e+00

0.000000000000000e+00 0.000000000000000e+00 0.000000000000000e+00
0.000000000000000e+00 0.000000000000000e+00 0.000000000000000e+00
0.000000000000000e+00 0.000000000000000e+00 0.000000000000000e+00

0.000000000000000e+00 0.000000000000000e+00 0.000000000000000e+00
0.000000000000000e+00 0.000000000000000e+00 0.000000000000000e+00
0.000000000000000e+00 0.000000000000000e+00 0.000000000000000e+00

0.000000000000000e+00 0.000000000000000e+00 0.000000000000000e+00
0.000000000000000e+00 0.000000000000000e+00 0.000000000000000e+00
0.000000000000000e+00 0.000000000000000e+00 0.000000000000000e+00

0.000000000000000e+00 0.000000000000000e+00 0.000000000000000e+00
0.000000000000000e+00 0.000000000000000e+00 0.000000000000000e+00
0.000000000000000e+00 0.000000000000000e+00 0.000000000000000e+00

0.000000000000000e+00 0.000000000000000e+00 0.000000000000000e+00
0.000000000000000e+00 0.000000000000000e+00 0.000000000000000e+00
0.000000000000000e+00 0.000000000000000e+00 0.000000000000000e+00

0.000000000000000e+00 0.000000000000000e+00 0.000000000000000e+00
0.000000000000000e+00 0.000000000000000e+00 0.000000000000000e+00
0.000000000000000e+00 0.000000000000000e+00 0.000000000000000e+00

0.000000000000000e+00 0.000000000000000e+00 0.000000000000000e+00
0.000000000000000e+00 0.000000000000000e+00 0.000000000000000e+00
0.000000000000000e+00 0.000000000000000e+00 0.000000000000000e+00

0.000000000000000e+00 0.000000000000000e+00 0.000000000000000e+00
0.000000000000000e+00 0.000000000000000e+00 0.000000000000000e+00
0.000000000000000e+00 0.000000000000000e+00 0.000000000000000e+00

0.000000000000000e+00 0.000000000000000e+00 0.000000000000000e+00
0.000000000000000e+00 0.000000000000000e+00 0.000000000000000e+00
0.000000000000000e+00 0.000000000000000e+00 0.000000000000000e+00

0.000000000000000e+00 0.000000000000000e+00 0.000000000000000e+00
0.000000000000000e+00 0.000000000000000e+00 0.000000000000000e+00
0.000000000000000e+00 0.000000000000000e+00 0.000000000000000e+00

0.000000000000000e+00 0.000000000000000e+00 0.000000000000000e+00
0.000000000000000e+00 0.000000000000000e+00 0.000000000000000e+00
0.000000000000000e+00 0.000000000000000e+00 0.000000000000000e+00

0.000000000000000e+00 0.000000000000000e+00 0.000000000000000e+00
0.000000000000000e+00 0.000000000000000e+00 0.000000000000000e+00
0.000000000000000e+00 0.000000000000000e+00 0.000000000000000e+00

0.000000000000000e+00 0.000000000000000e+00 0.000000000000000e+00
0.000000000000000e+00 0.000000000000000e+00 0.000000000000000e+00
0.000000000000000e+00 0.000000000000000e+00 0.000000000000000e+00

0.000000000000000e+00 0.000000000000000e+00 0.000000000000000e+00
0.000000000000000e+00 0.000000000000000e+00 0.000000000000000e+00
0.000000000000000e+00 0.000000000000000e+00 0.000000000000000e+00

0.000000000000000e+00 0.000000000000000e+00 0.000000000000000e+00
0.000000000000000e+00 0.000000000000000e+00 0.000000000000000e+00
0.000000000000000e+00 0.000000000000000e+00 0.000000000000000e+00

 1.116467820401151e-17 -1.879302296073391e-19 -1.007933757943416e+00
-1.879302296073391e-19 -9.063092396282703e-17  4.092044024696735e-01
-1.007933757943416e+00  4.092044024696735e-01  8.491986732108551e-18

 1.112263900514772e-17 -1.496914903724009e-20 -1.004061047543660e+00
-1.496914903724009e-20  2.716352445154682e-17  4.070214489395040e-01
-1.004061047543660e+00  4.070214489395040e-01  8.427190448585270e-18

 1.119498011359081e-17  3.775850202096626e-20 -1.009331294692162e+00
 3.775850202096626e-20  7.448785693872131e-17  4.089367526023619e-01
-1.009331294692162e+00  4.089367526023619e-01  8.555376922230145e-18

 1.120290717210409e-17 -1.142827611776294e-19 -1.010687132307986e+00
-1.142827611776294e-19 -4.678071763007555e-17  4.102215039089120e-01
-1.010687132307986e+00  4.102215039089120e-01  8.568012692665534e-18

 1.121787047281808e-17 -5.499006784618474e-20 -1.011779707064199e+00
-5.499006784618474e-20  9.682806445091423e-18  4.108422281038562e-01
-1.011779707064199e+00  4.108422281038562e-01  8.581537651840880e-18

 1.124353006448763e-17 -4.057895227192026e-20 -1.012538665305406e+00
-4.057895227192026e-20  2.191659984007545e-17  4.108216631350684e-01
-1.012538665305406e+00  4.108216631350684e-01  8.605326090475286e-18

 1.117730404853362e-17  3.594238160970453e-20 -1.010511046902332e+00
 3.594238160970453e-20  8.204893322008108e-17  4.120763061243830e-01
-1.010511046902332e+00  4.120763061243830e-01  8.482676758662739e-18

 1.117125666895465e-17 -8.954070156135268e-20 -1.009806991507910e+00
-8.954070156135268e-20 -2.375745287155567e-17  4.114358307713257e-01
-1.009806991507910e+00  4.114358307713257e-01  8.475044322785722e-18

 1.115774803684391e-17 -5.498668997978206e-20 -1.009039881631563e+00
-5.498668997978206e-20  9.030362413392567e-18  4.123199903771836e-01
-1.009039881631563e+00  4.123199903771836e-01  8.439550217671094e-18

 1.117274776298897e-17  3.432988623347416e-20 -1.009404465919897e+00
 3.432988623347416e-20  7.877218432961801e-17  4.113936897814284e-01
-1.009404465919897e+00  4.113936897814284e-01  8.492224582934061e-18

 1.117714417122393e-17 -4.142082031008591e-20 -1.009747996919987e+00
-4.142082031008591e-20  1.613584737049899e-17  4.121957295723944e-01
-1.009747996919987e+00  4.121957295723944e-01  8.515108311432245e-18

 1.112354842174154e-17 -6.396339797764483e-20 -1.006821653541915e+00
-6.396339797764483e-20 -1.885218081593305e-17  4.119175411091805e-01
-1.006821653541915e+00  4.119175411091805e-01  8.391921945592341e-18

 1.108140740919070e-17 -1.188538072731248e-19 -1.004526286891095e+00
-1.188538072731248e-19 -9.095263016372888e-17  4.116978395157388e-01
-1.004526286891095e+00  4.116978395157388e-01  8.303931912688418e-18

 1.108585656095658e-17  1.938744445933547e-21 -1.004018258896136e+00
 1.938744445933547e-21  5.342114959314484e-17  4.113817573893598e-01
-1.004018258896136e+00  4.113817573893598e-01  8.332831816206836e-18

 1.108523537441276e-17 -2.150920715684953e-20 -1.003792743300627e+00
-2.150920715684953e-20  1.555680003324537e-17  4.119355907596293e-01
-1.003792743300627e+00  4.119355907596293e-01  8.300052626123062e-18

 1.106439973142251e-17  1.054592313744499e-20 -1.002884219013302e+00
 1.054592313744499e-20  6.639407442397176e-17  4.115711592222951e-01
-1.002884219013302e+00  4.115711592222951e-01  8.291150387306144e-18

 1.102148119164485e-17  1.347237914975503e-20 -1.001161357251398e+00
 1.347237914975503e-20  8.408421138814884e-17  4.126407964942464e-01
-1.001161357251398e+00  4.126407964942464e-01  8.169122876357242e-18

 1.098287817279637e-17  4.998617899322541e-22 -9.994444440660181e-01
 4.998617899322541e-22  5.845747545085620e-18  4.153261931481039e-01
-9.994444440660181e-01  4.153261931481039e-01  7.983809150290662e-18

 1.090751819095887e-17 -9.274601258387573e-21 -9.975589634653504e-01
-9.274601258387573e-21  2.829899936251511e-17  4.142566091052002e-01
-9.975589634653504e-01  4.142566091052002e-01  7.885862705601498e-18

 1.089456272399295e-17 -1.021320412071472e-20 -9.980677713034236e-01
-1.021320412071472e-20  5.669686694923214e-17  4.156630129325183e-01
-9.980677713034236e-01  4.156630129325183e-01  7.847953275943238e-18

 1.075258557785214e-17 -1.411707196908683e-20 -9.926284907513485e-01
-1.411707196908683e-20 -1.823897648455693e-17  4.230154862891968e-01
-9.926284907513485e-01  4.230154862891968e-01  7.393360284542490e-18

 1.081505130401661e-17 -1.428993577671362e-20 -9.964926208978522e-01
-1.428993577671362e-20 -2.488481209011473e-18  4.159185650586502e-01
-9.964926208978522e-01  4.159185650586502e-01  7.617068238589416e-18

 1.093672725610174e-17 -1.471413206751912e-20 -1.003775393157367e+00
-1.471413206751912e-20 -6.621005878990928e-17  4.113649048828528e-01
-1.003775393157367e+00  4.113649048828528e-01  7.936596714388801e-18

 1.116407594380754e-17 -1.403587061220798e-20 -1.016003176804294e+00
-1.403587061220798e-20  4.105015446427445e-17  4.158392580899054e-01
-1.016003176804294e+00  4.158392580899054e-01  8.448995650416446e-18

 1.174280257695984e-17  1.886816331170068e-21 -1.043299579918792e+00
 1.886816331170068e-21  5.855366219524156e-17  4.107127355177564e-01
-1.043299579918792e+00  4.107127355177564e-01  9.968316678368532e-18

 1.017229900800902e-17  2.729310751125969e-20 -9.829861498058857e-01
 2.729310751125969e-20 -1.058146361867904e-17  4.799384607289946e-01
-9.829861498058857e-01  4.799384607289946e-01  5.036198769201933e-18

 1.256986191362862e-17 -1.549127698881361e-20 -1.078294607068070e+00
-1.549127698881361e-20  8.271229099984072e-17  3.584342070878555e-01
-1.078294607068070e+00  3.584342070878555e-01  1.259053432811769e-17

 1.147298107140208e-17 -4.332412044035698e-20 -1.034121309534263e+00
-4.332412044035698e-20  3.275923892253083e-17  4.115904361927410e-01
-1.034121309534263e+00  4.115904361927410e-01  9.182475404426536e-18

 9.448986156164859e-18 -7.936633447050109e-20 -9.532336728689679e-01
-7.936633447050109e-20 -4.852466024925039e-17  5.175090741679961e-01
-9.532336728689679e-01  5.175090741679961e-01  2.852668839002184e-18

 1.232759268153605e-17 -2.736799948255640e-20 -1.069417223760313e+00
-2.736799948255640e-20  2.933618968405399e-17  4.119137544231875e-01
-1.069417223760313e+00  4.119137544231875e-01  1.164366472047895e-17

 1.100429799768861e-17 -5.731640347822583e-20 -1.011145351150461e+00
-5.731640347822583e-20  1.180478094247216e-16  4.182285194879968e-01
-1.011145351150461e+00  4.182285194879968e-01  8.097518338214332e-18

 1.082315431698842e-17 -7.127226108176238e-20 -9.998939238449550e-01
-7.127226108176238e-20  2.812653403191654e-17  3.941051562953168e-01
-9.998939238449550e-01  3.941051562953168e-01  7.924025179109422e-18

 1.039796790185646e-17 -7.443321888367604e-20 -9.831889552686488e-01
-7.443321888367604e-20  9.416773594985447e-17  4.343841683423041e-01
-9.831889552686488e-01  4.343841683423041e-01  6.438171262560707e-18

 1.093311872783367e-17 -3.595326515969254e-20 -1.005888351759511e+00
-3.595326515969254e-20  1.568661000296911e-17  4.213714969509434e-01
-1.005888351759511e+00  4.213714969509434e-01  8.052631916973405e-18

 1.103341124690115e-17 -4.200341304641173e-20 -1.009801627448329e+00
-4.200341304641173e-20  3.050299147699542e-17  4.241639164404415e-01
-1.009801627448329e+00  4.241639164404415e-01  8.222726561969266e-18

 1.093421432680476e-17 -2.584143962776445e-20 -1.006626615905968e+00
-2.584143962776445e-20  5.498205124577454e-18  4.285048045547046e-01
-1.006626615905968e+00  4.285048045547046e-01  8.004276920476769e-18

 1.108617500190079e-17 -2.775925689594690e-20 -1.011452989633315e+00
-2.775925689594690e-20 -4.943207712915262e-18  4.146051952265813e-01
-1.011452989633315e+00  4.146051952265813e-01  8.472512134748005e-18

 1.087852890748109e-17 -4.688084470941321e-22 -1.003132574570200e+00
-4.688084470941321e-22 -5.047653886253143e-17  4.149201557779248e-01
-1.003132574570200e+00  4.149201557779248e-01  8.017491840539110e-18

 1.063883280014560e-17 -5.196255820095581e-20 -9.931588894700535e-01
-5.196255820095581e-20  3.533959923195263e-17  4.252914130818129e-01
-9.931588894700535e-01  4.252914130818129e-01  7.294567780785484e-18

 1.073339111325579e-17 -2.780600316224401e-20 -9.977719629689256e-01
-2.780600316224401e-20 -1.758045929922001e-18  4.215454057425264e-01
-9.977719629689256e-01  4.215454057425264e-01  7.593578585038893e-18

 1.085675421714723e-17 -2.326106416172406e-20 -1.003235558302092e+00
-2.326106416172406e-20 -1.259860169659930e-17  4.201547940389610e-01
-1.003235558302092e+00  4.201547940389610e-01  7.957955571035528e-18

 1.112573840598658e-17 -5.151194807972542e-20 -1.014381264556693e+00
-5.151194807972542e-20  3.676111494748269e-17  4.151726141580949e-01
-1.014381264556693e+00  4.151726141580949e-01  8.687697098189166e-18

 1.109019866502851e-17 -1.935220717913024e-20 -1.013037079780408e+00
-1.935220717913024e-20 -1.495669271571620e-17  4.165227755536497e-01
-1.013037079780408e+00  4.165227755536497e-01  8.570476053578838e-18

 1.087061254344543e-17 -4.319677516826878e-20 -1.005086344374604e+00
-4.319677516826878e-20  2.529797765896689e-17  4.181684243575918e-01
-1.005086344374604e+00  4.181684243575918e-01  8.043534210880218e-18

 1.084255828092019e-17 -9.165856636648306e-20 -1.004250789441478e+00
-9.165856636648306e-20  8.942464004947439e-17  4.205345853055095e-01
-1.004250789441478e+00  4.205345853055095e-01  7.940820633820303e-18

 1.097700896668395e-17 -6.858103543166119e-20 -1.009500573671539e+00
-6.858103543166119e-20  5.541609683289685e-17  4.186679999677211e-01
-1.009500573671539e+00  4.186679999677211e-01  8.256310645995082e-18

 1.102388216361339e-17 -2.306198865799211e-20 -1.013228477702472e+00
-2.306198865799211e-20 -8.531327744823141e-18  4.157429432184068e-01
-1.013228477702472e+00  4.157429432184068e-01  8.539897850220248e-18

 1.092579278239421e-17 -4.228578819716362e-20 -1.009159567172956e+00
-4.228578819716362e-20  2.087176600930488e-17  4.183882027310284e-01
-1.009159567172956e+00  4.183882027310284e-01  8.218704796343148e-18

 1.091136111631801e-17  3.142034281700557e-20 -1.012698310258106e+00
 3.142034281700557e-20 -5.794014595003770e-17  4.148541862249282e-01
-1.012698310258106e+00  4.148541862249282e-01  8.481861421431368e-18

 1.013943048339164e-17  2.238265792329603e-19 -1.017765742889176e+00
 2.238265792329603e-19 -5.586575448999472e-17  4.159257751726834e-01
-1.017765742889176e+00  4.159257751726834e-01  8.796437078149355e-18

 1.068463524590358e-17 -6.380252262206341e-22 -1.008231471140615e+00
-6.380252262206341e-22  3.059504883748258e-17  4.189768293804445e-01
-1.008231471140615e+00  4.189768293804445e-01  8.190177914793443e-18

 1.373946159289361e-17 -6.954343094072391e-19 -1.002340254714833e+00
-6.954343094072391e-19  1.945945019637990e-17  4.197525798010833e-01
-1.002340254714833e+00  4.197525798010833e-01  7.789749699801873e-18

-1.508059474805405e-17  5.616273416380302e-18 -1.004837127899920e+00
 5.616273416380302e-18  3.577448473882996e-17  4.173586009746255e-01
-1.004837127899920e+00  4.173586009746255e-01  8.004972829115129e-18

 2.003901230592667e-16 -4.142525620303062e-17 -1.006738510645620e+00
-4.142525620303062e-17 -3.511875713123034e-17  4.207807190460947e-01
-1.006738510645620e+00  4.207807190460947e-01  8.080535088297256e-18

 4.800126819945391e-17 -8.149240083082811e-18 -1.013792580767071e+00
-8.149240083082811e-18  8.267951279880045e-17  4.157080583693240e-01
-1.013792580767071e+00  4.157080583693240e-01  8.545819133263776e-18

 1.121730982742241e-17 -1.281749631702192e-19 -1.015612883440070e+00
-1.281749631702192e-19  8.120746146391720e-17  4.130272528138534e-01
-1.015612883440070e+00  4.130272528138534e-01  8.662653803596157e-18

 9.526671920048348e-18  2.968804415055196e-19 -1.011532013495988e+00
 2.968804415055196e-19 -2.146033887679654e-17  4.159241707194321e-01
-1.011532013495988e+00  4.159241707194321e-01  8.346926356740313e-18

 1.068969528108873e-17  4.628849297677346e-20 -1.010611312067557e+00
 4.628849297677346e-20 -3.528080318392401e-17  4.172697902581283e-01
-1.010611312067557e+00  4.172697902581283e-01  8.292007947333319e-18

 1.112134584628101e-17 -6.460096700917529e-20 -1.010119695092046e+00
-6.460096700917529e-20 -8.369011875734027e-18  4.183377339214444e-01
-1.010119695092046e+00  4.183377339214444e-01  8.226116737182404e-18

 1.072608846365225e-17 -1.556567704751139e-20 -1.010812597836838e+00
-1.556567704751139e-20  2.585064240304639e-17  4.156582337453087e-01
-1.010812597836838e+00  4.156582337453087e-01  8.326388531045505e-18

 1.088576280479881e-17 -1.769935854987666e-20 -1.011597275340953e+00
-1.769935854987666e-20 -9.880387967951459e-18  4.188151702010612e-01
-1.011597275340953e+00  4.188151702010612e-01  8.327778388371494e-18

 1.074013675632260e-17 -4.788849216284117e-20 -1.008503151277408e+00
-4.788849216284117e-20  4.114060958146814e-17  4.210465259898313e-01
-1.008503151277408e+00  4.210465259898313e-01  8.170031139921018e-18

 1.058171411932199e-17 -2.076020094080561e-20 -1.000395441135036e+00
-2.076020094080561e-20 -4.393855760762571e-18  4.224437271099949e-01
-1.000395441135036e+00  4.224437271099949e-01  7.679773893077528e-18

 1.050057347927565e-17 -9.252001963049569e-20 -9.972464580018590e-01
-9.252001963049569e-20  6.556922042528783e-17  4.216264570679136e-01
-9.972464580018590e-01  4.216264570679136e-01  7.469022105073072e-18

 1.059777955576021e-17 -7.683975474046479e-20 -1.002109371034563e+00
-7.683975474046479e-20  4.755546229292434e-17  4.143425624542180e-01
-1.002109371034563e+00  4.143425624542180e-01  7.844214352381895e-18

 1.067695221876529e-17 -4.357747219398136e-21 -1.005341449524594e+00
-4.357747219398136e-21 -2.226058076969308e-17  4.191699785027216e-01
-1.005341449524594e+00  4.191699785027216e-01  8.020459906732261e-18

 1.074983961511918e-17 -3.596209109280916e-20 -1.009617135446061e+00
-3.596209109280916e-20  1.065536879109469e-17  4.234226210790002e-01
-1.009617135446061e+00  4.234226210790002e-01  8.202187458088988e-18

 1.075845016628183e-17 -7.775251835823960e-20 -1.010873626301546e+00
-7.775251835823960e-20  4.465938052022654e-17  4.209758437737411e-01
-1.010873626301546e+00  4.209758437737411e-01  8.270855269136068e-18

 1.063117503596868e-17 -8.113763047618955e-20 -1.006690576119785e+00
-8.113763047618955e-20  4.542975581710997e-17  4.229927455442403e-01
-1.006690576119785e+00  4.229927455442403e-01  7.947583466827786e-18

 1.062357821575426e-17 -4.442772225390783e-20 -1.006655982043924e+00
-4.442772225390783e-20  8.883806744866372e-18  4.220142456298477e-01
-1.006655982043924e+00  4.220142456298477e-01  7.924724238741690e-18

 1.071391931686364e-17 -3.679630089010442e-20 -1.011194175417129e+00
-3.679630089010442e-20  7.944074076157526e-19  4.132879787000271e-01
-1.011194175417129e+00  4.132879787000271e-01  8.303373504011618e-18

 1.068987340121017e-17 -2.022108930985997e-20 -1.011357960287886e+00
-2.022108930985997e-20 -2.881344539341936e-17  4.230899684640989e-01
-1.011357960287886e+00  4.230899684640989e-01  8.155150699196065e-18

 1.083320240663211e-17 -5.402865548455999e-20 -1.018066974687983e+00
-5.402865548455999e-20  1.088535735432624e-17  4.202580297793088e-01
-1.018066974687983e+00  4.202580297793088e-01  8.633903011028836e-18

 1.052077794436195e-17 -4.553822537220682e-20 -1.005647052585327e+00
-4.553822537220682e-20  9.811367523099360e-18  4.353766228001579e-01
-1.005647052585327e+00  4.353766228001579e-01  7.713764063154332e-18

 1.080870207089812e-17 -3.584995883606152e-20 -1.016184903057547e+00
-3.584995883606152e-20 -1.731324959153310e-17  4.014272977474496e-01
-1.016184903057547e+00  4.014272977474496e-01  8.839437695226900e-18

 1.079893947202430e-17  2.185788864843443e-20 -1.016402451837111e+00
 2.185788864843443e-20 -7.093311078189164e-17  3.944834881033826e-01
-1.016402451837111e+00  3.944834881033826e-01  8.903087262908447e-18

 1.022583171584092e-17  5.152640015407715e-20 -9.945407263242305e-01
 5.152640015407715e-20 -1.412142755652837e-16  4.448242535040217e-01
-9.945407263242305e-01  4.448242535040217e-01  6.995891092777325e-18

 1.036768294721632e-17 -5.831432683069215e-20 -1.000331842700208e+00
-5.831432683069215e-20 -2.372412533327998e-19  4.343217024634552e-01
-1.000331842700208e+00  4.343217024634552e-01  7.473895645177189e-18

 1.095564566587450e-17 -3.738980176160221e-20 -1.024605530083045e+00
-3.738980176160221e-20 -1.902225393525108e-17  4.054408213849133e-01
-1.024605530083045e+00  4.054408213849133e-01  9.315027239169394e-18

 1.049293026493952e-17 -9.763903112628966e-20 -1.006638017462165e+00
-9.763903112628966e-20  4.652933815545099e-17  4.199275097784240e-01
-1.006638017462165e+00  4.199275097784240e-01  8.004360945096363e-18

 1.049935722903470e-17 -1.141730445292871e-19 -1.008119293670003e+00
-1.141730445292871e-19  7.103806479079631e-17  4.256987228849298e-01
-1.008119293670003e+00  4.256987228849298e-01  8.023478503399220e-18

 1.055639290900552e-17 -1.268579460145878e-19 -1.010687241277495e+00
-1.268579460145878e-19  8.423869084106300e-17  4.215333929389395e-01
-1.010687241277495e+00  4.215333929389395e-01  8.213824223375480e-18

 1.048468130041629e-17 -5.869753925042737e-20 -1.008403910913165e+00
-5.869753925042737e-20 -2.846084686298407e-18  4.208367536693968e-01
-1.008403910913165e+00  4.208367536693968e-01  8.095439484882511e-18

 1.054234271316140e-17  6.219866330658323e-20 -1.010394427106589e+00
 6.219866330658323e-20 -1.705555544594918e-16  4.188152180531722e-01
-1.010394427106589e+00  4.188152180531722e-01  8.230769657720644e-18

 1.043298528147645e-17 -8.225629036876417e-20 -1.007441096287767e+00
-8.225629036876417e-20  2.617645297261097e-17  4.228774382496033e-01
-1.007441096287767e+00  4.228774382496033e-01  8.017863801372599e-18

 1.048361421794254e-17 -6.594099489703212e-20 -1.009477411140172e+00
-6.594099489703212e-20  4.477728218659405e-18  4.211032497536500e-01
-1.009477411140172e+00  4.211032497536500e-01  8.139636173971442e-18

 1.044057174318654e-17 -1.441143897288562e-20 -1.008982618106046e+00
-1.441143897288562e-20 -8.489593632573263e-17  4.208962796995033e-01
-1.008982618106046e+00  4.208962796995033e-01  8.124838864919402e-18

 1.056136239269293e-17 -4.984612714096769e-20 -1.014207662583262e+00
-4.984612714096769e-20 -2.538079404840787e-17  4.168252394641417e-01
-1.014207662583262e+00  4.168252394641417e-01  8.514959456908353e-18

 1.055660398495915e-17 -2.887588241938597e-20 -1.015221767992639e+00
-2.887588241938597e-20 -7.450056482168921e-17  4.193360107788917e-01
-1.015221767992639e+00  4.193360107788917e-01  8.519548893974980e-18

 1.043817111665790e-17 -5.126085107208215e-20 -1.011052235611770e+00
-5.126085107208215e-20 -2.584488476266455e-17  4.247305749874185e-01
-1.011052235611770e+00  4.247305749874185e-01  8.213037156064722e-18

 1.044040593386438e-17 -1.020332875994986e-19 -1.010836319771252e+00
-1.020332875994986e-19  7.013386009875605e-17  4.193279378034716e-01
-1.010836319771252e+00  4.193279378034716e-01  8.291346291068784e-18

 1.034878455199704e-17 -4.354672967732965e-20 -1.007678773617782e+00
-4.354672967732965e-20 -4.741320843441500e-17  4.185115356975176e-01
-1.007678773617782e+00  4.185115356975176e-01  8.072886164188787e-18

 1.030550489179763e-17 -8.666813815517132e-20 -1.007095528407988e+00
-8.666813815517132e-20  3.616543223533959e-17  4.215439928977301e-01
-1.007095528407988e+00  4.215439928977301e-01  8.029712525603483e-18

 1.037375704774988e-17 -6.073039050410130e-20 -1.011338250472157e+00
-6.073039050410130e-20 -3.218772999126856e-17  4.206010332625523e-01
-1.011338250472157e+00  4.206010332625523e-01  8.253159183047380e-18

 1.035406231684767e-17 -2.306932096554304e-20 -1.011505350148423e+00
-2.306932096554304e-20 -1.450932860116410e-16  4.188244555743453e-01
-1.011505350148423e+00  4.188244555743453e-01  8.301184421131299e-18

 1.028506706890640e-17 -1.226521636235780e-19 -1.009451358282221e+00
-1.226521636235780e-19  1.364024429193534e-16  4.224660514651573e-01
-1.009451358282221e+00  4.224660514651573e-01  8.142313539020390e-18

 1.027222213867126e-17 -7.096799529304793e-20 -1.010101649426229e+00
-7.096799529304793e-20  2.651340850789686e-18  4.194209556165335e-01
-1.010101649426229e+00  4.194209556165335e-01  8.240163666671782e-18

 1.025889165400661e-17 -8.078807556796184e-20 -1.009921129491994e+00
-8.078807556796184e-20  6.893349332483299e-17  4.193524068963698e-01
-1.009921129491994e+00  4.193524068963698e-01  8.233576551559837e-18

 1.026409363940492e-17 -9.074919501046741e-20 -1.010614538548720e+00
-9.074919501046741e-20  1.352204907067374e-16  4.192275111193662e-01
-1.010614538548720e+00  4.192275111193662e-01  8.272006143920018e-18

 1.021122263531788e-17 -7.032914588213837e-20 -1.011126359065339e+00
-7.032914588213837e-20  1.736759951592237e-17  4.184738671389768e-01
-1.011126359065339e+00  4.184738671389768e-01  8.280018078139279e-18

 1.018781375160718e-17 -6.933381171650511e-20 -1.012097919153292e+00
-6.933381171650511e-20 -3.953989898784854e-18  4.187902347882510e-01
-1.012097919153292e+00  4.187902347882510e-01  8.312510990508071e-18

 1.017603756296185e-17 -6.989585966803800e-20 -1.013211877720741e+00
-6.989585966803800e-20 -1.073788835037591e-19  4.175336079953001e-01
-1.013211877720741e+00  4.175336079953001e-01  8.368655679155441e-18

 1.020031410757511e-17 -6.730719297737156e-20 -1.014495852971036e+00
-6.730719297737156e-20 -1.073544719005011e-16  4.164566299281510e-01
-1.014495852971036e+00  4.164566299281510e-01  8.442234326870078e-18

 1.011379402663107e-17 -7.025148607053275e-20 -1.012334241745136e+00
-7.025148607053275e-20 -4.076451397298605e-17  4.195664240552041e-01
-1.012334241745136e+00  4.195664240552041e-01  8.291790940557755e-18

 1.010714132671833e-17 -7.367368622688025e-20 -1.013048187610347e+00
-7.367368622688025e-20  2.358213322851274e-16  4.180087993949114e-01
-1.013048187610347e+00  4.180087993949114e-01  8.351998415423996e-18

 1.005330988455218e-17 -6.742504564910594e-20 -1.011617041095891e+00
-6.742504564910594e-20  2.098263022888560e-16  4.164988168927612e-01
-1.011617041095891e+00  4.164988168927612e-01  8.324314427991838e-18

 1.000249471229514e-17 -6.615093378900091e-20 -1.010158259678835e+00
-6.615093378900091e-20  2.096802975680770e-16  4.174296917830382e-01
-1.010158259678835e+00  4.174296917830382e-01  8.238461749269610e-18

 1.008066660176400e-17 -7.146711878273382e-20 -1.014110211846305e+00
-7.146711878273382e-20 -1.633317603168315e-16  4.122620756879356e-01
-1.014110211846305e+00  4.122620756879356e-01  8.568342937412840e-18

 1.000284818915652e-17 -7.146691858818127e-20 -1.012153080189281e+00
-7.146691858818127e-20 -6.156108455801498e-17  4.161448909950045e-01
-1.012153080189281e+00  4.161448909950045e-01  8.389845414679715e-18

 9.971034563070780e-18 -6.889132729546945e-20 -1.011660180768467e+00
-6.889132729546945e-20 -7.627978999872048e-17  4.164933239446633e-01
-1.011660180768467e+00  4.164933239446633e-01  8.395350647236609e-18

 9.889436931457107e-18 -6.605135639998900e-20 -1.008266376389249e+00
-6.605135639998900e-20  1.491946926328940e-16  4.158844644220912e-01
-1.008266376389249e+00  4.158844644220912e-01  8.231380415404603e-18

 9.822180376157911e-18 -6.073003027374382e-20 -1.006300725057357e+00
-6.073003027374382e-20  2.026101842743250e-17  4.157626800706665e-01
-1.006300725057357e+00  4.157626800706665e-01  8.106703265091115e-18

 9.803580088243478e-18 -5.858357229925760e-20 -1.006459285647779e+00
-5.858357229925760e-20 -2.956693298559416e-16  4.147012568045939e-01
-1.006459285647779e+00  4.147012568045939e-01  8.200863130163740e-18

 9.851009103645869e-18 -5.849950117000481e-20 -1.009483724836406e+00
-5.849950117000481e-20  1.178350592686040e-16  4.105834255573514e-01
-1.009483724836406e+00  4.105834255573514e-01  8.414076216756135e-18

 9.701531332132294e-18 -5.938403307335035e-20 -1.005121694980314e+00
-5.938403307335035e-20  6.765674414999674e-17  4.127655622798125e-01
-1.005121694980314e+00  4.127655622798125e-01  8.143751628918313e-18

 9.731809558472951e-18 -5.175301532634456e-20 -1.006564160639200e+00
-5.175301532634456e-20  3.024427182847102e-17  4.125825175910047e-01
-1.006564160639200e+00  4.125825175910047e-01  8.213700005088639e-18

 9.670269954426200e-18 -5.052611220194829e-20 -1.006064262321325e+00
-5.052611220194829e-20 -4.894200864552431e-17  4.126045458651170e-01
-1.006064262321325e+00  4.126045458651170e-01  8.204628803341104e-18

 9.634163789420182e-18 -5.060864018283132e-20 -1.005189265007064e+00
-5.060864018283132e-20 -4.802172925348814e-17  4.131478464279986e-01
-1.005189265007064e+00  4.131478464279986e-01  8.112880887799379e-18

 9.591705890113743e-18 -6.282047854090651e-20 -1.005174622412500e+00
-6.282047854090651e-20  7.006506339467440e-17  4.107773489703435e-01
-1.005174622412500e+00  4.107773489703435e-01  8.176692983777058e-18

 9.614519972938272e-18 -4.422320254762075e-20 -1.007002170739196e+00
-4.422320254762075e-20 -8.840732151382518e-17  4.081348408154419e-01
-1.007002170739196e+00  4.081348408154419e-01  8.337613092536764e-18

 9.632099817330215e-18 -4.723745369405473e-20 -1.009450582918192e+00
-4.723745369405473e-20 -5.884537909495049e-17  4.074059488827961e-01
-1.009450582918192e+00  4.074059488827961e-01  8.488880826647175e-18

 9.459743130785902e-18 -8.351778887648126e-20 -1.003857442383277e+00
-8.351778887648126e-20  1.223692002682475e-16  4.089457802623566e-01
-1.003857442383277e+00  4.089457802623566e-01  8.183942007704126e-18

 9.343843384233886e-18 -1.872244144507707e-20 -1.000722461494548e+00
-1.872244144507707e-20 -1.410295878729236e-16  4.087192536658237e-01
-1.000722461494548e+00  4.087192536658237e-01  8.072094808077933e-18

 9.351341080235652e-18 -1.134782236617882e-19 -1.002404279578283e+00
-1.134782236617882e-19  1.375133180402403e-16  4.051522751272523e-01
-1.002404279578283e+00  4.051522751272523e-01  8.298991232624729e-18

 9.247382710170833e-18 -4.048802011132723e-20 -9.983120174986561e-01
-4.048802011132723e-20 -6.224529664502812e-17  4.065675613136560e-01
-9.983120174986561e-01  4.065675613136560e-01  8.070889438053901e-18

 9.068370752706000e-18 -1.020054376283164e-19 -9.921489886055225e-01
-1.020054376283164e-19  8.134613965060966e-17  4.097873765958648e-01
-9.921489886055225e-01  4.097873765958648e-01  7.744519329065064e-18

 9.062390570063305e-18 -4.196460367052904e-20 -9.921162057234543e-01
-4.196460367052904e-20 -5.414309512835974e-17  4.040788128883933e-01
-9.921162057234543e-01  4.040788128883933e-01  7.928357745760101e-18

 8.854562262508705e-18 -2.999053441939880e-20 -9.842721165231435e-01
-2.999053441939880e-20 -5.246100725546817e-17  4.089752665525244e-01
-9.842721165231435e-01  4.089752665525244e-01  7.563579391693456e-18

 8.593193770072004e-18 -3.226856367741618e-20 -9.731213939642042e-01
-3.226856367741618e-20 -5.286933931008025e-17  4.133146050421957e-01
-9.731213939642042e-01  4.133146050421957e-01  7.058219520421448e-18

 8.323552469241945e-18 -1.316617626750712e-19 -9.623720231150200e-01
-1.316617626750712e-19  5.761946816469995e-17  4.164097347052116e-01
-9.623720231150200e-01  4.164097347052116e-01  6.549071375815439e-18

 7.837370439115058e-18 -5.945914847036084e-20 -9.430841832688339e-01
-5.945914847036084e-20 -2.098014700941553e-17  4.257262987332517e-01
-9.430841832688339e-01  4.257262987332517e-01  5.342298982253167e-18

 7.569086129920219e-18 -1.438665107936649e-19 -9.317554513578078e-01
-1.438665107936649e-19  2.439008543763420e-17  4.014845013561363e-01
-9.317554513578078e-01  4.014845013561363e-01  5.003520482664001e-18

 9.392732806586872e-18 -1.367855270045652e-19 -1.007348596545199e+00
-1.367855270045652e-19  3.585240230592452e-17  3.232357629028013e-01
-1.007348596545199e+00  3.232357629028013e-01  1.074260581388329e-17

 7.606980649577604e-18 -9.473273533442386e-20 -9.378263667548157e-01
-9.473273533442386e-20  6.604182266517687e-18  4.008869303280066e-01
-9.378263667548157e-01  4.008869303280066e-01  5.252933011348747e-18

 7.869703231975891e-18 -1.279334004954953e-19 -9.553921989196794e-01
-1.279334004954953e-19 -9.169558024528037e-18  4.270722357359583e-01
-9.553921989196794e-01  4.270722357359583e-01  5.890905182315483e-18

 8.197303135207146e-18 -1.309091777179080e-19 -9.769871898608009e-01
-1.309091777179080e-19 -1.490703150506079e-17  4.196629458102153e-01
-9.769871898608009e-01  4.196629458102153e-01  6.851729418415594e-18

 8.497436883131021e-18 -1.736941834261706e-19 -9.945906958746432e-01
-1.736941834261706e-19  5.044470129946834e-17  4.091799401027381e-01
-9.945906958746432e-01  4.091799401027381e-01  7.752492475143736e-18

 8.447772684728129e-18 -1.508754293508979e-19 -9.987364636021325e-01
-1.508754293508979e-19 -5.158703114692011e-18  4.144210808105375e-01
-9.987364636021325e-01  4.144210808105375e-01  7.715812634579651e-18

 8.472931247608290e-18 -1.749257391615105e-19 -1.005507192050289e+00
-1.749257391615105e-19  5.016068957354254e-17  4.124681011617796e-01
-1.005507192050289e+00  4.124681011617796e-01  7.866113744009431e-18

 8.612406835720636e-18 -1.819227399160152e-19 -1.017982167167983e+00
-1.819227399160152e-19  5.650949510597051e-17  4.070409622134427e-01
-1.017982167167983e+00  4.070409622134427e-01  8.444771107239322e-18

 8.228974416039626e-18 -2.078349134511032e-19 -1.006349548060444e+00
-2.078349134511032e-19  8.240412307163669e-17  4.338513075785720e-01
-1.006349548060444e+00  4.338513075785720e-01  7.275219420665521e-18

 8.733034051539600e-18 -1.475997994088243e-19 -1.031706993023807e+00
-1.475997994088243e-19 -1.375453036224024e-16  4.167631700233642e-01
-1.031706993023807e+00  4.167631700233642e-01  8.940017413972698e-18

 8.762768213591437e-18 -1.777976652603334e-19 -1.036952627409715e+00
-1.777976652603334e-19 -3.180011200920351e-17  4.066046787786634e-01
-1.036952627409715e+00  4.066046787786634e-01  9.237246465720277e-18

 8.588086050086961e-18 -2.950430975017241e-19 -1.032337970046878e+00
-2.950430975017241e-19  3.857349585107516e-16  4.062367230700323e-01
-1.032337970046878e+00  4.062367230700323e-01  8.973884226776058e-18

 8.180102267649896e-18 -2.721165344127275e-19 -1.019853701001461e+00
-2.721165344127275e-19  2.678887191524064e-16  4.153239527922181e-01
-1.019853701001461e+00  4.153239527922181e-01  8.006898202238976e-18

 8.139530493843129e-18 -2.193278557407101e-19 -1.022419142566230e+00
-2.193278557407101e-19  1.758926802742751e-17  4.146778522390302e-01
-1.022419142566230e+00  4.146778522390302e-01  8.133977889959726e-18

 7.981308781244556e-18 -2.650843575261034e-19 -1.020850197535347e+00
-2.650843575261034e-19  1.206678023589664e-16  4.214037977598342e-01
-1.020850197535347e+00  4.214037977598342e-01  7.938939360099703e-18

 7.967257314138438e-18 -3.071541469877615e-19 -1.023160393700213e+00
-3.071541469877615e-19  2.329636287746588e-16  4.172602860480653e-01
-1.023160393700213e+00  4.172602860480653e-01  8.121867605953074e-18

 7.782558683157110e-18 -2.678847092614900e-19 -1.019450173950871e+00
-2.678847092614900e-19  1.958784027467306e-17  4.206131108667027e-01
-1.019450173950871e+00  4.206131108667027e-01  7.806701244878000e-18

 7.681305873139328e-18 -2.916843067331922e-19 -1.019306028863209e+00
-2.916843067331922e-19  4.880665691227267e-17  4.207267784188903e-01
-1.019306028863209e+00  4.207267784188903e-01  7.791547496181953e-18

 7.529490404697989e-18 -2.777201029334235e-19 -1.017953471527762e+00
-2.777201029334235e-19 -6.607299861278753e-17  4.224683234624024e-01
-1.017953471527762e+00  4.224683234624024e-01  7.657033191130293e-18

 7.325721518041913e-18 -3.059700552996641e-19 -1.017253320607696e+00
-3.059700552996641e-19 -7.067312718306282e-17  4.220701028974340e-01
-1.017253320607696e+00  4.220701028974340e-01  7.587047018831185e-18

 7.099153710749089e-18 -3.985710725708014e-19 -1.016828399336462e+00
-3.985710725708014e-19  1.222328688291778e-16  4.227712781006724e-01
-1.016828399336462e+00  4.227712781006724e-01  7.522973830061984e-18

 6.899685561347655e-18 -4.331347253721469e-19 -1.016289959738826e+00
-4.331347253721469e-19  1.219204875636033e-16  4.225839406974500e-01
-1.016289959738826e+00  4.225839406974500e-01  7.440286579325697e-18

 6.636061815575333e-18 -4.569100353431524e-19 -1.015991987854112e+00
-4.569100353431524e-19  6.993135937035747e-17  4.229203777861749e-01
-1.015991987854112e+00  4.229203777861749e-01  7.350572445151001e-18

 6.414052295267192e-18 -4.564100233294637e-19 -1.015962976492244e+00
-4.564100233294637e-19 -1.019518192446809e-16  4.225044185208369e-01
-1.015962976492244e+00  4.225044185208369e-01  7.287636388869500e-18

 6.223872486332724e-18 -4.833586613746069e-19 -1.015872736230271e+00
-4.833586613746069e-19 -1.204374755916563e-16  4.225245761261336e-01
-1.015872736230271e+00  4.225245761261336e-01  7.229040094924224e-18

 5.946291789018560e-18 -5.382094601643267e-19 -1.015329581503603e+00
-5.382094601643267e-19 -1.436255570809186e-16  4.226786688029872e-01
-1.015329581503603e+00  4.226786688029872e-01  7.142026484488715e-18

 5.499858519945757e-18 -6.666170072715680e-19 -1.014756016565560e+00
-6.666170072715680e-19  3.290025074653488e-17  4.223237179653467e-01
-1.014756016565560e+00  4.223237179653467e-01  7.026242459751365e-18

 5.103231067626079e-18 -7.255862600950206e-19 -1.013905469580127e+00
-7.255862600950206e-19 -6.871303676477427e-17  4.207113402643801e-01
-1.013905469580127e+00  4.207113402643801e-01  6.893757819563521e-18

 4.824244143360464e-18 -7.975183429315464e-19 -1.012944306623229e+00
-7.975183429315464e-19  1.447131633151362e-17  4.202472983936677e-01
-1.012944306623229e+00  4.202472983936677e-01  6.792086161400584e-18

 4.398501072482287e-18 -8.958210472038550e-19 -1.011599065518294e+00
-8.958210472038550e-19  1.057720095489594e-16  4.214876367426121e-01
-1.011599065518294e+00  4.214876367426121e-01  6.641736928034279e-18

 3.961315165590154e-18 -9.978390250343953e-19 -1.010668302720308e+00
-9.978390250343953e-19  1.190375864384439e-16  4.197274328209681e-01
-1.010668302720308e+00  4.197274328209681e-01  6.502758024429781e-18

 3.524288635114764e-18 -1.098588040038500e-18 -1.009832416918894e+00
-1.098588040038500e-18  1.322761687411536e-16  4.185561150391878e-01
-1.009832416918894e+00  4.185561150391878e-01  6.352684089884245e-18

 2.867272346416262e-18 -1.226989922586771e-18 -1.010991829058080e+00
-1.226989922586771e-18 -1.800374873352980e-17  4.181283600532100e-01
-1.010991829058080e+00  4.181283600532100e-01  6.236106332393561e-18

 2.165978930527483e-18 -1.400849772112412e-18 -1.008736673147115e+00
-1.400849772112412e-18  3.843538233119792e-17  4.195006851453393e-01
-1.008736673147115e+00  4.195006851453393e-01  5.877556432151629e-18

 1.350457301527031e-18 -1.638929381557961e-18 -1.004265364082356e+00
-1.638929381557961e-18  2.846190266959006e-16  4.154054218660296e-01
-1.004265364082356e+00  4.154054218660296e-01  5.440150259116549e-18

 9.242682827168128e-19 -1.777998394371827e-18 -1.011169121716889e+00
-1.777998394371827e-18  1.813815332989074e-16  4.089305612602111e-01
-1.011169121716889e+00  4.089305612602111e-01  5.752216301347259e-18

 3.187548146989985e-19 -1.882842062081260e-18 -1.013582634407287e+00
-1.882842062081260e-18 -2.050821992035134e-16  4.174171736157129e-01
-1.013582634407287e+00  4.174171736157129e-01  5.562884203271225e-18

-9.465329667896408e-19 -2.205025657105272e-18 -1.012084555730569e+00
-2.205025657105272e-18 -4.413201577066445e-16  4.143006055197939e-01
-1.012084555730569e+00  4.143006055197939e-01  5.095923101654080e-18

-2.588617567754833e-18 -2.779789138284341e-18 -1.005546193520602e+00
-2.779789138284341e-18  4.985002384516939e-17  4.133035786262313e-01
-1.005546193520602e+00  4.133035786262313e-01  4.254872386874393e-18

-4.598467739699022e-18 -3.529613976921523e-18 -1.007742527299658e+00
-3.529613976921523e-18  1.913801237093673e-16  4.135890824311019e-01
-1.007742527299658e+00  4.135890824311019e-01  3.759981501962861e-18

-6.976368866233815e-18 -4.273523199281897e-18 -1.002469967641463e+00
-4.273523199281897e-18 -1.160561473340346e-16  4.145085716682814e-01
-1.002469967641463e+00  4.145085716682814e-01  2.789114125108727e-18

-9.088920152801557e-18 -5.061658211289474e-18 -9.958256442622140e-01
-5.061658211289474e-18 -1.196227419788878e-16  4.177348775427983e-01
-9.958256442622140e-01  4.177348775427983e-01  1.806252099428481e-18

-1.245849383059028e-17 -6.255310763087215e-18 -9.715496594581213e-01
-6.255310763087215e-18 -7.091054972697967e-17  4.277926300420916e-01
-9.715496594581213e-01  4.277926300420916e-01 -5.952468010823283e-19

-1.328765400058925e-17 -7.312709231414852e-18 -1.011719550398229e+00
-7.312709231414852e-18  1.419892522242521e-16  3.613108275623950e-01
-1.011719550398229e+00  3.613108275623950e-01  2.151121636155578e-18

-1.655796196262185e-17 -8.170432566658959e-18 -9.844205378694001e-01
-8.170432566658959e-18  1.187003825155665e-16  4.118973894319621e-01
-9.844205378694001e-01  4.118973894319621e-01 -1.238251982304177e-18

-2.179603399927497e-17 -1.060064168662520e-17 -1.008879520717168e+00
-1.060064168662520e-17  1.240148578323412e-16  4.164249505293557e-01
-1.008879520717168e+00  4.164249505293557e-01 -1.930107152515095e-18

-2.581454558766706e-17 -1.240905783891377e-17 -1.007728929392536e+00
-1.240905783891377e-17 -1.719111987892135e-17  4.005907494703851e-01
-1.007728929392536e+00  4.005907494703851e-01 -3.203705433786647e-18

-3.145869321389717e-17 -1.487532211091365e-17 -1.002076815744318e+00
-1.487532211091365e-17 -1.002471887497441e-16  4.236959348236360e-01
-1.002076815744318e+00  4.236959348236360e-01 -5.717016201548210e-18

-3.952654539606447e-17 -1.880548196807878e-17 -1.007869553772555e+00
-1.880548196807878e-17  1.600775861383485e-17  4.215219722610323e-01
-1.007869553772555e+00  4.215219722610323e-01 -8.195555902624747e-18

-4.734899331552130e-17 -2.269803183330714e-17 -1.011942406115139e+00
-2.269803183330714e-17  3.739583853994925e-18  4.231181796049229e-01
-1.011942406115139e+00  4.231181796049229e-01 -1.069646507030272e-17

-5.552178447001762e-17 -2.675408164892493e-17 -1.020048106265562e+00
-2.675408164892493e-17  1.168339350474148e-16  4.222734828227855e-01
-1.020048106265562e+00  4.222734828227855e-01 -1.706501107745163e-17

-7.464352992966476e-17 -3.673250996622905e-17 -1.029452041374706e+00
-3.673250996622905e-17  1.620765057357543e-16  4.287623837121620e-01
-1.029452041374706e+00  4.287623837121620e-01 -1.894726842882669e-17

-8.624467812640078e-17 -4.278383891477851e-17 -1.036391741719034e+00
-4.278383891477851e-17 -4.109603851501905e-16  4.310023908548670e-01
-1.036391741719034e+00  4.310023908548670e-01 -2.231228486108819e-17

-1.089377061711505e-16 -5.519872507810920e-17 -1.034660127186652e+00
-5.519872507810920e-17 -4.419870270615807e-16  4.284567572225702e-01
-1.034660127186652e+00  4.284567572225702e-01 -2.945292612306456e-17

-1.334961353330354e-16 -6.896726248319918e-17 -1.030204731040104e+00
-6.896726248319918e-17 -1.908581162194160e-16  4.248900708764120e-01
-1.030204731040104e+00  4.248900708764120e-01 -3.710025485583890e-17

-1.775981861553017e-16 -9.343603246220174e-17 -1.027321576870599e+00
-9.343603246220174e-17  2.304844567213627e-16  4.280939747288551e-01
-1.027321576870599e+00  4.280939747288551e-01 -5.047103405554899e-17

-2.776443960475286e-16 -1.480762993726016e-16 -1.032405473046984e+00
-1.480762993726016e-16 -3.892019580974213e-16  4.272119911208617e-01
-1.032405473046984e+00  4.272119911208617e-01 -7.950424471453018e-17

-4.180466941086955e-16 -2.217436248471430e-16 -1.027253834482821e+00
-2.217436248471430e-16 -3.381967055026546e-16  4.262232928433841e-01
-1.027253834482821e+00  4.262232928433841e-01 -1.199848338714818e-16

-6.015678122499714e-16 -3.106745722456728e-16 -1.022975309418344e+00
-3.106745722456728e-16 -4.336703513476327e-16  4.256908451094618e-01
-1.022975309418344e+00  4.256908451094618e-01 -1.723453752215037e-16

-8.980068319966943e-16 -4.365871908780738e-16 -1.019401491154185e+00
-4.365871908780738e-16 -5.653647242251900e-16  4.254792884496107e-01
-1.019401491154185e+00  4.254792884496107e-01 -2.573086069051960e-16

-1.344807395563080e-15 -5.898673782940049e-16 -1.016950794733726e+00
-5.898673782940049e-16 -1.082382183775213e-15  4.259248640452662e-01
-1.016950794733726e+00  4.259248640452662e-01 -3.889458385656483e-16

-2.043893415300927e-15 -7.575788004933126e-16 -1.011031679922513e+00
-7.575788004933126e-16 -1.673506677488797e-15  4.277408949277831e-01
-1.011031679922513e+00  4.277408949277831e-01 -6.079868927340704e-16

-2.655292344953383e-15 -8.457643520536870e-16 -1.015577992848333e+00
-8.457643520536870e-16 -1.140405327436102e-15  4.175387281461326e-01
-1.015577992848333e+00  4.175387281461326e-01 -8.144317205220789e-16

-3.365064210563064e-15 -8.917896096717726e-16 -1.017202220994574e+00
-8.917896096717726e-16 -1.160418690969278e-15  4.149002723967204e-01
-1.017202220994574e+00  4.149002723967204e-01 -1.072885921716107e-15

-4.731747587436260e-15 -8.126673949194047e-16 -1.012900283410444e+00
-8.126673949194047e-16 -1.597212388435238e-15  4.303107774137404e-01
-1.012900283410444e+00  4.303107774137404e-01 -1.637637414437940e-15

-6.963682063743741e-15 -5.206065733266753e-16 -1.014823839923841e+00
-5.206065733266753e-16 -1.674698261186635e-15  4.304751631699287e-01
-1.014823839923841e+00  4.304751631699287e-01 -2.671508175424057e-15

-9.544386506294781e-15  3.092316038551074e-17 -1.018833475474859e+00
 3.092316038551074e-17 -1.841958566130499e-15  4.185163049889130e-01
-1.018833475474859e+00  4.185163049889130e-01 -4.033533459972170e-15

-1.402883245599550e-14  1.264573801018899e-15 -1.012580375665145e+00
 1.264573801018899e-15 -3.091718826494659e-15  4.196096420612400e-01
-1.012580375665145e+00  4.196096420612400e-01 -6.553546055896110e-15

 1.426469801893276e-14  2.438677815813019e-14 -1.010481967801767e+00
 2.438677815813019e-14  3.074474224449530e-14  4.225837087650126e-01
-1.010481967801767e+00  4.225837087650126e-01 -2.269613069596602e-15

-6.421775218115026e-13 -1.546976865066538e-13 -1.010588069258636e+00
-1.546976865066538e-13 -2.802741518846290e-13  4.232267575497188e-01
-1.010588069258636e+00  4.232267575497188e-01 -2.125951876091414e-13

 1.944113342301839e-14  3.930690211366240e-15 -1.012212123252902e+00
 3.930690211366240e-15  2.400299068862821e-14  4.169361390463020e-01
-1.012212123252902e+00  4.169361390463020e-01 -3.962479516353797e-15

-7.461221788879087e-15 -1.170963912509353e-14 -1.012853211025544e+00
-1.170963912509353e-14 -2.092738991152001e-16  4.172037393003412e-01
-1.012853211025544e+00  4.172037393003412e-01 -8.283208929278413e-15

-6.480945533341793e-13 -1.504745019779473e-13 -1.012189302359743e+00
-1.504745019779473e-13 -3.240268098177900e-13  4.179292573358406e-01
-1.012189302359743e+00  4.179292573358406e-01 -1.600151623105119e-13

-4.059546753865163e-15 -9.007847414146053e-15 -1.013702942477274e+00
-9.007847414146053e-15  7.975565933757831e-16  4.172432397343542e-01
-1.013702942477274e+00  4.172432397343542e-01 -4.550328293767956e-15

-3.154697530724388e-15 -7.137632253742385e-15 -1.012360883286377e+00
-7.137632253742385e-15  1.413537757061512e-15  4.170559120611398e-01
-1.012360883286377e+00  4.170559120611398e-01 -3.345421663701706e-15

-2.606324271586824e-15 -4.484575590711186e-15 -1.011458990617260e+00
-4.484575590711186e-15  1.587751401845850e-15  4.165048349752318e-01
-1.011458990617260e+00  4.165048349752318e-01 -2.043544743595462e-15

-1.909937161692244e-15 -2.100362073993766e-15 -1.010231197985888e+00
-2.100362073993766e-15  1.189152474216634e-15  4.159210960523603e-01
-1.010231197985888e+00  4.159210960523603e-01 -1.081414836245970e-15

-1.375864592109774e-15 -1.019041564764103e-15 -1.010873790711368e+00
-1.019041564764103e-15  7.439250181247659e-16  4.163287817623981e-01
-1.010873790711368e+00  4.163287817623981e-01 -6.426415202523573e-16

-9.598730998058367e-16 -4.866984950284385e-16 -1.011213728950406e+00
-4.866984950284385e-16  4.440617848644074e-16  4.157940663289819e-01
-1.011213728950406e+00  4.157940663289819e-01 -3.967099333398100e-16

-6.625348265540402e-16 -2.305520585851623e-16 -1.011301894296801e+00
-2.305520585851623e-16  2.361441180067763e-16  4.152029815173514e-01
-1.011301894296801e+00  4.152029815173514e-01 -2.528380087986196e-16

-4.656655229696051e-16 -1.114783148903646e-16 -1.011559287729602e+00
-1.114783148903646e-16  1.200681283234616e-16  4.159630522632073e-01
-1.011559287729602e+00  4.159630522632073e-01 -1.684426014467438e-16

-3.487051465148087e-16 -6.077897574498360e-17 -1.010208600649730e+00
-6.077897574498360e-17  4.811670228382530e-17  4.143759912399053e-01
-1.010208600649730e+00  4.143759912399053e-01 -1.219987044741648e-16

-2.440629146228063e-16 -3.742780667552103e-17 -1.007614711090748e+00
-3.742780667552103e-17 -1.393943848256420e-17  4.199216174387879e-01
-1.007614711090748e+00  4.199216174387879e-01 -8.937484233255450e-17

-2.035202105089960e-16 -1.598600628471488e-17 -1.005949428703302e+00
-1.598600628471488e-17  7.052588043885663e-17  4.029938148849440e-01
-1.005949428703302e+00  4.029938148849440e-01 -6.714959632201625e-17

-1.698422867986837e-16 -9.190099445123456e-18 -1.015652509902133e+00
-9.190099445123456e-18 -2.195214300122583e-18  3.983056805441638e-01
-1.015652509902133e+00  3.983056805441638e-01 -5.436575169920822e-17

-1.398032856397971e-16 -4.366422907423393e-18 -1.030515237558936e+00
-4.366422907423393e-18 -2.608810080063432e-17  4.211036797073465e-01
-1.030515237558936e+00  4.211036797073465e-01 -4.295233987482772e-17

-1.108160936547704e-16 -8.183109288772272e-19 -1.030668625399413e+00
-8.183109288772272e-19  3.987486651119978e-17  4.229123987132125e-01
-1.030668625399413e+00  4.229123987132125e-01 -3.264184178381040e-17

-9.231060329688616e-17  8.310733253469011e-19 -1.007775220295964e+00
 8.310733253469011e-19 -1.569889127840104e-17  3.995084602332652e-01
-1.007775220295964e+00  3.995084602332652e-01 -2.690650431912339e-17

-7.708135005185602e-17  1.776066097614513e-18 -9.954903317149199e-01
 1.776066097614513e-18  5.668980445988476e-17  3.999981149426463e-01
-9.954903317149199e-01  3.999981149426463e-01 -2.214171649043949e-17

-6.578815125182564e-17  2.241848028008278e-18 -9.861948786959762e-01
 2.241848028008278e-18 -3.940436561906884e-18  4.505946017947066e-01
-9.861948786959762e-01  4.505946017947066e-01 -1.914412971058344e-17

-5.812725879887864e-17  2.452329082536605e-18 -1.008330639536785e+00
 2.452329082536605e-18  5.238245278612330e-18  4.236175339189944e-01
-1.008330639536785e+00  4.236175339189944e-01 -1.493397867402039e-17

-4.755686231094784e-17  2.593860561097194e-18 -9.961898484663330e-01
 2.593860561097194e-18 -3.101275497361306e-17  4.065049134869665e-01
-9.961898484663330e-01  4.065049134869665e-01 -1.160290937433684e-17

-3.810616856553869e-17  2.546471771306156e-18 -9.947362266660786e-01
 2.546471771306156e-18 -3.482094177022639e-17  4.117670513902826e-01
-9.947362266660786e-01  4.117670513902826e-01 -8.349072414508259e-18

-3.054618078948245e-17  2.389253003915416e-18 -9.965156362566754e-01
 2.389253003915416e-18 -3.832011806560055e-17  4.110758166046358e-01
-9.965156362566754e-01  4.110758166046358e-01 -5.562930356021531e-18

-2.548871413473419e-17  2.210502235893258e-18 -9.941607236650348e-01
 2.210502235893258e-18 -3.110692893619985e-17  4.150593298777775e-01
-9.941607236650348e-01  4.150593298777775e-01 -3.912974514843771e-18

-2.242890702329116e-17  2.117031667440561e-18 -9.824124024305249e-01
 2.117031667440561e-18  2.005652030346294e-17  4.213229753092982e-01
-9.824124024305249e-01  4.213229753092982e-01 -3.488471590917524e-18

-1.933156540774645e-17  1.953131023719772e-18 -9.735156842991036e-01
 1.953131023719772e-18 -8.464302255973396e-18  4.028613297713465e-01
-9.735156842991036e-01  4.028613297713465e-01 -2.636004428028408e-18

-1.622087560228693e-17  1.904444452813933e-18 -1.022394145486746e+00
 1.904444452813933e-18  9.667280302653193e-18  3.567368851109970e-01
-1.022394145486746e+00  3.567368851109970e-01  1.680299893594651e-18

-1.594230845760693e-17  1.747244259425553e-18 -9.720373971135420e-01
 1.747244259425553e-18  2.580308249306226e-17  4.303824903032873e-01
-9.720373971135420e-01  4.303824903032873e-01 -1.866843784614367e-18

-1.363989951686684e-17  1.573930674166241e-18 -9.845924054752420e-01
 1.573930674166241e-18 -2.550045974498033e-17  4.228891951721711e-01
-9.845924054752420e-01  4.228891951721711e-01 -4.414032972135964e-19

-1.146736890537072e-17  1.482894562237357e-18 -9.982630153118859e-01
 1.482894562237357e-18  4.521392597115750e-18  4.032401365423894e-01
-9.982630153118859e-01  4.032401365423894e-01  1.146345421339105e-18

-8.372913166430487e-18  1.242382380330206e-18 -1.005331654152652e+00
 1.242382380330206e-18 -1.659620991979738e-17  4.111447805767218e-01
-1.005331654152652e+00  4.111447805767218e-01  2.344789971000790e-18

-6.442634353687265e-18  1.107738709013136e-18 -1.004692435389676e+00
 1.107738709013136e-18  8.237341891431887e-18  4.167104412788807e-01
-1.004692435389676e+00  4.167104412788807e-01  2.779018858129320e-18

-5.265066073280756e-18  1.011641937800603e-18 -1.006713212520409e+00
 1.011641937800603e-18 -5.869393458377285e-19  4.156867313241870e-01
-1.006713212520409e+00  4.156867313241870e-01  3.286754943512035e-18

-3.730402274642289e-18  8.838313756177008e-19 -1.008848500701611e+00
 8.838313756177008e-19 -2.614973307463119e-17  4.171821558340927e-01
-1.008848500701611e+00  4.171821558340927e-01  3.862091410316479e-18

-2.532226389244111e-18  8.079456741737263e-19 -1.007701248699982e+00
 8.079456741737263e-19  3.561218128029842e-18  4.090122104580748e-01
-1.007701248699982e+00  4.090122104580748e-01  4.220950497355971e-18

-1.599242586693403e-18  7.369438442409018e-19 -1.011427565570085e+00
 7.369438442409018e-19  1.177358840571556e-17  4.051719759042381e-01
-1.011427565570085e+00  4.051719759042381e-01  4.711767971730965e-18

-8.083635875810069e-19  6.383326679100336e-19 -1.012158910691961e+00
 6.383326679100336e-19 -1.109750319084020e-17  4.253250763637154e-01
-1.012158910691961e+00  4.253250763637154e-01  4.775914548121150e-18

 2.003160006989430e-19  5.642604556769424e-19 -1.017753674536657e+00
 5.642604556769424e-19 -2.325411490060913e-18  4.151140903011130e-01
-1.017753674536657e+00  4.151140903011130e-01  5.499124634723587e-18

 6.909755074213000e-19  4.929765997606068e-19 -1.003956202122732e+00
 4.929765997606068e-19 -2.297478941679814e-18  4.264952084180653e-01
-1.003956202122732e+00  4.264952084180653e-01  4.870667053101467e-18

 1.555175652364409e-18  4.618070474255172e-19 -1.019278115768101e+00
 4.618070474255172e-19 -5.866780626869945e-18  4.003152482065039e-01
-1.019278115768101e+00  4.003152482065039e-01  6.374907634533323e-18

 1.738618855521098e-18  4.375337183512387e-19 -1.011371597699503e+00
 4.375337183512387e-19  2.394808334381524e-17  4.047298543754358e-01
-1.011371597699503e+00  4.047298543754358e-01  5.963794900530105e-18

 2.319410712346124e-18  3.662647862412278e-19 -1.007777511479793e+00
 3.662647862412278e-19 -1.310617217619820e-17  4.201391902919104e-01
-1.007777511479793e+00  4.201391902919104e-01  5.882833547316157e-18

 2.970427691838060e-18  3.301084290263268e-19 -1.011000918741733e+00
 3.301084290263268e-19 -1.242195516056121e-17  4.118592906995264e-01
-1.011000918741733e+00  4.118592906995264e-01  6.433002517549909e-18

 3.175956088872817e-18  3.126561328104506e-19 -1.004246457617063e+00
 3.126561328104506e-19  1.794486521114423e-17  4.186546291963484e-01
-1.004246457617063e+00  4.186546291963484e-01  6.096311648384398e-18

 3.487304101377613e-18  2.923109757392632e-19 -1.004553454230791e+00
 2.923109757392632e-19 -5.905931130338938e-18  4.162488887344983e-01
-1.004553454230791e+00  4.162488887344983e-01  6.285453326333982e-18

 3.877272261512944e-18  2.498812960682814e-19 -9.969616755402841e-01
 2.498812960682814e-19 -3.630238697427599e-17  4.099370546932747e-01
-9.969616755402841e-01  4.099370546932747e-01  6.147967945037724e-18

 4.405837805121184e-18  2.357400809440937e-19 -1.002340450434858e+00
 2.357400809440937e-19  6.745782160524629e-18  4.061220887338382e-01
-1.002340450434858e+00  4.061220887338382e-01  6.640896062788321e-18

 4.618256312245270e-18  2.134522791113150e-19 -1.001129091264764e+00
 2.134522791113150e-19 -3.156198818191154e-18  4.154702524187794e-01
-1.001129091264764e+00  4.154702524187794e-01  6.563892684765475e-18

 4.997625104793501e-18  2.127306298769045e-19 -1.003831495559058e+00
 2.127306298769045e-19  1.358752406643681e-17  4.142288040087429e-01
-1.003831495559058e+00  4.142288040087429e-01  6.839646570658762e-18

 5.259530480070110e-18  1.890971644383526e-19 -1.002565310099225e+00
 1.890971644383526e-19  3.736623234537442e-17  4.074366527400279e-01
-1.002565310099225e+00  4.074366527400279e-01  6.916138018386354e-18

 5.342498854177575e-18  1.626057189700039e-19 -9.985477963700993e-01
 1.626057189700039e-19 -8.313105579990640e-18  4.075390304547121e-01
-9.985477963700993e-01  4.075390304547121e-01  6.743735626746595e-18

 5.414724118927286e-18  1.556158539482572e-19 -9.968307393749936e-01
 1.556158539482572e-19 -1.685298102640789e-17  4.097416661606481e-01
-9.968307393749936e-01  4.097416661606481e-01  6.602366564610997e-18

 5.678478947539696e-18  1.419511579628496e-19 -9.977715736690362e-01
 1.419511579628496e-19 -6.533380120523423e-18  4.120763485716227e-01
-9.977715736690362e-01  4.120763485716227e-01  6.719594400695286e-18

 5.978421125707076e-18  1.359953654770701e-19 -1.001787923139795e+00
 1.359953654770701e-19  3.065712169757595e-17  4.095371579614800e-01
-1.001787923139795e+00  4.095371579614800e-01  7.056696805540889e-18

 6.147896605656815e-18  1.126128002970047e-19 -1.003691697673559e+00
 1.126128002970047e-19  1.441535010691693e-17  4.099123693992642e-01
-1.003691697673559e+00  4.099123693992642e-01  7.167152238864314e-18

 6.338515579850867e-18  1.007269287219605e-19 -1.002277333691277e+00
 1.007269287219605e-19  1.481914873869928e-17  4.103127532743035e-01
-1.002277333691277e+00  4.103127532743035e-01  7.143710563764114e-18

 6.547607077431326e-18  7.432977642546986e-20 -1.003086354863396e+00
 7.432977642546986e-20 -7.130659472103212e-18  4.103175462062273e-01
-1.003086354863396e+00  4.103175462062273e-01  7.222748014512652e-18

 6.664281059177030e-18  7.417434691446057e-20 -1.001045250523580e+00
 7.417434691446057e-20  1.305119426540890e-17  4.118440503338558e-01
-1.001045250523580e+00  4.118440503338558e-01  7.175779167964387e-18

 6.870074148983011e-18  5.104898549205936e-20 -1.000883136045922e+00
 5.104898549205936e-20 -4.988803255294721e-18  4.105174385927312e-01
-1.000883136045922e+00  4.105174385927312e-01  7.259411654261536e-18

 7.028992015249788e-18  6.259230111443229e-20 -1.001387379415588e+00
 6.259230111443229e-20  3.847560314803795e-17  4.110874229495134e-01
-1.001387379415588e+00  4.110874229495134e-01  7.324735691508999e-18

 7.159942339300065e-18  3.298201742422621e-20 -1.002113023746902e+00
 3.298201742422621e-20  1.303291358757358e-17  4.088952676431728e-01
-1.002113023746902e+00  4.088952676431728e-01  7.474900945819906e-18

 7.253089764149757e-18  4.795107668011330e-20 -1.000188128650399e+00
 4.795107668011330e-20  2.615202174702728e-17  4.107767152025156e-01
-1.000188128650399e+00  4.107767152025156e-01  7.395185706045560e-18

 7.414946982283342e-18  2.800432420764645e-20 -9.992395565298937e-01
 2.800432420764645e-20  2.104420685230576e-17  4.074069074796303e-01
-9.992395565298937e-01  4.074069074796303e-01  7.513612657222144e-18

 7.542883766745930e-18  2.570809249471713e-20 -9.966059946335336e-01
 2.570809249471713e-20  2.114505123192075e-17  4.084363747727975e-01
-9.966059946335336e-01  4.084363747727975e-01  7.497902868550925e-18

 7.860872427570053e-18  2.594022856687993e-20 -1.002902550875746e+00
 2.594022856687993e-20  2.555842954677432e-17  3.995056974212183e-01
-1.002902550875746e+00  3.995056974212183e-01  8.068392978565207e-18

 7.732428348203214e-18  8.101008046916808e-21 -9.946210533285625e-01
 8.101008046916808e-21 -1.973758862105165e-17  4.053588413537408e-01
-9.946210533285625e-01  4.053588413537408e-01  7.550428747678545e-18

 7.840530298906642e-18  3.551875657041231e-20 -9.952201127071274e-01
 3.551875657041231e-20  2.986717979996640e-17  4.016698920460290e-01
-9.952201127071274e-01  4.016698920460290e-01  7.648721733672009e-18

 7.977698418483598e-18  5.036070289551326e-20 -9.964924430221461e-01
 5.036070289551326e-20  4.383314549517146e-17  4.061922110395236e-01
-9.964924430221461e-01  4.061922110395236e-01  7.681583214633515e-18

 8.209282761382390e-18  3.259702851433803e-20 -1.002108554076321e+00
 3.259702851433803e-20  8.481186420325228e-18  4.026164729392745e-01
-1.002108554076321e+00  4.026164729392745e-01  8.126244904406947e-18

 8.202123210522689e-18  6.208705044404051e-20 -9.984471051795332e-01
 6.208705044404051e-20  5.509288933421999e-17  4.013087049323926e-01
-9.984471051795332e-01  4.013087049323926e-01  7.939541017190034e-18

 8.177989799110331e-18  1.227963235910333e-20 -9.945928367676148e-01
 1.227963235910333e-20 -2.263312352999820e-17  4.012016029270191e-01
-9.945928367676148e-01  4.012016029270191e-01  7.704217636323926e-18

 7.889464113874372e-18  4.664862861937918e-20 -9.792953235497245e-01
 4.664862861937918e-20  2.823881509978212e-17  4.137060558643783e-01
-9.792953235497245e-01  4.137060558643783e-01  6.610938640081747e-18

 8.040972700647123e-18  6.180222611724515e-20 -9.836947279364553e-01
 6.180222611724515e-20  5.426109177594609e-17  4.074901745741354e-01
-9.836947279364553e-01  4.074901745741354e-01  6.950074873640626e-18

 8.248932949987137e-18 -1.525017026301641e-20 -9.888265323053838e-01
-1.525017026301641e-20 -2.623386534991355e-17  4.052976638788511e-01
-9.888265323053838e-01  4.052976638788511e-01  7.333607038270059e-18

 8.670023026898997e-18 -2.686059683651789e-21 -1.002262272016920e+00
-2.686059683651789e-21 -6.282330459983026e-18  3.981085336276812e-01
-1.002262272016920e+00  3.981085336276812e-01  8.274006215660310e-18

 8.695276843880306e-18  1.492048077089404e-21 -1.002542031182113e+00
 1.492048077089404e-21 -2.207407298657988e-18  3.990249714297677e-01
-1.002542031182113e+00  3.990249714297677e-01  8.289183951623409e-18

 8.499354800278063e-18 -1.542598572738600e-21 -9.915892369497388e-01
-1.542598572738600e-21  6.238707460788553e-19  4.051588936188093e-01
-9.915892369497388e-01  4.051588936188093e-01  7.562508788423978e-18

 8.392705635169790e-18  1.170355129092242e-20 -9.840022137534830e-01
 1.170355129092242e-20  1.688195484038909e-17  4.087474796601239e-01
-9.840022137534830e-01  4.087474796601239e-01  7.063565824888104e-18

 8.339613486418959e-18 -5.467213669630888e-20 -9.792954356974987e-01
-5.467213669630888e-20 -3.813913457481935e-17  4.137962355112775e-01
-9.792954356974987e-01  4.137962355112775e-01  6.741653787228581e-18

 8.569664341932253e-18  1.018169969541634e-20 -9.863230578098582e-01
 1.018169969541634e-20  2.393420443299532e-17  4.047548550884590e-01
-9.863230578098582e-01  4.047548550884590e-01  7.367494745412910e-18

 8.678782191780141e-18 -7.627727009644440e-20 -9.873892024353095e-01
-7.627727009644440e-20 -3.888763949205371e-17  4.047201835352122e-01
-9.873892024353095e-01  4.047201835352122e-01  7.447143850103969e-18

 8.636062559634212e-18 -1.549368653229823e-20 -9.844953573787308e-01
-1.549368653229823e-20  1.075266006365850e-17  4.065874531762735e-01
-9.844953573787308e-01  4.065874531762735e-01  7.281178396510083e-18

 8.596333596910330e-18  4.792445636205979e-20 -9.802840395836611e-01
 4.792445636205979e-20  6.105188699075204e-17  4.094793727708583e-01
-9.802840395836611e-01  4.094793727708583e-01  6.968813035626651e-18

 8.792248009414314e-18  5.528519293558235e-20 -9.861100379164733e-01
 5.528519293558235e-20  6.765140410803127e-17  4.024523600433070e-01
-9.861100379164733e-01  4.024523600433070e-01  7.439524455414139e-18

 9.016554674815530e-18 -6.506937814329005e-20 -9.914431094826739e-01
-6.506937814329005e-20 -1.200250456167982e-17  4.046622239125505e-01
-9.914431094826739e-01  4.046622239125505e-01  7.755060452376766e-18

 8.818886292283607e-18 -7.091820207829488e-21 -9.803354158326431e-01
-7.091820207829488e-21  2.853583124521594e-17  4.169235159519056e-01
-9.803354158326431e-01  4.169235159519056e-01  6.969336702755844e-18

 8.649547819780581e-18 -1.152779189199576e-19 -9.727117308921199e-01
-1.152779189199576e-19 -4.091117802797569e-17  4.235881772115188e-01
-9.727117308921199e-01  4.235881772115188e-01  6.401975444583930e-18

 9.114792571234673e-18  1.340657623855172e-21 -9.886337776877215e-01
 1.340657623855172e-21  4.648123761001426e-17  3.934628093080409e-01
-9.886337776877215e-01  3.934628093080409e-01  7.828827436149084e-18

 9.079717407107722e-18  3.731273538147672e-20 -9.853721447255245e-01
 3.731273538147672e-20  6.537253731129027e-17  3.953169314912477e-01
-9.853721447255245e-01  3.953169314912477e-01  7.609147217508571e-18

 8.874566648729263e-18 -1.017970452480236e-20 -9.763910937980425e-01
-1.017970452480236e-20  3.904058043315479e-17  4.152789082109571e-01
-9.763910937980425e-01  4.152789082109571e-01  6.848033026820503e-18

 8.951336642029076e-18 -1.094398069736637e-19 -9.778114722734502e-01
-1.094398069736637e-19 -1.782649976819956e-17  4.185601372846150e-01
-9.778114722734502e-01  4.185601372846150e-01  6.883476514894431e-18

 9.141180202869109e-18 -1.128844014386260e-20 -9.845445692082879e-01
-1.128844014386260e-20  4.013921967205584e-17  4.042058157985708e-01
-9.845445692082879e-01  4.042058157985708e-01  7.476549040749129e-18

 9.158486138897157e-18 -3.331493721436234e-20 -9.837845230295470e-01
-3.331493721436234e-20  2.952049912486342e-17  4.062924235891197e-01
-9.837845230295470e-01  4.062924235891197e-01  7.380732463663472e-18

 9.126584955945309e-18 -6.396120524783907e-20 -9.816419148701822e-01
-6.396120524783907e-20  1.429856403192996e-17  4.132036745140164e-01
-9.816419148701822e-01  4.132036745140164e-01  7.157639441907318e-18

 9.392161065318046e-18 -7.181601279706736e-20 -9.905214709949570e-01
-7.181601279706736e-20  8.653674347587118e-18  4.039382855506117e-01
-9.905214709949570e-01  4.039382855506117e-01  7.788150832422078e-18

 9.307609019736536e-18 -9.478723437531770e-20 -9.862881565670228e-01
-9.478723437531770e-20  2.724473655722647e-18  4.085603111601908e-01
-9.862881565670228e-01  4.085603111601908e-01  7.472822683844054e-18

 9.422894234439583e-18 -9.386252147755559e-20 -9.902633338146528e-01
-9.386252147755559e-20  2.370420719749890e-18  4.062672814054014e-01
-9.902633338146528e-01  4.062672814054014e-01  7.705407742369151e-18

 9.558395825474021e-18 -1.307606975373179e-19 -9.943343495471895e-01
-1.307606975373179e-19 -1.439971391116629e-17  4.074175167131481e-01
-9.943343495471895e-01  4.074175167131481e-01  7.905097748211107e-18

 9.633920747688958e-18 -1.442060397192058e-20 -9.945773694982644e-01
-1.442060397192058e-20  5.512410646674386e-17  4.056416790302619e-01
-9.945773694982644e-01  4.056416790302619e-01  7.951928491410942e-18

 9.615670562710281e-18 -8.624601374902324e-20 -9.915718607911542e-01
-8.624601374902324e-20  1.392838135951501e-17  4.074075802940246e-01
-9.915718607911542e-01  4.074075802940246e-01  7.772872288047482e-18

 9.771645042566664e-18 -1.427708378030912e-19 -9.957772701466078e-01
-1.427708378030912e-19 -2.057677561611444e-17  4.033681625298876e-01
-9.957772701466078e-01  4.033681625298876e-01  8.095294249852265e-18

 9.704449266349047e-18 -2.062996993277172e-19 -9.921419653350847e-01
-2.062996993277172e-19 -5.067061880708454e-17  4.078608662938186e-01
-9.921419653350847e-01  4.078608662938186e-01  7.862451721349442e-18

 9.749930510912999e-18 -8.392267384659515e-20 -9.917909528330074e-01
-8.392267384659515e-20  1.418292293554984e-17  4.078648019867997e-01
-9.917909528330074e-01  4.078648019867997e-01  7.870724170103593e-18

 9.758258686121065e-18 -1.969676466694161e-19 -9.911757048209713e-01
-1.969676466694161e-19 -4.478550577713544e-17  4.051195429588757e-01
-9.911757048209713e-01  4.051195429588757e-01  7.932776106275462e-18

 9.695874365750716e-18 -7.003590451021239e-20 -9.862549102732628e-01
-7.003590451021239e-20  2.260083846928098e-17  4.075645197478547e-01
-9.862549102732628e-01  4.075645197478547e-01  7.633060395333744e-18

 9.692108828141777e-18 -9.128403596529204e-20 -9.842041047741721e-01
-9.128403596529204e-20  8.273249333546730e-18  4.061565872699343e-01
-9.842041047741721e-01  4.061565872699343e-01  7.658268263521300e-18

 9.517890986937102e-18 -1.250318099254560e-19 -9.747379517258093e-01
-1.250318099254560e-19 -9.187291246547269e-18  4.137702508066970e-01
-9.747379517258093e-01  4.137702508066970e-01  7.077139460077285e-18

 9.535882288813909e-18 -1.337422327043820e-19 -9.733582209658026e-01
-1.337422327043820e-19 -7.843520162088174e-18  4.064420289959954e-01
-9.733582209658026e-01  4.064420289959954e-01  7.169384812338584e-18

 9.390231431293815e-18 -1.320278912039189e-19 -9.663368975921225e-01
-1.320278912039189e-19 -4.516504907277738e-18  4.045400670052209e-01
-9.663368975921225e-01  4.045400670052209e-01  6.759863521757656e-18

 9.738634372529622e-18 -1.116631151449468e-19 -9.792233467952693e-01
-1.116631151449468e-19  3.731561147535403e-18  3.908434060643286e-01
-9.792233467952693e-01  3.908434060643286e-01  7.784897649306143e-18

 9.429789318205747e-18  3.836408458111728e-21 -9.667916861901307e-01
 3.836408458111728e-21  5.699112132973651e-17  4.100502111631856e-01
-9.667916861901307e-01  4.100502111631856e-01  6.725162313826884e-18

 9.667464143996107e-18 -1.545910732180016e-19 -9.766778973954834e-01
-1.545910732180016e-19 -1.700947287289348e-17  4.107208301051537e-01
-9.766778973954834e-01  4.107208301051537e-01  7.247008754367082e-18

 9.762974521638347e-18 -1.237072081338976e-19 -9.806897229542636e-01
-1.237072081338976e-19  8.277425918643254e-18  4.102893172350111e-01
-9.806897229542636e-01  4.102893172350111e-01  7.412659505333958e-18

 9.860860819353458e-18 -5.522459312127926e-20 -9.842844989606394e-01
-5.522459312127926e-20  3.547969930310428e-17  4.096210506434794e-01
-9.842844989606394e-01  4.096210506434794e-01  7.578344137834887e-18

 9.879867117036697e-18 -1.290883396754593e-19 -9.854004368783799e-01
-1.290883396754593e-19 -1.589743968608016e-18  4.096820948462791e-01
-9.854004368783799e-01  4.096820948462791e-01  7.600225870563920e-18

 9.975612310315454e-18 -1.119338037806606e-19 -9.885818043460565e-01
-1.119338037806606e-19  5.991147531230652e-18  4.074868007267710e-01
-9.885818043460565e-01  4.074868007267710e-01  7.759010735751247e-18

 9.969786489069149e-18 -1.902042165304073e-19 -9.886267987265325e-01
-1.902042165304073e-19 -3.100504080081480e-17  4.086700507875725e-01
-9.886267987265325e-01  4.086700507875725e-01  7.731109853741158e-18

 1.001192215571692e-17 -6.201023445425136e-21 -9.889028061173921e-01
-6.201023445425136e-21  6.644241605664412e-17  4.107783440657419e-01
-9.889028061173921e-01  4.107783440657419e-01  7.677926797848731e-18

 1.005193053870132e-17 -9.338857307257382e-20 -9.912386505209176e-01
-9.338857307257382e-20  2.201643558953971e-17  4.081156290549695e-01
-9.912386505209176e-01  4.081156290549695e-01  7.836587116404750e-18

 1.009019222938678e-17 -1.466709012190451e-19 -9.919047228188380e-01
-1.466709012190451e-19  1.810220105483071e-18  4.079188861840525e-01
-9.919047228188380e-01  4.079188861840525e-01  7.873913342313717e-18

 1.016979643495439e-17 -5.286932995234982e-20 -9.952630380531637e-01
-5.286932995234982e-20  3.884842608988679e-17  4.066194481762763e-01
-9.952630380531637e-01  4.066194481762763e-01  8.060900320588268e-18

 1.020315729451139e-17 -8.501676148602577e-21 -9.952426160803761e-01
-8.501676148602577e-21  6.621756228866381e-17  4.092310675746624e-01
-9.952426160803761e-01  4.092310675746624e-01  8.024309936610513e-18

 1.020894677354190e-17 -5.418191769941026e-21 -9.948488493956379e-01
-5.418191769941026e-21  6.581025273197704e-17  4.083192051192612e-01
-9.948488493956379e-01  4.083192051192612e-01  8.011019634048461e-18

 1.019576842439058e-17 -7.486723403350511e-20 -9.934016386921709e-01
-7.486723403350511e-20  3.552976093493822e-17  4.103482624642378e-01
-9.934016386921709e-01  4.103482624642378e-01  7.878439678346664e-18

 1.028269678747238e-17 -1.965489002792797e-19 -9.960106460905788e-01
-1.965489002792797e-19 -3.652995339941942e-17  4.063254330967666e-01
-9.960106460905788e-01  4.063254330967666e-01  8.126229036100486e-18

 1.010362708014972e-17 -1.275341029136232e-19 -9.874195612275680e-01
-1.275341029136232e-19  5.977695080598984e-18  4.146535555731408e-01
-9.874195612275680e-01  4.146535555731408e-01  7.535505091707701e-18

 1.021673740135132e-17 -1.781030997509748e-19 -9.917994138750829e-01
-1.781030997509748e-19 -2.907025477364008e-17  4.102783812502402e-01
-9.917994138750829e-01  4.102783812502402e-01  7.857540816190308e-18

 1.025648492250254e-17 -6.826709883408890e-20 -9.920660744993839e-01
-6.826709883408890e-20  2.409643340111637e-17  4.098074251852248e-01
-9.920660744993839e-01  4.098074251852248e-01  7.904018432259887e-18

 1.016092474700896e-17 -1.515397269553103e-19 -9.875663819998034e-01
-1.515397269553103e-19  4.095585110753595e-18  4.133625643993638e-01
-9.875663819998034e-01  4.133625643993638e-01  7.648157108120079e-18

 1.009921021229277e-17 -1.303971416282325e-19 -9.830584168095580e-01
-1.303971416282325e-19  1.283255915899090e-17  4.162528654181750e-01
-9.830584168095580e-01  4.162528654181750e-01  7.347218088594709e-18

 9.974147791398098e-18 -1.132989769820191e-19 -9.776873859538044e-01
-1.132989769820191e-19  1.201858908787687e-17  4.120985831084359e-01
-9.776873859538044e-01  4.120985831084359e-01  7.105340886520222e-18

 1.053578009965642e-17 -1.185344316601829e-19 -9.995161363938370e-01
-1.185344316601829e-19 -1.946953903650540e-18  3.864803948045465e-01
-9.995161363938370e-01  3.864803948045465e-01  8.813141779854190e-18

 9.997136677731352e-18 -1.170364189571831e-19 -9.783002496345987e-01
-1.170364189571831e-19  1.667291184936157e-17  4.147632320386285e-01
-9.783002496345987e-01  4.147632320386285e-01  7.080173269681488e-18

 1.022234338086642e-17 -1.288979270730754e-19 -9.879190001654974e-01
-1.288979270730754e-19  1.150663272855401e-17  4.162221155243860e-01
-9.879190001654974e-01  4.162221155243860e-01  7.607987154128488e-18

 1.024650037299164e-17 -1.299480785955087e-19 -9.885223260448203e-01
-1.299480785955087e-19  2.141112273090856e-17  4.146548844951993e-01
-9.885223260448203e-01  4.146548844951993e-01  7.640868331593846e-18

 1.030059848210251e-17 -3.525528730181458e-20 -9.915376626684939e-01
-3.525528730181458e-20  6.219327366607067e-17  4.105603092046097e-01
-9.915376626684939e-01  4.105603092046097e-01  7.768020357968641e-18

 1.033853280051642e-17 -1.328496802515720e-19 -9.933278302148463e-01
-1.328496802515720e-19  1.930192851254716e-17  4.190255907439254e-01
-9.933278302148463e-01  4.190255907439254e-01  7.700803042087788e-18

 1.041793102977398e-17 -1.015365656770803e-19 -9.969487890710974e-01
-1.015365656770803e-19  2.796292549735720e-17  4.152395833848567e-01
-9.969487890710974e-01  4.152395833848567e-01  7.929311268104083e-18

 1.045337397485442e-17 -1.477741636762766e-19 -9.982386304747812e-01
-1.477741636762766e-19  6.645835606035850e-18  4.135074361699096e-01
-9.982386304747812e-01  4.135074361699096e-01  7.932192559562346e-18

 1.035851855550381e-17 -1.933967626072821e-19 -9.949194010733896e-01
-1.933967626072821e-19 -3.299737410791556e-17  4.205053110948653e-01
-9.949194010733896e-01  4.205053110948653e-01  7.622944541351177e-18

 1.056811147717515e-17 -1.370495320232580e-19 -1.003634596414544e+00
-1.370495320232580e-19  3.880842608024452e-18  4.114795617122182e-01
-1.003634596414544e+00  4.114795617122182e-01  8.208774687321584e-18

 1.057558675395609e-17 -1.296230540252668e-19 -1.003525696597134e+00
-1.296230540252668e-19 -1.164378204872998e-19  4.180564995136143e-01
-1.003525696597134e+00  4.180564995136143e-01  8.100666882695133e-18

 1.060962211275152e-17 -1.350601643223765e-19 -1.005358963904676e+00
-1.350601643223765e-19  3.593933087875409e-18  4.167574833541637e-01
-1.005358963904676e+00  4.167574833541637e-01  8.163980828682249e-18

 1.075060069390329e-17 -1.034671757257169e-19 -1.010211337106058e+00
-1.034671757257169e-19  7.350998344986059e-18  4.126644231997912e-01
-1.010211337106058e+00  4.126644231997912e-01  8.439059105637484e-18

 1.070029179406562e-17 -1.396974699379530e-19 -1.009044294390962e+00
-1.396974699379530e-19  2.768674897592055e-17  4.176558758310059e-01
-1.009044294390962e+00  4.176558758310059e-01  8.316101881659553e-18

 1.069627902546976e-17 -1.358361174361630e-19 -1.008341973941749e+00
-1.358361174361630e-19  6.258681125574775e-18  4.158680339249310e-01
-1.008341973941749e+00  4.158680339249310e-01  8.256226897527252e-18

 1.062548457008914e-17 -9.062995147357210e-20 -1.005425705474185e+00
-9.062995147357210e-20  2.707757023418102e-17  4.218795505520308e-01
-1.005425705474185e+00  4.218795505520308e-01  7.958757162381186e-18

 1.088827449962877e-17 -1.305749767182760e-19 -1.015082355635346e+00
-1.305749767182760e-19  2.255342232519940e-17  4.155281552928496e-01
-1.015082355635346e+00  4.155281552928496e-01  8.622613677661817e-18

 1.076669041783341e-17 -1.076271842770596e-19 -1.011135437173026e+00
-1.076271842770596e-19  2.151480281198767e-17  4.193141997387701e-01
-1.011135437173026e+00  4.193141997387701e-01  8.285047003488128e-18

 1.081935017773403e-17 -1.278420989639233e-19 -1.012034063309019e+00
-1.278420989639233e-19 -2.722668942127582e-18  4.174434537354031e-01
-1.012034063309019e+00  4.174434537354031e-01  8.323887852774196e-18

 1.086367194589457e-17 -1.241449910277202e-19 -1.014817697055900e+00
-1.241449910277202e-19  5.444453561658683e-18  4.187377809043817e-01
-1.014817697055900e+00  4.187377809043817e-01  8.496858536240565e-18

 1.108259270265844e-17 -1.195714967285513e-19 -1.023052171565376e+00
-1.195714967285513e-19  4.027512348311525e-18  4.126425456073768e-01
-1.023052171565376e+00  4.126425456073768e-01  9.047430851542968e-18

 1.091223027746546e-17 -1.276697535743023e-19 -1.016259605075110e+00
-1.276697535743023e-19  2.157956858077641e-17  4.170284256981510e-01
-1.016259605075110e+00  4.170284256981510e-01  8.567496030613514e-18

 1.074241877562279e-17 -1.175712807074832e-19 -1.008730760642522e+00
-1.175712807074832e-19 -1.031271758365253e-17  4.228980020673083e-01
-1.008730760642522e+00  4.228980020673083e-01  8.001028592318936e-18

 1.090872280377030e-17 -1.053059955394758e-19 -1.015169962741308e+00
-1.053059955394758e-19  2.312494906282248e-17  4.158684132055052e-01
-1.015169962741308e+00  4.158684132055052e-01  8.519304465780540e-18

 1.110676537114033e-17 -1.040152523043163e-19 -1.022778687752034e+00
-1.040152523043163e-19  2.608397477659607e-17  4.129719986827629e-01
-1.022778687752034e+00  4.129719986827629e-01  9.016180838520396e-18

 1.104653852901430e-17 -8.935362292002218e-20 -1.020288191422772e+00
-8.935362292002218e-20  2.541968126191240e-17  4.153046126345570e-01
-1.020288191422772e+00  4.153046126345570e-01  8.823223554973533e-18

 1.086272985237873e-17 -1.025500778500195e-19 -1.012449201125151e+00
-1.025500778500195e-19  4.473951654281422e-18  4.201921369402392e-01
-1.012449201125151e+00  4.201921369402392e-01  8.270163325472786e-18

 1.106517496623035e-17 -1.005783798686416e-19 -1.019952287333096e+00
-1.005783798686416e-19  8.781221067439535e-18  4.113332782762940e-01
-1.019952287333096e+00  4.113332782762940e-01  8.871498306788877e-18

 1.096499111420808e-17 -8.913779416261252e-20 -1.014700706448749e+00
-8.913779416261252e-20  2.033853549122537e-17  4.178947879312688e-01
-1.014700706448749e+00  4.178947879312688e-01  8.516198325633202e-18

 1.089997995273391e-17 -9.596891799539809e-20 -1.011011726403786e+00
-9.596891799539809e-20  2.410689436290198e-17  4.155698217033176e-01
-1.011011726403786e+00  4.155698217033176e-01  8.318077723026981e-18

 1.101277895592327e-17 -7.953652958179622e-20 -1.015184239832012e+00
-7.953652958179622e-20  1.851238451321335e-17  4.182549403491643e-01
-1.015184239832012e+00  4.182549403491643e-01  8.556160988420500e-18

 1.093197282746798e-17 -8.146408963125490e-20 -1.010771437200556e+00
-8.146408963125490e-20  3.260758568435130e-18  4.155379364839421e-01
-1.010771437200556e+00  4.155379364839421e-01  8.317867465828543e-18

 1.090658570892092e-17 -9.572869024657867e-20 -1.009525642424290e+00
-9.572869024657867e-20  9.657137878542711e-18  4.208174852171924e-01
-1.009525642424290e+00  4.208174852171924e-01  8.174777772548965e-18

 1.094062553175658e-17 -8.452155191929914e-20 -1.010451814593565e+00
-8.452155191929914e-20 -2.504988766711347e-19  4.190160560159844e-01
-1.010451814593565e+00  4.190160560159844e-01  8.267544489925412e-18

 1.099866518927533e-17 -7.576504685389740e-20 -1.012258953844700e+00
-7.576504685389740e-20  1.034985211394052e-19  4.178895059776102e-01
-1.012258953844700e+00  4.178895059776102e-01  8.400865011321553e-18

 1.097562726280578e-17 -6.352871022086837e-20 -1.010963969043218e+00
-6.352871022086837e-20  2.011514413120855e-17  4.169983231419616e-01
-1.010963969043218e+00  4.169983231419616e-01  8.307455146842019e-18

 1.089589626768434e-17 -5.700284659691879e-20 -1.007870694896843e+00
-5.700284659691879e-20  1.415461365386306e-17  4.197750647817495e-01
-1.007870694896843e+00  4.197750647817495e-01  8.025869354586781e-18

 1.098114177826647e-17 -6.250124047492578e-20 -1.011565494301628e+00
-6.250124047492578e-20  1.019739105203452e-17  4.203479076534662e-01
-1.011565494301628e+00  4.203479076534662e-01  8.156784841521872e-18

 1.099756021158655e-17 -7.024291370069406e-20 -1.013531457523512e+00
-7.024291370069406e-20  2.158721062551589e-18  4.197415328716879e-01
-1.013531457523512e+00  4.197415328716879e-01  8.218737918142928e-18

 1.106690813084151e-17 -7.541860542463744e-20 -1.016890941720188e+00
-7.541860542463744e-20  2.808923472689740e-17  4.195952780962032e-01
-1.016890941720188e+00  4.195952780962032e-01  8.361574579967471e-18

 1.119590488963585e-17 -6.868192156602747e-20 -1.023433018952022e+00
-6.868192156602747e-20  1.155435302751655e-19  4.155900006294926e-01
-1.023433018952022e+00  4.155900006294926e-01  8.727631554183453e-18

 1.108821622220840e-17 -8.559466265035150e-20 -1.019977922537545e+00
-8.559466265035150e-20  1.299030610501914e-17  4.227061147557265e-01
-1.019977922537545e+00  4.227061147557265e-01  8.340768866329352e-18

 1.107892077515894e-17 -1.182021297406768e-19 -1.019881568843606e+00
-1.182021297406768e-19  1.298869172576826e-17  4.220852896273934e-01
-1.019881568843606e+00  4.220852896273934e-01  8.274442653893745e-18

 1.121779403869148e-17 -1.467358953111213e-19 -1.025676491141792e+00
-1.467358953111213e-19  1.806495484233969e-17  4.219916421372332e-01
-1.025676491141792e+00  4.219916421372332e-01  8.669118183279606e-18

 1.128873116354201e-17 -1.502770296875883e-19 -1.026533029266510e+00
-1.502770296875883e-19  1.357154572846519e-17  4.134569876120769e-01
-1.026533029266510e+00  4.134569876120769e-01  8.930647905973255e-18

 1.136449854076446e-17 -1.758004257803764e-19 -1.027538008835645e+00
-1.758004257803764e-19  2.997543198833026e-17  4.157695478747690e-01
-1.027538008835645e+00  4.157695478747690e-01  9.137754909270218e-18

 1.156234463330811e-17 -1.646633714732916e-19 -1.032849300145658e+00
-1.646633714732916e-19  3.056362082268880e-18  4.147667076647742e-01
-1.032849300145658e+00  4.147667076647742e-01  9.721446323999962e-18

 1.155500598319193e-17 -1.281209845558348e-19 -1.028881265818311e+00
-1.281209845558348e-19 -1.651285955046687e-17  4.255038446669520e-01
-1.028881265818311e+00  4.255038446669520e-01  9.748428738233519e-18

 1.065814777847172e-17 -7.129339159604985e-20 -9.821252983503744e-01
-7.129339159604985e-20  2.169237785400499e-17  4.359732004461494e-01
-9.821252983503744e-01  4.359732004461494e-01  7.631754149489686e-18

 7.653276798228727e-18  1.354200327934482e-20 -8.465766615131139e-01
 1.354200327934482e-20  1.046687901061491e-17  4.603492409631560e-01
-8.465766615131139e-01  4.603492409631560e-01 -2.711238753795625e-19

 1.136784635224061e-17  1.420617995740776e-18 -1.023961652850451e+00
 1.420617995740776e-18  3.060266058816064e-17  1.476712745474115e-01
-1.023961652850451e+00  1.476712745474115e-01  9.295359170251505e-18

 9.840907467832499e-18  2.659592114094701e-19 -9.432264406950202e-01
 2.659592114094701e-19  7.406513029912069e-18  3.691050629627042e-01
-9.432264406950202e-01  3.691050629627042e-01  5.601388931941174e-18

 4.304732194233634e-18 -2.289324279148406e-18 -6.762607601893408e-01
-2.289324279148406e-18  1.499746317729906e-18  7.733415243275309e-01
-6.762607601893408e-01  7.733415243275309e-01 -8.145827889523946e-18

 1.269460719305862e-17 -4.264101522008766e-19 -1.065894030385965e+00
-4.264101522008766e-19  7.242999193008383e-18  4.004526912737186e-01
-1.065894030385965e+00  4.004526912737186e-01  1.325777547466651e-17

 1.149541615106113e-17 -1.354188907478480e-19 -1.022106787794884e+00
-1.354188907478480e-19  2.201633631991926e-17  3.967200380395467e-01
-1.022106787794884e+00  3.967200380395467e-01  9.701511269004587e-18

 1.089930885028095e-17 -1.462360859024601e-19 -9.935326704602552e-01
-1.462360859024601e-19  1.641962203528346e-17  4.014227295196366e-01
-9.935326704602552e-01  4.014227295196366e-01  8.184766536716677e-18

 1.098014014093487e-17 -1.417630616085587e-19 -9.933058542851720e-01
-1.417630616085587e-19  2.348290134039625e-17  4.100482745070625e-01
-9.933058542851720e-01  4.100482745070625e-01  8.405087560580130e-18

 1.072023725041597e-17 -1.300171893392939e-19 -9.784894716709215e-01
-1.300171893392939e-19  9.480957308995174e-18  4.057473358187338e-01
-9.784894716709215e-01  4.057473358187338e-01  7.802872728731599e-18

 1.088330949465797e-17 -9.615238148484035e-20 -9.830811472000304e-01
-9.615238148484035e-20  3.259684010101600e-17  3.950586917541454e-01
-9.830811472000304e-01  3.950586917541454e-01  8.349100651225286e-18

 1.066788612113566e-17 -1.311063310923555e-19 -9.741976055991391e-01
-1.311063310923555e-19 -2.119415805476319e-18  4.041626135391618e-01
-9.741976055991391e-01  4.041626135391618e-01  7.679914203212835e-18

 1.068809618113593e-17 -9.545925566541814e-20 -9.737231587810625e-01
-9.545925566541814e-20  4.930062257612902e-18  4.055519512120744e-01
-9.737231587810625e-01  4.055519512120744e-01  7.640774122975180e-18

 1.077134913815729e-17 -9.537286511421327e-20 -9.776133158264501e-01
-9.537286511421327e-20 -4.666900616817534e-18  4.021629797818737e-01
-9.776133158264501e-01  4.021629797818737e-01  7.920469814625529e-18

 1.080453878039874e-17 -8.986752895317552e-20 -9.798360260471740e-01
-8.986752895317552e-20 -1.339146440222610e-17  4.034888452166261e-01
-9.798360260471740e-01  4.034888452166261e-01  7.929812667048061e-18

 1.091759551343153e-17 -4.196664073447162e-20 -9.859003280602466e-01
-4.196664073447162e-20  2.493394967294081e-17  4.003802088298877e-01
-9.859003280602466e-01  4.003802088298877e-01  8.191888004979267e-18

 1.100593268175072e-17  3.132390996451512e-22 -9.920074767832787e-01
 3.132390996451512e-22  5.026311929322449e-17  4.016132978752965e-01
-9.920074767832787e-01  4.016132978752965e-01  8.319214578203160e-18

 1.103791581549904e-17  6.821638146181036e-21 -9.960578093727074e-01
 6.821638146181036e-21  5.157057587826921e-17  4.033246292598012e-01
-9.960578093727074e-01  4.033246292598012e-01  8.324913565174460e-18

 1.108057922280064e-17  2.537957072018977e-20 -1.000003333064651e+00
 2.537957072018977e-20  5.914050678112659e-17  4.044645820698032e-01
-1.000003333064651e+00  4.044645820698032e-01  8.381973255127453e-18

 1.113220747053897e-17 -1.326645275704667e-20 -1.002120317888935e+00
-1.326645275704667e-20  3.741724519025633e-17  4.049788595308100e-01
-1.002120317888935e+00  4.049788595308100e-01  8.427200958765386e-18

 1.119554632004609e-17  2.352328525997269e-20 -1.020794250809344e+00
 2.352328525997269e-20  1.328208202733533e-17  4.333600333548701e-01
-1.020794250809344e+00  4.333600333548701e-01  8.499727067075125e-18

 1.115079548259060e-17  2.071468885948610e-20 -1.018093567642623e+00
 2.071468885948610e-20  1.366334453330007e-17  4.310981885585004e-01
-1.018093567642623e+00  4.310981885585004e-01  8.447079958165011e-18

 1.127351858580716e-17  1.682951426202603e-20 -1.024936764157089e+00
 1.682951426202603e-20  1.362775296650856e-17  4.291466848998873e-01
-1.024936764157089e+00  4.291466848998873e-01  8.760449666711588e-18

 1.120707440835617e-17  1.705469190809624e-20 -1.022377288914447e+00
 1.705469190809624e-20  1.235367233554913e-17  4.398401446151453e-01
-1.022377288914447e+00  4.398401446151453e-01  8.399161961301693e-18

 1.131536548846375e-17  5.198458461298144e-21 -1.027824396628189e+00
 5.198458461298144e-21  1.431938044134929e-17  4.305727820015327e-01
-1.027824396628189e+00  4.305727820015327e-01  8.843569831781164e-18

 1.123260080847592e-17  2.023323864524905e-21 -1.024977087600470e+00
 2.023323864524905e-21  1.377818782525202e-17  4.339701304243581e-01
-1.024977087600470e+00  4.339701304243581e-01  8.586288290846765e-18

 1.132527092282204e-17  9.758789129835195e-21 -1.028993760322357e+00
 9.758789129835195e-21  1.327314992601324e-17  4.317137353655390e-01
-1.028993760322357e+00  4.317137353655390e-01  8.796521516232769e-18

 1.125445704891663e-17  7.661748009384855e-21 -1.026943907969052e+00
 7.661748009384855e-21  1.351006149562206e-17  4.357896140872299e-01
-1.026943907969052e+00  4.357896140872299e-01  8.638048986987604e-18

 1.122840725898102e-17  8.280786020416840e-21 -1.026277469274280e+00
 8.280786020416840e-21  1.360676003395225e-17  4.376344787105901e-01
-1.026277469274280e+00  4.376344787105901e-01  8.551992869025449e-18

 1.120684383543054e-17  6.533156773163153e-21 -1.025413595986921e+00
 6.533156773163153e-21  1.285685206591985e-17  4.357296487192333e-01
-1.025413595986921e+00  4.357296487192333e-01  8.513071817059986e-18

 1.120428201051325e-17 -1.683024587316032e-22 -1.025888595336788e+00
-1.683024587316032e-22  1.367853847083479e-17  4.377264537110702e-01
-1.025888595336788e+00  4.377264537110702e-01  8.495127736442473e-18

 1.119404365722870e-17 -1.049827771337169e-21 -1.025781745733406e+00
-1.049827771337169e-21  1.394851396372442e-17  4.375646216660647e-01
-1.025781745733406e+00  4.375646216660647e-01  8.460834115884181e-18

 1.117076822128422e-17  2.610106268415748e-21 -1.025431080522111e+00
 2.610106268415748e-21  1.330824668159010e-17  4.382949275873185e-01
-1.025431080522111e+00  4.382949275873185e-01  8.402089271130157e-18

 1.114728515465037e-17  1.063132824437269e-20 -1.024319059509994e+00
 1.063132824437269e-20  1.306268581964403e-17  4.374673621378969e-01
-1.024319059509994e+00  4.374673621378969e-01  8.346072631922868e-18

 1.114125037115488e-17  1.424908330901320e-20 -1.023808340364897e+00
 1.424908330901320e-20  1.294112883696786e-17  4.368140602598312e-01
-1.023808340364897e+00  4.368140602598312e-01  8.337651388481308e-18

 1.111001670008517e-17  1.763583288679445e-20 -1.021947110989546e+00
 1.763583288679445e-20  1.316459158516641e-17  4.379482027385346e-01
-1.021947110989546e+00  4.379482027385346e-01  8.258129124356604e-18

 1.108570643483884e-17  3.009806091538074e-20 -1.020056368239799e+00
 3.009806091538074e-20  1.332098407251689e-17  4.377983313570903e-01
-1.020056368239799e+00  4.377983313570903e-01  8.192981803725264e-18

 1.110157181103816e-17  2.628316078668168e-20 -1.021035568685616e+00
 2.628316078668168e-20  1.334618847002437e-17  4.357215805153787e-01
-1.021035568685616e+00  4.357215805153787e-01  8.263309348606626e-18

 1.108078706583299e-17  2.672727467708522e-20 -1.019540561419087e+00
 2.672727467708522e-20  1.356300553132424e-17  4.350646555897822e-01
-1.019540561419087e+00  4.350646555897822e-01  8.225569724795403e-18

 1.104381079524884e-17  3.295048262604794e-20 -1.017214689987809e+00
 3.295048262604794e-20  1.322007686422804e-17  4.359073029735009e-01
-1.017214689987809e+00  4.359073029735009e-01  8.146041300763127e-18

 1.105049216487856e-17  3.450055554776773e-20 -1.016800040187980e+00
 3.450055554776773e-20  1.329979767489160e-17  4.343757090733475e-01
-1.016800040187980e+00  4.343757090733475e-01  8.187023231691710e-18

 1.100458714458222e-17  3.724989502974296e-20 -1.014902653872241e+00
 3.724989502974296e-20  1.303979572719971e-17  4.380333253497109e-01
-1.014902653872241e+00  4.380333253497109e-01  8.026042225139309e-18

 1.095127738493490e-17  4.006178148720745e-20 -1.012405353625262e+00
 4.006178148720745e-20  1.338103707270556e-17  4.350445973858486e-01
-1.012405353625262e+00  4.350445973858486e-01  7.962158264279421e-18

 1.089714103405451e-17  4.216735531928753e-20 -1.010187135147742e+00
 4.216735531928753e-20  1.315602142998366e-17  4.360800496596552e-01
-1.010187135147742e+00  4.360800496596552e-01  7.824462649462890e-18

 1.118762140720003e-17  4.736197176969395e-20 -1.022021371498487e+00
 4.736197176969395e-20  1.336504289447743e-17  4.254054901962229e-01
-1.022021371498487e+00  4.254054901962229e-01  8.696111419176006e-18

 1.108748150746237e-17  4.561143324716361e-20 -1.019023491591345e+00
 4.561143324716361e-20  1.355296991450989e-17  4.321358056013418e-01
-1.019023491591345e+00  4.321358056013418e-01  8.372626786385615e-18

 1.108415555030000e-17  4.603828432008936e-20 -1.019216869995930e+00
 4.603828432008936e-20  1.335637299935345e-17  4.325999870752804e-01
-1.019216869995930e+00  4.325999870752804e-01  8.361781843430907e-18

 1.104837971450507e-17  4.990460382080870e-20 -1.017574246464327e+00
 4.990460382080870e-20  1.264965706103771e-17  4.368321309466754e-01
-1.017574246464327e+00  4.368321309466754e-01  8.174855146779638e-18

 1.091579529495871e-17  5.354418870584297e-20 -1.012538439965585e+00
 5.354418870584297e-20  1.299752349804875e-17  4.314701561087743e-01
-1.012538439965585e+00  4.314701561087743e-01  7.931110176790809e-18

 1.060171740185246e-17  6.093206264439951e-20 -1.001080328673987e+00
 6.093206264439951e-20  1.267728109347208e-17  4.510158327378310e-01
-1.001080328673987e+00  4.510158327378310e-01  6.899124833630102e-18

 1.085588192635702e-17  6.093622347527233e-20 -1.011831174555458e+00
 6.093622347527233e-20  1.259658990409709e-17  4.421011069395729e-01
-1.011831174555458e+00  4.421011069395729e-01  7.640016609979880e-18

 1.117584274028403e-17  6.573259338386486e-20 -1.025782509180007e+00
 6.573259338386486e-20  1.360671673565465e-17  4.310662820521003e-01
-1.025782509180007e+00  4.310662820521003e-01  8.632495560902759e-18

 1.109967268243590e-17  6.874624947758233e-20 -1.023397015997079e+00
 6.874624947758233e-20  1.301788129573204e-17  4.317204563412215e-01
-1.023397015997079e+00  4.317204563412215e-01  8.415162989181151e-18

 1.109234302889683e-17  7.158138676841159e-20 -1.023393533896159e+00
 7.158138676841159e-20  1.323534181312310e-17  4.279959455020767e-01
-1.023393533896159e+00  4.279959455020767e-01  8.420524129753794e-18

 1.121240824423486e-17  7.729210853564803e-20 -1.029240847874112e+00
 7.729210853564803e-20  1.343337451506460e-17  4.340716796515995e-01
-1.029240847874112e+00  4.340716796515995e-01  8.700015820313324e-18

 1.115551368688892e-17  7.583092373159004e-20 -1.026118406811095e+00
 7.583092373159004e-20  1.317349944464228e-17  4.324909977730361e-01
-1.026118406811095e+00  4.324909977730361e-01  8.481155968990302e-18

 1.093508790635456e-17  8.197676470062825e-20 -1.017570557235990e+00
 8.197676470062825e-20  1.308179426750883e-17  4.377935746140961e-01
-1.017570557235990e+00  4.377935746140961e-01  7.908085853501624e-18

 1.130587426098524e-17  8.431385669499482e-20 -1.033308083839309e+00
 8.431385669499482e-20  1.335132887080899e-17  4.262479368570953e-01
-1.033308083839309e+00  4.262479368570953e-01  9.047915627538801e-18

 1.104056912075139e-17  8.524169272455931e-20 -1.022498840522237e+00
 8.524169272455931e-20  1.326133307428170e-17  4.352018297505704e-01
-1.022498840522237e+00  4.352018297505704e-01  8.277078279969905e-18

 1.114958685240309e-17  8.668933963160043e-20 -1.026668224128065e+00
 8.668933963160043e-20  1.357332554431440e-17  4.255751453883129e-01
-1.026668224128065e+00  4.255751453883129e-01  8.682164089479635e-18

 1.166784539714277e-17 -1.070830219268988e-19 -1.021509755238522e+00
-1.070830219268988e-19  1.303914992923807e-17  4.329003946044712e-01
-1.021509755238522e+00  4.329003946044712e-01  8.334845540619707e-18

 1.166330714303379e-17 -1.084969323178789e-19 -1.020982240643401e+00
-1.084969323178789e-19  1.312430332015190e-17  4.297022655301422e-01
-1.020982240643401e+00  4.297022655301422e-01  8.357772945496689e-18

-3.459789309685301e-18  4.563511379732379e-18 -1.022487598232787e+00
 4.563511379732379e-18  1.168146602917542e-17  4.311165922579325e-01
-1.022487598232787e+00  4.311165922579325e-01  8.431253388369099e-18

 4.102378394359865e-17 -9.188988974117389e-18 -1.024877038293238e+00
-9.188988974117389e-18  1.623824361604096e-17  4.279517095267393e-01
-1.024877038293238e+00  4.279517095267393e-01  8.576234471275799e-18

 1.418962929534900e-17 -8.954642137259832e-19 -1.023649771982741e+00
-8.954642137259832e-19  1.372854929130426e-17  4.305971405714124e-01
-1.023649771982741e+00  4.305971405714124e-01  8.437764402211712e-18

 1.099407944717654e-17  1.194627715516617e-19 -1.027483540972081e+00
 1.194627715516617e-19  1.289889612244823e-17  4.276303752592806e-01
-1.027483540972081e+00  4.276303752592806e-01  8.691052949619925e-18

 1.171745661289752e-17 -4.891344377690309e-20 -1.035100592520697e+00
-4.891344377690309e-20  1.373494014501010e-17  4.235227291911995e-01
-1.035100592520697e+00  4.235227291911995e-01  9.174251500663442e-18

 1.047774348245974e-17  2.938771832380098e-19 -1.029717746296252e+00
 2.938771832380098e-19  1.352064045033160e-17  4.304623287101023e-01
-1.029717746296252e+00  4.304623287101023e-01  8.794530389071825e-18

 1.069306286236641e-17  1.803407402094005e-19 -1.023697804850440e+00
 1.803407402094005e-19  1.297021744880269e-17  4.409444763587851e-01
-1.023697804850440e+00  4.409444763587851e-01  8.229552780237722e-18

 1.101393407814077e-17  1.172303128931630e-19 -1.029384481488805e+00
 1.172303128931630e-19  1.334131053223395e-17  4.350010593714996e-01
-1.029384481488805e+00  4.350010593714996e-01  8.661188052495576e-18

 1.116371605898558e-17  1.062119724414122e-19 -1.034857641879425e+00
 1.062119724414122e-19  1.327561304388493e-17  4.254351019029576e-01
-1.034857641879425e+00  4.254351019029576e-01  9.144137191792865e-18

 1.103140711379238e-17  8.345508423158803e-20 -1.026859555200715e+00
 8.345508423158803e-20  1.316780797116311e-17  4.318017476541594e-01
-1.026859555200715e+00  4.318017476541594e-01  8.581367195314935e-18

 1.103094254373407e-17  7.780843470920081e-20 -1.026168407029488e+00
 7.780843470920081e-20  1.331490360694696e-17  4.284057771317122e-01
-1.026168407029488e+00  4.284057771317122e-01  8.630329827560041e-18

 1.097572757771085e-17  7.258952536643942e-20 -1.024082655246970e+00
 7.258952536643942e-20  1.326682174125656e-17  4.301274466568212e-01
-1.024082655246970e+00  4.301274466568212e-01  8.496404672906172e-18

 1.097177822094091e-17  6.633427885931517e-20 -1.024997043508336e+00
 6.633427885931517e-20  1.286642860305908e-17  4.307278227702508e-01
-1.024997043508336e+00  4.307278227702508e-01  8.523780767048855e-18

 1.100527363346279e-17  6.048415318660379e-20 -1.027914512985592e+00
 6.048415318660379e-20  1.325048171359085e-17  4.306458743931324e-01
-1.027914512985592e+00  4.306458743931324e-01  8.626375923105594e-18

 1.107192082107033e-17  5.789111272561681e-20 -1.031713949606973e+00
 5.789111272561681e-20  1.354311068397861e-17  4.277271863961600e-01
-1.031713949606973e+00  4.277271863961600e-01  8.859719427042692e-18

 1.119004906864088e-17  5.510540971929032e-20 -1.037458574814973e+00
 5.510540971929032e-20  1.279392233698204e-17  4.302049015325303e-01
-1.037458574814973e+00  4.302049015325303e-01  9.101499996516029e-18

 1.117682978258001e-17  5.578850667078734e-20 -1.038339512077955e+00
 5.578850667078734e-20  1.354717624798660e-17  4.352642624014179e-01
-1.038339512077955e+00  4.352642624014179e-01  9.092404794287019e-18

 1.107533378172700e-17  4.979188604319651e-20 -1.034066159253464e+00
 4.979188604319651e-20  1.310519079583885e-17  4.397240828268444e-01
-1.034066159253464e+00  4.397240828268444e-01  8.799722228545174e-18

 1.103223860264849e-17  4.827200831584115e-20 -1.032918284375870e+00
 4.827200831584115e-20  1.301336428414667e-17  4.410909195133774e-01
-1.032918284375870e+00  4.410909195133774e-01  8.668708650027384e-18

 1.118450099250173e-17  4.749133007417379e-20 -1.038697208298814e+00
 4.749133007417379e-20  1.315328343819394e-17  4.287489943098297e-01
-1.038697208298814e+00  4.287489943098297e-01  9.229474267829658e-18

 1.116537537805564e-17  5.093817971826385e-20 -1.038201292534445e+00
 5.093817971826385e-20  1.372201805377429e-17  4.255573661038603e-01
-1.038201292534445e+00  4.255573661038603e-01  9.203231009018151e-18

 1.097066607774604e-17  4.508779709485502e-20 -1.030473064788716e+00
 4.508779709485502e-20  1.351035470139481e-17  4.280665145866098e-01
-1.030473064788716e+00  4.280665145866098e-01  8.743374363494540e-18

 1.097490944304791e-17  4.866904471958527e-20 -1.030374526759029e+00
 4.866904471958527e-20  1.308574836317916e-17  4.296046590665143e-01
-1.030374526759029e+00  4.296046590665143e-01  8.772294108191645e-18

 1.085434759537013e-17  3.918883773830242e-20 -1.026083279821136e+00
 3.918883773830242e-20  1.322097996651261e-17  4.364120555370191e-01
-1.026083279821136e+00  4.364120555370191e-01  8.434527529833213e-18

 1.089675136984805e-17  3.577975359946610e-20 -1.027729562821579e+00
 3.577975359946610e-20  1.313276454575344e-17  4.331283605353883e-01
-1.027729562821579e+00  4.331283605353883e-01  8.611102368613769e-18

 1.080295456619964e-17  3.422589438775605e-20 -1.024425334036367e+00
 3.422589438775605e-20  1.280879843116538e-17  4.341723497876283e-01
-1.024425334036367e+00  4.341723497876283e-01  8.439744703458725e-18

 1.071081128761509e-17  2.922964556158691e-20 -1.020717550985073e+00
 2.922964556158691e-20  1.277842205085679e-17  4.353154397340814e-01
-1.020717550985073e+00  4.353154397340814e-01  8.225032882110774e-18

 1.062691391194242e-17  2.908527325419660e-20 -1.018706774592667e+00
 2.908527325419660e-20  1.254546701093712e-17  4.350495738397964e-01
-1.018706774592667e+00  4.350495738397964e-01  8.074222562368479e-18

 1.062545957969599e-17  2.845353403605130e-20 -1.020054268963492e+00
 2.845353403605130e-20  1.249945767914199e-17  4.356571315425207e-01
-1.020054268963492e+00  4.356571315425207e-01  8.104385237179046e-18

 1.066423943786357e-17  3.182614007006335e-20 -1.023077293727372e+00
 3.182614007006335e-20  1.246065764935202e-17  4.378524925814641e-01
-1.023077293727372e+00  4.378524925814641e-01  8.184509532222773e-18

 1.068240708761594e-17  4.168831307745934e-20 -1.025571113725033e+00
 4.168831307745934e-20  1.256572087669407e-17  4.321243764044337e-01
-1.025571113725033e+00  4.321243764044337e-01  8.313561599153645e-18

 1.072527644538239e-17  5.194695757227551e-20 -1.028173107241956e+00
 5.194695757227551e-20  1.236340542751584e-17  4.323933827843957e-01
-1.028173107241956e+00  4.323933827843957e-01  8.437251609933450e-18

 1.071763857229521e-17  6.278650749504339e-20 -1.028233669189951e+00
 6.278650749504339e-20  1.220769493848548e-17  4.357085323599234e-01
-1.028233669189951e+00  4.357085323599234e-01  8.436146349169621e-18

 1.070839941994060e-17  7.084679816912898e-20 -1.027146088608483e+00
 7.084679816912898e-20  1.254587634493181e-17  4.297567059169169e-01
-1.027146088608483e+00  4.297567059169169e-01  8.482395136709562e-18

 1.062044067087144e-17  7.979581630083729e-20 -1.023469117392886e+00
 7.979581630083729e-20  1.260426784855144e-17  4.293431103749229e-01
-1.023469117392886e+00  4.293431103749229e-01  8.354620979318115e-18

 1.062962820890147e-17  7.876935387274527e-20 -1.023675187789855e+00
 7.876935387274527e-20  1.296554015118548e-17  4.268118280918624e-01
-1.023675187789855e+00  4.268118280918624e-01  8.452760955692066e-18

 1.061428691703709e-17  8.367195705618856e-20 -1.022860026219650e+00
 8.367195705618856e-20  1.244254906363400e-17  4.280234483041808e-01
-1.022860026219650e+00  4.280234483041808e-01  8.510249209056140e-18

 1.056586855144214e-17  7.819020784340234e-20 -1.021108742153631e+00
 7.819020784340234e-20  1.270554988330045e-17  4.209448923268533e-01
-1.021108742153631e+00  4.209448923268533e-01  8.537754107278942e-18

 1.051957908480816e-17  7.613862708560070e-20 -1.019781279103539e+00
 7.613862708560070e-20  1.290047576416236e-17  4.247330517977309e-01
-1.019781279103539e+00  4.247330517977309e-01  8.451780257598597e-18

 1.049785325038552e-17  7.164219079360519e-20 -1.019881804876321e+00
 7.164219079360519e-20  1.228257252936351e-17  4.304409571537542e-01
-1.019881804876321e+00  4.304409571537542e-01  8.412936445744524e-18

 1.056081621429389e-17  6.433777100426938e-20 -1.022897506889091e+00
 6.433777100426938e-20  1.270111195569574e-17  4.217981764718925e-01
-1.022897506889091e+00  4.217981764718925e-01  8.706023762330828e-18

 1.041852495633816e-17  6.128990625132952e-20 -1.017697214299129e+00
 6.128990625132952e-20  1.275690259202308e-17  4.268288483142305e-01
-1.017697214299129e+00  4.268288483142305e-01  8.372819957106282e-18

 1.037549146862522e-17  5.486227015966380e-20 -1.016370524844208e+00
 5.486227015966380e-20  1.272617880569244e-17  4.246937279209535e-01
-1.016370524844208e+00  4.246937279209535e-01  8.323168830440772e-18

 1.034226871245095e-17  5.030479585258703e-20 -1.017058646328344e+00
 5.030479585258703e-20  1.230742138161725e-17  4.257957588899159e-01
-1.017058646328344e+00  4.257957588899159e-01  8.347649004795969e-18

 1.034002286377029e-17  4.399489210780174e-20 -1.018714612899835e+00
 4.399489210780174e-20  1.237059621250388e-17  4.250942091170748e-01
-1.018714612899835e+00  4.250942091170748e-01  8.439491150419728e-18

 1.028753778933150e-17  4.548110478850652e-20 -1.017721980536409e+00
 4.548110478850652e-20  1.224674539876873e-17  4.265085548305834e-01
-1.017721980536409e+00  4.265085548305834e-01  8.346329577975115e-18

 1.024544737126415e-17  4.177236534814990e-20 -1.016856327077379e+00
 4.177236534814990e-20  1.205812730014290e-17  4.260035180114429e-01
-1.016856327077379e+00  4.260035180114429e-01  8.303697400804527e-18

 1.026811423599467e-17  4.088541073902934e-20 -1.018272973487092e+00
 4.088541073902934e-20  1.198849584696047e-17  4.230396054472509e-01
-1.018272973487092e+00  4.230396054472509e-01  8.413657249024281e-18

 1.021280378843844e-17  4.037124486084600e-20 -1.016139732721855e+00
 4.037124486084600e-20  1.237487795936020e-17  4.245425951585218e-01
-1.016139732721855e+00  4.245425951585218e-01  8.306765891519809e-18

 1.018266576191648e-17  4.024852155628076e-20 -1.016063040513743e+00
 4.024852155628076e-20  1.204388046879566e-17  4.271520279512313e-01
-1.016063040513743e+00  4.271520279512313e-01  8.250119154378403e-18

 1.016364250521283e-17  3.991098779548775e-20 -1.016184925098308e+00
 3.991098779548775e-20  1.209945332160456e-17  4.269320758731676e-01
-1.016184925098308e+00  4.269320758731676e-01  8.256239499993106e-18

 1.017156046859147e-17  3.676690875584415e-20 -1.017337276927802e+00
 3.676690875584415e-20  1.247537273327542e-17  4.240777653466564e-01
-1.017337276927802e+00  4.240777653466564e-01  8.361039363417434e-18

 1.010375376895486e-17  3.452778677696021e-20 -1.015702043210611e+00
 3.452778677696021e-20  1.213892033096465e-17  4.253975728884908e-01
-1.015702043210611e+00  4.253975728884908e-01  8.267981883733138e-18

 1.009639891930492e-17  3.070832812650737e-20 -1.016409205343443e+00
 3.070832812650737e-20  1.203516496524641e-17  4.261417701719524e-01
-1.016409205343443e+00  4.261417701719524e-01  8.303670703531540e-18

 9.987568543386636e-18  2.867157175084014e-20 -1.013994547279454e+00
 2.867157175084014e-20  1.168641339537948e-17  4.262854364650346e-01
-1.013994547279454e+00  4.262854364650346e-01  8.165290555674100e-18

 9.934989732774177e-18  2.858232189599727e-20 -1.013712569599621e+00
 2.858232189599727e-20  1.159067661783566e-17  4.222397199586317e-01
-1.013712569599621e+00  4.222397199586317e-01  8.177565491687462e-18

 9.911041058235785e-18  2.645459148042556e-20 -1.013893978264221e+00
 2.645459148042556e-20  1.189957134808027e-17  4.258995003081028e-01
-1.013893978264221e+00  4.258995003081028e-01  8.121896711756011e-18

 9.891072381700402e-18  2.504805443895938e-20 -1.014963970732676e+00
 2.504805443895938e-20  1.181755319466011e-17  4.262331221089874e-01
-1.014963970732676e+00  4.262331221089874e-01  8.214263534421015e-18

 9.766295262750514e-18  2.571418650748733e-20 -1.012307697768914e+00
 2.571418650748733e-20  1.165849464865151e-17  4.276807905384250e-01
-1.012307697768914e+00  4.276807905384250e-01  8.007806070546144e-18

 9.761698236639060e-18  2.507526716121255e-20 -1.013318575820175e+00
 2.507526716121255e-20  1.197903490099905e-17  4.239432446573843e-01
-1.013318575820175e+00  4.239432446573843e-01  8.108342504589984e-18

 9.758955111569007e-18  2.038066093047416e-20 -1.014509993815435e+00
 2.038066093047416e-20  1.150737002571059e-17  4.233765117359548e-01
-1.014509993815435e+00  4.233765117359548e-01  8.160232627762460e-18

 9.675810763161269e-18  2.172117217389670e-20 -1.012935389794046e+00
 2.172117217389670e-20  1.124518758737885e-17  4.273994961255692e-01
-1.012935389794046e+00  4.273994961255692e-01  8.032186602989371e-18

 9.681677044608273e-18  1.948193188365178e-20 -1.014811921927311e+00
 1.948193188365178e-20  1.131742899102583e-17  4.257356859627522e-01
-1.014811921927311e+00  4.257356859627522e-01  8.134465140756597e-18

 9.608228837024820e-18  1.914238065824892e-20 -1.015200164173266e+00
 1.914238065824892e-20  1.127180607796337e-17  4.255867610411639e-01
-1.015200164173266e+00  4.255867610411639e-01  8.128486385414619e-18

 9.510509008362148e-18  1.837182167280183e-20 -1.015158443505819e+00
 1.837182167280183e-20  1.128595674886107e-17  4.255387491498649e-01
-1.015158443505819e+00  4.255387491498649e-01  8.100561236261470e-18

 9.402751581120154e-18  1.635637668991439e-20 -1.014866949490225e+00
 1.635637668991439e-20  1.115040792177500e-17  4.255699824121024e-01
-1.014866949490225e+00  4.255699824121024e-01  8.065890685497846e-18

 9.327527495289937e-18  1.453925929224824e-20 -1.015103666875037e+00
 1.453925929224824e-20  1.085387627679116e-17  4.256448190875465e-01
-1.015103666875037e+00  4.256448190875465e-01  8.046412573787115e-18

 9.278445098837777e-18  1.258143908598593e-20 -1.014994729606182e+00
 1.258143908598593e-20  1.082004240455869e-17  4.255848910585853e-01
-1.014994729606182e+00  4.255848910585853e-01  8.032435655113278e-18

 9.205896906862223e-18  1.333392041945142e-20 -1.014448241627765e+00
 1.333392041945142e-20  1.085663496300578e-17  4.256794509474751e-01
-1.014448241627765e+00  4.256794509474751e-01  8.006380151403941e-18

 9.156345596056484e-18  1.073156818942928e-20 -1.014678338288876e+00
 1.073156818942928e-20  1.082241963005274e-17  4.253255927271765e-01
-1.014678338288876e+00  4.253255927271765e-01  8.002016517315602e-18

 9.080624720896062e-18  1.219499013109659e-20 -1.015197852993783e+00
 1.219499013109659e-20  1.072725744309546e-17  4.259330234427419e-01
-1.015197852993783e+00  4.259330234427419e-01  7.997893369866957e-18

 9.016912939554186e-18  8.988671477366279e-21 -1.015338614814749e+00
 8.988671477366279e-21  1.057190609588459e-17  4.260916631637370e-01
-1.015338614814749e+00  4.260916631637370e-01  7.979255961525778e-18

 8.926170685859155e-18  8.993133862192387e-21 -1.014548992405113e+00
 8.993133862192387e-21  1.065041292435453e-17  4.254998838726995e-01
-1.014548992405113e+00  4.254998838726995e-01  7.948786035286743e-18

 8.831107446462406e-18  6.986730208167139e-21 -1.013535776134405e+00
 6.986730208167139e-21  1.046987283488395e-17  4.267130076660399e-01
-1.013535776134405e+00  4.267130076660399e-01  7.858847755315847e-18

 8.741662866612492e-18  8.730539012380272e-21 -1.013474754029393e+00
 8.730539012380272e-21  1.037142990060738e-17  4.253996037716815e-01
-1.013474754029393e+00  4.253996037716815e-01  7.836461703967833e-18

 8.613958019300089e-18  5.793162896991971e-21 -1.012208554165245e+00
 5.793162896991971e-21  9.785873457712907e-18  4.269827254339562e-01
-1.012208554165245e+00  4.269827254339562e-01  7.740697552668295e-18

 8.546465815351095e-18  5.352392311893568e-21 -1.014026348093597e+00
 5.352392311893568e-21  9.996926617651461e-18  4.249455763970008e-01
-1.014026348093597e+00  4.249455763970008e-01  7.811785221071922e-18

 8.410640022615612e-18  4.052857034653768e-21 -1.012413472024381e+00
 4.052857034653768e-21  9.970381289543755e-18  4.286126953774794e-01
-1.012413472024381e+00  4.286126953774794e-01  7.652925877008551e-18

 8.396873053052672e-18  6.367032725130158e-21 -1.015944526876904e+00
 6.367032725130158e-21  9.988578824229294e-18  4.248771625050499e-01
-1.015944526876904e+00  4.248771625050499e-01  7.828291930073072e-18

 8.262164528153766e-18  7.289900035512430e-21 -1.014657414589620e+00
 7.289900035512430e-21  9.948661497674683e-18  4.289798932906615e-01
-1.014657414589620e+00  4.289798932906615e-01  7.687947620978443e-18

 8.075955552409059e-18  1.092125275286462e-20 -1.011714157309048e+00
 1.092125275286462e-20  9.559464849267607e-18  4.241400367430822e-01
-1.011714157309048e+00  4.241400367430822e-01  7.506069378095176e-18

 8.000068419545271e-18  2.061208913775864e-20 -1.013591699682231e+00
 2.061208913775864e-20  9.374520552226906e-18  4.256023114014255e-01
-1.013591699682231e+00  4.256023114014255e-01  7.585251004140173e-18

 7.794335176423238e-18  2.950872447962902e-20 -1.011546940710248e+00
 2.950872447962902e-20  8.946547063335367e-18  4.285672137815020e-01
-1.011546940710248e+00  4.285672137815020e-01  7.445382529086482e-18

 7.453613725497303e-18  3.517916549506631e-20 -1.005824144744846e+00
 3.517916549506631e-20  8.548070523659875e-18  4.315407245607004e-01
-1.005824144744846e+00  4.315407245607004e-01  7.028257684465611e-18

 7.351208605198334e-18  3.644255441707578e-20 -1.007413192889257e+00
 3.644255441707578e-20  8.479010371710845e-18  4.388060503939283e-01
-1.007413192889257e+00  4.388060503939283e-01  6.924662386443374e-18

 7.281122582405393e-18  2.422082926316938e-20 -1.010324532861489e+00
 2.422082926316938e-20  8.661790581270830e-18  4.310462758301857e-01
-1.010324532861489e+00  4.310462758301857e-01  7.191252978965153e-18

 5.902080016859110e-18 -1.538168705078873e-19 -9.577036511198858e-01
-1.538168705078873e-19  6.822354221367735e-18  4.815298485833667e-01
-9.577036511198858e-01  4.815298485833667e-01  3.384918946100328e-18

 9.813518806267907e-18 -1.592958636878366e-18 -1.092523299854672e+00
-1.592958636878366e-18  1.701271110838954e-17  2.735726444250227e-01
-1.092523299854672e+00  2.735726444250227e-01  1.409208289569564e-17

 9.112321885838566e-18 -1.261436663615569e-19 -1.116627044566237e+00
-1.261436663615569e-19  1.114977599724397e-17  3.959250109031478e-01
-1.116627044566237e+00  3.959250109031478e-01  1.271165542119083e-17

 8.088932570196380e-18  1.231398296011312e-18 -1.132897960702177e+00
 1.231398296011312e-18  3.460511533043672e-18  5.664743580866429e-01
-1.132897960702177e+00  5.664743580866429e-01  1.060149874193860e-17

 8.957195339795727e-18  1.732672721750263e-19 -1.135628601816753e+00
 1.732672721750263e-19  1.140650592877342e-17  3.784592576023683e-01
-1.135628601816753e+00  3.784592576023683e-01  1.315657825390516e-17

 6.037091675576371e-18  1.611756639633861e-19 -1.011750802012248e+00
 1.611756639633861e-19  9.197537699550201e-18  3.932530979026915e-01
-1.011750802012248e+00  3.932530979026915e-01  6.188851348286993e-18

 5.605777968383707e-18 -2.276646644499504e-21 -9.956149636075515e-01
-2.276646644499504e-21  7.138141556978554e-18  4.384044204388157e-01
-9.956149636075515e-01  4.384044204388157e-01  5.592666142483477e-18

 5.512882615070885e-18 -2.240421135690207e-21 -1.003206653874795e+00
-2.240421135690207e-21  7.020160827100112e-18  4.361611153474056e-01
-1.003206653874795e+00  4.361611153474056e-01  6.215760820048165e-18

 5.414466954165589e-18  1.925425202276701e-21 -1.008741441160513e+00
 1.925425202276701e-21  6.730006856296298e-18  4.295111785880562e-01
-1.008741441160513e+00  4.295111785880562e-01  6.571167039444091e-18

 5.155129308052492e-18  4.210909182418266e-21 -1.008245308142222e+00
 4.210909182418266e-21  6.746607234443776e-18  4.291193428149016e-01
-1.008245308142222e+00  4.291193428149016e-01  6.497189170992603e-18

 4.976227626742864e-18  6.723808590605258e-21 -1.010102480021136e+00
 6.723808590605258e-21  6.633128079717706e-18  4.290582270511546e-01
-1.010102480021136e+00  4.290582270511546e-01  6.545174700295926e-18

 4.827215382291546e-18  5.443981457816052e-21 -1.014009683786412e+00
 5.443981457816052e-21  6.295735381812322e-18  4.261202950648471e-01
-1.014009683786412e+00  4.261202950648471e-01  6.719673358846168e-18

 4.434731957080930e-18  6.584745370436604e-21 -1.014944324798281e+00
 6.584745370436604e-21  6.084104673806180e-18  4.257628399810181e-01
-1.014944324798281e+00  4.257628399810181e-01  6.629987557062120e-18

 3.981178893796719e-18  7.849124686807357e-21 -1.015390770937365e+00
 7.849124686807357e-21  5.715779553670170e-18  4.240315316471436e-01
-1.015390770937365e+00  4.240315316471436e-01  6.518883018260271e-18

 3.572619765844515e-18  7.630099936207046e-21 -1.016605536728751e+00
 7.630099936207046e-21  5.368434615013954e-18  4.246336611191160e-01
-1.016605536728751e+00  4.246336611191160e-01  6.418985450848232e-18

 2.957175585923541e-18  1.010550142973310e-20 -1.016937721592578e+00
 1.010550142973310e-20  4.897256312751503e-18  4.233037369285998e-01
-1.016937721592578e+00  4.233037369285998e-01  6.241064488175708e-18

 2.337635796580871e-18  1.341799761635205e-20 -1.016898590007789e+00
 1.341799761635205e-20  4.443018952497690e-18  4.257017886871541e-01
-1.016898590007789e+00  4.257017886871541e-01  5.999981554844128e-18

 1.834142952341096e-18  1.605323473083669e-20 -1.017441190266921e+00
 1.605323473083669e-20  3.757159858871923e-18  4.227213981367730e-01
-1.017441190266921e+00  4.227213981367730e-01  5.896942389262425e-18

 1.181796530062279e-18  1.807944764679700e-20 -1.017086070098833e+00
 1.807944764679700e-20  3.378119421989818e-18  4.254860146543770e-01
-1.017086070098833e+00  4.254860146543770e-01  5.650411466869431e-18

 4.749449455289581e-19  2.193626021955264e-20 -1.015359201779553e+00
 2.193626021955264e-20  3.173995748213428e-18  4.249002470625168e-01
-1.015359201779553e+00  4.249002470625168e-01  5.327179830864403e-18

-5.486225390500141e-19  2.811672470764388e-20 -1.013701170493584e+00
 2.811672470764388e-20  2.266187062897224e-18  4.246265640954184e-01
-1.013701170493584e+00  4.246265640954184e-01  4.894462133037231e-18

-1.185874315737220e-18  2.731646593570535e-20 -1.018973030689046e+00
 2.731646593570535e-20  1.929517912310473e-18  4.215667483288175e-01
-1.018973030689046e+00  4.215667483288175e-01  4.970389989168856e-18

-1.949190600041608e-18  3.313296785812639e-20 -1.023521616274496e+00
 3.313296785812639e-20  1.452657247680709e-18  4.222306519315933e-01
-1.023521616274496e+00  4.222306519315933e-01  4.906345733707847e-18

-3.004493800977863e-18  3.405396917094725e-20 -1.022025275516161e+00
 3.405396917094725e-20  2.287318410528154e-19  4.312169307271058e-01
-1.022025275516161e+00  4.312169307271058e-01  4.295186891063579e-18

-3.876906581298833e-18  5.007617547483950e-20 -1.023784516774116e+00
 5.007617547483950e-20  2.335393994722266e-20  4.206283684017103e-01
-1.023784516774116e+00  4.206283684017103e-01  4.269851122515280e-18

-5.251117186859771e-18  6.257953316728945e-20 -1.019936458786364e+00
 6.257953316728945e-20 -8.659645201232859e-19  4.220462897848760e-01
-1.019936458786364e+00  4.220462897848760e-01  3.581814872325227e-18

-6.623130322490649e-18  6.870724837983332e-20 -1.017703215174149e+00
 6.870724837983332e-20 -2.078468234362496e-18  4.299420902720552e-01
-1.017703215174149e+00  4.299420902720552e-01  2.936553500106790e-18

-8.037817102517353e-18  9.830235926534367e-20 -1.019082929088020e+00
 9.830235926534367e-20 -2.398402166550502e-18  4.210791721089816e-01
-1.019082929088020e+00  4.210791721089816e-01  2.643823940405071e-18

-9.643161132327480e-18  1.087298097223664e-19 -1.008185796645631e+00
 1.087298097223664e-19 -3.872318540783305e-18  4.323261513325029e-01
-1.008185796645631e+00  4.323261513325029e-01  1.380196018702533e-18

-1.075061669697083e-17  1.250773006013037e-19 -1.008628045488881e+00
 1.250773006013037e-19 -4.385590475051296e-18  4.305648288285716e-01
-1.008628045488881e+00  4.305648288285716e-01  1.032714111010145e-18

-1.275024272876942e-17  1.417377573012843e-19 -1.013416403822995e+00
 1.417377573012843e-19 -5.527880960509921e-18  4.285150481025482e-01
-1.013416403822995e+00  4.285150481025482e-01  6.777543404997373e-19

-1.481236863753636e-17  1.687185393177039e-19 -1.017913095228721e+00
 1.687185393177039e-19 -6.541419866128480e-18  4.226924299325441e-01
-1.017913095228721e+00  4.226924299325441e-01  2.366958104786755e-19

-1.709730606383853e-17  1.751127923436666e-19 -1.015124975656493e+00
 1.751127923436666e-19 -7.709321376152624e-18  4.262603217109215e-01
-1.015124975656493e+00  4.262603217109215e-01 -6.972147130365884e-19

-2.016032299387351e-17  1.899810158583838e-19 -1.008327354372061e+00
 1.899810158583838e-19 -9.298317721135996e-18  4.294517965403405e-01
-1.008327354372061e+00  4.294517965403405e-01 -2.154456996327157e-18

-2.395798033559852e-17  1.977535523108429e-19 -1.001748489792025e+00
 1.977535523108429e-19 -1.087957907077541e-17  4.264139774493582e-01
-1.001748489792025e+00  4.264139774493582e-01 -3.821541609483708e-18

-2.622848409457664e-17  1.778878992769783e-19 -1.014861182008792e+00
 1.778878992769783e-19 -1.169689887125110e-17  4.221111197740167e-01
-1.014861182008792e+00  4.221111197740167e-01 -3.846830766813782e-18

-2.909328104267576e-17  1.244862386395588e-19 -1.023243047136908e+00
 1.244862386395588e-19 -1.291435784359155e-17  4.260996735728285e-01
-1.023243047136908e+00  4.260996735728285e-01 -4.473603719923974e-18

-3.546997904279075e-17  5.027666648221850e-20 -1.014299951556723e+00
 5.027666648221850e-20 -1.526195297724016e-17  4.243102868827291e-01
-1.014299951556723e+00  4.243102868827291e-01 -7.225371477650723e-18

-4.293003946845897e-17 -1.343476753092631e-19 -1.016471074942068e+00
-1.343476753092631e-19 -1.762118606411576e-17  4.219150073093983e-01
-1.016471074942068e+00  4.219150073093983e-01 -9.723443277873326e-18

-5.416600136935703e-17 -5.811955846623014e-19 -1.027162343758473e+00
-5.811955846623014e-19 -2.061880984629160e-17  4.225279664176045e-01
-1.027162343758473e+00  4.225279664176045e-01 -1.308543564046326e-17

-6.433422486191506e-17 -1.028394478730240e-18 -9.979660154453259e-01
-1.028394478730240e-18 -2.386649758204662e-17  4.462565459876857e-01
-9.979660154453259e-01  4.462565459876857e-01 -1.846090852164343e-17

-7.104725019009483e-17 -1.388098750486161e-18 -1.005963648980723e+00
-1.388098750486161e-18 -2.439869406704743e-17  4.245245525029150e-01
-1.005963648980723e+00  4.245245525029150e-01 -2.008571122398378e-17

-8.407018364125272e-17 -2.356607632819138e-18 -1.010262181655757e+00
-2.356607632819138e-18 -2.662349183407157e-17  4.274621065544458e-01
-1.010262181655757e+00  4.274621065544458e-01 -2.435567198470931e-17

-9.992573002892698e-17 -3.762097838680588e-18 -1.004579672508363e+00
-3.762097838680588e-18 -2.835203761437044e-17  4.287034747905125e-01
-1.004579672508363e+00  4.287034747905125e-01 -3.023757975247171e-17

-1.099359322310454e-16 -7.941548281317763e-18 -1.009667006872447e+00
-7.941548281317763e-18 -1.273509928031845e-17  4.221551124953239e-01
-1.009667006872447e+00  4.221551124953239e-01 -4.239913708106494e-17

-1.675810003433055e-16 -1.339166121985136e-17 -1.007775845561791e+00
-1.339166121985136e-17 -2.842562889256467e-17  4.173383318382415e-01
-1.007775845561791e+00  4.173383318382415e-01 -5.402720510972816e-17

-2.071663316673900e-16 -2.109693406043327e-17 -1.003819691500209e+00
-2.109693406043327e-17 -2.489084507404220e-17  4.147575038125034e-01
-1.003819691500209e+00  4.147575038125034e-01 -6.846387393636332e-17

-2.731968542227620e-16 -3.757003297486693e-17 -1.001578182087554e+00
-3.757003297486693e-17 -1.557584608506660e-17  4.269554024381491e-01
-1.001578182087554e+00  4.269554024381491e-01 -9.289216157097236e-17

-3.520795958022853e-16 -7.447523555086635e-17 -9.810409578656568e-01
-7.447523555086635e-17  3.384458589079220e-17  4.255662696091170e-01
-9.810409578656568e-01  4.255662696091170e-01 -1.406212896072769e-16

-4.491400986680901e-16 -1.022393918926905e-16 -9.944703829530642e-01
-1.022393918926905e-16  3.195892354077178e-17  4.186576509923228e-01
-9.944703829530642e-01  4.186576509923228e-01 -1.608652981214639e-16

-5.104135820226114e-16 -1.317135614036732e-16 -1.003792707917095e+00
-1.317135614036732e-16  5.436231191711308e-17  4.134241428015314e-01
-1.003792707917095e+00  4.134241428015314e-01 -1.849915845069323e-16

-6.573105887150132e-16 -2.100926560957978e-16 -1.000111106821448e+00
-2.100926560957978e-16  1.115372433162695e-16  4.262652428077577e-01
-1.000111106821448e+00  4.262652428077577e-01 -2.458703643078312e-16

-9.042998645271025e-16 -3.837687559810105e-16 -1.001274678948924e+00
-3.837687559810105e-16  2.266377548606335e-16  4.191234889904936e-01
-1.001274678948924e+00  4.191234889904936e-01 -3.560821254888317e-16

-1.165139403671658e-15 -6.454733625831354e-16 -1.002729861529073e+00
-6.454733625831354e-16  4.401275849198310e-16  4.193617094143562e-01
-1.002729861529073e+00  4.193617094143562e-01 -5.090694597540003e-16

-1.620901726908616e-15 -1.152781811827973e-15 -1.004076815241329e+00
-1.152781811827973e-15  6.152514738950228e-16  4.216127659015584e-01
-1.004076815241329e+00  4.216127659015584e-01 -7.412244885118884e-16

-2.008836481105199e-15 -1.749343364691314e-15 -1.005850405557213e+00
-1.749343364691314e-15  8.223329859483489e-16  4.190863551897464e-01
-1.005850405557213e+00  4.190863551897464e-01 -1.003186631764882e-15

-2.629290149641104e-15 -2.971390845784865e-15 -1.006606806716781e+00
-2.971390845784865e-15  1.084987831841028e-15  4.197357036642228e-01
-1.006606806716781e+00  4.197357036642228e-01 -1.520609526222589e-15

-4.204799605493327e-15 -6.792270763156924e-15 -1.008956315166565e+00
-6.792270763156924e-15  9.460520822997665e-16  4.204142455408287e-01
-1.008956315166565e+00  4.204142455408287e-01 -3.306594068682616e-15

-8.252714874035968e-15 -1.196622981814641e-14 -1.009605307383701e+00
-1.196622981814641e-14 -7.769148116132505e-16  4.202528967932707e-01
-1.009605307383701e+00  4.202528967932707e-01 -7.350810141512913e-15

-9.671736750368087e-15 -8.365338309947957e-15 -1.010346637678232e+00
-8.365338309947957e-15  8.864486097837350e-15  4.207738664141759e-01
-1.010346637678232e+00  4.207738664141759e-01 -1.280004454303252e-14

 1.210639364905990e-13  3.190182521378802e-14 -1.010909178520603e+00
 3.190182521378802e-14  7.538769867358356e-14  4.207061018090459e-01
-1.010909178520603e+00  4.207061018090459e-01  2.817270285491989e-14

-6.161207224184025e-13 -1.395144094841486e-13 -1.012008364397200e+00
-1.395144094841486e-13 -3.056693013623705e-13  4.209293866294665e-01
-1.012008364397200e+00  4.209293866294665e-01 -1.530178142175625e-13

-1.098846854221415e-14  1.728263706489835e-14 -1.012617313202936e+00
 1.728263706489835e-14  1.943870827613110e-14  4.255069580303917e-01
-1.012617313202936e+00  4.255069580303917e-01 -1.027763734798604e-14

-6.494449225966099e-13 -1.382613557034022e-13 -1.012916796845096e+00
-1.382613557034022e-13 -3.093429617743170e-13  4.262513718901444e-01
-1.012916796845096e+00  4.262513718901444e-01 -1.663821249879016e-13

-1.568419079326862e-14  2.463908500674197e-16 -1.013433638130026e+00
 2.463908500674197e-16 -3.699176725355855e-15  4.274882340321551e-01
-1.013433638130026e+00  4.274882340321551e-01 -6.852698844383657e-15

-9.555046294947279e-15 -8.268947199006870e-16 -1.017500226580061e+00
-8.268947199006870e-16 -2.968202062254709e-15  4.258351833595533e-01
-1.017500226580061e+00  4.258351833595533e-01 -3.737040786416160e-15

-7.036529433568180e-15 -1.150861442753043e-15 -1.017695482784386e+00
-1.150861442753043e-15 -2.722690061023848e-15  4.262891482587071e-01
-1.017695482784386e+00  4.262891482587071e-01 -2.527319377995521e-15

-4.319647654364102e-15 -1.205265525341008e-15 -1.016732867896516e+00
-1.205265525341008e-15 -2.119254271690567e-15  4.276342747443456e-01
-1.016732867896516e+00  4.276342747443456e-01 -1.401440915393604e-15

-2.964990875255631e-15 -1.059384137212715e-15 -1.016100530979105e+00
-1.059384137212715e-15 -1.549360923357991e-15  4.282818703136589e-01
-1.016100530979105e+00  4.282818703136589e-01 -9.152544700699765e-16

-2.239887266198663e-15 -9.116976316368158e-16 -1.015520498819311e+00
-9.116976316368158e-16 -1.474232608725961e-15  4.309627173770668e-01
-1.015520498819311e+00  4.309627173770668e-01 -7.021284240050450e-16

-1.373651433383633e-15 -6.542855943818593e-16 -1.016205850378553e+00
-6.542855943818593e-16 -1.071703453213634e-15  4.291030005281508e-01
-1.016205850378553e+00  4.291030005281508e-01 -4.062718037017650e-16

-8.481239028768040e-16 -4.376071713745132e-16 -1.018052091866412e+00
-4.376071713745132e-16 -8.481365630127101e-16  4.321160036073071e-01
-1.018052091866412e+00  4.321160036073071e-01 -2.504856790603552e-16

-5.928287083282249e-16 -3.176740062787916e-16 -1.017460470033343e+00
-3.176740062787916e-16 -6.633731748381234e-16  4.300204847235370e-01
-1.017460470033343e+00  4.300204847235370e-01 -1.763771814071344e-16

-4.093221355232884e-16 -2.192772553140340e-16 -1.019464071979284e+00
-2.192772553140340e-16 -6.822820794064015e-16  4.338531957842230e-01
-1.019464071979284e+00  4.338531957842230e-01 -1.225557135676515e-16

-3.126718819466193e-16 -1.694222107168118e-16 -1.025134449869568e+00
-1.694222107168118e-16 -2.989052180043210e-16  4.288073140992452e-01
-1.025134449869568e+00  4.288073140992452e-01 -9.350035209102647e-17

-2.639951771329610e-16 -1.406830028310768e-16 -1.019133133836463e+00
-1.406830028310768e-16 -3.681223830115932e-16  4.345830298740161e-01
-1.019133133836463e+00  4.345830298740161e-01 -7.934396840789393e-17

-2.272005724077343e-16 -1.204795089174182e-16 -1.019430047125848e+00
-1.204795089174182e-16 -2.676048112516545e-16  4.324746344981701e-01
-1.019430047125848e+00  4.324746344981701e-01 -6.814417035439201e-17

-1.894037358399939e-16 -9.790004277286139e-17 -1.022748509850499e+00
-9.790004277286139e-17 -3.150732687961927e-16  4.339594291050610e-01
-1.022748509850499e+00  4.339594291050610e-01 -5.642630046023126e-17

-1.567477490853412e-16 -8.055459921530778e-17 -1.026442463977584e+00
-8.055459921530778e-17 -1.626396163960184e-16  4.323185548116718e-01
-1.026442463977584e+00  4.323185548116718e-01 -4.614695289765911e-17

-1.328961965897627e-16 -6.567355003291016e-17 -1.027812421228860e+00
-6.567355003291016e-17 -2.567933644023330e-16  4.337183250495857e-01
-1.027812421228860e+00  4.337183250495857e-01 -3.866544953230523e-17

-1.127723882624577e-16 -5.673709057160934e-17 -1.027939253585945e+00
-5.673709057160934e-17 -2.388303658499577e-17  4.341374718212204e-01
-1.027939253585945e+00  4.341374718212204e-01 -3.231020511879832e-17

-9.543101499921812e-17 -4.502032013494632e-17 -1.029707199431337e+00
-4.502032013494632e-17 -1.930254152608778e-16  4.354219030505526e-01
-1.029707199431337e+00  4.354219030505526e-01 -2.672356661565450e-17

-8.246633033376222e-17 -3.863301698293598e-17 -1.032115393018715e+00
-3.863301698293598e-17 -1.195775677619037e-16  4.363530612021878e-01
-1.032115393018715e+00  4.363530612021878e-01 -2.243715523387287e-17

-7.189548477563303e-17 -3.263686536399785e-17 -1.032445120003571e+00
-3.263686536399785e-17 -1.434208124396299e-16  4.366700132978011e-01
-1.032445120003571e+00  4.366700132978011e-01 -1.903942112428162e-17

-6.383194524269056e-17 -2.846433778893065e-17 -1.030731172360817e+00
-2.846433778893065e-17 -1.271690649447860e-16  4.385292490279116e-01
-1.030731172360817e+00  4.385292490279116e-01 -1.654766552496905e-17

-5.494734079111001e-17 -2.400851412246841e-17 -1.036923340238270e+00
-2.400851412246841e-17 -1.157155508248000e-16  4.376718080964014e-01
-1.036923340238270e+00  4.376718080964014e-01 -1.334858713578084e-17

-4.788740680375245e-17 -2.019620447408240e-17 -1.037274673549104e+00
-2.019620447408240e-17 -1.264449231014771e-16  4.430841455572441e-01
-1.037274673549104e+00  4.430841455572441e-01 -1.117225848242056e-17

-3.929760074323479e-17 -1.664321612338712e-17 -1.047454040702585e+00
-1.664321612338712e-17 -7.456166496015896e-17  4.366088243927656e-01
-1.047454040702585e+00  4.366088243927656e-01 -7.882823450310505e-18

-3.011678351390747e-17 -1.224594543467473e-17 -1.069965413270470e+00
-1.224594543467473e-17 -8.408678949696039e-17  4.306334018415368e-01
-1.069965413270470e+00  4.306334018415368e-01 -3.901890572292987e-18

-2.320640849855334e-17 -9.724632548468674e-18 -1.111264639624150e+00
-9.724632548468674e-18 -4.901737179356486e-17  4.341678605863400e-01
-1.111264639624150e+00  4.341678605863400e-01  3.419847390959768e-19

-2.194447522625225e-17 -9.245143834474472e-18 -1.050646861493515e+00
-9.245143834474472e-18  2.859117436840476e-17  5.173782847003237e-01
-1.050646861493515e+00  5.173782847003237e-01 -3.536406886769085e-18

-1.855018916425962e-17 -9.043097883573728e-18 -1.098045391691620e+00
-9.043097883573728e-18  6.049253749953093e-17  4.298084469029952e-01
-1.098045391691620e+00  4.298084469029952e-01  1.387572611797264e-18

-1.580640782197176e-17 -7.613716102334122e-18 -1.063996138017471e+00
-7.613716102334122e-18  2.546250109541223e-17  4.322660386892132e-01
-1.063996138017471e+00  4.322660386892132e-01  8.417019378137530e-19

-1.335057387784859e-17 -5.480900099591886e-18 -1.047290551022579e+00
-5.480900099591886e-18 -8.690850048064749e-17  4.332814198796865e-01
-1.047290551022579e+00  4.332814198796865e-01  1.165911848384304e-18

-1.167028773546434e-17 -5.376890751109404e-18 -1.024209309482593e+00
-5.376890751109404e-18 -3.388598125625851e-17  4.406204430476555e-01
-1.024209309482593e+00  4.406204430476555e-01  6.525897304262877e-19

-1.026601855929402e-17 -6.194023150595567e-18 -1.025931590164188e+00
-6.194023150595567e-18  7.990986246403598e-17  4.430882894013433e-01
-1.025931590164188e+00  4.430882894013433e-01  1.344451794738780e-18

-8.518524525485041e-18 -5.014620894956548e-18 -1.043357332348138e+00
-5.014620894956548e-18  1.268422871714936e-17  4.303146704451559e-01
-1.043357332348138e+00  4.303146704451559e-01  3.135780206307164e-18

-6.827554235506650e-18 -3.978343768636309e-18 -1.033427944645959e+00
-3.978343768636309e-18 -2.396468188296041e-17  4.361394266956469e-01
-1.033427944645959e+00  4.361394266956469e-01  3.183739312121687e-18

-5.728016022995132e-18 -3.375756935153275e-18 -1.020388878027165e+00
-3.375756935153275e-18 -3.882142338260369e-17  4.360378446493893e-01
-1.020388878027165e+00  4.360378446493893e-01  2.836159331481499e-18

-5.273563748436509e-18 -3.844245242255862e-18 -1.014268329763596e+00
-3.844245242255862e-18  1.925061776993928e-17  4.495258823384914e-01
-1.014268329763596e+00  4.495258823384914e-01  2.535929141089058e-18

-4.065050276225114e-18 -3.435907618600652e-18 -1.037813465465338e+00
-3.435907618600652e-18  1.368680369364881e-18  4.344841446666314e-01
-1.037813465465338e+00  4.344841446666314e-01  4.457196723358881e-18

-3.208344195885742e-18 -3.468587205756353e-18 -1.030918866919916e+00
-3.468587205756353e-18  3.154925244992606e-17  4.376725159840063e-01
-1.030918866919916e+00  4.376725159840063e-01  4.332211349775597e-18

-2.348901460362494e-18 -2.471683828129882e-18 -1.034088736876499e+00
-2.471683828129882e-18 -3.506766248398624e-17  4.263446009758186e-01
-1.034088736876499e+00  4.263446009758186e-01  4.939077345282417e-18

-1.749997238026145e-18 -2.305316921979420e-18 -1.025514070650005e+00
-2.305316921979420e-18 -2.932160930876151e-17  4.355073061845804e-01
-1.025514070650005e+00  4.355073061845804e-01  4.649290433138288e-18

-8.305693046326078e-19 -2.053800558126065e-18 -1.025437599631287e+00
-2.053800558126065e-18 -2.769335107614079e-17  4.324234763695793e-01
-1.025437599631287e+00  4.324234763695793e-01  5.063349219207168e-18

-2.556485892842613e-19 -1.808430621314649e-18 -1.025087853789873e+00
-1.808430621314649e-18 -3.456991288116960e-17  4.311251619770312e-01
-1.025087853789873e+00  4.311251619770312e-01  5.287770279519737e-18

 2.564506490632216e-19 -2.625634594437011e-18 -1.023697353167863e+00
-2.625634594437011e-18  4.753709228513695e-17  4.322069120653247e-01
-1.023697353167863e+00  4.322069120653247e-01  5.398422010293679e-18

 9.048402847222649e-19 -1.484488814439734e-18 -1.023334759823306e+00
-1.484488814439734e-18 -3.297003829942613e-17  4.314253869303672e-01
-1.023334759823306e+00  4.314253869303672e-01  5.645820467587270e-18

 1.410516321979755e-18 -1.945767513445759e-18 -1.021904477038403e+00
-1.945767513445759e-18  1.729469252395293e-17  4.314304662045886e-01
-1.021904477038403e+00  4.314304662045886e-01  5.789148353587023e-18

 1.903303149075446e-18 -1.989628172585861e-18 -1.020445811500131e+00
-1.989628172585861e-18  3.195289617152111e-17  4.314363488837766e-01
-1.020445811500131e+00  4.314363488837766e-01  5.910085369482162e-18

 2.335202694273675e-18 -1.515378998012458e-18 -1.019315057937620e+00
-1.515378998012458e-18  2.639392051112407e-18  4.300498031538412e-01
-1.019315057937620e+00  4.300498031538412e-01  6.052754910631308e-18

 2.823892549089425e-18 -1.279610848550822e-18 -1.017583048954714e+00
-1.279610848550822e-18 -6.163311846654612e-18  4.308730765121925e-01
-1.017583048954714e+00  4.308730765121925e-01  6.154954462329070e-18

 3.336874135532090e-18 -1.160642238791090e-18 -1.017930016029969e+00
-1.160642238791090e-18 -5.280751884573496e-18  4.303264490610689e-01
-1.017930016029969e+00  4.303264490610689e-01  6.373350582435674e-18

 3.811505055752809e-18 -1.162868855398556e-18 -1.018681635645196e+00
-1.162868855398556e-18  3.520129473574775e-18  4.326662720577794e-01
-1.018681635645196e+00  4.326662720577794e-01  6.524683110178285e-18

 4.183976105899811e-18 -1.064880602176796e-18 -1.019058419186401e+00
-1.064880602176796e-18  3.035380270191180e-18  4.315892593645240e-01
-1.019058419186401e+00  4.315892593645240e-01  6.662994988277752e-18

 4.531277894192197e-18 -1.142723193073117e-18 -1.019109574213384e+00
-1.142723193073117e-18  1.557302504902979e-17  4.315901595290073e-01
-1.019109574213384e+00  4.315901595290073e-01  6.763398718948606e-18

 4.953851992202100e-18 -8.283223289329330e-19 -1.018843208874850e+00
-8.283223289329330e-19 -1.344758443183741e-18  4.328186662336432e-01
-1.018843208874850e+00  4.328186662336432e-01  6.859736821632548e-18

 5.328498525358531e-18 -4.616149439376658e-19 -1.018457918183452e+00
-4.616149439376658e-19 -2.249895048175574e-17  4.331260370190608e-01
-1.018457918183452e+00  4.331260370190608e-01  6.927887250260298e-18

 5.712724367921160e-18 -8.223089404062437e-19 -1.018086182044811e+00
-8.223089404062437e-19  1.247381929283080e-17  4.337742940919952e-01
-1.018086182044811e+00  4.337742940919952e-01  7.013589108897854e-18

 6.081610653411284e-18 -6.005585884978659e-19 -1.017656095690712e+00
-6.005585884978659e-19  1.709937292348316e-18  4.334402223355120e-01
-1.017656095690712e+00  4.334402223355120e-01  7.091543718438721e-18

 6.332184023464499e-18 -5.504675854607883e-19 -1.018837069910311e+00
-5.504675854607883e-19  2.062400446667940e-18  4.330884143607121e-01
-1.018837069910311e+00  4.330884143607121e-01  7.252294407064133e-18

 6.482210925770478e-18 -4.981367603000451e-19 -1.016827428362090e+00
-4.981367603000451e-19  1.338716210422057e-18  4.385314134029077e-01
-1.016827428362090e+00  4.385314134029077e-01  7.124808096321126e-18

 6.595088325435928e-18 -4.422570627945255e-19 -1.012344843985546e+00
-4.422570627945255e-19  9.600568188319132e-19  4.338945520042162e-01
-1.012344843985546e+00  4.338945520042162e-01  7.013596521385650e-18

 6.833121985645039e-18 -5.763952684561669e-19 -1.009852859700991e+00
-5.763952684561669e-19  1.553507296741931e-17  4.353113906399764e-01
-1.009852859700991e+00  4.353113906399764e-01  6.978148794438005e-18

 7.006902126097585e-18 -4.499962704268479e-19 -1.009340512668106e+00
-4.499962704268479e-19  8.943187502179483e-18  4.381066497183566e-01
-1.009340512668106e+00  4.381066497183566e-01  6.983828719669441e-18

 7.167876682688701e-18 -3.931514829392055e-19 -1.010918222978283e+00
-3.931514829392055e-19  7.475667397309057e-18  4.316204710972555e-01
-1.010918222978283e+00  4.316204710972555e-01  7.179249469313892e-18

 7.345579247006151e-18 -3.585313824695076e-19 -1.011997394760670e+00
-3.585313824695076e-19  7.881453492055668e-18  4.268671041493970e-01
-1.011997394760670e+00  4.268671041493970e-01  7.336237250211501e-18

 7.502154936863273e-18 -3.644600966534299e-19 -1.012997869711380e+00
-3.644600966534299e-19  1.024272501176990e-17  4.432896608930983e-01
-1.012997869711380e+00  4.432896608930983e-01  7.250470709518689e-18

 7.487879957176346e-18 -1.280567594521002e-19 -1.007805004922649e+00
-1.280567594521002e-19 -5.162323683446869e-18  4.460336456037339e-01
-1.007805004922649e+00  4.460336456037339e-01  6.925507548301399e-18

 7.884438571651034e-18 -3.309951240516894e-19 -1.019513518026362e+00
-3.309951240516894e-19  1.233963683178451e-17  4.148322510048686e-01
-1.019513518026362e+00  4.148322510048686e-01  8.035165647297394e-18

 7.618931676878019e-18 -1.842448369734365e-19 -1.004634709230121e+00
-1.842448369734365e-19  2.630614025566461e-18  4.309067956475069e-01
-1.004634709230121e+00  4.309067956475069e-01  6.978465034255201e-18

 7.693818684224257e-18 -3.319802683514421e-19 -1.004239844269453e+00
-3.319802683514421e-19  1.463405240254314e-17  4.377232437091232e-01
-1.004239844269453e+00  4.377232437091232e-01  6.900619938050760e-18

 7.911695847038439e-18 -2.908723056718779e-19 -1.010120058687249e+00
-2.908723056718779e-19  1.290490396627326e-17  4.321956948555755e-01
-1.010120058687249e+00  4.321956948555755e-01  7.341441832801438e-18

 7.969648306863660e-18 -1.573186962150670e-19 -1.009646437383798e+00
-1.573186962150670e-19  5.281884922670127e-18  4.315823330190249e-01
-1.009646437383798e+00  4.315823330190249e-01  7.343150275986175e-18

 8.041997679356460e-18 -9.245639816516061e-20 -1.009544439464127e+00
-9.245639816516061e-20  1.955532754492187e-18  4.312840308296521e-01
-1.009544439464127e+00  4.312840308296521e-01  7.372520664898881e-18

 8.106705056236645e-18 -2.851429669875294e-19 -1.009963133916350e+00
-2.851429669875294e-19  1.626516882457571e-17  4.319932935622326e-01
-1.009963133916350e+00  4.319932935622326e-01  7.366451875913919e-18

 8.274667974122065e-18 -2.146771381835178e-19 -1.012013708860443e+00
-2.146771381835178e-19  1.351266207961989e-17  4.296848961190369e-01
-1.012013708860443e+00  4.296848961190369e-01  7.544174146560055e-18

 8.409516704050757e-18 -1.899887995480205e-19 -1.014015358573739e+00
-1.899887995480205e-19  1.365758793757378e-17  4.303693447734341e-01
-1.014015358573739e+00  4.303693447734341e-01  7.673293331266461e-18

 8.518762429516169e-18 -1.514544211166792e-19 -1.014787472594325e+00
-1.514544211166792e-19  1.253644323030265e-17  4.295907134692846e-01
-1.014787472594325e+00  4.295907134692846e-01  7.722113475527723e-18

 8.604882630403339e-18 -8.130577592675119e-20 -1.014328985444217e+00
-8.130577592675119e-20  9.152779689896681e-18  4.271891848987013e-01
-1.014328985444217e+00  4.271891848987013e-01  7.754723369793640e-18

 8.771906062925452e-18 -1.102985414826946e-19 -1.016894825043708e+00
-1.102985414826946e-19  1.310066670611157e-17  4.292761492575460e-01
-1.016894825043708e+00  4.292761492575460e-01  7.919253001260904e-18

 8.750377004969011e-18 -7.280891284762595e-20 -1.012914228124611e+00
-7.280891284762595e-20  1.069259790412530e-17  4.339325224579937e-01
-1.012914228124611e+00  4.339325224579937e-01  7.601220394487194e-18

 8.937518819143242e-18 -3.281692372508970e-20 -1.018476980431871e+00
-3.281692372508970e-20  9.243822087654096e-18  4.228805978654849e-01
-1.018476980431871e+00  4.228805978654849e-01  8.083479493119863e-18

 8.963778865966170e-18 -2.363507323098209e-20 -1.017294365450789e+00
-2.363507323098209e-20  9.160283751531418e-18  4.205019092895896e-01
-1.017294365450789e+00  4.205019092895896e-01  8.043761131633809e-18

 9.179774643318433e-18 -7.432064557756127e-20 -1.024491773333814e+00
-7.432064557756127e-20  1.402346916416058e-17  4.347621933138547e-01
-1.024491773333814e+00  4.347621933138547e-01  8.307400827605816e-18

 9.220283232341408e-18  3.883969746273227e-21 -1.023773875470795e+00
 3.883969746273227e-21  8.784350512512166e-18  4.364681010791512e-01
-1.023773875470795e+00  4.364681010791512e-01  8.256432362537515e-18

 9.215834882216891e-18  9.781857854314281e-20 -1.019340296929574e+00
 9.781857854314281e-20  3.182900060115984e-18  4.225012760217685e-01
-1.019340296929574e+00  4.225012760217685e-01  8.205752063755977e-18

 9.075308000835453e-18  1.007128333678628e-19 -1.010951566539683e+00
 1.007128333678628e-19  3.094551378058105e-18  4.259373394879595e-01
-1.010951566539683e+00  4.259373394879595e-01  7.703591695501263e-18

 9.241111635877212e-18  5.839624570180639e-20 -1.015322999895894e+00
 5.839624570180639e-20  7.220480642940946e-18  4.306939442961272e-01
-1.015322999895894e+00  4.306939442961272e-01  7.892130556109084e-18

 9.475751905362059e-18 -3.949700464276398e-20 -1.023601907694264e+00
-3.949700464276398e-20  1.461321511096214e-17  4.260505254621094e-01
-1.023601907694264e+00  4.260505254621094e-01  8.355927731122029e-18

 9.564665470220574e-18  1.110806714079136e-19 -1.026442858669949e+00
 1.110806714079136e-19  4.443542333873036e-18  4.290687674301935e-01
-1.026442858669949e+00  4.290687674301935e-01  8.405602974667018e-18

 9.974537774399135e-18  4.910221803833279e-21 -1.042027620203628e+00
 4.910221803833279e-21  1.188652639442338e-17  4.192961379135578e-01
-1.042027620203628e+00  4.192961379135578e-01  9.396431319552560e-18

 9.966662933146276e-18 -3.282450722266745e-20 -1.041675645568370e+00
-3.282450722266745e-20  1.520735644518901e-17  4.234965921158275e-01
-1.041675645568370e+00  4.234965921158275e-01  9.273347925844347e-18

 9.628794717836053e-18  1.075152213880198e-19 -1.027496953266342e+00
 1.075152213880198e-19  5.281680415507193e-18  4.426423887939264e-01
-1.027496953266342e+00  4.426423887939264e-01  8.134328281048462e-18

 9.929473969057931e-18 -2.640097613569522e-20 -1.039545351014260e+00
-2.640097613569522e-20  1.505561226214251e-17  4.370334909048569e-01
-1.039545351014260e+00  4.370334909048569e-01  8.955867044006395e-18

 9.952366640830430e-18  3.760001542964570e-20 -1.038672240069047e+00
 3.760001542964570e-20  1.060443941021393e-17  4.331183727668950e-01
-1.038672240069047e+00  4.331183727668950e-01  8.991809034140317e-18

 1.012371093290210e-17  3.690702339761090e-20 -1.044692606261552e+00
 3.690702339761090e-20  1.069636655151035e-17  4.220488671872134e-01
-1.044692606261552e+00  4.220488671872134e-01  9.498351309037677e-18

 9.943068893635985e-18 -3.575535469542578e-21 -1.035308350594161e+00
-3.575535469542578e-21  1.338491778884049e-17  4.234491153448235e-01
-1.035308350594161e+00  4.234491153448235e-01  8.939008668232972e-18

 1.000140597253135e-17  4.519055513523664e-20 -1.035826723256709e+00
 4.519055513523664e-20  1.068229300027238e-17  4.212881245940281e-01
-1.035826723256709e+00  4.212881245940281e-01  9.040486685806752e-18

 9.873455135700635e-18  4.727937680887440e-20 -1.027968028700799e+00
 4.727937680887440e-20  1.010126379293849e-17  4.292060790481912e-01
-1.027968028700799e+00  4.292060790481912e-01  8.584262800685927e-18

 9.882260115768639e-18  4.411977807480054e-20 -1.025884174367040e+00
 4.411977807480054e-20  1.008648798181733e-17  4.306413452432575e-01
-1.025884174367040e+00  4.306413452432575e-01  8.556515971489734e-18

 9.760287442715723e-18  1.013365172675371e-19 -1.017114481861694e+00
 1.013365172675371e-19  5.830070614692174e-18  4.297429952951027e-01
-1.017114481861694e+00  4.297429952951027e-01  8.114979424378732e-18

 9.920305233004914e-18  9.157290434779274e-20 -1.020779796579961e+00
 9.157290434779274e-20  6.973070726632008e-18  4.311595561283749e-01
-1.020779796579961e+00  4.311595561283749e-01  8.363739537171501e-18

 1.004778215432233e-17  8.492976206994132e-20 -1.024508382436362e+00
 8.492976206994132e-20  7.377553145037140e-18  4.334677849131406e-01
-1.024508382436362e+00  4.334677849131406e-01  8.547735083410830e-18

 9.972079256431642e-18  5.398398679957336e-20 -1.019140240356044e+00
 5.398398679957336e-20  9.077606081039968e-18  4.340658777889672e-01
-1.019140240356044e+00  4.340658777889672e-01  8.263775121541253e-18

 9.920587768477542e-18  2.487878723338719e-21 -1.014637838617143e+00
 2.487878723338719e-21  1.332337898231870e-17  4.247331245452647e-01
-1.014637838617143e+00  4.247331245452647e-01  8.110757164623741e-18

 1.000818800384939e-17  1.640199592210353e-20 -1.017032273426082e+00
 1.640199592210353e-20  1.303875857688918e-17  4.236829384856304e-01
-1.017032273426082e+00  4.236829384856304e-01  8.278414155215162e-18

 9.920350954192494e-18  5.552958636746547e-20 -1.012438768509560e+00
 5.552958636746547e-20  9.359359170141668e-18  4.420467830552167e-01
-1.012438768509560e+00  4.420467830552167e-01  7.808198000896284e-18

 1.004923491938792e-17  5.979417893387623e-20 -1.016861847907348e+00
 5.979417893387623e-20  9.802549400633655e-18  4.317282241913232e-01
-1.016861847907348e+00  4.317282241913232e-01  8.162286586223763e-18

 1.009977051649863e-17  1.963727504579616e-20 -1.017649120965397e+00
 1.963727504579616e-20  1.362645755076251e-17  4.339724257973739e-01
-1.017649120965397e+00  4.339724257973739e-01  8.154504530359535e-18

 1.027017969825503e-17  4.248822631110280e-20 -1.023696525708531e+00
 4.248822631110280e-20  1.239830308191148e-17  4.308806347715276e-01
-1.023696525708531e+00  4.308806347715276e-01  8.540996842765110e-18

 1.014452104277285e-17  1.602798503742820e-20 -1.017239067021010e+00
 1.602798503742820e-20  1.270360297237615e-17  4.498277410355500e-01
-1.017239067021010e+00  4.498277410355500e-01  8.002960687624423e-18

 9.963490873514807e-18  3.170594671899320e-20 -1.007823062206618e+00
 3.170594671899320e-20  1.244152933369079e-17  4.423521877190474e-01
-1.007823062206618e+00  4.423521877190474e-01  7.516081866702394e-18

 1.100822180077136e-17  1.181766627708039e-19 -1.049654562039306e+00
 1.181766627708039e-19  1.056197205684950e-17  3.901794249867943e-01
-1.049654562039306e+00  3.901794249867943e-01  1.074698321852411e-17

 9.688967998298157e-18  2.862896287578528e-20 -9.948940997974242e-01
 2.862896287578528e-20  1.275628533738181e-17  4.404772948802270e-01
-9.948940997974242e-01  4.404772948802270e-01  6.744471260239970e-18

 8.797156077703950e-18  2.374769604755866e-20 -9.584510364550237e-01
 2.374769604755866e-20  9.880702613292400e-18  4.723830611083039e-01
-9.584510364550237e-01  4.723830611083039e-01  3.991626297342727e-18

 1.223650109831034e-17 -1.037939711094041e-20 -1.096307618571672e+00
-1.037939711094041e-20  1.396485603163600e-17  3.374633537580122e-01
-1.096307618571672e+00  3.374633537580122e-01  1.446351359110530e-17

 1.115448794027151e-17  2.895126313132573e-20 -1.054810697891801e+00
 2.895126313132573e-20  1.279633622301930e-17  3.993458897318926e-01
-1.054810697891801e+00  3.993458897318926e-01  1.091052871736217e-17

 1.058957742564829e-17  1.000321010623182e-19 -1.035431847039490e+00
 1.000321010623182e-19  9.633763492799637e-18  4.677649923829885e-01
-1.035431847039490e+00  4.677649923829885e-01  8.694066501508887e-18

 9.863690129629066e-18  6.598825065672273e-20 -1.003777045222593e+00
 6.598825065672273e-20  1.202110055818615e-17  4.436314121332490e-01
-1.003777045222593e+00  4.436314121332490e-01  6.890949320254236e-18

 9.566897872527178e-18  1.816393692304201e-20 -9.918630872247675e-01
 1.816393692304201e-20  1.228590433355244e-17  4.442873396993036e-01
-9.918630872247675e-01  4.442873396993036e-01  5.903820303489694e-18

 1.091663238832939e-17  4.765361174503938e-20 -1.058931997111710e+00
 4.765361174503938e-20  1.504855795709913e-17  4.502470009091756e-01
-1.058931997111710e+00  4.502470009091756e-01  9.122512314110280e-18

 1.207492365571237e-17  1.515473521695768e-19 -1.116984850836034e+00
 1.515473521695768e-19  9.914099009677860e-18  4.394313187423647e-01
-1.116984850836034e+00  4.394313187423647e-01  1.190015260774486e-17

 1.282801438698162e-17  6.036232329392451e-20 -1.150251515140035e+00
 6.036232329392451e-20  1.549705959422150e-17  4.185824186233079e-01
-1.150251515140035e+00  4.185824186233079e-01  1.391261914620557e-17

 1.185882441406591e-17  2.674883709600599e-20 -1.112592811155474e+00
 2.674883709600599e-20  1.570353167937205e-17  4.832835556679907e-01
-1.112592811155474e+00  4.832835556679907e-01  1.068411581516840e-17

 9.768504171303589e-18  3.321570152940529e-20 -1.027668786192477e+00
 3.321570152940529e-20  9.886971134669152e-18  5.646313076924987e-01
-1.027668786192477e+00  5.646313076924987e-01  4.330827270769520e-18

 1.167041000926726e-17  2.194215677921685e-20 -1.102809566327778e+00
 2.194215677921685e-20  1.281439980451995e-17  4.914510757910520e-01
-1.102809566327778e+00  4.914510757910520e-01  1.016285841889949e-17

 1.211333545304637e-17  1.064487956375416e-19 -1.116941187619702e+00
 1.064487956375416e-19  1.403742284569362e-17  4.305842366589370e-01
-1.116941187619702e+00  4.305842366589370e-01  1.188635898966513e-17

 1.140682542451654e-17  1.174100048191806e-19 -1.083047839296299e+00
 1.174100048191806e-19  1.242895498579083e-17  4.382603910279851e-01
-1.083047839296299e+00  4.382603910279851e-01  9.989366062644412e-18

 1.103762747797299e-17  1.237806631574850e-19 -1.062978742796990e+00
 1.237806631574850e-19  1.113979532334301e-17  4.511572252896383e-01
-1.062978742796990e+00  4.511572252896383e-01  8.967275545565705e-18

 1.091193732008222e-17  1.129436831579977e-19 -1.054503910611445e+00
 1.129436831579977e-19  1.089035440409966e-17  4.542286742983208e-01
-1.054503910611445e+00  4.542286742983208e-01  8.676098617319669e-18

 1.088379441491626e-17  1.214799347977456e-20 -1.050905764996531e+00
 1.214799347977456e-20  1.591054180476043e-17  4.597241423137956e-01
-1.050905764996531e+00  4.597241423137956e-01  8.542068543618045e-18

 1.093443995737390e-17  7.356448849261166e-20 -1.052545990973682e+00
 7.356448849261166e-20  1.141620257382178e-17  4.539933606256978e-01
-1.052545990973682e+00  4.539933606256978e-01  8.676707879344640e-18

 1.091041428503007e-17  6.955119015615348e-20 -1.051969457593262e+00
 6.955119015615348e-20  1.157264137765712e-17  4.574667438482297e-01
-1.051969457593262e+00  4.574667438482297e-01  8.508208630814851e-18

 1.134301284284612e-17  5.210774590183126e-20 -1.071058286135236e+00
 5.210774590183126e-20  1.285707807641955e-17  4.474666960075079e-01
-1.071058286135236e+00  4.474666960075079e-01  9.613514525399138e-18

 1.167904142026960e-17  3.977343635318509e-20 -1.086744644647900e+00
 3.977343635318509e-20  1.345185557690616e-17  4.433251977911720e-01
-1.086744644647900e+00  4.433251977911720e-01  1.052118756901592e-17

 1.167494822195229e-17  4.560815454869662e-20 -1.087751871109213e+00
 4.560815454869662e-20  1.307327292571126e-17  4.572811936486056e-01
-1.087751871109213e+00  4.572811936486056e-01  1.036103117764068e-17

 1.150082415717921e-17  3.785555576002746e-20 -1.082650451411100e+00
 3.785555576002746e-20  1.278546075294764e-17  4.788325168624166e-01
-1.082650451411100e+00  4.788325168624166e-01  9.667703003702153e-18

 1.053239954723296e-17  2.967120238978565e-20 -1.043603389105690e+00
 2.967120238978565e-20  1.053213845447388e-17  5.197409379789700e-01
-1.043603389105690e+00  5.197409379789700e-01  6.650740768311865e-18

 1.158322224110775e-17  1.558063365167157e-20 -1.086506409289224e+00
 1.558063365167157e-20  1.261130923804737e-17  4.803488264832844e-01
-1.086506409289224e+00  4.803488264832844e-01  9.847630795549616e-18

 1.175858777459840e-17  2.720817225758615e-20 -1.093047915764049e+00
 2.720817225758615e-20  1.318098667561408e-17  4.547585035957941e-01
-1.093047915764049e+00  4.547585035957941e-01  1.050863712973216e-17

 1.140514709070371e-17  2.750412964380682e-20 -1.077817969998402e+00
 2.750412964380682e-20  1.343216826952594e-17  4.579817620249755e-01
-1.077817969998402e+00  4.579817620249755e-01  9.516887392364003e-18

 1.117335314554927e-17  3.267309258329792e-20 -1.067145085129123e+00
 3.267309258329792e-20  1.258297758563981e-17  4.650682524951077e-01
-1.067145085129123e+00  4.650682524951077e-01  8.813204340871211e-18

 1.106238682358198e-17  3.508598976725200e-20 -1.063296442872503e+00
 3.508598976725200e-20  1.243449175707298e-17  4.690755109999045e-01
-1.063296442872503e+00  4.690755109999045e-01  8.455651275105751e-18

 1.107345981757620e-17  5.204947406856143e-20 -1.065276910687316e+00
 5.204947406856143e-20  1.286496086552802e-17  4.727542157127844e-01
-1.065276910687316e+00  4.727542157127844e-01  8.321876059198848e-18

 1.119028594415316e-17  9.949959236692106e-20 -1.070419438120629e+00
 9.949959236692106e-20  1.279733305683758e-17  4.665707427652804e-01
-1.070419438120629e+00  4.665707427652804e-01  8.544427005573952e-18

 1.119443201906458e-17  1.285254029801853e-19 -1.069238649795904e+00
 1.285254029801853e-19  1.343402019299833e-17  4.638993214758333e-01
-1.069238649795904e+00  4.638993214758333e-01  8.496611847837921e-18

 1.121066613005528e-17  1.905848282350564e-19 -1.066196939834186e+00
 1.905848282350564e-19  1.283786439528175e-17  4.566668094358142e-01
-1.066196939834186e+00  4.566668094358142e-01  8.535377676116195e-18

 1.127879290763657e-17  2.559260499222765e-19 -1.063683529748366e+00
 2.559260499222765e-19  1.239185916735177e-17  4.505254493211477e-01
-1.063683529748366e+00  4.505254493211477e-01  8.723086060321226e-18

 1.125934946546660e-17  2.937249505645283e-19 -1.054014134218339e+00
 2.937249505645283e-19  1.270620449814816e-17  4.441192744032513e-01
-1.054014134218339e+00  4.441192744032513e-01  8.726237607264956e-18

 1.121012481080156e-17  3.162676914484495e-19 -1.044021782454755e+00
 3.162676914484495e-19  1.316483916004996e-17  4.369300983650675e-01
-1.044021782454755e+00  4.369300983650675e-01  8.709576717571465e-18

 1.108741685209952e-17  3.288470897258335e-19 -1.032715625616538e+00
 3.288470897258335e-19  1.317323109685226e-17  4.372127898058443e-01
-1.032715625616538e+00  4.372127898058443e-01  8.433698437083114e-18

 1.092583718248169e-17  2.981559374235168e-19 -1.020409884689541e+00
 2.981559374235168e-19  1.347690651338776e-17  4.273040543698766e-01
-1.020409884689541e+00  4.273040543698766e-01  8.178004191252665e-18

 1.099729004316558e-17  3.134824088286505e-19 -1.021159700420888e+00
 3.134824088286505e-19  1.247609391654801e-17  4.274961512370049e-01
-1.021159700420888e+00  4.274961512370049e-01  8.386246804069068e-18

 1.115068044703427e-17  3.187600840739457e-19 -1.026032199831304e+00
 3.187600840739457e-19  1.194117430764318e-17  4.309085750985832e-01
-1.026032199831304e+00  4.309085750985832e-01  8.712323885300862e-18

 1.118365467799671e-17  2.838687610018038e-19 -1.027237824304305e+00
 2.838687610018038e-19  1.253291526454834e-17  4.263871473346086e-01
-1.027237824304305e+00  4.263871473346086e-01  8.839182591272478e-18

 1.117020548237343e-17  2.599720280732003e-19 -1.027371367261062e+00
 2.599720280732003e-19  1.293136314715190e-17  4.267247149246502e-01
-1.027371367261062e+00  4.267247149246502e-01  8.795058696687406e-18

 1.122688805778395e-17  2.323334555724487e-19 -1.030907797561301e+00
 2.323334555724487e-19  1.348559038018902e-17  4.242383207767159e-01
-1.030907797561301e+00  4.242383207767159e-01  8.936020836215044e-18

 1.157679748169980e-17  2.309585291364780e-19 -1.047437493358512e+00
 2.309585291364780e-19  1.356493645770484e-17  4.271959526516236e-01
-1.047437493358512e+00  4.271959526516236e-01  9.739963392030784e-18

 1.112121543596577e-17  2.204178512736671e-19 -1.030493567067790e+00
 2.204178512736671e-19  1.367974280024160e-17  4.553848064680456e-01
-1.030493567067790e+00  4.553848064680456e-01  8.216759713487099e-18

 1.155749283616918e-17  2.249630889545650e-19 -1.048003164712431e+00
 2.249630889545650e-19  1.218979303067748e-17  4.368723825065495e-01
-1.048003164712431e+00  4.368723825065495e-01  9.586204642113421e-18

 1.122357093538013e-17  1.592705527938104e-19 -1.033004876013064e+00
 1.592705527938104e-19  1.563021987252745e-17  4.227069563641442e-01
-1.033004876013064e+00  4.227069563641442e-01  8.793139425340695e-18

 1.118213289315503e-17  1.348182102125738e-19 -1.031884654812092e+00
 1.348182102125738e-19  1.565712768041765e-17  4.274404689333503e-01
-1.031884654812092e+00  4.274404689333503e-01  8.565638737625168e-18

 1.197320485487705e-17  1.733271413529510e-19 -1.071065283166843e+00
 1.733271413529510e-19  1.545552493683682e-17  4.376087001260874e-01
-1.071065283166843e+00  4.376087001260874e-01  1.052169766064956e-17

 1.185486518469317e-17  1.394374430263475e-19 -1.066923081710643e+00
 1.394374430263475e-19  1.510516487798286e-17  4.443698742445902e-01
-1.066923081710643e+00  4.443698742445902e-01  1.009043960836775e-17

 1.100886441734967e-17  7.997736018961180e-20 -1.030395722873162e+00
 7.997736018961180e-20  1.560053858750411e-17  4.204979046777879e-01
-1.030395722873162e+00  4.204979046777879e-01  7.967437303701901e-18

 1.232660127392812e-17  1.183977765318126e-19 -1.094266203141928e+00
 1.183977765318126e-19  1.704203057695340e-17  4.309584567904955e-01
-1.094266203141928e+00  4.309584567904955e-01  1.121397001875741e-17

 1.362396411532354e-17  7.987089828994562e-20 -1.153135065458030e+00
 7.987089828994562e-20  1.674164822618430e-17  4.305851394331296e-01
-1.153135065458030e+00  4.305851394331296e-01  1.456499025469987e-17

 1.188321797482582e-17  5.957005359111539e-20 -1.075509679246639e+00
 5.957005359111539e-20  1.358624013936524e-17  4.572642444559770e-01
-1.075509679246639e+00  4.572642444559770e-01  9.757084237781879e-18

 1.195572342775328e-17  1.166699284356189e-19 -1.076324199586424e+00
 1.166699284356189e-19  1.690295156922561e-17  4.162884236943773e-01
-1.076324199586424e+00  4.162884236943773e-01  1.036220199152033e-17

 1.144369302422267e-17  1.024997792100456e-19 -1.050486859974434e+00
 1.024997792100456e-19  1.458162885974956e-17  4.311183425225290e-01
-1.050486859974434e+00  4.311183425225290e-01  9.019339813109075e-18

 1.140730249446487e-17  9.430003634608253e-20 -1.045830280964058e+00
 9.430003634608253e-20  1.257516278519171e-17  4.441008183847677e-01
-1.045830280964058e+00  4.441008183847677e-01  8.912854952545280e-18

 1.122114985207206e-17  5.648857156982854e-20 -1.035864687947634e+00
 5.648857156982854e-20  1.424614006729776e-17  4.504795768500320e-01
-1.035864687947634e+00  4.504795768500320e-01  8.353891936550605e-18

 1.120733726885102e-17  9.266205902603187e-20 -1.033490025289642e+00
 9.266205902603187e-20  1.224774400223596e-17  4.462033551152151e-01
-1.033490025289642e+00  4.462033551152151e-01  8.405062258228531e-18

 1.156051868783921e-17  1.125444322582314e-19 -1.045671598312159e+00
 1.125444322582314e-19  1.283626062546842e-17  4.220559307163926e-01
-1.045671598312159e+00  4.220559307163926e-01  9.576230296687222e-18

 1.101151687592147e-17  7.614267062814773e-20 -1.021083894601697e+00
 7.614267062814773e-20  1.430001578556836e-17  4.407106643021280e-01
-1.021083894601697e+00  4.407106643021280e-01  7.947586221464337e-18

 1.123037681214398e-17  8.422850358553687e-20 -1.027627383291606e+00
 8.422850358553687e-20  1.482973437814421e-17  4.332310692009597e-01
-1.027627383291606e+00  4.332310692009597e-01  8.621731731664929e-18

 1.063713596457743e-17  1.077543405255905e-19 -1.001675246376420e+00
 1.077543405255905e-19  1.139795134476399e-17  4.611293840443655e-01
-1.001675246376420e+00  4.611293840443655e-01  6.771738872028659e-18

 1.099609597520371e-17  1.185920064111326e-19 -1.015345066321879e+00
 1.185920064111326e-19  1.209130951808167e-17  4.414937479985190e-01
-1.015345066321879e+00  4.414937479985190e-01  7.934626591225266e-18

 1.101734739503527e-17  1.283540004302367e-19 -1.013438240764436e+00
 1.283540004302367e-19  1.285340414379139e-17  4.260868555860124e-01
-1.013438240764436e+00  4.260868555860124e-01  8.141376530666692e-18

 1.090307341200067e-17  1.186955504839196e-19 -1.006370077703025e+00
 1.186955504839196e-19  1.254895756112988e-17  4.290769285474756e-01
-1.006370077703025e+00  4.290769285474756e-01  7.830202885897000e-18

 1.100790714354159e-17  1.280993828941843e-19 -1.009179354320718e+00
 1.280993828941843e-19  1.307261172043376e-17  4.275287830256213e-01
-1.009179354320718e+00  4.275287830256213e-01  8.127593693480037e-18

 1.109573322019666e-17  1.069997915069284e-19 -1.011212614682149e+00
 1.069997915069284e-19  1.426211586548510e-17  4.276232058987462e-01
-1.011212614682149e+00  4.276232058987462e-01  8.347343686515410e-18

 1.108928161082150e-17  1.124046868556902e-19 -1.009656885883308e+00
 1.124046868556902e-19  1.386119427722664e-17  4.222052303795427e-01
-1.009656885883308e+00  4.222052303795427e-01  8.386216291835509e-18

 1.106904338282910e-17  1.315658202376525e-19 -1.008046700954359e+00
 1.315658202376525e-19  1.261246994577178e-17  4.216557337117001e-01
-1.008046700954359e+00  4.216557337117001e-01  8.354146748358733e-18

 1.106747513246271e-17  1.064154370581469e-19 -1.006311325474905e+00
 1.064154370581469e-19  1.427324556538723e-17  4.205757647168676e-01
-1.006311325474905e+00  4.205757647168676e-01  8.376866196271901e-18

 1.108477973646184e-17  1.186968738558427e-19 -1.006425884940504e+00
 1.186968738558427e-19  1.250108011821958e-17  4.206287729574315e-01
-1.006425884940504e+00  4.206287729574315e-01  8.452550235724672e-18

 1.109898798389679e-17  7.301667650768863e-20 -1.007397833697699e+00
 7.301667650768863e-20  1.445299181726904e-17  4.215222718366115e-01
-1.007397833697699e+00  4.215222718366115e-01  8.494819345447910e-18

 1.111557183242324e-17  6.176726829439732e-20 -1.009219981406319e+00
 6.176726829439732e-20  1.327806183058218e-17  4.226129648328142e-01
-1.009219981406319e+00  4.226129648328142e-01  8.519464987150564e-18

 1.111853988177781e-17  5.052234645338849e-20 -1.010792159877676e+00
 5.052234645338849e-20  1.339697675861508e-17  4.265710002602441e-01
-1.010792159877676e+00  4.265710002602441e-01  8.487646227461577e-18

 1.120479462632882e-17  2.794662456520949e-20 -1.015741363885581e+00
 2.794662456520949e-20  1.470944866141886e-17  4.211493098027083e-01
-1.015741363885581e+00  4.211493098027083e-01  8.751675683471197e-18

 1.109381880536037e-17  2.542988743545885e-20 -1.011151979299400e+00
 2.542988743545885e-20  1.305278737582321e-17  4.316844466059077e-01
-1.011151979299400e+00  4.316844466059077e-01  8.268647655505087e-18

 1.104624528825095e-17  2.206083485634066e-20 -1.010579956880543e+00
 2.206083485634066e-20  1.369094991376478e-17  4.307983330376730e-01
-1.010579956880543e+00  4.307983330376730e-01  8.225001281465720e-18

 1.113099290418326e-17  1.224778236500342e-20 -1.015115954320850e+00
 1.224778236500342e-20  1.378790229096857e-17  4.293908780689893e-01
-1.015115954320850e+00  4.293908780689893e-01  8.443182468494875e-18

 1.117760549904564e-17  1.673969914218203e-20 -1.018332581590040e+00
 1.673969914218203e-20  1.504412694698904e-17  4.282280494773451e-01
-1.018332581590040e+00  4.282280494773451e-01  8.555471855704773e-18

-2.466858200343149e-17 -3.912392311761744e-20  1.004254615155969e+00
-3.912392311761744e-20  1.401903637187604e-17  4.125406827181761e-01
 1.004254615155969e+00  4.125406827181761e-01 -3.416955896628698e-17

-2.473387143642617e-17 -1.006260756065564e-19  1.007575190396311e+00
-1.006260756065564e-19 -1.851052532961209e-17  4.140126252484265e-01
 1.007575190396311e+00  4.140126252484265e-01 -3.428369453942109e-17

-2.458520809329678e-17 -2.637675029624533e-20  1.000314634347417e+00
-2.637675029624533e-20  1.600807817422496e-17  4.105002306785303e-01
 1.000314634347417e+00  4.105002306785303e-01 -3.403234582045282e-17

-2.448500525444482e-17 -6.448941485528480e-20  9.958173825718462e-01
-6.448941485528480e-20 -1.253820261351776e-17  4.080458881699876e-01
 9.958173825718462e-01  4.080458881699876e-01 -3.387435032901938e-17

-2.478359416089923e-17 -1.333141844723537e-19  1.010608971800314e+00
-1.333141844723537e-19 -3.465303584462003e-17  4.147094236840567e-01
 1.010608971800314e+00  4.147094236840567e-01 -3.438903834335390e-17

-2.481136934535538e-17 -1.338364267178016e-19  1.012429106285969e+00
-1.338364267178016e-19 -3.433916132225390e-17  4.180769397879622e-01
 1.012429106285969e+00  4.180769397879622e-01 -3.445335143054364e-17

-2.461339889619324e-17 -3.558566030093000e-20  9.948723014196952e-01
-3.558566030093000e-20  5.985760963461452e-17  4.347662111655916e-01
 9.948723014196952e-01  4.347662111655916e-01 -3.382720762204766e-17

-2.459806334865573e-17 -8.447687619866927e-20  1.000484319017817e+00
-8.447687619866927e-20  1.082653927987253e-17  4.157357448108028e-01
 1.000484319017817e+00  4.157357448108028e-01 -3.399668718865314e-17

-2.463265530600342e-17 -2.554604044263687e-19  1.002446631778208e+00
-2.554604044263687e-19 -1.186700060433341e-16  4.117670440673003e-01
 1.002446631778208e+00  4.117670440673003e-01 -3.405159753122386e-17

-2.457730733379331e-17 -7.361182906055685e-20  9.969189764867179e-01
-7.361182906055685e-20  4.323279751000437e-17  4.279351083878283e-01
 9.969189764867179e-01  4.279351083878283e-01 -3.387718023005502e-17

-2.469968766210998e-17 -1.157280152034946e-19  1.007240471575905e+00
-1.157280152034946e-19  9.045949310288587e-18  4.165258255019666e-01
 1.007240471575905e+00  4.165258255019666e-01 -3.424319710557422e-17

-2.472732842823834e-17 -9.365542913086926e-20  1.008099115535413e+00
-9.365542913086926e-20  3.686876248795742e-17  4.222201918682031e-01
 1.008099115535413e+00  4.222201918682031e-01 -3.428280874434074e-17

-2.462464473406063e-17 -1.625374335262621e-19  9.996239086923575e-01
-1.625374335262621e-19 -3.293595056919438e-17  4.296272759448066e-01
 9.996239086923575e-01  4.296272759448066e-01 -3.397970556408243e-17

-2.447654916812291e-17 -1.810002230165280e-19  9.940035515810735e-01
-1.810002230165280e-19 -4.907332892144715e-17  4.201480422326546e-01
 9.940035515810735e-01  4.201480422326546e-01 -3.375165250852784e-17

-2.444641866805046e-17 -2.065230581322097e-19  9.926010492815703e-01
-2.065230581322097e-19 -7.710657562606611e-17  4.200042928192051e-01
 9.926010492815703e-01  4.200042928192051e-01 -3.369633311049223e-17

-2.463967672292639e-17 -2.026767441578828e-19  1.002470926260965e+00
-2.026767441578828e-19 -8.219291236831293e-17  4.242849086003969e-01
 1.002470926260965e+00  4.242849086003969e-01 -3.408416209450216e-17

-2.468619117843805e-17 -1.833754043127853e-19  1.004766319252734e+00
-1.833754043127853e-19 -6.507914856814437e-17  4.230677864880441e-01
 1.004766319252734e+00  4.230677864880441e-01 -3.417404113266819e-17

-2.473495527616025e-17 -1.130448916304214e-19  1.009063797775225e+00
-1.130448916304214e-19  4.805856440731058e-17  4.154256088023437e-01
 1.009063797775225e+00  4.154256088023437e-01 -3.432184450207077e-17

-2.469734349960593e-17 -1.445271889217828e-19  1.003281455298729e+00
-1.445271889217828e-19 -3.123247808804127e-19  4.239521053886436e-01
 1.003281455298729e+00  4.239521053886436e-01 -3.413047403932046e-17

-2.477405619376128e-17 -1.486734088184672e-19  1.005999064006101e+00
-1.486734088184672e-19 -5.111100746552368e-17  4.221677445850922e-01
 1.005999064006101e+00  4.221677445850922e-01 -3.423363845324035e-17

-2.486265822944426e-17 -1.252710935843545e-19  1.011641109427770e+00
-1.252710935843545e-19  2.263809614039535e-17  4.219571717559917e-01
 1.011641109427770e+00  4.219571717559917e-01 -3.446544639796951e-17

-2.506503904693639e-17 -1.158798782780789e-19  1.025835715738865e+00
-1.158798782780789e-19  1.993344372200947e-17  4.084546587926224e-01
 1.025835715738865e+00  4.084546587926224e-01 -3.497994310339326e-17

-2.512849202542774e-17 -1.186859220739601e-19  1.026383668525819e+00
-1.186859220739601e-19  1.055180313558028e-16  4.167420192595252e-01
 1.026383668525819e+00  4.167420192595252e-01 -3.502345261506193e-17

-2.524361007078398e-17 -1.120039338620399e-19  1.031543550894241e+00
-1.120039338620399e-19 -7.471254083320587e-19  4.223915322717822e-01
 1.031543550894241e+00  4.223915322717822e-01 -3.522250460301708e-17

-2.513765850598281e-17 -1.090138660435470e-19  1.023474138115416e+00
-1.090138660435470e-19  7.478629119290832e-17  4.210559679485612e-01
 1.023474138115416e+00  4.210559679485612e-01 -3.492624057383838e-17

-2.500409444133011e-17 -1.074259232865021e-19  1.014193666688447e+00
-1.074259232865021e-19  3.978545733101600e-17  4.221028034060482e-01
 1.014193666688447e+00  4.221028034060482e-01 -3.457293112519675e-17

-2.498452076998817e-17 -1.306777234545697e-19  1.011601659324515e+00
-1.306777234545697e-19  6.658396699704657e-17  4.265517080998917e-01
 1.011601659324515e+00  4.265517080998917e-01 -3.446997285740830e-17

-2.520567870873866e-17 -1.302061698993795e-19  1.029559133837408e+00
-1.302061698993795e-19  4.522516643288545e-17  4.114931049848298e-01
 1.029559133837408e+00  4.114931049848298e-01 -3.509779060808123e-17

-2.530838017497159e-17 -1.298672071026687e-19  1.035798624252649e+00
-1.298672071026687e-19 -7.568684770155778e-18  4.139057239998856e-01
 1.035798624252649e+00  4.139057239998856e-01 -3.532185049132897e-17

-2.530025143500792e-17 -1.753845815570185e-19  1.032082100965648e+00
-1.753845815570185e-19  4.797969377793831e-17  4.241021798052128e-01
 1.032082100965648e+00  4.241021798052128e-01 -3.519339647493891e-17

-2.527452623855988e-17 -1.784205993323466e-19  1.028495389834524e+00
-1.784205993323466e-19  2.111784190006547e-17  4.263620763670566e-01
 1.028495389834524e+00  4.263620763670566e-01 -3.505174751587672e-17

-2.516807448614488e-17 -1.452305389189312e-19  1.023817523031909e+00
-1.452305389189312e-19 -5.145311128112576e-17  4.288251367705496e-01
 1.023817523031909e+00  4.288251367705496e-01 -3.488729704364462e-17

-2.509342942984066e-17 -1.809915477906346e-19  1.020960295811352e+00
-1.809915477906346e-19 -5.332534357559917e-18  4.225654549906854e-01
 1.020960295811352e+00  4.225654549906854e-01 -3.477981972520951e-17

-2.511022621665459e-17 -1.716119562278032e-19  1.015796623821551e+00
-1.716119562278032e-19  3.274694495181178e-18  4.311530355412806e-01
 1.015796623821551e+00  4.311530355412806e-01 -3.461485688301039e-17

-2.509738972553595e-17 -1.718976634921111e-19  1.021900725604095e+00
-1.718976634921111e-19  1.377897745159615e-17  4.211379965844330e-01
 1.021900725604095e+00  4.211379965844330e-01 -3.483549660639209e-17

-2.509226803264037e-17 -1.691445191059950e-19  1.019276927440177e+00
-1.691445191059950e-19  2.795309392473013e-17  4.234438447334785e-01
 1.019276927440177e+00  4.234438447334785e-01 -3.474999242500831e-17

-2.513867573946674e-17 -1.554750813520992e-19  1.019761191460539e+00
-1.554750813520992e-19  3.188617771294223e-17  4.210017112093962e-01
 1.019761191460539e+00  4.210017112093962e-01 -3.477397643015453e-17

-2.500697951854170e-17 -1.852211019847068e-19  1.014806779835905e+00
-1.852211019847068e-19  5.520659847343968e-17  4.232552280618166e-01
 1.014806779835905e+00  4.232552280618166e-01 -3.459813178064702e-17

-2.497408159840394e-17 -1.489583254492074e-19  1.013469912620054e+00
-1.489583254492074e-19  2.909838329097348e-17  4.201744090943837e-01
 1.013469912620054e+00  4.201744090943837e-01 -3.455389017080844e-17

-2.493152280078058e-17 -8.015450640837856e-20  1.009298343042168e+00
-8.015450640837856e-20 -8.107996364845937e-17  4.225269746052944e-01
 1.009298343042168e+00  4.225269746052944e-01 -3.441261991711554e-17

-2.496063617599257e-17 -1.436805895830831e-19  1.011814808773923e+00
-1.436805895830831e-19  2.402581237698599e-17  4.201268906955217e-01
 1.011814808773923e+00  4.201268906955217e-01 -3.449726336765625e-17

-2.496313196003752e-17 -9.314577949519967e-20  1.010420575713269e+00
-9.314577949519967e-20 -4.064777360960325e-17  4.219301920977059e-01
 1.010420575713269e+00  4.219301920977059e-01 -3.445006099171010e-17

-2.494967278170973e-17 -1.025356105610472e-19  1.011058494408871e+00
-1.025356105610472e-19 -2.648828972160610e-17  4.181986885898781e-01
 1.011058494408871e+00  4.181986885898781e-01 -3.447531518527497e-17

-2.502465374394216e-17 -1.479715740651805e-19  1.015737319162753e+00
-1.479715740651805e-19  5.420081730952682e-17  4.138778645397032e-01
 1.015737319162753e+00  4.138778645397032e-01 -3.464814998632642e-17

-2.493012185096779e-17 -8.178609961033457e-20  1.005614112022365e+00
-8.178609961033457e-20 -3.029220529768921e-17  4.263071328785677e-01
 1.005614112022365e+00  4.263071328785677e-01 -3.429753906975958e-17

-2.500118908176600e-17 -1.534008945020196e-19  1.011021516170979e+00
-1.534008945020196e-19  8.447043337505273e-17  4.246881496708144e-01
 1.011021516170979e+00  4.246881496708144e-01 -3.448624257328388e-17

-2.500682344724847e-17 -8.671431058816455e-20  1.013634683949938e+00
-8.671431058816455e-20 -4.096756353257120e-17  4.167564980301556e-01
 1.013634683949938e+00  4.167564980301556e-01 -3.457087711261262e-17

-2.500302039918120e-17 -1.359514194775687e-19  1.011212505341858e+00
-1.359514194775687e-19  2.984515456406746e-17  4.174254826415928e-01
 1.011212505341858e+00  4.174254826415928e-01 -3.448672868507594e-17

-2.495922385690785e-17 -7.739944089970378e-20  1.008748072873502e+00
-7.739944089970378e-20 -4.285512914689316e-17  4.212206869771573e-01
 1.008748072873502e+00  4.212206869771573e-01 -3.439437830244795e-17

-2.494107966697912e-17 -1.602095452733623e-19  1.010444354780563e+00
-1.602095452733623e-19  4.329474268016108e-17  4.197944993524831e-01
 1.010444354780563e+00  4.197944993524831e-01 -3.444987772796622e-17

-2.516231893700529e-17 -4.403789294367266e-20  1.008682478562179e+00
-4.403789294367266e-20 -5.846279160049654e-17  4.227898408442870e-01
 1.008682478562179e+00  4.227898408442870e-01 -3.438806539526430e-17

-2.452358462429705e-17 -2.120362028575562e-19  1.011588673441127e+00
-2.120362028575562e-19 -2.042535066003930e-17  4.188727522803836e-01
 1.011588673441127e+00  4.188727522803836e-01 -3.448722396495225e-17

-2.487389988948207e-17 -1.781235380781199e-19  1.009749056358343e+00
-1.781235380781199e-19  4.684307282634630e-17  4.216655568511712e-01
 1.009749056358343e+00  4.216655568511712e-01 -3.442757202274798e-17

-3.588044488200477e-18 -4.781234314031818e-18  1.014866687610060e+00
-4.781234314031818e-18 -8.200709846697489e-17  4.166319530466664e-01
 1.014866687610060e+00  4.166319530466664e-01 -3.461351655878579e-17

 3.628226856350055e-17 -1.354314872773702e-17  1.014101834555987e+00
-1.354314872773702e-17 -5.480220720424474e-17  4.201374856202212e-01
 1.014101834555987e+00  4.201374856202212e-01 -3.458453566560919e-17

 2.028457062412262e-16 -4.986536233263474e-17  1.011093625598777e+00
-4.986536233263474e-17 -2.256797844741782e-17  4.195886423943495e-01
 1.011093625598777e+00  4.195886423943495e-01 -3.447828309374866e-17

-5.517482638648875e-17  6.434417029930499e-18  1.008590534307835e+00
 6.434417029930499e-18 -4.211973273681077e-18  4.253210057896741e-01
 1.008590534307835e+00  4.253210057896741e-01 -3.438954010802560e-17

-2.892136554287938e-17  7.075135628874332e-19  1.007297700185191e+00
 7.075135628874332e-19  3.268820312146957e-17  4.226943884439505e-01
 1.007297700185191e+00  4.226943884439505e-01 -3.434223544420280e-17

-2.354861993709362e-17 -4.335463320444919e-19  1.007133921201770e+00
-4.335463320444919e-19 -2.194640607659443e-17  4.194302151221099e-01
 1.007133921201770e+00  4.194302151221099e-01 -3.433413659117108e-17

-2.512240488654806e-17 -1.492174501430055e-19  1.013583063604709e+00
-1.492174501430055e-19  3.575640015123722e-17  4.204566882363917e-01
 1.013583063604709e+00  4.204566882363917e-01 -3.458345095664390e-17

-2.525730897492046e-17 -1.351816373074330e-19  1.019573611607047e+00
-1.351816373074330e-19  2.201717718503108e-18  4.224286921375106e-01
 1.019573611607047e+00  4.224286921375106e-01 -3.480820185249981e-17

-2.534823777938320e-17 -1.638343006870513e-19  1.022075077438213e+00
-1.638343006870513e-19  3.253816168945858e-17  4.192620573146160e-01
 1.022075077438213e+00  4.192620573146160e-01 -3.490018779238208e-17

-2.527383375057714e-17 -1.096113948264669e-19  1.015517923967029e+00
-1.096113948264669e-19 -9.262425613830116e-18  4.215033524715448e-01
 1.015517923967029e+00  4.215033524715448e-01 -3.466619867537175e-17

-2.518776541045504e-17 -1.393282353647042e-19  1.010395090451398e+00
-1.393282353647042e-19  1.502029443159530e-17  4.251666576785932e-01
 1.010395090451398e+00  4.251666576785932e-01 -3.449424821264801e-17

-2.527579831460424e-17 -1.069621463229231e-19  1.019460120220351e+00
-1.069621463229231e-19 -2.373579909128770e-17  4.174768991338653e-01
 1.019460120220351e+00  4.174768991338653e-01 -3.481715796362674e-17

-2.527702372704206e-17 -1.200410570191384e-19  1.016480320435265e+00
-1.200410570191384e-19  8.827849411500148e-18  4.206857715636685e-01
 1.016480320435265e+00  4.206857715636685e-01 -3.471682063077817e-17

-2.528378953681913e-17 -1.325147941611522e-19  1.017655238869031e+00
-1.325147941611522e-19  1.755728213482927e-17  4.166890583354355e-01
 1.017655238869031e+00  4.166890583354355e-01 -3.476435304648610e-17

-2.524245097387371e-17 -1.117993671521726e-19  1.011918602739201e+00
-1.117993671521726e-19  1.030078242029836e-17  4.236120100802926e-01
 1.011918602739201e+00  4.236120100802926e-01 -3.457562248024579e-17

-2.529287735922373e-17 -8.305109290239197e-20  1.015570577042881e+00
-8.305109290239197e-20  1.442629644367857e-18  4.191047389324313e-01
 1.015570577042881e+00  4.191047389324313e-01 -3.470756941591689e-17

-2.528450064087793e-17 -7.413858180333984e-20  1.014747854684089e+00
-7.413858180333984e-20  1.849047104122638e-18  4.165680542013231e-01
 1.014747854684089e+00  4.165680542013231e-01 -3.468279764403378e-17

-2.531620988767365e-17 -1.434131353370167e-19  1.014278579412156e+00
-1.434131353370167e-19  5.110328936788449e-17  4.219016563898865e-01
 1.014278579412156e+00  4.219016563898865e-01 -3.467472357202504e-17

-2.536369924240725e-17 -9.103405093274483e-21  1.016999005872631e+00
-9.103405093274483e-21 -6.207665906527674e-17  4.179019860410457e-01
 1.016999005872631e+00  4.179019860410457e-01 -3.477795604373794e-17

-2.537903685234879e-17 -8.382363417301265e-20  1.017927703059396e+00
-8.382363417301265e-20  4.685221820874358e-18  4.171378728102645e-01
 1.017927703059396e+00  4.171378728102645e-01 -3.480859660037894e-17

-2.541746241071929e-17  1.092035914860205e-20  1.018487578044252e+00
 1.092035914860205e-20 -7.174974901778539e-17  4.173357018641233e-01
 1.018487578044252e+00  4.173357018641233e-01 -3.482816221743812e-17

-2.541801314033490e-17 -1.119378922178213e-19  1.017046362435253e+00
-1.119378922178213e-19  2.659978526757892e-17  4.172849410803152e-01
 1.017046362435253e+00  4.172849410803152e-01 -3.477678377168145e-17

-2.535915086775167e-17 -1.719920105618027e-20  1.013733294333550e+00
-1.719920105618027e-20 -6.358067263650498e-17  4.184859420916751e-01
 1.013733294333550e+00  4.184859420916751e-01 -3.465911330814059e-17

-2.538871212005273e-17 -1.890114486740797e-20  1.015436030779745e+00
-1.890114486740797e-20 -6.247765873514584e-17  4.180352855060591e-01
 1.015436030779745e+00  4.180352855060591e-01 -3.472845503013121e-17

-2.542651912841765e-17 -6.145878130250231e-20  1.017193663712679e+00
-6.145878130250231e-20  3.886729410306404e-18  4.165656202363294e-01
 1.017193663712679e+00  4.165656202363294e-01 -3.479381208910093e-17

-2.542425622252854e-17 -8.059036490953752e-20  1.011984351886961e+00
-8.059036490953752e-20 -2.095104086891147e-18  4.183698159749295e-01
 1.011984351886961e+00  4.183698159749295e-01 -3.461168198451020e-17

-2.536094495255796e-17 -6.312373810379416e-20  1.010655390962627e+00
-6.312373810379416e-20 -1.307230189553865e-17  4.177274657320472e-01
 1.010655390962627e+00  4.177274657320472e-01 -3.456998207411471e-17

-2.539404128873913e-17 -1.706578105654096e-19  1.012662714883505e+00
-1.706578105654096e-19  1.111453130686924e-16  4.182229895487169e-01
 1.012662714883505e+00  4.182229895487169e-01 -3.464108267031356e-17

-2.543743945995313e-17 -6.312451547857673e-20  1.013097935758783e+00
-6.312451547857673e-20  3.151854483973632e-17  4.165571046789785e-01
 1.013097935758783e+00  4.165571046789785e-01 -3.465932943417325e-17

-2.542785937532736e-17 -7.221382197414910e-21  1.013944601561878e+00
-7.221382197414910e-21 -4.596246854335044e-17  4.158525030758036e-01
 1.013944601561878e+00  4.158525030758036e-01 -3.469586319258912e-17

-2.546392225857290e-17 -7.497339698331667e-21  1.015861328479522e+00
-7.497339698331667e-21 -2.478176742156843e-17  4.132870488210123e-01
 1.015861328479522e+00  4.132870488210123e-01 -3.476625925744795e-17

-2.548548444514126e-17 -6.781615167603517e-20  1.010810287241373e+00
-6.781615167603517e-20  6.434741911078289e-17  4.177808169264628e-01
 1.010810287241373e+00  4.177808169264628e-01 -3.458781679210663e-17

-2.538344455127903e-17 -1.212262406327745e-20  1.008435740246185e+00
-1.212262406327745e-20 -2.567275919597909e-17  4.157126205217059e-01
 1.008435740246185e+00  4.157126205217059e-01 -3.449926862510243e-17

-2.534466190816943e-17 -9.015941007892565e-20  1.002476293913887e+00
-9.015941007892565e-20  6.882994178219684e-17  4.202600582702366e-01
 1.002476293913887e+00  4.202600582702366e-01 -3.428805179542514e-17

-2.549861026672758e-17  1.238872888155464e-20  1.011161517783299e+00
 1.238872888155464e-20 -1.027195739431094e-16  4.134586018730024e-01
 1.011161517783299e+00  4.134586018730024e-01 -3.459992660531605e-17

-2.556785787982673e-17 -5.371376872616707e-20  1.018673722257473e+00
-5.371376872616707e-20  4.668889523673962e-17  4.119177109733015e-01
 1.018673722257473e+00  4.119177109733015e-01 -3.487590442949392e-17

-2.541182536710305e-17 -3.121537387049110e-20  1.005730977804477e+00
-3.121537387049110e-20  1.179902128727343e-17  4.170117334526182e-01
 1.005730977804477e+00  4.170117334526182e-01 -3.441005422853625e-17

-2.542175847770879e-17  6.418366197731478e-21  1.003571664308056e+00
 6.418366197731478e-21 -8.812032494196202e-17  4.207854381771918e-01
 1.003571664308056e+00  4.207854381771918e-01 -3.433677812400473e-17

-2.563482782746848e-17 -4.213234431858920e-20  1.016602621435286e+00
-4.213234431858920e-20  2.433618957987124e-17  4.063758629652443e-01
 1.016602621435286e+00  4.063758629652443e-01 -3.479934726141322e-17

-2.563611314539719e-17 -2.947664095016560e-20  1.015376246773993e+00
-2.947664095016560e-20 -3.791890130956143e-17  4.120571831015706e-01
 1.015376246773993e+00  4.120571831015706e-01 -3.477277907272843e-17

-2.580903940601711e-17  4.443514840424702e-21  1.027151971658939e+00
 4.443514840424702e-21 -4.673148668434505e-17  4.061077076512222e-01
 1.027151971658939e+00  4.061077076512222e-01 -3.519940388441423e-17

-2.573477900549434e-17 -5.840651963850428e-20  1.021416200702368e+00
-5.840651963850428e-20  6.255832567449883e-17  4.039440738444896e-01
 1.021416200702368e+00  4.039440738444896e-01 -3.499292869281650e-17

-2.550168580820501e-17 -5.373557985490159e-20  1.001674065001821e+00
-5.373557985490159e-20  1.362813423354357e-16  4.209241808505217e-01
 1.001674065001821e+00  4.209241808505217e-01 -3.427719477788956e-17

-2.541450228203274e-17 -1.274242983550543e-20  9.937548509587177e-01
-1.274242983550543e-20  2.153525369226079e-17  4.229679007678414e-01
 9.937548509587177e-01  4.229679007678414e-01 -3.398059098483873e-17

-2.546089765297021e-17 -2.034246065748277e-20  1.001330167605295e+00
-2.034246065748277e-20  5.097289927617605e-17  4.078967031970913e-01
 1.001330167605295e+00  4.078967031970913e-01 -3.423671914573911e-17

-2.558867479015565e-17 -6.485057014910710e-21  1.008930167924661e+00
-6.485057014910710e-21 -4.359910766988888e-17  4.057328443450195e-01
 1.008930167924661e+00  4.057328443450195e-01 -3.451085768101989e-17

-2.551151514618314e-17  9.158240705433433e-21  9.988441606467064e-01
 9.158240705433433e-21 -1.161383859104300e-16  4.234622113702704e-01
 9.988441606467064e-01  4.234622113702704e-01 -3.416944714661117e-17

-2.555814667522469e-17 -4.086737075886429e-21  1.001836681081603e+00
-4.086737075886429e-21 -5.814785800034395e-17  4.136246879925653e-01
 1.001836681081603e+00  4.136246879925653e-01 -3.426561673512765e-17

-2.559945881842203e-17 -4.781232272890676e-20  9.957133142011085e-01
-4.781232272890676e-20 -2.483871880574667e-17  4.299568268198474e-01
 9.957133142011085e-01  4.299568268198474e-01 -3.406445864509027e-17

-2.566896692197804e-17 -8.328210016614976e-21  1.004685046284338e+00
-8.328210016614976e-21  6.315076027092058e-17  4.145221672476282e-01
 1.004685046284338e+00  4.145221672476282e-01 -3.437460732702545e-17

-2.576231280270511e-17 -4.837656529250375e-20  1.007171084399765e+00
-4.837656529250375e-20 -5.547183283600613e-17  4.142974435223482e-01
 1.007171084399765e+00  4.142974435223482e-01 -3.446424577937748e-17

-2.582376083202663e-17 -4.983680688990031e-20  1.008634344527838e+00
-4.983680688990031e-20 -5.534036601646125e-17  4.223740817321123e-01
 1.008634344527838e+00  4.223740817321123e-01 -3.452419050154838e-17

-2.565709688543424e-17 -1.622920682885468e-20  9.987468423878153e-01
-1.622920682885468e-20  4.330972016606815e-17  4.099000226838034e-01
 9.987468423878153e-01  4.099000226838034e-01 -3.413596653957155e-17

-2.587170137169346e-17 -3.893460863593275e-20  1.016936275942815e+00
-3.893460863593275e-20  5.678132264653863e-17  3.869386918084969e-01
 1.016936275942815e+00  3.869386918084969e-01 -3.475722049052787e-17

-2.574464405185078e-17 -6.092335781483819e-20  9.910759481904469e-01
-6.092335781483819e-20  1.695535168767366e-16  4.357327722472823e-01
 9.910759481904469e-01  4.357327722472823e-01 -3.389672670505710e-17

-2.597147994927747e-17 -4.282004396953686e-20  1.011653945844110e+00
-4.282004396953686e-20 -8.718368723736842e-17  4.238173402895636e-01
 1.011653945844110e+00  4.238173402895636e-01 -3.463224860389559e-17

-2.588574099351285e-17 -4.450934742301207e-20  1.006525042527107e+00
-4.450934742301207e-20  3.478894933380332e-17  4.133341602463776e-01
 1.006525042527107e+00  4.133341602463776e-01 -3.442459229944382e-17

-2.576608794870135e-17 -7.101135685673467e-20  9.967267396214881e-01
-7.101135685673467e-20 -1.815039606424903e-16  4.172782501415237e-01
 9.967267396214881e-01  4.172782501415237e-01 -3.406310126423268e-17

-2.574817001226929e-17 -8.083371923185766e-20  9.929112262535705e-01
-8.083371923185766e-20 -1.228750808898313e-16  4.208208090654118e-01
 9.929112262535705e-01  4.208208090654118e-01 -3.392138559559737e-17

-2.586090461838551e-17 -6.877487004493900e-20  9.990793553914648e-01
-6.877487004493900e-20 -5.808679996528743e-17  4.135366690274909e-01
 9.990793553914648e-01  4.135366690274909e-01 -3.413635148031550e-17

-2.579679263351928e-17 -5.804839085207413e-20  9.920453713280816e-01
-5.804839085207413e-20  1.253392271575279e-16  4.209093818367634e-01
 9.920453713280816e-01  4.209093818367634e-01 -3.389230102399737e-17

-2.582398295086503e-17 -6.456857078598608e-20  9.916199670442094e-01
-6.456857078598608e-20  1.180949636558345e-16  4.220848622656926e-01
 9.916199670442094e-01  4.220848622656926e-01 -3.388508217127756e-17

-2.594104320378154e-17 -6.702460511933169e-20  1.000083541508025e+00
-6.702460511933169e-20  1.405094565638593e-16  4.149053474188803e-01
 1.000083541508025e+00  4.149053474188803e-01 -3.418356867050147e-17

-2.598630617819645e-17 -8.539899424544525e-20  9.988834472284157e-01
-8.539899424544525e-20 -9.848634306192281e-17  4.191229797573455e-01
 9.988834472284157e-01  4.191229797573455e-01 -3.414552522454918e-17

-2.605828598147596e-17 -9.027137968433846e-20  1.001678043163651e+00
-9.027137968433846e-20 -1.512445131558024e-16  4.152887189214757e-01
 1.001678043163651e+00  4.152887189214757e-01 -3.424440042329044e-17

-2.601421715969246e-17 -6.160382598265959e-20  9.982729100460870e-01
-6.160382598265959e-20 -1.521655135836836e-17  4.174108691952972e-01
 9.982729100460870e-01  4.174108691952972e-01 -3.412350615958003e-17

-2.607319088041871e-17 -1.030205426152463e-19  9.997104433376190e-01
-1.030205426152463e-19 -2.796358532552836e-17  4.174683233797816e-01
 9.997104433376190e-01  4.174683233797816e-01 -3.418233174524093e-17

-2.619817896195783e-17 -9.482011448128846e-20  1.004666528815294e+00
-9.482011448128846e-20 -1.442497031213216e-16  4.144891124069865e-01
 1.004666528815294e+00  4.144891124069865e-01 -3.435930403762861e-17

-2.620145018007609e-17 -8.890230816150823e-20  1.003578356319263e+00
-8.890230816150823e-20 -4.549910652304442e-17  4.171603021266791e-01
 1.003578356319263e+00  4.171603021266791e-01 -3.432807399374172e-17

-2.620656963436601e-17 -1.176578901741866e-19  1.002150757864765e+00
-1.176578901741866e-19 -1.365828244983984e-17  4.155586110924608e-01
 1.002150757864765e+00  4.155586110924608e-01 -3.428144166248419e-17

-2.616763728419097e-17 -1.530978858863733e-19  9.965546675674239e-01
-1.530978858863733e-19  9.931112233365934e-17  4.182492666704815e-01
 9.965546675674239e-01  4.182492666704815e-01 -3.408593019361094e-17

-2.612363970930140e-17 -1.412262457519359e-19  9.925178452357537e-01
-1.412262457519359e-19  9.113669187168875e-18  4.194831672624775e-01
 9.925178452357537e-01  4.194831672624775e-01 -3.394056830570049e-17

-2.611558747316278e-17 -9.639024130263675e-20  9.900626129916590e-01
-9.639024130263675e-20  8.617279016638678e-17  4.153805881632694e-01
 9.900626129916590e-01  4.153805881632694e-01 -3.385809692015008e-17

-2.618219379263293e-17 -9.790235044094441e-20  9.924075513926955e-01
-9.790235044094441e-20 -1.684619247270083e-17  4.151186510882292e-01
 9.924075513926955e-01  4.151186510882292e-01 -3.396060846116976e-17

-2.623205416243320e-17 -1.060499629360971e-19  9.942371280460640e-01
-1.060499629360971e-19  1.200007716820888e-17  4.163104033316222e-01
 9.942371280460640e-01  4.163104033316222e-01 -3.403871987744860e-17

-2.626694029213070e-17 -1.260793442492999e-19  9.930462687211119e-01
-1.260793442492999e-19 -1.407019391053285e-16  4.169438832584490e-01
 9.930462687211119e-01  4.169438832584490e-01 -3.401995699073935e-17

-2.633790208036203e-17 -1.004713792715391e-19  9.934102698961559e-01
-1.004713792715391e-19  3.158747047586185e-17  4.126962837085936e-01
 9.934102698961559e-01  4.126962837085936e-01 -3.404942550357413e-17

-2.627560870424702e-17 -1.176303418535320e-19  9.897824657322387e-01
-1.176303418535320e-19  2.201725297600589e-17  4.126155531512885e-01
 9.897824657322387e-01  4.126155531512885e-01 -3.394039688054819e-17

-2.631407475178716e-17 -1.074197853999002e-19  9.899386884457974e-01
-1.074197853999002e-19  4.258654347312109e-17  4.100110656424102e-01
 9.899386884457974e-01  4.100110656424102e-01 -3.399270634475554e-17

-2.630619247162957e-17 -1.323201070340418e-19  9.814621101676075e-01
-1.323201070340418e-19  4.305743109130714e-17  4.211810169469137e-01
 9.814621101676075e-01  4.211810169469137e-01 -3.374983356961098e-17

-2.633631352039890e-17 -6.036319015047287e-20  9.820984156884305e-01
-6.036319015047287e-20  6.974297733452572e-17  4.143509721382557e-01
 9.820984156884305e-01  4.143509721382557e-01 -3.380339679683571e-17

-2.642029267975580e-17  2.260855845691979e-20  9.824465994257798e-01
 2.260855845691979e-20 -4.093709765862923e-17  4.052027288520426e-01
 9.824465994257798e-01  4.052027288520426e-01 -3.386048225279878e-17

-2.658931807875815e-17  9.237220942745702e-20  9.842370058710698e-01
 9.237220942745702e-20 -5.678305704911750e-17  4.068793066019037e-01
 9.842370058710698e-01  4.068793066019037e-01 -3.400481162401238e-17

-2.687789497818202e-17  1.446907631062384e-19  9.933221741616386e-01
 1.446907631062384e-19 -7.274533249141938e-17  4.059442484343028e-01
 9.933221741616386e-01  4.059442484343028e-01 -3.438565650665562e-17

-2.723184363440110e-17  1.342412284172679e-19  1.001919845015168e+00
 1.342412284172679e-19 -2.910742217876166e-17  4.099524420789524e-01
 1.001919845015168e+00  4.099524420789524e-01 -3.472653139505659e-17

-2.732184914563629e-17  1.408191580296956e-19  9.982540817288156e-01
 1.408191580296956e-19  1.529163293435826e-17  4.076965256921127e-01
 9.982540817288156e-01  4.076965256921127e-01 -3.458912070083323e-17

-2.746117610260741e-17  1.337264248697957e-19  9.956983927435344e-01
 1.337264248697957e-19 -9.027398863631980e-18  4.197021847677550e-01
 9.956983927435344e-01  4.197021847677550e-01 -3.451130477593560e-17

-2.782691394843899e-17  1.454479799920467e-19  1.018065388537995e+00
 1.454479799920467e-19 -2.520556086228222e-17  4.036099214568885e-01
 1.018065388537995e+00  4.036099214568885e-01 -3.531706283603337e-17

-2.796132061301749e-17  1.440820840062639e-19  1.018897736140048e+00
 1.440820840062639e-19 -3.824741649154289e-17  4.159862663589112e-01
 1.018897736140048e+00  4.159862663589112e-01 -3.537059709989399e-17

-2.796845636041265e-17  1.454006557777644e-19  1.010462802982750e+00
 1.454006557777644e-19  6.710025721129837e-18  4.137046889361138e-01
 1.010462802982750e+00  4.137046889361138e-01 -3.507667158088982e-17

-2.828525357748176e-17  1.587454337304351e-19  1.021162308228575e+00
 1.587454337304351e-19 -3.734043856626794e-17  4.150899487339804e-01
 1.021162308228575e+00  4.150899487339804e-01 -3.550470691224040e-17

-2.861081022279767e-17  1.794689926930900e-19  1.029665413432441e+00
 1.794689926930900e-19 -3.135686320724182e-17  4.148329172698340e-01
 1.029665413432441e+00  4.148329172698340e-01 -3.587333543241231e-17

-2.839602463928576e-17  1.159997771549926e-19  9.913720384765292e-01
 1.159997771549926e-19  8.195530259811209e-17  4.537341427215400e-01
 9.913720384765292e-01  4.537341427215400e-01 -3.455212272311018e-17

-2.861640143750816e-17  1.205599785287042e-19  1.012247245575767e+00
 1.205599785287042e-19  9.296913108683687e-17  4.235849221604815e-01
 1.012247245575767e+00  4.235849221604815e-01 -3.529964696720000e-17

-2.885786444653203e-17  1.634625395428150e-19  1.021086398789434e+00
 1.634625395428150e-19  3.377663652454281e-17  4.205408793814817e-01
 1.021086398789434e+00  4.205408793814817e-01 -3.566332165911233e-17

-2.908501081754364e-17  2.031669481611415e-19  1.028245775873087e+00
 2.031669481611415e-19  9.132272022536869e-17  4.180963752732393e-01
 1.028245775873087e+00  4.180963752732393e-01 -3.596349230364891e-17

-2.886416467907960e-17  2.049516091436745e-19  9.997840491423778e-01
 2.049516091436745e-19 -1.985955467136774e-17  4.330299144754771e-01
 9.997840491423778e-01  4.330299144754771e-01 -3.497495685569055e-17

-2.919980830451771e-17  3.064539971199134e-19  1.022022971903748e+00
 3.064539971199134e-19 -1.894469876545859e-16  4.126735917591889e-01
 1.022022971903748e+00  4.126735917591889e-01 -3.578658645510222e-17

-2.927581005529639e-17  3.069069611845410e-19  1.018507305955914e+00
 3.069069611845410e-19 -8.613721454180743e-17  4.185198159810073e-01
 1.018507305955914e+00  4.185198159810073e-01 -3.570413783102995e-17

-2.929071567522597e-17  3.586728454313242e-19  1.009173535726273e+00
 3.586728454313242e-19 -8.507201709463914e-17  4.236838135029649e-01
 1.009173535726273e+00  4.236838135029649e-01 -3.541121621668467e-17

-2.966703253697687e-17  2.359922057135415e-19  1.027844029606064e+00
 2.359922057135415e-19  1.053179261761154e-17  4.138184041407357e-01
 1.027844029606064e+00  4.138184041407357e-01 -3.612889069673358e-17

-2.985524571187382e-17  3.058416983246357e-19  1.028118630914364e+00
 3.058416983246357e-19  5.816970453107540e-17  4.173606657201577e-01
 1.028118630914364e+00  4.173606657201577e-01 -3.620209125696262e-17

-2.968555389191471e-17  4.091682307470940e-19  9.986500891802353e-01
 4.091682307470940e-19 -1.103845082222363e-16  4.352859782266929e-01
 9.986500891802353e-01  4.352859782266929e-01 -3.519617092796831e-17

-2.977104318780014e-17  4.452177366466232e-19  9.958807596423510e-01
 4.452177366466232e-19 -3.530282649905004e-17  4.351337199552264e-01
 9.958807596423510e-01  4.351337199552264e-01 -3.513911861586503e-17

-3.045091004648014e-17  4.669541024289955e-19  1.038314349523882e+00
 4.669541024289955e-19 -1.250427038060691e-16  4.105432500040138e-01
 1.038314349523882e+00  4.105432500040138e-01 -3.671606220460057e-17

-3.033218803618913e-17  4.617030347316395e-19  1.008303804312090e+00
 4.617030347316395e-19 -2.238442996712696e-18  4.310296715661470e-01
 1.008303804312090e+00  4.310296715661470e-01 -3.571485604058757e-17

-3.076977320269281e-17  5.873521256196311e-19  1.010691174476023e+00
 5.873521256196311e-19  8.906929799111941e-17  4.190645098586738e-01
 1.010691174476023e+00  4.190645098586738e-01 -3.593465207122798e-17

-3.143474167872510e-17  7.005455309260290e-19  1.028564489303474e+00
 7.005455309260290e-19  8.047464727691207e-19  3.960220509739297e-01
 1.028564489303474e+00  3.960220509739297e-01 -3.672313125013634e-17

-3.166430064407605e-17  7.754789765298818e-19  1.026258766457994e+00
 7.754789765298818e-19 -3.420096799899542e-17  3.893604855883903e-01
 1.026258766457994e+00  3.893604855883903e-01 -3.670287848530244e-17

-3.171023498417950e-17  8.302850863324545e-19  9.951987168657311e-01
 8.302850863324545e-19 -2.184034600652439e-17  4.278568570903172e-01
 9.951987168657311e-01  4.278568570903172e-01 -3.574365235728649e-17

-3.220875889561511e-17  1.022790787175480e-18  9.980340864860030e-01
 1.022790787175480e-18 -2.052355347588041e-16  4.070302913579638e-01
 9.980340864860030e-01  4.070302913579638e-01 -3.597961372810105e-17

-3.307920921020815e-17  1.064460771655989e-18  1.011409430081470e+00
 1.064460771655989e-18 -3.554490861538833e-17  4.295074768747907e-01
 1.011409430081470e+00  4.295074768747907e-01 -3.670562416709424e-17

-3.367239517519834e-17  1.265509685182393e-18  1.005068225924701e+00
 1.265509685182393e-18 -3.697299946336384e-17  4.157283665309687e-01
 1.005068225924701e+00  4.157283665309687e-01 -3.670248397941979e-17

-3.406018330696710e-17  1.409471155147134e-18  9.960319876029672e-01
 1.409471155147134e-18 -7.357558419349311e-17  4.228017863824174e-01
 9.960319876029672e-01  4.228017863824174e-01 -3.653205849667878e-17

-3.449736812422974e-17  1.554537706065290e-18  9.982024849098956e-01
 1.554537706065290e-18  3.802321340914281e-17  4.175854025842574e-01
 9.982024849098956e-01  4.175854025842574e-01 -3.674048936587890e-17

-3.509659264711739e-17  1.689961898151150e-18  1.000709312905654e+00
 1.689961898151150e-18 -3.839475707408160e-17  4.175816590418406e-01
 1.000709312905654e+00  4.175816590418406e-01 -3.701575773646626e-17

-3.572776316206293e-17  1.837157880512017e-18  9.991246560318473e-01
 1.837157880512017e-18 -5.478428417903579e-17  4.243093672256676e-01
 9.991246560318473e-01  4.243093672256676e-01 -3.717922483059644e-17

-3.656931001545333e-17  2.016155681183188e-18  1.002400978590841e+00
 2.016155681183188e-18  3.692630320862781e-17  4.174138819736422e-01
 1.002400978590841e+00  4.174138819736422e-01 -3.755866173741292e-17

-3.772370107154525e-17  2.345438697646508e-18  1.002704644326654e+00
 2.345438697646508e-18  7.671637166892175e-17  4.201141441391098e-01
 1.002704644326654e+00  4.201141441391098e-01 -3.794944133751438e-17

-3.912997259087266e-17  2.760735501920715e-18  1.004824273084261e+00
 2.760735501920715e-18  7.422767193968201e-17  4.180254772525911e-01
 1.004824273084261e+00  4.180254772525911e-01 -3.851079725472563e-17

-4.045474408468798e-17  3.217189763288834e-18  1.003472274083606e+00
 3.217189763288834e-18 -1.631483561710786e-16  4.246667193515743e-01
 1.003472274083606e+00  4.246667193515743e-01 -3.891499045150874e-17

-4.168240223090410e-17  3.684449159845423e-18  1.008957214272250e+00
 3.684449159845423e-18 -1.117928362388854e-16  4.116280390232570e-01
 1.008957214272250e+00  4.116280390232570e-01 -3.950674288043171e-17

-4.267321859557883e-17  3.993582904733343e-18  9.987292059675550e-01
 3.993582904733343e-18 -1.531907041708787e-16  4.233274196161769e-01
 9.987292059675550e-01  4.233274196161769e-01 -3.952735069049697e-17

-4.378346762290525e-17  4.343867805426792e-18  9.987130603190439e-01
 4.343867805426792e-18 -1.418412584471511e-16  4.226338837416068e-01
 9.987130603190439e-01  4.226338837416068e-01 -3.991366278091776e-17

-4.507368721914006e-17  4.802363975306198e-18  9.928637222660260e-01
 4.802363975306198e-18  6.036586278096158e-17  4.227503676163747e-01
 9.928637222660260e-01  4.227503676163747e-01 -4.018091564033927e-17

-4.630495586096469e-17  5.291757434292920e-18  1.001388236687858e+00
 5.291757434292920e-18 -3.844071016861189e-17  4.125828671404871e-01
 1.001388236687858e+00  4.125828671404871e-01 -4.088321499537816e-17

-4.754734723944634e-17  5.769006557666686e-18  9.958845886429388e-01
 5.769006557666686e-18 -5.540176658182967e-17  4.199656260319739e-01
 9.958845886429388e-01  4.199656260319739e-01 -4.113828047849052e-17

-4.895110195306374e-17  6.206687692382326e-18  9.972161636410921e-01
 6.206687692382326e-18 -3.848045266661312e-17  4.186960885441018e-01
 9.972161636410921e-01  4.186960885441018e-01 -4.166879876275465e-17

-5.067337234195301e-17  6.845264916867107e-18  1.002841728354745e+00
 6.845264916867107e-18 -3.923702542382033e-17  4.160752648104335e-01
 1.002841728354745e+00  4.160752648104335e-01 -4.243626133494864e-17

-5.273989516368761e-17  7.664587673955072e-18  1.008290353640156e+00
 7.664587673955072e-18 -1.522692648156509e-16  4.124393968688031e-01
 1.008290353640156e+00  4.124393968688031e-01 -4.330550405469582e-17

-5.460093789825690e-17  8.321011099382994e-18  1.019133772666537e+00
 8.321011099382994e-18 -2.380215396143163e-16  4.047393191530112e-01
 1.019133772666537e+00  4.047393191530112e-01 -4.428128301250678e-17

-5.870189621698346e-17  9.819542970257331e-18  1.009356996756989e+00
 9.819542970257331e-18  1.422735235427295e-16  4.168792230591497e-01
 1.009356996756989e+00  4.168792230591497e-01 -4.535511030279324e-17

-6.224453903347161e-17  1.152051962536909e-17  9.842071936024906e-01
 1.152051962536909e-17 -1.204467117335683e-16  4.367327940284828e-01
 9.842071936024906e-01  4.367327940284828e-01 -4.574617165201882e-17

-6.436705981376106e-17  1.237228187449455e-17  9.966032761369578e-01
 1.237228187449455e-17 -2.146002528306544e-16  4.255084721804300e-01
 9.966032761369578e-01  4.255084721804300e-01 -4.683067785009712e-17

-6.846429128290090e-17  1.405553115792044e-17  1.017438089939820e+00
 1.405553115792044e-17 -3.828667772029606e-17  4.119104573628293e-01
 1.017438089939820e+00  4.119104573628293e-01 -4.886298418580635e-17

-7.559748287634639e-17  1.709528906955168e-17  1.015849914789182e+00
 1.709528906955168e-17  7.593831651569998e-17  4.202490362318493e-01
 1.015849914789182e+00  4.202490362318493e-01 -5.116818011070019e-17

-8.287906490997821e-17  2.054723213945130e-17  1.016929759485031e+00
 2.054723213945130e-17 -1.181303993968943e-16  4.188150538333406e-01
 1.016929759485031e+00  4.188150538333406e-01 -5.358288403311580e-17

-8.844592913432710e-17  2.315865719631997e-17  1.016322250239150e+00
 2.315865719631997e-17 -2.751830104992488e-16  4.273898242754989e-01
 1.016322250239150e+00  4.273898242754989e-01 -5.538185035179094e-17

-9.692507272837039e-17  2.672393900069337e-17  1.033709680822635e+00
 2.672393900069337e-17  1.526496751350344e-16  4.113616617840764e-01
 1.033709680822635e+00  4.113616617840764e-01 -5.866980284267060e-17

-1.098267644718667e-16  3.264947151535256e-17  1.047364217724713e+00
 3.264947151535256e-17  1.319760549048347e-16  4.208581598956108e-01
 1.047364217724713e+00  4.208581598956108e-01 -6.329101337580057e-17

-1.172842540368027e-16  3.638280082186362e-17  1.029806339748434e+00
 3.638280082186362e-17 -2.907828763691113e-16  4.454873392709736e-01
 1.029806339748434e+00  4.454873392709736e-01 -6.511947542172126e-17

-1.268947365347348e-16  4.161053199242251e-17  1.049811653129200e+00
 4.161053199242251e-17 -1.932531921935619e-16  4.253172725530163e-01
 1.049811653129200e+00  4.253172725530163e-01 -6.875503347259332e-17

-1.495240340932005e-16  5.419615660775425e-17  1.039092829725933e+00
 5.419615660775425e-17 -2.253489123473530e-16  4.181898173715293e-01
 1.039092829725933e+00  4.181898173715293e-01 -7.541920079323336e-17

-1.948552900998651e-16  7.958095590094431e-17  1.023556138692695e+00
 7.958095590094431e-17 -4.065042169727642e-16  4.237493681441257e-01
 1.023556138692695e+00  4.237493681441257e-01 -8.864777319607536e-17

-2.508018657213050e-16  1.108350944882919e-16  1.020746984064778e+00
 1.108350944882919e-16 -3.026539012878895e-16  4.243925090446010e-01
 1.020746984064778e+00  4.243925090446010e-01 -1.051372642482490e-16

-3.201886302236360e-16  1.487607991180293e-16  1.017620883954302e+00
 1.487607991180293e-16 -3.402392905902126e-16  4.245395951877630e-01
 1.017620883954302e+00  4.245395951877630e-01 -1.252738614650465e-16

-4.094568991220107e-16  1.963259534996552e-16  1.012841044634281e+00
 1.963259534996552e-16 -8.089090859919280e-16  4.292751093113988e-01
 1.012841044634281e+00  4.292751093113988e-01 -1.507899863464603e-16

-4.824011579565103e-16  2.330541251524107e-16  1.014126128616565e+00
 2.330541251524107e-16 -5.700005250566314e-16  4.272065443636259e-01
 1.014126128616565e+00  4.272065443636259e-01 -1.715842224007630e-16

-6.414615544923351e-16  3.095044320489991e-16  1.017235919663390e+00
 3.095044320489991e-16 -4.215839228703504e-16  4.227689006559499e-01
 1.017235919663390e+00  4.227689006559499e-01 -2.168509718229806e-16

-1.048831410629541e-15  4.763146489836064e-16  1.015415336970284e+00
 4.763146489836064e-16 -7.365939822179741e-16  4.232677384399988e-01
 1.015415336970284e+00  4.232677384399988e-01 -3.334326785498999e-16

-1.684095846958325e-15  6.598636999784092e-16  1.011717304569312e+00
 6.598636999784092e-16 -1.220607598310907e-15  4.236988438525270e-01
 1.011717304569312e+00  4.236988438525270e-01 -5.238254194121538e-16

-2.257884699493824e-15  7.774701763455785e-16  1.011165814721032e+00
 7.774701763455785e-16 -1.160066582187922e-15  4.232330901469472e-01
 1.011165814721032e+00  4.232330901469472e-01 -7.073958700864407e-16

-3.482033074964093e-15  8.644387185213052e-16  1.010819241788359e+00
 8.644387185213052e-16 -1.616683732503965e-15  4.224437234457238e-01
 1.010819241788359e+00  4.224437234457238e-01 -1.144850262892266e-15

-5.078754299469058e-15  7.426164925358754e-16  1.010006244334107e+00
 7.426164925358754e-16 -1.661137298474206e-15  4.227015291306919e-01
 1.010006244334107e+00  4.227015291306919e-01 -1.818261472614153e-15

-7.191348601674055e-15  3.555677372089732e-16  1.010892687351149e+00
 3.555677372089732e-16 -2.243936019838172e-15  4.199721320119654e-01
 1.010892687351149e+00  4.199721320119654e-01 -2.853169822717822e-15

-1.012356190414009e-14 -3.941145656365245e-16  1.009670703651690e+00
-3.941145656365245e-16 -2.615747806153121e-15  4.207695227031119e-01
 1.009670703651690e+00  4.207695227031119e-01 -4.479147710549232e-15

-1.468572195371931e-14 -1.812340479038216e-15  1.011007830829429e+00
-1.812340479038216e-15 -2.714380763140871e-15  4.204952888758778e-01
 1.011007830829429e+00  4.204952888758778e-01 -7.177803194253000e-15

 2.190667245152125e-14 -2.574627499037237e-14  1.008876696209158e+00
-2.574627499037237e-14  3.326721894475387e-14  4.207872268031694e-01
 1.008876696209158e+00  4.207872268031694e-01 -1.919995426649716e-16

-6.154207781168648e-13  1.477520322948131e-13  1.008356282210043e+00
 1.477520322948131e-13 -2.525252349976008e-13  4.184314014500661e-01
 1.008356282210043e+00  4.184314014500661e-01 -2.190989409049418e-13

 8.463416347217439e-14 -2.239462814975192e-14  1.007847759850328e+00
-2.239462814975192e-14  5.482462440477510e-14  4.182495804206604e-01
 1.007847759850328e+00  4.182495804206604e-01  1.708055756107262e-14

-6.487778058598189e-13  1.518194010522086e-13  1.006503177829803e+00
 1.518194010522086e-13 -3.289267145590357e-13  4.163913387928976e-01
 1.006503177829803e+00  4.163913387928976e-01 -1.613404045117671e-13

-9.465745296586803e-15  1.127116844575271e-14  1.006967656255841e+00
 1.127116844575271e-14  1.018700975901210e-15  4.173737257886833e-01
 1.006967656255841e+00  4.173737257886833e-01 -1.014796526749871e-14

-4.566394313276632e-15  9.118339288373764e-15  1.005993024723191e+00
 9.118339288373764e-15  5.157388156224124e-16  4.168594830025852e-01
 1.005993024723191e+00  4.168594830025852e-01 -4.851034664318786e-15

-3.464072597222419e-15  7.310720164689602e-15  1.006904226928267e+00
 7.310720164689602e-15  1.096148690398633e-15  4.155691317936445e-01
 1.006904226928267e+00  4.155691317936445e-01 -3.529139679476346e-15

-2.689819693892057e-15  4.405855332157448e-15  1.007158281413079e+00
 4.405855332157448e-15  1.492684462250882e-15  4.165096064125602e-01
 1.007158281413079e+00  4.165096064125602e-01 -2.076131818484699e-15

-1.771907048412798e-15  1.647602862628747e-15  1.009733198808333e+00
 1.647602862628747e-15  1.000389673901061e-15  4.164505737559939e-01
 1.009733198808333e+00  4.164505737559939e-01 -9.507585017078548e-16

-1.148530679047906e-15  6.502260389305123e-16  1.007530569376577e+00
 6.502260389305123e-16  4.854652839659023e-16  4.169702661505900e-01
 1.007530569376577e+00  4.169702661505900e-01 -5.215926427698999e-16

-8.245566839537825e-16  3.258685827795207e-16  1.005221175679197e+00
 3.258685827795207e-16  2.497508444454408e-16  4.161242727466150e-01
 1.005221175679197e+00  4.161242727466150e-01 -3.536362566440966e-16

-5.538232540732988e-16  1.377773391450827e-16  1.008235307270344e+00
 1.377773391450827e-16  1.103490691657265e-16  4.170832235451674e-01
 1.008235307270344e+00  4.170832235451674e-01 -2.326239156489013e-16

-3.638251955591513e-16  5.106048940578922e-17  1.005734814278393e+00
 5.106048940578922e-17  1.391972957320623e-17  4.172245540288398e-01
 1.005734814278393e+00  4.172245540288398e-01 -1.562662207794746e-16

-2.889266220708641e-16  2.750724913394467e-17  1.004618457286850e+00
 2.750724913394467e-17  1.037734541995414e-17  4.156323473584188e-01
 1.004618457286850e+00  4.156323473584188e-01 -1.278187720392228e-16

-2.522174934000133e-16  1.827899017939239e-17  1.002566675301036e+00
 1.827899017939239e-17 -1.762936174267897e-19  4.194921970401881e-01
 1.002566675301036e+00  4.194921970401881e-01 -1.141402046612000e-16

-2.026333227056115e-16  7.882610157514844e-18  1.006748572440453e+00
 7.882610157514844e-18 -4.588362347684247e-17  4.170914185700875e-01
 1.006748572440453e+00  4.170914185700875e-01 -9.613100203256914e-17

-1.610997267243847e-16  1.846502983884346e-18  1.013034192122333e+00
 1.846502983884346e-18 -5.277337754490694e-17  4.171601990280449e-01
 1.013034192122333e+00  4.171601990280449e-01 -8.138002264813457e-17

-1.150438648612421e-16  3.957774678126452e-19  1.015134897683433e+00
 3.957774678126452e-19 -3.658818480483825e-17  4.168619423066337e-01
 1.015134897683433e+00  4.168619423066337e-01 -7.274005618344927e-17

-1.067707029920055e-16 -2.327225257826889e-18  1.006711541574905e+00
-2.327225257826889e-18 -3.631958342127640e-17  4.188993915244851e-01
 1.006711541574905e+00  4.188993915244851e-01 -6.202574216083213e-17

-9.303035992479419e-17 -2.691476158452894e-18  9.958860890098872e-01
-2.691476158452894e-18 -3.516733248075949e-17  4.156341247233772e-01
 9.958860890098872e-01  4.156341247233772e-01 -5.687286782027376e-17

-8.248701618754078e-17 -2.727684129801653e-18  9.963917463424075e-01
-2.727684129801653e-18 -3.080447929376721e-17  4.166381250474943e-01
 9.963917463424075e-01  4.166381250474943e-01 -5.323497540788479e-17

-7.371764283777373e-17 -2.640522399189696e-18  1.001650054231389e+00
-2.640522399189696e-18 -3.958594512935679e-17  4.178537593598921e-01
 1.001650054231389e+00  4.178537593598921e-01 -5.038018174142194e-17

-6.693252629078726e-17 -2.470522928024461e-18  1.001059061028818e+00
-2.470522928024461e-18 -4.041194584343989e-17  4.141691086040968e-01
 1.001059061028818e+00  4.141691086040968e-01 -4.800565232884247e-17

-6.138716399998904e-17 -2.266722155110076e-18  1.001254105647512e+00
-2.266722155110076e-18 -4.126853011429137e-17  4.113553744705824e-01
 1.001254105647512e+00  4.113553744705824e-01 -4.609315796747026e-17

-5.788461165806595e-17 -2.095983029362235e-18  1.001226189679336e+00
-2.095983029362235e-18 -3.227708784600545e-17  4.163261425339008e-01
 1.001226189679336e+00  4.163261425339008e-01 -4.489730752126273e-17

-5.514569935419315e-17 -1.959170542202286e-18  1.000998118451009e+00
-1.959170542202286e-18 -3.988579036453049e-17  4.144767210151966e-01
 1.000998118451009e+00  4.144767210151966e-01 -4.396750464990754e-17

-5.186377104565873e-17 -1.781658433025774e-18  9.988933515176283e-01
-1.781658433025774e-18 -4.539115803717882e-17  4.101591881588845e-01
 9.988933515176283e-01  4.101591881588845e-01 -4.278231456366451e-17

-4.941954435683807e-17 -1.621048130043432e-18  9.989220517316584e-01
-1.621048130043432e-18 -3.664043898741456e-17  4.110304262489368e-01
 9.989220517316584e-01  4.110304262489368e-01 -4.194387942402516e-17

-4.737348060938600e-17 -1.495644522969395e-18  1.000258449958335e+00
-1.495644522969395e-18 -4.695773948999914e-17  4.114385380407722e-01
 1.000258449958335e+00  4.114385380407722e-01 -4.128686282706530e-17

-4.513209125011609e-17 -1.336388904466580e-18  1.002098802505956e+00
-1.336388904466580e-18 -2.282229006797341e-17  4.116913453541478e-01
 1.002098802505956e+00  4.116913453541478e-01 -4.057900561265826e-17

-4.309480716457360e-17 -1.196186937396435e-18  1.003276819884698e+00
-1.196186937396435e-18 -2.182941191280441e-17  4.121805381326210e-01
 1.003276819884698e+00  4.121805381326210e-01 -3.989077118103664e-17

-4.138497716561440e-17 -1.085240485707954e-18  1.003957408977532e+00
-1.085240485707954e-18 -4.087538091635462e-17  4.138888724080102e-01
 1.003957408977532e+00  4.138888724080102e-01 -3.932543481699020e-17

-3.991583165076360e-17 -9.862077077557192e-19  1.002996455675691e+00
-9.862077077557192e-19 -3.764227927666213e-17  4.148205778240798e-01
 1.002996455675691e+00  4.148205778240798e-01 -3.878543694811412e-17

-3.850830107649047e-17 -8.780689017821726e-19  1.000234314861433e+00
-8.780689017821726e-19 -1.254940176578693e-17  4.132993740129975e-01
 1.000234314861433e+00  4.132993740129975e-01 -3.821341540627205e-17

-3.794375330729110e-17 -7.613786372992168e-19  1.046753454416063e+00
-7.613786372992168e-19 -1.287113628477034e-17  3.677890837921702e-01
 1.046753454416063e+00  3.677890837921702e-01 -3.941822401780411e-17

-3.716816761376813e-17 -7.628858747035753e-19  1.010385438727251e+00
-7.628858747035753e-19 -4.949948360406945e-17  4.472995918327545e-01
 1.010385438727251e+00  4.472995918327545e-01 -3.811762901338275e-17

-3.695211892785818e-17 -7.023841816787303e-19  1.024404904251519e+00
-7.023841816787303e-19 -3.359287713904973e-17  4.618945763750820e-01
 1.024404904251519e+00  4.618945763750820e-01 -3.848950305546517e-17

-3.586058130166478e-17 -6.673357838391777e-19  1.027806815010958e+00
-6.673357838391777e-19 -3.383602565113273e-17  3.994897849596713e-01
 1.027806815010958e+00  3.994897849596713e-01 -3.818117317909538e-17

-3.458224725071186e-17 -6.119981832407902e-19  9.997354281797209e-01
-6.119981832407902e-19 -7.416581316533125e-18  4.135536408955900e-01
 9.997354281797209e-01  4.135536408955900e-01 -3.685549760376443e-17

-3.405419150956831e-17 -5.785078132873772e-19  1.000117779598804e+00
-5.785078132873772e-19 -5.899620261772791e-18  4.123860518624898e-01
 1.000117779598804e+00  4.123860518624898e-01 -3.667499153870414e-17

-3.346460674475211e-17 -5.510219746583693e-19  9.961787743481617e-01
-5.510219746583693e-19 -3.427979947363498e-17  4.163270070400434e-01
 9.961787743481617e-01  4.163270070400434e-01 -3.636801931196123e-17

-3.287517491908967e-17 -5.110164969421975e-19  9.935434028476879e-01
-5.110164969421975e-19 -3.682315467231096e-17  4.143864343660308e-01
 9.935434028476879e-01  4.143864343660308e-01 -3.608389131851041e-17

-3.234054805754146e-17 -4.932182868078876e-19  9.881053625473382e-01
-4.932182868078876e-19 -1.270856524655125e-17  4.159204668547230e-01
 9.881053625473382e-01  4.159204668547230e-01 -3.573652378819196e-17

-3.193932712621354e-17 -4.607031105654542e-19  9.880250139703084e-01
-4.607031105654542e-19 -2.254689199396346e-17  4.151709349609181e-01
 9.880250139703084e-01  4.151709349609181e-01 -3.559392343050818e-17

-3.158896066202248e-17 -4.427998957724542e-19  9.906276367761090e-01
-4.427998957724542e-19 -2.585947972190478e-17  4.127295900898745e-01
 9.906276367761090e-01  4.127295900898745e-01 -3.556718473246712e-17

-3.114803550043329e-17 -4.107134799534295e-19  9.881059453083979e-01
-4.107134799534295e-19 -2.536980077337037e-17  4.182116438468203e-01
 9.881059453083979e-01  4.182116438468203e-01 -3.534236660807203e-17

-3.065713694856284e-17 -3.773752797325662e-19  9.896391833614695e-01
-3.773752797325662e-19 -1.151029039989526e-17  4.170873733624937e-01
 9.896391833614695e-01  4.170873733624937e-01 -3.523048467523331e-17

-3.047597424387514e-17 -3.522670493329338e-19  1.001359384789826e+00
-3.522670493329338e-19  1.482665217020673e-18  4.076072821668982e-01
 1.001359384789826e+00  4.076072821668982e-01 -3.554206160627898e-17

-3.026817785061832e-17 -3.431802938890720e-19  9.991176529802145e-01
-3.431802938890720e-19 -1.625256435821746e-17  4.098078808128378e-01
 9.991176529802145e-01  4.098078808128378e-01 -3.540031405502390e-17

-3.010702318018454e-17 -3.212617961796237e-19  1.004225987812048e+00
-3.212617961796237e-19 -1.492102415426986e-17  4.044609473058229e-01
 1.004225987812048e+00  4.044609473058229e-01 -3.549719020708093e-17

-2.987126151861326e-17 -3.079953067895069e-19  9.990695173422225e-01
-3.079953067895069e-19 -4.172490506997802e-18  4.214531086160646e-01
 9.990695173422225e-01  4.214531086160646e-01 -3.527409018640365e-17

-2.988220356651857e-17 -2.920458571989629e-19  1.013153124687850e+00
-2.920458571989629e-19 -3.054759967416882e-18  4.113184625392408e-01
 1.013153124687850e+00  4.113184625392408e-01 -3.573065965292683e-17

-2.995525097369014e-17 -2.898950938060675e-19  1.031393262762496e+00
-2.898950938060675e-19 -3.305861075832714e-17  3.923602940624598e-01
 1.031393262762496e+00  3.923602940624598e-01 -3.632826703499230e-17

-2.935935469764588e-17 -2.694776129445544e-19  1.004892831061329e+00
-2.694776129445544e-19 -1.287087331949846e-17  4.093527433478553e-01
 1.004892831061329e+00  4.093527433478553e-01 -3.529465473503887e-17

-2.902423548711057e-17 -2.719932683287910e-19  9.950928625499654e-01
-2.719932683287910e-19 -3.181649759997191e-17  4.228431670959102e-01
 9.950928625499654e-01  4.228431670959102e-01 -3.486800733207165e-17

-2.883927719863009e-17 -2.481551762592777e-19  9.974523194900212e-01
-2.481551762592777e-19 -1.762595779282525e-17  4.145680924263820e-01
 9.974523194900212e-01  4.145680924263820e-01 -3.489075739350161e-17

-2.853839116944348e-17 -2.488334773920758e-19  9.888328560617641e-01
-2.488334773920758e-19 -2.767766433401368e-17  4.187577453055524e-01
 9.888328560617641e-01  4.187577453055524e-01 -3.452003005590872e-17

-2.852052564923241e-17 -2.398458184898702e-19  9.954525953173398e-01
-2.398458184898702e-19 -2.287382328209351e-17  4.174042740298738e-01
 9.954525953173398e-01  4.174042740298738e-01 -3.473058592051601e-17

-2.848830585766347e-17 -2.363062071134280e-19  1.003702922700621e+00
-2.363062071134280e-19 -2.159548519400602e-17  4.117868940144704e-01
 1.003702922700621e+00  4.117868940144704e-01 -3.498023024285075e-17

-2.846872158815788e-17 -2.297050906024360e-19  1.013690478829973e+00
-2.297050906024360e-19 -1.111157863448631e-17  4.020831668807096e-01
 1.013690478829973e+00  4.020831668807096e-01 -3.529511212503548e-17

-2.822327947603090e-17 -2.309418946161072e-19  1.001167495053686e+00
-2.309418946161072e-19 -8.650599653777313e-18  4.150833885486329e-01
 1.001167495053686e+00  4.150833885486329e-01 -3.481025196232230e-17

-2.794912145481839e-17 -2.325932361061846e-19  9.861619290257347e-01
-2.325932361061846e-19 -1.244686174311416e-17  4.230291735155789e-01
 9.861619290257347e-01  4.230291735155789e-01 -3.423265481015914e-17

-2.768315918663306e-17 -2.283373970552999e-19  9.835876091600241e-01
-2.283373970552999e-19 -1.722257213560005e-17  4.203746841303369e-01
 9.835876091600241e-01  4.203746841303369e-01 -3.408458150483445e-17

-2.757447538995083e-17 -2.285078586251756e-19  9.922457883898850e-01
-2.285078586251756e-19 -2.616443221319941e-18  3.962130850299004e-01
 9.922457883898850e-01  3.962130850299004e-01 -3.432565905637870e-17

-2.799588517501972e-17 -2.528582770090827e-19  1.043604443786665e+00
-2.528582770090827e-19 -8.804029409575531e-18  3.341448774625267e-01
 1.043604443786665e+00  3.341448774625267e-01 -3.613445684100128e-17

-2.685685430211312e-17 -2.288670301273080e-19  9.508760798426392e-01
-2.288670301273080e-19 -2.420995705809856e-17  4.140495356824240e-01
 9.508760798426392e-01  4.140495356824240e-01 -3.277744611494271e-17

-2.707769786124688e-17 -2.430426835886460e-19  9.674061923098247e-01
-2.430426835886460e-19 -1.476561363298625e-17  4.275795110374470e-01
 9.674061923098247e-01  4.275795110374470e-01 -3.336632515428571e-17

-2.722178610595239e-17 -2.344416054039253e-19  9.834569698940555e-01
-2.344416054039253e-19 -1.510788723116758e-17  4.239637002811482e-01
 9.834569698940555e-01  4.239637002811482e-01 -3.393879449955576e-17

-2.735304133382683e-17 -2.360432022569252e-19  9.981543235106508e-01
-2.360432022569252e-19 -3.224067740447974e-17  4.113939898200273e-01
 9.981543235106508e-01  4.113939898200273e-01 -3.443560457754112e-17

-2.727645193545099e-17 -2.283994457038937e-19  9.971886144352011e-01
-2.283994457038937e-19  2.024786444543130e-18  4.163562392152672e-01
 9.971886144352011e-01  4.163562392152672e-01 -3.439011995897685e-17

-2.722619185442563e-17 -2.349078283435952e-19  9.979593493489433e-01
-2.349078283435952e-19 -1.268820591814015e-17  4.141635429429968e-01
 9.979593493489433e-01  4.141635429429968e-01 -3.439990782405013e-17

-2.713017041827636e-17 -2.247314204053170e-19  9.939000101825312e-01
-2.247314204053170e-19 -3.097939211479692e-18  4.191362906211448e-01
 9.939000101825312e-01  4.191362906211448e-01 -3.423767792402023e-17

-2.708925320519689e-17 -2.537464488372733e-19  9.999704390260821e-01
-2.537464488372733e-19 -5.010508307531305e-17  4.117548468673676e-01
 9.999704390260821e-01  4.117548468673676e-01 -3.442707530545268e-17

-2.705742947447753e-17 -2.225434889637258e-19  1.001618722476028e+00
-2.225434889637258e-19 -8.936655435531976e-18  4.156065677630235e-01
 1.001618722476028e+00  4.156065677630235e-01 -3.447167399800203e-17

-2.698098710411706e-17 -2.363140689862941e-19  1.003522911441028e+00
-2.363140689862941e-19 -3.291689608000150e-17  4.125302235746353e-01
 1.003522911441028e+00  4.125302235746353e-01 -3.452610798707200e-17

-2.684465252973789e-17 -2.183241140122399e-19  9.988227885495021e-01
-2.183241140122399e-19 -1.773469473580316e-17  4.170592794604351e-01
 9.988227885495021e-01  4.170592794604351e-01 -3.434485710138462e-17

-2.684246249973678e-17 -2.206218106918206e-19  1.004009234188270e+00
-2.206218106918206e-19 -2.682186377912520e-17  4.075075988422819e-01
 1.004009234188270e+00  4.075075988422819e-01 -3.451913932865778e-17

-2.674080596594579e-17 -1.993936245606005e-19  1.000218926469154e+00
-1.993936245606005e-19 -6.196269263662558e-18  4.120098052022813e-01
 1.000218926469154e+00  4.120098052022813e-01 -3.437514112276410e-17

-2.673751839200131e-17 -2.102847099316196e-19  1.003202115997690e+00
-2.102847099316196e-19 -2.972435356261714e-17  4.116476598253976e-01
 1.003202115997690e+00  4.116476598253976e-01 -3.447375747240867e-17

-2.659267022964803e-17 -1.818947655925565e-19  9.951685543976766e-01
-1.818947655925565e-19  1.201659661038082e-18  4.163984511265436e-01
 9.951685543976766e-01  4.163984511265436e-01 -3.418989039208757e-17

-2.654842085188443e-17 -2.076470257397764e-19  9.954440773864565e-01
-2.076470257397764e-19 -3.258482493167536e-17  4.121827387336773e-01
 9.954440773864565e-01  4.121827387336773e-01 -3.417782056370404e-17

-2.649553879656701e-17 -1.578426388761524e-19  9.967704558022505e-01
-1.578426388761524e-19  6.003830273936577e-18  4.126924627634072e-01
 9.967704558022505e-01  4.126924627634072e-01 -3.422930041567625e-17

-2.667423429898337e-17 -2.069325973906310e-19  1.009162658294840e+00
-2.069325973906310e-19 -3.606013322591002e-17  4.054469342725103e-01
 1.009162658294840e+00  4.054469342725103e-01 -3.466795451080890e-17

-2.659789168639544e-17 -1.687320784285257e-19  1.009582559973515e+00
-1.687320784285257e-19 -1.353932840642855e-17  4.069491973234828e-01
 1.009582559973515e+00  4.069491973234828e-01 -3.468036700944487e-17

-2.641686290120022e-17 -1.658003460469413e-19  1.001906274522126e+00
-1.658003460469413e-19 -2.002037061009423e-17  4.088527496727087e-01
 1.001906274522126e+00  4.088527496727087e-01 -3.440014550830785e-17

-2.632543645155612e-17 -1.642827166547814e-19  9.963362494484966e-01
-1.642827166547814e-19 -2.528555707403877e-17  4.147166317998734e-01
 9.963362494484966e-01  4.147166317998734e-01 -3.419154558593428e-17

-2.620339958544255e-17 -1.278251972564662e-19  9.946825582042107e-01
-1.278251972564662e-19 -4.431693279771657e-18  4.123558031349262e-01
 9.946825582042107e-01  4.123558031349262e-01 -3.412794236267500e-17

-2.609642860084592e-17 -1.371663480309189e-19  9.913391346663176e-01
-1.371663480309189e-19 -2.096107596617384e-17  4.106875614678104e-01
 9.913391346663176e-01  4.106875614678104e-01 -3.400028468105296e-17

-2.612488065472720e-17 -1.476545284819148e-19  9.951226433398404e-01
-1.476545284819148e-19 -3.014893671365877e-17  4.096708520552151e-01
 9.951226433398404e-01  4.096708520552151e-01 -3.414345415729630e-17

-2.615350036289469e-17 -1.841377163807004e-19  1.000167221345972e+00
-1.841377163807004e-19 -6.544675660110741e-17  4.084125696702992e-01
 1.000167221345972e+00  4.084125696702992e-01 -3.432022349738065e-17

-2.615420645154187e-17 -1.056405236207783e-19  1.004293697280804e+00
-1.056405236207783e-19 -1.999160265187092e-17  4.030595227250983e-01
 1.004293697280804e+00  4.030595227250983e-01 -3.445815272076978e-17

-2.598438965158037e-17 -1.057489716370157e-19  9.922400369810648e-01
-1.057489716370157e-19 -1.923718280073470e-17  4.101518796372236e-01
 9.922400369810648e-01  4.101518796372236e-01 -3.402868126102183e-17

-2.586952411398069e-17 -1.124043783160464e-19  9.821241253008320e-01
-1.124043783160464e-19 -2.076437265859718e-17  4.197768086353771e-01
 9.821241253008320e-01  4.197768086353771e-01 -3.365788296908650e-17

-2.592023362946213e-17 -8.155788592322158e-20  9.941483668875490e-01
-8.155788592322158e-20 -6.214787071552709e-18  4.055724661824078e-01
 9.941483668875490e-01  4.055724661824078e-01 -3.407399070444515e-17

-2.598211793814357e-17 -5.952361981021444e-20  9.951836126988041e-01
-5.952361981021444e-20  9.942525020715608e-18  4.078423564704590e-01
 9.951836126988041e-01  4.078423564704590e-01 -3.410480647826718e-17

-2.592674427203502e-17 -1.031090651161335e-19  9.991961194707388e-01
-1.031090651161335e-19 -2.373104054345617e-17  4.042080165647238e-01
 9.991961194707388e-01  4.042080165647238e-01 -3.423848101379365e-17

-2.584960292312956e-17 -6.238548260098092e-20  9.963301986362485e-01
-6.238548260098092e-20  9.188158810102915e-18  4.095969083869164e-01
 9.963301986362485e-01  4.095969083869164e-01 -3.412551726085503e-17

-2.569168467974854e-17 -1.198773735660911e-19  9.911653788012623e-01
-1.198773735660911e-19 -2.656463607713348e-17  4.078677818746946e-01
 9.911653788012623e-01  4.078677818746946e-01 -3.391491483838648e-17

-2.557447676425713e-17 -1.172236183473867e-19  9.855923966085699e-01
-1.172236183473867e-19 -2.785438640509514e-17  4.113800838016682e-01
 9.855923966085699e-01  4.113800838016682e-01 -3.369473989473386e-17

-2.563573952836160e-17 -9.934617773646216e-20  9.967733403196376e-01
-9.934617773646216e-20 -1.662817979095638e-17  3.957923861383978e-01
 9.967733403196376e-01  3.957923861383978e-01 -3.407641347471765e-17

-2.551320431225308e-17 -1.292398113820085e-19  9.865009080911538e-01
-1.292398113820085e-19 -2.867496047307665e-17  4.134403623079971e-01
 9.865009080911538e-01  4.134403623079971e-01 -3.371315481657578e-17

-2.560538139585996e-17 -1.451903007694634e-19  9.957206327193288e-01
-1.451903007694634e-19 -4.141385818544726e-17  4.060112851764320e-01
 9.957206327193288e-01  4.060112851764320e-01 -3.403504005696451e-17

-2.548028085184072e-17 -1.076518583904734e-19  9.879507933748156e-01
-1.076518583904734e-19 -1.880712762117990e-17  4.120899378769187e-01
 9.879507933748156e-01  4.120899378769187e-01 -3.375607815075126e-17

-2.539141768585490e-17 -9.017910149726471e-20  9.830961502475655e-01
-9.017910149726471e-20  4.595451290749921e-18  4.123293856890605e-01
 9.830961502475655e-01  4.123293856890605e-01 -3.357792343315263e-17

-2.533499402157253e-17 -9.363064998321364e-20  9.839187698628794e-01
-9.363064998321364e-20 -9.038550344925849e-18  4.078579448540151e-01
 9.839187698628794e-01  4.078579448540151e-01 -3.360984483758439e-17

-2.541666452206686e-17 -8.984144253318473e-20  9.913517905835307e-01
-8.984144253318473e-20 -4.759485113046555e-18  4.043235095669974e-01
 9.913517905835307e-01  4.043235095669974e-01 -3.388899360395945e-17

-2.550005155858496e-17 -1.365983876885416e-19  9.998260956447850e-01
-1.365983876885416e-19 -4.464918379694163e-17  3.987108498453348e-01
 9.998260956447850e-01  3.987108498453348e-01 -3.419226870567639e-17

-2.532785530051671e-17 -7.931894774367386e-20  9.882057153702160e-01
-7.931894774367386e-20 -1.319602856093791e-17  4.052364923259877e-01
 9.882057153702160e-01  4.052364923259877e-01 -3.379286136749644e-17

-2.539861529103215e-17 -4.326009358061585e-20  9.912571556082622e-01
-4.326009358061585e-20 -7.136380855404576e-18  4.009532069788173e-01
 9.912571556082622e-01  4.009532069788173e-01 -3.390690011266881e-17

-2.532511276598513e-17 -3.918016981061759e-20  9.890127727785762e-01
-3.918016981061759e-20 -9.652791622098297e-18  4.109073948299591e-01
 9.890127727785762e-01  4.109073948299591e-01 -3.384848347675745e-17

-2.532665227939211e-17 -5.281587048583217e-20  9.922083299433366e-01
-5.281587048583217e-20 -1.524789368637639e-17  4.019171849665580e-01
 9.922083299433366e-01  4.019171849665580e-01 -3.395561182484315e-17

-2.539199813773251e-17  2.236556179199080e-20  9.931789761977240e-01
 2.236556179199080e-20  1.122514350453489e-17  4.009898774888342e-01
 9.931789761977240e-01  4.009898774888342e-01 -3.399069445846568e-17

-2.530283582891969e-17  3.657173362517184e-20  9.918082793584800e-01
 3.657173362517184e-20  2.162239530987230e-17  4.044660500877924e-01
 9.918082793584800e-01  4.044660500877924e-01 -3.394186266312567e-17

-2.531422325472319e-17 -3.635924814299806e-20  9.924803808192766e-01
-3.635924814299806e-20 -2.040969749599794e-17  4.065480035506737e-01
 9.924803808192766e-01  4.065480035506737e-01 -3.396182955346124e-17

-2.530626027447368e-17 -2.766512587815301e-20  9.921638899358477e-01
-2.766512587815301e-20 -2.178865832502577e-17  4.061055832331992e-01
 9.921638899358477e-01  4.061055832331992e-01 -3.394543053612798e-17

-2.526258543873548e-17  1.693836965548665e-21  9.914589062587970e-01
 1.693836965548665e-21 -4.972558608428859e-18  4.050761469661606e-01
 9.914589062587970e-01  4.050761469661606e-01 -3.391068952665830e-17

-2.518012631711220e-17 -4.144588706179809e-20  9.886166007306523e-01
-4.144588706179809e-20 -1.998984015022427e-17  4.051319829663939e-01
 9.886166007306523e-01  4.051319829663939e-01 -3.380078257604573e-17

-2.515937504340913e-17 -5.412884186393469e-20  9.881762482022161e-01
-5.412884186393469e-20 -3.172707945695101e-17  4.046285238853307e-01
 9.881762482022161e-01  4.046285238853307e-01 -3.378070623544656e-17

-2.516560777378273e-17 -5.555116228296544e-20  9.894368346567096e-01
-5.555116228296544e-20 -2.214543613926441e-17  4.048717902625760e-01
 9.894368346567096e-01  4.048717902625760e-01 -3.381431020581154e-17

-2.515572331747798e-17 -5.991729705341520e-20  9.903691874079470e-01
-5.991729705341520e-20 -2.729366524414481e-17  4.068826023550224e-01
 9.903691874079470e-01  4.068826023550224e-01 -3.384760455324696e-17

-2.520435681142152e-17 -2.763285522088107e-20  9.924455263333013e-01
-2.763285522088107e-20 -3.504913964400692e-18  4.081438900903887e-01
 9.924455263333013e-01  4.081438900903887e-01 -3.391419669121267e-17

-2.514834910099843e-17 -9.162584962142391e-22  9.929560565898861e-01
-9.162584962142391e-22  4.718584909036561e-18  4.061744084353754e-01
 9.929560565898861e-01  4.061744084353754e-01 -3.393072476840645e-17

-2.512609081093739e-17 -4.026888916947871e-20  9.926800786854972e-01
-4.026888916947871e-20 -1.115708668915907e-17  4.082261362801134e-01
 9.926800786854972e-01  4.082261362801134e-01 -3.391706002903653e-17

-2.506829531986440e-17 -5.865401046800655e-20  9.888311630675332e-01
-5.865401046800655e-20 -4.430843294172762e-17  4.107763150845080e-01
 9.888311630675332e-01  4.107763150845080e-01 -3.378521794634564e-17

-2.502920303069769e-17 -5.480341444780120e-20  9.891808156347704e-01
-5.480341444780120e-20 -3.163478539374666e-17  4.070775106436016e-01
 9.891808156347704e-01  4.070775106436016e-01 -3.378872596450825e-17

-2.500129228165761e-17 -6.693105098498400e-21  9.887158212068152e-01
-6.693105098498400e-21  5.180652287048867e-18  4.036060386408553e-01
 9.887158212068152e-01  4.036060386408553e-01 -3.376895778267705e-17

-2.509191249262585e-17  9.598368378708371e-21  9.971891327196287e-01
 9.598368378708371e-21  1.269751552827187e-17  3.970791224703894e-01
 9.971891327196287e-01  3.970791224703894e-01 -3.408291886813084e-17

-2.504253015887456e-17 -1.516568167717208e-20  9.904111375486880e-01
-1.516568167717208e-20 -1.649727874918260e-17  4.117720028639465e-01
 9.904111375486880e-01  4.117720028639465e-01 -3.385489263219521e-17

-2.508686310599330e-17  4.543774387715461e-21  9.953276498516346e-01
 4.543774387715461e-21 -2.396999484408845e-18  4.072821226540474e-01
 9.953276498516346e-01  4.072821226540474e-01 -3.404033231897382e-17

-2.501502249800904e-17  2.275886842145985e-21  9.904888397242656e-01
 2.275886842145985e-21 -2.030681793503018e-17  4.069447660179519e-01
 9.904888397242656e-01  4.069447660179519e-01 -3.387649488097441e-17

-2.499707540247495e-17 -4.636445104487602e-20  9.898854516893789e-01
-4.636445104487602e-20 -3.793843433194462e-17  4.065321518043861e-01
 9.898854516893789e-01  4.065321518043861e-01 -3.385272829809550e-17

-2.506859212198108e-17 -2.463785690195347e-20  9.950787750497767e-01
-2.463785690195347e-20 -3.171105010107264e-17  4.073798979506599e-01
 9.950787750497767e-01  4.073798979506599e-01 -3.405570719177087e-17

-2.516378972112661e-17 -8.221996217736575e-21  1.000161616967409e+00
-8.221996217736575e-21 -2.686107795256584e-17  4.036362077076611e-01
 1.000161616967409e+00  4.036362077076611e-01 -3.423824357660618e-17

-2.512211941512876e-17  4.398202366552258e-20  9.997666801395707e-01
 4.398202366552258e-20 -1.579761461468239e-17  4.045060110737899e-01
 9.997666801395707e-01  4.045060110737899e-01 -3.422883057483374e-17

-2.518909068718576e-17  3.222719434694294e-20  1.006643037306997e+00
 3.222719434694294e-20 -2.924932827347338e-17  3.989383990459741e-01
 1.006643037306997e+00  3.989383990459741e-01 -3.446879668779349e-17

-2.508306197214196e-17  1.960728102830997e-20  9.971462088282586e-01
 1.960728102830997e-20 -2.434971214045466e-17  4.076296935053506e-01
 9.971462088282586e-01  4.076296935053506e-01 -3.413403516599005e-17

-2.501834420397258e-17  4.235603007670443e-20  9.936002722014552e-01
 4.235603007670443e-20 -1.749040345164253e-17  4.101016729005399e-01
 9.936002722014552e-01  4.101016729005399e-01 -3.399602996112332e-17

-2.499239164538282e-17  5.129738048236079e-20  9.889954084993821e-01
 5.129738048236079e-20 -6.028277098717738e-18  4.105285902676182e-01
 9.889954084993821e-01  4.105285902676182e-01 -3.382148853109571e-17

-2.513922637531743e-17  5.667003338741688e-20  1.004179181372906e+00
 5.667003338741688e-20 -1.842987120591724e-17  3.978523004321803e-01
 1.004179181372906e+00  3.978523004321803e-01 -3.435714618831332e-17

-2.521192349739507e-17  1.451770825335839e-20  1.007382800101289e+00
 1.451770825335839e-20 -5.913427023250097e-18  4.084681516317353e-01
 1.007382800101289e+00  4.084681516317353e-01 -3.448672580600212e-17

-2.518778608901005e-17  2.268755326009539e-20  1.006246624953531e+00
 2.268755326009539e-20 -8.855300581615048e-18  4.120878283885758e-01
 1.006246624953531e+00  4.120878283885758e-01 -3.444673195621281e-17

-2.509371787934429e-17  2.737711159241587e-20  9.966689050737162e-01
 2.737711159241587e-20 -4.740996135275938e-18  4.115703139634479e-01
 9.966689050737162e-01  4.115703139634479e-01 -3.408614409413443e-17

-2.489938041814548e-17  3.052340254509518e-20  9.864630389302614e-01
 3.052340254509518e-20 -1.561506332997976e-17  4.177069912077270e-01
 9.864630389302614e-01  4.177069912077270e-01 -3.370903751091230e-17

-2.500976898361228e-17  1.723258148468219e-20  9.972861577308043e-01
 1.723258148468219e-20 -1.141258610524841e-17  4.118903366728979e-01
 9.972861577308043e-01  4.118903366728979e-01 -3.409259359910410e-17

-2.512727128175777e-17  2.455480856172655e-20  1.004675844607016e+00
 2.455480856172655e-20 -5.062325827274691e-19  4.091275129346624e-01
 1.004675844607016e+00  4.091275129346624e-01 -3.435034442084990e-17

-2.510363352075374e-17  1.937761134826632e-20  1.005312054165667e+00
 1.937761134826632e-20 -2.563623793553267e-17  4.089665933735118e-01
 1.005312054165667e+00  4.089665933735118e-01 -3.436995145091169e-17

-2.515532873113983e-17  1.388164568392829e-20  1.009074807515124e+00
 1.388164568392829e-20 -4.538261811592787e-18  4.112026848926564e-01
 1.009074807515124e+00  4.112026848926564e-01 -3.449826506556499e-17

-2.519870671807334e-17  4.034239337876932e-20  1.009400821041982e+00
 4.034239337876932e-20 -4.960500698245745e-19  4.078081369711429e-01
 1.009400821041982e+00  4.078081369711429e-01 -3.450102903420324e-17

-2.499798319011916e-17 -8.817892391872994e-21  9.995718667744368e-01
-8.817892391872994e-21 -1.149225312867963e-17  4.141773434015084e-01
 9.995718667744368e-01  4.141773434015084e-01 -3.413830353852358e-17

-2.499204064704696e-17  8.311127711810626e-21  9.987283425261352e-01
 8.311127711810626e-21 -2.140436008522238e-17  4.153184227820741e-01
 9.987283425261352e-01  4.153184227820741e-01 -3.409577429588267e-17

-2.501152573194459e-17  2.598790051910606e-21  1.001171807146698e+00
 2.598790051910606e-21 -1.720790114827279e-17  4.154926954518990e-01
 1.001171807146698e+00  4.154926954518990e-01 -3.417987217471244e-17

-2.508655880303883e-17 -2.259596632768022e-21  1.007656000166300e+00
-2.259596632768022e-21 -4.954870427758931e-18  4.124361860049884e-01
 1.007656000166300e+00  4.124361860049884e-01 -3.440670830387716e-17

-2.505917236612449e-17 -2.017095042928742e-20  1.006539526398946e+00
-2.017095042928742e-20 -1.109164650459374e-17  4.148676495557140e-01
 1.006539526398946e+00  4.148676495557140e-01 -3.436379094105958e-17

-2.504216726546963e-17 -3.010217210593567e-20  1.005703943088502e+00
-3.010217210593567e-20 -1.853574571222784e-17  4.141271136636173e-01
 1.005703943088502e+00  4.141271136636173e-01 -3.433003287625281e-17

-2.500360752506577e-17 -1.753335193258441e-20  1.003632986949352e+00
-1.753335193258441e-20 -1.905028852632392e-17  4.176965973407950e-01
 1.003632986949352e+00  4.176965973407950e-01 -3.424612576633588e-17

-2.500462960146604e-17 -3.250896390947342e-20  1.003258133216586e+00
-3.250896390947342e-20 -8.241863403539425e-18  4.204570016642473e-01
 1.003258133216586e+00  4.204570016642473e-01 -3.422525614138344e-17

-2.492704753798924e-17 -3.884151506641282e-20  9.996097801472466e-01
-3.884151506641282e-20 -1.269807856950255e-17  4.211375269940171e-01
 9.996097801472466e-01  4.211375269940171e-01 -3.408590169829514e-17

-2.495128455200239e-17 -5.350013850753631e-20  1.003025534882116e+00
-5.350013850753631e-20 -9.346300850788421e-18  4.178589465167607e-01
 1.003025534882116e+00  4.178589465167607e-01 -3.420485525239947e-17

-2.507681525259304e-17 -4.920013080948915e-20  1.010907784555267e+00
-4.920013080948915e-20 -2.635968254625342e-17  4.168728287700251e-01
 1.010907784555267e+00  4.168728287700251e-01 -3.448449504925855e-17

-2.501240669548661e-17 -6.104342393024179e-20  1.008334118226358e+00
-6.104342393024179e-20 -2.322525204785698e-17  4.179956704402843e-01
 1.008334118226358e+00  4.179956704402843e-01 -3.439113342143367e-17

-2.503050790197431e-17 -4.616087891479867e-20  1.009199768041660e+00
-4.616087891479867e-20 -1.004637306029467e-17  4.179131814337197e-01
 1.009199768041660e+00  4.179131814337197e-01 -3.441997009648892e-17

-2.505784731548787e-17 -4.854426904879725e-20  1.014029189269500e+00
-4.854426904879725e-20 -2.280208856016647e-17  4.095154990931064e-01
 1.014029189269500e+00  4.095154990931064e-01 -3.459262501422183e-17

-2.498427920065828e-17 -7.206926214113860e-20  1.006771163632721e+00
-7.206926214113860e-20 -6.598039262395038e-18  4.156093983537082e-01
 1.006771163632721e+00  4.156093983537082e-01 -3.432633636729027e-17

-2.504679243444666e-17 -6.073436369244919e-20  1.011825880565751e+00
-6.073436369244919e-20 -2.913982348859477e-17  4.179851812034081e-01
 1.011825880565751e+00  4.179851812034081e-01 -3.452270482915338e-17

-2.506668082960781e-17 -6.981179471677632e-20  1.013777193819063e+00
-6.981179471677632e-20 -2.135859617692915e-17  4.197974846469372e-01
 1.013777193819063e+00  4.197974846469372e-01 -3.459819538020448e-17

-2.486183111502009e-17 -6.586826042224836e-20  1.002084194857050e+00
-6.586826042224836e-20 -3.089143408287313e-17  4.220765475621310e-01
 1.002084194857050e+00  4.220765475621310e-01 -3.416589970452170e-17

-2.472707663633054e-17 -6.460724535396610e-20  9.941815762871412e-01
-6.460724535396610e-20 -2.393140995614972e-17  4.177272625878112e-01
 9.941815762871412e-01  4.177272625878112e-01 -3.386759547774617e-17

-2.492256167232421e-17 -7.185991654435701e-20  1.006197558216194e+00
-7.185991654435701e-20 -1.687259980647086e-17  4.177153285148736e-01
 1.006197558216194e+00  4.177153285148736e-01 -3.431350125042202e-17

-2.523115929870213e-17 -7.290447374714252e-20  1.022515140210081e+00
-7.290447374714252e-20 -9.039923259505583e-18  4.211554938702008e-01
 1.022515140210081e+00  4.211554938702008e-01 -3.495326560884214e-17

-2.550936165700398e-17 -6.113139852265077e-20  1.037299093716950e+00
-6.113139852265077e-20  7.125744083169740e-18  4.232523338450896e-01
 1.037299093716950e+00  4.232523338450896e-01 -3.552440452115194e-17

-2.546797795340593e-17 -5.504292806403909e-20  1.036470084128412e+00
-5.504292806403909e-20 -1.194469137679369e-17  4.074482592641434e-01
 1.036470084128412e+00  4.074482592641434e-01 -3.547571344264594e-17

-2.558149565789812e-17 -5.227893516622308e-20  1.044110561687537e+00
-5.227893516622308e-20 -2.202568925524472e-17  4.040314789286321e-01
 1.044110561687537e+00  4.040314789286321e-01 -3.575955695982494e-17

-2.559526375171356e-17 -6.050780181629154e-20  1.037658286819116e+00
-6.050780181629154e-20 -8.307908384630207e-18  4.310638269716667e-01
 1.037658286819116e+00  4.310638269716667e-01 -3.558336673419470e-17

-2.572128503751822e-17 -5.497465358414488e-20  1.051509107321614e+00
-5.497465358414488e-20 -3.482363602990125e-18  4.086759617637586e-01
 1.051509107321614e+00  4.086759617637586e-01 -3.605456818409126e-17

-2.559528159205859e-17 -4.264134872359912e-20  1.044333015626791e+00
-4.264134872359912e-20 -5.778359946325857e-18  4.189590445942262e-01
 1.044333015626791e+00  4.189590445942262e-01 -3.577834851127273e-17

-2.522789658512365e-17 -7.333646988319772e-20  1.026785522525387e+00
-7.333646988319772e-20 -7.236556194945615e-18  4.111951465273609e-01
 1.026785522525387e+00  4.111951465273609e-01 -3.510458472923784e-17

-2.482574224373582e-17 -7.106871285028278e-20  1.006318199332858e+00
-7.106871285028278e-20 -2.647714803341238e-17  4.153565810509474e-01
 1.006318199332858e+00  4.153565810509474e-01 -3.433159396394384e-17

-2.473880159593166e-17 -9.079020550236213e-20  1.006311654654288e+00
-9.079020550236213e-20 -8.865631034855867e-18  4.084522036212121e-01
 1.006311654654288e+00  4.084522036212121e-01 -3.431976410828599e-17

-2.454370604264735e-17 -9.028821356546325e-20  9.965226500492979e-01
-9.028821356546325e-20 -1.794737523849351e-17  4.101884769031312e-01
 9.965226500492979e-01  4.101884769031312e-01 -3.397905679333140e-17

-2.438100078035724e-17 -6.454821908777150e-20  9.868716561938469e-01
-6.454821908777150e-20 -9.605301122118562e-18  4.129801148360999e-01
 9.868716561938469e-01  4.129801148360999e-01 -3.365607768852306e-17

-2.431031132499905e-17 -4.331138099721805e-20  9.870536367501701e-01
-4.331138099721805e-20 -1.165219117615117e-17  4.045241916264496e-01
 9.870536367501701e-01  4.045241916264496e-01 -3.371256809387047e-17

-2.421683503437375e-17  2.618181844528867e-20  9.821233905619198e-01
 2.618181844528867e-20  2.379403375951575e-18  4.016167958445991e-01
 9.821233905619198e-01  4.016167958445991e-01 -3.360658392872659e-17

-2.415845732941078e-17  6.104757316660311e-20  9.787974363347880e-01
 6.104757316660311e-20  4.439963720107427e-18  3.941154870766982e-01
 9.787974363347880e-01  3.941154870766982e-01 -3.352401329910169e-17

-2.403747145841167e-17  8.741130959139094e-20  9.691105878168905e-01
 8.741130959139094e-20 -4.536586433575062e-17  3.972275715918464e-01
 9.691105878168905e-01  3.972275715918464e-01 -3.319788542595192e-17

-2.415974794078074e-17  1.193829262727285e-19  9.752576979670567e-01
 1.193829262727285e-19 -3.270601431981556e-17  3.965612052107316e-01
 9.752576979670567e-01  3.965612052107316e-01 -3.341867115111629e-17

-2.426336515561892e-17  1.679188283200614e-19  9.820292302193336e-01
 1.679188283200614e-19  1.532841192320521e-17  3.928773597193506e-01
 9.820292302193336e-01  3.928773597193506e-01 -3.362200676633845e-17

-2.427663971428821e-17  1.600404627180385e-19  9.842738579707994e-01
 1.600404627180385e-19  3.173733307048315e-17  3.904548955116522e-01
 9.842738579707994e-01  3.904548955116522e-01 -3.366073445224398e-17

-2.414721935888648e-17  1.086202550264441e-19  9.777687232539304e-01
 1.086202550264441e-19 -1.028648567455454e-18  3.953725169706835e-01
 9.777687232539304e-01  3.953725169706835e-01 -3.336819196328042e-17

-2.402137092552436e-17  7.827712340791465e-20  9.708879175693246e-01
 7.827712340791465e-20 -7.259074456560777e-18  3.963872075036685e-01
 9.708879175693246e-01  3.963872075036685e-01 -3.307031007380104e-17

-2.380473690240951e-17  6.884754701475402e-20  9.613805792589440e-01
 6.884754701475402e-20 -3.764216181168857e-18  4.039902557874441e-01
 9.613805792589440e-01  4.039902557874441e-01 -3.269873325221796e-17

-2.337067338739445e-17  1.124451545733339e-19  9.369457937078642e-01
 1.124451545733339e-19  1.759144427885502e-17  4.144082243668948e-01
 9.369457937078642e-01  4.144082243668948e-01 -3.177448631134319e-17

-2.298998972982961e-17 -4.680055039847156e-20  9.218981372727905e-01
-4.680055039847156e-20 -3.095275311517225e-17  3.899707988016280e-01
 9.218981372727905e-01  3.899707988016280e-01 -3.120652247510272e-17

-2.346958612287893e-17 -1.279804650022046e-19  9.697095667926215e-01
-1.279804650022046e-19 -5.104441112543600e-17  3.371228521310559e-01
 9.697095667926215e-01  3.371228521310559e-01 -3.288567522695185e-17

-2.285446597788035e-17  2.019841617540702e-19  9.088831018430845e-01
 2.019841617540702e-19  4.821432843388929e-17  4.070166277921949e-01
 9.088831018430845e-01  4.070166277921949e-01 -3.070542230783350e-17

-2.348153848156742e-17 -1.127780560513400e-20  9.435540943292611e-01
-1.127780560513400e-20 -1.537392515987598e-17  4.174594903954991e-01
 9.435540943292611e-01  4.174594903954991e-01 -3.200481931504580e-17

-2.382870267903998e-17  2.230718939670538e-19  9.620766100151540e-01
 2.230718939670538e-19  8.786863234499735e-17  4.133833596640175e-01
 9.620766100151540e-01  4.133833596640175e-01 -3.267871688575854e-17

-2.400886445965843e-17 -3.309967316041592e-20  9.740443537752230e-01
-3.309967316041592e-20 -2.764416626608700e-17  4.044561346591118e-01
 9.740443537752230e-01  4.044561346591118e-01 -3.309953789786111e-17

-2.406996682213275e-17 -1.656052047676024e-20  9.762117632489976e-01
-1.656052047676024e-20 -1.836082944896608e-17  4.055672916910502e-01
 9.762117632489976e-01  4.055672916910502e-01 -3.317623008228503e-17

-2.420673412438735e-17  1.181955411209188e-20  9.833733129051003e-01
 1.181955411209188e-20  7.272607803889221e-18  4.026630233358241e-01
 9.833733129051003e-01  4.026630233358241e-01 -3.342743090821423e-17

-2.426687721424192e-17 -3.935482527937648e-20  9.858163016097571e-01
-3.935482527937648e-20 -1.905947256585372e-17  4.051906610349169e-01
 9.858163016097571e-01  4.051906610349169e-01 -3.352114719535756e-17

-2.438126523885316e-17 -6.743548843734091e-20  9.912209388614465e-01
-6.743548843734091e-20 -2.423421419220326e-17  4.061083731623167e-01
 9.912209388614465e-01  4.061083731623167e-01 -3.371215960624477e-17

-2.476355616626985e-17  2.129931536996823e-19  9.982204486947784e-01
 2.129931536996823e-19 -1.439702974805833e-17  4.277678361109092e-01
 9.982204486947784e-01  4.277678361109092e-01 -3.412860293346493e-17

-2.476882228028089e-17  2.001920457444426e-19  1.000988515576966e+00
 2.001920457444426e-19 -1.211965993015449e-17  4.233774720985231e-01
 1.000988515576966e+00  4.233774720985231e-01 -3.421316744324448e-17

-2.485134838118735e-17  2.061166011307722e-19  1.006939876166443e+00
 2.061166011307722e-19 -1.493919571721571e-17  4.153027093337994e-01
 1.006939876166443e+00  4.153027093337994e-01 -3.444152641040810e-17

-2.493189743694123e-17  2.245128099331788e-19  1.008698727691044e+00
 2.245128099331788e-19 -1.396697263693410e-17  4.218492726241410e-01
 1.008698727691044e+00  4.218492726241410e-01 -3.453195992427278e-17

-2.503118517577197e-17  2.305480456087254e-19  1.013877894078965e+00
 2.305480456087254e-19 -1.102880107104877e-17  4.214547124636704e-01
 1.013877894078965e+00  4.214547124636704e-01 -3.473876738460549e-17

-2.506676117298266e-17  2.351152858056317e-19  1.014946436004545e+00
 2.351152858056317e-19 -1.006406901312260e-17  4.216532511598160e-01
 1.014946436004545e+00  4.216532511598160e-01 -3.479353900256082e-17

-2.503695263260637e-17  2.347704151811207e-19  1.012685034255454e+00
 2.347704151811207e-19 -1.108343083074053e-17  4.218370094249945e-01
 1.012685034255454e+00  4.218370094249945e-01 -3.472006893302901e-17

-2.500210830132495e-17  2.319694987009607e-19  1.010155862802563e+00
 2.319694987009607e-19 -1.211341948328292e-17  4.213323420190460e-01
 1.010155862802563e+00  4.213323420190460e-01 -3.463563626267853e-17

-2.504411511033062e-17  2.308880377529309e-19  1.011802737994029e+00
 2.308880377529309e-19 -1.227923354804718e-17  4.215518263344963e-01
 1.011802737994029e+00  4.215518263344963e-01 -3.470777801924734e-17

-2.515673329130430e-17  2.286317754705607e-19  1.017614202254701e+00
 2.286317754705607e-19 -1.156904617205048e-17  4.218567976044824e-01
 1.017614202254701e+00  4.218567976044824e-01 -3.493479415343023e-17

-2.532289690767116e-17  2.282392426356479e-19  1.026571412634733e+00
 2.282392426356479e-19 -1.184404084602686e-17  4.196150865343795e-01
 1.026571412634733e+00  4.196150865343795e-01 -3.527915652148524e-17

-2.550864100152145e-17  2.303010011537145e-19  1.036571216090139e+00
 2.303010011537145e-19 -1.291399009875360e-17  4.227075786080755e-01
 1.036571216090139e+00  4.227075786080755e-01 -3.566038306214395e-17

-2.541742288794136e-17  2.329765477513506e-19  1.026699619704639e+00
 2.329765477513506e-19 -1.385027172863992e-17  4.336458417725515e-01
 1.026699619704639e+00  4.336458417725515e-01 -3.531668980591058e-17

-2.545649139119005e-17  2.301726063022390e-19  1.034403192526369e+00
 2.301726063022390e-19 -1.655658843211530e-17  4.190219691357855e-01
 1.034403192526369e+00  4.190219691357855e-01 -3.557235060097054e-17

-2.530249519989570e-17  2.151702497452496e-19  1.025011105337899e+00
 2.151702497452496e-19 -1.379449970881834e-17  4.213522871475743e-01
 1.025011105337899e+00  4.213522871475743e-01 -3.521575855998112e-17

-2.523666977225617e-17  2.094304975887018e-19  1.021730101036650e+00
 2.094304975887018e-19 -1.369651015087952e-17  4.229018091888986e-01
 1.021730101036650e+00  4.229018091888986e-01 -3.508481557924399e-17

-2.520479210914090e-17  1.988041885143073e-19  1.020420088744721e+00
 1.988041885143073e-19 -1.455821811601487e-17  4.236908895627655e-01
 1.020420088744721e+00  4.236908895627655e-01 -3.502478905128048e-17

-2.522734854259611e-17  1.805002287543838e-19  1.021715792939518e+00
 1.805002287543838e-19 -1.413484137048934e-17  4.237746576750309e-01
 1.021715792939518e+00  4.237746576750309e-01 -3.506394671752786e-17

-2.525714991043056e-17  1.580748470718496e-19  1.023610045176934e+00
 1.580748470718496e-19 -1.319862557079144e-17  4.264422768125873e-01
 1.023610045176934e+00  4.264422768125873e-01 -3.512402558558899e-17

-2.519317179519950e-17  1.567959811713909e-19  1.020180980708843e+00
 1.567959811713909e-19 -1.363409912034326e-17  4.242884189992535e-01
 1.020180980708843e+00  4.242884189992535e-01 -3.497738400419907e-17

-2.526940466478774e-17  1.519758199972407e-19  1.023717956366744e+00
 1.519758199972407e-19 -1.227540485622154e-17  4.289101867773699e-01
 1.023717956366744e+00  4.289101867773699e-01 -3.509973845854141e-17

-2.537006509420933e-17  1.145576128651843e-19  1.031870949309864e+00
 1.145576128651843e-19 -1.342884216288560e-17  4.198480177934995e-01
 1.031870949309864e+00  4.198480177934995e-01 -3.537482012859087e-17

-2.534099677337651e-17  1.263483642381674e-19  1.026856247628879e+00
 1.263483642381674e-19 -1.447100775208941e-17  4.308506165018995e-01
 1.026856247628879e+00  4.308506165018995e-01 -3.519816424157198e-17

-2.533924584614699e-17  1.115847119984242e-19  1.027357790723489e+00
 1.115847119984242e-19 -1.427462097475050e-17  4.262956148551461e-01
 1.027357790723489e+00  4.262956148551461e-01 -3.520129026173434e-17

-2.540331502191286e-17  9.295551205144813e-20  1.030261669975814e+00
 9.295551205144813e-20 -1.389942630944818e-17  4.288902406509805e-01
 1.030261669975814e+00  4.288902406509805e-01 -3.530322728018278e-17

-2.546387523643785e-17  8.257183132853992e-20  1.033643929238919e+00
 8.257183132853992e-20 -1.263401605718891e-17  4.284522041815648e-01
 1.033643929238919e+00  4.284522041815648e-01 -3.541764463079338e-17

-2.541154460347982e-17  7.701364464938798e-20  1.027890360267367e+00
 7.701364464938798e-20 -1.196460785913796e-17  4.326860946021486e-01
 1.027890360267367e+00  4.326860946021486e-01 -3.520516893404343e-17

-2.548573815423073e-17  1.009232639595165e-19  1.029420040334954e+00
 1.009232639595165e-19 -1.515060770865857e-17  4.381240032421034e-01
 1.029420040334954e+00  4.381240032421034e-01 -3.526392652517730e-17

-2.561500508876794e-17  9.253694986942017e-20  1.043196146301745e+00
 9.253694986942017e-20 -1.376973414648397e-17  4.230377188193146e-01
 1.043196146301745e+00  4.230377188193146e-01 -3.574529533638150e-17

-2.554408125265537e-17  3.862101493912380e-20  1.035628368621455e+00
 3.862101493912380e-20 -1.133866982146483e-17  4.331689228862887e-01
 1.035628368621455e+00  4.331689228862887e-01 -3.547900277351751e-17

-2.563477642683467e-17  6.140356091440432e-20  1.041700853806342e+00
 6.140356091440432e-20 -1.449453971888992e-17  4.233191792650600e-01
 1.041700853806342e+00  4.233191792650600e-01 -3.568125040307894e-17

-2.548492735558305e-17  1.066002354734632e-19  1.030979634630041e+00
 1.066002354734632e-19 -1.403218023661608e-17  4.336077789706422e-01
 1.030979634630041e+00  4.336077789706422e-01 -3.530105441488063e-17

-2.546472490566245e-17  7.570589940796656e-20  1.032352897445124e+00
 7.570589940796656e-20 -1.331999805294309e-17  4.258819585788612e-01
 1.032352897445124e+00  4.258819585788612e-01 -3.532811190559759e-17

-2.547347101918401e-17  4.338654112846411e-20  1.026610692295059e+00
 4.338654112846411e-20 -1.221121775459045e-17  4.373277506215353e-01
 1.026610692295059e+00  4.373277506215353e-01 -3.512858011255673e-17

-2.532204370334003e-17  6.360253456970630e-20  1.025804974473076e+00
 6.360253456970630e-20 -1.388978579285512e-17  4.344564886914521e-01
 1.025804974473076e+00  4.344564886914521e-01 -3.509156765077723e-17

-2.538524408728539e-17  1.044954434516782e-20  1.026054451031057e+00
 1.044954434516782e-20 -1.302139814678332e-17  4.320603771074641e-01
 1.026054451031057e+00  4.320603771074641e-01 -3.509138422044199e-17

-2.812525366046856e-17  8.966478715774532e-19  1.028630780632041e+00
 8.966478715774532e-19 -1.500689383185396e-17  4.326855389740693e-01
 1.028630780632041e+00  4.326855389740693e-01 -3.518018898757744e-17

 2.810798103172851e-17 -1.653923951089412e-17  1.028962302044966e+00
-1.653923951089412e-17 -7.023349716808263e-18  4.297022220238313e-01
 1.028962302044966e+00  4.297022220238313e-01 -3.518057962080916e-17

-1.867949786662245e-17 -2.000926259721681e-18  1.025776285668946e+00
-2.000926259721681e-18 -1.538764026637079e-17  4.339274519352769e-01
 1.025776285668946e+00  4.339274519352769e-01 -3.507354997490843e-17

-2.564683612314370e-17  1.511857830484521e-19  1.026606310046597e+00
 1.511857830484521e-19 -1.619446603265701e-17  4.314397138901928e-01
 1.026606310046597e+00  4.314397138901928e-01 -3.509476074156545e-17

-2.553413878395464e-17  6.590396418360505e-20  1.024131414020627e+00
 6.590396418360505e-20 -1.164378283287155e-17  4.328442988710196e-01
 1.024131414020627e+00  4.328442988710196e-01 -3.501470269804922e-17

-2.536328584468510e-17  8.746401093756753e-20  1.024811820592161e+00
 8.746401093756753e-20 -1.821060592936052e-17  4.305079569522158e-01
 1.024811820592161e+00  4.305079569522158e-01 -3.503672470019215e-17

-2.541481601517202e-17  2.746906785431585e-20  1.022929463980173e+00
 2.746906785431585e-20 -1.273163254145007e-17  4.331881240368891e-01
 1.022929463980173e+00  4.331881240368891e-01 -3.497299612626969e-17

-2.541749127508580e-17  1.271263650031858e-19  1.020698932046823e+00
 1.271263650031858e-19 -1.693935266670023e-17  4.329923009953149e-01
 1.020698932046823e+00  4.329923009953149e-01 -3.489473776307122e-17

-2.538967671971880e-17  6.288434780599014e-20  1.018809854727380e+00
 6.288434780599014e-20 -1.388452092086926e-17  4.331042894351219e-01
 1.018809854727380e+00  4.331042894351219e-01 -3.482927061280958e-17

-2.544094726145590e-17  5.014258953438542e-20  1.021142705423737e+00
 5.014258953438542e-20 -1.235218137266582e-17  4.318156759848237e-01
 1.021142705423737e+00  4.318156759848237e-01 -3.492060332181829e-17

-2.546855613265909e-17  4.483138936958391e-20  1.023040922930697e+00
 4.483138936958391e-20 -1.216252087952710e-17  4.314094157733817e-01
 1.023040922930697e+00  4.314094157733817e-01 -3.499094612465024e-17

-2.543177399328064e-17  7.956319535150761e-20  1.019133746209062e+00
 7.956319535150761e-20 -1.445601948885657e-17  4.300941365257684e-01
 1.019133746209062e+00  4.300941365257684e-01 -3.485734477098647e-17

-2.539217929793984e-17  1.248554815921041e-19  1.012239456508385e+00
 1.248554815921041e-19 -1.572158069934218e-17  4.394386015414115e-01
 1.012239456508385e+00  4.394386015414115e-01 -3.462672405077126e-17

-2.549915451172388e-17  1.936009739183969e-19  1.014510618945135e+00
 1.936009739183969e-19 -1.807340365276974e-17  4.371563949714388e-01
 1.014510618945135e+00  4.371563949714388e-01 -3.472045364281929e-17

-2.551977157491878e-17  1.227860819733101e-19  1.021560706584199e+00
 1.227860819733101e-19 -1.367127542771156e-17  4.270698249955064e-01
 1.021560706584199e+00  4.270698249955064e-01 -3.498247551568114e-17

-2.559421794578064e-17  2.038704357715315e-19  1.023735672026761e+00
 2.038704357715315e-19 -1.723066536404341e-17  4.301449204813069e-01
 1.023735672026761e+00  4.301449204813069e-01 -3.508085305241295e-17

-2.567736261541465e-17  1.664159208337404e-19  1.029745306749352e+00
 1.664159208337404e-19 -1.524688009836778e-17  4.235826303628232e-01
 1.029745306749352e+00  4.235826303628232e-01 -3.530549612174442e-17

-2.569693843615351e-17  1.717112376295582e-19  1.027488853518085e+00
 1.717112376295582e-19 -1.665070037288488e-17  4.359652699335068e-01
 1.027488853518085e+00  4.359652699335068e-01 -3.525119608128756e-17

-2.550519318084665e-17  1.719743858217790e-19  1.016624192805614e+00
 1.719743858217790e-19 -1.634605764014167e-17  4.273498526048337e-01
 1.016624192805614e+00  4.273498526048337e-01 -3.483789963901020e-17

-2.553658283732649e-17  1.716744086501961e-19  1.016533765614282e+00
 1.716744086501961e-19 -1.812940045026761e-17  4.308066125082021e-01
 1.016533765614282e+00  4.308066125082021e-01 -3.484386515016364e-17

-2.563830083155402e-17  1.580571226440649e-19  1.017876118408605e+00
 1.580571226440649e-19 -1.775711966820156e-17  4.402465022068112e-01
 1.017876118408605e+00  4.402465022068112e-01 -3.491307339163664e-17

-2.593211853357197e-17  1.046660078566333e-19  1.047929673884925e+00
 1.046660078566333e-19 -1.949998638564174e-17  3.816717505052772e-01
 1.047929673884925e+00  3.816717505052772e-01 -3.598854839045115e-17

-2.600539565630588e-17  9.153879194248427e-20  1.037719014330493e+00
 9.153879194248427e-20 -1.446593482256928e-17  4.329055782001444e-01
 1.037719014330493e+00  4.329055782001444e-01 -3.564589966622855e-17

-2.648026624523444e-17  2.305551468326156e-19  1.063648445274850e+00
 2.305551468326156e-19 -2.215117015917824e-17  4.441443918431096e-01
 1.063648445274850e+00  4.441443918431096e-01 -3.661436624017035e-17

-2.621585099840813e-17  7.214060762451546e-20  1.048093903365275e+00
 7.214060762451546e-20 -1.453359073367879e-17  4.249058521851994e-01
 1.048093903365275e+00  4.249058521851994e-01 -3.601375752012467e-17

-2.613489976347505e-17 -3.507693096331502e-20  1.042226485599924e+00
-3.507693096331502e-20 -7.563879497516024e-18  4.298496707452865e-01
 1.042226485599924e+00  4.298496707452865e-01 -3.578687288697420e-17

-2.601293178703909e-17  1.008573904580707e-20  1.034725832108474e+00
 1.008573904580707e-20 -1.051194017418219e-17  4.295387837127952e-01
 1.034725832108474e+00  4.295387837127952e-01 -3.549441698905797e-17

-2.590357428437016e-17  5.590021006408575e-20  1.027784180789167e+00
 5.590021006408575e-20 -1.343106744239909e-17  4.307617996068426e-01
 1.027784180789167e+00  4.307617996068426e-01 -3.522867782408061e-17

-2.579278528541350e-17  1.030917268285558e-19  1.020493253175888e+00
 1.030917268285558e-19 -1.633757958609060e-17  4.326551186190670e-01
 1.020493253175888e+00  4.326551186190670e-01 -3.495413132921689e-17

-2.564588920943852e-17  1.494592427790904e-19  1.012493451730576e+00
 1.494592427790904e-19 -2.162029303260842e-17  4.301456229418453e-01
 1.012493451730576e+00  4.301456229418453e-01 -3.464128488037751e-17

-2.562563081497745e-17  4.526839455121005e-20  1.009742537882268e+00
 4.526839455121005e-20 -1.478418617495774e-17  4.318527744054551e-01
 1.009742537882268e+00  4.318527744054551e-01 -3.454689499831060e-17

-2.569094549106977e-17 -2.274471384180253e-20  1.013172279981113e+00
-2.274471384180253e-20 -1.079891507337213e-17  4.291019940282096e-01
 1.013172279981113e+00  4.291019940282096e-01 -3.467292600891189e-17

-2.570512372659006e-17  3.019648741685850e-20  1.012182454329696e+00
 3.019648741685850e-20 -1.376597029061900e-17  4.304177568017302e-01
 1.012182454329696e+00  4.304177568017302e-01 -3.464323821703277e-17

-2.571469925527747e-17  3.431229126222639e-19  1.011118751146123e+00
 3.431229126222639e-19 -3.152797386853034e-17  4.295270595840407e-01
 1.011118751146123e+00  4.295270595840407e-01 -3.461142650286918e-17

-2.579792806950143e-17 -2.508215226870125e-19  1.014626407477023e+00
-2.508215226870125e-19  4.678659694466954e-18  4.280392508011278e-01
 1.014626407477023e+00  4.280392508011278e-01 -3.475202949476159e-17

-2.585496938836165e-17 -1.249566219348770e-19  1.016303261968626e+00
-1.249566219348770e-19 -4.727573663654711e-18  4.245832467019727e-01
 1.016303261968626e+00  4.245832467019727e-01 -3.481862841415335e-17

-2.581503306403699e-17  3.973534411571821e-20  1.009247859379464e+00
 3.973534411571821e-20 -1.224445149667434e-17  4.297364094308874e-01
 1.009247859379464e+00  4.297364094308874e-01 -3.457092686591462e-17

-2.590763117367252e-17  1.342017153760738e-19  1.016097893193086e+00
 1.342017153760738e-19 -2.024914502342753e-17  4.253882359828021e-01
 1.016097893193086e+00  4.253882359828021e-01 -3.482696888827078e-17

-2.596992736152145e-17 -1.683797598142058e-20  1.019405577727028e+00
-1.683797598142058e-20 -1.025739640922157e-17  4.258083922494696e-01
 1.019405577727028e+00  4.258083922494696e-01 -3.494619932839349e-17

-2.594864271116153e-17 -1.178686361031558e-21  1.017081165284532e+00
-1.178686361031558e-21 -1.016850237060191e-17  4.254370644544641e-01
 1.017081165284532e+00  4.254370644544641e-01 -3.486730806646583e-17

-2.593344796130002e-17 -8.640392827235771e-20  1.014238394177251e+00
-8.640392827235771e-20 -6.925914326701484e-18  4.258163366243505e-01
 1.014238394177251e+00  4.258163366243505e-01 -3.477312358303328e-17

-2.589356778163748e-17  2.111232709899929e-20  1.010429381722784e+00
 2.111232709899929e-20 -1.258964653513574e-17  4.265567124234395e-01
 1.010429381722784e+00  4.265567124234395e-01 -3.463388772319021e-17

-2.593019835750202e-17  5.478805568159765e-20  1.010165769752643e+00
 5.478805568159765e-20 -1.446614378749644e-17  4.293484757501458e-01
 1.010165769752643e+00  4.293484757501458e-01 -3.463475915321930e-17

-2.598515875251194e-17  4.314943906114059e-20  1.012449372072390e+00
 4.314943906114059e-20 -1.215897602276932e-17  4.259658632956833e-01
 1.012449372072390e+00  4.259658632956833e-01 -3.472083670741505e-17

-2.606972602428899e-17  1.537405418165037e-19  1.016907140444543e+00
 1.537405418165037e-19 -1.968813648088176e-17  4.229346724053166e-01
 1.016907140444543e+00  4.229346724053166e-01 -3.489203466366032e-17

-2.601793053423494e-17 -1.061988991732202e-19  1.009900057849834e+00
-1.061988991732202e-19 -5.636571094502730e-18  4.248749752371146e-01
 1.009900057849834e+00  4.248749752371146e-01 -3.464971736677489e-17

-2.618856467594349e-17 -1.702314186728406e-19  1.016965379265178e+00
-1.702314186728406e-19  2.014270349825823e-19  4.265632107569354e-01
 1.016965379265178e+00  4.265632107569354e-01 -3.492582263588007e-17

-2.622860238506113e-17  1.019173883575471e-19  1.016225413938397e+00
 1.019173883575471e-19 -2.002991307058412e-17  4.239004437149342e-01
 1.016225413938397e+00  4.239004437149342e-01 -3.490697720394398e-17

-2.618644457638938e-17 -2.377530716524477e-19  1.010201210524571e+00
-2.377530716524477e-19  2.557878476606972e-18  4.278345099809641e-01
 1.010201210524571e+00  4.278345099809641e-01 -3.469373921473806e-17

-2.626121334256612e-17  1.062768211551834e-19  1.011562756060735e+00
 1.062768211551834e-19 -1.970888645991736e-17  4.293603593676005e-01
 1.011562756060735e+00  4.293603593676005e-01 -3.475387587154903e-17

-2.636440720755036e-17 -7.413126172793805e-20  1.015796963653002e+00
-7.413126172793805e-20 -7.946504671222759e-18  4.228831226829108e-01
 1.015796963653002e+00  4.228831226829108e-01 -3.491686251184529e-17

-2.645334936607729e-17 -4.032417949318130e-19  1.016897998223599e+00
-4.032417949318130e-19  1.311240690899377e-17  4.266607380317884e-01
 1.016897998223599e+00  4.266607380317884e-01 -3.497410232374071e-17

-2.645447424842834e-17 -1.626154038319591e-19  1.012391396669269e+00
-1.626154038319591e-19 -3.655215491663882e-18  4.240871149283617e-01
 1.012391396669269e+00  4.240871149283617e-01 -3.481819770223314e-17

-2.666358883898145e-17 -4.137599407326787e-19  1.020280850937183e+00
-4.137599407326787e-19  1.429995355918573e-17  4.262897784215133e-01
 1.020280850937183e+00  4.262897784215133e-01 -3.513249900129121e-17

-2.667548255806637e-17  1.889985848990928e-19  1.014506041216633e+00
 1.889985848990928e-19 -2.954050731398251e-17  4.237903449485921e-01
 1.014506041216633e+00  4.237903449485921e-01 -3.493472449691297e-17

-2.672350750263420e-17  2.667379014033503e-19  1.014520520864847e+00
 2.667379014033503e-19 -3.542744458461081e-17  4.256761189085778e-01
 1.014520520864847e+00  4.256761189085778e-01 -3.495075671342824e-17

-2.678063811025852e-17  3.443646346938012e-19  1.015255152648649e+00
 3.443646346938012e-19 -4.135166989553253e-17  4.256933477856432e-01
 1.015255152648649e+00  4.256933477856432e-01 -3.499210094429518e-17

-2.686756582058236e-17  7.375312891545963e-20  1.015591949703657e+00
 7.375312891545963e-20 -2.265381747884836e-17  4.256866107889019e-01
 1.015591949703657e+00  4.256866107889019e-01 -3.501887636757860e-17

-2.696915443159946e-17 -3.720172893703664e-20  1.014923292537540e+00
-3.720172893703664e-20 -1.523814495369067e-17  4.255742411055755e-01
 1.014923292537540e+00  4.255742411055755e-01 -3.502177625293570e-17

-2.704498945540488e-17  6.942808112742181e-20  1.014876423371787e+00
 6.942808112742181e-20 -2.405520633607694e-17  4.257687651208663e-01
 1.014876423371787e+00  4.257687651208663e-01 -3.504466932673217e-17

-2.715967014102736e-17 -2.224406876690299e-19  1.015537567146607e+00
-2.224406876690299e-19 -4.533061930567663e-18  4.245972357112540e-01
 1.015537567146607e+00  4.245972357112540e-01 -3.509225187685252e-17

-2.729294769418718e-17 -2.612585718405165e-19  1.016337234418422e+00
-2.612585718405165e-19 -2.790344581931341e-18  4.298653752257971e-01
 1.016337234418422e+00  4.298653752257971e-01 -3.515731463100513e-17

-2.741941455684071e-17  2.813537554809353e-19  1.022163371782839e+00
 2.813537554809353e-19 -4.154949602723928e-17  4.184928821678039e-01
 1.022163371782839e+00  4.184928821678039e-01 -3.537398994390326e-17

-2.747407976703980e-17 -5.106817479335458e-20  1.023968937858627e+00
-5.106817479335458e-20 -1.887141414681229e-17  4.161840219559588e-01
 1.023968937858627e+00  4.161840219559588e-01 -3.544050228431690e-17

-2.751918232724151e-17  2.806905392862221e-19  1.017700030194402e+00
 2.806905392862221e-19 -4.198292755934202e-17  4.275815972813791e-01
 1.017700030194402e+00  4.275815972813791e-01 -3.525481150766042e-17

-2.758271170354600e-17 -2.242707843268106e-19  1.014379592430506e+00
-2.242707843268106e-19 -8.205680688133826e-18  4.341296914042116e-01
 1.014379592430506e+00  4.341296914042116e-01 -3.515998753748598e-17

-2.758919565727862e-17 -5.307047215388717e-19  1.011105693946907e+00
-5.307047215388717e-19  1.280641635397518e-17  4.325987145321593e-01
 1.011105693946907e+00  4.325987145321593e-01 -3.504940068891351e-17

-2.760420487150060e-17 -1.561062066717639e-19  1.008024282274291e+00
-1.561062066717639e-19 -1.404344893803857e-17  4.225965925062937e-01
 1.008024282274291e+00  4.225965925062937e-01 -3.494709591984384e-17

-2.800718330626800e-17 -7.870130366618670e-19  1.022723806605784e+00
-7.870130366618670e-19  2.873885863905663e-17  4.222576165813790e-01
 1.022723806605784e+00  4.222576165813790e-01 -3.553719393117487e-17

-2.864876649456109e-17 -8.082987358706301e-19  1.052077421605387e+00
-8.082987358706301e-19  2.849238275175787e-17  4.343079648588672e-01
 1.052077421605387e+00  4.343079648588672e-01 -3.668603586440119e-17

-2.862990305700452e-17 -2.681522218433580e-19  1.042470760452261e+00
-2.681522218433580e-19 -1.481328858402911e-17  4.334609099657586e-01
 1.042470760452261e+00  4.334609099657586e-01 -3.635886929724104e-17

-2.831910500131221e-17 -3.960877391517293e-19  1.019152407226393e+00
-3.960877391517293e-19 -6.490743475751859e-18  4.229674398720067e-01
 1.019152407226393e+00  4.229674398720067e-01 -3.546586933396240e-17

-2.835939853035973e-17 -4.700247154207843e-19  1.009789119434267e+00
-4.700247154207843e-19 -3.804695630049272e-18  4.355073303816221e-01
 1.009789119434267e+00  4.355073303816221e-01 -3.516595230795107e-17

-2.867508901196155e-17 -4.868460203656254e-19  1.016298052391626e+00
-4.868460203656254e-19 -7.474372820450684e-18  4.365187890208542e-01
 1.016298052391626e+00  4.365187890208542e-01 -3.543488665105294e-17

-2.909669317491923e-17 -5.288284541522625e-19  1.029682101249814e+00
-5.288284541522625e-19 -7.776027131910159e-18  4.414020468774656e-01
 1.029682101249814e+00  4.414020468774656e-01 -3.597312579864612e-17

-2.950741620078580e-17  2.136134161441680e-19  1.038746102750824e+00
 2.136134161441680e-19 -6.339309382554443e-17  4.386116776082098e-01
 1.038746102750824e+00  4.386116776082098e-01 -3.637167326455378e-17

-2.981992593787693e-17  2.838977278884723e-19  1.043269927468999e+00
 2.838977278884723e-19 -6.655293394407343e-17  4.370893224207816e-01
 1.043269927468999e+00  4.370893224207816e-01 -3.664314867722014e-17

-3.009662377805940e-17  4.678777682194238e-19  1.042401106428489e+00
 4.678777682194238e-19 -7.815987377589371e-17  4.330097006974983e-01
 1.042401106428489e+00  4.330097006974983e-01 -3.675521318225947e-17

-3.022348320590642e-17 -5.771759804930183e-19  1.038674682622059e+00
-5.771759804930183e-19  1.095441930838088e-18  4.289464559620786e-01
 1.038674682622059e+00  4.289464559620786e-01 -3.671176550472685e-17

-3.028719545299919e-17 -1.238181997729723e-18  1.033637349432413e+00
-1.238181997729723e-18  5.000690320254892e-17  4.318535649783188e-01
 1.033637349432413e+00  4.318535649783188e-01 -3.659044813107104e-17

-3.038396069631629e-17 -1.267154466215467e-18  1.029326772424669e+00
-1.267154466215467e-18  4.987531901851188e-17  4.282668166005665e-01
 1.029326772424669e+00  4.282668166005665e-01 -3.650826417256945e-17

-3.053474882200054e-17  4.398021244838755e-19  1.022269292288148e+00
 4.398021244838755e-19 -8.199096825735338e-17  4.272941054054421e-01
 1.022269292288148e+00  4.272941054054421e-01 -3.631603406762175e-17

-3.077058749185394e-17 -5.488484693580289e-19  1.017279517477870e+00
-5.488484693580289e-19 -1.182308915656923e-17  4.284997290454116e-01
 1.017279517477870e+00  4.284997290454116e-01 -3.622435846195516e-17

-3.103158689282111e-17 -2.013831593039932e-19  1.019548976830883e+00
-2.013831593039932e-19 -4.262607412582937e-17  4.240442150837074e-01
 1.019548976830883e+00  4.240442150837074e-01 -3.636829995898255e-17

-3.120796727260458e-17 -3.796501082021758e-19  1.018353134296525e+00
-3.796501082021758e-19 -3.172209936298198e-17  4.273541676164315e-01
 1.018353134296525e+00  4.273541676164315e-01 -3.637883097472426e-17

-3.154219960121253e-17 -3.327690129561225e-19  1.014309450446717e+00
-3.327690129561225e-19 -4.052507561710512e-17  4.280853610659055e-01
 1.014309450446717e+00  4.280853610659055e-01 -3.634731772183464e-17

-3.190878976148997e-17 -7.762081831646855e-19  1.011583582005290e+00
-7.762081831646855e-19 -1.211167556238104e-17  4.263279320222390e-01
 1.011583582005290e+00  4.263279320222390e-01 -3.636928022258605e-17

-3.217349856064031e-17 -3.108250555622137e-20  1.011396658759830e+00
-3.108250555622137e-20 -7.106699503387287e-17  4.282632512864518e-01
 1.011396658759830e+00  4.282632512864518e-01 -3.644680648300678e-17

-3.261393418316764e-17 -1.513556016073291e-18  1.016012608838583e+00
-1.513556016073291e-18  3.261620742919612e-17  4.268929971206726e-01
 1.016012608838583e+00  4.268929971206726e-01 -3.674160426057820e-17

-3.326055510964405e-17  4.335811943824432e-19  1.015440416631241e+00
 4.335811943824432e-19 -1.188302454680915e-16  4.266429593402223e-01
 1.015440416631241e+00  4.266429593402223e-01 -3.692479392840913e-17

-3.386107372741980e-17 -7.368842044340706e-19  1.012614650892412e+00
-7.368842044340706e-19 -3.946344399339292e-17  4.249750885187035e-01
 1.012614650892412e+00  4.249750885187035e-01 -3.703199471081696e-17

-3.454121055553534e-17 -8.352141611320095e-19  1.012869876917722e+00
-8.352141611320095e-19 -3.986974774420636e-17  4.262884779727381e-01
 1.012869876917722e+00  4.262884779727381e-01 -3.728399758752548e-17

-3.545178880557901e-17 -1.439771987392794e-18  1.010801644390326e+00
-1.439771987392794e-18 -3.699330573724998e-18  4.256797335446305e-01
 1.010801644390326e+00  4.256797335446305e-01 -3.751988083626394e-17

-3.626741018973381e-17 -1.685224564765911e-18  1.007987971557514e+00
-1.685224564765911e-18  4.673919274697544e-18  4.270245455922206e-01
 1.007987971557514e+00  4.270245455922206e-01 -3.769814609764135e-17

-3.673828516262689e-17 -1.016410258753509e-18  1.006633418946148e+00
-1.016410258753509e-18 -4.845417182636163e-17  4.269886171831058e-01
 1.006633418946148e+00  4.269886171831058e-01 -3.779959000133826e-17

-3.703587691933360e-17 -1.063751196351432e-18  1.016953113704685e+00
-1.063751196351432e-18 -5.078914144814599e-17  4.156463691065591e-01
 1.016953113704685e+00  4.156463691065591e-01 -3.824992505106038e-17

-3.730555802260201e-17 -2.125287976361571e-18  1.013006929712216e+00
-2.125287976361571e-18  2.634588478341491e-17  4.210910075074319e-01
 1.013006929712216e+00  4.210910075074319e-01 -3.819593579452888e-17

-3.789542494412947e-17 -2.623362026436282e-18  1.007061273782482e+00
-2.623362026436282e-18  5.929321430431265e-17  4.272574412124414e-01
 1.007061273782482e+00  4.272574412124414e-01 -3.823320821989113e-17

-3.892010859624608e-17 -2.761083655319585e-18  1.009595700139148e+00
-2.761083655319585e-18  5.867357627155786e-17  4.228916158649755e-01
 1.009595700139148e+00  4.228916158649755e-01 -3.868214385627430e-17

-3.958098026477806e-17 -1.472816791254864e-18  1.007030845296488e+00
-1.472816791254864e-18 -4.674109247044702e-17  4.260518860078814e-01
 1.007030845296488e+00  4.260518860078814e-01 -3.881897043834346e-17

-4.071406225981134e-17 -1.613982676579157e-18  1.005721671632204e+00
-1.613982676579157e-18 -4.785137896448646e-17  4.241852943041295e-01
 1.005721671632204e+00  4.241852943041295e-01 -3.917330908340080e-17

-4.236248236139628e-17 -2.476837041421058e-18  1.003354602522199e+00
-2.476837041421058e-18 -1.524809237022411e-19  4.260774427699162e-01
 1.003354602522199e+00  4.260774427699162e-01 -3.967615356919219e-17

-4.329664368582022e-17 -4.259114978377596e-18  1.007982493913923e+00
-4.259114978377596e-18  1.297343374189339e-16  4.219947471677069e-01
 1.007982493913923e+00  4.219947471677069e-01 -4.015850050016767e-17

-4.403375156797992e-17 -2.790812202284291e-18  1.013691571679062e+00
-2.790812202284291e-18  7.617804428956908e-18  4.172145613307737e-01
 1.013691571679062e+00  4.172145613307737e-01 -4.056953355127451e-17

-4.452018921115561e-17 -1.642926006424757e-18  1.008418302824506e+00
-1.642926006424757e-18 -8.665907315883637e-17  4.211177809254161e-01
 1.008418302824506e+00  4.211177809254161e-01 -4.058697517610624e-17

-4.547246764025930e-17 -2.916874637147471e-18  1.009248326650905e+00
-2.916874637147471e-18  3.235306966828454e-18  4.249775391565813e-01
 1.009248326650905e+00  4.249775391565813e-01 -4.094618059592469e-17

-4.676565315640811e-17 -2.975249700120294e-18  1.009804445744747e+00
-2.975249700120294e-18 -4.819974796549982e-18  4.241647282364262e-01
 1.009804445744747e+00  4.241647282364262e-01 -4.140013623079942e-17

-4.884692578837121e-17 -2.932673091765732e-18  1.011659025103308e+00
-2.932673091765732e-18 -3.086390583694091e-17  4.197067467516642e-01
 1.011659025103308e+00  4.197067467516642e-01 -4.219512102810340e-17

-5.279314932552863e-17 -4.325753523987347e-18  1.012977097832090e+00
-4.325753523987347e-18  4.399543817097599e-17  4.212060853745180e-01
 1.012977097832090e+00  4.212060853745180e-01 -4.360798774043334e-17

-5.702255274959011e-17 -4.618263103752360e-18  1.011755018255394e+00
-4.618263103752360e-18  2.565765168138245e-17  4.208615985661491e-01
 1.011755018255394e+00  4.208615985661491e-01 -4.502319273117266e-17

-6.082263573688218e-17 -5.031799369199515e-18  1.012602030351594e+00
-5.031799369199515e-18  2.447195631690703e-17  4.218818182818384e-01
 1.012602030351594e+00  4.218818182818384e-01 -4.637951776392413e-17

-6.535561391417733e-17 -3.759149569236063e-18  1.013836667746493e+00
-3.759149569236063e-18 -1.161170252828333e-16  4.218551453358698e-01
 1.013836667746493e+00  4.218551453358698e-01 -4.797140438232820e-17

-7.171538700258106e-17 -3.702147888584559e-18  1.014835470386041e+00
-3.702147888584559e-18 -1.700922193015300e-16  4.218045202696106e-01
 1.014835470386041e+00  4.218045202696106e-01 -5.020790963206223e-17

-7.666631568516735e-17 -6.549999709778378e-18  1.014962966054865e+00
-6.549999709778378e-18  2.678093850809576e-17  4.220902652692606e-01
 1.014962966054865e+00  4.220902652692606e-01 -5.194430190728130e-17

-8.203729248324342e-17 -6.551604091370057e-18  1.016187607897505e+00
-6.551604091370057e-18 -6.360546242636765e-18  4.211116668668897e-01
 1.016187607897505e+00  4.211116668668897e-01 -5.385222917868836e-17

-9.417041211218746e-17 -5.799861993047342e-18  1.017296452829907e+00
-5.799861993047342e-18 -1.283479534203804e-16  4.206634089961191e-01
 1.017296452829907e+00  4.206634089961191e-01 -5.811961101378750e-17

-1.048929813186198e-16 -8.073953881202952e-18  1.017503989571201e+00
-8.073953881202952e-18  1.762802675364356e-17  4.218142657234389e-01
 1.017503989571201e+00  4.218142657234389e-01 -6.185917232696834e-17

-1.138982133229725e-16 -8.976398808157507e-18  1.016574351506607e+00
-8.976398808157507e-18  6.883494507787207e-17  4.194476221215956e-01
 1.016574351506607e+00  4.194476221215956e-01 -6.500137583066151e-17

-1.286065281016037e-16 -9.197697721466370e-18  1.014715484686551e+00
-9.197697721466370e-18  6.908147985650133e-17  4.207007679676095e-01
 1.014715484686551e+00  4.207007679676095e-01 -7.012028969365601e-17

-1.500002807870393e-16 -6.411218975205094e-18  1.012064242664503e+00
-6.411218975205094e-18 -1.380245619729642e-16  4.201632025109379e-01
 1.012064242664503e+00  4.201632025109379e-01 -7.755860356882864e-17

-1.863354356555894e-16 -2.418036147275887e-18  1.009202802440481e+00
-2.418036147275887e-18 -3.451656792025742e-16  4.194233283269418e-01
 1.009202802440481e+00  4.194233283269418e-01 -9.033416097627451e-17

-2.363489458421475e-16 -1.277564776785998e-18  1.011870594283834e+00
-1.277564776785998e-18 -9.643959935405726e-18  4.215390814434696e-01
 1.011870594283834e+00  4.215390814434696e-01 -1.083693754406800e-16

-2.829653130594217e-16  5.446854675824510e-18  1.012118090867754e+00
 5.446854675824510e-18  2.712672462610598e-17  4.185134501413276e-01
 1.012118090867754e+00  4.185134501413276e-01 -1.253336082729295e-16

-3.459872574133773e-16  1.489538910397934e-17  1.011741217894731e+00
 1.489538910397934e-17  3.567602655860953e-16  4.193592415799078e-01
 1.011741217894731e+00  4.193592415799078e-01 -1.486366523107901e-16

-4.435004125481983e-16  4.556465160110833e-17  1.010164045389075e+00
 4.556465160110833e-17  5.420809921431197e-17  4.202825626012979e-01
 1.010164045389075e+00  4.202825626012979e-01 -1.854620231301141e-16

-6.096466726700304e-16  1.118172174098015e-16  1.009807370018410e+00
 1.118172174098015e-16  1.466092568125846e-16  4.221100503648008e-01
 1.009807370018410e+00  4.221100503648008e-01 -2.513804574533757e-16

-7.951445072104145e-16  2.139472725197421e-16  1.013452701348132e+00
 2.139472725197421e-16  5.508329217211592e-16  4.207299566589080e-01
 1.013452701348132e+00  4.207299566589080e-01 -3.306511345602890e-16

-9.373110526807001e-16  3.160231182363135e-16  1.010318539578537e+00
 3.160231182363135e-16  4.082354126503059e-16  4.217575497090751e-01
 1.010318539578537e+00  4.217575497090751e-01 -3.948581934523148e-16

-1.064923043138441e-15  4.210091886240850e-16  1.009540015373392e+00
 4.210091886240850e-16  5.069093820948720e-16  4.221509033975004e-01
 1.009540015373392e+00  4.221509033975004e-01 -4.560566176594168e-16

-1.274453055020351e-15  6.204325568586226e-16  1.014010920552850e+00
 6.204325568586226e-16  1.125458989931237e-15  4.230131402130640e-01
 1.014010920552850e+00  4.230131402130640e-01 -5.641063567441083e-16

-1.641213775210362e-15  1.108585553737319e-15  1.011791886873508e+00
 1.108585553737319e-15  9.675050230522392e-16  4.254554275693687e-01
 1.011791886873508e+00  4.254554275693687e-01 -7.849228978473899e-16

-2.256733492952361e-15  2.423608103610135e-15  1.012055383745366e+00
 2.423608103610135e-15  2.018546263856467e-15  4.235121562307273e-01
 1.012055383745366e+00  4.235121562307273e-01 -1.307623834819723e-15

-2.863787814451408e-15  5.112345083014781e-15  1.013822640968135e+00
 5.112345083014781e-15  2.488905806152501e-15  4.264468262847808e-01
 1.013822640968135e+00  4.264468262847808e-01 -2.321841960710289e-15

-3.350696959248126e-15  9.237417098047153e-15  1.012925586074594e+00
 9.237417098047153e-15  2.332720547317956e-15  4.240257687950202e-01
 1.012925586074594e+00  4.240257687950202e-01 -4.162076308061037e-15

-6.392788089371719e-15  1.482868207492307e-14  1.013382333575071e+00
 1.482868207492307e-14  6.734385068104551e-16  4.263566730062217e-01
 1.013382333575071e+00  4.263566730062217e-01 -9.619196034589193e-15

 1.710851934834307e-14  4.258895622984011e-16  1.014371964441011e+00
 4.258895622984011e-16  2.219577462687490e-14  4.256573402301499e-01
 1.014371964441011e+00  4.256573402301499e-01 -7.601747400599034e-15

 1.632617869688801e-13 -3.929222193136294e-14  1.014932011862045e+00
-3.929222193136294e-14  8.403562320957414e-14  4.240825283120285e-01
 1.014932011862045e+00  4.240825283120285e-01  3.903981416230588e-14

-6.288306789488373e-13  1.464830520432623e-13  1.013509483689393e+00
 1.464830520432623e-13 -3.123593578826955e-13  4.270262238695563e-01
 1.013509483689393e+00  4.270262238695563e-01 -1.575102729051979e-13

 1.703273792233247e-13 -6.329832408368164e-14  1.015179043708567e+00
-6.329832408368164e-14  9.324529944472988e-14  4.315548911969228e-01
 1.015179043708567e+00  4.315548911969228e-01  4.531939423412494e-14

-6.621529087902446e-13  1.463033197408198e-13  1.015716511940106e+00
 1.463033197408198e-13 -3.086230612212261e-13  4.305905558665146e-01
 1.015716511940106e+00  4.305905558665146e-01 -1.778466057695673e-13

-1.795961108834896e-14 -1.221689038693621e-14  1.015198166186802e+00
-1.221689038693621e-14  7.074384997889287e-15  4.311496896717840e-01
 1.015198166186802e+00  4.311496896717840e-01 -1.272863617657971e-14

-1.777376406033034e-14 -3.987943866492916e-15  1.015191103012369e+00
-3.987943866492916e-15 -2.060397972249059e-15  4.309437859969583e-01
 1.015191103012369e+00  4.309437859969583e-01 -9.526502314672172e-15

-1.262809670042965e-14 -1.365099540056305e-15  1.014352731536915e+00
-1.365099540056305e-15 -2.632395737784570e-15  4.324719277392884e-01
 1.014352731536915e+00  4.324719277392884e-01 -5.926082600135319e-15

-7.336035851114284e-15  4.152801086993207e-16  1.015056524773364e+00
 4.152801086993207e-16 -1.953371506813279e-15  4.307890276560162e-01
 1.015056524773364e+00  4.307890276560162e-01 -2.803635481920550e-15

-4.120350123163686e-15  9.467869044691920e-16  1.017924692631173e+00
 9.467869044691920e-16 -1.641669629500983e-15  4.342462764435349e-01
 1.017924692631173e+00  4.342462764435349e-01 -1.335971879208801e-15

-2.721528459878856e-15  8.867689790327816e-16  1.029643307486095e+00
 8.867689790327816e-16 -1.446790409549010e-15  4.240982029231831e-01
 1.029643307486095e+00  4.240982029231831e-01 -8.374999702003131e-16

-2.145386373236495e-15  7.884040147344169e-16  1.026946795963337e+00
 7.884040147344169e-16 -1.323570914372816e-15  4.308523927276604e-01
 1.026946795963337e+00  4.308523927276604e-01 -6.526784016284549e-16

-1.396704260962316e-15  6.042255957850444e-16  1.024742067928034e+00
 6.042255957850444e-16 -1.105022386349938e-15  4.323399646609999e-01
 1.024742067928034e+00  4.323399646609999e-01 -4.281788294655956e-16

-9.842485295662748e-16  4.551041121495714e-16  1.019235560244088e+00
 4.551041121495714e-16 -9.150793202917004e-16  4.407598079427166e-01
 1.019235560244088e+00  4.407598079427166e-01 -3.109238258575692e-16

-8.085142419908412e-16  3.812663302590799e-16  1.021861375072109e+00
 3.812663302590799e-16 -8.132144599206950e-16  4.385743211853207e-01
 1.021861375072109e+00  4.385743211853207e-01 -2.619192441059052e-16

-5.833587462938462e-16  2.787204512218936e-16  1.031034885072136e+00
 2.787204512218936e-16 -6.607753510731294e-16  4.337469484376982e-01
 1.031034885072136e+00  4.337469484376982e-01 -2.113825913478729e-16

-4.320090976397830e-16  2.027002543255102e-16  1.028182056468178e+00
 2.027002543255102e-16 -5.301106357776985e-16  4.368171400317054e-01
 1.028182056468178e+00  4.368171400317054e-01 -1.570152564463295e-16

-3.330732282192135e-16  1.508441182160050e-16  1.031620397546518e+00
 1.508441182160050e-16 -4.309548151656186e-16  4.301459323802972e-01
 1.031620397546518e+00  4.301459323802972e-01 -1.289390507748428e-16

-2.784004517617296e-16  1.207142577039935e-16  1.032443907528293e+00
 1.207142577039935e-16 -3.739804315666126e-16  4.465739633883837e-01
 1.032443907528293e+00  4.465739633883837e-01 -1.132986191124848e-16

-2.267059868334101e-16  9.283645289996445e-17  1.041795851514671e+00
 9.283645289996445e-17 -3.143511174328064e-16  4.342599025703789e-01
 1.041795851514671e+00  4.342599025703789e-01 -9.842437392941372e-17

-1.937120865466364e-16  7.488523717710656e-17  1.045857366693696e+00
 7.488523717710656e-17 -2.719537012288489e-16  4.382555018032042e-01
 1.045857366693696e+00  4.382555018032042e-01 -8.874805143184422e-17

-1.744896716706538e-16  6.446207273146664e-17  1.042552864512716e+00
 6.446207273146664e-17 -2.443852699880052e-16  4.506173797380630e-01
 1.042552864512716e+00  4.506173797380630e-01 -8.288125152819982e-17

-1.488535553500933e-16  5.124319898843567e-17  1.047286749433770e+00
 5.124319898843567e-17 -2.071777129822056e-16  4.414912700326032e-01
 1.047286749433770e+00  4.414912700326032e-01 -7.517952448669029e-17

-1.255177349740670e-16  3.955673394877788e-17  1.040436639412537e+00
 3.955673394877788e-17 -1.726879569239552e-16  4.439117337101381e-01
 1.040436639412537e+00  4.439117337101381e-01 -6.765671223446726e-17

-1.097447049142741e-16  3.184085622251007e-17  1.040393240775310e+00
 3.184085622251007e-17 -1.543713065761988e-16  4.439989375309383e-01
 1.040393240775310e+00  4.439989375309383e-01 -6.266694198581447e-17

-1.005713769541876e-16  2.731380684685130e-17  1.040831999058371e+00
 2.731380684685130e-17 -1.379552952054506e-16  4.502450074722166e-01
 1.040831999058371e+00  4.502450074722166e-01 -5.975297454954267e-17

-9.272360197578827e-17  2.357998225302180e-17  1.042431317555959e+00
 2.357998225302180e-17 -1.263460278733587e-16  4.511192620035610e-01
 1.042431317555959e+00  4.511192620035610e-01 -5.728921399883475e-17

-8.325099946152028e-17  1.918590474882239e-17  1.045849156083052e+00
 1.918590474882239e-17 -1.093035841663571e-16  4.490568006709288e-01
 1.045849156083052e+00  4.490568006709288e-01 -5.433711758907657e-17

-7.559954517062644e-17  1.566643991940317e-17  1.051333347275025e+00
 1.566643991940317e-17 -9.751321762110300e-17  4.505125803401728e-01
 1.051333347275025e+00  4.505125803401728e-01 -5.200114252669041e-17

-6.943253818949200e-17  1.290465225557350e-17  1.063855580586974e+00
 1.290465225557350e-17 -8.796827294067054e-17  4.430450420658564e-01
 1.063855580586974e+00  4.430450420658564e-01 -5.036969042916005e-17

-6.522857139884297e-17  1.108406750391632e-17  1.056606052119759e+00
 1.108406750391632e-17 -8.014506629661971e-17  4.718658873011915e-01
 1.056606052119759e+00  4.718658873011915e-01 -4.880655142624219e-17

-6.068903176696932e-17  9.618831458965549e-18  1.044972249061553e+00
 9.618831458965549e-18 -7.361327087384335e-17  4.393902107679029e-01
 1.044972249061553e+00  4.393902107679029e-01 -4.690968495465117e-17

-5.706864823647215e-17  8.246984583602533e-18  1.055120794516655e+00
 8.246984583602533e-18 -6.832932147151249e-17  4.202341350558187e-01
 1.055120794516655e+00  4.202341350558187e-01 -4.605337413482870e-17

-5.475630261331650e-17  7.172473930951060e-18  1.058158096126889e+00
 7.172473930951060e-18 -6.265614147763274e-17  4.569587196846815e-01
 1.058158096126889e+00  4.569587196846815e-01 -4.545828134546654e-17

-5.163898509693982e-17  6.047097910313499e-18  1.060807982396512e+00
 6.047097910313499e-18 -5.731245512555464e-17  4.524041160936558e-01
 1.060807982396512e+00  4.524041160936558e-01 -4.455759436865425e-17

-4.799931480504136e-17  5.317604711072599e-18  1.012891772740330e+00
 5.317604711072599e-18 -5.414265236990628e-17  4.336037803066974e-01
 1.012891772740330e+00  4.336037803066974e-01 -4.175804163212157e-17

-4.511527701979210e-17  4.602994060236373e-18  9.834685871491038e-01
 4.602994060236373e-18 -4.827184745683689e-17  4.319374593726436e-01
 9.834685871491038e-01  4.319374593726436e-01 -3.988169646493240e-17

-4.342387530377023e-17  3.764014514080982e-18  1.012011480453916e+00
 3.764014514080982e-18 -4.461853932422080e-17  4.413899635004356e-01
 1.012011480453916e+00  4.413899635004356e-01 -4.025026048314531e-17

-4.198072174742347e-17  3.168155315455131e-18  1.028627489484784e+00
 3.168155315455131e-18 -4.128216578519593e-17  4.342067748158433e-01
 1.028627489484784e+00  4.342067748158433e-01 -4.030538063228235e-17

-4.048512696546648e-17  2.683860127381878e-18  1.031195855867163e+00
 2.683860127381878e-18 -4.030664956951946e-17  4.306117512343629e-01
 1.031195855867163e+00  4.306117512343629e-01 -3.989229703733665e-17

-3.883146345105771e-17  2.280251438645238e-18  1.022311438323674e+00
 2.280251438645238e-18 -3.543427861512426e-17  4.272430261386491e-01
 1.022311438323674e+00  4.272430261386491e-01 -3.906750729341078e-17

-3.734913444722432e-17  1.898905624128972e-18  1.018319806219835e+00
 1.898905624128972e-18 -3.292855568308967e-17  4.275568893728405e-01
 1.018319806219835e+00  4.275568893728405e-01 -3.842882731994091e-17

-3.619866699213559e-17  1.619296294310580e-18  1.016155885937202e+00
 1.619296294310580e-18 -3.289692596155039e-17  4.270053634868761e-01
 1.016155885937202e+00  4.270053634868761e-01 -3.798670770558186e-17

-3.540433171938560e-17  1.450763020610780e-18  1.013509398983458e+00
 1.450763020610780e-18 -2.996452914295303e-17  4.262913336210957e-01
 1.013509398983458e+00  4.262913336210957e-01 -3.765198764832616e-17

-3.461397215919155e-17  1.280940151479800e-18  1.010415894726327e+00
 1.280940151479800e-18 -2.864119689683453e-17  4.262876194348652e-01
 1.010415894726327e+00  4.262876194348652e-01 -3.728166537051736e-17

-3.409468351141940e-17  1.171771828107923e-18  1.008785946888928e+00
 1.171771828107923e-18 -2.779553154969588e-17  4.260910880342409e-01
 1.008785946888928e+00  4.260910880342409e-01 -3.705009610375572e-17

-3.350289359467081e-17  1.078534234960649e-18  1.004185900409724e+00
 1.078534234960649e-18 -2.808237010095907e-17  4.258104602539751e-01
 1.004185900409724e+00  4.258104602539751e-01 -3.673843582817745e-17

-3.276940203751350e-17  9.490670554128155e-19  9.982286349429995e-01
 9.490670554128155e-19 -2.692513831449261e-17  4.255359568750003e-01
 9.982286349429995e-01  4.255359568750003e-01 -3.629744743723322e-17

-3.245063834032485e-17  8.793218410692847e-19  1.003221416145754e+00
 8.793218410692847e-19 -2.752394771791004e-17  4.178345528195461e-01
 1.003221416145754e+00  4.178345528195461e-01 -3.636345147296510e-17

-3.209287597256974e-17  8.243680720713569e-19  9.979213003497102e-01
 8.243680720713569e-19 -2.735837449997144e-17  4.246995681035909e-01
 9.979213003497102e-01  4.246995681035909e-01 -3.608979755028892e-17

-3.167446151388684e-17  7.216177721949756e-19  1.003797176495181e+00
 7.216177721949756e-19 -2.656461280481980e-17  4.237438440425610e-01
 1.003797176495181e+00  4.237438440425610e-01 -3.613249590626147e-17

-3.129672600646583e-17  6.422908074253102e-19  1.007318600083476e+00
 6.422908074253102e-19 -2.262435620628396e-17  4.246539566450895e-01
 1.007318600083476e+00  4.246539566450895e-01 -3.613296073293577e-17

-3.094714749148543e-17  5.846016143181051e-19  1.007747315225536e+00
 5.846016143181051e-19 -2.317588311040894e-17  4.211510190430765e-01
 1.007747315225536e+00  4.211510190430765e-01 -3.604309702808540e-17

-3.067900664558460e-17  5.304464896876864e-19  1.010928577067350e+00
 5.304464896876864e-19 -2.465898603660161e-17  4.226175806079736e-01
 1.010928577067350e+00  4.226175806079736e-01 -3.606139935089259e-17

-3.031982619107624e-17  4.745644870210112e-19  1.011044692611296e+00
 4.745644870210112e-19 -2.061004052212775e-17  4.218852661006666e-01
 1.011044692611296e+00  4.218852661006666e-01 -3.596035989644091e-17

-3.004337254473706e-17  4.178012679681899e-19  1.017607241199325e+00
 4.178012679681899e-19 -1.997846228669891e-17  4.219101912342230e-01
 1.017607241199325e+00  4.219101912342230e-01 -3.608823490451800e-17

-2.979092263918485e-17  3.679955025502727e-19  1.022193621137112e+00
 3.679955025502727e-19 -2.142415665397243e-17  4.192910291524505e-01
 1.022193621137112e+00  4.192910291524505e-01 -3.616243102060124e-17

-2.947274272761348e-17  3.384043429179906e-19  1.013202716551846e+00
 3.384043429179906e-19 -2.138426474172351e-17  4.287477123887727e-01
 1.013202716551846e+00  4.287477123887727e-01 -3.577507685462498e-17

-2.926163420904609e-17  3.127345506145608e-19  1.012333602027859e+00
 3.127345506145608e-19 -1.924461814779044e-17  4.231211218060880e-01
 1.012333602027859e+00  4.231211218060880e-01 -3.567929829841405e-17

-2.915280083708881e-17  2.794518733616942e-19  1.020281775188076e+00
 2.794518733616942e-19 -1.944742989414970e-17  4.274424035249899e-01
 1.020281775188076e+00  4.274424035249899e-01 -3.589615748518480e-17

-2.915137231365723e-17  2.385444630734674e-19  1.033664989907088e+00
 2.385444630734674e-19 -1.872464241117287e-17  4.167959956138423e-01
 1.033664989907088e+00  4.167959956138423e-01 -3.631884586690346e-17

-2.888977694613326e-17  2.345235019344893e-19  1.021355749750406e+00
 2.345235019344893e-19 -2.063416399648591e-17  4.277787984372609e-01
 1.021355749750406e+00  4.277787984372609e-01 -3.584079088652906e-17

-2.883320219098163e-17  2.138964969241135e-19  1.028968636118085e+00
 2.138964969241135e-19 -1.972595316180790e-17  4.178901059546933e-01
 1.028968636118085e+00  4.178901059546933e-01 -3.606086820769835e-17

-2.870977159720850e-17  2.063546061194801e-19  1.027387001546806e+00
 2.063546061194801e-19 -2.172667291305198e-17  4.125146682035197e-01
 1.027387001546806e+00  4.125146682035197e-01 -3.597021428110403e-17

-2.838918773651743e-17  1.875230757727552e-19  1.006505852760524e+00
 1.875230757727552e-19 -2.007732465081504e-17  4.324115000872611e-01
 1.006505852760524e+00  4.324115000872611e-01 -3.519556285457198e-17

-2.834113948893658e-17  1.804564944805068e-19  1.010716808400023e+00
 1.804564944805068e-19 -1.849466718725819e-17  4.316187416666576e-01
 1.010716808400023e+00  4.316187416666576e-01 -3.531208470947899e-17

-2.846906371971128e-17  1.626157740898684e-19  1.025257615158305e+00
 1.626157740898684e-19 -1.726806730129235e-17  4.249008553329498e-01
 1.025257615158305e+00  4.249008553329498e-01 -3.582035449543506e-17

-2.849086328294646e-17  1.585266128573470e-19  1.031185245571866e+00
 1.585266128573470e-19 -2.056501106844071e-17  4.261516824411613e-01
 1.031185245571866e+00  4.261516824411613e-01 -3.601000671400920e-17

-2.843079035253901e-17  1.532165235528270e-19  1.025157988158633e+00
 1.532165235528270e-19 -2.104565902942454e-17  4.317837814624528e-01
 1.025157988158633e+00  4.317837814624528e-01 -3.577227627187562e-17

-2.839985030200814e-17  1.274589672065055e-19  1.036366942349166e+00
 1.274589672065055e-19 -2.323784810536075e-17  4.230786646629792e-01
 1.036366942349166e+00  4.230786646629792e-01 -3.613680982314918e-17

-2.824224969104549e-17  1.012855686398208e-19  1.032624911264578e+00
 1.012855686398208e-19 -1.713922476004562e-17  4.240974443199134e-01
 1.032624911264578e+00  4.240974443199134e-01 -3.595349684342852e-17

-2.810226643819283e-17  9.252502937257453e-20  1.029222756613438e+00
 9.252502937257453e-20 -1.290574683095424e-17  4.255207625286297e-01
 1.029222756613438e+00  4.255207625286297e-01 -3.579178084133721e-17

-2.794803445132198e-17  7.042369627248174e-20  1.022423614414826e+00
 7.042369627248174e-20 -1.729731485920499e-17  4.341100983878940e-01
 1.022423614414826e+00  4.341100983878940e-01 -3.551932556140967e-17

-2.794255300674569e-17  7.091039922236073e-20  1.031332579888774e+00
 7.091039922236073e-20 -2.283484505586619e-17  4.241623530994971e-01
 1.031332579888774e+00  4.241623530994971e-01 -3.579572944163167e-17

-2.789271549747216e-17  5.117968499860751e-20  1.034853746704225e+00
 5.117968499860751e-20 -1.851271630612354e-17  4.298741864229119e-01
 1.034853746704225e+00  4.298741864229119e-01 -3.588899568133967e-17

-2.776222124942523e-17  4.698610982805540e-20  1.031748514448079e+00
 4.698610982805540e-20 -2.108569090374011e-17  4.250524235395409e-01
 1.031748514448079e+00  4.250524235395409e-01 -3.574043631677346e-17

-2.756833575498256e-17  3.947555897065614e-20  1.022632487075115e+00
 3.947555897065614e-20 -1.782928083819353e-17  4.316278221012024e-01
 1.022632487075115e+00  4.316278221012024e-01 -3.538387616090777e-17

-2.749221050296456e-17  3.873756766230542e-20  1.023202798872309e+00
 3.873756766230542e-20 -1.555070810631186e-17  4.315474440417676e-01
 1.023202798872309e+00  4.315474440417676e-01 -3.536643367650323e-17

-2.740579158234969e-17  2.900685699348497e-20  1.021689108747587e+00
 2.900685699348497e-20 -1.603391595660243e-17  4.353666963699681e-01
 1.021689108747587e+00  4.353666963699681e-01 -3.529641367389934e-17

-2.737755392479814e-17  2.827985056415480e-20  1.022825855908392e+00
 2.827985056415480e-20 -1.752410431969544e-17  4.326915358556300e-01
 1.022825855908392e+00  4.326915358556300e-01 -3.530970270135209e-17

-2.730833696116948e-17  2.540061236764840e-20  1.020493914725993e+00
 2.540061236764840e-20 -1.917565842989428e-17  4.338995735281829e-01
 1.020493914725993e+00  4.338995735281829e-01 -3.521315683187384e-17

-2.721115071223337e-17  2.455541871070305e-20  1.021084112839359e+00
 2.455541871070305e-20 -1.710299756780058e-17  4.322783772255152e-01
 1.021084112839359e+00  4.322783772255152e-01 -3.521733506967743e-17

-2.711674168214034e-17  2.267999048756951e-20  1.021467381066859e+00
 2.267999048756951e-20 -1.759102905758207e-17  4.333281724861656e-01
 1.021467381066859e+00  4.333281724861656e-01 -3.520352230658590e-17

-2.698987418343863e-17  2.015828194951442e-20  1.020177310576418e+00
 2.015828194951442e-20 -1.548773925992246e-17  4.329713157968067e-01
 1.020177310576418e+00  4.329713157968067e-01 -3.512777527106905e-17

-2.695057841450788e-17  1.721074715881667e-20  1.020454154634098e+00
 1.721074715881667e-20 -1.611030157830808e-17  4.338125622408254e-01
 1.020454154634098e+00  4.338125622408254e-01 -3.511688455644117e-17

-2.691396798262275e-17  1.842368838638037e-20  1.020663826565996e+00
 1.842368838638037e-20 -1.673925912007954e-17  4.338650264791881e-01
 1.020663826565996e+00  4.338650264791881e-01 -3.510529911732194e-17

-2.688928561018251e-17  1.943086150980096e-20  1.022100600512106e+00
 1.943086150980096e-20 -1.850583468022677e-17  4.334132201624565e-01
 1.022100600512106e+00  4.334132201624565e-01 -3.513732339472825e-17

-2.679538120772564e-17  3.452424503013672e-20  1.020849046437632e+00
 3.452424503013672e-20 -1.794480691289050e-17  4.335205912650683e-01
 1.020849046437632e+00  4.335205912650683e-01 -3.509406643623566e-17

-2.673814782947470e-17  5.530553180695563e-20  1.019960674552876e+00
 5.530553180695563e-20 -1.786921165791337e-17  4.323189823093771e-01
 1.019960674552876e+00  4.323189823093771e-01 -3.505873853243683e-17

-2.663425115334706e-17  7.854219354511296e-20  1.018605451326342e+00
 7.854219354511296e-20 -1.594197291111510e-17  4.314074406019685e-01
 1.018605451326342e+00  4.314074406019685e-01 -3.501437259037529e-17

-2.651290922500691e-17  9.822896436238273e-20  1.015250296034718e+00
 9.822896436238273e-20 -1.158554814774004e-17  4.311319891803270e-01
 1.015250296034718e+00  4.311319891803270e-01 -3.490209947269824e-17

-2.637498938304496e-17  1.099687307849212e-19  1.009894023335070e+00
 1.099687307849212e-19 -1.140838337535636e-17  4.296281259558545e-01
 1.009894023335070e+00  4.296281259558545e-01 -3.470325640162777e-17

-2.621719136523217e-17  1.186751234892096e-19  1.004841721167389e+00
 1.186751234892096e-19 -1.482978289251161e-17  4.307266648771571e-01
 1.004841721167389e+00  4.307266648771571e-01 -3.451954050153273e-17

-2.631159022932136e-17  1.192890451086615e-19  1.016893051097466e+00
 1.192890451086615e-19 -1.330550327426696e-17  4.167702418899006e-01
 1.016893051097466e+00  4.167702418899006e-01 -3.494816667850862e-17

-2.622901970270001e-17  1.229878007789160e-19  1.010482134044548e+00
 1.229878007789160e-19 -1.514034003820261e-17  4.276503652710605e-01
 1.010482134044548e+00  4.276503652710605e-01 -3.472322430615899e-17

-2.618275139140528e-17  1.251516320568308e-19  1.009412388297053e+00
 1.251516320568308e-19 -1.457705798554780e-17  4.292071008343264e-01
 1.009412388297053e+00  4.292071008343264e-01 -3.468842738266987e-17

-2.617554076365776e-17  1.269037501325363e-19  1.011929088386356e+00
 1.269037501325363e-19 -1.169516155837808e-17  4.264812520680458e-01
 1.011929088386356e+00  4.264812520680458e-01 -3.478350950688054e-17

-2.622782292830951e-17  1.273972993624224e-19  1.017500443324261e+00
 1.273972993624224e-19 -1.899507572037069e-17  4.283723858268854e-01
 1.017500443324261e+00  4.283723858268854e-01 -3.498967314736617e-17

-2.617807691582089e-17  1.178395251931259e-19  1.017698245708574e+00
 1.178395251931259e-19 -1.174508052727435e-17  4.254120668835273e-01
 1.017698245708574e+00  4.254120668835273e-01 -3.499039468753390e-17

-2.622811984592220e-17  1.103630734124413e-19  1.021738265357295e+00
 1.103630734124413e-19 -1.446447263972774e-17  4.273891431109765e-01
 1.021738265357295e+00  4.273891431109765e-01 -3.513594809600895e-17

-2.616250828770373e-17  1.033205458759592e-19  1.022279179278979e+00
 1.033205458759592e-19 -1.628940532386354e-17  4.288693513201843e-01
 1.022279179278979e+00  4.288693513201843e-01 -3.514403904474422e-17

-2.608362241400591e-17  9.535183787152137e-20  1.018562700530689e+00
 9.535183787152137e-20 -1.740504566481821e-17  4.300990764812923e-01
 1.018562700530689e+00  4.300990764812923e-01 -3.499852946222279e-17

-2.603066119263128e-17  8.261965961798921e-20  1.016744209810662e+00
 8.261965961798921e-20 -1.859409666277014e-17  4.287158539991923e-01
 1.016744209810662e+00  4.287158539991923e-01 -3.491903228998943e-17

-2.608863988127127e-17  6.928222058039205e-20  1.023232240023739e+00
 6.928222058039205e-20 -1.582994622344723e-17  4.332052393697153e-01
 1.023232240023739e+00  4.332052393697153e-01 -3.514134352978408e-17

-2.615696668401464e-17  5.161893078047200e-20  1.028642057325002e+00
 5.161893078047200e-20 -1.346621351580599e-17  4.380964580400230e-01
 1.028642057325002e+00  4.380964580400230e-01 -3.533680010412563e-17

-2.618021865057212e-17  2.904088185767602e-20  1.030836065210089e+00
 2.904088185767602e-20 -1.532469040767329e-17  4.370233111385203e-01
 1.030836065210089e+00  4.370233111385203e-01 -3.539594243476453e-17

-2.618236293632691e-17  3.785516278435820e-21  1.030197162264483e+00
 3.785516278435820e-21 -1.708757058389144e-17  4.416450015501948e-01
 1.030197162264483e+00  4.416450015501948e-01 -3.534959091405022e-17

-2.624132380330774e-17 -2.606782187214601e-20  1.036942765911256e+00
-2.606782187214601e-20 -1.086934699867523e-17  4.382141159942260e-01
 1.036942765911256e+00  4.382141159942260e-01 -3.555421466982667e-17

-2.642466310923875e-17 -5.002992171192357e-20  1.047445246737964e+00
-5.002992171192357e-20 -1.339742518701350e-17  4.420963547484365e-01
 1.047445246737964e+00  4.420963547484365e-01 -3.592806953594803e-17

-2.671154429242830e-17 -6.978032243230244e-20  1.058133973330833e+00
-6.978032243230244e-20 -1.329648202750097e-17  4.648454289124356e-01
 1.058133973330833e+00  4.648454289124356e-01 -3.633027963724537e-17

-2.690752183009403e-17 -1.024240784943691e-19  1.069956031457981e+00
-1.024240784943691e-19 -1.595942515042863e-17  4.501114542855816e-01
 1.069956031457981e+00  4.501114542855816e-01 -3.673445555975720e-17

-2.691313488066985e-17 -6.272401152561287e-20  1.073769881831256e+00
-6.272401152561287e-20 -1.419533769385638e-17  4.426265198199117e-01
 1.073769881831256e+00  4.426265198199117e-01 -3.686546925628346e-17

-2.718968497529877e-17 -4.475532340851270e-20  1.083170871141175e+00
-4.475532340851270e-20 -1.719823475206620e-17  4.507325353843282e-01
 1.083170871141175e+00  4.507325353843282e-01 -3.725329219288337e-17

-2.719149007715264e-17 -1.260087028960043e-20  1.083492148368181e+00
-1.260087028960043e-20 -1.082552457961780e-17  4.612730365725367e-01
 1.083492148368181e+00  4.612730365725367e-01 -3.731423157687356e-17

-2.715306909544796e-17  1.831765721770110e-20  1.079433207590243e+00
 1.831765721770110e-20 -1.373219420366282e-17  4.610976176075094e-01
 1.079433207590243e+00  4.610976176075094e-01 -3.720265292322628e-17

-2.726261358154186e-17  5.653898296832372e-20  1.092750903163651e+00
 5.653898296832372e-20 -1.135302670344872e-17  4.348305696890410e-01
 1.092750903163651e+00  4.348305696890410e-01 -3.765784094756168e-17

-2.693876134055242e-17  1.076852313165919e-19  1.069375369861976e+00
 1.076852313165919e-19 -1.832524533774922e-17  4.513393602520284e-01
 1.069375369861976e+00  4.513393602520284e-01 -3.687204984634319e-17

-2.675224046002935e-17  1.500377130827257e-19  1.060190241933137e+00
 1.500377130827257e-19 -1.816248104668422e-17  4.531829803388628e-01
 1.060190241933137e+00  4.531829803388628e-01 -3.656561183785191e-17

-2.669655877111713e-17  1.541863140741084e-19  1.059920870522148e+00
 1.541863140741084e-19 -1.137356068858285e-17  4.458939975250868e-01
 1.059920870522148e+00  4.458939975250868e-01 -3.655289555328080e-17

-2.657238247063205e-17  1.586241467931323e-19  1.053973514763642e+00
 1.586241467931323e-19 -1.266722110851032e-17  4.476417643936859e-01
 1.053973514763642e+00  4.476417643936859e-01 -3.633560936994285e-17

-2.649055667599606e-17  1.547192754890058e-19  1.051434215376610e+00
 1.547192754890058e-19 -1.442796153122485e-17  4.512816727278074e-01
 1.051434215376610e+00  4.512816727278074e-01 -3.624758958267468e-17

-2.645957565884912e-17  1.388739158992399e-19  1.050774780284565e+00
 1.388739158992399e-19 -1.121586259346435e-17  4.509123535821794e-01
 1.050774780284565e+00  4.509123535821794e-01 -3.621501983089670e-17

-2.646232159445299e-17  1.374831362142183e-19  1.052752239350546e+00
 1.374831362142183e-19 -1.697943116300803e-17  4.528299092205837e-01
 1.052752239350546e+00  4.528299092205837e-01 -3.628305399376029e-17

-2.654782139980505e-17  1.441342878838305e-19  1.057095828471088e+00
 1.441342878838305e-19 -1.282624120299878e-17  4.518588849181985e-01
 1.057095828471088e+00  4.518588849181985e-01 -3.644677929502431e-17

-2.664424951173217e-17  1.368842334798232e-19  1.062166155160749e+00
 1.368842334798232e-19 -1.007402178695052e-17  4.488645242975626e-01
 1.062166155160749e+00  4.488645242975626e-01 -3.663881107485286e-17

-2.656517363703437e-17  1.593421310776363e-19  1.057456226813302e+00
 1.593421310776363e-19 -1.972759768836103e-17  4.565301092400132e-01
 1.057456226813302e+00  4.565301092400132e-01 -3.648530719695513e-17

-2.657520961494990e-17  1.562183254960713e-19  1.058767597643594e+00
 1.562183254960713e-19 -1.740126903093982e-17  4.537741045260194e-01
 1.058767597643594e+00  4.537741045260194e-01 -3.656039437419457e-17

-2.662385555036197e-17  1.544582494062230e-19  1.060515823586355e+00
 1.544582494062230e-19 -1.413537416686518e-17  4.571388099241888e-01
 1.060515823586355e+00  4.571388099241888e-01 -3.665140705942425e-17

-2.678010910128972e-17  1.482124373739453e-19  1.068084879024876e+00
 1.482124373739453e-19 -1.469669536519869e-17  4.555996939866982e-01
 1.068084879024876e+00  4.555996939866982e-01 -3.693953637852325e-17

-2.689108577862196e-17  1.216998073080172e-19  1.075682816420092e+00
 1.216998073080172e-19 -8.060634462604261e-18  4.547916594665082e-01
 1.075682816420092e+00  4.547916594665082e-01 -3.724630318893362e-17

-2.724040577962239e-17  9.523421461421101e-20  1.092715193154320e+00
 9.523421461421101e-20 -2.112860995119716e-17  4.499868247125961e-01
 1.092715193154320e+00  4.499868247125961e-01 -3.793058087750318e-17

-2.807540317867383e-17  3.420628887263807e-20  1.139582459113380e+00
 3.420628887263807e-20 -1.051852450062490e-17  4.397619127418524e-01
 1.139582459113380e+00  4.397619127418524e-01 -3.974275329571291e-17

-2.915088906620085e-17  4.335197694358890e-20  1.209285208248993e+00
 4.335197694358890e-20 -2.271259601073282e-17  4.206530896896947e-01
 1.209285208248993e+00  4.206530896896947e-01 -4.236271679472270e-17

-2.990159809302379e-17  3.874910999891344e-20  1.239329892701175e+00
 3.874910999891344e-20 -8.198636215086813e-18  4.827213476101371e-01
 1.239329892701175e+00  4.827213476101371e-01 -4.365662564462823e-17

-2.831362533720871e-17 -5.446687761229376e-20  1.071820526255057e+00
-5.446687761229376e-20 -1.109992468434124e-17  6.729053635986704e-01
 1.071820526255057e+00  6.729053635986704e-01 -3.821897875504957e-17

-2.980786651104236e-17 -1.385009529577075e-19  1.222220891529928e+00
-1.385009529577075e-19 -1.454796537735534e-17  5.176612689309552e-01
 1.222220891529928e+00  5.176612689309552e-01 -4.333316036263876e-17

-2.925303246615359e-17 -7.935444051795247e-21  1.225371198564817e+00
-7.935444051795247e-21 -2.605459379695992e-17  4.154073219796067e-01
 1.225371198564817e+00  4.154073219796067e-01 -4.276372217721061e-17

-2.823156216561314e-17 -1.900149883859642e-20  1.164594540432637e+00
-1.900149883859642e-20 -1.806698051122581e-17  4.242296050477259e-01
 1.164594540432637e+00  4.242296050477259e-01 -4.035398906740662e-17

-2.700053005237972e-17 -5.674331505175501e-20  1.095382119256147e+00
-5.674331505175501e-20 -1.537883889146077e-17  4.459230007753942e-01
 1.095382119256147e+00  4.459230007753942e-01 -3.768898917170101e-17

-2.633392801409163e-17 -1.237285413276470e-19  1.062960884286407e+00
-1.237285413276470e-19 -1.830788769471113e-17  4.626752703209929e-01
 1.062960884286407e+00  4.626752703209929e-01 -3.645720731660699e-17

-2.583472713249532e-17 -1.626429559841336e-19  1.039759637668110e+00
-1.626429559841336e-19 -1.631123186325133e-17  4.674834237493151e-01
 1.039759637668110e+00  4.674834237493151e-01 -3.554081068146452e-17

-2.575678308993415e-17 -1.421244943117815e-19  1.049221156715240e+00
-1.421244943117815e-19 -1.210428862447611e-17  4.356215087462718e-01
 1.049221156715240e+00  4.356215087462718e-01 -3.573904632583981e-17

-2.529027261020876e-17 -1.760950021088961e-19  1.014482225653476e+00
-1.760950021088961e-19 -1.735231690640591e-17  4.611977690531154e-01
 1.014482225653476e+00  4.611977690531154e-01 -3.450464213897242e-17

-2.536709848477856e-17 -1.983702560671735e-19  1.022290041577894e+00
-1.983702560671735e-19 -1.511484549942045e-17  4.630044520181529e-01
 1.022290041577894e+00  4.630044520181529e-01 -3.478059972318164e-17

-2.547812021646888e-17 -2.114836557737875e-19  1.031011496389977e+00
-2.114836557737875e-19 -1.519389877435320e-17  4.614996527389199e-01
 1.031011496389977e+00  4.614996527389199e-01 -3.507917707349882e-17

-2.539801974468695e-17 -2.010061854220050e-19  1.028394601527397e+00
-2.010061854220050e-19 -1.469291941597579e-17  4.553199595037213e-01
 1.028394601527397e+00  4.553199595037213e-01 -3.493812258712262e-17

-2.538336441575773e-17 -1.966370956315442e-19  1.027155369057853e+00
-1.966370956315442e-19 -1.380425512291461e-17  4.567703966310098e-01
 1.027155369057853e+00  4.567703966310098e-01 -3.488888137657910e-17

-2.543701635688657e-17 -1.830389565773804e-19  1.030502972152615e+00
-1.830389565773804e-19 -1.469450712792203e-17  4.567204823586256e-01
 1.030502972152615e+00  4.567204823586256e-01 -3.500954907144592e-17

-2.546884007387547e-17 -1.668745575517398e-19  1.032512126760248e+00
-1.668745575517398e-19 -1.263018932146161e-17  4.545627384393287e-01
 1.032512126760248e+00  4.545627384393287e-01 -3.507804097673399e-17

-2.549130138959021e-17 -1.609863212387865e-19  1.033711435790584e+00
-1.609863212387865e-19 -1.385613101948929e-17  4.545868826779020e-01
 1.033711435790584e+00  4.545868826779020e-01 -3.512771693642199e-17

-2.558671144776488e-17 -1.488629616265334e-19  1.038063357072623e+00
-1.488629616265334e-19 -1.393234540665410e-17  4.553492932779841e-01
 1.038063357072623e+00  4.553492932779841e-01 -3.529493493639348e-17

-2.565223437355132e-17 -1.310463449274641e-19  1.040439192707371e+00
-1.310463449274641e-19 -1.399156126488045e-17  4.556401116452942e-01
 1.040439192707371e+00  4.556401116452942e-01 -3.539215052927898e-17

-2.564913118863266e-17 -1.076149143279305e-19  1.037993170514579e+00
-1.076149143279305e-19 -1.399239723629194e-17  4.570946386599656e-01
 1.037993170514579e+00  4.570946386599656e-01 -3.531281682987478e-17

-2.567819329463639e-17 -9.382839186869378e-20  1.042746554770588e+00
-9.382839186869378e-20 -1.261970508800527e-17  4.442812352421577e-01
 1.042746554770588e+00  4.442812352421577e-01 -3.546513161066252e-17

-2.597028920746514e-17 -4.991565880641859e-20  1.056103787352692e+00
-4.991565880641859e-20 -1.366258284711193e-17  4.549131964223109e-01
 1.056103787352692e+00  4.549131964223109e-01 -3.602744169950670e-17

-2.589829361359966e-17  2.626037316530266e-20  1.050631227539848e+00
 2.626037316530266e-20 -1.311526969717815e-17  4.501744348759613e-01
 1.050631227539848e+00  4.501744348759613e-01 -3.588680717719946e-17

-2.534156115549415e-17  7.840804397906592e-20  1.011352245835991e+00
 7.840804397906592e-20 -1.142587411015244e-17  4.592577079714746e-01
 1.011352245835991e+00  4.592577079714746e-01 -3.448968061014361e-17

-2.547909627131104e-17  1.328062827513371e-19  1.026151721968615e+00
 1.328062827513371e-19 -1.521271206996417e-17  4.313937145747921e-01
 1.026151721968615e+00  4.313937145747921e-01 -3.501587277168729e-17

-2.537710048806362e-17  1.578773410116998e-19  1.019523642152147e+00
 1.578773410116998e-19 -1.372900610596181e-17  4.409402994728971e-01
 1.019523642152147e+00  4.409402994728971e-01 -3.483931177257756e-17

-2.540740119489565e-17  2.061970947202124e-19  1.012132597652751e+00
 2.061970947202124e-19 -1.381432845121720e-17  4.585321753889048e-01
 1.012132597652751e+00  4.585321753889048e-01 -3.463374817905016e-17

-2.559590725382439e-17  1.936567909835801e-19  1.033951666993356e+00
 1.936567909835801e-19 -1.374267265428684e-17  4.277158910535376e-01
 1.033951666993356e+00  4.277158910535376e-01 -3.546139111935298e-17

-2.600687700343163e-17  1.973385313040328e-19  1.059288110956224e+00
 1.973385313040328e-19 -1.438583872793120e-17  4.271184764606857e-01
 1.059288110956224e+00  4.271184764606857e-01 -3.643525130114829e-17

-2.574810152545607e-17  1.994655768119704e-19  1.027068190111724e+00
 1.994655768119704e-19 -1.272601541384016e-17  4.874436875904040e-01
 1.027068190111724e+00  4.874436875904040e-01 -3.539832463269773e-17

-2.570880960568094e-17  1.939776877698748e-19  1.038760622362927e+00
 1.939776877698748e-19 -1.323421000241636e-17  4.354801355873679e-01
 1.038760622362927e+00  4.354801355873679e-01 -3.571901226081515e-17

-2.552845177620624e-17  1.998917359340819e-19  1.039604871834305e+00
 1.998917359340819e-19 -1.338072832662206e-17  3.934456845768080e-01
 1.039604871834305e+00  3.934456845768080e-01 -3.564335852546131e-17

-2.581406822918262e-17  1.833840621863672e-19  1.049231658326935e+00
 1.833840621863672e-19 -1.334645543083638e-17  4.416547323468635e-01
 1.049231658326935e+00  4.416547323468635e-01 -3.607616449080752e-17

-2.545704729514848e-17  1.605610712355751e-19  1.015827827121579e+00
 1.605610712355751e-19 -1.361834429091506e-17  4.726142313941111e-01
 1.015827827121579e+00  4.726142313941111e-01 -3.492130954898912e-17

-2.582601144590067e-17  1.683421230096436e-19  1.055538764690730e+00
 1.683421230096436e-19 -1.602035705618516e-17  4.228308600684486e-01
 1.055538764690730e+00  4.228308600684486e-01 -3.627351947291289e-17

-2.557913037757210e-17  1.588410893803727e-19  1.044871665317423e+00
 1.588410893803727e-19 -1.481671493072440e-17  4.177699718639255e-01
 1.044871665317423e+00  4.177699718639255e-01 -3.584547944671682e-17

-2.499880039069085e-17  1.469883856245141e-19  1.011080228590064e+00
 1.469883856245141e-19 -1.398841393534664e-17  4.230359573658690e-01
 1.011080228590064e+00  4.230359573658690e-01 -3.456031021534345e-17

-2.485945476700594e-17  1.347024150628447e-19  1.004978926620304e+00
 1.347024150628447e-19 -1.475443011171519e-17  4.244923963175920e-01
 1.004978926620304e+00  4.244923963175920e-01 -3.430777684513541e-17

-2.488176395565779e-17  1.206243343548547e-19  1.005439024545299e+00
 1.206243343548547e-19 -1.598843582825980e-17  4.364589198673926e-01
 1.005439024545299e+00  4.364589198673926e-01 -3.433650856016122e-17

-2.493949635807644e-17  1.077961067231907e-19  1.013074189986409e+00
 1.077961067231907e-19 -1.434528324205179e-17  4.265611940257790e-01
 1.013074189986409e+00  4.265611940257790e-01 -3.459658638821935e-17

-2.480376949190574e-17  1.060464007231090e-19  1.005882466070242e+00
 1.060464007231090e-19 -1.276086598145505e-17  4.256604704335666e-01
 1.005882466070242e+00  4.256604704335666e-01 -3.431827438075743e-17

-2.468613351328601e-17  1.183929723988459e-19  1.001890154104766e+00
 1.183929723988459e-19 -1.396951488260833e-17  4.198962122293181e-01
 1.001890154104766e+00  4.198962122293181e-01 -3.415357791518304e-17

-2.452998015775502e-17  1.236676375436740e-19  9.929465842384860e-01
 1.236676375436740e-19 -1.625150187643627e-17  4.296170623137686e-01
 9.929465842384860e-01  4.296170623137686e-01 -3.383512409576154e-17

-2.396891131179903e-17  1.461965027125035e-19  9.615906127425679e-01
 1.461965027125035e-19 -1.691890320048034e-17  4.223553988918722e-01
 9.615906127425679e-01  4.223553988918722e-01 -3.264740324573882e-17

-2.425979721357650e-17  1.251731366965352e-19  9.926553078111912e-01
 1.251731366965352e-19 -1.184138650472102e-17  3.839665478291709e-01
 9.926553078111912e-01  3.839665478291709e-01 -3.374863284123227e-17

-2.405465316428954e-17  1.320489512555282e-19  9.660575624497481e-01
 1.320489512555282e-19 -8.972607772413960e-18  4.275981479790803e-01
 9.660575624497481e-01  4.275981479790803e-01 -3.283467936082396e-17

-2.443460532662602e-17  1.572970962991029e-19  9.887677938959420e-01
 1.572970962991029e-19 -1.157497007570212e-17  4.242743939475465e-01
 9.887677938959420e-01  4.242743939475465e-01 -3.367673285242258e-17

-2.457940325162038e-17  1.731686466306879e-19  9.943390791207661e-01
 1.731686466306879e-19 -1.784122697274190e-17  4.201493425851449e-01
 9.943390791207661e-01  4.201493425851449e-01 -3.389027834372842e-17

-2.454105597863112e-17  1.464781398811393e-19  9.929936568113102e-01
 1.464781398811393e-19 -7.909664212789625e-18  4.226184901256668e-01
 9.929936568113102e-01  4.226184901256668e-01 -3.385414087915234e-17

-2.464545866219036e-17  1.620797787865064e-19  9.990351127159408e-01
 1.620797787865064e-19 -1.210733345137325e-17  4.177802192170954e-01
 9.990351127159408e-01  4.177802192170954e-01 -3.408115143536613e-17

-2.466135220887250e-17  1.827037684024584e-19  9.984608123811021e-01
 1.827037684024584e-19 -1.369889051734720e-17  4.204514605242780e-01
 9.984608123811021e-01  4.204514605242780e-01 -3.408041204033691e-17

-2.471325752053361e-17  1.815089488997391e-19  1.000962458442392e+00
 1.815089488997391e-19 -1.249890887011195e-17  4.175567733641795e-01
 1.000962458442392e+00  4.175567733641795e-01 -3.418278310575828e-17

-2.485155883952116e-17  1.858285354940528e-19  1.007502076125942e+00
 1.858285354940528e-19 -1.155483055502912e-17  4.165829183211945e-01
 1.007502076125942e+00  4.165829183211945e-01 -3.442325738173267e-17

-2.478105107515095e-17  1.845421223410824e-19  1.001792729887205e+00
 1.845421223410824e-19 -1.056209460658156e-17  4.280890574159154e-01
 1.001792729887205e+00  4.280890574159154e-01 -3.423379150651148e-17

-2.482704770966072e-17  2.001458555334971e-19  1.006720108039175e+00
 2.001458555334971e-19 -1.303593950929727e-17  4.164387784913365e-01
 1.006720108039175e+00  4.164387784913365e-01 -3.440719848336725e-17


CELL_DATA 1412
SCALARS dislocation_index int
LOOKUP_TABLE default
0
1
2
3
4
5
6
7
8
9
10
11
12
13
14
15
16
17
18
19
20
21
22
23
24
25
26
27
28
29
30
31
32
33
34
35
36
37
38
39
40
41
42
43
44
45
46
47
48
49
50
51
52
53
54
55
56
57
58
59
60
61
62
63
64
65
66
67
68
69
70
71
72
73
74
75
76
77
78
79
80
81
82
83
84
85
86
87
88
89
90
91
92
93
94
95
96
97
98
99
100
101
102
103
104
105
106
107
108
109
110
111
112
113
114
115
116
117
118
119
120
121
122
123
124
125
126
127
128
129
130
131
132
133
134
135
136
137
138
139
140
141
142
143
144
145
146
147
148
149
150
151
152
153
154
155
156
157
158
159
160
161
162
163
164
165
166
167
168
169
170
171
172
173
174
175
176
177
178
179
180
181
182
183
184
185
186
187
188
189
190
191
192
193
194
195
196
197
198
199
200
201
202
203
204
205
206
207
208
209
210
211
212
213
214
215
216
217
218
219
220
221
222
223
224
225
226
227
228
229
230
231
232
233
234
235
236
237
238
239
240
241
242
243
244
245
246
247
248
249
250
251
252
253
254
255
256
257
258
259
260
261
262
263
264
265
266
267
268
269
270
271
272
273
274
275
276
277
278
279
280
281
282
283
284
285
286
287
288
289
290
291
292
293
294
295
296
297
298
299
300
301
302
303
304
305
306
307
308
309
310
311
312
313
314
315
316
317
318
319
320
321
322
323
324
325
326
327
328
329
330
331
332
333
334
335
336
337
338
339
340
341
342
343
344
345
346
347
348
349
350
351
352
353
354
355
356
357
358
359
360
361
362
363
364
365
366
367
368
369
370
371
372
373
374
375
376
377
378
379
380
381
382
383
384
385
386
387
388
389
390
391
392
393
394
395
396
397
398
399
400
401
402
403
404
405
406
407
408
409
410
411
412
413
414
415
416
417
418
419
420
421
422
423
424
425
426
427
428
429
430
431
432
433
434
435
436
437
438
439
440
441
442
443
444
445
446
447
448
449
450
451
452
453
454
455
456
457
458
459
460
461
462
463
464
465
466
467
468
469
470
471
472
473
474
475
476
477
478
479
480
481
482
483
484
485
486
487
488
489
490
491
492
493
494
495
496
497
498
499
500
501
502
503
504
505
506
507
508
509
510
511
512
513
514
515
516
517
518
519
520
521
522
523
524
525
526
527
528
529
530
531
532
533
534
535
536
537
538
539
540
541
542
543
544
545
546
547
548
549
550
551
552
553
554
555
556
557
558
559
560
561
562
563
564
565
566
567
568
569
570
571
572
573
574
575
576
577
578
579
580
581
582
583
584
585
586
587
588
589
590
591
592
593
594
595
596
597
598
599
600
601
602
603
604
605
606
607
608
609
610
611
612
613
614
615
616
617
618
619
620
621
622
623
624
625
626
627
628
629
630
631
632
633
634
635
636
637
638
639
640
641
642
643
644
645
646
647
648
649
650
651
652
653
654
655
656
657
658
659
660
661
662
663
664
665
666
667
668
669
670
671
672
673
674
675
676
677
678
679
680
681
682
683
684
685
686
687
688
689
690
691
692
693
694
695
696
697
698
699
700
701
702
703
704
705
706
707
708
709
710
711
712
713
714
715
716
717
718
719
720
721
722
723
724
725
726
727
728
729
730
731
732
733
734
735
736
737
738
739
740
741
742
743
744
745
746
747
748
749
750
751
752
753
754
755
756
757
758
759
760
761
762
763
764
765
766
767
768
769
770
771
772
773
774
775
776
777
778
779
780
781
782
783
784
785
786
787
788
789
790
791
792
793
794
795
796
797
798
799
800
801
802
803
804
805
806
807
808
809
810
811
812
813
814
815
816
817
818
819
820
821
822
823
824
825
826
827
828
829
830
831
832
833
834
835
836
837
838
839
840
841
842
843
844
845
846
847
848
849
850
851
852
853
854
855
856
857
858
859
860
861
862
863
864
865
866
867
868
869
870
871
872
873
874
875
876
877
878
879
880
881
882
883
884
885
886
887
888
889
890
891
892
893
894
895
896
897
898
899
900
901
902
903
904
905
906
907
908
909
910
911
912
913
914
915
916
917
918
919
920
921
922
923
924
925
926
927
928
929
930
931
932
933
934
935
936
937
938
939
940
941
942
943
944
945
946
947
948
949
950
951
952
953
954
955
956
957
958
959
960
961
962
963
964
965
966
967
968
969
970
971
972
973
974
975
976
977
978
979
980
981
982
983
984
985
986
987
988
989
990
991
992
993
994
995
996
997
998
999
1000
1001
1002
1003
1004
1005
1006
1007
1008
1009
1010
1011
1012
1013
1014
1015
1016
1017
1018
1019
1020
1021
1022
1023
1024
1025
1026
1027
1028
1029
1030
1031
1032
1033
1034
1035
1036
1037
1038
1039
1040
1041
1042
1043
1044
1045
1046
1047
1048
1049
1050
1051
1052
1053
1054
1055
1056
1057
1058
1059
1060
1061
1062
1063
1064
1065
1066
1067
1068
1069
1070
1071
1072
1073
1074
1075
1076
1077
1078
1079
1080
1081
1082
1083
1084
1085
1086
1087
1088
1089
1090
1091
1092
1093
1094
1095
1096
1097
1098
1099
1100
1101
1102
1103
1104
1105
1106
1107
1108
1109
1110
1111
1112
1113
1114
1115
1116
1117
1118
1119
1120
1121
1122
1123
1124
1125
1126
1127
1128
1129
1130
1131
1132
1133
1134
1135
1136
1137
1138
1139
1140
1141
1142
1143
1144
1145
1146
1147
1148
1149
1150
1151
1152
1153
1154
1155
1156
1157
1158
1159
1160
1161
1162
1163
1164
1165
1166
1167
1168
1169
1170
1171
1172
1173
1174
1175
1176
1177
1178
1179
1180
1181
1182
1183
1184
1185
1186
1187
1188
1189
1190
1191
1192
1193
1194
1195
1196
1197
1198
1199
1200
1201
1202
1203
1204
1205
1206
1207
1208
1209
1210
1211
1212
1213
1214
1215
1216
1217
1218
1219
1220
1221
1222
1223
1224
1225
1226
1227
1228
1229
1230
1231
1232
1233
1234
1235
1236
1237
1238
1239
1240
1241
1242
1243
1244
1245
1246
1247
1248
1249
1250
1251
1252
1253
1254
1255
1256
1257
1258
1259
1260
1261
1262
1263
1264
1265
1266
1267
1268
1269
1270
1271
1272
1273
1274
1275
1276
1277
1278
1279
1280
1281
1282
1283
1284
1285
1286
1287
1288
1289
1290
1291
1292
1293
1294
1295
1296
1297
1298
1299
1300
1301
1302
1303
1304
1305
1306
1307
1308
1309
1310
1311
1312
1313
1314
1315
1316
1317
1318
1319
1320
1321
1322
1323
1324
1325
1326
1327
1328
1329
1330
1331
1332
1333
1334
1335
1336
1337
1338
1339
1340
1341
1342
1343
1344
1345
1346
1347
1348
1349
1350
1351
1352
1353
1354
1355
1356
1357
1358
1359
1360
1361
1362
1363
1364
1365
1366
1367
1368
1369
1370
1371
1372
1373
1374
1375
1376
1377
1378
1379
1380
1381
1382
1383
1384
1385
1386
1387
1388
1389
1390
1391
1392
1393
1394
1395
1396
1397
1398
1399
1400
1401
1402
1403
1404
1405
1406
1407
1408
1409
1410
1411

VECTORS burgers_vector_global double
-1.429999999999999e+00 -8.256108849411650e-01  3.393140768766017e-17
 1.429999999999999e+00  8.256108849411650e-01 -3.393140768766017e-17
-1.429999999999999e+00 -8.256108849411650e-01  3.393140768766017e-17
-1.429999999999999e+00 -8.256108849411650e-01  3.393140768766017e-17
-1.429999999999999e+00 -8.256108849411650e-01  3.393140768766017e-17
-1.429999999999999e+00 -8.256108849411650e-01  3.393140768766017e-17
-1.429999999999999e+00 -8.256108849411650e-01  3.393140768766017e-17
-1.429999999999999e+00 -8.256108849411650e-01  3.393140768766017e-17
-1.429999999999999e+00 -8.256108849411650e-01  3.393140768766017e-17
-1.429999999999999e+00 -8.256108849411650e-01  3.393140768766017e-17
-1.429999999999999e+00 -8.256108849411650e-01  3.393140768766017e-17
-1.429999999999999e+00 -8.256108849411650e-01  3.393140768766017e-17
-1.429999999999999e+00 -8.256108849411650e-01  3.393140768766017e-17
-1.429999999999999e+00 -8.256108849411650e-01  3.393140768766017e-17
-1.429999999999999e+00 -8.256108849411650e-01  3.393140768766017e-17
-1.429999999999999e+00 -8.256108849411650e-01  3.393140768766017e-17
-1.429999999999999e+00 -8.256108849411650e-01  3.393140768766017e-17
-1.429999999999999e+00 -8.256108849411650e-01  3.393140768766017e-17
-1.429999999999999e+00 -8.256108849411650e-01  3.393140768766017e-17
-1.429999999999999e+00 -8.256108849411650e-01  3.393140768766017e-17
-1.429999999999999e+00 -8.256108849411650e-01  3.393140768766017e-17
-1.429999999999999e+00 -8.256108849411650e-01  3.393140768766017e-17
-1.429999999999999e+00 -8.256108849411650e-01  3.393140768766017e-17
-1.429999999999999e+00 -8.256108849411650e-01  3.393140768766017e-17
-1.429999999999999e+00 -8.256108849411650e-01  3.393140768766017e-17
-1.429999999999999e+00 -8.256108849411650e-01  3.393140768766017e-17
-1.429999999999999e+00 -8.256108849411650e-01  3.393140768766017e-17
-1.429999999999999e+00 -8.256108849411650e-01  3.393140768766017e-17
-1.429999999999999e+00 -8.256108849411650e-01  3.393140768766017e-17
-1.429999999999999e+00 -8.256108849411650e-01  3.393140768766017e-17
-1.429999999999999e+00 -8.256108849411650e-01  3.393140768766017e-17
-1.429999999999999e+00 -8.256108849411650e-01  3.393140768766017e-17
-1.429999999999999e+00 -8.256108849411650e-01  3.393140768766017e-17
-1.429999999999999e+00 -8.256108849411650e-01  3.393140768766017e-17
-1.429999999999999e+00 -8.256108849411650e-01  3.393140768766017e-17
-1.429999999999999e+00 -8.256108849411650e-01  3.393140768766017e-17
-1.429999999999999e+00 -8.256108849411650e-01  3.393140768766017e-17
-1.429999999999999e+00 -8.256108849411650e-01  3.393140768766017e-17
-1.429999999999999e+00 -8.256108849411650e-01  3.393140768766017e-17
-1.429999999999999e+00 -8.256108849411650e-01  3.393140768766017e-17
-1.429999999999999e+00 -8.256108849411650e-01  3.393140768766017e-17
-1.429999999999999e+00 -8.256108849411650e-01  3.393140768766017e-17
-1.429999999999999e+00 -8.256108849411650e-01  3.393140768766017e-17
-1.429999999999999e+00 -8.256108849411650e-01  3.393140768766017e-17
-1.429999999999999e+00 -8.256108849411650e-01  3.393140768766017e-17
-1.429999999999999e+00 -8.256108849411650e-01  3.393140768766017e-17
-1.429999999999999e+00 -8.256108849411650e-01  3.393140768766017e-17
-1.429999999999999e+00 -8.256108849411650e-01  3.393140768766017e-17
-1.429999999999999e+00 -8.256108849411650e-01  3.393140768766017e-17
-1.429999999999999e+00 -8.256108849411650e-01  3.393140768766017e-17
-1.429999999999999e+00 -8.256108849411650e-01  3.393140768766017e-17
-1.429999999999999e+00 -8.256108849411650e-01  3.393140768766017e-17
-1.429999999999999e+00 -8.256108849411650e-01  3.393140768766017e-17
-1.429999999999999e+00 -8.256108849411650e-01  3.393140768766017e-17
-1.429999999999999e+00 -8.256108849411650e-01  3.393140768766017e-17
-1.429999999999999e+00 -8.256108849411650e-01  3.393140768766017e-17
-1.429999999999999e+00 -8.256108849411650e-01  3.393140768766017e-17
-1.429999999999999e+00 -8.256108849411650e-01  3.393140768766017e-17
-1.429999999999999e+00 -8.256108849411650e-01  3.393140768766017e-17
-1.429999999999999e+00 -8.256108849411650e-01  3.393140768766017e-17
-1.429999999999999e+00 -8.256108849411650e-01  3.393140768766017e-17
-1.429999999999999e+00 -8.256108849411650e-01  3.393140768766017e-17
-1.429999999999999e+00 -8.256108849411650e-01  3.393140768766017e-17
-1.429999999999999e+00 -8.256108849411650e-01  3.393140768766017e-17
-1.429999999999999e+00 -8.256108849411650e-01  3.393140768766017e-17
-1.429999999999999e+00 -8.256108849411650e-01  3.393140768766017e-17
-1.429999999999999e+00 -8.256108849411650e-01  3.393140768766017e-17
-1.429999999999999e+00 -8.256108849411650e-01  3.393140768766017e-17
-1.429999999999999e+00 -8.256108849411650e-01  3.393140768766017e-17
-1.429999999999999e+00 -8.256108849411650e-01  3.393140768766017e-17
-1.429999999999999e+00 -8.256108849411650e-01  3.393140768766017e-17
-1.429999999999999e+00 -8.256108849411650e-01  3.393140768766017e-17
-1.429999999999999e+00 -8.256108849411650e-01  3.393140768766017e-17
-1.429999999999999e+00 -8.256108849411650e-01  3.393140768766017e-17
-1.429999999999999e+00 -8.256108849411650e-01  3.393140768766017e-17
-1.429999999999999e+00 -8.256108849411650e-01  3.393140768766017e-17
-1.429999999999999e+00 -8.256108849411650e-01  3.393140768766017e-17
-1.429999999999999e+00 -8.256108849411650e-01  3.393140768766017e-17
-1.429999999999999e+00 -8.256108849411650e-01  3.393140768766017e-17
-1.429999999999999e+00 -8.256108849411650e-01  3.393140768766017e-17
-1.429999999999999e+00 -8.256108849411650e-01  3.393140768766017e-17
-1.429999999999999e+00 -8.256108849411650e-01  3.393140768766017e-17
-1.429999999999999e+00 -8.256108849411650e-01  3.393140768766017e-17
-1.429999999999999e+00 -8.256108849411650e-01  3.393140768766017e-17
-1.429999999999999e+00 -8.256108849411650e-01  3.393140768766017e-17
-1.429999999999999e+00 -8.256108849411650e-01  3.393140768766017e-17
-1.429999999999999e+00 -8.256108849411650e-01  3.393140768766017e-17
-1.429999999999999e+00 -8.256108849411650e-01  3.393140768766017e-17
-1.429999999999999e+00 -8.256108849411650e-01  3.393140768766017e-17
-1.429999999999999e+00 -8.256108849411650e-01  3.393140768766017e-17
-1.429999999999999e+00 -8.256108849411650e-01  3.393140768766017e-17
-1.429999999999999e+00 -8.256108849411650e-01  3.393140768766017e-17
-1.429999999999999e+00 -8.256108849411650e-01  3.393140768766017e-17
-1.429999999999999e+00 -8.256108849411650e-01  3.393140768766017e-17
-1.429999999999999e+00 -8.256108849411650e-01  3.393140768766017e-17
-1.429999999999999e+00 -8.256108849411650e-01  3.393140768766017e-17
-1.429999999999999e+00 -8.256108849411650e-01  3.393140768766017e-17
-1.429999999999999e+00 -8.256108849411650e-01  3.393140768766017e-17
-1.429999999999999e+00 -8.256108849411650e-01  3.393140768766017e-17
-1.429999999999999e+00 -8.256108849411650e-01  3.393140768766017e-17
-1.429999999999999e+00 -8.256108849411650e-01  3.393140768766017e-17
-1.429999999999999e+00 -8.256108849411650e-01  3.393140768766017e-17
-1.429999999999999e+00 -8.256108849411650e-01  3.393140768766017e-17
-1.429999999999999e+00 -8.256108849411650e-01  3.393140768766017e-17
-1.429999999999999e+00 -8.256108849411650e-01  3.393140768766017e-17
-1.429999999999999e+00 -8.256108849411650e-01  3.393140768766017e-17
-1.429999999999999e+00 -8.256108849411650e-01  3.393140768766017e-17
-1.429999999999999e+00 -8.256108849411650e-01  3.393140768766017e-17
-1.429999999999999e+00 -8.256108849411650e-01  3.393140768766017e-17
-1.429999999999999e+00 -8.256108849411650e-01  3.393140768766017e-17
-1.429999999999999e+00 -8.256108849411650e-01  3.393140768766017e-17
-1.429999999999999e+00 -8.256108849411650e-01  3.393140768766017e-17
-1.429999999999999e+00 -8.256108849411650e-01  3.393140768766017e-17
-1.429999999999999e+00 -8.256108849411650e-01  3.393140768766017e-17
-1.429999999999999e+00 -8.256108849411650e-01  3.393140768766017e-17
-1.429999999999999e+00 -8.256108849411650e-01  3.393140768766017e-17
-1.429999999999999e+00 -8.256108849411650e-01  3.393140768766017e-17
-1.429999999999999e+00 -8.256108849411650e-01  3.393140768766017e-17
-1.429999999999999e+00 -8.256108849411650e-01  3.393140768766017e-17
-1.429999999999999e+00 -8.256108849411650e-01  3.393140768766017e-17
-1.429999999999999e+00 -8.256108849411650e-01  3.393140768766017e-17
-1.429999999999999e+00 -8.256108849411650e-01  3.393140768766017e-17
-1.429999999999999e+00 -8.256108849411650e-01  3.393140768766017e-17
-1.429999999999999e+00 -8.256108849411650e-01  3.393140768766017e-17
-1.429999999999999e+00 -8.256108849411650e-01  3.393140768766017e-17
-1.429999999999999e+00 -8.256108849411650e-01  3.393140768766017e-17
-1.429999999999999e+00 -8.256108849411650e-01  3.393140768766017e-17
-1.429999999999999e+00 -8.256108849411650e-01  3.393140768766017e-17
-1.429999999999999e+00 -8.256108849411650e-01  3.393140768766017e-17
-1.429999999999999e+00 -8.256108849411650e-01  3.393140768766017e-17
-1.429999999999999e+00 -8.256108849411650e-01  3.393140768766017e-17
-1.429999999999999e+00 -8.256108849411650e-01  3.393140768766017e-17
-1.429999999999999e+00 -8.256108849411650e-01  3.393140768766017e-17
-1.429999999999999e+00 -8.256108849411650e-01  3.393140768766017e-17
-1.429999999999999e+00 -8.256108849411650e-01  3.393140768766017e-17
-1.429999999999999e+00 -8.256108849411650e-01  3.393140768766017e-17
-1.429999999999999e+00 -8.256108849411650e-01  3.393140768766017e-17
-1.429999999999999e+00 -8.256108849411650e-01  3.393140768766017e-17
-1.429999999999999e+00 -8.256108849411650e-01  3.393140768766017e-17
-1.429999999999999e+00 -8.256108849411650e-01  3.393140768766017e-17
-1.429999999999999e+00 -8.256108849411650e-01  3.393140768766017e-17
-1.429999999999999e+00 -8.256108849411650e-01  3.393140768766017e-17
-1.429999999999999e+00 -8.256108849411650e-01  3.393140768766017e-17
-1.429999999999999e+00 -8.256108849411650e-01  3.393140768766017e-17
-1.429999999999999e+00 -8.256108849411650e-01  3.393140768766017e-17
-1.429999999999999e+00 -8.256108849411650e-01  3.393140768766017e-17
-1.429999999999999e+00 -8.256108849411650e-01  3.393140768766017e-17
-1.429999999999999e+00 -8.256108849411650e-01  3.393140768766017e-17
-1.429999999999999e+00 -8.256108849411650e-01  3.393140768766017e-17
-1.429999999999999e+00 -8.256108849411650e-01  3.393140768766017e-17
-1.429999999999999e+00 -8.256108849411650e-01  3.393140768766017e-17
-1.429999999999999e+00 -8.256108849411650e-01  3.393140768766017e-17
-1.429999999999999e+00 -8.256108849411650e-01  3.393140768766017e-17
-1.429999999999999e+00 -8.256108849411650e-01  3.393140768766017e-17
-1.429999999999999e+00 -8.256108849411650e-01  3.393140768766017e-17
-1.429999999999999e+00 -8.256108849411650e-01  3.393140768766017e-17
-1.429999999999999e+00 -8.256108849411650e-01  3.393140768766017e-17
-1.429999999999999e+00 -8.256108849411650e-01  3.393140768766017e-17
-1.429999999999999e+00 -8.256108849411650e-01  3.393140768766017e-17
-1.429999999999999e+00 -8.256108849411650e-01  3.393140768766017e-17
-1.429999999999999e+00 -8.256108849411650e-01  3.393140768766017e-17
-1.429999999999999e+00 -8.256108849411650e-01  3.393140768766017e-17
-1.429999999999999e+00 -8.256108849411650e-01  3.393140768766017e-17
-1.429999999999999e+00 -8.256108849411650e-01  3.393140768766017e-17
-1.429999999999999e+00 -8.256108849411650e-01  3.393140768766017e-17
-1.429999999999999e+00 -8.256108849411650e-01  3.393140768766017e-17
-1.429999999999999e+00 -8.256108849411650e-01  3.393140768766017e-17
-1.429999999999999e+00 -8.256108849411650e-01  3.393140768766017e-17
-1.429999999999999e+00 -8.256108849411650e-01  3.393140768766017e-17
-1.429999999999999e+00 -8.256108849411650e-01  3.393140768766017e-17
-1.429999999999999e+00 -8.256108849411650e-01  3.393140768766017e-17
-1.429999999999999e+00 -8.256108849411650e-01  3.393140768766017e-17
-1.429999999999999e+00 -8.256108849411650e-01  3.393140768766017e-17
-1.429999999999999e+00 -8.256108849411650e-01  3.393140768766017e-17
-1.429999999999999e+00 -8.256108849411650e-01  3.393140768766017e-17
-1.429999999999999e+00 -8.256108849411650e-01  3.393140768766017e-17
-1.429999999999999e+00 -8.256108849411650e-01  3.393140768766017e-17
-1.429999999999999e+00 -8.256108849411650e-01  3.393140768766017e-17
-1.429999999999999e+00 -8.256108849411650e-01  3.393140768766017e-17
-1.429999999999999e+00 -8.256108849411650e-01  3.393140768766017e-17
-1.429999999999999e+00 -8.256108849411650e-01  3.393140768766017e-17
-1.429999999999999e+00 -8.256108849411650e-01  3.393140768766017e-17
-1.429999999999999e+00 -8.256108849411650e-01  3.393140768766017e-17
-1.429999999999999e+00 -8.256108849411650e-01  3.393140768766017e-17
-1.429999999999999e+00 -8.256108849411650e-01  3.393140768766017e-17
-1.429999999999999e+00 -8.256108849411650e-01  3.393140768766017e-17
-1.429999999999999e+00 -8.256108849411650e-01  3.393140768766017e-17
 1.429999999999999e+00  8.256108849411650e-01 -3.393140768766017e-17
-1.429999999999999e+00 -8.256108849411650e-01  3.393140768766017e-17
-1.429999999999999e+00 -8.256108849411650e-01  3.393140768766017e-17
-1.429999999999999e+00 -8.256108849411650e-01  3.393140768766017e-17
-1.429999999999999e+00 -8.256108849411650e-01  3.393140768766017e-17
-1.429999999999999e+00 -8.256108849411650e-01  3.393140768766017e-17
-1.429999999999999e+00 -8.256108849411650e-01  3.393140768766017e-17
-1.429999999999999e+00 -8.256108849411650e-01  3.393140768766017e-17
-1.429999999999999e+00 -8.256108849411650e-01  3.393140768766017e-17
-1.429999999999999e+00 -8.256108849411650e-01  3.393140768766017e-17
-1.429999999999999e+00 -8.256108849411650e-01  3.393140768766017e-17
-1.429999999999999e+00 -8.256108849411650e-01  3.393140768766017e-17
-1.429999999999999e+00 -8.256108849411650e-01  3.393140768766017e-17
-1.429999999999999e+00 -8.256108849411650e-01  3.393140768766017e-17
-1.429999999999999e+00 -8.256108849411650e-01  3.393140768766017e-17
-1.429999999999999e+00 -8.256108849411650e-01  3.393140768766017e-17
-1.429999999999999e+00 -8.256108849411650e-01  3.393140768766017e-17
-1.429999999999999e+00 -8.256108849411650e-01  3.393140768766017e-17
-1.429999999999999e+00 -8.256108849411650e-01  3.393140768766017e-17
-1.429999999999999e+00 -8.256108849411650e-01  3.393140768766017e-17
-1.429999999999999e+00 -8.256108849411650e-01  3.393140768766017e-17
-1.429999999999999e+00 -8.256108849411650e-01  3.393140768766017e-17
-1.429999999999999e+00 -8.256108849411650e-01  3.393140768766017e-17
-1.429999999999999e+00 -8.256108849411650e-01  3.393140768766017e-17
-1.429999999999999e+00 -8.256108849411650e-01  3.393140768766017e-17
-1.429999999999999e+00 -8.256108849411650e-01  3.393140768766017e-17
-1.429999999999999e+00 -8.256108849411650e-01  3.393140768766017e-17
-1.429999999999999e+00 -8.256108849411650e-01  3.393140768766017e-17
-1.429999999999999e+00 -8.256108849411650e-01  3.393140768766017e-17
-1.429999999999999e+00 -8.256108849411650e-01  3.393140768766017e-17
-1.429999999999999e+00 -8.256108849411650e-01  3.393140768766017e-17
-1.429999999999999e+00 -8.256108849411650e-01  3.393140768766017e-17
-1.429999999999999e+00 -8.256108849411650e-01  3.393140768766017e-17
-1.429999999999999e+00 -8.256108849411650e-01  3.393140768766017e-17
-1.429999999999999e+00 -8.256108849411650e-01  3.393140768766017e-17
-1.429999999999999e+00 -8.256108849411650e-01  3.393140768766017e-17
-1.429999999999999e+00 -8.256108849411650e-01  3.393140768766017e-17
-1.429999999999999e+00 -8.256108849411650e-01  3.393140768766017e-17
-1.429999999999999e+00 -8.256108849411650e-01  3.393140768766017e-17
-1.429999999999999e+00 -8.256108849411650e-01  3.393140768766017e-17
-1.429999999999999e+00 -8.256108849411650e-01  3.393140768766017e-17
-1.429999999999999e+00 -8.256108849411650e-01  3.393140768766017e-17
-1.429999999999999e+00 -8.256108849411650e-01  3.393140768766017e-17
-1.429999999999999e+00 -8.256108849411650e-01  3.393140768766017e-17
-1.429999999999999e+00 -8.256108849411650e-01  3.393140768766017e-17
-1.429999999999999e+00 -8.256108849411650e-01  3.393140768766017e-17
-1.429999999999999e+00 -8.256108849411650e-01  3.393140768766017e-17
-1.429999999999999e+00 -8.256108849411650e-01  3.393140768766017e-17
-1.429999999999999e+00 -8.256108849411650e-01  3.393140768766017e-17
-1.429999999999999e+00 -8.256108849411650e-01  3.393140768766017e-17
-1.429999999999999e+00 -8.256108849411650e-01  3.393140768766017e-17
-1.429999999999999e+00 -8.256108849411650e-01  3.393140768766017e-17
-1.429999999999999e+00 -8.256108849411650e-01  3.393140768766017e-17
-1.429999999999999e+00 -8.256108849411650e-01  3.393140768766017e-17
-1.429999999999999e+00 -8.256108849411650e-01  3.393140768766017e-17
-1.429999999999999e+00 -8.256108849411650e-01  3.393140768766017e-17
-1.429999999999999e+00 -8.256108849411650e-01  3.393140768766017e-17
-1.429999999999999e+00 -8.256108849411650e-01  3.393140768766017e-17
-1.429999999999999e+00 -8.256108849411650e-01  3.393140768766017e-17
-1.429999999999999e+00 -8.256108849411650e-01  3.393140768766017e-17
-1.429999999999999e+00 -8.256108849411650e-01  3.393140768766017e-17
-1.429999999999999e+00 -8.256108849411650e-01  3.393140768766017e-17
-1.429999999999999e+00 -8.256108849411650e-01  3.393140768766017e-17
-1.429999999999999e+00 -8.256108849411650e-01  3.393140768766017e-17
-1.429999999999999e+00 -8.256108849411650e-01  3.393140768766017e-17
-1.429999999999999e+00 -8.256108849411650e-01  3.393140768766017e-17
-1.429999999999999e+00 -8.256108849411650e-01  3.393140768766017e-17
-1.429999999999999e+00 -8.256108849411650e-01  3.393140768766017e-17
-1.429999999999999e+00 -8.256108849411650e-01  3.393140768766017e-17
-1.429999999999999e+00 -8.256108849411650e-01  3.393140768766017e-17
-1.429999999999999e+00 -8.256108849411650e-01  3.393140768766017e-17
-1.429999999999999e+00 -8.256108849411650e-01  3.393140768766017e-17
-1.429999999999999e+00 -8.256108849411650e-01  3.393140768766017e-17
-1.429999999999999e+00 -8.256108849411650e-01  3.393140768766017e-17
-1.429999999999999e+00 -8.256108849411650e-01  3.393140768766017e-17
-1.429999999999999e+00 -8.256108849411650e-01  3.393140768766017e-17
-1.429999999999999e+00 -8.256108849411650e-01  3.393140768766017e-17
-1.429999999999999e+00 -8.256108849411650e-01  3.393140768766017e-17
-1.429999999999999e+00 -8.256108849411650e-01  3.393140768766017e-17
-1.429999999999999e+00 -8.256108849411650e-01  3.393140768766017e-17
-1.429999999999999e+00 -8.256108849411650e-01  3.393140768766017e-17
-1.429999999999999e+00 -8.256108849411650e-01  3.393140768766017e-17
-1.429999999999999e+00 -8.256108849411650e-01  3.393140768766017e-17
-1.429999999999999e+00 -8.256108849411650e-01  3.393140768766017e-17
-1.429999999999999e+00 -8.256108849411650e-01  3.393140768766017e-17
-1.429999999999999e+00 -8.256108849411650e-01  3.393140768766017e-17
-1.429999999999999e+00 -8.256108849411650e-01  3.393140768766017e-17
-1.429999999999999e+00 -8.256108849411650e-01  3.393140768766017e-17
-1.429999999999999e+00 -8.256108849411650e-01  3.393140768766017e-17
-1.429999999999999e+00 -8.256108849411650e-01  3.393140768766017e-17
-1.429999999999999e+00 -8.256108849411650e-01  3.393140768766017e-17
-1.429999999999999e+00 -8.256108849411650e-01  3.393140768766017e-17
-1.429999999999999e+00 -8.256108849411650e-01  3.393140768766017e-17
-1.429999999999999e+00 -8.256108849411650e-01  3.393140768766017e-17
-1.429999999999999e+00 -8.256108849411650e-01  3.393140768766017e-17
-1.429999999999999e+00 -8.256108849411650e-01  3.393140768766017e-17
-1.429999999999999e+00 -8.256108849411650e-01  3.393140768766017e-17
-1.429999999999999e+00 -8.256108849411650e-01  3.393140768766017e-17
-1.429999999999999e+00 -8.256108849411650e-01  3.393140768766017e-17
-1.429999999999999e+00 -8.256108849411650e-01  3.393140768766017e-17
-1.429999999999999e+00 -8.256108849411650e-01  3.393140768766017e-17
-1.429999999999999e+00 -8.256108849411650e-01  3.393140768766017e-17
-1.429999999999999e+00 -8.256108849411650e-01  3.393140768766017e-17
-1.429999999999999e+00 -8.256108849411650e-01  3.393140768766017e-17
-1.429999999999999e+00 -8.256108849411650e-01  3.393140768766017e-17
-1.429999999999999e+00 -8.256108849411650e-01  3.393140768766017e-17
-1.429999999999999e+00 -8.256108849411650e-01  3.393140768766017e-17
-1.429999999999999e+00 -8.256108849411650e-01  3.393140768766017e-17
-1.429999999999999e+00 -8.256108849411650e-01  3.393140768766017e-17
-1.429999999999999e+00 -8.256108849411650e-01  3.393140768766017e-17
-1.429999999999999e+00 -8.256108849411650e-01  3.393140768766017e-17
-1.429999999999999e+00 -8.256108849411650e-01  3.393140768766017e-17
-1.429999999999999e+00 -8.256108849411650e-01  3.393140768766017e-17
-1.429999999999999e+00 -8.256108849411650e-01  3.393140768766017e-17
-1.429999999999999e+00 -8.256108849411650e-01  3.393140768766017e-17
-1.429999999999999e+00 -8.256108849411650e-01  3.393140768766017e-17
-1.429999999999999e+00 -8.256108849411650e-01  3.393140768766017e-17
-1.429999999999999e+00 -8.256108849411650e-01  3.393140768766017e-17
-1.429999999999999e+00 -8.256108849411650e-01  3.393140768766017e-17
-1.429999999999999e+00 -8.256108849411650e-01  3.393140768766017e-17
-1.429999999999999e+00 -8.256108849411650e-01  3.393140768766017e-17
-1.429999999999999e+00 -8.256108849411650e-01  3.393140768766017e-17
-1.429999999999999e+00 -8.256108849411650e-01  3.393140768766017e-17
-1.429999999999999e+00 -8.256108849411650e-01  3.393140768766017e-17
-1.429999999999999e+00 -8.256108849411650e-01  3.393140768766017e-17
-1.429999999999999e+00 -8.256108849411650e-01  3.393140768766017e-17
-1.429999999999999e+00 -8.256108849411650e-01  3.393140768766017e-17
-1.429999999999999e+00 -8.256108849411650e-01  3.393140768766017e-17
-1.429999999999999e+00 -8.256108849411650e-01  3.393140768766017e-17
-1.429999999999999e+00 -8.256108849411650e-01  3.393140768766017e-17
-1.429999999999999e+00 -8.256108849411650e-01  3.393140768766017e-17
-1.429999999999999e+00 -8.256108849411650e-01  3.393140768766017e-17
-1.429999999999999e+00 -8.256108849411650e-01  3.393140768766017e-17
-1.429999999999999e+00 -8.256108849411650e-01  3.393140768766017e-17
-1.429999999999999e+00 -8.256108849411650e-01  3.393140768766017e-17
-1.429999999999999e+00 -8.256108849411650e-01  3.393140768766017e-17
-1.429999999999999e+00 -8.256108849411650e-01  3.393140768766017e-17
-1.429999999999999e+00 -8.256108849411650e-01  3.393140768766017e-17
-1.429999999999999e+00 -8.256108849411650e-01  3.393140768766017e-17
-1.429999999999999e+00 -8.256108849411650e-01  3.393140768766017e-17
-1.429999999999999e+00 -8.256108849411650e-01  3.393140768766017e-17
-1.429999999999999e+00 -8.256108849411650e-01  3.393140768766017e-17
-1.429999999999999e+00 -8.256108849411650e-01  3.393140768766017e-17
-1.429999999999999e+00 -8.256108849411650e-01  3.393140768766017e-17
-1.429999999999999e+00 -8.256108849411650e-01  3.393140768766017e-17
-1.429999999999999e+00 -8.256108849411650e-01  3.393140768766017e-17
-1.429999999999999e+00 -8.256108849411650e-01  3.393140768766017e-17
-1.429999999999999e+00 -8.256108849411650e-01  3.393140768766017e-17
-1.429999999999999e+00 -8.256108849411650e-01  3.393140768766017e-17
-1.429999999999999e+00 -8.256108849411650e-01  3.393140768766017e-17
-1.429999999999999e+00 -8.256108849411650e-01  3.393140768766017e-17
-1.429999999999999e+00 -8.256108849411650e-01  3.393140768766017e-17
-1.429999999999999e+00 -8.256108849411650e-01  3.393140768766017e-17
-1.429999999999999e+00 -8.256108849411650e-01  3.393140768766017e-17
-1.429999999999999e+00 -8.256108849411650e-01  3.393140768766017e-17
-1.429999999999999e+00 -8.256108849411650e-01  3.393140768766017e-17
-1.429999999999999e+00 -8.256108849411650e-01  3.393140768766017e-17
-1.429999999999999e+00 -8.256108849411650e-01  3.393140768766017e-17
-1.429999999999999e+00 -8.256108849411650e-01  3.393140768766017e-17
-1.429999999999999e+00 -8.256108849411650e-01  3.393140768766017e-17
-1.429999999999999e+00 -8.256108849411650e-01  3.393140768766017e-17
-1.429999999999999e+00 -8.256108849411650e-01  3.393140768766017e-17
-1.429999999999999e+00 -8.256108849411650e-01  3.393140768766017e-17
-1.429999999999999e+00 -8.256108849411650e-01  3.393140768766017e-17
-1.429999999999999e+00 -8.256108849411650e-01  3.393140768766017e-17
-1.429999999999999e+00 -8.256108849411650e-01  3.393140768766017e-17
-1.429999999999999e+00 -8.256108849411650e-01  3.393140768766017e-17
-1.429999999999999e+00 -8.256108849411650e-01  3.393140768766017e-17
-1.429999999999999e+00 -8.256108849411650e-01  3.393140768766017e-17
-1.429999999999999e+00 -8.256108849411650e-01  3.393140768766017e-17
-1.429999999999999e+00 -8.256108849411650e-01  3.393140768766017e-17
-1.429999999999999e+00 -8.256108849411650e-01  3.393140768766017e-17
-1.429999999999999e+00 -8.256108849411650e-01  3.393140768766017e-17
-1.429999999999999e+00 -8.256108849411650e-01  3.393140768766017e-17
-1.429999999999999e+00 -8.256108849411650e-01  3.393140768766017e-17
-1.429999999999999e+00 -8.256108849411650e-01  3.393140768766017e-17
-1.429999999999999e+00 -8.256108849411650e-01  3.393140768766017e-17
-1.429999999999999e+00 -8.256108849411650e-01  3.393140768766017e-17
-1.429999999999999e+00 -8.256108849411650e-01  3.393140768766017e-17
-1.429999999999999e+00 -8.256108849411650e-01  3.393140768766017e-17
-1.429999999999999e+00 -8.256108849411650e-01  3.393140768766017e-17
-1.429999999999999e+00 -8.256108849411650e-01  3.393140768766017e-17
-1.429999999999999e+00 -8.256108849411650e-01  3.393140768766017e-17
-1.429999999999999e+00 -8.256108849411650e-01  3.393140768766017e-17
 1.429999999999999e+00  8.256108849411650e-01 -3.393140768766017e-17
-1.429999999999999e+00 -8.256108849411650e-01  3.393140768766017e-17
 1.429999999999999e+00  8.256108849411650e-01 -3.393140768766017e-17
 1.429999999999999e+00  8.256108849411650e-01 -3.393140768766017e-17
 1.429999999999999e+00  8.256108849411650e-01 -3.393140768766017e-17
 1.429999999999999e+00  8.256108849411650e-01 -3.393140768766017e-17
 1.429999999999999e+00  8.256108849411650e-01 -3.393140768766017e-17
 1.429999999999999e+00  8.256108849411650e-01 -3.393140768766017e-17
 1.429999999999999e+00  8.256108849411650e-01 -3.393140768766017e-17
 1.429999999999999e+00  8.256108849411650e-01 -3.393140768766017e-17
 1.429999999999999e+00  8.256108849411650e-01 -3.393140768766017e-17
 1.429999999999999e+00  8.256108849411650e-01 -3.393140768766017e-17
 1.429999999999999e+00  8.256108849411650e-01 -3.393140768766017e-17
 1.429999999999999e+00  8.256108849411650e-01 -3.393140768766017e-17
 1.429999999999999e+00  8.256108849411650e-01 -3.393140768766017e-17
 1.429999999999999e+00  8.256108849411650e-01 -3.393140768766017e-17
 1.429999999999999e+00  8.256108849411650e-01 -3.393140768766017e-17
 1.429999999999999e+00  8.256108849411650e-01 -3.393140768766017e-17
 1.429999999999999e+00  8.256108849411650e-01 -3.393140768766017e-17
 1.429999999999999e+00  8.256108849411650e-01 -3.393140768766017e-17
 1.429999999999999e+00  8.256108849411650e-01 -3.393140768766017e-17
 1.429999999999999e+00  8.256108849411650e-01 -3.393140768766017e-17
 1.429999999999999e+00  8.256108849411650e-01 -3.393140768766017e-17
 1.429999999999999e+00  8.256108849411650e-01 -3.393140768766017e-17
 1.429999999999999e+00  8.256108849411650e-01 -3.393140768766017e-17
 1.429999999999999e+00  8.256108849411650e-01 -3.393140768766017e-17
 1.429999999999999e+00  8.256108849411650e-01 -3.393140768766017e-17
 1.429999999999999e+00  8.256108849411650e-01 -3.393140768766017e-17
 1.429999999999999e+00  8.256108849411650e-01 -3.393140768766017e-17
 1.429999999999999e+00  8.256108849411650e-01 -3.393140768766017e-17
 1.429999999999999e+00  8.256108849411650e-01 -3.393140768766017e-17
 1.429999999999999e+00  8.256108849411650e-01 -3.393140768766017e-17
 1.429999999999999e+00  8.256108849411650e-01 -3.393140768766017e-17
 1.429999999999999e+00  8.256108849411650e-01 -3.393140768766017e-17
 1.429999999999999e+00  8.256108849411650e-01 -3.393140768766017e-17
 1.429999999999999e+00  8.256108849411650e-01 -3.393140768766017e-17
 1.429999999999999e+00  8.256108849411650e-01 -3.393140768766017e-17
 1.429999999999999e+00  8.256108849411650e-01 -3.393140768766017e-17
 1.429999999999999e+00  8.256108849411650e-01 -3.393140768766017e-17
 1.429999999999999e+00  8.256108849411650e-01 -3.393140768766017e-17
 1.429999999999999e+00  8.256108849411650e-01 -3.393140768766017e-17
 1.429999999999999e+00  8.256108849411650e-01 -3.393140768766017e-17
 1.429999999999999e+00  8.256108849411650e-01 -3.393140768766017e-17
 1.429999999999999e+00  8.256108849411650e-01 -3.393140768766017e-17
 1.429999999999999e+00  8.256108849411650e-01 -3.393140768766017e-17
 1.429999999999999e+00  8.256108849411650e-01 -3.393140768766017e-17
 1.429999999999999e+00  8.256108849411650e-01 -3.393140768766017e-17
 1.429999999999999e+00  8.256108849411650e-01 -3.393140768766017e-17
 1.429999999999999e+00  8.256108849411650e-01 -3.393140768766017e-17
 1.429999999999999e+00  8.256108849411650e-01 -3.393140768766017e-17
 1.429999999999999e+00  8.256108849411650e-01 -3.393140768766017e-17
 1.429999999999999e+00  8.256108849411650e-01 -3.393140768766017e-17
 1.429999999999999e+00  8.256108849411650e-01 -3.393140768766017e-17
 1.429999999999999e+00  8.256108849411650e-01 -3.393140768766017e-17
 1.429999999999999e+00  8.256108849411650e-01 -3.393140768766017e-17
 1.429999999999999e+00  8.256108849411650e-01 -3.393140768766017e-17
 1.429999999999999e+00  8.256108849411650e-01 -3.393140768766017e-17
 1.429999999999999e+00  8.256108849411650e-01 -3.393140768766017e-17
 1.429999999999999e+00  8.256108849411650e-01 -3.393140768766017e-17
 1.429999999999999e+00  8.256108849411650e-01 -3.393140768766017e-17
 1.429999999999999e+00  8.256108849411650e-01 -3.393140768766017e-17
 1.429999999999999e+00  8.256108849411650e-01 -3.393140768766017e-17
 1.429999999999999e+00  8.256108849411650e-01 -3.393140768766017e-17
 1.429999999999999e+00  8.256108849411650e-01 -3.393140768766017e-17
 1.429999999999999e+00  8.256108849411650e-01 -3.393140768766017e-17
 1.429999999999999e+00  8.256108849411650e-01 -3.393140768766017e-17
 1.429999999999999e+00  8.256108849411650e-01 -3.393140768766017e-17
 1.429999999999999e+00  8.256108849411650e-01 -3.393140768766017e-17
 1.429999999999999e+00  8.256108849411650e-01 -3.393140768766017e-17
 1.429999999999999e+00  8.256108849411650e-01 -3.393140768766017e-17
 1.429999999999999e+00  8.256108849411650e-01 -3.393140768766017e-17
 1.429999999999999e+00  8.256108849411650e-01 -3.393140768766017e-17
 1.429999999999999e+00  8.256108849411650e-01 -3.393140768766017e-17
 1.429999999999999e+00  8.256108849411650e-01 -3.393140768766017e-17
 1.429999999999999e+00  8.256108849411650e-01 -3.393140768766017e-17
 1.429999999999999e+00  8.256108849411650e-01 -3.393140768766017e-17
 1.429999999999999e+00  8.256108849411650e-01 -3.393140768766017e-17
 1.429999999999999e+00  8.256108849411650e-01 -3.393140768766017e-17
 1.429999999999999e+00  8.256108849411650e-01 -3.393140768766017e-17
 1.429999999999999e+00  8.256108849411650e-01 -3.393140768766017e-17
 1.429999999999999e+00  8.256108849411650e-01 -3.393140768766017e-17
 1.429999999999999e+00  8.256108849411650e-01 -3.393140768766017e-17
 1.429999999999999e+00  8.256108849411650e-01 -3.393140768766017e-17
 1.429999999999999e+00  8.256108849411650e-01 -3.393140768766017e-17
 1.429999999999999e+00  8.256108849411650e-01 -3.393140768766017e-17
 1.429999999999999e+00  8.256108849411650e-01 -3.393140768766017e-17
 1.429999999999999e+00  8.256108849411650e-01 -3.393140768766017e-17
 1.429999999999999e+00  8.256108849411650e-01 -3.393140768766017e-17
 1.429999999999999e+00  8.256108849411650e-01 -3.393140768766017e-17
 1.429999999999999e+00  8.256108849411650e-01 -3.393140768766017e-17
 1.429999999999999e+00  8.256108849411650e-01 -3.393140768766017e-17
 1.429999999999999e+00  8.256108849411650e-01 -3.393140768766017e-17
 1.429999999999999e+00  8.256108849411650e-01 -3.393140768766017e-17
 1.429999999999999e+00  8.256108849411650e-01 -3.393140768766017e-17
 1.429999999999999e+00  8.256108849411650e-01 -3.393140768766017e-17
 1.429999999999999e+00  8.256108849411650e-01 -3.393140768766017e-17
 1.429999999999999e+00  8.256108849411650e-01 -3.393140768766017e-17
 1.429999999999999e+00  8.256108849411650e-01 -3.393140768766017e-17
 1.429999999999999e+00  8.256108849411650e-01 -3.393140768766017e-17
 1.429999999999999e+00  8.256108849411650e-01 -3.393140768766017e-17
 1.429999999999999e+00  8.256108849411650e-01 -3.393140768766017e-17
 1.429999999999999e+00  8.256108849411650e-01 -3.393140768766017e-17
 1.429999999999999e+00  8.256108849411650e-01 -3.393140768766017e-17
 1.429999999999999e+00  8.256108849411650e-01 -3.393140768766017e-17
 1.429999999999999e+00  8.256108849411650e-01 -3.393140768766017e-17
 1.429999999999999e+00  8.256108849411650e-01 -3.393140768766017e-17
 1.429999999999999e+00  8.256108849411650e-01 -3.393140768766017e-17
 1.429999999999999e+00  8.256108849411650e-01 -3.393140768766017e-17
 1.429999999999999e+00  8.256108849411650e-01 -3.393140768766017e-17
 1.429999999999999e+00  8.256108849411650e-01 -3.393140768766017e-17
 1.429999999999999e+00  8.256108849411650e-01 -3.393140768766017e-17
 1.429999999999999e+00  8.256108849411650e-01 -3.393140768766017e-17
 1.429999999999999e+00  8.256108849411650e-01 -3.393140768766017e-17
 1.429999999999999e+00  8.256108849411650e-01 -3.393140768766017e-17
 1.429999999999999e+00  8.256108849411650e-01 -3.393140768766017e-17
 1.429999999999999e+00  8.256108849411650e-01 -3.393140768766017e-17
 1.429999999999999e+00  8.256108849411650e-01 -3.393140768766017e-17
 1.429999999999999e+00  8.256108849411650e-01 -3.393140768766017e-17
 1.429999999999999e+00  8.256108849411650e-01 -3.393140768766017e-17
 1.429999999999999e+00  8.256108849411650e-01 -3.393140768766017e-17
 1.429999999999999e+00  8.256108849411650e-01 -3.393140768766017e-17
 1.429999999999999e+00  8.256108849411650e-01 -3.393140768766017e-17
 1.429999999999999e+00  8.256108849411650e-01 -3.393140768766017e-17
 1.429999999999999e+00  8.256108849411650e-01 -3.393140768766017e-17
 1.429999999999999e+00  8.256108849411650e-01 -3.393140768766017e-17
 1.429999999999999e+00  8.256108849411650e-01 -3.393140768766017e-17
 1.429999999999999e+00  8.256108849411650e-01 -3.393140768766017e-17
 1.429999999999999e+00  8.256108849411650e-01 -3.393140768766017e-17
 1.429999999999999e+00  8.256108849411650e-01 -3.393140768766017e-17
 1.429999999999999e+00  8.256108849411650e-01 -3.393140768766017e-17
 1.429999999999999e+00  8.256108849411650e-01 -3.393140768766017e-17
 1.429999999999999e+00  8.256108849411650e-01 -3.393140768766017e-17
 1.429999999999999e+00  8.256108849411650e-01 -3.393140768766017e-17
 1.429999999999999e+00  8.256108849411650e-01 -3.393140768766017e-17
 1.429999999999999e+00  8.256108849411650e-01 -3.393140768766017e-17
 1.429999999999999e+00  8.256108849411650e-01 -3.393140768766017e-17
 1.429999999999999e+00  8.256108849411650e-01 -3.393140768766017e-17
 1.429999999999999e+00  8.256108849411650e-01 -3.393140768766017e-17
 1.429999999999999e+00  8.256108849411650e-01 -3.393140768766017e-17
 1.429999999999999e+00  8.256108849411650e-01 -3.393140768766017e-17
 1.429999999999999e+00  8.256108849411650e-01 -3.393140768766017e-17
 1.429999999999999e+00  8.256108849411650e-01 -3.393140768766017e-17
 1.429999999999999e+00  8.256108849411650e-01 -3.393140768766017e-17
 1.429999999999999e+00  8.256108849411650e-01 -3.393140768766017e-17
 1.429999999999999e+00  8.256108849411650e-01 -3.393140768766017e-17
 1.429999999999999e+00  8.256108849411650e-01 -3.393140768766017e-17
 1.429999999999999e+00  8.256108849411650e-01 -3.393140768766017e-17
 1.429999999999999e+00  8.256108849411650e-01 -3.393140768766017e-17
 1.429999999999999e+00  8.256108849411650e-01 -3.393140768766017e-17
 1.429999999999999e+00  8.256108849411650e-01 -3.393140768766017e-17
 1.429999999999999e+00  8.256108849411650e-01 -3.393140768766017e-17
 1.429999999999999e+00  8.256108849411650e-01 -3.393140768766017e-17
 1.429999999999999e+00  8.256108849411650e-01 -3.393140768766017e-17
 1.429999999999999e+00  8.256108849411650e-01 -3.393140768766017e-17
 1.429999999999999e+00  8.256108849411650e-01 -3.393140768766017e-17
 1.429999999999999e+00  8.256108849411650e-01 -3.393140768766017e-17
 1.429999999999999e+00  8.256108849411650e-01 -3.393140768766017e-17
 1.429999999999999e+00  8.256108849411650e-01 -3.393140768766017e-17
 1.429999999999999e+00  8.256108849411650e-01 -3.393140768766017e-17
 1.429999999999999e+00  8.256108849411650e-01 -3.393140768766017e-17
 1.429999999999999e+00  8.256108849411650e-01 -3.393140768766017e-17
 1.429999999999999e+00  8.256108849411650e-01 -3.393140768766017e-17
 1.429999999999999e+00  8.256108849411650e-01 -3.393140768766017e-17
 1.429999999999999e+00  8.256108849411650e-01 -3.393140768766017e-17
 1.429999999999999e+00  8.256108849411650e-01 -3.393140768766017e-17
 1.429999999999999e+00  8.256108849411650e-01 -3.393140768766017e-17
 1.429999999999999e+00  8.256108849411650e-01 -3.393140768766017e-17
 1.429999999999999e+00  8.256108849411650e-01 -3.393140768766017e-17
 1.429999999999999e+00  8.256108849411650e-01 -3.393140768766017e-17
 1.429999999999999e+00  8.256108849411650e-01 -3.393140768766017e-17
 1.429999999999999e+00  8.256108849411650e-01 -3.393140768766017e-17
-1.429999999999999e+00 -8.256108849411650e-01  3.393140768766017e-17
 1.429999999999999e+00  8.256108849411650e-01 -3.393140768766017e-17
 1.429999999999999e+00  8.256108849411650e-01 -3.393140768766017e-17
 1.429999999999999e+00  8.256108849411650e-01 -3.393140768766017e-17
 1.429999999999999e+00  8.256108849411650e-01 -3.393140768766017e-17
 1.429999999999999e+00  8.256108849411650e-01 -3.393140768766017e-17
 1.429999999999999e+00  8.256108849411650e-01 -3.393140768766017e-17
 1.429999999999999e+00  8.256108849411650e-01 -3.393140768766017e-17
 1.429999999999999e+00  8.256108849411650e-01 -3.393140768766017e-17
 1.429999999999999e+00  8.256108849411650e-01 -3.393140768766017e-17
 1.429999999999999e+00  8.256108849411650e-01 -3.393140768766017e-17
 1.429999999999999e+00  8.256108849411650e-01 -3.393140768766017e-17
 1.429999999999999e+00  8.256108849411650e-01 -3.393140768766017e-17
 1.429999999999999e+00  8.256108849411650e-01 -3.393140768766017e-17
 1.429999999999999e+00  8.256108849411650e-01 -3.393140768766017e-17
 1.429999999999999e+00  8.256108849411650e-01 -3.393140768766017e-17
 1.429999999999999e+00  8.256108849411650e-01 -3.393140768766017e-17
 1.429999999999999e+00  8.256108849411650e-01 -3.393140768766017e-17
 1.429999999999999e+00  8.256108849411650e-01 -3.393140768766017e-17
 1.429999999999999e+00  8.256108849411650e-01 -3.393140768766017e-17
 1.429999999999999e+00  8.256108849411650e-01 -3.393140768766017e-17
 1.429999999999999e+00  8.256108849411650e-01 -3.393140768766017e-17
 1.429999999999999e+00  8.256108849411650e-01 -3.393140768766017e-17
 1.429999999999999e+00  8.256108849411650e-01 -3.393140768766017e-17
 1.429999999999999e+00  8.256108849411650e-01 -3.393140768766017e-17
 1.429999999999999e+00  8.256108849411650e-01 -3.393140768766017e-17
 1.429999999999999e+00  8.256108849411650e-01 -3.393140768766017e-17
 1.429999999999999e+00  8.256108849411650e-01 -3.393140768766017e-17
 1.429999999999999e+00  8.256108849411650e-01 -3.393140768766017e-17
 1.429999999999999e+00  8.256108849411650e-01 -3.393140768766017e-17
 1.429999999999999e+00  8.256108849411650e-01 -3.393140768766017e-17
 1.429999999999999e+00  8.256108849411650e-01 -3.393140768766017e-17
 1.429999999999999e+00  8.256108849411650e-01 -3.393140768766017e-17
 1.429999999999999e+00  8.256108849411650e-01 -3.393140768766017e-17
 1.429999999999999e+00  8.256108849411650e-01 -3.393140768766017e-17
 1.429999999999999e+00  8.256108849411650e-01 -3.393140768766017e-17
 1.429999999999999e+00  8.256108849411650e-01 -3.393140768766017e-17
 1.429999999999999e+00  8.256108849411650e-01 -3.393140768766017e-17
 1.429999999999999e+00  8.256108849411650e-01 -3.393140768766017e-17
 1.429999999999999e+00  8.256108849411650e-01 -3.393140768766017e-17
 1.429999999999999e+00  8.256108849411650e-01 -3.393140768766017e-17
 1.429999999999999e+00  8.256108849411650e-01 -3.393140768766017e-17
 1.429999999999999e+00  8.256108849411650e-01 -3.393140768766017e-17
 1.429999999999999e+00  8.256108849411650e-01 -3.393140768766017e-17
 1.429999999999999e+00  8.256108849411650e-01 -3.393140768766017e-17
 1.429999999999999e+00  8.256108849411650e-01 -3.393140768766017e-17
 1.429999999999999e+00  8.256108849411650e-01 -3.393140768766017e-17
 1.429999999999999e+00  8.256108849411650e-01 -3.393140768766017e-17
 1.429999999999999e+00  8.256108849411650e-01 -3.393140768766017e-17
 1.429999999999999e+00  8.256108849411650e-01 -3.393140768766017e-17
 1.429999999999999e+00  8.256108849411650e-01 -3.393140768766017e-17
 1.429999999999999e+00  8.256108849411650e-01 -3.393140768766017e-17
 1.429999999999999e+00  8.256108849411650e-01 -3.393140768766017e-17
 1.429999999999999e+00  8.256108849411650e-01 -3.393140768766017e-17
 1.429999999999999e+00  8.256108849411650e-01 -3.393140768766017e-17
 1.429999999999999e+00  8.256108849411650e-01 -3.393140768766017e-17
 1.429999999999999e+00  8.256108849411650e-01 -3.393140768766017e-17
 1.429999999999999e+00  8.256108849411650e-01 -3.393140768766017e-17
 1.429999999999999e+00  8.256108849411650e-01 -3.393140768766017e-17
 1.429999999999999e+00  8.256108849411650e-01 -3.393140768766017e-17
 1.429999999999999e+00  8.256108849411650e-01 -3.393140768766017e-17
 1.429999999999999e+00  8.256108849411650e-01 -3.393140768766017e-17
 1.429999999999999e+00  8.256108849411650e-01 -3.393140768766017e-17
 1.429999999999999e+00  8.256108849411650e-01 -3.393140768766017e-17
 1.429999999999999e+00  8.256108849411650e-01 -3.393140768766017e-17
 1.429999999999999e+00  8.256108849411650e-01 -3.393140768766017e-17
 1.429999999999999e+00  8.256108849411650e-01 -3.393140768766017e-17
 1.429999999999999e+00  8.256108849411650e-01 -3.393140768766017e-17
 1.429999999999999e+00  8.256108849411650e-01 -3.393140768766017e-17
 1.429999999999999e+00  8.256108849411650e-01 -3.393140768766017e-17
 1.429999999999999e+00  8.256108849411650e-01 -3.393140768766017e-17
 1.429999999999999e+00  8.256108849411650e-01 -3.393140768766017e-17
 1.429999999999999e+00  8.256108849411650e-01 -3.393140768766017e-17
 1.429999999999999e+00  8.256108849411650e-01 -3.393140768766017e-17
 1.429999999999999e+00  8.256108849411650e-01 -3.393140768766017e-17
 1.429999999999999e+00  8.256108849411650e-01 -3.393140768766017e-17
 1.429999999999999e+00  8.256108849411650e-01 -3.393140768766017e-17
 1.429999999999999e+00  8.256108849411650e-01 -3.393140768766017e-17
 1.429999999999999e+00  8.256108849411650e-01 -3.393140768766017e-17
 1.429999999999999e+00  8.256108849411650e-01 -3.393140768766017e-17
 1.429999999999999e+00  8.256108849411650e-01 -3.393140768766017e-17
 1.429999999999999e+00  8.256108849411650e-01 -3.393140768766017e-17
 1.429999999999999e+00  8.256108849411650e-01 -3.393140768766017e-17
 1.429999999999999e+00  8.256108849411650e-01 -3.393140768766017e-17
 1.429999999999999e+00  8.256108849411650e-01 -3.393140768766017e-17
 1.429999999999999e+00  8.256108849411650e-01 -3.393140768766017e-17
 1.429999999999999e+00  8.256108849411650e-01 -3.393140768766017e-17
 1.429999999999999e+00  8.256108849411650e-01 -3.393140768766017e-17
 1.429999999999999e+00  8.256108849411650e-01 -3.393140768766017e-17
 1.429999999999999e+00  8.256108849411650e-01 -3.393140768766017e-17
 1.429999999999999e+00  8.256108849411650e-01 -3.393140768766017e-17
 1.429999999999999e+00  8.256108849411650e-01 -3.393140768766017e-17
 1.429999999999999e+00  8.256108849411650e-01 -3.393140768766017e-17
 1.429999999999999e+00  8.256108849411650e-01 -3.393140768766017e-17
 1.429999999999999e+00  8.256108849411650e-01 -3.393140768766017e-17
 1.429999999999999e+00  8.256108849411650e-01 -3.393140768766017e-17
 1.429999999999999e+00  8.256108849411650e-01 -3.393140768766017e-17
 1.429999999999999e+00  8.256108849411650e-01 -3.393140768766017e-17
 1.429999999999999e+00  8.256108849411650e-01 -3.393140768766017e-17
 1.429999999999999e+00  8.256108849411650e-01 -3.393140768766017e-17
 1.429999999999999e+00  8.256108849411650e-01 -3.393140768766017e-17
 1.429999999999999e+00  8.256108849411650e-01 -3.393140768766017e-17
 1.429999999999999e+00  8.256108849411650e-01 -3.393140768766017e-17
 1.429999999999999e+00  8.256108849411650e-01 -3.393140768766017e-17
 1.429999999999999e+00  8.256108849411650e-01 -3.393140768766017e-17
 1.429999999999999e+00  8.256108849411650e-01 -3.393140768766017e-17
 1.429999999999999e+00  8.256108849411650e-01 -3.393140768766017e-17
 1.429999999999999e+00  8.256108849411650e-01 -3.393140768766017e-17
 1.429999999999999e+00  8.256108849411650e-01 -3.393140768766017e-17
 1.429999999999999e+00  8.256108849411650e-01 -3.393140768766017e-17
 1.429999999999999e+00  8.256108849411650e-01 -3.393140768766017e-17
 1.429999999999999e+00  8.256108849411650e-01 -3.393140768766017e-17
 1.429999999999999e+00  8.256108849411650e-01 -3.393140768766017e-17
 1.429999999999999e+00  8.256108849411650e-01 -3.393140768766017e-17
 1.429999999999999e+00  8.256108849411650e-01 -3.393140768766017e-17
 1.429999999999999e+00  8.256108849411650e-01 -3.393140768766017e-17
 1.429999999999999e+00  8.256108849411650e-01 -3.393140768766017e-17
 1.429999999999999e+00  8.256108849411650e-01 -3.393140768766017e-17
 1.429999999999999e+00  8.256108849411650e-01 -3.393140768766017e-17
 1.429999999999999e+00  8.256108849411650e-01 -3.393140768766017e-17
 1.429999999999999e+00  8.256108849411650e-01 -3.393140768766017e-17
 1.429999999999999e+00  8.256108849411650e-01 -3.393140768766017e-17
 1.429999999999999e+00  8.256108849411650e-01 -3.393140768766017e-17
 1.429999999999999e+00  8.256108849411650e-01 -3.393140768766017e-17
 1.429999999999999e+00  8.256108849411650e-01 -3.393140768766017e-17
 1.429999999999999e+00  8.256108849411650e-01 -3.393140768766017e-17
 1.429999999999999e+00  8.256108849411650e-01 -3.393140768766017e-17
 1.429999999999999e+00  8.256108849411650e-01 -3.393140768766017e-17
 1.429999999999999e+00  8.256108849411650e-01 -3.393140768766017e-17
 1.429999999999999e+00  8.256108849411650e-01 -3.393140768766017e-17
 1.429999999999999e+00  8.256108849411650e-01 -3.393140768766017e-17
 1.429999999999999e+00  8.256108849411650e-01 -3.393140768766017e-17
 1.429999999999999e+00  8.256108849411650e-01 -3.393140768766017e-17
 1.429999999999999e+00  8.256108849411650e-01 -3.393140768766017e-17
 1.429999999999999e+00  8.256108849411650e-01 -3.393140768766017e-17
 1.429999999999999e+00  8.256108849411650e-01 -3.393140768766017e-17
 1.429999999999999e+00  8.256108849411650e-01 -3.393140768766017e-17
 1.429999999999999e+00  8.256108849411650e-01 -3.393140768766017e-17
 1.429999999999999e+00  8.256108849411650e-01 -3.393140768766017e-17
 1.429999999999999e+00  8.256108849411650e-01 -3.393140768766017e-17
 1.429999999999999e+00  8.256108849411650e-01 -3.393140768766017e-17
 1.429999999999999e+00  8.256108849411650e-01 -3.393140768766017e-17
 1.429999999999999e+00  8.256108849411650e-01 -3.393140768766017e-17
 1.429999999999999e+00  8.256108849411650e-01 -3.393140768766017e-17
 1.429999999999999e+00  8.256108849411650e-01 -3.393140768766017e-17
 1.429999999999999e+00  8.256108849411650e-01 -3.393140768766017e-17
 1.429999999999999e+00  8.256108849411650e-01 -3.393140768766017e-17
 1.429999999999999e+00  8.256108849411650e-01 -3.393140768766017e-17
 1.429999999999999e+00  8.256108849411650e-01 -3.393140768766017e-17
 1.429999999999999e+00  8.256108849411650e-01 -3.393140768766017e-17
 1.429999999999999e+00  8.256108849411650e-01 -3.393140768766017e-17
 1.429999999999999e+00  8.256108849411650e-01 -3.393140768766017e-17
 1.429999999999999e+00  8.256108849411650e-01 -3.393140768766017e-17
 1.429999999999999e+00  8.256108849411650e-01 -3.393140768766017e-17
 1.429999999999999e+00  8.256108849411650e-01 -3.393140768766017e-17
 1.429999999999999e+00  8.256108849411650e-01 -3.393140768766017e-17
 1.429999999999999e+00  8.256108849411650e-01 -3.393140768766017e-17
 1.429999999999999e+00  8.256108849411650e-01 -3.393140768766017e-17
 1.429999999999999e+00  8.256108849411650e-01 -3.393140768766017e-17
 1.429999999999999e+00  8.256108849411650e-01 -3.393140768766017e-17
 1.429999999999999e+00  8.256108849411650e-01 -3.393140768766017e-17
 1.429999999999999e+00  8.256108849411650e-01 -3.393140768766017e-17
 1.429999999999999e+00  8.256108849411650e-01 -3.393140768766017e-17
 1.429999999999999e+00  8.256108849411650e-01 -3.393140768766017e-17
 1.429999999999999e+00  8.256108849411650e-01 -3.393140768766017e-17
 1.429999999999999e+00  8.256108849411650e-01 -3.393140768766017e-17
 1.429999999999999e+00  8.256108849411650e-01 -3.393140768766017e-17
 1.429999999999999e+00  8.256108849411650e-01 -3.393140768766017e-17
 1.429999999999999e+00  8.256108849411650e-01 -3.393140768766017e-17
 1.429999999999999e+00  8.256108849411650e-01 -3.393140768766017e-17
 1.429999999999999e+00  8.256108849411650e-01 -3.393140768766017e-17
 1.429999999999999e+00  8.256108849411650e-01 -3.393140768766017e-17
 1.429999999999999e+00  8.256108849411650e-01 -3.393140768766017e-17
-1.429999999999999e+00  8.256108849411650e-01  1.696570384383008e-17
 1.429999999999999e+00 -8.256108849411650e-01 -1.696570384383008e-17
-1.429999999999999e+00  8.256108849411650e-01  1.696570384383008e-17
-1.429999999999999e+00  8.256108849411650e-01  1.696570384383008e-17
-1.429999999999999e+00  8.256108849411650e-01  1.696570384383008e-17
-1.429999999999999e+00  8.256108849411650e-01  1.696570384383008e-17
-1.429999999999999e+00  8.256108849411650e-01  1.696570384383008e-17
-1.429999999999999e+00  8.256108849411650e-01  1.696570384383008e-17
-1.429999999999999e+00  8.256108849411650e-01  1.696570384383008e-17
-1.429999999999999e+00  8.256108849411650e-01  1.696570384383008e-17
-1.429999999999999e+00  8.256108849411650e-01  1.696570384383008e-17
-1.429999999999999e+00  8.256108849411650e-01  1.696570384383008e-17
-1.429999999999999e+00  8.256108849411650e-01  1.696570384383008e-17
-1.429999999999999e+00  8.256108849411650e-01  1.696570384383008e-17
-1.429999999999999e+00  8.256108849411650e-01  1.696570384383008e-17
-1.429999999999999e+00  8.256108849411650e-01  1.696570384383008e-17
-1.429999999999999e+00  8.256108849411650e-01  1.696570384383008e-17
-1.429999999999999e+00  8.256108849411650e-01  1.696570384383008e-17
-1.429999999999999e+00  8.256108849411650e-01  1.696570384383008e-17
-1.429999999999999e+00  8.256108849411650e-01  1.696570384383008e-17
-1.429999999999999e+00  8.256108849411650e-01  1.696570384383008e-17
-1.429999999999999e+00  8.256108849411650e-01  1.696570384383008e-17
-1.429999999999999e+00  8.256108849411650e-01  1.696570384383008e-17
-1.429999999999999e+00  8.256108849411650e-01  1.696570384383008e-17
-1.429999999999999e+00  8.256108849411650e-01  1.696570384383008e-17
-1.429999999999999e+00  8.256108849411650e-01  1.696570384383008e-17
-1.429999999999999e+00  8.256108849411650e-01  1.696570384383008e-17
-1.429999999999999e+00  8.256108849411650e-01  1.696570384383008e-17
-1.429999999999999e+00  8.256108849411650e-01  1.696570384383008e-17
-1.429999999999999e+00  8.256108849411650e-01  1.696570384383008e-17
-1.429999999999999e+00  8.256108849411650e-01  1.696570384383008e-17
-1.429999999999999e+00  8.256108849411650e-01  1.696570384383008e-17
-1.429999999999999e+00  8.256108849411650e-01  1.696570384383008e-17
-1.429999999999999e+00  8.256108849411650e-01  1.696570384383008e-17
-1.429999999999999e+00  8.256108849411650e-01  1.696570384383008e-17
-1.429999999999999e+00  8.256108849411650e-01  1.696570384383008e-17
-1.429999999999999e+00  8.256108849411650e-01  1.696570384383008e-17
-1.429999999999999e+00  8.256108849411650e-01  1.696570384383008e-17
-1.429999999999999e+00  8.256108849411650e-01  1.696570384383008e-17
-1.429999999999999e+00  8.256108849411650e-01  1.696570384383008e-17
-1.429999999999999e+00  8.256108849411650e-01  1.696570384383008e-17
-1.429999999999999e+00  8.256108849411650e-01  1.696570384383008e-17
-1.429999999999999e+00  8.256108849411650e-01  1.696570384383008e-17
-1.429999999999999e+00  8.256108849411650e-01  1.696570384383008e-17
-1.429999999999999e+00  8.256108849411650e-01  1.696570384383008e-17
-1.429999999999999e+00  8.256108849411650e-01  1.696570384383008e-17
-1.429999999999999e+00  8.256108849411650e-01  1.696570384383008e-17
-1.429999999999999e+00  8.256108849411650e-01  1.696570384383008e-17
-1.429999999999999e+00  8.256108849411650e-01  1.696570384383008e-17
-1.429999999999999e+00  8.256108849411650e-01  1.696570384383008e-17
-1.429999999999999e+00  8.256108849411650e-01  1.696570384383008e-17
-1.429999999999999e+00  8.256108849411650e-01  1.696570384383008e-17
-1.429999999999999e+00  8.256108849411650e-01  1.696570384383008e-17
-1.429999999999999e+00  8.256108849411650e-01  1.696570384383008e-17
-1.429999999999999e+00  8.256108849411650e-01  1.696570384383008e-17
-1.429999999999999e+00  8.256108849411650e-01  1.696570384383008e-17
-1.429999999999999e+00  8.256108849411650e-01  1.696570384383008e-17
-1.429999999999999e+00  8.256108849411650e-01  1.696570384383008e-17
-1.429999999999999e+00  8.256108849411650e-01  1.696570384383008e-17
-1.429999999999999e+00  8.256108849411650e-01  1.696570384383008e-17
-1.429999999999999e+00  8.256108849411650e-01  1.696570384383008e-17
-1.429999999999999e+00  8.256108849411650e-01  1.696570384383008e-17
-1.429999999999999e+00  8.256108849411650e-01  1.696570384383008e-17
-1.429999999999999e+00  8.256108849411650e-01  1.696570384383008e-17
-1.429999999999999e+00  8.256108849411650e-01  1.696570384383008e-17
-1.429999999999999e+00  8.256108849411650e-01  1.696570384383008e-17
-1.429999999999999e+00  8.256108849411650e-01  1.696570384383008e-17
-1.429999999999999e+00  8.256108849411650e-01  1.696570384383008e-17
-1.429999999999999e+00  8.256108849411650e-01  1.696570384383008e-17
-1.429999999999999e+00  8.256108849411650e-01  1.696570384383008e-17
-1.429999999999999e+00  8.256108849411650e-01  1.696570384383008e-17
-1.429999999999999e+00  8.256108849411650e-01  1.696570384383008e-17
-1.429999999999999e+00  8.256108849411650e-01  1.696570384383008e-17
-1.429999999999999e+00  8.256108849411650e-01  1.696570384383008e-17
-1.429999999999999e+00  8.256108849411650e-01  1.696570384383008e-17
-1.429999999999999e+00  8.256108849411650e-01  1.696570384383008e-17
-1.429999999999999e+00  8.256108849411650e-01  1.696570384383008e-17
-1.429999999999999e+00  8.256108849411650e-01  1.696570384383008e-17
-1.429999999999999e+00  8.256108849411650e-01  1.696570384383008e-17
-1.429999999999999e+00  8.256108849411650e-01  1.696570384383008e-17
-1.429999999999999e+00  8.256108849411650e-01  1.696570384383008e-17
-1.429999999999999e+00  8.256108849411650e-01  1.696570384383008e-17
-1.429999999999999e+00  8.256108849411650e-01  1.696570384383008e-17
-1.429999999999999e+00  8.256108849411650e-01  1.696570384383008e-17
-1.429999999999999e+00  8.256108849411650e-01  1.696570384383008e-17
-1.429999999999999e+00  8.256108849411650e-01  1.696570384383008e-17
-1.429999999999999e+00  8.256108849411650e-01  1.696570384383008e-17
-1.429999999999999e+00  8.256108849411650e-01  1.696570384383008e-17
-1.429999999999999e+00  8.256108849411650e-01  1.696570384383008e-17
-1.429999999999999e+00  8.256108849411650e-01  1.696570384383008e-17
-1.429999999999999e+00  8.256108849411650e-01  1.696570384383008e-17
-1.429999999999999e+00  8.256108849411650e-01  1.696570384383008e-17
-1.429999999999999e+00  8.256108849411650e-01  1.696570384383008e-17
-1.429999999999999e+00  8.256108849411650e-01  1.696570384383008e-17
-1.429999999999999e+00  8.256108849411650e-01  1.696570384383008e-17
-1.429999999999999e+00  8.256108849411650e-01  1.696570384383008e-17
-1.429999999999999e+00  8.256108849411650e-01  1.696570384383008e-17
-1.429999999999999e+00  8.256108849411650e-01  1.696570384383008e-17
-1.429999999999999e+00  8.256108849411650e-01  1.696570384383008e-17
-1.429999999999999e+00  8.256108849411650e-01  1.696570384383008e-17
-1.429999999999999e+00  8.256108849411650e-01  1.696570384383008e-17
-1.429999999999999e+00  8.256108849411650e-01  1.696570384383008e-17
-1.429999999999999e+00  8.256108849411650e-01  1.696570384383008e-17
-1.429999999999999e+00  8.256108849411650e-01  1.696570384383008e-17
-1.429999999999999e+00  8.256108849411650e-01  1.696570384383008e-17
-1.429999999999999e+00  8.256108849411650e-01  1.696570384383008e-17
-1.429999999999999e+00  8.256108849411650e-01  1.696570384383008e-17
-1.429999999999999e+00  8.256108849411650e-01  1.696570384383008e-17
-1.429999999999999e+00  8.256108849411650e-01  1.696570384383008e-17
-1.429999999999999e+00  8.256108849411650e-01  1.696570384383008e-17
-1.429999999999999e+00  8.256108849411650e-01  1.696570384383008e-17
-1.429999999999999e+00  8.256108849411650e-01  1.696570384383008e-17
-1.429999999999999e+00  8.256108849411650e-01  1.696570384383008e-17
-1.429999999999999e+00  8.256108849411650e-01  1.696570384383008e-17
-1.429999999999999e+00  8.256108849411650e-01  1.696570384383008e-17
-1.429999999999999e+00  8.256108849411650e-01  1.696570384383008e-17
-1.429999999999999e+00  8.256108849411650e-01  1.696570384383008e-17
-1.429999999999999e+00  8.256108849411650e-01  1.696570384383008e-17
-1.429999999999999e+00  8.256108849411650e-01  1.696570384383008e-17
-1.429999999999999e+00  8.256108849411650e-01  1.696570384383008e-17
-1.429999999999999e+00  8.256108849411650e-01  1.696570384383008e-17
-1.429999999999999e+00  8.256108849411650e-01  1.696570384383008e-17
-1.429999999999999e+00  8.256108849411650e-01  1.696570384383008e-17
-1.429999999999999e+00  8.256108849411650e-01  1.696570384383008e-17
-1.429999999999999e+00  8.256108849411650e-01  1.696570384383008e-17
-1.429999999999999e+00  8.256108849411650e-01  1.696570384383008e-17
-1.429999999999999e+00  8.256108849411650e-01  1.696570384383008e-17
-1.429999999999999e+00  8.256108849411650e-01  1.696570384383008e-17
-1.429999999999999e+00  8.256108849411650e-01  1.696570384383008e-17
-1.429999999999999e+00  8.256108849411650e-01  1.696570384383008e-17
-1.429999999999999e+00  8.256108849411650e-01  1.696570384383008e-17
-1.429999999999999e+00  8.256108849411650e-01  1.696570384383008e-17
-1.429999999999999e+00  8.256108849411650e-01  1.696570384383008e-17
-1.429999999999999e+00  8.256108849411650e-01  1.696570384383008e-17
-1.429999999999999e+00  8.256108849411650e-01  1.696570384383008e-17
-1.429999999999999e+00  8.256108849411650e-01  1.696570384383008e-17
-1.429999999999999e+00  8.256108849411650e-01  1.696570384383008e-17
-1.429999999999999e+00  8.256108849411650e-01  1.696570384383008e-17
-1.429999999999999e+00  8.256108849411650e-01  1.696570384383008e-17
-1.429999999999999e+00  8.256108849411650e-01  1.696570384383008e-17
-1.429999999999999e+00  8.256108849411650e-01  1.696570384383008e-17
-1.429999999999999e+00  8.256108849411650e-01  1.696570384383008e-17
-1.429999999999999e+00  8.256108849411650e-01  1.696570384383008e-17
-1.429999999999999e+00  8.256108849411650e-01  1.696570384383008e-17
-1.429999999999999e+00  8.256108849411650e-01  1.696570384383008e-17
-1.429999999999999e+00  8.256108849411650e-01  1.696570384383008e-17
-1.429999999999999e+00  8.256108849411650e-01  1.696570384383008e-17
-1.429999999999999e+00  8.256108849411650e-01  1.696570384383008e-17
-1.429999999999999e+00  8.256108849411650e-01  1.696570384383008e-17
-1.429999999999999e+00  8.256108849411650e-01  1.696570384383008e-17
-1.429999999999999e+00  8.256108849411650e-01  1.696570384383008e-17
-1.429999999999999e+00  8.256108849411650e-01  1.696570384383008e-17
-1.429999999999999e+00  8.256108849411650e-01  1.696570384383008e-17
-1.429999999999999e+00  8.256108849411650e-01  1.696570384383008e-17
-1.429999999999999e+00  8.256108849411650e-01  1.696570384383008e-17
-1.429999999999999e+00  8.256108849411650e-01  1.696570384383008e-17
-1.429999999999999e+00  8.256108849411650e-01  1.696570384383008e-17
-1.429999999999999e+00  8.256108849411650e-01  1.696570384383008e-17
-1.429999999999999e+00  8.256108849411650e-01  1.696570384383008e-17
-1.429999999999999e+00  8.256108849411650e-01  1.696570384383008e-17
-1.429999999999999e+00  8.256108849411650e-01  1.696570384383008e-17
-1.429999999999999e+00  8.256108849411650e-01  1.696570384383008e-17
-1.429999999999999e+00  8.256108849411650e-01  1.696570384383008e-17
-1.429999999999999e+00  8.256108849411650e-01  1.696570384383008e-17
-1.429999999999999e+00  8.256108849411650e-01  1.696570384383008e-17
-1.429999999999999e+00  8.256108849411650e-01  1.696570384383008e-17
-1.429999999999999e+00  8.256108849411650e-01  1.696570384383008e-17
-1.429999999999999e+00  8.256108849411650e-01  1.696570384383008e-17
-1.429999999999999e+00  8.256108849411650e-01  1.696570384383008e-17
-1.429999999999999e+00  8.256108849411650e-01  1.696570384383008e-17
-1.429999999999999e+00  8.256108849411650e-01  1.696570384383008e-17
-1.429999999999999e+00  8.256108849411650e-01  1.696570384383008e-17
-1.429999999999999e+00  8.256108849411650e-01  1.696570384383008e-17
-1.429999999999999e+00  8.256108849411650e-01  1.696570384383008e-17
-1.429999999999999e+00  8.256108849411650e-01  1.696570384383008e-17
-1.429999999999999e+00  8.256108849411650e-01  1.696570384383008e-17
-1.429999999999999e+00  8.256108849411650e-01  1.696570384383008e-17
-1.429999999999999e+00  8.256108849411650e-01  1.696570384383008e-17
-1.429999999999999e+00  8.256108849411650e-01  1.696570384383008e-17
-1.429999999999999e+00  8.256108849411650e-01  1.696570384383008e-17
-1.429999999999999e+00  8.256108849411650e-01  1.696570384383008e-17
-1.429999999999999e+00  8.256108849411650e-01  1.696570384383008e-17
-1.429999999999999e+00  8.256108849411650e-01  1.696570384383008e-17
-1.429999999999999e+00  8.256108849411650e-01  1.696570384383008e-17
-1.429999999999999e+00  8.256108849411650e-01  1.696570384383008e-17
-1.429999999999999e+00  8.256108849411650e-01  1.696570384383008e-17
-1.429999999999999e+00  8.256108849411650e-01  1.696570384383008e-17
-1.429999999999999e+00  8.256108849411650e-01  1.696570384383008e-17
-1.429999999999999e+00  8.256108849411650e-01  1.696570384383008e-17
-1.429999999999999e+00  8.256108849411650e-01  1.696570384383008e-17
-1.429999999999999e+00  8.256108849411650e-01  1.696570384383008e-17
-1.429999999999999e+00  8.256108849411650e-01  1.696570384383008e-17
-1.429999999999999e+00  8.256108849411650e-01  1.696570384383008e-17
-1.429999999999999e+00  8.256108849411650e-01  1.696570384383008e-17
-1.429999999999999e+00  8.256108849411650e-01  1.696570384383008e-17
-1.429999999999999e+00  8.256108849411650e-01  1.696570384383008e-17
-1.429999999999999e+00  8.256108849411650e-01  1.696570384383008e-17
-1.429999999999999e+00  8.256108849411650e-01  1.696570384383008e-17
-1.429999999999999e+00  8.256108849411650e-01  1.696570384383008e-17
-1.429999999999999e+00  8.256108849411650e-01  1.696570384383008e-17
 1.429999999999999e+00 -8.256108849411650e-01 -1.696570384383008e-17
-1.429999999999999e+00  8.256108849411650e-01  1.696570384383008e-17
-1.429999999999999e+00  8.256108849411650e-01  1.696570384383008e-17
-1.429999999999999e+00  8.256108849411650e-01  1.696570384383008e-17
-1.429999999999999e+00  8.256108849411650e-01  1.696570384383008e-17
-1.429999999999999e+00  8.256108849411650e-01  1.696570384383008e-17
-1.429999999999999e+00  8.256108849411650e-01  1.696570384383008e-17
-1.429999999999999e+00  8.256108849411650e-01  1.696570384383008e-17
-1.429999999999999e+00  8.256108849411650e-01  1.696570384383008e-17
-1.429999999999999e+00  8.256108849411650e-01  1.696570384383008e-17
-1.429999999999999e+00  8.256108849411650e-01  1.696570384383008e-17
-1.429999999999999e+00  8.256108849411650e-01  1.696570384383008e-17
-1.429999999999999e+00  8.256108849411650e-01  1.696570384383008e-17
-1.429999999999999e+00  8.256108849411650e-01  1.696570384383008e-17
-1.429999999999999e+00  8.256108849411650e-01  1.696570384383008e-17
-1.429999999999999e+00  8.256108849411650e-01  1.696570384383008e-17
-1.429999999999999e+00  8.256108849411650e-01  1.696570384383008e-17
-1.429999999999999e+00  8.256108849411650e-01  1.696570384383008e-17
-1.429999999999999e+00  8.256108849411650e-01  1.696570384383008e-17
-1.429999999999999e+00  8.256108849411650e-01  1.696570384383008e-17
-1.429999999999999e+00  8.256108849411650e-01  1.696570384383008e-17
-1.429999999999999e+00  8.256108849411650e-01  1.696570384383008e-17
-1.429999999999999e+00  8.256108849411650e-01  1.696570384383008e-17
-1.429999999999999e+00  8.256108849411650e-01  1.696570384383008e-17
-1.429999999999999e+00  8.256108849411650e-01  1.696570384383008e-17
-1.429999999999999e+00  8.256108849411650e-01  1.696570384383008e-17
-1.429999999999999e+00  8.256108849411650e-01  1.696570384383008e-17
-1.429999999999999e+00  8.256108849411650e-01  1.696570384383008e-17
-1.429999999999999e+00  8.256108849411650e-01  1.696570384383008e-17
-1.429999999999999e+00  8.256108849411650e-01  1.696570384383008e-17
-1.429999999999999e+00  8.256108849411650e-01  1.696570384383008e-17
-1.429999999999999e+00  8.256108849411650e-01  1.696570384383008e-17
-1.429999999999999e+00  8.256108849411650e-01  1.696570384383008e-17
-1.429999999999999e+00  8.256108849411650e-01  1.696570384383008e-17
-1.429999999999999e+00  8.256108849411650e-01  1.696570384383008e-17
-1.429999999999999e+00  8.256108849411650e-01  1.696570384383008e-17
-1.429999999999999e+00  8.256108849411650e-01  1.696570384383008e-17
-1.429999999999999e+00  8.256108849411650e-01  1.696570384383008e-17
-1.429999999999999e+00  8.256108849411650e-01  1.696570384383008e-17
-1.429999999999999e+00  8.256108849411650e-01  1.696570384383008e-17
-1.429999999999999e+00  8.256108849411650e-01  1.696570384383008e-17
-1.429999999999999e+00  8.256108849411650e-01  1.696570384383008e-17
-1.429999999999999e+00  8.256108849411650e-01  1.696570384383008e-17
-1.429999999999999e+00  8.256108849411650e-01  1.696570384383008e-17
-1.429999999999999e+00  8.256108849411650e-01  1.696570384383008e-17
-1.429999999999999e+00  8.256108849411650e-01  1.696570384383008e-17
-1.429999999999999e+00  8.256108849411650e-01  1.696570384383008e-17
-1.429999999999999e+00  8.256108849411650e-01  1.696570384383008e-17
-1.429999999999999e+00  8.256108849411650e-01  1.696570384383008e-17
-1.429999999999999e+00  8.256108849411650e-01  1.696570384383008e-17
-1.429999999999999e+00  8.256108849411650e-01  1.696570384383008e-17
-1.429999999999999e+00  8.256108849411650e-01  1.696570384383008e-17
-1.429999999999999e+00  8.256108849411650e-01  1.696570384383008e-17
-1.429999999999999e+00  8.256108849411650e-01  1.696570384383008e-17
-1.429999999999999e+00  8.256108849411650e-01  1.696570384383008e-17
-1.429999999999999e+00  8.256108849411650e-01  1.696570384383008e-17
-1.429999999999999e+00  8.256108849411650e-01  1.696570384383008e-17
-1.429999999999999e+00  8.256108849411650e-01  1.696570384383008e-17
-1.429999999999999e+00  8.256108849411650e-01  1.696570384383008e-17
-1.429999999999999e+00  8.256108849411650e-01  1.696570384383008e-17
-1.429999999999999e+00  8.256108849411650e-01  1.696570384383008e-17
-1.429999999999999e+00  8.256108849411650e-01  1.696570384383008e-17
-1.429999999999999e+00  8.256108849411650e-01  1.696570384383008e-17
-1.429999999999999e+00  8.256108849411650e-01  1.696570384383008e-17
-1.429999999999999e+00  8.256108849411650e-01  1.696570384383008e-17
-1.429999999999999e+00  8.256108849411650e-01  1.696570384383008e-17
-1.429999999999999e+00  8.256108849411650e-01  1.696570384383008e-17
-1.429999999999999e+00  8.256108849411650e-01  1.696570384383008e-17
-1.429999999999999e+00  8.256108849411650e-01  1.696570384383008e-17
-1.429999999999999e+00  8.256108849411650e-01  1.696570384383008e-17
-1.429999999999999e+00  8.256108849411650e-01  1.696570384383008e-17
-1.429999999999999e+00  8.256108849411650e-01  1.696570384383008e-17
-1.429999999999999e+00  8.256108849411650e-01  1.696570384383008e-17
-1.429999999999999e+00  8.256108849411650e-01  1.696570384383008e-17
-1.429999999999999e+00  8.256108849411650e-01  1.696570384383008e-17
-1.429999999999999e+00  8.256108849411650e-01  1.696570384383008e-17
-1.429999999999999e+00  8.256108849411650e-01  1.696570384383008e-17
-1.429999999999999e+00  8.256108849411650e-01  1.696570384383008e-17
-1.429999999999999e+00  8.256108849411650e-01  1.696570384383008e-17
-1.429999999999999e+00  8.256108849411650e-01  1.696570384383008e-17
-1.429999999999999e+00  8.256108849411650e-01  1.696570384383008e-17
-1.429999999999999e+00  8.256108849411650e-01  1.696570384383008e-17
-1.429999999999999e+00  8.256108849411650e-01  1.696570384383008e-17
-1.429999999999999e+00  8.256108849411650e-01  1.696570384383008e-17
-1.429999999999999e+00  8.256108849411650e-01  1.696570384383008e-17
-1.429999999999999e+00  8.256108849411650e-01  1.696570384383008e-17
-1.429999999999999e+00  8.256108849411650e-01  1.696570384383008e-17
-1.429999999999999e+00  8.256108849411650e-01  1.696570384383008e-17
-1.429999999999999e+00  8.256108849411650e-01  1.696570384383008e-17
-1.429999999999999e+00  8.256108849411650e-01  1.696570384383008e-17
-1.429999999999999e+00  8.256108849411650e-01  1.696570384383008e-17
-1.429999999999999e+00  8.256108849411650e-01  1.696570384383008e-17
-1.429999999999999e+00  8.256108849411650e-01  1.696570384383008e-17
-1.429999999999999e+00  8.256108849411650e-01  1.696570384383008e-17
-1.429999999999999e+00  8.256108849411650e-01  1.696570384383008e-17
-1.429999999999999e+00  8.256108849411650e-01  1.696570384383008e-17
-1.429999999999999e+00  8.256108849411650e-01  1.696570384383008e-17
-1.429999999999999e+00  8.256108849411650e-01  1.696570384383008e-17
-1.429999999999999e+00  8.256108849411650e-01  1.696570384383008e-17
-1.429999999999999e+00  8.256108849411650e-01  1.696570384383008e-17
-1.429999999999999e+00  8.256108849411650e-01  1.696570384383008e-17
-1.429999999999999e+00  8.256108849411650e-01  1.696570384383008e-17
-1.429999999999999e+00  8.256108849411650e-01  1.696570384383008e-17
-1.429999999999999e+00  8.256108849411650e-01  1.696570384383008e-17
-1.429999999999999e+00  8.256108849411650e-01  1.696570384383008e-17
-1.429999999999999e+00  8.256108849411650e-01  1.696570384383008e-17
-1.429999999999999e+00  8.256108849411650e-01  1.696570384383008e-17
-1.429999999999999e+00  8.256108849411650e-01  1.696570384383008e-17
-1.429999999999999e+00  8.256108849411650e-01  1.696570384383008e-17
-1.429999999999999e+00  8.256108849411650e-01  1.696570384383008e-17
-1.429999999999999e+00  8.256108849411650e-01  1.696570384383008e-17
-1.429999999999999e+00  8.256108849411650e-01  1.696570384383008e-17
-1.429999999999999e+00  8.256108849411650e-01  1.696570384383008e-17
-1.429999999999999e+00  8.256108849411650e-01  1.696570384383008e-17
-1.429999999999999e+00  8.256108849411650e-01  1.696570384383008e-17
-1.429999999999999e+00  8.256108849411650e-01  1.696570384383008e-17
-1.429999999999999e+00  8.256108849411650e-01  1.696570384383008e-17
-1.429999999999999e+00  8.256108849411650e-01  1.696570384383008e-17
-1.429999999999999e+00  8.256108849411650e-01  1.696570384383008e-17
-1.429999999999999e+00  8.256108849411650e-01  1.696570384383008e-17
-1.429999999999999e+00  8.256108849411650e-01  1.696570384383008e-17
-1.429999999999999e+00  8.256108849411650e-01  1.696570384383008e-17
-1.429999999999999e+00  8.256108849411650e-01  1.696570384383008e-17
-1.429999999999999e+00  8.256108849411650e-01  1.696570384383008e-17
-1.429999999999999e+00  8.256108849411650e-01  1.696570384383008e-17
-1.429999999999999e+00  8.256108849411650e-01  1.696570384383008e-17
-1.429999999999999e+00  8.256108849411650e-01  1.696570384383008e-17
-1.429999999999999e+00  8.256108849411650e-01  1.696570384383008e-17
-1.429999999999999e+00  8.256108849411650e-01  1.696570384383008e-17
-1.429999999999999e+00  8.256108849411650e-01  1.696570384383008e-17
-1.429999999999999e+00  8.256108849411650e-01  1.696570384383008e-17
-1.429999999999999e+00  8.256108849411650e-01  1.696570384383008e-17
-1.429999999999999e+00  8.256108849411650e-01  1.696570384383008e-17
-1.429999999999999e+00  8.256108849411650e-01  1.696570384383008e-17
-1.429999999999999e+00  8.256108849411650e-01  1.696570384383008e-17
-1.429999999999999e+00  8.256108849411650e-01  1.696570384383008e-17
-1.429999999999999e+00  8.256108849411650e-01  1.696570384383008e-17
-1.429999999999999e+00  8.256108849411650e-01  1.696570384383008e-17
-1.429999999999999e+00  8.256108849411650e-01  1.696570384383008e-17
-1.429999999999999e+00  8.256108849411650e-01  1.696570384383008e-17
-1.429999999999999e+00  8.256108849411650e-01  1.696570384383008e-17
-1.429999999999999e+00  8.256108849411650e-01  1.696570384383008e-17
-1.429999999999999e+00  8.256108849411650e-01  1.696570384383008e-17
-1.429999999999999e+00  8.256108849411650e-01  1.696570384383008e-17
-1.429999999999999e+00  8.256108849411650e-01  1.696570384383008e-17
-1.429999999999999e+00  8.256108849411650e-01  1.696570384383008e-17
-1.429999999999999e+00  8.256108849411650e-01  1.696570384383008e-17
-1.429999999999999e+00  8.256108849411650e-01  1.696570384383008e-17
-1.429999999999999e+00  8.256108849411650e-01  1.696570384383008e-17
-1.429999999999999e+00  8.256108849411650e-01  1.696570384383008e-17
-1.429999999999999e+00  8.256108849411650e-01  1.696570384383008e-17
-1.429999999999999e+00  8.256108849411650e-01  1.696570384383008e-17
-1.429999999999999e+00  8.256108849411650e-01  1.696570384383008e-17
-1.429999999999999e+00  8.256108849411650e-01  1.696570384383008e-17
-1.429999999999999e+00  8.256108849411650e-01  1.696570384383008e-17
-1.429999999999999e+00  8.256108849411650e-01  1.696570384383008e-17
-1.429999999999999e+00  8.256108849411650e-01  1.696570384383008e-17
-1.429999999999999e+00  8.256108849411650e-01  1.696570384383008e-17
-1.429999999999999e+00  8.256108849411650e-01  1.696570384383008e-17
-1.429999999999999e+00  8.256108849411650e-01  1.696570384383008e-17
-1.429999999999999e+00  8.256108849411650e-01  1.696570384383008e-17
-1.429999999999999e+00  8.256108849411650e-01  1.696570384383008e-17
-1.429999999999999e+00  8.256108849411650e-01  1.696570384383008e-17
-1.429999999999999e+00  8.256108849411650e-01  1.696570384383008e-17
-1.429999999999999e+00  8.256108849411650e-01  1.696570384383008e-17
-1.429999999999999e+00  8.256108849411650e-01  1.696570384383008e-17
-1.429999999999999e+00  8.256108849411650e-01  1.696570384383008e-17
-1.429999999999999e+00  8.256108849411650e-01  1.696570384383008e-17
-1.429999999999999e+00  8.256108849411650e-01  1.696570384383008e-17
-1.429999999999999e+00  8.256108849411650e-01  1.696570384383008e-17
-1.429999999999999e+00  8.256108849411650e-01  1.696570384383008e-17
-1.429999999999999e+00  8.256108849411650e-01  1.696570384383008e-17
-1.429999999999999e+00  8.256108849411650e-01  1.696570384383008e-17
-1.429999999999999e+00  8.256108849411650e-01  1.696570384383008e-17
-1.429999999999999e+00  8.256108849411650e-01  1.696570384383008e-17
-1.429999999999999e+00  8.256108849411650e-01  1.696570384383008e-17
-1.429999999999999e+00  8.256108849411650e-01  1.696570384383008e-17
-1.429999999999999e+00  8.256108849411650e-01  1.696570384383008e-17
-1.429999999999999e+00  8.256108849411650e-01  1.696570384383008e-17
-1.429999999999999e+00  8.256108849411650e-01  1.696570384383008e-17
-1.429999999999999e+00  8.256108849411650e-01  1.696570384383008e-17
-1.429999999999999e+00  8.256108849411650e-01  1.696570384383008e-17
-1.429999999999999e+00  8.256108849411650e-01  1.696570384383008e-17
-1.429999999999999e+00  8.256108849411650e-01  1.696570384383008e-17
-1.429999999999999e+00  8.256108849411650e-01  1.696570384383008e-17
 1.429999999999999e+00 -8.256108849411650e-01 -1.696570384383008e-17
-1.429999999999999e+00  8.256108849411650e-01  1.696570384383008e-17
 1.429999999999999e+00 -8.256108849411650e-01 -1.696570384383008e-17
 1.429999999999999e+00 -8.256108849411650e-01 -1.696570384383008e-17
 1.429999999999999e+00 -8.256108849411650e-01 -1.696570384383008e-17
 1.429999999999999e+00 -8.256108849411650e-01 -1.696570384383008e-17
 1.429999999999999e+00 -8.256108849411650e-01 -1.696570384383008e-17
 1.429999999999999e+00 -8.256108849411650e-01 -1.696570384383008e-17
 1.429999999999999e+00 -8.256108849411650e-01 -1.696570384383008e-17
 1.429999999999999e+00 -8.256108849411650e-01 -1.696570384383008e-17
 1.429999999999999e+00 -8.256108849411650e-01 -1.696570384383008e-17
 1.429999999999999e+00 -8.256108849411650e-01 -1.696570384383008e-17
 1.429999999999999e+00 -8.256108849411650e-01 -1.696570384383008e-17
 1.429999999999999e+00 -8.256108849411650e-01 -1.696570384383008e-17
 1.429999999999999e+00 -8.256108849411650e-01 -1.696570384383008e-17
 1.429999999999999e+00 -8.256108849411650e-01 -1.696570384383008e-17
 1.429999999999999e+00 -8.256108849411650e-01 -1.696570384383008e-17
 1.429999999999999e+00 -8.256108849411650e-01 -1.696570384383008e-17
 1.429999999999999e+00 -8.256108849411650e-01 -1.696570384383008e-17
 1.429999999999999e+00 -8.256108849411650e-01 -1.696570384383008e-17
 1.429999999999999e+00 -8.256108849411650e-01 -1.696570384383008e-17
 1.429999999999999e+00 -8.256108849411650e-01 -1.696570384383008e-17
 1.429999999999999e+00 -8.256108849411650e-01 -1.696570384383008e-17
 1.429999999999999e+00 -8.256108849411650e-01 -1.696570384383008e-17
 1.429999999999999e+00 -8.256108849411650e-01 -1.696570384383008e-17
 1.429999999999999e+00 -8.256108849411650e-01 -1.696570384383008e-17
 1.429999999999999e+00 -8.256108849411650e-01 -1.696570384383008e-17
 1.429999999999999e+00 -8.256108849411650e-01 -1.696570384383008e-17
 1.429999999999999e+00 -8.256108849411650e-01 -1.696570384383008e-17
 1.429999999999999e+00 -8.256108849411650e-01 -1.696570384383008e-17
 1.429999999999999e+00 -8.256108849411650e-01 -1.696570384383008e-17
 1.429999999999999e+00 -8.256108849411650e-01 -1.696570384383008e-17
 1.429999999999999e+00 -8.256108849411650e-01 -1.696570384383008e-17
 1.429999999999999e+00 -8.256108849411650e-01 -1.696570384383008e-17
 1.429999999999999e+00 -8.256108849411650e-01 -1.696570384383008e-17
 1.429999999999999e+00 -8.256108849411650e-01 -1.696570384383008e-17
 1.429999999999999e+00 -8.256108849411650e-01 -1.696570384383008e-17
 1.429999999999999e+00 -8.256108849411650e-01 -1.696570384383008e-17
 1.429999999999999e+00 -8.256108849411650e-01 -1.696570384383008e-17
 1.429999999999999e+00 -8.256108849411650e-01 -1.696570384383008e-17
 1.429999999999999e+00 -8.256108849411650e-01 -1.696570384383008e-17
 1.429999999999999e+00 -8.256108849411650e-01 -1.696570384383008e-17
 1.429999999999999e+00 -8.256108849411650e-01 -1.696570384383008e-17
 1.429999999999999e+00 -8.256108849411650e-01 -1.696570384383008e-17
 1.429999999999999e+00 -8.256108849411650e-01 -1.696570384383008e-17
 1.429999999999999e+00 -8.256108849411650e-01 -1.696570384383008e-17
 1.429999999999999e+00 -8.256108849411650e-01 -1.696570384383008e-17
 1.429999999999999e+00 -8.256108849411650e-01 -1.696570384383008e-17
 1.429999999999999e+00 -8.256108849411650e-01 -1.696570384383008e-17
 1.429999999999999e+00 -8.256108849411650e-01 -1.696570384383008e-17
 1.429999999999999e+00 -8.256108849411650e-01 -1.696570384383008e-17
 1.429999999999999e+00 -8.256108849411650e-01 -1.696570384383008e-17
 1.429999999999999e+00 -8.256108849411650e-01 -1.696570384383008e-17
 1.429999999999999e+00 -8.256108849411650e-01 -1.696570384383008e-17
 1.429999999999999e+00 -8.256108849411650e-01 -1.696570384383008e-17
 1.429999999999999e+00 -8.256108849411650e-01 -1.696570384383008e-17
 1.429999999999999e+00 -8.256108849411650e-01 -1.696570384383008e-17
 1.429999999999999e+00 -8.256108849411650e-01 -1.696570384383008e-17
 1.429999999999999e+00 -8.256108849411650e-01 -1.696570384383008e-17
 1.429999999999999e+00 -8.256108849411650e-01 -1.696570384383008e-17
 1.429999999999999e+00 -8.256108849411650e-01 -1.696570384383008e-17
 1.429999999999999e+00 -8.256108849411650e-01 -1.696570384383008e-17
 1.429999999999999e+00 -8.256108849411650e-01 -1.696570384383008e-17
 1.429999999999999e+00 -8.256108849411650e-01 -1.696570384383008e-17
 1.429999999999999e+00 -8.256108849411650e-01 -1.696570384383008e-17
 1.429999999999999e+00 -8.256108849411650e-01 -1.696570384383008e-17
 1.429999999999999e+00 -8.256108849411650e-01 -1.696570384383008e-17
 1.429999999999999e+00 -8.256108849411650e-01 -1.696570384383008e-17
 1.429999999999999e+00 -8.256108849411650e-01 -1.696570384383008e-17
 1.429999999999999e+00 -8.256108849411650e-01 -1.696570384383008e-17
 1.429999999999999e+00 -8.256108849411650e-01 -1.696570384383008e-17
 1.429999999999999e+00 -8.256108849411650e-01 -1.696570384383008e-17
 1.429999999999999e+00 -8.256108849411650e-01 -1.696570384383008e-17
 1.429999999999999e+00 -8.256108849411650e-01 -1.696570384383008e-17
 1.429999999999999e+00 -8.256108849411650e-01 -1.696570384383008e-17
 1.429999999999999e+00 -8.256108849411650e-01 -1.696570384383008e-17
 1.429999999999999e+00 -8.256108849411650e-01 -1.696570384383008e-17
 1.429999999999999e+00 -8.256108849411650e-01 -1.696570384383008e-17
 1.429999999999999e+00 -8.256108849411650e-01 -1.696570384383008e-17
 1.429999999999999e+00 -8.256108849411650e-01 -1.696570384383008e-17
 1.429999999999999e+00 -8.256108849411650e-01 -1.696570384383008e-17
 1.429999999999999e+00 -8.256108849411650e-01 -1.696570384383008e-17
 1.429999999999999e+00 -8.256108849411650e-01 -1.696570384383008e-17
 1.429999999999999e+00 -8.256108849411650e-01 -1.696570384383008e-17
 1.429999999999999e+00 -8.256108849411650e-01 -1.696570384383008e-17
 1.429999999999999e+00 -8.256108849411650e-01 -1.696570384383008e-17
 1.429999999999999e+00 -8.256108849411650e-01 -1.696570384383008e-17
 1.429999999999999e+00 -8.256108849411650e-01 -1.696570384383008e-17
 1.429999999999999e+00 -8.256108849411650e-01 -1.696570384383008e-17
 1.429999999999999e+00 -8.256108849411650e-01 -1.696570384383008e-17
 1.429999999999999e+00 -8.256108849411650e-01 -1.696570384383008e-17
 1.429999999999999e+00 -8.256108849411650e-01 -1.696570384383008e-17
 1.429999999999999e+00 -8.256108849411650e-01 -1.696570384383008e-17
 1.429999999999999e+00 -8.256108849411650e-01 -1.696570384383008e-17
 1.429999999999999e+00 -8.256108849411650e-01 -1.696570384383008e-17
 1.429999999999999e+00 -8.256108849411650e-01 -1.696570384383008e-17
 1.429999999999999e+00 -8.256108849411650e-01 -1.696570384383008e-17
 1.429999999999999e+00 -8.256108849411650e-01 -1.696570384383008e-17
 1.429999999999999e+00 -8.256108849411650e-01 -1.696570384383008e-17
 1.429999999999999e+00 -8.256108849411650e-01 -1.696570384383008e-17
 1.429999999999999e+00 -8.256108849411650e-01 -1.696570384383008e-17
 1.429999999999999e+00 -8.256108849411650e-01 -1.696570384383008e-17
 1.429999999999999e+00 -8.256108849411650e-01 -1.696570384383008e-17
 1.429999999999999e+00 -8.256108849411650e-01 -1.696570384383008e-17
 1.429999999999999e+00 -8.256108849411650e-01 -1.696570384383008e-17
 1.429999999999999e+00 -8.256108849411650e-01 -1.696570384383008e-17
 1.429999999999999e+00 -8.256108849411650e-01 -1.696570384383008e-17
 1.429999999999999e+00 -8.256108849411650e-01 -1.696570384383008e-17
 1.429999999999999e+00 -8.256108849411650e-01 -1.696570384383008e-17
 1.429999999999999e+00 -8.256108849411650e-01 -1.696570384383008e-17
 1.429999999999999e+00 -8.256108849411650e-01 -1.696570384383008e-17
 1.429999999999999e+00 -8.256108849411650e-01 -1.696570384383008e-17
 1.429999999999999e+00 -8.256108849411650e-01 -1.696570384383008e-17
 1.429999999999999e+00 -8.256108849411650e-01 -1.696570384383008e-17
 1.429999999999999e+00 -8.256108849411650e-01 -1.696570384383008e-17
 1.429999999999999e+00 -8.256108849411650e-01 -1.696570384383008e-17
 1.429999999999999e+00 -8.256108849411650e-01 -1.696570384383008e-17
 1.429999999999999e+00 -8.256108849411650e-01 -1.696570384383008e-17
 1.429999999999999e+00 -8.256108849411650e-01 -1.696570384383008e-17
 1.429999999999999e+00 -8.256108849411650e-01 -1.696570384383008e-17
 1.429999999999999e+00 -8.256108849411650e-01 -1.696570384383008e-17
 1.429999999999999e+00 -8.256108849411650e-01 -1.696570384383008e-17
 1.429999999999999e+00 -8.256108849411650e-01 -1.696570384383008e-17
 1.429999999999999e+00 -8.256108849411650e-01 -1.696570384383008e-17
 1.429999999999999e+00 -8.256108849411650e-01 -1.696570384383008e-17
 1.429999999999999e+00 -8.256108849411650e-01 -1.696570384383008e-17
 1.429999999999999e+00 -8.256108849411650e-01 -1.696570384383008e-17
 1.429999999999999e+00 -8.256108849411650e-01 -1.696570384383008e-17
 1.429999999999999e+00 -8.256108849411650e-01 -1.696570384383008e-17
 1.429999999999999e+00 -8.256108849411650e-01 -1.696570384383008e-17
 1.429999999999999e+00 -8.256108849411650e-01 -1.696570384383008e-17
 1.429999999999999e+00 -8.256108849411650e-01 -1.696570384383008e-17
 1.429999999999999e+00 -8.256108849411650e-01 -1.696570384383008e-17
 1.429999999999999e+00 -8.256108849411650e-01 -1.696570384383008e-17
 1.429999999999999e+00 -8.256108849411650e-01 -1.696570384383008e-17
 1.429999999999999e+00 -8.256108849411650e-01 -1.696570384383008e-17
 1.429999999999999e+00 -8.256108849411650e-01 -1.696570384383008e-17
 1.429999999999999e+00 -8.256108849411650e-01 -1.696570384383008e-17
 1.429999999999999e+00 -8.256108849411650e-01 -1.696570384383008e-17
 1.429999999999999e+00 -8.256108849411650e-01 -1.696570384383008e-17
 1.429999999999999e+00 -8.256108849411650e-01 -1.696570384383008e-17
 1.429999999999999e+00 -8.256108849411650e-01 -1.696570384383008e-17
 1.429999999999999e+00 -8.256108849411650e-01 -1.696570384383008e-17
 1.429999999999999e+00 -8.256108849411650e-01 -1.696570384383008e-17
 1.429999999999999e+00 -8.256108849411650e-01 -1.696570384383008e-17
 1.429999999999999e+00 -8.256108849411650e-01 -1.696570384383008e-17
 1.429999999999999e+00 -8.256108849411650e-01 -1.696570384383008e-17
 1.429999999999999e+00 -8.256108849411650e-01 -1.696570384383008e-17
 1.429999999999999e+00 -8.256108849411650e-01 -1.696570384383008e-17
 1.429999999999999e+00 -8.256108849411650e-01 -1.696570384383008e-17
 1.429999999999999e+00 -8.256108849411650e-01 -1.696570384383008e-17
 1.429999999999999e+00 -8.256108849411650e-01 -1.696570384383008e-17
 1.429999999999999e+00 -8.256108849411650e-01 -1.696570384383008e-17
-1.429999999999999e+00  8.256108849411650e-01  1.696570384383008e-17
 1.429999999999999e+00 -8.256108849411650e-01 -1.696570384383008e-17
 1.429999999999999e+00 -8.256108849411650e-01 -1.696570384383008e-17
 1.429999999999999e+00 -8.256108849411650e-01 -1.696570384383008e-17
 1.429999999999999e+00 -8.256108849411650e-01 -1.696570384383008e-17
 1.429999999999999e+00 -8.256108849411650e-01 -1.696570384383008e-17
 1.429999999999999e+00 -8.256108849411650e-01 -1.696570384383008e-17
 1.429999999999999e+00 -8.256108849411650e-01 -1.696570384383008e-17
 1.429999999999999e+00 -8.256108849411650e-01 -1.696570384383008e-17
 1.429999999999999e+00 -8.256108849411650e-01 -1.696570384383008e-17
 1.429999999999999e+00 -8.256108849411650e-01 -1.696570384383008e-17
 1.429999999999999e+00 -8.256108849411650e-01 -1.696570384383008e-17
 1.429999999999999e+00 -8.256108849411650e-01 -1.696570384383008e-17
 1.429999999999999e+00 -8.256108849411650e-01 -1.696570384383008e-17
 1.429999999999999e+00 -8.256108849411650e-01 -1.696570384383008e-17
 1.429999999999999e+00 -8.256108849411650e-01 -1.696570384383008e-17
 1.429999999999999e+00 -8.256108849411650e-01 -1.696570384383008e-17
 1.429999999999999e+00 -8.256108849411650e-01 -1.696570384383008e-17
 1.429999999999999e+00 -8.256108849411650e-01 -1.696570384383008e-17
 1.429999999999999e+00 -8.256108849411650e-01 -1.696570384383008e-17
 1.429999999999999e+00 -8.256108849411650e-01 -1.696570384383008e-17
 1.429999999999999e+00 -8.256108849411650e-01 -1.696570384383008e-17
 1.429999999999999e+00 -8.256108849411650e-01 -1.696570384383008e-17
 1.429999999999999e+00 -8.256108849411650e-01 -1.696570384383008e-17
 1.429999999999999e+00 -8.256108849411650e-01 -1.696570384383008e-17
 1.429999999999999e+00 -8.256108849411650e-01 -1.696570384383008e-17
 1.429999999999999e+00 -8.256108849411650e-01 -1.696570384383008e-17
 1.429999999999999e+00 -8.256108849411650e-01 -1.696570384383008e-17
 1.429999999999999e+00 -8.256108849411650e-01 -1.696570384383008e-17
 1.429999999999999e+00 -8.256108849411650e-01 -1.696570384383008e-17
 1.429999999999999e+00 -8.256108849411650e-01 -1.696570384383008e-17
 1.429999999999999e+00 -8.256108849411650e-01 -1.696570384383008e-17
 1.429999999999999e+00 -8.256108849411650e-01 -1.696570384383008e-17
 1.429999999999999e+00 -8.256108849411650e-01 -1.696570384383008e-17
 1.429999999999999e+00 -8.256108849411650e-01 -1.696570384383008e-17
 1.429999999999999e+00 -8.256108849411650e-01 -1.696570384383008e-17
 1.429999999999999e+00 -8.256108849411650e-01 -1.696570384383008e-17
 1.429999999999999e+00 -8.256108849411650e-01 -1.696570384383008e-17
 1.429999999999999e+00 -8.256108849411650e-01 -1.696570384383008e-17
 1.429999999999999e+00 -8.256108849411650e-01 -1.696570384383008e-17
 1.429999999999999e+00 -8.256108849411650e-01 -1.696570384383008e-17
 1.429999999999999e+00 -8.256108849411650e-01 -1.696570384383008e-17
 1.429999999999999e+00 -8.256108849411650e-01 -1.696570384383008e-17
 1.429999999999999e+00 -8.256108849411650e-01 -1.696570384383008e-17
 1.429999999999999e+00 -8.256108849411650e-01 -1.696570384383008e-17
 1.429999999999999e+00 -8.256108849411650e-01 -1.696570384383008e-17
 1.429999999999999e+00 -8.256108849411650e-01 -1.696570384383008e-17
 1.429999999999999e+00 -8.256108849411650e-01 -1.696570384383008e-17
 1.429999999999999e+00 -8.256108849411650e-01 -1.696570384383008e-17
 1.429999999999999e+00 -8.256108849411650e-01 -1.696570384383008e-17
 1.429999999999999e+00 -8.256108849411650e-01 -1.696570384383008e-17
 1.429999999999999e+00 -8.256108849411650e-01 -1.696570384383008e-17
 1.429999999999999e+00 -8.256108849411650e-01 -1.696570384383008e-17
 1.429999999999999e+00 -8.256108849411650e-01 -1.696570384383008e-17
 1.429999999999999e+00 -8.256108849411650e-01 -1.696570384383008e-17
 1.429999999999999e+00 -8.256108849411650e-01 -1.696570384383008e-17
 1.429999999999999e+00 -8.256108849411650e-01 -1.696570384383008e-17
 1.429999999999999e+00 -8.256108849411650e-01 -1.696570384383008e-17
 1.429999999999999e+00 -8.256108849411650e-01 -1.696570384383008e-17
 1.429999999999999e+00 -8.256108849411650e-01 -1.696570384383008e-17
 1.429999999999999e+00 -8.256108849411650e-01 -1.696570384383008e-17
 1.429999999999999e+00 -8.256108849411650e-01 -1.696570384383008e-17
 1.429999999999999e+00 -8.256108849411650e-01 -1.696570384383008e-17
 1.429999999999999e+00 -8.256108849411650e-01 -1.696570384383008e-17
 1.429999999999999e+00 -8.256108849411650e-01 -1.696570384383008e-17
 1.429999999999999e+00 -8.256108849411650e-01 -1.696570384383008e-17
 1.429999999999999e+00 -8.256108849411650e-01 -1.696570384383008e-17
 1.429999999999999e+00 -8.256108849411650e-01 -1.696570384383008e-17
 1.429999999999999e+00 -8.256108849411650e-01 -1.696570384383008e-17
 1.429999999999999e+00 -8.256108849411650e-01 -1.696570384383008e-17
 1.429999999999999e+00 -8.256108849411650e-01 -1.696570384383008e-17
 1.429999999999999e+00 -8.256108849411650e-01 -1.696570384383008e-17
 1.429999999999999e+00 -8.256108849411650e-01 -1.696570384383008e-17
 1.429999999999999e+00 -8.256108849411650e-01 -1.696570384383008e-17
 1.429999999999999e+00 -8.256108849411650e-01 -1.696570384383008e-17
 1.429999999999999e+00 -8.256108849411650e-01 -1.696570384383008e-17
 1.429999999999999e+00 -8.256108849411650e-01 -1.696570384383008e-17
 1.429999999999999e+00 -8.256108849411650e-01 -1.696570384383008e-17
 1.429999999999999e+00 -8.256108849411650e-01 -1.696570384383008e-17
 1.429999999999999e+00 -8.256108849411650e-01 -1.696570384383008e-17
 1.429999999999999e+00 -8.256108849411650e-01 -1.696570384383008e-17
 1.429999999999999e+00 -8.256108849411650e-01 -1.696570384383008e-17
 1.429999999999999e+00 -8.256108849411650e-01 -1.696570384383008e-17
 1.429999999999999e+00 -8.256108849411650e-01 -1.696570384383008e-17
 1.429999999999999e+00 -8.256108849411650e-01 -1.696570384383008e-17
 1.429999999999999e+00 -8.256108849411650e-01 -1.696570384383008e-17
 1.429999999999999e+00 -8.256108849411650e-01 -1.696570384383008e-17
 1.429999999999999e+00 -8.256108849411650e-01 -1.696570384383008e-17
 1.429999999999999e+00 -8.256108849411650e-01 -1.696570384383008e-17
 1.429999999999999e+00 -8.256108849411650e-01 -1.696570384383008e-17
 1.429999999999999e+00 -8.256108849411650e-01 -1.696570384383008e-17
 1.429999999999999e+00 -8.256108849411650e-01 -1.696570384383008e-17
 1.429999999999999e+00 -8.256108849411650e-01 -1.696570384383008e-17
 1.429999999999999e+00 -8.256108849411650e-01 -1.696570384383008e-17
 1.429999999999999e+00 -8.256108849411650e-01 -1.696570384383008e-17
 1.429999999999999e+00 -8.256108849411650e-01 -1.696570384383008e-17
 1.429999999999999e+00 -8.256108849411650e-01 -1.696570384383008e-17
 1.429999999999999e+00 -8.256108849411650e-01 -1.696570384383008e-17
 1.429999999999999e+00 -8.256108849411650e-01 -1.696570384383008e-17
 1.429999999999999e+00 -8.256108849411650e-01 -1.696570384383008e-17
 1.429999999999999e+00 -8.256108849411650e-01 -1.696570384383008e-17
 1.429999999999999e+00 -8.256108849411650e-01 -1.696570384383008e-17
 1.429999999999999e+00 -8.256108849411650e-01 -1.696570384383008e-17
 1.429999999999999e+00 -8.256108849411650e-01 -1.696570384383008e-17
 1.429999999999999e+00 -8.256108849411650e-01 -1.696570384383008e-17
 1.429999999999999e+00 -8.256108849411650e-01 -1.696570384383008e-17
 1.429999999999999e+00 -8.256108849411650e-01 -1.696570384383008e-17
 1.429999999999999e+00 -8.256108849411650e-01 -1.696570384383008e-17
 1.429999999999999e+00 -8.256108849411650e-01 -1.696570384383008e-17
 1.429999999999999e+00 -8.256108849411650e-01 -1.696570384383008e-17
 1.429999999999999e+00 -8.256108849411650e-01 -1.696570384383008e-17
 1.429999999999999e+00 -8.256108849411650e-01 -1.696570384383008e-17
 1.429999999999999e+00 -8.256108849411650e-01 -1.696570384383008e-17
 1.429999999999999e+00 -8.256108849411650e-01 -1.696570384383008e-17
 1.429999999999999e+00 -8.256108849411650e-01 -1.696570384383008e-17
 1.429999999999999e+00 -8.256108849411650e-01 -1.696570384383008e-17
 1.429999999999999e+00 -8.256108849411650e-01 -1.696570384383008e-17
 1.429999999999999e+00 -8.256108849411650e-01 -1.696570384383008e-17
 1.429999999999999e+00 -8.256108849411650e-01 -1.696570384383008e-17
 1.429999999999999e+00 -8.256108849411650e-01 -1.696570384383008e-17
 1.429999999999999e+00 -8.256108849411650e-01 -1.696570384383008e-17
 1.429999999999999e+00 -8.256108849411650e-01 -1.696570384383008e-17
 1.429999999999999e+00 -8.256108849411650e-01 -1.696570384383008e-17
 1.429999999999999e+00 -8.256108849411650e-01 -1.696570384383008e-17
 1.429999999999999e+00 -8.256108849411650e-01 -1.696570384383008e-17
 1.429999999999999e+00 -8.256108849411650e-01 -1.696570384383008e-17
 1.429999999999999e+00 -8.256108849411650e-01 -1.696570384383008e-17
 1.429999999999999e+00 -8.256108849411650e-01 -1.696570384383008e-17
 1.429999999999999e+00 -8.256108849411650e-01 -1.696570384383008e-17
 1.429999999999999e+00 -8.256108849411650e-01 -1.696570384383008e-17
 1.429999999999999e+00 -8.256108849411650e-01 -1.696570384383008e-17
 1.429999999999999e+00 -8.256108849411650e-01 -1.696570384383008e-17
 1.429999999999999e+00 -8.256108849411650e-01 -1.696570384383008e-17
 1.429999999999999e+00 -8.256108849411650e-01 -1.696570384383008e-17
 1.429999999999999e+00 -8.256108849411650e-01 -1.696570384383008e-17
 1.429999999999999e+00 -8.256108849411650e-01 -1.696570384383008e-17
 1.429999999999999e+00 -8.256108849411650e-01 -1.696570384383008e-17
 1.429999999999999e+00 -8.256108849411650e-01 -1.696570384383008e-17
 1.429999999999999e+00 -8.256108849411650e-01 -1.696570384383008e-17
 1.429999999999999e+00 -8.256108849411650e-01 -1.696570384383008e-17
 1.429999999999999e+00 -8.256108849411650e-01 -1.696570384383008e-17
 1.429999999999999e+00 -8.256108849411650e-01 -1.696570384383008e-17
 1.429999999999999e+00 -8.256108849411650e-01 -1.696570384383008e-17
 1.429999999999999e+00 -8.256108849411650e-01 -1.696570384383008e-17
 1.429999999999999e+00 -8.256108849411650e-01 -1.696570384383008e-17
 1.429999999999999e+00 -8.256108849411650e-01 -1.696570384383008e-17
 1.429999999999999e+00 -8.256108849411650e-01 -1.696570384383008e-17
 1.429999999999999e+00 -8.256108849411650e-01 -1.696570384383008e-17
 1.429999999999999e+00 -8.256108849411650e-01 -1.696570384383008e-17
 1.429999999999999e+00 -8.256108849411650e-01 -1.696570384383008e-17
 1.429999999999999e+00 -8.256108849411650e-01 -1.696570384383008e-17
 1.429999999999999e+00 -8.256108849411650e-01 -1.696570384383008e-17
 1.429999999999999e+00 -8.256108849411650e-01 -1.696570384383008e-17
 1.429999999999999e+00 -8.256108849411650e-01 -1.696570384383008e-17
 1.429999999999999e+00 -8.256108849411650e-01 -1.696570384383008e-17
 1.429999999999999e+00 -8.256108849411650e-01 -1.696570384383008e-17
 1.429999999999999e+00 -8.256108849411650e-01 -1.696570384383008e-17
 1.429999999999999e+00 -8.256108849411650e-01 -1.696570384383008e-17
 1.429999999999999e+00 -8.256108849411650e-01 -1.696570384383008e-17

VECTORS burgers_vector_local double
-1.666666666666667e-01 -3.333333333333333e-01 -1.666666666666665e-01
1.666666666666667e-01 3.333333333333333e-01 1.666666666666665e-01
-1.666666666666667e-01 -3.333333333333333e-01 -1.666666666666665e-01
-1.666666666666667e-01 -3.333333333333333e-01 -1.666666666666665e-01
-1.666666666666667e-01 -3.333333333333333e-01 -1.666666666666665e-01
-1.666666666666667e-01 -3.333333333333333e-01 -1.666666666666665e-01
-1.666666666666667e-01 -3.333333333333333e-01 -1.666666666666665e-01
-1.666666666666667e-01 -3.333333333333333e-01 -1.666666666666665e-01
-1.666666666666667e-01 -3.333333333333333e-01 -1.666666666666665e-01
-1.666666666666667e-01 -3.333333333333333e-01 -1.666666666666665e-01
-1.666666666666667e-01 -3.333333333333333e-01 -1.666666666666665e-01
-1.666666666666667e-01 -3.333333333333333e-01 -1.666666666666665e-01
-1.666666666666667e-01 -3.333333333333333e-01 -1.666666666666665e-01
-1.666666666666667e-01 -3.333333333333333e-01 -1.666666666666665e-01
-1.666666666666667e-01 -3.333333333333333e-01 -1.666666666666665e-01
-1.666666666666667e-01 -3.333333333333333e-01 -1.666666666666665e-01
-1.666666666666667e-01 -3.333333333333333e-01 -1.666666666666665e-01
-1.666666666666667e-01 -3.333333333333333e-01 -1.666666666666665e-01
-1.666666666666667e-01 -3.333333333333333e-01 -1.666666666666665e-01
-1.666666666666667e-01 -3.333333333333333e-01 -1.666666666666665e-01
-1.666666666666667e-01 -3.333333333333333e-01 -1.666666666666665e-01
-1.666666666666667e-01 -3.333333333333333e-01 -1.666666666666665e-01
-1.666666666666667e-01 -3.333333333333333e-01 -1.666666666666665e-01
-1.666666666666667e-01 -3.333333333333333e-01 -1.666666666666665e-01
-1.666666666666667e-01 -3.333333333333333e-01 -1.666666666666665e-01
-1.666666666666667e-01 -3.333333333333333e-01 -1.666666666666665e-01
-1.666666666666667e-01 -3.333333333333333e-01 -1.666666666666665e-01
-1.666666666666667e-01 -3.333333333333333e-01 -1.666666666666665e-01
-1.666666666666667e-01 -3.333333333333333e-01 -1.666666666666665e-01
-1.666666666666667e-01 -3.333333333333333e-01 -1.666666666666665e-01
-1.666666666666667e-01 -3.333333333333333e-01 -1.666666666666665e-01
-1.666666666666667e-01 -3.333333333333333e-01 -1.666666666666665e-01
-1.666666666666667e-01 -3.333333333333333e-01 -1.666666666666665e-01
-1.666666666666667e-01 -3.333333333333333e-01 -1.666666666666665e-01
-1.666666666666667e-01 -3.333333333333333e-01 -1.666666666666665e-01
-1.666666666666667e-01 -3.333333333333333e-01 -1.666666666666665e-01
-1.666666666666667e-01 -3.333333333333333e-01 -1.666666666666665e-01
-1.666666666666667e-01 -3.333333333333333e-01 -1.666666666666665e-01
-1.666666666666667e-01 -3.333333333333333e-01 -1.666666666666665e-01
-1.666666666666667e-01 -3.333333333333333e-01 -1.666666666666665e-01
-1.666666666666667e-01 -3.333333333333333e-01 -1.666666666666665e-01
-1.666666666666667e-01 -3.333333333333333e-01 -1.666666666666665e-01
-1.666666666666667e-01 -3.333333333333333e-01 -1.666666666666665e-01
-1.666666666666667e-01 -3.333333333333333e-01 -1.666666666666665e-01
-1.666666666666667e-01 -3.333333333333333e-01 -1.666666666666665e-01
-1.666666666666667e-01 -3.333333333333333e-01 -1.666666666666665e-01
-1.666666666666667e-01 -3.333333333333333e-01 -1.666666666666665e-01
-1.666666666666667e-01 -3.333333333333333e-01 -1.666666666666665e-01
-1.666666666666667e-01 -3.333333333333333e-01 -1.666666666666665e-01
-1.666666666666667e-01 -3.333333333333333e-01 -1.666666666666665e-01
-1.666666666666667e-01 -3.333333333333333e-01 -1.666666666666665e-01
-1.666666666666667e-01 -3.333333333333333e-01 -1.666666666666665e-01
-1.666666666666667e-01 -3.333333333333333e-01 -1.666666666666665e-01
-1.666666666666667e-01 -3.333333333333333e-01 -1.666666666666665e-01
-1.666666666666667e-01 -3.333333333333333e-01 -1.666666666666665e-01
-1.666666666666667e-01 -3.333333333333333e-01 -1.666666666666665e-01
-1.666666666666667e-01 -3.333333333333333e-01 -1.666666666666665e-01
-1.666666666666667e-01 -3.333333333333333e-01 -1.666666666666665e-01
-1.666666666666667e-01 -3.333333333333333e-01 -1.666666666666665e-01
-1.666666666666667e-01 -3.333333333333333e-01 -1.666666666666665e-01
-1.666666666666667e-01 -3.333333333333333e-01 -1.666666666666665e-01
-1.666666666666667e-01 -3.333333333333333e-01 -1.666666666666665e-01
-1.666666666666667e-01 -3.333333333333333e-01 -1.666666666666665e-01
-1.666666666666667e-01 -3.333333333333333e-01 -1.666666666666665e-01
-1.666666666666667e-01 -3.333333333333333e-01 -1.666666666666665e-01
-1.666666666666667e-01 -3.333333333333333e-01 -1.666666666666665e-01
-1.666666666666667e-01 -3.333333333333333e-01 -1.666666666666665e-01
-1.666666666666667e-01 -3.333333333333333e-01 -1.666666666666665e-01
-1.666666666666667e-01 -3.333333333333333e-01 -1.666666666666665e-01
-1.666666666666667e-01 -3.333333333333333e-01 -1.666666666666665e-01
-1.666666666666667e-01 -3.333333333333333e-01 -1.666666666666665e-01
-1.666666666666667e-01 -3.333333333333333e-01 -1.666666666666665e-01
-1.666666666666667e-01 -3.333333333333333e-01 -1.666666666666665e-01
-1.666666666666667e-01 -3.333333333333333e-01 -1.666666666666665e-01
-1.666666666666667e-01 -3.333333333333333e-01 -1.666666666666665e-01
-1.666666666666667e-01 -3.333333333333333e-01 -1.666666666666665e-01
-1.666666666666667e-01 -3.333333333333333e-01 -1.666666666666665e-01
-1.666666666666667e-01 -3.333333333333333e-01 -1.666666666666665e-01
-1.666666666666667e-01 -3.333333333333333e-01 -1.666666666666665e-01
-1.666666666666667e-01 -3.333333333333333e-01 -1.666666666666665e-01
-1.666666666666667e-01 -3.333333333333333e-01 -1.666666666666665e-01
-1.666666666666667e-01 -3.333333333333333e-01 -1.666666666666665e-01
-1.666666666666667e-01 -3.333333333333333e-01 -1.666666666666665e-01
-1.666666666666667e-01 -3.333333333333333e-01 -1.666666666666665e-01
-1.666666666666667e-01 -3.333333333333333e-01 -1.666666666666665e-01
-1.666666666666667e-01 -3.333333333333333e-01 -1.666666666666665e-01
-1.666666666666667e-01 -3.333333333333333e-01 -1.666666666666665e-01
-1.666666666666667e-01 -3.333333333333333e-01 -1.666666666666665e-01
-1.666666666666667e-01 -3.333333333333333e-01 -1.666666666666665e-01
-1.666666666666667e-01 -3.333333333333333e-01 -1.666666666666665e-01
-1.666666666666667e-01 -3.333333333333333e-01 -1.666666666666665e-01
-1.666666666666667e-01 -3.333333333333333e-01 -1.666666666666665e-01
-1.666666666666667e-01 -3.333333333333333e-01 -1.666666666666665e-01
-1.666666666666667e-01 -3.333333333333333e-01 -1.666666666666665e-01
-1.666666666666667e-01 -3.333333333333333e-01 -1.666666666666665e-01
-1.666666666666667e-01 -3.333333333333333e-01 -1.666666666666665e-01
-1.666666666666667e-01 -3.333333333333333e-01 -1.666666666666665e-01
-1.666666666666667e-01 -3.333333333333333e-01 -1.666666666666665e-01
-1.666666666666667e-01 -3.333333333333333e-01 -1.666666666666665e-01
-1.666666666666667e-01 -3.333333333333333e-01 -1.666666666666665e-01
-1.666666666666667e-01 -3.333333333333333e-01 -1.666666666666665e-01
-1.666666666666667e-01 -3.333333333333333e-01 -1.666666666666665e-01
-1.666666666666667e-01 -3.333333333333333e-01 -1.666666666666665e-01
-1.666666666666667e-01 -3.333333333333333e-01 -1.666666666666665e-01
-1.666666666666667e-01 -3.333333333333333e-01 -1.666666666666665e-01
-1.666666666666667e-01 -3.333333333333333e-01 -1.666666666666665e-01
-1.666666666666667e-01 -3.333333333333333e-01 -1.666666666666665e-01
-1.666666666666667e-01 -3.333333333333333e-01 -1.666666666666665e-01
-1.666666666666667e-01 -3.333333333333333e-01 -1.666666666666665e-01
-1.666666666666667e-01 -3.333333333333333e-01 -1.666666666666665e-01
-1.666666666666667e-01 -3.333333333333333e-01 -1.666666666666665e-01
-1.666666666666667e-01 -3.333333333333333e-01 -1.666666666666665e-01
-1.666666666666667e-01 -3.333333333333333e-01 -1.666666666666665e-01
-1.666666666666667e-01 -3.333333333333333e-01 -1.666666666666665e-01
-1.666666666666667e-01 -3.333333333333333e-01 -1.666666666666665e-01
-1.666666666666667e-01 -3.333333333333333e-01 -1.666666666666665e-01
-1.666666666666667e-01 -3.333333333333333e-01 -1.666666666666665e-01
-1.666666666666667e-01 -3.333333333333333e-01 -1.666666666666665e-01
-1.666666666666667e-01 -3.333333333333333e-01 -1.666666666666665e-01
-1.666666666666667e-01 -3.333333333333333e-01 -1.666666666666665e-01
-1.666666666666667e-01 -3.333333333333333e-01 -1.666666666666665e-01
-1.666666666666667e-01 -3.333333333333333e-01 -1.666666666666665e-01
-1.666666666666667e-01 -3.333333333333333e-01 -1.666666666666665e-01
-1.666666666666667e-01 -3.333333333333333e-01 -1.666666666666665e-01
-1.666666666666667e-01 -3.333333333333333e-01 -1.666666666666665e-01
-1.666666666666667e-01 -3.333333333333333e-01 -1.666666666666665e-01
-1.666666666666667e-01 -3.333333333333333e-01 -1.666666666666665e-01
-1.666666666666667e-01 -3.333333333333333e-01 -1.666666666666665e-01
-1.666666666666667e-01 -3.333333333333333e-01 -1.666666666666665e-01
-1.666666666666667e-01 -3.333333333333333e-01 -1.666666666666665e-01
-1.666666666666667e-01 -3.333333333333333e-01 -1.666666666666665e-01
-1.666666666666667e-01 -3.333333333333333e-01 -1.666666666666665e-01
-1.666666666666667e-01 -3.333333333333333e-01 -1.666666666666665e-01
-1.666666666666667e-01 -3.333333333333333e-01 -1.666666666666665e-01
-1.666666666666667e-01 -3.333333333333333e-01 -1.666666666666665e-01
-1.666666666666667e-01 -3.333333333333333e-01 -1.666666666666665e-01
-1.666666666666667e-01 -3.333333333333333e-01 -1.666666666666665e-01
-1.666666666666667e-01 -3.333333333333333e-01 -1.666666666666665e-01
-1.666666666666667e-01 -3.333333333333333e-01 -1.666666666666665e-01
-1.666666666666667e-01 -3.333333333333333e-01 -1.666666666666665e-01
-1.666666666666667e-01 -3.333333333333333e-01 -1.666666666666665e-01
-1.666666666666667e-01 -3.333333333333333e-01 -1.666666666666665e-01
-1.666666666666667e-01 -3.333333333333333e-01 -1.666666666666665e-01
-1.666666666666667e-01 -3.333333333333333e-01 -1.666666666666665e-01
-1.666666666666667e-01 -3.333333333333333e-01 -1.666666666666665e-01
-1.666666666666667e-01 -3.333333333333333e-01 -1.666666666666665e-01
-1.666666666666667e-01 -3.333333333333333e-01 -1.666666666666665e-01
-1.666666666666667e-01 -3.333333333333333e-01 -1.666666666666665e-01
-1.666666666666667e-01 -3.333333333333333e-01 -1.666666666666665e-01
-1.666666666666667e-01 -3.333333333333333e-01 -1.666666666666665e-01
-1.666666666666667e-01 -3.333333333333333e-01 -1.666666666666665e-01
-1.666666666666667e-01 -3.333333333333333e-01 -1.666666666666665e-01
-1.666666666666667e-01 -3.333333333333333e-01 -1.666666666666665e-01
-1.666666666666667e-01 -3.333333333333333e-01 -1.666666666666665e-01
-1.666666666666667e-01 -3.333333333333333e-01 -1.666666666666665e-01
-1.666666666666667e-01 -3.333333333333333e-01 -1.666666666666665e-01
-1.666666666666667e-01 -3.333333333333333e-01 -1.666666666666665e-01
-1.666666666666667e-01 -3.333333333333333e-01 -1.666666666666665e-01
-1.666666666666667e-01 -3.333333333333333e-01 -1.666666666666665e-01
-1.666666666666667e-01 -3.333333333333333e-01 -1.666666666666665e-01
-1.666666666666667e-01 -3.333333333333333e-01 -1.666666666666665e-01
-1.666666666666667e-01 -3.333333333333333e-01 -1.666666666666665e-01
-1.666666666666667e-01 -3.333333333333333e-01 -1.666666666666665e-01
-1.666666666666667e-01 -3.333333333333333e-01 -1.666666666666665e-01
-1.666666666666667e-01 -3.333333333333333e-01 -1.666666666666665e-01
-1.666666666666667e-01 -3.333333333333333e-01 -1.666666666666665e-01
-1.666666666666667e-01 -3.333333333333333e-01 -1.666666666666665e-01
-1.666666666666667e-01 -3.333333333333333e-01 -1.666666666666665e-01
-1.666666666666667e-01 -3.333333333333333e-01 -1.666666666666665e-01
-1.666666666666667e-01 -3.333333333333333e-01 -1.666666666666665e-01
-1.666666666666667e-01 -3.333333333333333e-01 -1.666666666666665e-01
-1.666666666666667e-01 -3.333333333333333e-01 -1.666666666666665e-01
-1.666666666666667e-01 -3.333333333333333e-01 -1.666666666666665e-01
-1.666666666666667e-01 -3.333333333333333e-01 -1.666666666666665e-01
-1.666666666666667e-01 -3.333333333333333e-01 -1.666666666666665e-01
-1.666666666666667e-01 -3.333333333333333e-01 -1.666666666666665e-01
-1.666666666666667e-01 -3.333333333333333e-01 -1.666666666666665e-01
-1.666666666666667e-01 -3.333333333333333e-01 -1.666666666666665e-01
-1.666666666666667e-01 -3.333333333333333e-01 -1.666666666666665e-01
-1.666666666666667e-01 -3.333333333333333e-01 -1.666666666666665e-01
-1.666666666666667e-01 -3.333333333333333e-01 -1.666666666666665e-01
-1.666666666666667e-01 -3.333333333333333e-01 -1.666666666666665e-01
-1.666666666666667e-01 -3.333333333333333e-01 -1.666666666666665e-01
-1.666666666666667e-01 -3.333333333333333e-01 -1.666666666666665e-01
-1.666666666666667e-01 -3.333333333333333e-01 -1.666666666666665e-01
-1.666666666666667e-01 -3.333333333333333e-01 -1.666666666666665e-01
-1.666666666666667e-01 -3.333333333333333e-01 -1.666666666666665e-01
1.666666666666667e-01 3.333333333333333e-01 1.666666666666665e-01
-1.666666666666667e-01 -3.333333333333333e-01 -1.666666666666665e-01
-1.666666666666667e-01 -3.333333333333333e-01 -1.666666666666665e-01
-1.666666666666667e-01 -3.333333333333333e-01 -1.666666666666665e-01
-1.666666666666667e-01 -3.333333333333333e-01 -1.666666666666665e-01
-1.666666666666667e-01 -3.333333333333333e-01 -1.666666666666665e-01
-1.666666666666667e-01 -3.333333333333333e-01 -1.666666666666665e-01
-1.666666666666667e-01 -3.333333333333333e-01 -1.666666666666665e-01
-1.666666666666667e-01 -3.333333333333333e-01 -1.666666666666665e-01
-1.666666666666667e-01 -3.333333333333333e-01 -1.666666666666665e-01
-1.666666666666667e-01 -3.333333333333333e-01 -1.666666666666665e-01
-1.666666666666667e-01 -3.333333333333333e-01 -1.666666666666665e-01
-1.666666666666667e-01 -3.333333333333333e-01 -1.666666666666665e-01
-1.666666666666667e-01 -3.333333333333333e-01 -1.666666666666665e-01
-1.666666666666667e-01 -3.333333333333333e-01 -1.666666666666665e-01
-1.666666666666667e-01 -3.333333333333333e-01 -1.666666666666665e-01
-1.666666666666667e-01 -3.333333333333333e-01 -1.666666666666665e-01
-1.666666666666667e-01 -3.333333333333333e-01 -1.666666666666665e-01
-1.666666666666667e-01 -3.333333333333333e-01 -1.666666666666665e-01
-1.666666666666667e-01 -3.333333333333333e-01 -1.666666666666665e-01
-1.666666666666667e-01 -3.333333333333333e-01 -1.666666666666665e-01
-1.666666666666667e-01 -3.333333333333333e-01 -1.666666666666665e-01
-1.666666666666667e-01 -3.333333333333333e-01 -1.666666666666665e-01
-1.666666666666667e-01 -3.333333333333333e-01 -1.666666666666665e-01
-1.666666666666667e-01 -3.333333333333333e-01 -1.666666666666665e-01
-1.666666666666667e-01 -3.333333333333333e-01 -1.666666666666665e-01
-1.666666666666667e-01 -3.333333333333333e-01 -1.666666666666665e-01
-1.666666666666667e-01 -3.333333333333333e-01 -1.666666666666665e-01
-1.666666666666667e-01 -3.333333333333333e-01 -1.666666666666665e-01
-1.666666666666667e-01 -3.333333333333333e-01 -1.666666666666665e-01
-1.666666666666667e-01 -3.333333333333333e-01 -1.666666666666665e-01
-1.666666666666667e-01 -3.333333333333333e-01 -1.666666666666665e-01
-1.666666666666667e-01 -3.333333333333333e-01 -1.666666666666665e-01
-1.666666666666667e-01 -3.333333333333333e-01 -1.666666666666665e-01
-1.666666666666667e-01 -3.333333333333333e-01 -1.666666666666665e-01
-1.666666666666667e-01 -3.333333333333333e-01 -1.666666666666665e-01
-1.666666666666667e-01 -3.333333333333333e-01 -1.666666666666665e-01
-1.666666666666667e-01 -3.333333333333333e-01 -1.666666666666665e-01
-1.666666666666667e-01 -3.333333333333333e-01 -1.666666666666665e-01
-1.666666666666667e-01 -3.333333333333333e-01 -1.666666666666665e-01
-1.666666666666667e-01 -3.333333333333333e-01 -1.666666666666665e-01
-1.666666666666667e-01 -3.333333333333333e-01 -1.666666666666665e-01
-1.666666666666667e-01 -3.333333333333333e-01 -1.666666666666665e-01
-1.666666666666667e-01 -3.333333333333333e-01 -1.666666666666665e-01
-1.666666666666667e-01 -3.333333333333333e-01 -1.666666666666665e-01
-1.666666666666667e-01 -3.333333333333333e-01 -1.666666666666665e-01
-1.666666666666667e-01 -3.333333333333333e-01 -1.666666666666665e-01
-1.666666666666667e-01 -3.333333333333333e-01 -1.666666666666665e-01
-1.666666666666667e-01 -3.333333333333333e-01 -1.666666666666665e-01
-1.666666666666667e-01 -3.333333333333333e-01 -1.666666666666665e-01
-1.666666666666667e-01 -3.333333333333333e-01 -1.666666666666665e-01
-1.666666666666667e-01 -3.333333333333333e-01 -1.666666666666665e-01
-1.666666666666667e-01 -3.333333333333333e-01 -1.666666666666665e-01
-1.666666666666667e-01 -3.333333333333333e-01 -1.666666666666665e-01
-1.666666666666667e-01 -3.333333333333333e-01 -1.666666666666665e-01
-1.666666666666667e-01 -3.333333333333333e-01 -1.666666666666665e-01
-1.666666666666667e-01 -3.333333333333333e-01 -1.666666666666665e-01
-1.666666666666667e-01 -3.333333333333333e-01 -1.666666666666665e-01
-1.666666666666667e-01 -3.333333333333333e-01 -1.666666666666665e-01
-1.666666666666667e-01 -3.333333333333333e-01 -1.666666666666665e-01
-1.666666666666667e-01 -3.333333333333333e-01 -1.666666666666665e-01
-1.666666666666667e-01 -3.333333333333333e-01 -1.666666666666665e-01
-1.666666666666667e-01 -3.333333333333333e-01 -1.666666666666665e-01
-1.666666666666667e-01 -3.333333333333333e-01 -1.666666666666665e-01
-1.666666666666667e-01 -3.333333333333333e-01 -1.666666666666665e-01
-1.666666666666667e-01 -3.333333333333333e-01 -1.666666666666665e-01
-1.666666666666667e-01 -3.333333333333333e-01 -1.666666666666665e-01
-1.666666666666667e-01 -3.333333333333333e-01 -1.666666666666665e-01
-1.666666666666667e-01 -3.333333333333333e-01 -1.666666666666665e-01
-1.666666666666667e-01 -3.333333333333333e-01 -1.666666666666665e-01
-1.666666666666667e-01 -3.333333333333333e-01 -1.666666666666665e-01
-1.666666666666667e-01 -3.333333333333333e-01 -1.666666666666665e-01
-1.666666666666667e-01 -3.333333333333333e-01 -1.666666666666665e-01
-1.666666666666667e-01 -3.333333333333333e-01 -1.666666666666665e-01
-1.666666666666667e-01 -3.333333333333333e-01 -1.666666666666665e-01
-1.666666666666667e-01 -3.333333333333333e-01 -1.666666666666665e-01
-1.666666666666667e-01 -3.333333333333333e-01 -1.666666666666665e-01
-1.666666666666667e-01 -3.333333333333333e-01 -1.666666666666665e-01
-1.666666666666667e-01 -3.333333333333333e-01 -1.666666666666665e-01
-1.666666666666667e-01 -3.333333333333333e-01 -1.666666666666665e-01
-1.666666666666667e-01 -3.333333333333333e-01 -1.666666666666665e-01
-1.666666666666667e-01 -3.333333333333333e-01 -1.666666666666665e-01
-1.666666666666667e-01 -3.333333333333333e-01 -1.666666666666665e-01
-1.666666666666667e-01 -3.333333333333333e-01 -1.666666666666665e-01
-1.666666666666667e-01 -3.333333333333333e-01 -1.666666666666665e-01
-1.666666666666667e-01 -3.333333333333333e-01 -1.666666666666665e-01
-1.666666666666667e-01 -3.333333333333333e-01 -1.666666666666665e-01
-1.666666666666667e-01 -3.333333333333333e-01 -1.666666666666665e-01
-1.666666666666667e-01 -3.333333333333333e-01 -1.666666666666665e-01
-1.666666666666667e-01 -3.333333333333333e-01 -1.666666666666665e-01
-1.666666666666667e-01 -3.333333333333333e-01 -1.666666666666665e-01
-1.666666666666667e-01 -3.333333333333333e-01 -1.666666666666665e-01
-1.666666666666667e-01 -3.333333333333333e-01 -1.666666666666665e-01
-1.666666666666667e-01 -3.333333333333333e-01 -1.666666666666665e-01
-1.666666666666667e-01 -3.333333333333333e-01 -1.666666666666665e-01
-1.666666666666667e-01 -3.333333333333333e-01 -1.666666666666665e-01
-1.666666666666667e-01 -3.333333333333333e-01 -1.666666666666665e-01
-1.666666666666667e-01 -3.333333333333333e-01 -1.666666666666665e-01
-1.666666666666667e-01 -3.333333333333333e-01 -1.666666666666665e-01
-1.666666666666667e-01 -3.333333333333333e-01 -1.666666666666665e-01
-1.666666666666667e-01 -3.333333333333333e-01 -1.666666666666665e-01
-1.666666666666667e-01 -3.333333333333333e-01 -1.666666666666665e-01
-1.666666666666667e-01 -3.333333333333333e-01 -1.666666666666665e-01
-1.666666666666667e-01 -3.333333333333333e-01 -1.666666666666665e-01
-1.666666666666667e-01 -3.333333333333333e-01 -1.666666666666665e-01
-1.666666666666667e-01 -3.333333333333333e-01 -1.666666666666665e-01
-1.666666666666667e-01 -3.333333333333333e-01 -1.666666666666665e-01
-1.666666666666667e-01 -3.333333333333333e-01 -1.666666666666665e-01
-1.666666666666667e-01 -3.333333333333333e-01 -1.666666666666665e-01
-1.666666666666667e-01 -3.333333333333333e-01 -1.666666666666665e-01
-1.666666666666667e-01 -3.333333333333333e-01 -1.666666666666665e-01
-1.666666666666667e-01 -3.333333333333333e-01 -1.666666666666665e-01
-1.666666666666667e-01 -3.333333333333333e-01 -1.666666666666665e-01
-1.666666666666667e-01 -3.333333333333333e-01 -1.666666666666665e-01
-1.666666666666667e-01 -3.333333333333333e-01 -1.666666666666665e-01
-1.666666666666667e-01 -3.333333333333333e-01 -1.666666666666665e-01
-1.666666666666667e-01 -3.333333333333333e-01 -1.666666666666665e-01
-1.666666666666667e-01 -3.333333333333333e-01 -1.666666666666665e-01
-1.666666666666667e-01 -3.333333333333333e-01 -1.666666666666665e-01
-1.666666666666667e-01 -3.333333333333333e-01 -1.666666666666665e-01
-1.666666666666667e-01 -3.333333333333333e-01 -1.666666666666665e-01
-1.666666666666667e-01 -3.333333333333333e-01 -1.666666666666665e-01
-1.666666666666667e-01 -3.333333333333333e-01 -1.666666666666665e-01
-1.666666666666667e-01 -3.333333333333333e-01 -1.666666666666665e-01
-1.666666666666667e-01 -3.333333333333333e-01 -1.666666666666665e-01
-1.666666666666667e-01 -3.333333333333333e-01 -1.666666666666665e-01
-1.666666666666667e-01 -3.333333333333333e-01 -1.666666666666665e-01
-1.666666666666667e-01 -3.333333333333333e-01 -1.666666666666665e-01
-1.666666666666667e-01 -3.333333333333333e-01 -1.666666666666665e-01
-1.666666666666667e-01 -3.333333333333333e-01 -1.666666666666665e-01
-1.666666666666667e-01 -3.333333333333333e-01 -1.666666666666665e-01
-1.666666666666667e-01 -3.333333333333333e-01 -1.666666666666665e-01
-1.666666666666667e-01 -3.333333333333333e-01 -1.666666666666665e-01
-1.666666666666667e-01 -3.333333333333333e-01 -1.666666666666665e-01
-1.666666666666667e-01 -3.333333333333333e-01 -1.666666666666665e-01
-1.666666666666667e-01 -3.333333333333333e-01 -1.666666666666665e-01
-1.666666666666667e-01 -3.333333333333333e-01 -1.666666666666665e-01
-1.666666666666667e-01 -3.333333333333333e-01 -1.666666666666665e-01
-1.666666666666667e-01 -3.333333333333333e-01 -1.666666666666665e-01
-1.666666666666667e-01 -3.333333333333333e-01 -1.666666666666665e-01
-1.666666666666667e-01 -3.333333333333333e-01 -1.666666666666665e-01
-1.666666666666667e-01 -3.333333333333333e-01 -1.666666666666665e-01
-1.666666666666667e-01 -3.333333333333333e-01 -1.666666666666665e-01
-1.666666666666667e-01 -3.333333333333333e-01 -1.666666666666665e-01
-1.666666666666667e-01 -3.333333333333333e-01 -1.666666666666665e-01
-1.666666666666667e-01 -3.333333333333333e-01 -1.666666666666665e-01
-1.666666666666667e-01 -3.333333333333333e-01 -1.666666666666665e-01
-1.666666666666667e-01 -3.333333333333333e-01 -1.666666666666665e-01
-1.666666666666667e-01 -3.333333333333333e-01 -1.666666666666665e-01
-1.666666666666667e-01 -3.333333333333333e-01 -1.666666666666665e-01
-1.666666666666667e-01 -3.333333333333333e-01 -1.666666666666665e-01
-1.666666666666667e-01 -3.333333333333333e-01 -1.666666666666665e-01
-1.666666666666667e-01 -3.333333333333333e-01 -1.666666666666665e-01
-1.666666666666667e-01 -3.333333333333333e-01 -1.666666666666665e-01
-1.666666666666667e-01 -3.333333333333333e-01 -1.666666666666665e-01
-1.666666666666667e-01 -3.333333333333333e-01 -1.666666666666665e-01
-1.666666666666667e-01 -3.333333333333333e-01 -1.666666666666665e-01
-1.666666666666667e-01 -3.333333333333333e-01 -1.666666666666665e-01
-1.666666666666667e-01 -3.333333333333333e-01 -1.666666666666665e-01
-1.666666666666667e-01 -3.333333333333333e-01 -1.666666666666665e-01
-1.666666666666667e-01 -3.333333333333333e-01 -1.666666666666665e-01
-1.666666666666667e-01 -3.333333333333333e-01 -1.666666666666665e-01
-1.666666666666667e-01 -3.333333333333333e-01 -1.666666666666665e-01
-1.666666666666667e-01 -3.333333333333333e-01 -1.666666666666665e-01
-1.666666666666667e-01 -3.333333333333333e-01 -1.666666666666665e-01
-1.666666666666667e-01 -3.333333333333333e-01 -1.666666666666665e-01
-1.666666666666667e-01 -3.333333333333333e-01 -1.666666666666665e-01
-1.666666666666667e-01 -3.333333333333333e-01 -1.666666666666665e-01
-1.666666666666667e-01 -3.333333333333333e-01 -1.666666666666665e-01
-1.666666666666667e-01 -3.333333333333333e-01 -1.666666666666665e-01
-1.666666666666667e-01 -3.333333333333333e-01 -1.666666666666665e-01
-1.666666666666667e-01 -3.333333333333333e-01 -1.666666666666665e-01
-1.666666666666667e-01 -3.333333333333333e-01 -1.666666666666665e-01
-1.666666666666667e-01 -3.333333333333333e-01 -1.666666666666665e-01
-1.666666666666667e-01 -3.333333333333333e-01 -1.666666666666665e-01
-1.666666666666667e-01 -3.333333333333333e-01 -1.666666666666665e-01
-1.666666666666667e-01 -3.333333333333333e-01 -1.666666666666665e-01
-1.666666666666667e-01 -3.333333333333333e-01 -1.666666666666665e-01
-1.666666666666667e-01 -3.333333333333333e-01 -1.666666666666665e-01
-1.666666666666667e-01 -3.333333333333333e-01 -1.666666666666665e-01
-1.666666666666667e-01 -3.333333333333333e-01 -1.666666666666665e-01
-1.666666666666667e-01 -3.333333333333333e-01 -1.666666666666665e-01
-1.666666666666667e-01 -3.333333333333333e-01 -1.666666666666665e-01
-1.666666666666667e-01 -3.333333333333333e-01 -1.666666666666665e-01
1.666666666666667e-01 3.333333333333333e-01 1.666666666666665e-01
-1.666666666666667e-01 -3.333333333333333e-01 -1.666666666666665e-01
1.666666666666667e-01 3.333333333333333e-01 1.666666666666665e-01
1.666666666666667e-01 3.333333333333333e-01 1.666666666666665e-01
1.666666666666667e-01 3.333333333333333e-01 1.666666666666665e-01
1.666666666666667e-01 3.333333333333333e-01 1.666666666666665e-01
1.666666666666667e-01 3.333333333333333e-01 1.666666666666665e-01
1.666666666666667e-01 3.333333333333333e-01 1.666666666666665e-01
1.666666666666667e-01 3.333333333333333e-01 1.666666666666665e-01
1.666666666666667e-01 3.333333333333333e-01 1.666666666666665e-01
1.666666666666667e-01 3.333333333333333e-01 1.666666666666665e-01
1.666666666666667e-01 3.333333333333333e-01 1.666666666666665e-01
1.666666666666667e-01 3.333333333333333e-01 1.666666666666665e-01
1.666666666666667e-01 3.333333333333333e-01 1.666666666666665e-01
1.666666666666667e-01 3.333333333333333e-01 1.666666666666665e-01
1.666666666666667e-01 3.333333333333333e-01 1.666666666666665e-01
1.666666666666667e-01 3.333333333333333e-01 1.666666666666665e-01
1.666666666666667e-01 3.333333333333333e-01 1.666666666666665e-01
1.666666666666667e-01 3.333333333333333e-01 1.666666666666665e-01
1.666666666666667e-01 3.333333333333333e-01 1.666666666666665e-01
1.666666666666667e-01 3.333333333333333e-01 1.666666666666665e-01
1.666666666666667e-01 3.333333333333333e-01 1.666666666666665e-01
1.666666666666667e-01 3.333333333333333e-01 1.666666666666665e-01
1.666666666666667e-01 3.333333333333333e-01 1.666666666666665e-01
1.666666666666667e-01 3.333333333333333e-01 1.666666666666665e-01
1.666666666666667e-01 3.333333333333333e-01 1.666666666666665e-01
1.666666666666667e-01 3.333333333333333e-01 1.666666666666665e-01
1.666666666666667e-01 3.333333333333333e-01 1.666666666666665e-01
1.666666666666667e-01 3.333333333333333e-01 1.666666666666665e-01
1.666666666666667e-01 3.333333333333333e-01 1.666666666666665e-01
1.666666666666667e-01 3.333333333333333e-01 1.666666666666665e-01
1.666666666666667e-01 3.333333333333333e-01 1.666666666666665e-01
1.666666666666667e-01 3.333333333333333e-01 1.666666666666665e-01
1.666666666666667e-01 3.333333333333333e-01 1.666666666666665e-01
1.666666666666667e-01 3.333333333333333e-01 1.666666666666665e-01
1.666666666666667e-01 3.333333333333333e-01 1.666666666666665e-01
1.666666666666667e-01 3.333333333333333e-01 1.666666666666665e-01
1.666666666666667e-01 3.333333333333333e-01 1.666666666666665e-01
1.666666666666667e-01 3.333333333333333e-01 1.666666666666665e-01
1.666666666666667e-01 3.333333333333333e-01 1.666666666666665e-01
1.666666666666667e-01 3.333333333333333e-01 1.666666666666665e-01
1.666666666666667e-01 3.333333333333333e-01 1.666666666666665e-01
1.666666666666667e-01 3.333333333333333e-01 1.666666666666665e-01
1.666666666666667e-01 3.333333333333333e-01 1.666666666666665e-01
1.666666666666667e-01 3.333333333333333e-01 1.666666666666665e-01
1.666666666666667e-01 3.333333333333333e-01 1.666666666666665e-01
1.666666666666667e-01 3.333333333333333e-01 1.666666666666665e-01
1.666666666666667e-01 3.333333333333333e-01 1.666666666666665e-01
1.666666666666667e-01 3.333333333333333e-01 1.666666666666665e-01
1.666666666666667e-01 3.333333333333333e-01 1.666666666666665e-01
1.666666666666667e-01 3.333333333333333e-01 1.666666666666665e-01
1.666666666666667e-01 3.333333333333333e-01 1.666666666666665e-01
1.666666666666667e-01 3.333333333333333e-01 1.666666666666665e-01
1.666666666666667e-01 3.333333333333333e-01 1.666666666666665e-01
1.666666666666667e-01 3.333333333333333e-01 1.666666666666665e-01
1.666666666666667e-01 3.333333333333333e-01 1.666666666666665e-01
1.666666666666667e-01 3.333333333333333e-01 1.666666666666665e-01
1.666666666666667e-01 3.333333333333333e-01 1.666666666666665e-01
1.666666666666667e-01 3.333333333333333e-01 1.666666666666665e-01
1.666666666666667e-01 3.333333333333333e-01 1.666666666666665e-01
1.666666666666667e-01 3.333333333333333e-01 1.666666666666665e-01
1.666666666666667e-01 3.333333333333333e-01 1.666666666666665e-01
1.666666666666667e-01 3.333333333333333e-01 1.666666666666665e-01
1.666666666666667e-01 3.333333333333333e-01 1.666666666666665e-01
1.666666666666667e-01 3.333333333333333e-01 1.666666666666665e-01
1.666666666666667e-01 3.333333333333333e-01 1.666666666666665e-01
1.666666666666667e-01 3.333333333333333e-01 1.666666666666665e-01
1.666666666666667e-01 3.333333333333333e-01 1.666666666666665e-01
1.666666666666667e-01 3.333333333333333e-01 1.666666666666665e-01
1.666666666666667e-01 3.333333333333333e-01 1.666666666666665e-01
1.666666666666667e-01 3.333333333333333e-01 1.666666666666665e-01
1.666666666666667e-01 3.333333333333333e-01 1.666666666666665e-01
1.666666666666667e-01 3.333333333333333e-01 1.666666666666665e-01
1.666666666666667e-01 3.333333333333333e-01 1.666666666666665e-01
1.666666666666667e-01 3.333333333333333e-01 1.666666666666665e-01
1.666666666666667e-01 3.333333333333333e-01 1.666666666666665e-01
1.666666666666667e-01 3.333333333333333e-01 1.666666666666665e-01
1.666666666666667e-01 3.333333333333333e-01 1.666666666666665e-01
1.666666666666667e-01 3.333333333333333e-01 1.666666666666665e-01
1.666666666666667e-01 3.333333333333333e-01 1.666666666666665e-01
1.666666666666667e-01 3.333333333333333e-01 1.666666666666665e-01
1.666666666666667e-01 3.333333333333333e-01 1.666666666666665e-01
1.666666666666667e-01 3.333333333333333e-01 1.666666666666665e-01
1.666666666666667e-01 3.333333333333333e-01 1.666666666666665e-01
1.666666666666667e-01 3.333333333333333e-01 1.666666666666665e-01
1.666666666666667e-01 3.333333333333333e-01 1.666666666666665e-01
1.666666666666667e-01 3.333333333333333e-01 1.666666666666665e-01
1.666666666666667e-01 3.333333333333333e-01 1.666666666666665e-01
1.666666666666667e-01 3.333333333333333e-01 1.666666666666665e-01
1.666666666666667e-01 3.333333333333333e-01 1.666666666666665e-01
1.666666666666667e-01 3.333333333333333e-01 1.666666666666665e-01
1.666666666666667e-01 3.333333333333333e-01 1.666666666666665e-01
1.666666666666667e-01 3.333333333333333e-01 1.666666666666665e-01
1.666666666666667e-01 3.333333333333333e-01 1.666666666666665e-01
1.666666666666667e-01 3.333333333333333e-01 1.666666666666665e-01
1.666666666666667e-01 3.333333333333333e-01 1.666666666666665e-01
1.666666666666667e-01 3.333333333333333e-01 1.666666666666665e-01
1.666666666666667e-01 3.333333333333333e-01 1.666666666666665e-01
1.666666666666667e-01 3.333333333333333e-01 1.666666666666665e-01
1.666666666666667e-01 3.333333333333333e-01 1.666666666666665e-01
1.666666666666667e-01 3.333333333333333e-01 1.666666666666665e-01
1.666666666666667e-01 3.333333333333333e-01 1.666666666666665e-01
1.666666666666667e-01 3.333333333333333e-01 1.666666666666665e-01
1.666666666666667e-01 3.333333333333333e-01 1.666666666666665e-01
1.666666666666667e-01 3.333333333333333e-01 1.666666666666665e-01
1.666666666666667e-01 3.333333333333333e-01 1.666666666666665e-01
1.666666666666667e-01 3.333333333333333e-01 1.666666666666665e-01
1.666666666666667e-01 3.333333333333333e-01 1.666666666666665e-01
1.666666666666667e-01 3.333333333333333e-01 1.666666666666665e-01
1.666666666666667e-01 3.333333333333333e-01 1.666666666666665e-01
1.666666666666667e-01 3.333333333333333e-01 1.666666666666665e-01
1.666666666666667e-01 3.333333333333333e-01 1.666666666666665e-01
1.666666666666667e-01 3.333333333333333e-01 1.666666666666665e-01
1.666666666666667e-01 3.333333333333333e-01 1.666666666666665e-01
1.666666666666667e-01 3.333333333333333e-01 1.666666666666665e-01
1.666666666666667e-01 3.333333333333333e-01 1.666666666666665e-01
1.666666666666667e-01 3.333333333333333e-01 1.666666666666665e-01
1.666666666666667e-01 3.333333333333333e-01 1.666666666666665e-01
1.666666666666667e-01 3.333333333333333e-01 1.666666666666665e-01
1.666666666666667e-01 3.333333333333333e-01 1.666666666666665e-01
1.666666666666667e-01 3.333333333333333e-01 1.666666666666665e-01
1.666666666666667e-01 3.333333333333333e-01 1.666666666666665e-01
1.666666666666667e-01 3.333333333333333e-01 1.666666666666665e-01
1.666666666666667e-01 3.333333333333333e-01 1.666666666666665e-01
1.666666666666667e-01 3.333333333333333e-01 1.666666666666665e-01
1.666666666666667e-01 3.333333333333333e-01 1.666666666666665e-01
1.666666666666667e-01 3.333333333333333e-01 1.666666666666665e-01
1.666666666666667e-01 3.333333333333333e-01 1.666666666666665e-01
1.666666666666667e-01 3.333333333333333e-01 1.666666666666665e-01
1.666666666666667e-01 3.333333333333333e-01 1.666666666666665e-01
1.666666666666667e-01 3.333333333333333e-01 1.666666666666665e-01
1.666666666666667e-01 3.333333333333333e-01 1.666666666666665e-01
1.666666666666667e-01 3.333333333333333e-01 1.666666666666665e-01
1.666666666666667e-01 3.333333333333333e-01 1.666666666666665e-01
1.666666666666667e-01 3.333333333333333e-01 1.666666666666665e-01
1.666666666666667e-01 3.333333333333333e-01 1.666666666666665e-01
1.666666666666667e-01 3.333333333333333e-01 1.666666666666665e-01
1.666666666666667e-01 3.333333333333333e-01 1.666666666666665e-01
1.666666666666667e-01 3.333333333333333e-01 1.666666666666665e-01
1.666666666666667e-01 3.333333333333333e-01 1.666666666666665e-01
1.666666666666667e-01 3.333333333333333e-01 1.666666666666665e-01
1.666666666666667e-01 3.333333333333333e-01 1.666666666666665e-01
1.666666666666667e-01 3.333333333333333e-01 1.666666666666665e-01
1.666666666666667e-01 3.333333333333333e-01 1.666666666666665e-01
1.666666666666667e-01 3.333333333333333e-01 1.666666666666665e-01
1.666666666666667e-01 3.333333333333333e-01 1.666666666666665e-01
1.666666666666667e-01 3.333333333333333e-01 1.666666666666665e-01
1.666666666666667e-01 3.333333333333333e-01 1.666666666666665e-01
1.666666666666667e-01 3.333333333333333e-01 1.666666666666665e-01
1.666666666666667e-01 3.333333333333333e-01 1.666666666666665e-01
1.666666666666667e-01 3.333333333333333e-01 1.666666666666665e-01
1.666666666666667e-01 3.333333333333333e-01 1.666666666666665e-01
1.666666666666667e-01 3.333333333333333e-01 1.666666666666665e-01
1.666666666666667e-01 3.333333333333333e-01 1.666666666666665e-01
1.666666666666667e-01 3.333333333333333e-01 1.666666666666665e-01
1.666666666666667e-01 3.333333333333333e-01 1.666666666666665e-01
1.666666666666667e-01 3.333333333333333e-01 1.666666666666665e-01
1.666666666666667e-01 3.333333333333333e-01 1.666666666666665e-01
1.666666666666667e-01 3.333333333333333e-01 1.666666666666665e-01
1.666666666666667e-01 3.333333333333333e-01 1.666666666666665e-01
1.666666666666667e-01 3.333333333333333e-01 1.666666666666665e-01
1.666666666666667e-01 3.333333333333333e-01 1.666666666666665e-01
1.666666666666667e-01 3.333333333333333e-01 1.666666666666665e-01
1.666666666666667e-01 3.333333333333333e-01 1.666666666666665e-01
1.666666666666667e-01 3.333333333333333e-01 1.666666666666665e-01
1.666666666666667e-01 3.333333333333333e-01 1.666666666666665e-01
1.666666666666667e-01 3.333333333333333e-01 1.666666666666665e-01
1.666666666666667e-01 3.333333333333333e-01 1.666666666666665e-01
1.666666666666667e-01 3.333333333333333e-01 1.666666666666665e-01
1.666666666666667e-01 3.333333333333333e-01 1.666666666666665e-01
1.666666666666667e-01 3.333333333333333e-01 1.666666666666665e-01
-1.666666666666667e-01 -3.333333333333333e-01 -1.666666666666665e-01
1.666666666666667e-01 3.333333333333333e-01 1.666666666666665e-01
1.666666666666667e-01 3.333333333333333e-01 1.666666666666665e-01
1.666666666666667e-01 3.333333333333333e-01 1.666666666666665e-01
1.666666666666667e-01 3.333333333333333e-01 1.666666666666665e-01
1.666666666666667e-01 3.333333333333333e-01 1.666666666666665e-01
1.666666666666667e-01 3.333333333333333e-01 1.666666666666665e-01
1.666666666666667e-01 3.333333333333333e-01 1.666666666666665e-01
1.666666666666667e-01 3.333333333333333e-01 1.666666666666665e-01
1.666666666666667e-01 3.333333333333333e-01 1.666666666666665e-01
1.666666666666667e-01 3.333333333333333e-01 1.666666666666665e-01
1.666666666666667e-01 3.333333333333333e-01 1.666666666666665e-01
1.666666666666667e-01 3.333333333333333e-01 1.666666666666665e-01
1.666666666666667e-01 3.333333333333333e-01 1.666666666666665e-01
1.666666666666667e-01 3.333333333333333e-01 1.666666666666665e-01
1.666666666666667e-01 3.333333333333333e-01 1.666666666666665e-01
1.666666666666667e-01 3.333333333333333e-01 1.666666666666665e-01
1.666666666666667e-01 3.333333333333333e-01 1.666666666666665e-01
1.666666666666667e-01 3.333333333333333e-01 1.666666666666665e-01
1.666666666666667e-01 3.333333333333333e-01 1.666666666666665e-01
1.666666666666667e-01 3.333333333333333e-01 1.666666666666665e-01
1.666666666666667e-01 3.333333333333333e-01 1.666666666666665e-01
1.666666666666667e-01 3.333333333333333e-01 1.666666666666665e-01
1.666666666666667e-01 3.333333333333333e-01 1.666666666666665e-01
1.666666666666667e-01 3.333333333333333e-01 1.666666666666665e-01
1.666666666666667e-01 3.333333333333333e-01 1.666666666666665e-01
1.666666666666667e-01 3.333333333333333e-01 1.666666666666665e-01
1.666666666666667e-01 3.333333333333333e-01 1.666666666666665e-01
1.666666666666667e-01 3.333333333333333e-01 1.666666666666665e-01
1.666666666666667e-01 3.333333333333333e-01 1.666666666666665e-01
1.666666666666667e-01 3.333333333333333e-01 1.666666666666665e-01
1.666666666666667e-01 3.333333333333333e-01 1.666666666666665e-01
1.666666666666667e-01 3.333333333333333e-01 1.666666666666665e-01
1.666666666666667e-01 3.333333333333333e-01 1.666666666666665e-01
1.666666666666667e-01 3.333333333333333e-01 1.666666666666665e-01
1.666666666666667e-01 3.333333333333333e-01 1.666666666666665e-01
1.666666666666667e-01 3.333333333333333e-01 1.666666666666665e-01
1.666666666666667e-01 3.333333333333333e-01 1.666666666666665e-01
1.666666666666667e-01 3.333333333333333e-01 1.666666666666665e-01
1.666666666666667e-01 3.333333333333333e-01 1.666666666666665e-01
1.666666666666667e-01 3.333333333333333e-01 1.666666666666665e-01
1.666666666666667e-01 3.333333333333333e-01 1.666666666666665e-01
1.666666666666667e-01 3.333333333333333e-01 1.666666666666665e-01
1.666666666666667e-01 3.333333333333333e-01 1.666666666666665e-01
1.666666666666667e-01 3.333333333333333e-01 1.666666666666665e-01
1.666666666666667e-01 3.333333333333333e-01 1.666666666666665e-01
1.666666666666667e-01 3.333333333333333e-01 1.666666666666665e-01
1.666666666666667e-01 3.333333333333333e-01 1.666666666666665e-01
1.666666666666667e-01 3.333333333333333e-01 1.666666666666665e-01
1.666666666666667e-01 3.333333333333333e-01 1.666666666666665e-01
1.666666666666667e-01 3.333333333333333e-01 1.666666666666665e-01
1.666666666666667e-01 3.333333333333333e-01 1.666666666666665e-01
1.666666666666667e-01 3.333333333333333e-01 1.666666666666665e-01
1.666666666666667e-01 3.333333333333333e-01 1.666666666666665e-01
1.666666666666667e-01 3.333333333333333e-01 1.666666666666665e-01
1.666666666666667e-01 3.333333333333333e-01 1.666666666666665e-01
1.666666666666667e-01 3.333333333333333e-01 1.666666666666665e-01
1.666666666666667e-01 3.333333333333333e-01 1.666666666666665e-01
1.666666666666667e-01 3.333333333333333e-01 1.666666666666665e-01
1.666666666666667e-01 3.333333333333333e-01 1.666666666666665e-01
1.666666666666667e-01 3.333333333333333e-01 1.666666666666665e-01
1.666666666666667e-01 3.333333333333333e-01 1.666666666666665e-01
1.666666666666667e-01 3.333333333333333e-01 1.666666666666665e-01
1.666666666666667e-01 3.333333333333333e-01 1.666666666666665e-01
1.666666666666667e-01 3.333333333333333e-01 1.666666666666665e-01
1.666666666666667e-01 3.333333333333333e-01 1.666666666666665e-01
1.666666666666667e-01 3.333333333333333e-01 1.666666666666665e-01
1.666666666666667e-01 3.333333333333333e-01 1.666666666666665e-01
1.666666666666667e-01 3.333333333333333e-01 1.666666666666665e-01
1.666666666666667e-01 3.333333333333333e-01 1.666666666666665e-01
1.666666666666667e-01 3.333333333333333e-01 1.666666666666665e-01
1.666666666666667e-01 3.333333333333333e-01 1.666666666666665e-01
1.666666666666667e-01 3.333333333333333e-01 1.666666666666665e-01
1.666666666666667e-01 3.333333333333333e-01 1.666666666666665e-01
1.666666666666667e-01 3.333333333333333e-01 1.666666666666665e-01
1.666666666666667e-01 3.333333333333333e-01 1.666666666666665e-01
1.666666666666667e-01 3.333333333333333e-01 1.666666666666665e-01
1.666666666666667e-01 3.333333333333333e-01 1.666666666666665e-01
1.666666666666667e-01 3.333333333333333e-01 1.666666666666665e-01
1.666666666666667e-01 3.333333333333333e-01 1.666666666666665e-01
1.666666666666667e-01 3.333333333333333e-01 1.666666666666665e-01
1.666666666666667e-01 3.333333333333333e-01 1.666666666666665e-01
1.666666666666667e-01 3.333333333333333e-01 1.666666666666665e-01
1.666666666666667e-01 3.333333333333333e-01 1.666666666666665e-01
1.666666666666667e-01 3.333333333333333e-01 1.666666666666665e-01
1.666666666666667e-01 3.333333333333333e-01 1.666666666666665e-01
1.666666666666667e-01 3.333333333333333e-01 1.666666666666665e-01
1.666666666666667e-01 3.333333333333333e-01 1.666666666666665e-01
1.666666666666667e-01 3.333333333333333e-01 1.666666666666665e-01
1.666666666666667e-01 3.333333333333333e-01 1.666666666666665e-01
1.666666666666667e-01 3.333333333333333e-01 1.666666666666665e-01
1.666666666666667e-01 3.333333333333333e-01 1.666666666666665e-01
1.666666666666667e-01 3.333333333333333e-01 1.666666666666665e-01
1.666666666666667e-01 3.333333333333333e-01 1.666666666666665e-01
1.666666666666667e-01 3.333333333333333e-01 1.666666666666665e-01
1.666666666666667e-01 3.333333333333333e-01 1.666666666666665e-01
1.666666666666667e-01 3.333333333333333e-01 1.666666666666665e-01
1.666666666666667e-01 3.333333333333333e-01 1.666666666666665e-01
1.666666666666667e-01 3.333333333333333e-01 1.666666666666665e-01
1.666666666666667e-01 3.333333333333333e-01 1.666666666666665e-01
1.666666666666667e-01 3.333333333333333e-01 1.666666666666665e-01
1.666666666666667e-01 3.333333333333333e-01 1.666666666666665e-01
1.666666666666667e-01 3.333333333333333e-01 1.666666666666665e-01
1.666666666666667e-01 3.333333333333333e-01 1.666666666666665e-01
1.666666666666667e-01 3.333333333333333e-01 1.666666666666665e-01
1.666666666666667e-01 3.333333333333333e-01 1.666666666666665e-01
1.666666666666667e-01 3.333333333333333e-01 1.666666666666665e-01
1.666666666666667e-01 3.333333333333333e-01 1.666666666666665e-01
1.666666666666667e-01 3.333333333333333e-01 1.666666666666665e-01
1.666666666666667e-01 3.333333333333333e-01 1.666666666666665e-01
1.666666666666667e-01 3.333333333333333e-01 1.666666666666665e-01
1.666666666666667e-01 3.333333333333333e-01 1.666666666666665e-01
1.666666666666667e-01 3.333333333333333e-01 1.666666666666665e-01
1.666666666666667e-01 3.333333333333333e-01 1.666666666666665e-01
1.666666666666667e-01 3.333333333333333e-01 1.666666666666665e-01
1.666666666666667e-01 3.333333333333333e-01 1.666666666666665e-01
1.666666666666667e-01 3.333333333333333e-01 1.666666666666665e-01
1.666666666666667e-01 3.333333333333333e-01 1.666666666666665e-01
1.666666666666667e-01 3.333333333333333e-01 1.666666666666665e-01
1.666666666666667e-01 3.333333333333333e-01 1.666666666666665e-01
1.666666666666667e-01 3.333333333333333e-01 1.666666666666665e-01
1.666666666666667e-01 3.333333333333333e-01 1.666666666666665e-01
1.666666666666667e-01 3.333333333333333e-01 1.666666666666665e-01
1.666666666666667e-01 3.333333333333333e-01 1.666666666666665e-01
1.666666666666667e-01 3.333333333333333e-01 1.666666666666665e-01
1.666666666666667e-01 3.333333333333333e-01 1.666666666666665e-01
1.666666666666667e-01 3.333333333333333e-01 1.666666666666665e-01
1.666666666666667e-01 3.333333333333333e-01 1.666666666666665e-01
1.666666666666667e-01 3.333333333333333e-01 1.666666666666665e-01
1.666666666666667e-01 3.333333333333333e-01 1.666666666666665e-01
1.666666666666667e-01 3.333333333333333e-01 1.666666666666665e-01
1.666666666666667e-01 3.333333333333333e-01 1.666666666666665e-01
1.666666666666667e-01 3.333333333333333e-01 1.666666666666665e-01
1.666666666666667e-01 3.333333333333333e-01 1.666666666666665e-01
1.666666666666667e-01 3.333333333333333e-01 1.666666666666665e-01
1.666666666666667e-01 3.333333333333333e-01 1.666666666666665e-01
1.666666666666667e-01 3.333333333333333e-01 1.666666666666665e-01
1.666666666666667e-01 3.333333333333333e-01 1.666666666666665e-01
1.666666666666667e-01 3.333333333333333e-01 1.666666666666665e-01
1.666666666666667e-01 3.333333333333333e-01 1.666666666666665e-01
1.666666666666667e-01 3.333333333333333e-01 1.666666666666665e-01
1.666666666666667e-01 3.333333333333333e-01 1.666666666666665e-01
1.666666666666667e-01 3.333333333333333e-01 1.666666666666665e-01
1.666666666666667e-01 3.333333333333333e-01 1.666666666666665e-01
1.666666666666667e-01 3.333333333333333e-01 1.666666666666665e-01
1.666666666666667e-01 3.333333333333333e-01 1.666666666666665e-01
1.666666666666667e-01 3.333333333333333e-01 1.666666666666665e-01
1.666666666666667e-01 3.333333333333333e-01 1.666666666666665e-01
1.666666666666667e-01 3.333333333333333e-01 1.666666666666665e-01
1.666666666666667e-01 3.333333333333333e-01 1.666666666666665e-01
1.666666666666667e-01 3.333333333333333e-01 1.666666666666665e-01
1.666666666666667e-01 3.333333333333333e-01 1.666666666666665e-01
1.666666666666667e-01 3.333333333333333e-01 1.666666666666665e-01
1.666666666666667e-01 3.333333333333333e-01 1.666666666666665e-01
1.666666666666667e-01 3.333333333333333e-01 1.666666666666665e-01
1.666666666666667e-01 3.333333333333333e-01 1.666666666666665e-01
1.666666666666667e-01 3.333333333333333e-01 1.666666666666665e-01
1.666666666666667e-01 3.333333333333333e-01 1.666666666666665e-01
1.666666666666667e-01 3.333333333333333e-01 1.666666666666665e-01
1.666666666666667e-01 3.333333333333333e-01 1.666666666666665e-01
1.666666666666667e-01 3.333333333333333e-01 1.666666666666665e-01
1.666666666666667e-01 3.333333333333333e-01 1.666666666666665e-01
1.666666666666667e-01 3.333333333333333e-01 1.666666666666665e-01
1.666666666666667e-01 3.333333333333333e-01 1.666666666666665e-01
1.666666666666667e-01 3.333333333333333e-01 1.666666666666665e-01
1.666666666666667e-01 3.333333333333333e-01 1.666666666666665e-01
1.666666666666667e-01 3.333333333333333e-01 1.666666666666665e-01
1.666666666666667e-01 3.333333333333333e-01 1.666666666666665e-01
1.666666666666667e-01 3.333333333333333e-01 1.666666666666665e-01
1.666666666666667e-01 3.333333333333333e-01 1.666666666666665e-01
1.666666666666667e-01 3.333333333333333e-01 1.666666666666665e-01
1.666666666666667e-01 3.333333333333333e-01 1.666666666666665e-01
1.666666666666667e-01 3.333333333333333e-01 1.666666666666665e-01
 1.666666666666667e-01 -1.666666666666665e-01 -3.333333333333333e-01
-1.666666666666667e-01  1.666666666666665e-01  3.333333333333333e-01
 1.666666666666667e-01 -1.666666666666665e-01 -3.333333333333333e-01
 1.666666666666667e-01 -1.666666666666665e-01 -3.333333333333333e-01
 1.666666666666667e-01 -1.666666666666665e-01 -3.333333333333333e-01
 1.666666666666667e-01 -1.666666666666665e-01 -3.333333333333333e-01
 1.666666666666667e-01 -1.666666666666665e-01 -3.333333333333333e-01
 1.666666666666667e-01 -1.666666666666665e-01 -3.333333333333333e-01
 1.666666666666667e-01 -1.666666666666665e-01 -3.333333333333333e-01
 1.666666666666667e-01 -1.666666666666665e-01 -3.333333333333333e-01
 1.666666666666667e-01 -1.666666666666665e-01 -3.333333333333333e-01
 1.666666666666667e-01 -1.666666666666665e-01 -3.333333333333333e-01
 1.666666666666667e-01 -1.666666666666665e-01 -3.333333333333333e-01
 1.666666666666667e-01 -1.666666666666665e-01 -3.333333333333333e-01
 1.666666666666667e-01 -1.666666666666665e-01 -3.333333333333333e-01
 1.666666666666667e-01 -1.666666666666665e-01 -3.333333333333333e-01
 1.666666666666667e-01 -1.666666666666665e-01 -3.333333333333333e-01
 1.666666666666667e-01 -1.666666666666665e-01 -3.333333333333333e-01
 1.666666666666667e-01 -1.666666666666665e-01 -3.333333333333333e-01
 1.666666666666667e-01 -1.666666666666665e-01 -3.333333333333333e-01
 1.666666666666667e-01 -1.666666666666665e-01 -3.333333333333333e-01
 1.666666666666667e-01 -1.666666666666665e-01 -3.333333333333333e-01
 1.666666666666667e-01 -1.666666666666665e-01 -3.333333333333333e-01
 1.666666666666667e-01 -1.666666666666665e-01 -3.333333333333333e-01
 1.666666666666667e-01 -1.666666666666665e-01 -3.333333333333333e-01
 1.666666666666667e-01 -1.666666666666665e-01 -3.333333333333333e-01
 1.666666666666667e-01 -1.666666666666665e-01 -3.333333333333333e-01
 1.666666666666667e-01 -1.666666666666665e-01 -3.333333333333333e-01
 1.666666666666667e-01 -1.666666666666665e-01 -3.333333333333333e-01
 1.666666666666667e-01 -1.666666666666665e-01 -3.333333333333333e-01
 1.666666666666667e-01 -1.666666666666665e-01 -3.333333333333333e-01
 1.666666666666667e-01 -1.666666666666665e-01 -3.333333333333333e-01
 1.666666666666667e-01 -1.666666666666665e-01 -3.333333333333333e-01
 1.666666666666667e-01 -1.666666666666665e-01 -3.333333333333333e-01
 1.666666666666667e-01 -1.666666666666665e-01 -3.333333333333333e-01
 1.666666666666667e-01 -1.666666666666665e-01 -3.333333333333333e-01
 1.666666666666667e-01 -1.666666666666665e-01 -3.333333333333333e-01
 1.666666666666667e-01 -1.666666666666665e-01 -3.333333333333333e-01
 1.666666666666667e-01 -1.666666666666665e-01 -3.333333333333333e-01
 1.666666666666667e-01 -1.666666666666665e-01 -3.333333333333333e-01
 1.666666666666667e-01 -1.666666666666665e-01 -3.333333333333333e-01
 1.666666666666667e-01 -1.666666666666665e-01 -3.333333333333333e-01
 1.666666666666667e-01 -1.666666666666665e-01 -3.333333333333333e-01
 1.666666666666667e-01 -1.666666666666665e-01 -3.333333333333333e-01
 1.666666666666667e-01 -1.666666666666665e-01 -3.333333333333333e-01
 1.666666666666667e-01 -1.666666666666665e-01 -3.333333333333333e-01
 1.666666666666667e-01 -1.666666666666665e-01 -3.333333333333333e-01
 1.666666666666667e-01 -1.666666666666665e-01 -3.333333333333333e-01
 1.666666666666667e-01 -1.666666666666665e-01 -3.333333333333333e-01
 1.666666666666667e-01 -1.666666666666665e-01 -3.333333333333333e-01
 1.666666666666667e-01 -1.666666666666665e-01 -3.333333333333333e-01
 1.666666666666667e-01 -1.666666666666665e-01 -3.333333333333333e-01
 1.666666666666667e-01 -1.666666666666665e-01 -3.333333333333333e-01
 1.666666666666667e-01 -1.666666666666665e-01 -3.333333333333333e-01
 1.666666666666667e-01 -1.666666666666665e-01 -3.333333333333333e-01
 1.666666666666667e-01 -1.666666666666665e-01 -3.333333333333333e-01
 1.666666666666667e-01 -1.666666666666665e-01 -3.333333333333333e-01
 1.666666666666667e-01 -1.666666666666665e-01 -3.333333333333333e-01
 1.666666666666667e-01 -1.666666666666665e-01 -3.333333333333333e-01
 1.666666666666667e-01 -1.666666666666665e-01 -3.333333333333333e-01
 1.666666666666667e-01 -1.666666666666665e-01 -3.333333333333333e-01
 1.666666666666667e-01 -1.666666666666665e-01 -3.333333333333333e-01
 1.666666666666667e-01 -1.666666666666665e-01 -3.333333333333333e-01
 1.666666666666667e-01 -1.666666666666665e-01 -3.333333333333333e-01
 1.666666666666667e-01 -1.666666666666665e-01 -3.333333333333333e-01
 1.666666666666667e-01 -1.666666666666665e-01 -3.333333333333333e-01
 1.666666666666667e-01 -1.666666666666665e-01 -3.333333333333333e-01
 1.666666666666667e-01 -1.666666666666665e-01 -3.333333333333333e-01
 1.666666666666667e-01 -1.666666666666665e-01 -3.333333333333333e-01
 1.666666666666667e-01 -1.666666666666665e-01 -3.333333333333333e-01
 1.666666666666667e-01 -1.666666666666665e-01 -3.333333333333333e-01
 1.666666666666667e-01 -1.666666666666665e-01 -3.333333333333333e-01
 1.666666666666667e-01 -1.666666666666665e-01 -3.333333333333333e-01
 1.666666666666667e-01 -1.666666666666665e-01 -3.333333333333333e-01
 1.666666666666667e-01 -1.666666666666665e-01 -3.333333333333333e-01
 1.666666666666667e-01 -1.666666666666665e-01 -3.333333333333333e-01
 1.666666666666667e-01 -1.666666666666665e-01 -3.333333333333333e-01
 1.666666666666667e-01 -1.666666666666665e-01 -3.333333333333333e-01
 1.666666666666667e-01 -1.666666666666665e-01 -3.333333333333333e-01
 1.666666666666667e-01 -1.666666666666665e-01 -3.333333333333333e-01
 1.666666666666667e-01 -1.666666666666665e-01 -3.333333333333333e-01
 1.666666666666667e-01 -1.666666666666665e-01 -3.333333333333333e-01
 1.666666666666667e-01 -1.666666666666665e-01 -3.333333333333333e-01
 1.666666666666667e-01 -1.666666666666665e-01 -3.333333333333333e-01
 1.666666666666667e-01 -1.666666666666665e-01 -3.333333333333333e-01
 1.666666666666667e-01 -1.666666666666665e-01 -3.333333333333333e-01
 1.666666666666667e-01 -1.666666666666665e-01 -3.333333333333333e-01
 1.666666666666667e-01 -1.666666666666665e-01 -3.333333333333333e-01
 1.666666666666667e-01 -1.666666666666665e-01 -3.333333333333333e-01
 1.666666666666667e-01 -1.666666666666665e-01 -3.333333333333333e-01
 1.666666666666667e-01 -1.666666666666665e-01 -3.333333333333333e-01
 1.666666666666667e-01 -1.666666666666665e-01 -3.333333333333333e-01
 1.666666666666667e-01 -1.666666666666665e-01 -3.333333333333333e-01
 1.666666666666667e-01 -1.666666666666665e-01 -3.333333333333333e-01
 1.666666666666667e-01 -1.666666666666665e-01 -3.333333333333333e-01
 1.666666666666667e-01 -1.666666666666665e-01 -3.333333333333333e-01
 1.666666666666667e-01 -1.666666666666665e-01 -3.333333333333333e-01
 1.666666666666667e-01 -1.666666666666665e-01 -3.333333333333333e-01
 1.666666666666667e-01 -1.666666666666665e-01 -3.333333333333333e-01
 1.666666666666667e-01 -1.666666666666665e-01 -3.333333333333333e-01
 1.666666666666667e-01 -1.666666666666665e-01 -3.333333333333333e-01
 1.666666666666667e-01 -1.666666666666665e-01 -3.333333333333333e-01
 1.666666666666667e-01 -1.666666666666665e-01 -3.333333333333333e-01
 1.666666666666667e-01 -1.666666666666665e-01 -3.333333333333333e-01
 1.666666666666667e-01 -1.666666666666665e-01 -3.333333333333333e-01
 1.666666666666667e-01 -1.666666666666665e-01 -3.333333333333333e-01
 1.666666666666667e-01 -1.666666666666665e-01 -3.333333333333333e-01
 1.666666666666667e-01 -1.666666666666665e-01 -3.333333333333333e-01
 1.666666666666667e-01 -1.666666666666665e-01 -3.333333333333333e-01
 1.666666666666667e-01 -1.666666666666665e-01 -3.333333333333333e-01
 1.666666666666667e-01 -1.666666666666665e-01 -3.333333333333333e-01
 1.666666666666667e-01 -1.666666666666665e-01 -3.333333333333333e-01
 1.666666666666667e-01 -1.666666666666665e-01 -3.333333333333333e-01
 1.666666666666667e-01 -1.666666666666665e-01 -3.333333333333333e-01
 1.666666666666667e-01 -1.666666666666665e-01 -3.333333333333333e-01
 1.666666666666667e-01 -1.666666666666665e-01 -3.333333333333333e-01
 1.666666666666667e-01 -1.666666666666665e-01 -3.333333333333333e-01
 1.666666666666667e-01 -1.666666666666665e-01 -3.333333333333333e-01
 1.666666666666667e-01 -1.666666666666665e-01 -3.333333333333333e-01
 1.666666666666667e-01 -1.666666666666665e-01 -3.333333333333333e-01
 1.666666666666667e-01 -1.666666666666665e-01 -3.333333333333333e-01
 1.666666666666667e-01 -1.666666666666665e-01 -3.333333333333333e-01
 1.666666666666667e-01 -1.666666666666665e-01 -3.333333333333333e-01
 1.666666666666667e-01 -1.666666666666665e-01 -3.333333333333333e-01
 1.666666666666667e-01 -1.666666666666665e-01 -3.333333333333333e-01
 1.666666666666667e-01 -1.666666666666665e-01 -3.333333333333333e-01
 1.666666666666667e-01 -1.666666666666665e-01 -3.333333333333333e-01
 1.666666666666667e-01 -1.666666666666665e-01 -3.333333333333333e-01
 1.666666666666667e-01 -1.666666666666665e-01 -3.333333333333333e-01
 1.666666666666667e-01 -1.666666666666665e-01 -3.333333333333333e-01
 1.666666666666667e-01 -1.666666666666665e-01 -3.333333333333333e-01
 1.666666666666667e-01 -1.666666666666665e-01 -3.333333333333333e-01
 1.666666666666667e-01 -1.666666666666665e-01 -3.333333333333333e-01
 1.666666666666667e-01 -1.666666666666665e-01 -3.333333333333333e-01
 1.666666666666667e-01 -1.666666666666665e-01 -3.333333333333333e-01
 1.666666666666667e-01 -1.666666666666665e-01 -3.333333333333333e-01
 1.666666666666667e-01 -1.666666666666665e-01 -3.333333333333333e-01
 1.666666666666667e-01 -1.666666666666665e-01 -3.333333333333333e-01
 1.666666666666667e-01 -1.666666666666665e-01 -3.333333333333333e-01
 1.666666666666667e-01 -1.666666666666665e-01 -3.333333333333333e-01
 1.666666666666667e-01 -1.666666666666665e-01 -3.333333333333333e-01
 1.666666666666667e-01 -1.666666666666665e-01 -3.333333333333333e-01
 1.666666666666667e-01 -1.666666666666665e-01 -3.333333333333333e-01
 1.666666666666667e-01 -1.666666666666665e-01 -3.333333333333333e-01
 1.666666666666667e-01 -1.666666666666665e-01 -3.333333333333333e-01
 1.666666666666667e-01 -1.666666666666665e-01 -3.333333333333333e-01
 1.666666666666667e-01 -1.666666666666665e-01 -3.333333333333333e-01
 1.666666666666667e-01 -1.666666666666665e-01 -3.333333333333333e-01
 1.666666666666667e-01 -1.666666666666665e-01 -3.333333333333333e-01
 1.666666666666667e-01 -1.666666666666665e-01 -3.333333333333333e-01
 1.666666666666667e-01 -1.666666666666665e-01 -3.333333333333333e-01
 1.666666666666667e-01 -1.666666666666665e-01 -3.333333333333333e-01
 1.666666666666667e-01 -1.666666666666665e-01 -3.333333333333333e-01
 1.666666666666667e-01 -1.666666666666665e-01 -3.333333333333333e-01
 1.666666666666667e-01 -1.666666666666665e-01 -3.333333333333333e-01
 1.666666666666667e-01 -1.666666666666665e-01 -3.333333333333333e-01
 1.666666666666667e-01 -1.666666666666665e-01 -3.333333333333333e-01
 1.666666666666667e-01 -1.666666666666665e-01 -3.333333333333333e-01
 1.666666666666667e-01 -1.666666666666665e-01 -3.333333333333333e-01
 1.666666666666667e-01 -1.666666666666665e-01 -3.333333333333333e-01
 1.666666666666667e-01 -1.666666666666665e-01 -3.333333333333333e-01
 1.666666666666667e-01 -1.666666666666665e-01 -3.333333333333333e-01
 1.666666666666667e-01 -1.666666666666665e-01 -3.333333333333333e-01
 1.666666666666667e-01 -1.666666666666665e-01 -3.333333333333333e-01
 1.666666666666667e-01 -1.666666666666665e-01 -3.333333333333333e-01
 1.666666666666667e-01 -1.666666666666665e-01 -3.333333333333333e-01
 1.666666666666667e-01 -1.666666666666665e-01 -3.333333333333333e-01
 1.666666666666667e-01 -1.666666666666665e-01 -3.333333333333333e-01
 1.666666666666667e-01 -1.666666666666665e-01 -3.333333333333333e-01
 1.666666666666667e-01 -1.666666666666665e-01 -3.333333333333333e-01
 1.666666666666667e-01 -1.666666666666665e-01 -3.333333333333333e-01
 1.666666666666667e-01 -1.666666666666665e-01 -3.333333333333333e-01
 1.666666666666667e-01 -1.666666666666665e-01 -3.333333333333333e-01
 1.666666666666667e-01 -1.666666666666665e-01 -3.333333333333333e-01
 1.666666666666667e-01 -1.666666666666665e-01 -3.333333333333333e-01
 1.666666666666667e-01 -1.666666666666665e-01 -3.333333333333333e-01
 1.666666666666667e-01 -1.666666666666665e-01 -3.333333333333333e-01
 1.666666666666667e-01 -1.666666666666665e-01 -3.333333333333333e-01
 1.666666666666667e-01 -1.666666666666665e-01 -3.333333333333333e-01
 1.666666666666667e-01 -1.666666666666665e-01 -3.333333333333333e-01
 1.666666666666667e-01 -1.666666666666665e-01 -3.333333333333333e-01
 1.666666666666667e-01 -1.666666666666665e-01 -3.333333333333333e-01
 1.666666666666667e-01 -1.666666666666665e-01 -3.333333333333333e-01
 1.666666666666667e-01 -1.666666666666665e-01 -3.333333333333333e-01
 1.666666666666667e-01 -1.666666666666665e-01 -3.333333333333333e-01
 1.666666666666667e-01 -1.666666666666665e-01 -3.333333333333333e-01
 1.666666666666667e-01 -1.666666666666665e-01 -3.333333333333333e-01
 1.666666666666667e-01 -1.666666666666665e-01 -3.333333333333333e-01
 1.666666666666667e-01 -1.666666666666665e-01 -3.333333333333333e-01
 1.666666666666667e-01 -1.666666666666665e-01 -3.333333333333333e-01
 1.666666666666667e-01 -1.666666666666665e-01 -3.333333333333333e-01
 1.666666666666667e-01 -1.666666666666665e-01 -3.333333333333333e-01
 1.666666666666667e-01 -1.666666666666665e-01 -3.333333333333333e-01
 1.666666666666667e-01 -1.666666666666665e-01 -3.333333333333333e-01
 1.666666666666667e-01 -1.666666666666665e-01 -3.333333333333333e-01
 1.666666666666667e-01 -1.666666666666665e-01 -3.333333333333333e-01
 1.666666666666667e-01 -1.666666666666665e-01 -3.333333333333333e-01
 1.666666666666667e-01 -1.666666666666665e-01 -3.333333333333333e-01
 1.666666666666667e-01 -1.666666666666665e-01 -3.333333333333333e-01
 1.666666666666667e-01 -1.666666666666665e-01 -3.333333333333333e-01
-1.666666666666667e-01  1.666666666666665e-01  3.333333333333333e-01
 1.666666666666667e-01 -1.666666666666665e-01 -3.333333333333333e-01
 1.666666666666667e-01 -1.666666666666665e-01 -3.333333333333333e-01
 1.666666666666667e-01 -1.666666666666665e-01 -3.333333333333333e-01
 1.666666666666667e-01 -1.666666666666665e-01 -3.333333333333333e-01
 1.666666666666667e-01 -1.666666666666665e-01 -3.333333333333333e-01
 1.666666666666667e-01 -1.666666666666665e-01 -3.333333333333333e-01
 1.666666666666667e-01 -1.666666666666665e-01 -3.333333333333333e-01
 1.666666666666667e-01 -1.666666666666665e-01 -3.333333333333333e-01
 1.666666666666667e-01 -1.666666666666665e-01 -3.333333333333333e-01
 1.666666666666667e-01 -1.666666666666665e-01 -3.333333333333333e-01
 1.666666666666667e-01 -1.666666666666665e-01 -3.333333333333333e-01
 1.666666666666667e-01 -1.666666666666665e-01 -3.333333333333333e-01
 1.666666666666667e-01 -1.666666666666665e-01 -3.333333333333333e-01
 1.666666666666667e-01 -1.666666666666665e-01 -3.333333333333333e-01
 1.666666666666667e-01 -1.666666666666665e-01 -3.333333333333333e-01
 1.666666666666667e-01 -1.666666666666665e-01 -3.333333333333333e-01
 1.666666666666667e-01 -1.666666666666665e-01 -3.333333333333333e-01
 1.666666666666667e-01 -1.666666666666665e-01 -3.333333333333333e-01
 1.666666666666667e-01 -1.666666666666665e-01 -3.333333333333333e-01
 1.666666666666667e-01 -1.666666666666665e-01 -3.333333333333333e-01
 1.666666666666667e-01 -1.666666666666665e-01 -3.333333333333333e-01
 1.666666666666667e-01 -1.666666666666665e-01 -3.333333333333333e-01
 1.666666666666667e-01 -1.666666666666665e-01 -3.333333333333333e-01
 1.666666666666667e-01 -1.666666666666665e-01 -3.333333333333333e-01
 1.666666666666667e-01 -1.666666666666665e-01 -3.333333333333333e-01
 1.666666666666667e-01 -1.666666666666665e-01 -3.333333333333333e-01
 1.666666666666667e-01 -1.666666666666665e-01 -3.333333333333333e-01
 1.666666666666667e-01 -1.666666666666665e-01 -3.333333333333333e-01
 1.666666666666667e-01 -1.666666666666665e-01 -3.333333333333333e-01
 1.666666666666667e-01 -1.666666666666665e-01 -3.333333333333333e-01
 1.666666666666667e-01 -1.666666666666665e-01 -3.333333333333333e-01
 1.666666666666667e-01 -1.666666666666665e-01 -3.333333333333333e-01
 1.666666666666667e-01 -1.666666666666665e-01 -3.333333333333333e-01
 1.666666666666667e-01 -1.666666666666665e-01 -3.333333333333333e-01
 1.666666666666667e-01 -1.666666666666665e-01 -3.333333333333333e-01
 1.666666666666667e-01 -1.666666666666665e-01 -3.333333333333333e-01
 1.666666666666667e-01 -1.666666666666665e-01 -3.333333333333333e-01
 1.666666666666667e-01 -1.666666666666665e-01 -3.333333333333333e-01
 1.666666666666667e-01 -1.666666666666665e-01 -3.333333333333333e-01
 1.666666666666667e-01 -1.666666666666665e-01 -3.333333333333333e-01
 1.666666666666667e-01 -1.666666666666665e-01 -3.333333333333333e-01
 1.666666666666667e-01 -1.666666666666665e-01 -3.333333333333333e-01
 1.666666666666667e-01 -1.666666666666665e-01 -3.333333333333333e-01
 1.666666666666667e-01 -1.666666666666665e-01 -3.333333333333333e-01
 1.666666666666667e-01 -1.666666666666665e-01 -3.333333333333333e-01
 1.666666666666667e-01 -1.666666666666665e-01 -3.333333333333333e-01
 1.666666666666667e-01 -1.666666666666665e-01 -3.333333333333333e-01
 1.666666666666667e-01 -1.666666666666665e-01 -3.333333333333333e-01
 1.666666666666667e-01 -1.666666666666665e-01 -3.333333333333333e-01
 1.666666666666667e-01 -1.666666666666665e-01 -3.333333333333333e-01
 1.666666666666667e-01 -1.666666666666665e-01 -3.333333333333333e-01
 1.666666666666667e-01 -1.666666666666665e-01 -3.333333333333333e-01
 1.666666666666667e-01 -1.666666666666665e-01 -3.333333333333333e-01
 1.666666666666667e-01 -1.666666666666665e-01 -3.333333333333333e-01
 1.666666666666667e-01 -1.666666666666665e-01 -3.333333333333333e-01
 1.666666666666667e-01 -1.666666666666665e-01 -3.333333333333333e-01
 1.666666666666667e-01 -1.666666666666665e-01 -3.333333333333333e-01
 1.666666666666667e-01 -1.666666666666665e-01 -3.333333333333333e-01
 1.666666666666667e-01 -1.666666666666665e-01 -3.333333333333333e-01
 1.666666666666667e-01 -1.666666666666665e-01 -3.333333333333333e-01
 1.666666666666667e-01 -1.666666666666665e-01 -3.333333333333333e-01
 1.666666666666667e-01 -1.666666666666665e-01 -3.333333333333333e-01
 1.666666666666667e-01 -1.666666666666665e-01 -3.333333333333333e-01
 1.666666666666667e-01 -1.666666666666665e-01 -3.333333333333333e-01
 1.666666666666667e-01 -1.666666666666665e-01 -3.333333333333333e-01
 1.666666666666667e-01 -1.666666666666665e-01 -3.333333333333333e-01
 1.666666666666667e-01 -1.666666666666665e-01 -3.333333333333333e-01
 1.666666666666667e-01 -1.666666666666665e-01 -3.333333333333333e-01
 1.666666666666667e-01 -1.666666666666665e-01 -3.333333333333333e-01
 1.666666666666667e-01 -1.666666666666665e-01 -3.333333333333333e-01
 1.666666666666667e-01 -1.666666666666665e-01 -3.333333333333333e-01
 1.666666666666667e-01 -1.666666666666665e-01 -3.333333333333333e-01
 1.666666666666667e-01 -1.666666666666665e-01 -3.333333333333333e-01
 1.666666666666667e-01 -1.666666666666665e-01 -3.333333333333333e-01
 1.666666666666667e-01 -1.666666666666665e-01 -3.333333333333333e-01
 1.666666666666667e-01 -1.666666666666665e-01 -3.333333333333333e-01
 1.666666666666667e-01 -1.666666666666665e-01 -3.333333333333333e-01
 1.666666666666667e-01 -1.666666666666665e-01 -3.333333333333333e-01
 1.666666666666667e-01 -1.666666666666665e-01 -3.333333333333333e-01
 1.666666666666667e-01 -1.666666666666665e-01 -3.333333333333333e-01
 1.666666666666667e-01 -1.666666666666665e-01 -3.333333333333333e-01
 1.666666666666667e-01 -1.666666666666665e-01 -3.333333333333333e-01
 1.666666666666667e-01 -1.666666666666665e-01 -3.333333333333333e-01
 1.666666666666667e-01 -1.666666666666665e-01 -3.333333333333333e-01
 1.666666666666667e-01 -1.666666666666665e-01 -3.333333333333333e-01
 1.666666666666667e-01 -1.666666666666665e-01 -3.333333333333333e-01
 1.666666666666667e-01 -1.666666666666665e-01 -3.333333333333333e-01
 1.666666666666667e-01 -1.666666666666665e-01 -3.333333333333333e-01
 1.666666666666667e-01 -1.666666666666665e-01 -3.333333333333333e-01
 1.666666666666667e-01 -1.666666666666665e-01 -3.333333333333333e-01
 1.666666666666667e-01 -1.666666666666665e-01 -3.333333333333333e-01
 1.666666666666667e-01 -1.666666666666665e-01 -3.333333333333333e-01
 1.666666666666667e-01 -1.666666666666665e-01 -3.333333333333333e-01
 1.666666666666667e-01 -1.666666666666665e-01 -3.333333333333333e-01
 1.666666666666667e-01 -1.666666666666665e-01 -3.333333333333333e-01
 1.666666666666667e-01 -1.666666666666665e-01 -3.333333333333333e-01
 1.666666666666667e-01 -1.666666666666665e-01 -3.333333333333333e-01
 1.666666666666667e-01 -1.666666666666665e-01 -3.333333333333333e-01
 1.666666666666667e-01 -1.666666666666665e-01 -3.333333333333333e-01
 1.666666666666667e-01 -1.666666666666665e-01 -3.333333333333333e-01
 1.666666666666667e-01 -1.666666666666665e-01 -3.333333333333333e-01
 1.666666666666667e-01 -1.666666666666665e-01 -3.333333333333333e-01
 1.666666666666667e-01 -1.666666666666665e-01 -3.333333333333333e-01
 1.666666666666667e-01 -1.666666666666665e-01 -3.333333333333333e-01
 1.666666666666667e-01 -1.666666666666665e-01 -3.333333333333333e-01
 1.666666666666667e-01 -1.666666666666665e-01 -3.333333333333333e-01
 1.666666666666667e-01 -1.666666666666665e-01 -3.333333333333333e-01
 1.666666666666667e-01 -1.666666666666665e-01 -3.333333333333333e-01
 1.666666666666667e-01 -1.666666666666665e-01 -3.333333333333333e-01
 1.666666666666667e-01 -1.666666666666665e-01 -3.333333333333333e-01
 1.666666666666667e-01 -1.666666666666665e-01 -3.333333333333333e-01
 1.666666666666667e-01 -1.666666666666665e-01 -3.333333333333333e-01
 1.666666666666667e-01 -1.666666666666665e-01 -3.333333333333333e-01
 1.666666666666667e-01 -1.666666666666665e-01 -3.333333333333333e-01
 1.666666666666667e-01 -1.666666666666665e-01 -3.333333333333333e-01
 1.666666666666667e-01 -1.666666666666665e-01 -3.333333333333333e-01
 1.666666666666667e-01 -1.666666666666665e-01 -3.333333333333333e-01
 1.666666666666667e-01 -1.666666666666665e-01 -3.333333333333333e-01
 1.666666666666667e-01 -1.666666666666665e-01 -3.333333333333333e-01
 1.666666666666667e-01 -1.666666666666665e-01 -3.333333333333333e-01
 1.666666666666667e-01 -1.666666666666665e-01 -3.333333333333333e-01
 1.666666666666667e-01 -1.666666666666665e-01 -3.333333333333333e-01
 1.666666666666667e-01 -1.666666666666665e-01 -3.333333333333333e-01
 1.666666666666667e-01 -1.666666666666665e-01 -3.333333333333333e-01
 1.666666666666667e-01 -1.666666666666665e-01 -3.333333333333333e-01
 1.666666666666667e-01 -1.666666666666665e-01 -3.333333333333333e-01
 1.666666666666667e-01 -1.666666666666665e-01 -3.333333333333333e-01
 1.666666666666667e-01 -1.666666666666665e-01 -3.333333333333333e-01
 1.666666666666667e-01 -1.666666666666665e-01 -3.333333333333333e-01
 1.666666666666667e-01 -1.666666666666665e-01 -3.333333333333333e-01
 1.666666666666667e-01 -1.666666666666665e-01 -3.333333333333333e-01
 1.666666666666667e-01 -1.666666666666665e-01 -3.333333333333333e-01
 1.666666666666667e-01 -1.666666666666665e-01 -3.333333333333333e-01
 1.666666666666667e-01 -1.666666666666665e-01 -3.333333333333333e-01
 1.666666666666667e-01 -1.666666666666665e-01 -3.333333333333333e-01
 1.666666666666667e-01 -1.666666666666665e-01 -3.333333333333333e-01
 1.666666666666667e-01 -1.666666666666665e-01 -3.333333333333333e-01
 1.666666666666667e-01 -1.666666666666665e-01 -3.333333333333333e-01
 1.666666666666667e-01 -1.666666666666665e-01 -3.333333333333333e-01
 1.666666666666667e-01 -1.666666666666665e-01 -3.333333333333333e-01
 1.666666666666667e-01 -1.666666666666665e-01 -3.333333333333333e-01
 1.666666666666667e-01 -1.666666666666665e-01 -3.333333333333333e-01
 1.666666666666667e-01 -1.666666666666665e-01 -3.333333333333333e-01
 1.666666666666667e-01 -1.666666666666665e-01 -3.333333333333333e-01
 1.666666666666667e-01 -1.666666666666665e-01 -3.333333333333333e-01
 1.666666666666667e-01 -1.666666666666665e-01 -3.333333333333333e-01
 1.666666666666667e-01 -1.666666666666665e-01 -3.333333333333333e-01
 1.666666666666667e-01 -1.666666666666665e-01 -3.333333333333333e-01
 1.666666666666667e-01 -1.666666666666665e-01 -3.333333333333333e-01
 1.666666666666667e-01 -1.666666666666665e-01 -3.333333333333333e-01
 1.666666666666667e-01 -1.666666666666665e-01 -3.333333333333333e-01
 1.666666666666667e-01 -1.666666666666665e-01 -3.333333333333333e-01
 1.666666666666667e-01 -1.666666666666665e-01 -3.333333333333333e-01
 1.666666666666667e-01 -1.666666666666665e-01 -3.333333333333333e-01
 1.666666666666667e-01 -1.666666666666665e-01 -3.333333333333333e-01
 1.666666666666667e-01 -1.666666666666665e-01 -3.333333333333333e-01
 1.666666666666667e-01 -1.666666666666665e-01 -3.333333333333333e-01
 1.666666666666667e-01 -1.666666666666665e-01 -3.333333333333333e-01
 1.666666666666667e-01 -1.666666666666665e-01 -3.333333333333333e-01
 1.666666666666667e-01 -1.666666666666665e-01 -3.333333333333333e-01
 1.666666666666667e-01 -1.666666666666665e-01 -3.333333333333333e-01
 1.666666666666667e-01 -1.666666666666665e-01 -3.333333333333333e-01
 1.666666666666667e-01 -1.666666666666665e-01 -3.333333333333333e-01
 1.666666666666667e-01 -1.666666666666665e-01 -3.333333333333333e-01
 1.666666666666667e-01 -1.666666666666665e-01 -3.333333333333333e-01
 1.666666666666667e-01 -1.666666666666665e-01 -3.333333333333333e-01
 1.666666666666667e-01 -1.666666666666665e-01 -3.333333333333333e-01
 1.666666666666667e-01 -1.666666666666665e-01 -3.333333333333333e-01
 1.666666666666667e-01 -1.666666666666665e-01 -3.333333333333333e-01
 1.666666666666667e-01 -1.666666666666665e-01 -3.333333333333333e-01
 1.666666666666667e-01 -1.666666666666665e-01 -3.333333333333333e-01
 1.666666666666667e-01 -1.666666666666665e-01 -3.333333333333333e-01
 1.666666666666667e-01 -1.666666666666665e-01 -3.333333333333333e-01
 1.666666666666667e-01 -1.666666666666665e-01 -3.333333333333333e-01
 1.666666666666667e-01 -1.666666666666665e-01 -3.333333333333333e-01
 1.666666666666667e-01 -1.666666666666665e-01 -3.333333333333333e-01
 1.666666666666667e-01 -1.666666666666665e-01 -3.333333333333333e-01
 1.666666666666667e-01 -1.666666666666665e-01 -3.333333333333333e-01
 1.666666666666667e-01 -1.666666666666665e-01 -3.333333333333333e-01
 1.666666666666667e-01 -1.666666666666665e-01 -3.333333333333333e-01
 1.666666666666667e-01 -1.666666666666665e-01 -3.333333333333333e-01
 1.666666666666667e-01 -1.666666666666665e-01 -3.333333333333333e-01
 1.666666666666667e-01 -1.666666666666665e-01 -3.333333333333333e-01
 1.666666666666667e-01 -1.666666666666665e-01 -3.333333333333333e-01
-1.666666666666667e-01  1.666666666666665e-01  3.333333333333333e-01
 1.666666666666667e-01 -1.666666666666665e-01 -3.333333333333333e-01
-1.666666666666667e-01  1.666666666666665e-01  3.333333333333333e-01
-1.666666666666667e-01  1.666666666666665e-01  3.333333333333333e-01
-1.666666666666667e-01  1.666666666666665e-01  3.333333333333333e-01
-1.666666666666667e-01  1.666666666666665e-01  3.333333333333333e-01
-1.666666666666667e-01  1.666666666666665e-01  3.333333333333333e-01
-1.666666666666667e-01  1.666666666666665e-01  3.333333333333333e-01
-1.666666666666667e-01  1.666666666666665e-01  3.333333333333333e-01
-1.666666666666667e-01  1.666666666666665e-01  3.333333333333333e-01
-1.666666666666667e-01  1.666666666666665e-01  3.333333333333333e-01
-1.666666666666667e-01  1.666666666666665e-01  3.333333333333333e-01
-1.666666666666667e-01  1.666666666666665e-01  3.333333333333333e-01
-1.666666666666667e-01  1.666666666666665e-01  3.333333333333333e-01
-1.666666666666667e-01  1.666666666666665e-01  3.333333333333333e-01
-1.666666666666667e-01  1.666666666666665e-01  3.333333333333333e-01
-1.666666666666667e-01  1.666666666666665e-01  3.333333333333333e-01
-1.666666666666667e-01  1.666666666666665e-01  3.333333333333333e-01
-1.666666666666667e-01  1.666666666666665e-01  3.333333333333333e-01
-1.666666666666667e-01  1.666666666666665e-01  3.333333333333333e-01
-1.666666666666667e-01  1.666666666666665e-01  3.333333333333333e-01
-1.666666666666667e-01  1.666666666666665e-01  3.333333333333333e-01
-1.666666666666667e-01  1.666666666666665e-01  3.333333333333333e-01
-1.666666666666667e-01  1.666666666666665e-01  3.333333333333333e-01
-1.666666666666667e-01  1.666666666666665e-01  3.333333333333333e-01
-1.666666666666667e-01  1.666666666666665e-01  3.333333333333333e-01
-1.666666666666667e-01  1.666666666666665e-01  3.333333333333333e-01
-1.666666666666667e-01  1.666666666666665e-01  3.333333333333333e-01
-1.666666666666667e-01  1.666666666666665e-01  3.333333333333333e-01
-1.666666666666667e-01  1.666666666666665e-01  3.333333333333333e-01
-1.666666666666667e-01  1.666666666666665e-01  3.333333333333333e-01
-1.666666666666667e-01  1.666666666666665e-01  3.333333333333333e-01
-1.666666666666667e-01  1.666666666666665e-01  3.333333333333333e-01
-1.666666666666667e-01  1.666666666666665e-01  3.333333333333333e-01
-1.666666666666667e-01  1.666666666666665e-01  3.333333333333333e-01
-1.666666666666667e-01  1.666666666666665e-01  3.333333333333333e-01
-1.666666666666667e-01  1.666666666666665e-01  3.333333333333333e-01
-1.666666666666667e-01  1.666666666666665e-01  3.333333333333333e-01
-1.666666666666667e-01  1.666666666666665e-01  3.333333333333333e-01
-1.666666666666667e-01  1.666666666666665e-01  3.333333333333333e-01
-1.666666666666667e-01  1.666666666666665e-01  3.333333333333333e-01
-1.666666666666667e-01  1.666666666666665e-01  3.333333333333333e-01
-1.666666666666667e-01  1.666666666666665e-01  3.333333333333333e-01
-1.666666666666667e-01  1.666666666666665e-01  3.333333333333333e-01
-1.666666666666667e-01  1.666666666666665e-01  3.333333333333333e-01
-1.666666666666667e-01  1.666666666666665e-01  3.333333333333333e-01
-1.666666666666667e-01  1.666666666666665e-01  3.333333333333333e-01
-1.666666666666667e-01  1.666666666666665e-01  3.333333333333333e-01
-1.666666666666667e-01  1.666666666666665e-01  3.333333333333333e-01
-1.666666666666667e-01  1.666666666666665e-01  3.333333333333333e-01
-1.666666666666667e-01  1.666666666666665e-01  3.333333333333333e-01
-1.666666666666667e-01  1.666666666666665e-01  3.333333333333333e-01
-1.666666666666667e-01  1.666666666666665e-01  3.333333333333333e-01
-1.666666666666667e-01  1.666666666666665e-01  3.333333333333333e-01
-1.666666666666667e-01  1.666666666666665e-01  3.333333333333333e-01
-1.666666666666667e-01  1.666666666666665e-01  3.333333333333333e-01
-1.666666666666667e-01  1.666666666666665e-01  3.333333333333333e-01
-1.666666666666667e-01  1.666666666666665e-01  3.333333333333333e-01
-1.666666666666667e-01  1.666666666666665e-01  3.333333333333333e-01
-1.666666666666667e-01  1.666666666666665e-01  3.333333333333333e-01
-1.666666666666667e-01  1.666666666666665e-01  3.333333333333333e-01
-1.666666666666667e-01  1.666666666666665e-01  3.333333333333333e-01
-1.666666666666667e-01  1.666666666666665e-01  3.333333333333333e-01
-1.666666666666667e-01  1.666666666666665e-01  3.333333333333333e-01
-1.666666666666667e-01  1.666666666666665e-01  3.333333333333333e-01
-1.666666666666667e-01  1.666666666666665e-01  3.333333333333333e-01
-1.666666666666667e-01  1.666666666666665e-01  3.333333333333333e-01
-1.666666666666667e-01  1.666666666666665e-01  3.333333333333333e-01
-1.666666666666667e-01  1.666666666666665e-01  3.333333333333333e-01
-1.666666666666667e-01  1.666666666666665e-01  3.333333333333333e-01
-1.666666666666667e-01  1.666666666666665e-01  3.333333333333333e-01
-1.666666666666667e-01  1.666666666666665e-01  3.333333333333333e-01
-1.666666666666667e-01  1.666666666666665e-01  3.333333333333333e-01
-1.666666666666667e-01  1.666666666666665e-01  3.333333333333333e-01
-1.666666666666667e-01  1.666666666666665e-01  3.333333333333333e-01
-1.666666666666667e-01  1.666666666666665e-01  3.333333333333333e-01
-1.666666666666667e-01  1.666666666666665e-01  3.333333333333333e-01
-1.666666666666667e-01  1.666666666666665e-01  3.333333333333333e-01
-1.666666666666667e-01  1.666666666666665e-01  3.333333333333333e-01
-1.666666666666667e-01  1.666666666666665e-01  3.333333333333333e-01
-1.666666666666667e-01  1.666666666666665e-01  3.333333333333333e-01
-1.666666666666667e-01  1.666666666666665e-01  3.333333333333333e-01
-1.666666666666667e-01  1.666666666666665e-01  3.333333333333333e-01
-1.666666666666667e-01  1.666666666666665e-01  3.333333333333333e-01
-1.666666666666667e-01  1.666666666666665e-01  3.333333333333333e-01
-1.666666666666667e-01  1.666666666666665e-01  3.333333333333333e-01
-1.666666666666667e-01  1.666666666666665e-01  3.333333333333333e-01
-1.666666666666667e-01  1.666666666666665e-01  3.333333333333333e-01
-1.666666666666667e-01  1.666666666666665e-01  3.333333333333333e-01
-1.666666666666667e-01  1.666666666666665e-01  3.333333333333333e-01
-1.666666666666667e-01  1.666666666666665e-01  3.333333333333333e-01
-1.666666666666667e-01  1.666666666666665e-01  3.333333333333333e-01
-1.666666666666667e-01  1.666666666666665e-01  3.333333333333333e-01
-1.666666666666667e-01  1.666666666666665e-01  3.333333333333333e-01
-1.666666666666667e-01  1.666666666666665e-01  3.333333333333333e-01
-1.666666666666667e-01  1.666666666666665e-01  3.333333333333333e-01
-1.666666666666667e-01  1.666666666666665e-01  3.333333333333333e-01
-1.666666666666667e-01  1.666666666666665e-01  3.333333333333333e-01
-1.666666666666667e-01  1.666666666666665e-01  3.333333333333333e-01
-1.666666666666667e-01  1.666666666666665e-01  3.333333333333333e-01
-1.666666666666667e-01  1.666666666666665e-01  3.333333333333333e-01
-1.666666666666667e-01  1.666666666666665e-01  3.333333333333333e-01
-1.666666666666667e-01  1.666666666666665e-01  3.333333333333333e-01
-1.666666666666667e-01  1.666666666666665e-01  3.333333333333333e-01
-1.666666666666667e-01  1.666666666666665e-01  3.333333333333333e-01
-1.666666666666667e-01  1.666666666666665e-01  3.333333333333333e-01
-1.666666666666667e-01  1.666666666666665e-01  3.333333333333333e-01
-1.666666666666667e-01  1.666666666666665e-01  3.333333333333333e-01
-1.666666666666667e-01  1.666666666666665e-01  3.333333333333333e-01
-1.666666666666667e-01  1.666666666666665e-01  3.333333333333333e-01
-1.666666666666667e-01  1.666666666666665e-01  3.333333333333333e-01
-1.666666666666667e-01  1.666666666666665e-01  3.333333333333333e-01
-1.666666666666667e-01  1.666666666666665e-01  3.333333333333333e-01
-1.666666666666667e-01  1.666666666666665e-01  3.333333333333333e-01
-1.666666666666667e-01  1.666666666666665e-01  3.333333333333333e-01
-1.666666666666667e-01  1.666666666666665e-01  3.333333333333333e-01
-1.666666666666667e-01  1.666666666666665e-01  3.333333333333333e-01
-1.666666666666667e-01  1.666666666666665e-01  3.333333333333333e-01
-1.666666666666667e-01  1.666666666666665e-01  3.333333333333333e-01
-1.666666666666667e-01  1.666666666666665e-01  3.333333333333333e-01
-1.666666666666667e-01  1.666666666666665e-01  3.333333333333333e-01
-1.666666666666667e-01  1.666666666666665e-01  3.333333333333333e-01
-1.666666666666667e-01  1.666666666666665e-01  3.333333333333333e-01
-1.666666666666667e-01  1.666666666666665e-01  3.333333333333333e-01
-1.666666666666667e-01  1.666666666666665e-01  3.333333333333333e-01
-1.666666666666667e-01  1.666666666666665e-01  3.333333333333333e-01
-1.666666666666667e-01  1.666666666666665e-01  3.333333333333333e-01
-1.666666666666667e-01  1.666666666666665e-01  3.333333333333333e-01
-1.666666666666667e-01  1.666666666666665e-01  3.333333333333333e-01
-1.666666666666667e-01  1.666666666666665e-01  3.333333333333333e-01
-1.666666666666667e-01  1.666666666666665e-01  3.333333333333333e-01
-1.666666666666667e-01  1.666666666666665e-01  3.333333333333333e-01
-1.666666666666667e-01  1.666666666666665e-01  3.333333333333333e-01
-1.666666666666667e-01  1.666666666666665e-01  3.333333333333333e-01
-1.666666666666667e-01  1.666666666666665e-01  3.333333333333333e-01
-1.666666666666667e-01  1.666666666666665e-01  3.333333333333333e-01
-1.666666666666667e-01  1.666666666666665e-01  3.333333333333333e-01
-1.666666666666667e-01  1.666666666666665e-01  3.333333333333333e-01
-1.666666666666667e-01  1.666666666666665e-01  3.333333333333333e-01
-1.666666666666667e-01  1.666666666666665e-01  3.333333333333333e-01
-1.666666666666667e-01  1.666666666666665e-01  3.333333333333333e-01
-1.666666666666667e-01  1.666666666666665e-01  3.333333333333333e-01
-1.666666666666667e-01  1.666666666666665e-01  3.333333333333333e-01
-1.666666666666667e-01  1.666666666666665e-01  3.333333333333333e-01
-1.666666666666667e-01  1.666666666666665e-01  3.333333333333333e-01
-1.666666666666667e-01  1.666666666666665e-01  3.333333333333333e-01
-1.666666666666667e-01  1.666666666666665e-01  3.333333333333333e-01
-1.666666666666667e-01  1.666666666666665e-01  3.333333333333333e-01
-1.666666666666667e-01  1.666666666666665e-01  3.333333333333333e-01
-1.666666666666667e-01  1.666666666666665e-01  3.333333333333333e-01
-1.666666666666667e-01  1.666666666666665e-01  3.333333333333333e-01
-1.666666666666667e-01  1.666666666666665e-01  3.333333333333333e-01
-1.666666666666667e-01  1.666666666666665e-01  3.333333333333333e-01
 1.666666666666667e-01 -1.666666666666665e-01 -3.333333333333333e-01
-1.666666666666667e-01  1.666666666666665e-01  3.333333333333333e-01
-1.666666666666667e-01  1.666666666666665e-01  3.333333333333333e-01
-1.666666666666667e-01  1.666666666666665e-01  3.333333333333333e-01
-1.666666666666667e-01  1.666666666666665e-01  3.333333333333333e-01
-1.666666666666667e-01  1.666666666666665e-01  3.333333333333333e-01
-1.666666666666667e-01  1.666666666666665e-01  3.333333333333333e-01
-1.666666666666667e-01  1.666666666666665e-01  3.333333333333333e-01
-1.666666666666667e-01  1.666666666666665e-01  3.333333333333333e-01
-1.666666666666667e-01  1.666666666666665e-01  3.333333333333333e-01
-1.666666666666667e-01  1.666666666666665e-01  3.333333333333333e-01
-1.666666666666667e-01  1.666666666666665e-01  3.333333333333333e-01
-1.666666666666667e-01  1.666666666666665e-01  3.333333333333333e-01
-1.666666666666667e-01  1.666666666666665e-01  3.333333333333333e-01
-1.666666666666667e-01  1.666666666666665e-01  3.333333333333333e-01
-1.666666666666667e-01  1.666666666666665e-01  3.333333333333333e-01
-1.666666666666667e-01  1.666666666666665e-01  3.333333333333333e-01
-1.666666666666667e-01  1.666666666666665e-01  3.333333333333333e-01
-1.666666666666667e-01  1.666666666666665e-01  3.333333333333333e-01
-1.666666666666667e-01  1.666666666666665e-01  3.333333333333333e-01
-1.666666666666667e-01  1.666666666666665e-01  3.333333333333333e-01
-1.666666666666667e-01  1.666666666666665e-01  3.333333333333333e-01
-1.666666666666667e-01  1.666666666666665e-01  3.333333333333333e-01
-1.666666666666667e-01  1.666666666666665e-01  3.333333333333333e-01
-1.666666666666667e-01  1.666666666666665e-01  3.333333333333333e-01
-1.666666666666667e-01  1.666666666666665e-01  3.333333333333333e-01
-1.666666666666667e-01  1.666666666666665e-01  3.333333333333333e-01
-1.666666666666667e-01  1.666666666666665e-01  3.333333333333333e-01
-1.666666666666667e-01  1.666666666666665e-01  3.333333333333333e-01
-1.666666666666667e-01  1.666666666666665e-01  3.333333333333333e-01
-1.666666666666667e-01  1.666666666666665e-01  3.333333333333333e-01
-1.666666666666667e-01  1.666666666666665e-01  3.333333333333333e-01
-1.666666666666667e-01  1.666666666666665e-01  3.333333333333333e-01
-1.666666666666667e-01  1.666666666666665e-01  3.333333333333333e-01
-1.666666666666667e-01  1.666666666666665e-01  3.333333333333333e-01
-1.666666666666667e-01  1.666666666666665e-01  3.333333333333333e-01
-1.666666666666667e-01  1.666666666666665e-01  3.333333333333333e-01
-1.666666666666667e-01  1.666666666666665e-01  3.333333333333333e-01
-1.666666666666667e-01  1.666666666666665e-01  3.333333333333333e-01
-1.666666666666667e-01  1.666666666666665e-01  3.333333333333333e-01
-1.666666666666667e-01  1.666666666666665e-01  3.333333333333333e-01
-1.666666666666667e-01  1.666666666666665e-01  3.333333333333333e-01
-1.666666666666667e-01  1.666666666666665e-01  3.333333333333333e-01
-1.666666666666667e-01  1.666666666666665e-01  3.333333333333333e-01
-1.666666666666667e-01  1.666666666666665e-01  3.333333333333333e-01
-1.666666666666667e-01  1.666666666666665e-01  3.333333333333333e-01
-1.666666666666667e-01  1.666666666666665e-01  3.333333333333333e-01
-1.666666666666667e-01  1.666666666666665e-01  3.333333333333333e-01
-1.666666666666667e-01  1.666666666666665e-01  3.333333333333333e-01
-1.666666666666667e-01  1.666666666666665e-01  3.333333333333333e-01
-1.666666666666667e-01  1.666666666666665e-01  3.333333333333333e-01
-1.666666666666667e-01  1.666666666666665e-01  3.333333333333333e-01
-1.666666666666667e-01  1.666666666666665e-01  3.333333333333333e-01
-1.666666666666667e-01  1.666666666666665e-01  3.333333333333333e-01
-1.666666666666667e-01  1.666666666666665e-01  3.333333333333333e-01
-1.666666666666667e-01  1.666666666666665e-01  3.333333333333333e-01
-1.666666666666667e-01  1.666666666666665e-01  3.333333333333333e-01
-1.666666666666667e-01  1.666666666666665e-01  3.333333333333333e-01
-1.666666666666667e-01  1.666666666666665e-01  3.333333333333333e-01
-1.666666666666667e-01  1.666666666666665e-01  3.333333333333333e-01
-1.666666666666667e-01  1.666666666666665e-01  3.333333333333333e-01
-1.666666666666667e-01  1.666666666666665e-01  3.333333333333333e-01
-1.666666666666667e-01  1.666666666666665e-01  3.333333333333333e-01
-1.666666666666667e-01  1.666666666666665e-01  3.333333333333333e-01
-1.666666666666667e-01  1.666666666666665e-01  3.333333333333333e-01
-1.666666666666667e-01  1.666666666666665e-01  3.333333333333333e-01
-1.666666666666667e-01  1.666666666666665e-01  3.333333333333333e-01
-1.666666666666667e-01  1.666666666666665e-01  3.333333333333333e-01
-1.666666666666667e-01  1.666666666666665e-01  3.333333333333333e-01
-1.666666666666667e-01  1.666666666666665e-01  3.333333333333333e-01
-1.666666666666667e-01  1.666666666666665e-01  3.333333333333333e-01
-1.666666666666667e-01  1.666666666666665e-01  3.333333333333333e-01
-1.666666666666667e-01  1.666666666666665e-01  3.333333333333333e-01
-1.666666666666667e-01  1.666666666666665e-01  3.333333333333333e-01
-1.666666666666667e-01  1.666666666666665e-01  3.333333333333333e-01
-1.666666666666667e-01  1.666666666666665e-01  3.333333333333333e-01
-1.666666666666667e-01  1.666666666666665e-01  3.333333333333333e-01
-1.666666666666667e-01  1.666666666666665e-01  3.333333333333333e-01
-1.666666666666667e-01  1.666666666666665e-01  3.333333333333333e-01
-1.666666666666667e-01  1.666666666666665e-01  3.333333333333333e-01
-1.666666666666667e-01  1.666666666666665e-01  3.333333333333333e-01
-1.666666666666667e-01  1.666666666666665e-01  3.333333333333333e-01
-1.666666666666667e-01  1.666666666666665e-01  3.333333333333333e-01
-1.666666666666667e-01  1.666666666666665e-01  3.333333333333333e-01
-1.666666666666667e-01  1.666666666666665e-01  3.333333333333333e-01
-1.666666666666667e-01  1.666666666666665e-01  3.333333333333333e-01
-1.666666666666667e-01  1.666666666666665e-01  3.333333333333333e-01
-1.666666666666667e-01  1.666666666666665e-01  3.333333333333333e-01
-1.666666666666667e-01  1.666666666666665e-01  3.333333333333333e-01
-1.666666666666667e-01  1.666666666666665e-01  3.333333333333333e-01
-1.666666666666667e-01  1.666666666666665e-01  3.333333333333333e-01
-1.666666666666667e-01  1.666666666666665e-01  3.333333333333333e-01
-1.666666666666667e-01  1.666666666666665e-01  3.333333333333333e-01
-1.666666666666667e-01  1.666666666666665e-01  3.333333333333333e-01
-1.666666666666667e-01  1.666666666666665e-01  3.333333333333333e-01
-1.666666666666667e-01  1.666666666666665e-01  3.333333333333333e-01
-1.666666666666667e-01  1.666666666666665e-01  3.333333333333333e-01
-1.666666666666667e-01  1.666666666666665e-01  3.333333333333333e-01
-1.666666666666667e-01  1.666666666666665e-01  3.333333333333333e-01
-1.666666666666667e-01  1.666666666666665e-01  3.333333333333333e-01
-1.666666666666667e-01  1.666666666666665e-01  3.333333333333333e-01
-1.666666666666667e-01  1.666666666666665e-01  3.333333333333333e-01
-1.666666666666667e-01  1.666666666666665e-01  3.333333333333333e-01
-1.666666666666667e-01  1.666666666666665e-01  3.333333333333333e-01
-1.666666666666667e-01  1.666666666666665e-01  3.333333333333333e-01
-1.666666666666667e-01  1.666666666666665e-01  3.333333333333333e-01
-1.666666666666667e-01  1.666666666666665e-01  3.333333333333333e-01
-1.666666666666667e-01  1.666666666666665e-01  3.333333333333333e-01
-1.666666666666667e-01  1.666666666666665e-01  3.333333333333333e-01
-1.666666666666667e-01  1.666666666666665e-01  3.333333333333333e-01
-1.666666666666667e-01  1.666666666666665e-01  3.333333333333333e-01
-1.666666666666667e-01  1.666666666666665e-01  3.333333333333333e-01
-1.666666666666667e-01  1.666666666666665e-01  3.333333333333333e-01
-1.666666666666667e-01  1.666666666666665e-01  3.333333333333333e-01
-1.666666666666667e-01  1.666666666666665e-01  3.333333333333333e-01
-1.666666666666667e-01  1.666666666666665e-01  3.333333333333333e-01
-1.666666666666667e-01  1.666666666666665e-01  3.333333333333333e-01
-1.666666666666667e-01  1.666666666666665e-01  3.333333333333333e-01
-1.666666666666667e-01  1.666666666666665e-01  3.333333333333333e-01
-1.666666666666667e-01  1.666666666666665e-01  3.333333333333333e-01
-1.666666666666667e-01  1.666666666666665e-01  3.333333333333333e-01
-1.666666666666667e-01  1.666666666666665e-01  3.333333333333333e-01
-1.666666666666667e-01  1.666666666666665e-01  3.333333333333333e-01
-1.666666666666667e-01  1.666666666666665e-01  3.333333333333333e-01
-1.666666666666667e-01  1.666666666666665e-01  3.333333333333333e-01
-1.666666666666667e-01  1.666666666666665e-01  3.333333333333333e-01
-1.666666666666667e-01  1.666666666666665e-01  3.333333333333333e-01
-1.666666666666667e-01  1.666666666666665e-01  3.333333333333333e-01
-1.666666666666667e-01  1.666666666666665e-01  3.333333333333333e-01
-1.666666666666667e-01  1.666666666666665e-01  3.333333333333333e-01
-1.666666666666667e-01  1.666666666666665e-01  3.333333333333333e-01
-1.666666666666667e-01  1.666666666666665e-01  3.333333333333333e-01
-1.666666666666667e-01  1.666666666666665e-01  3.333333333333333e-01
-1.666666666666667e-01  1.666666666666665e-01  3.333333333333333e-01
-1.666666666666667e-01  1.666666666666665e-01  3.333333333333333e-01
-1.666666666666667e-01  1.666666666666665e-01  3.333333333333333e-01
-1.666666666666667e-01  1.666666666666665e-01  3.333333333333333e-01
-1.666666666666667e-01  1.666666666666665e-01  3.333333333333333e-01
-1.666666666666667e-01  1.666666666666665e-01  3.333333333333333e-01
-1.666666666666667e-01  1.666666666666665e-01  3.333333333333333e-01
-1.666666666666667e-01  1.666666666666665e-01  3.333333333333333e-01
-1.666666666666667e-01  1.666666666666665e-01  3.333333333333333e-01
-1.666666666666667e-01  1.666666666666665e-01  3.333333333333333e-01
-1.666666666666667e-01  1.666666666666665e-01  3.333333333333333e-01
-1.666666666666667e-01  1.666666666666665e-01  3.333333333333333e-01
-1.666666666666667e-01  1.666666666666665e-01  3.333333333333333e-01
-1.666666666666667e-01  1.666666666666665e-01  3.333333333333333e-01
-1.666666666666667e-01  1.666666666666665e-01  3.333333333333333e-01
-1.666666666666667e-01  1.666666666666665e-01  3.333333333333333e-01
-1.666666666666667e-01  1.666666666666665e-01  3.333333333333333e-01
-1.666666666666667e-01  1.666666666666665e-01  3.333333333333333e-01
-1.666666666666667e-01  1.666666666666665e-01  3.333333333333333e-01
-1.666666666666667e-01  1.666666666666665e-01  3.333333333333333e-01
-1.666666666666667e-01  1.666666666666665e-01  3.333333333333333e-01
-1.666666666666667e-01  1.666666666666665e-01  3.333333333333333e-01
-1.666666666666667e-01  1.666666666666665e-01  3.333333333333333e-01
-1.666666666666667e-01  1.666666666666665e-01  3.333333333333333e-01
-1.666666666666667e-01  1.666666666666665e-01  3.333333333333333e-01
-1.666666666666667e-01  1.666666666666665e-01  3.333333333333333e-01
