# vtk DataFile Version 3.0
# Dislocation lines converted from MoDELib file
ASCII
DATASET UNSTRUCTURED_GRID
POINTS 3103 double
-1.429999999999877e+00  3.863858941524650e+02 -2.918975276816622e+03
-1.429999999999897e+00 -3.863858941524674e+02 -2.918975276816622e+03
-1.429999999999897e+00  0.000000000000000e+00 -2.918975276816622e+03
-1.430000000000221e+00  0.000000000000000e+00  2.918975276816619e+03
-1.430000000000221e+00 -3.863858941524674e+02  2.918975276816619e+03
-1.430000000000201e+00  3.863858941524653e+02  2.918975276816619e+03
-1.148591569792153e+03  1.107319922302243e+00 -2.918975276816622e+03
-1.148583274484166e+03 -1.003935552088267e+00 -2.918975276816622e+03
-1.148372625045200e+03 -1.685595640555409e+00 -2.918975276816622e+03
-1.148578893064531e+03 -3.939207446654319e+00 -2.918975276816622e+03
-1.148716766989477e+03 -5.244618834536965e+00 -2.918975276816622e+03
-1.148557501512589e+03 -6.423325311908707e+00 -2.918975276816622e+03
-1.148456841380016e+03 -8.207328513227917e+00 -2.918975276816622e+03
-1.148596301060385e+03 -1.301082734790845e+01 -2.918975276816622e+03
-1.148529914200088e+03 -1.369385520525647e+01 -2.918975276816622e+03
-1.148520715363760e+03 -1.660987196644956e+01 -2.918975276816622e+03
-1.148485993055049e+03 -2.010194197400658e+01 -2.918975276816622e+03
-1.148518197008773e+03 -2.289936892540669e+01 -2.918975276816622e+03
-1.148431185083067e+03 -2.693987415567836e+01 -2.918975276816622e+03
-1.148288707888283e+03 -2.806964208270354e+01 -2.918975276816622e+03
-1.148130348791321e+03 -3.242718098495372e+01 -2.918975276816622e+03
-1.147406536986050e+03 -3.227119907009290e+01 -2.918975276816622e+03
-1.148166540126718e+03 -3.499630372676263e+01 -2.918975276816622e+03
-1.148021762574883e+03 -3.590119067904003e+01 -2.918975276816622e+03
-1.147950523093838e+03 -3.839898410118717e+01 -2.918975276816622e+03
-1.147890341280403e+03 -3.997932380538933e+01 -2.918975276816622e+03
-1.148438809944143e+03 -4.108794946588306e+01 -2.918975276816622e+03
-1.147852540563943e+03 -4.335356243144993e+01 -2.918975276816622e+03
-1.147449231452417e+03 -4.509759389991030e+01 -2.918975276816622e+03
-1.147571320160283e+03 -4.975152123195586e+01 -2.918975276816622e+03
-1.147613930484711e+03 -5.032284369407765e+01 -2.918975276816622e+03
-1.147423245159241e+03 -5.216738090405033e+01 -2.918975276816622e+03
-1.147465566705725e+03 -5.415778982325143e+01 -2.918975276816622e+03
-1.147338171779409e+03 -5.432658550741974e+01 -2.918975276816622e+03
-1.147395733272743e+03 -5.592882441309114e+01 -2.918975276816622e+03
-1.147529843098869e+03 -5.845457603195044e+01 -2.918975276816622e+03
-1.147592213866292e+03 -6.014740021631416e+01 -2.918975276816622e+03
-1.147576914364876e+03 -6.138102271965376e+01 -2.918975276816622e+03
-1.147591088099291e+03 -6.331720068098407e+01 -2.918975276816622e+03
-1.147688804636537e+03 -6.434037607640482e+01 -2.918975276816622e+03
-1.147676270430830e+03 -6.630402716899522e+01 -2.918975276816622e+03
-1.147587228839830e+03 -6.735216755788862e+01 -2.918975276816622e+03
-1.147655205258585e+03 -6.988192509684984e+01 -2.918975276816622e+03
-1.147509322325034e+03 -7.059145486285490e+01 -2.918975276816622e+03
-1.147743541135608e+03 -7.214881036811806e+01 -2.918975276816622e+03
-1.148021812616494e+03 -7.422350010612757e+01 -2.918975276816622e+03
-1.147731279969104e+03 -7.529250755226617e+01 -2.918975276816622e+03
-1.147605326629147e+03 -7.627626525636515e+01 -2.918975276816622e+03
-1.147710241614635e+03 -7.830451397276549e+01 -2.918975276816622e+03
-1.148251352401028e+03 -8.028778109960685e+01 -2.918975276816622e+03
-1.147728180525507e+03 -8.142290252656746e+01 -2.918975276816622e+03
-1.147725756899294e+03 -8.336439943630675e+01 -2.918975276816622e+03
-1.147718028564769e+03 -8.501054111644865e+01 -2.918975276816622e+03
-1.147823775648061e+03 -8.766140535467524e+01 -2.918975276816622e+03
-1.147756100184497e+03 -8.954013467592716e+01 -2.918975276816622e+03
-1.147783760699857e+03 -9.040443979413884e+01 -2.918975276816622e+03
-1.147712876183552e+03 -9.210540869028213e+01 -2.918975276816622e+03
-1.147717658453155e+03 -9.486523960842975e+01 -2.918975276816622e+03
-1.147659454264155e+03 -9.555344760435366e+01 -2.918975276816622e+03
-1.147694272389044e+03 -9.844938274379285e+01 -2.918975276816622e+03
-1.147679250768013e+03 -1.003103020486977e+02 -2.918975276816622e+03
-1.147712251327350e+03 -1.013927152173018e+02 -2.918975276816622e+03
-1.147626988377180e+03 -1.032452275813255e+02 -2.918975276816622e+03
-1.147634564294841e+03 -1.042324062280558e+02 -2.918975276816622e+03
-1.147589563733028e+03 -1.061812305837470e+02 -2.918975276816622e+03
-1.147657366528753e+03 -1.072510999588868e+02 -2.918975276816622e+03
-1.147525523153143e+03 -1.097225270207690e+02 -2.918975276816622e+03
-1.147537156985353e+03 -1.105038474786742e+02 -2.918975276816622e+03
-1.147461624028785e+03 -1.122555050104136e+02 -2.918975276816622e+03
-1.147605370971711e+03 -1.141465288080291e+02 -2.918975276816622e+03
-1.147442113536106e+03 -1.142562959238590e+02 -2.918975276816622e+03
-1.147559096585384e+03 -1.157658698399251e+02 -2.918975276816622e+03
-1.147484533119914e+03 -1.183404951385573e+02 -2.918975276816622e+03
-1.147406455289045e+03 -1.201485428035604e+02 -2.918975276816622e+03
-1.147502809821084e+03 -1.213349913621032e+02 -2.918975276816622e+03
-1.147733612177054e+03 -1.234490311763940e+02 -2.918975276816622e+03
-1.147442079584653e+03 -1.248186361094548e+02 -2.918975276816622e+03
-1.147451525808980e+03 -1.295945456427130e+02 -2.918975276816622e+03
-1.147475846887316e+03 -1.303477524401836e+02 -2.918975276816622e+03
-1.147471000683044e+03 -1.322148431889773e+02 -2.918975276816622e+03
-1.147481887212042e+03 -1.341658341846843e+02 -2.918975276816622e+03
-1.147437586603111e+03 -1.344704062792633e+02 -2.918975276816622e+03
-1.147442849617209e+03 -1.357681927530506e+02 -2.918975276816622e+03
-1.147499022326585e+03 -1.384029347118519e+02 -2.918975276816622e+03
-1.147559978931367e+03 -1.400527447348673e+02 -2.918975276816622e+03
-1.147515062665552e+03 -1.412640341944848e+02 -2.918975276816622e+03
-1.147599560777230e+03 -1.431662787466952e+02 -2.918975276816622e+03
-1.147574726802671e+03 -1.441283863209226e+02 -2.918975276816622e+03
-1.147696637599824e+03 -1.461344977567182e+02 -2.918975276816622e+03
-1.147630624601099e+03 -1.471485217569264e+02 -2.918975276816622e+03
-1.147727545628215e+03 -1.496380618672157e+02 -2.918975276816622e+03
-1.147695026320294e+03 -1.503409471022977e+02 -2.918975276816622e+03
-1.147782632601232e+03 -1.520364458976474e+02 -2.918975276816622e+03
-1.147765772963975e+03 -1.540337151244753e+02 -2.918975276816622e+03
-1.147785440975485e+03 -1.540841435177159e+02 -2.918975276816622e+03
-1.147767896557758e+03 -1.559648168086580e+02 -2.918975276816622e+03
-1.147836117606323e+03 -1.601736658416607e+02 -2.918975276816622e+03
-1.147816886469565e+03 -1.612322461578134e+02 -2.918975276816622e+03
-1.147820988807503e+03 -1.631935574397835e+02 -2.918975276816622e+03
-1.147833607581700e+03 -1.647294192173324e+02 -2.918975276816622e+03
-1.147836019526003e+03 -1.694810835663318e+02 -2.918975276816622e+03
-1.147519497549182e+03 -1.693012737371779e+02 -2.918975276816622e+03
-1.147837918526865e+03 -1.723397363387285e+02 -2.918975276816622e+03
-1.147921545686976e+03 -1.756639907933351e+02 -2.918975276816622e+03
-1.147979102884518e+03 -1.783164909261847e+02 -2.918975276816622e+03
-1.147926355217370e+03 -1.802122915175798e+02 -2.918975276816622e+03
-1.147986922028060e+03 -1.812710917732195e+02 -2.918975276816622e+03
-1.147966081700190e+03 -1.831489097107210e+02 -2.918975276816622e+03
-1.147996286819561e+03 -1.847082191062517e+02 -2.918975276816622e+03
-1.148035472093669e+03 -1.894922925791922e+02 -2.918975276816622e+03
-1.148008653393860e+03 -1.901326914208361e+02 -2.918975276816622e+03
-1.148008528473129e+03 -1.919391332874577e+02 -2.918975276816622e+03
-1.148016319357402e+03 -1.939017075267356e+02 -2.918975276816622e+03
-1.148027060523661e+03 -1.942980901660107e+02 -2.918975276816622e+03
-1.147980234725890e+03 -1.960460696326581e+02 -2.918975276816622e+03
-1.148017167715998e+03 -2.000616959607625e+02 -2.918975276816622e+03
-1.147982636811501e+03 -2.010755225168547e+02 -2.918975276816622e+03
-1.148047447067082e+03 -2.031070865447009e+02 -2.918975276816622e+03
-1.147978997536246e+03 -2.040597292053320e+02 -2.918975276816622e+03
-1.147999736202754e+03 -2.060294216700544e+02 -2.918975276816622e+03
-1.147976680184098e+03 -2.070726920832422e+02 -2.918975276816622e+03
-1.148013642802587e+03 -2.095855602067710e+02 -2.918975276816622e+03
-1.147959582707239e+03 -2.103973255772416e+02 -2.918975276816622e+03
-1.147965125717442e+03 -2.124253309157082e+02 -2.918975276816622e+03
-1.147911991632002e+03 -2.156060349942238e+02 -2.918975276816622e+03
-1.147892568527140e+03 -2.182329721307715e+02 -2.918975276816622e+03
-1.147843174628669e+03 -2.201115285761606e+02 -2.918975276816622e+03
-1.147841786607046e+03 -2.212145832212273e+02 -2.918975276816622e+03
-1.147771268991372e+03 -2.230836722683423e+02 -2.918975276816622e+03
-1.147741910853511e+03 -2.246483110727934e+02 -2.918975276816622e+03
-1.147554464426957e+03 -2.294628946392066e+02 -2.918975276816622e+03
-1.147494191252915e+03 -2.301921141075760e+02 -2.918975276816622e+03
-1.147429957849187e+03 -2.319930234363964e+02 -2.918975276816622e+03
-1.147236065753994e+03 -2.337619691419659e+02 -2.918975276816622e+03
-1.147216558021499e+03 -2.338479961997088e+02 -2.918975276816622e+03
-1.147508014904810e+03 -2.355420026447483e+02 -2.918975276816622e+03
-1.147546045165677e+03 -2.381306667347197e+02 -2.918975276816622e+03
-1.147695118025414e+03 -2.401145038117749e+02 -2.918975276816622e+03
-1.147707051765296e+03 -2.411622230586596e+02 -2.918975276816622e+03
-1.147847361902501e+03 -2.431466754605686e+02 -2.918975276816622e+03
-1.147813725191322e+03 -2.444591649219230e+02 -2.918975276816622e+03
-1.147940304071617e+03 -2.470218523372560e+02 -2.918975276816622e+03
-1.147936001981498e+03 -2.470696736425403e+02 -2.918975276816622e+03
-1.147967624593052e+03 -2.498157756113222e+02 -2.918975276816622e+03
-1.147926149204125e+03 -2.508536405154669e+02 -2.918975276816622e+03
-1.147958307490192e+03 -2.516433772822803e+02 -2.918975276816622e+03
-1.147930185341806e+03 -2.539496501316132e+02 -2.918975276816622e+03
-1.147913789668512e+03 -2.552358829034008e+02 -2.918975276816622e+03
-1.147796831079447e+03 -2.573864965001417e+02 -2.918975276816622e+03
-1.147890356715378e+03 -2.577631856174614e+02 -2.918975276816622e+03
-1.147920268506848e+03 -2.601667046421812e+02 -2.918975276816622e+03
-1.147854658498841e+03 -2.609260625835859e+02 -2.918975276816622e+03
-1.147712494200380e+03 -2.633995297709833e+02 -2.918975276816622e+03
-1.147737134326571e+03 -2.661363230979664e+02 -2.918975276816622e+03
-1.147874490901580e+03 -2.710910638458608e+02 -2.918975276816622e+03
-1.147986557776178e+03 -2.738517208704640e+02 -2.918975276816622e+03
-1.148149505796034e+03 -2.755070849398284e+02 -2.918975276816622e+03
-1.147751343904049e+03 -2.773839921762402e+02 -2.918975276816622e+03
-1.147929964956441e+03 -2.802875705243782e+02 -2.918975276816622e+03
-1.147924422096523e+03 -2.843496262426592e+02 -2.918975276816622e+03
-1.148049358860715e+03 -2.858226749050169e+02 -2.918975276816622e+03
-1.147969827263323e+03 -2.877521138941601e+02 -2.918975276816622e+03
-1.147945975050848e+03 -2.950587173302231e+02 -2.918975276816622e+03
-1.148042348465372e+03 -2.986289409070104e+02 -2.918975276816622e+03
-1.148069870437386e+03 -3.002727509301612e+02 -2.918975276816622e+03
-1.148133547159199e+03 -3.036739763130156e+02 -2.918975276816622e+03
-1.147918331230845e+03 -3.042770319762891e+02 -2.918975276816622e+03
-1.148003792861328e+03 -3.073129634502162e+02 -2.918975276816622e+03
-1.147309366261280e+03 -3.107115617038765e+02 -2.918975276816622e+03
-1.148293288954450e+03 -3.140820735369068e+02 -2.918975276816622e+03
-1.148529887793576e+03 -3.181274358387082e+02 -2.918975276816622e+03
-1.148231913872143e+03 -3.228838352634477e+02 -2.918975276816622e+03
-1.147680789842813e+03 -3.253318213471066e+02 -2.918975276816622e+03
-1.148585961342972e+03 -3.264964932251093e+02 -2.918975276816622e+03
-1.148161071359062e+03 -3.302835380116375e+02 -2.918975276816622e+03
-1.146094926958361e+03 -3.336065471811701e+02 -2.918975276816622e+03
-1.147548356269721e+03 -3.354550329427071e+02 -2.918975276816622e+03
-1.147805996670987e+03 -3.387970838241727e+02 -2.918975276816622e+03
-1.147199979456750e+03 -3.431465746723557e+02 -2.918975276816622e+03
-1.147326912100302e+03 -3.457071111825199e+02 -2.918975276816622e+03
-1.146980392852769e+03 -3.466327932972465e+02 -2.918975276816622e+03
-1.148645892600136e+03 -3.470330203249819e+02 -2.918975276816622e+03
-1.148103885352431e+03 -3.488197374450629e+02 -2.918975276816622e+03
-1.148420939968132e+03 -3.528697403396433e+02 -2.918975276816622e+03
-1.147985605818203e+03 -3.537121463694015e+02 -2.918975276816622e+03
-1.149965702519405e+03 -3.563668530817054e+02 -2.918975276816622e+03
-1.146523334420768e+03 -3.561756811297133e+02 -2.918975276816622e+03
-1.147204562226368e+03 -3.580006695105724e+02 -2.918975276816622e+03
-1.147527922404857e+03 -3.588621263493043e+02 -2.918975276816622e+03
-1.147849231438693e+03 -3.622027670783496e+02 -2.918975276816622e+03
-1.148060292486863e+03 -3.696614135902416e+02 -2.918975276816622e+03
-1.148074626967184e+03 -3.717815388904446e+02 -2.918975276816622e+03
-1.148062210451402e+03 -3.740820474306429e+02 -2.918975276816622e+03
-1.148133113091411e+03 -3.743736685535310e+02 -2.918975276816622e+03
-1.148035509934322e+03 -3.763685285880343e+02 -2.918975276816622e+03
-1.148129614513084e+03 -3.775318627038052e+02 -2.918975276816622e+03
-1.148035913462435e+03 -3.796486292779978e+02 -2.918975276816622e+03
-1.148065317740805e+03 -3.799729992810318e+02 -2.918975276816622e+03
-1.148038350245498e+03 -3.823273482038396e+02 -2.918975276816622e+03
-1.148148846173815e+03 -3.860384010893713e+02 -2.918975276816622e+03
-1.148079388191032e+03  3.833373076233535e+02 -2.918975276816622e+03
-1.148110332377639e+03  3.785848754124797e+02 -2.918975276816622e+03
-1.148109939076747e+03  3.772909573736815e+02 -2.918975276816622e+03
-1.148118665672592e+03  3.765469000249985e+02 -2.918975276816622e+03
-1.148131545124086e+03  3.736666327452813e+02 -2.918975276816622e+03
-1.148150012961669e+03  3.684589138823713e+02 -2.918975276816622e+03
-1.148263240762331e+03  3.598638037787567e+02 -2.918975276816622e+03
-1.148111229403476e+03  3.575736803702117e+02 -2.918975276816622e+03
-1.148208369564458e+03  3.546586703380281e+02 -2.918975276816622e+03
-1.148178095443011e+03  3.527536585568458e+02 -2.918975276816622e+03
-1.148198207366089e+03  3.510417536156926e+02 -2.918975276816622e+03
-1.148267656339203e+03  3.485986642408024e+02 -2.918975276816622e+03
-1.148686288152496e+03  3.458812035685881e+02 -2.918975276816622e+03
-1.148136215230937e+03  3.443379531763028e+02 -2.918975276816622e+03
-1.148252643051445e+03  3.413432711840465e+02 -2.918975276816622e+03
-1.148250918484914e+03  3.405089205913389e+02 -2.918975276816622e+03
-1.148189838893256e+03  3.383520776810525e+02 -2.918975276816622e+03
-1.147895144205568e+03  3.297057480865288e+02 -2.918975276816622e+03
-1.147823801685324e+03  3.277074907251674e+02 -2.918975276816622e+03
-1.147904974096962e+03  3.260456508664647e+02 -2.918975276816622e+03
-1.147790607731676e+03  3.234600479481163e+02 -2.918975276816622e+03
-1.147645139975140e+03  3.234339719004574e+02 -2.918975276816622e+03
-1.147791166599053e+03  3.210711169691778e+02 -2.918975276816622e+03
-1.147826599604939e+03  3.202317152795986e+02 -2.918975276816622e+03
-1.148128349009976e+03  3.172653642116070e+02 -2.918975276816622e+03
-1.147743183722636e+03  3.132699408734750e+02 -2.918975276816622e+03
-1.148041690686328e+03  3.119632716965127e+02 -2.918975276816622e+03
-1.147742306742530e+03  3.097443979874132e+02 -2.918975276816622e+03
-1.147913796881717e+03  3.070100408713012e+02 -2.918975276816622e+03
-1.147660415485817e+03  3.049158262350137e+02 -2.918975276816622e+03
-1.147820246135546e+03  3.033618004999914e+02 -2.918975276816622e+03
-1.147817743990556e+03  3.011684995770108e+02 -2.918975276816622e+03
-1.147674987074659e+03  2.962579847469162e+02 -2.918975276816622e+03
-1.147725792513973e+03  2.959768341026809e+02 -2.918975276816622e+03
-1.147770826000560e+03  2.936668794419640e+02 -2.918975276816622e+03
-1.147769456958820e+03  2.890405973557151e+02 -2.918975276816622e+03
-1.147743070774338e+03  2.884923697681574e+02 -2.918975276816622e+03
-1.147774110182097e+03  2.862371922900765e+02 -2.918975276816622e+03
-1.147789646090785e+03  2.831652158112317e+02 -2.918975276816622e+03
-1.147796163270073e+03  2.820151952473299e+02 -2.918975276816622e+03
-1.147778212767351e+03  2.801004663864700e+02 -2.918975276816622e+03
-1.147832838532074e+03  2.780093264290056e+02 -2.918975276816622e+03
-1.147851811207098e+03  2.761847624016731e+02 -2.918975276816622e+03
-1.147875680264337e+03  2.756842548769648e+02 -2.918975276816622e+03
-1.147799435899853e+03  2.742157475288674e+02 -2.918975276816622e+03
-1.147725294755268e+03  2.717034153873930e+02 -2.918975276816622e+03
-1.147833720248545e+03  2.708806902106667e+02 -2.918975276816622e+03
-1.147920361461949e+03  2.691399352115091e+02 -2.918975276816622e+03
-1.147812214982600e+03  2.666846270869917e+02 -2.918975276816622e+03
-1.147830934179577e+03  2.655669893734695e+02 -2.918975276816622e+03
-1.147799687474817e+03  2.630303136172359e+02 -2.918975276816622e+03
-1.147838093016340e+03  2.610236403594736e+02 -2.918975276816622e+03
-1.147802375246681e+03  2.599888483044861e+02 -2.918975276816622e+03
-1.147825900875385e+03  2.580533628992734e+02 -2.918975276816622e+03
-1.147801315761352e+03  2.567088409443020e+02 -2.918975276816622e+03
-1.147775787951283e+03  2.513823885334213e+02 -2.918975276816622e+03
-1.147714241061010e+03  2.502407022760021e+02 -2.918975276816622e+03
-1.147780595298851e+03  2.494560479474765e+02 -2.918975276816622e+03
-1.147741904214666e+03  2.471366957717648e+02 -2.918975276816622e+03
-1.147757962381129e+03  2.457972486488518e+02 -2.918975276816622e+03
-1.147607338212249e+03  2.436571595146079e+02 -2.918975276816622e+03
-1.147702237055893e+03  2.433409480704516e+02 -2.918975276816622e+03
-1.147547050666480e+03  2.406851375012306e+02 -2.918975276816622e+03
-1.147658403087783e+03  2.400621381457223e+02 -2.918975276816622e+03
-1.147524128896169e+03  2.385598336120430e+02 -2.918975276816622e+03
-1.147598297196922e+03  2.362815946119191e+02 -2.918975276816622e+03
-1.147407593556091e+03  2.353641501219204e+02 -2.918975276816622e+03
-1.147523314947660e+03  2.340479929260932e+02 -2.918975276816622e+03
-1.147298983905852e+03  2.319653666594377e+02 -2.918975276816622e+03
-1.147579819825081e+03  2.305496912357193e+02 -2.918975276816622e+03
-1.147182058407316e+03  2.295198251549476e+02 -2.918975276816622e+03
-1.147265885852543e+03  2.272789505587854e+02 -2.918975276816622e+03
-1.147164812984706e+03  2.263095583799886e+02 -2.918975276816622e+03
-1.147170173789254e+03  2.244306531666450e+02 -2.918975276816622e+03
-1.146894504456374e+03  2.233520469957312e+02 -2.918975276816622e+03
-1.147023646775818e+03  2.204255665566258e+02 -2.918975276816622e+03
-1.146901261458718e+03  2.165210917927935e+02 -2.918975276816622e+03
-1.146236133998746e+03  2.160447472937944e+02 -2.918975276816622e+03
-1.146596993588976e+03  2.143665192305820e+02 -2.918975276816622e+03
-1.146589236367039e+03  2.130214626684609e+02 -2.918975276816622e+03
-1.146904831085845e+03  2.118860964253298e+02 -2.918975276816622e+03
-1.146788779724359e+03  2.102583848700953e+02 -2.918975276816622e+03
-1.146978944880227e+03  2.091727350394051e+02 -2.918975276816622e+03
-1.146863916658164e+03  2.071840338447261e+02 -2.918975276816622e+03
-1.147149976813765e+03  2.058247741041101e+02 -2.918975276816622e+03
-1.147023452020645e+03  2.041288083283099e+02 -2.918975276816622e+03
-1.147153080248979e+03  2.031968715120784e+02 -2.918975276816622e+03
-1.146804308420166e+03  2.009535960123162e+02 -2.918975276816622e+03
-1.147279274848559e+03  2.009697124393210e+02 -2.918975276816622e+03
-1.147037893088413e+03  1.987020448858146e+02 -2.918975276816622e+03
-1.146885938517951e+03  1.962904610117235e+02 -2.918975276816622e+03
-1.147019258852129e+03  1.921823078471219e+02 -2.918975276816622e+03
-1.147225487706734e+03  1.902638458550067e+02 -2.918975276816622e+03
-1.147095864956887e+03  1.891433832949930e+02 -2.918975276816622e+03
-1.147135727151855e+03  1.872937778213289e+02 -2.918975276816622e+03
-1.146995653695864e+03  1.862981667242869e+02 -2.918975276816622e+03
-1.147085372223338e+03  1.844177121318562e+02 -2.918975276816622e+03
-1.146960184361285e+03  1.833590654959400e+02 -2.918975276816622e+03
-1.146958205689815e+03  1.805555607533575e+02 -2.918975276816622e+03
-1.146489878349768e+03  1.789929907551687e+02 -2.918975276816622e+03
-1.146759884680069e+03  1.783551206575215e+02 -2.918975276816622e+03
-1.146765084777255e+03  1.762653291238368e+02 -2.918975276816622e+03
-1.146617294481897e+03  1.761192553716117e+02 -2.918975276816622e+03
-1.146790638521005e+03  1.734577191965477e+02 -2.918975276816622e+03
-1.146825928005973e+03  1.717846539366874e+02 -2.918975276816622e+03
-1.146954366979391e+03  1.701684015423854e+02 -2.918975276816622e+03
-1.146956700831746e+03  1.690651361578004e+02 -2.918975276816622e+03
-1.146948460956595e+03  1.673958922507811e+02 -2.918975276816622e+03
-1.146924614937788e+03  1.662677320834638e+02 -2.918975276816622e+03
-1.146955785549328e+03  1.642901539805663e+02 -2.918975276816622e+03
-1.146987863828514e+03  1.633680528404192e+02 -2.918975276816622e+03
-1.146953283627581e+03  1.609573728588390e+02 -2.918975276816622e+03
-1.146903479619498e+03  1.604045479223081e+02 -2.918975276816622e+03
-1.146929314134831e+03  1.582275326606787e+02 -2.918975276816622e+03
-1.146961721845489e+03  1.561653724409793e+02 -2.918975276816622e+03
-1.146833605282996e+03  1.561840862295430e+02 -2.918975276816622e+03
-1.146900199423141e+03  1.531157775673422e+02 -2.918975276816622e+03
-1.146953661931012e+03  1.516645630633881e+02 -2.918975276816622e+03
-1.147045644508879e+03  1.499515571390598e+02 -2.918975276816622e+03
-1.146894913332947e+03  1.490824203761131e+02 -2.918975276816622e+03
-1.146997964824758e+03  1.474927443991412e+02 -2.918975276816622e+03
-1.146927613310049e+03  1.463525393197898e+02 -2.918975276816622e+03
-1.147016449413403e+03  1.444697255386941e+02 -2.918975276816622e+03
-1.146924797914492e+03  1.433953768670991e+02 -2.918975276816622e+03
-1.146983844674830e+03  1.409820622979753e+02 -2.918975276816622e+03
-1.146977909964172e+03  1.407852371855403e+02 -2.918975276816622e+03
-1.146966646800871e+03  1.386317481628552e+02 -2.918975276816622e+03
-1.146891841130261e+03  1.370682797154732e+02 -2.918975276816622e+03
-1.146913068027354e+03  1.365334078617933e+02 -2.918975276816622e+03
-1.146996277619533e+03  1.342203329942964e+02 -2.918975276816622e+03
-1.147046740209901e+03  1.330424354424332e+02 -2.918975276816622e+03
-1.147193046867088e+03  1.304608807858039e+02 -2.918975276816622e+03
-1.147178470572714e+03  1.292693940959024e+02 -2.918975276816622e+03
-1.147306293993763e+03  1.275120474723476e+02 -2.918975276816622e+03
-1.147325582976865e+03  1.257626346005948e+02 -2.918975276816622e+03
-1.147373991991151e+03  1.210663763839709e+02 -2.918975276816622e+03
-1.147503072197284e+03  1.201683283282374e+02 -2.918975276816622e+03
-1.147840034237364e+03  1.178411535221569e+02 -2.918975276816622e+03
-1.147619607091159e+03  1.148443709871499e+02 -2.918975276816622e+03
-1.147691034157606e+03  1.128859630827173e+02 -2.918975276816622e+03
-1.147599166626591e+03  1.120025718619437e+02 -2.918975276816622e+03
-1.147605750577863e+03  1.104881223422531e+02 -2.918975276816622e+03
-1.147704466121380e+03  1.095424072909588e+02 -2.918975276816622e+03
-1.147847359153362e+03  1.071783963068125e+02 -2.918975276816622e+03
-1.147671011931564e+03  1.060807385418494e+02 -2.918975276816622e+03
-1.147709217590596e+03  1.046330380686943e+02 -2.918975276816622e+03
-1.147637970062742e+03  1.034385039272875e+02 -2.918975276816622e+03
-1.147795692766544e+03  1.010280654991042e+02 -2.918975276816622e+03
-1.147659947547891e+03  1.000098637989677e+02 -2.918975276816622e+03
-1.147892173640079e+03  9.864186672561222e+01 -2.918975276816622e+03
-1.147723937232774e+03  9.714681157026513e+01 -2.918975276816622e+03
-1.148079691089622e+03  9.523913495871926e+01 -2.918975276816622e+03
-1.148117969000443e+03  9.143420133527624e+01 -2.918975276816622e+03
-1.148682146643099e+03  8.891103383887739e+01 -2.918975276816622e+03
-1.149088646902484e+03  8.538253848608666e+01 -2.918975276816622e+03
-1.147541391416803e+03  8.343167608293470e+01 -2.918975276816622e+03
-1.148377437800479e+03  8.316635920673531e+01 -2.918975276816622e+03
-1.147872805509329e+03  8.269445454187277e+01 -2.918975276816622e+03
-1.148613189334563e+03  8.089590224806730e+01 -2.918975276816622e+03
-1.147639748943560e+03  7.878169463202741e+01 -2.918975276816622e+03
-1.147585940438543e+03  7.615607612853911e+01 -2.918975276816622e+03
-1.147503994600850e+03  7.378658903759992e+01 -2.918975276816622e+03
-1.147662458183679e+03  7.168636184753466e+01 -2.918975276816622e+03
-1.147557713646486e+03  7.060955966564835e+01 -2.918975276816622e+03
-1.147551946429842e+03  6.811351498695601e+01 -2.918975276816622e+03
-1.147453381505277e+03  6.741995208364985e+01 -2.918975276816622e+03
-1.147511910391375e+03  6.559804386282661e+01 -2.918975276816622e+03
-1.147548857496295e+03  6.196239545371727e+01 -2.918975276816622e+03
-1.147681341230221e+03  5.507020948356259e+01 -2.918975276816622e+03
-1.147804590248417e+03  5.296728242285763e+01 -2.918975276816622e+03
-1.148083125678469e+03  5.121018576705271e+01 -2.918975276816622e+03
-1.147964921735772e+03  4.953678044199840e+01 -2.918975276816622e+03
-1.148177955418003e+03  4.759414697288751e+01 -2.918975276816622e+03
-1.147368889226295e+03  4.470400458587641e+01 -2.918975276816622e+03
-1.148138964556104e+03  4.261315522735961e+01 -2.918975276816622e+03
-1.147920319940478e+03  4.140763756764195e+01 -2.918975276816622e+03
-1.148399495397995e+03  4.021024502361444e+01 -2.918975276816622e+03
-1.148035894118461e+03  3.770728765038461e+01 -2.918975276816622e+03
-1.148402406011763e+03  3.537643657289376e+01 -2.918975276816622e+03
-1.148158315444208e+03  3.152235896870935e+01 -2.918975276816622e+03
-1.148373630392741e+03  2.895335038438703e+01 -2.918975276816622e+03
-1.148161369416962e+03  2.303785729211591e+01 -2.918975276816622e+03
-1.148354824765773e+03  2.277719495902608e+01 -2.918975276816622e+03
-1.148733825212445e+03  2.112372019838680e+01 -2.918975276816622e+03
-1.148306119572347e+03  2.006580017253188e+01 -2.918975276816622e+03
-1.148251214169205e+03  1.804898195043879e+01 -2.918975276816622e+03
-1.148505446466824e+03  1.657402792318217e+01 -2.918975276816622e+03
-1.148603914647202e+03  1.368755211254313e+01 -2.918975276816622e+03
-1.148495982568247e+03  7.652228517090163e+00 -2.918975276816622e+03
-1.148509091860677e+03  6.177491741963425e+00 -2.918975276816622e+03
-1.148468922302511e+03  5.216886327875380e+00 -2.918975276816622e+03
1.145762025595707e+03 5.235608233268954e-01 2.918975276816622e+03
 1.146009222406862e+03 -9.425193096152495e-02  2.918975276816622e+03
 1.145737696720743e+03 -1.635566376423294e+00  2.918975276816622e+03
 1.145844960799845e+03 -3.579858269104506e+00  2.918975276816622e+03
 1.145775310731216e+03 -4.451637165472208e+00  2.918975276816622e+03
 1.145713635054177e+03 -8.847310438781538e+00  2.918975276816622e+03
 1.145704783349812e+03 -9.881985276670804e+00  2.918975276816622e+03
 1.145692490286575e+03 -1.177196446276909e+01  2.918975276816622e+03
 1.145577286751564e+03 -1.343260049000739e+01  2.918975276816622e+03
 1.145480409447416e+03 -1.702143754970270e+01  2.918975276816622e+03
 1.145511113142311e+03 -2.154958290210070e+01  2.918975276816622e+03
 1.145291810630067e+03 -2.385956283411225e+01  2.918975276816622e+03
 1.145094261222885e+03 -2.610959310752253e+01  2.918975276816622e+03
 1.145144080388381e+03 -2.776986939284425e+01  2.918975276816622e+03
 1.145084316900804e+03 -2.983992084691220e+01  2.918975276816622e+03
 1.145016513222953e+03 -3.019593798070201e+01  2.918975276816622e+03
 1.144962232963379e+03 -3.182437215796739e+01  2.918975276816622e+03
 1.144962546113221e+03 -3.327852363417782e+01  2.918975276816622e+03
 1.144861144541861e+03 -3.811897182086044e+01  2.918975276816622e+03
 1.144798019671732e+03 -3.922355234486609e+01  2.918975276816622e+03
 1.144492116202993e+03 -4.185448745776593e+01  2.918975276816622e+03
 1.144673620084084e+03 -4.500576459205578e+01  2.918975276816622e+03
 1.144702248015896e+03 -4.550393971659659e+01  2.918975276816622e+03
 1.144836594719357e+03 -4.719717784783293e+01  2.918975276816622e+03
 1.144625595890487e+03 -4.928660342138461e+01  2.918975276816622e+03
 1.144742399251380e+03 -5.037575728274145e+01  2.918975276816622e+03
 1.144623084363368e+03 -5.376485250050251e+01  2.918975276816622e+03
 1.145030697666796e+03 -5.503934916216056e+01  2.918975276816622e+03
 1.144646608541742e+03 -5.635953082525828e+01  2.918975276816622e+03
 1.144839705823987e+03 -5.868036944574433e+01  2.918975276816622e+03
 1.144681613722710e+03 -6.039837464453390e+01  2.918975276816622e+03
 1.144945436589259e+03 -6.241491538366708e+01  2.918975276816622e+03
 1.144711699345206e+03 -6.366753402712415e+01  2.918975276816622e+03
 1.144687577960102e+03 -6.491023528937831e+01  2.918975276816622e+03
 1.144822564738390e+03 -6.549785887447763e+01  2.918975276816622e+03
 1.144918751595533e+03 -6.697644471280269e+01  2.918975276816622e+03
 1.144795584792128e+03 -6.861915804105665e+01  2.918975276816622e+03
 1.144819296714162e+03 -7.030002747240658e+01  2.918975276816622e+03
 1.144847334199517e+03 -7.501060034785300e+01  2.918975276816622e+03
 1.144906276149503e+03 -7.870960371077727e+01  2.918975276816622e+03
 1.144760872600267e+03 -8.071927877406415e+01  2.918975276816622e+03
 1.144951733558130e+03 -8.230913865237095e+01  2.918975276816622e+03
 1.145008544856476e+03 -8.395916192480003e+01  2.918975276816622e+03
 1.145069902418537e+03 -8.500463130886018e+01  2.918975276816622e+03
 1.144977299157362e+03 -8.510250301649050e+01  2.918975276816622e+03
 1.145036267314350e+03 -8.618083638894970e+01  2.918975276816622e+03
 1.144977649294334e+03 -8.723045658614866e+01  2.918975276816622e+03
 1.145012396573193e+03 -8.882168577646493e+01  2.918975276816622e+03
 1.144959499430946e+03 -9.022615342792211e+01  2.918975276816622e+03
 1.144949605629434e+03 -9.472900510917910e+01  2.918975276816622e+03
 1.144977968453055e+03 -9.802696319153910e+01  2.918975276816622e+03
 1.144981857617398e+03 -9.937895716948007e+01  2.918975276816622e+03
 1.145023610948151e+03 -1.017455604608172e+02  2.918975276816622e+03
 1.145014577295341e+03 -1.027937391550504e+02  2.918975276816622e+03
 1.145038021301195e+03 -1.041306847658955e+02  2.918975276816622e+03
 1.145099987840515e+03 -1.042466771472887e+02  2.918975276816622e+03
 1.145058756919481e+03 -1.055192286521284e+02  2.918975276816622e+03
 1.145273980664778e+03 -1.060834231774578e+02  2.918975276816622e+03
 1.145125932820162e+03 -1.072451245044650e+02  2.918975276816622e+03
 1.144782107526838e+03 -1.092827014805889e+02  2.918975276816622e+03
 1.145222348542606e+03 -1.101179965279209e+02  2.918975276816622e+03
 1.143832764592009e+03 -1.146525530485749e+02  2.918975276816622e+03
 1.145533516250815e+03 -1.188977621740262e+02  2.918975276816622e+03
 1.145519626895694e+03 -1.206308278474516e+02  2.918975276816622e+03
 1.143209052965552e+03 -1.234795856637270e+02  2.918975276816622e+03
 1.144825615539031e+03 -1.247698573068294e+02  2.918975276816622e+03
 1.145342301488068e+03 -1.264713427447642e+02  2.918975276816622e+03
 1.145037641162852e+03 -1.287686893914286e+02  2.918975276816622e+03
 1.145112185654261e+03 -1.302154734871004e+02  2.918975276816622e+03
 1.145106035617081e+03 -1.347526000618253e+02  2.918975276816622e+03
 1.145040086935132e+03 -1.379461155766051e+02  2.918975276816622e+03
 1.144960407753955e+03 -1.392596737363468e+02  2.918975276816622e+03
 1.144980975146659e+03 -1.429726118393092e+02  2.918975276816622e+03
 1.144949012942058e+03 -1.447987603054879e+02  2.918975276816622e+03
 1.144815700563739e+03 -1.468190466061369e+02  2.918975276816622e+03
 1.144899792029765e+03 -1.486535982290139e+02  2.918975276816622e+03
 1.144921782107793e+03 -1.502359538064990e+02  2.918975276816622e+03
 1.144880592170879e+03 -1.549127594471362e+02  2.918975276816622e+03
 1.144906265425717e+03 -1.587031229268366e+02  2.918975276816622e+03
 1.144869922054103e+03 -1.604997121205322e+02  2.918975276816622e+03
 1.144889562116667e+03 -1.621556004353788e+02  2.918975276816622e+03
 1.144928011387972e+03 -1.639408174027076e+02  2.918975276816622e+03
 1.144994919867912e+03 -1.651427618644249e+02  2.918975276816622e+03
 1.144896998782263e+03 -1.655773607691110e+02  2.918975276816622e+03
 1.144817864633286e+03 -1.671824041704334e+02  2.918975276816622e+03
 1.144906114574990e+03 -1.686687785243999e+02  2.918975276816622e+03
 1.144925470743597e+03 -1.701634773507683e+02  2.918975276816622e+03
 1.145044401987752e+03 -1.750105271543590e+02  2.918975276816622e+03
 1.145279838618963e+03 -1.785400495944124e+02  2.918975276816622e+03
 1.144932692726016e+03 -1.803991207282020e+02  2.918975276816622e+03
 1.144890477387580e+03 -1.813945471020018e+02  2.918975276816622e+03
 1.145175261690288e+03 -1.823510316620316e+02  2.918975276816622e+03
 1.144875336209043e+03 -1.832468875787967e+02  2.918975276816622e+03
 1.144770982849544e+03 -1.857389561406010e+02  2.918975276816622e+03
 1.144965749884866e+03 -1.873602526029021e+02  2.918975276816622e+03
 1.145025105879571e+03 -1.889432316924153e+02  2.918975276816622e+03
 1.144821803505315e+03 -1.902470782258322e+02  2.918975276816622e+03
 1.144593927443754e+03 -1.949446921124873e+02  2.918975276816622e+03
 1.144970057631460e+03 -1.987977360226189e+02  2.918975276816622e+03
 1.145022920530607e+03 -2.029075235656347e+02  2.918975276816622e+03
 1.144942539728479e+03 -2.067966817327041e+02  2.918975276816622e+03
 1.144796685587746e+03 -2.084017012200021e+02  2.918975276816622e+03
 1.144839066152904e+03 -2.101062474510019e+02  2.918975276816622e+03
 1.144900894770172e+03 -2.147629042529529e+02  2.918975276816622e+03
 1.145316115765670e+03 -2.170114743211685e+02  2.918975276816622e+03
 1.144768296357025e+03 -2.186437211347834e+02  2.918975276816622e+03
 1.143158376681601e+03 -2.220767078268413e+02  2.918975276816622e+03
 1.145459258576961e+03 -2.221477678078324e+02  2.918975276816622e+03
 1.146134132657944e+03 -2.238268394506249e+02  2.918975276816622e+03
 1.144753458179586e+03 -2.252891697505874e+02  2.918975276816622e+03
 1.144670502361549e+03 -2.288725643851198e+02  2.918975276816622e+03
 1.144631637754470e+03 -2.301809316925935e+02  2.918975276816622e+03
 1.144664415559557e+03 -2.329410442426419e+02  2.918975276816622e+03
 1.144571654997015e+03 -2.341667764388983e+02  2.918975276816622e+03
 1.144737707210948e+03 -2.367998165628109e+02  2.918975276816622e+03
 1.144550301389663e+03 -2.388747753081503e+02  2.918975276816622e+03
 1.144745228915481e+03 -2.413878446870800e+02  2.918975276816622e+03
 1.144462330604586e+03 -2.449509618632511e+02  2.918975276816622e+03
 1.144804153147459e+03 -2.479217560859260e+02  2.918975276816622e+03
 1.144474422257539e+03 -2.489159712631689e+02  2.918975276816622e+03
 1.144678146002848e+03 -2.530056781493289e+02  2.918975276816622e+03
 1.145014149265843e+03 -2.548720792850614e+02  2.918975276816622e+03
 1.146729642214961e+03 -2.567942528862377e+02  2.918975276816622e+03
 1.145054385986146e+03 -2.585400151165678e+02  2.918975276816622e+03
 1.144554115764798e+03 -2.588467692174835e+02  2.918975276816622e+03
 1.144847442034612e+03 -2.609495926814127e+02  2.918975276816622e+03
 1.144896613349484e+03 -2.657823224996671e+02  2.918975276816622e+03
 1.144921812817094e+03 -2.691186387535402e+02  2.918975276816622e+03
 1.145045814113057e+03 -2.700526203114833e+02  2.918975276816622e+03
 1.145132624685708e+03 -2.727514906656301e+02  2.918975276816622e+03
 1.145119713763833e+03 -2.733976273739948e+02  2.918975276816622e+03
 1.145178086643010e+03 -2.758387281234644e+02  2.918975276816622e+03
 1.145199125509802e+03 -2.785677899754502e+02  2.918975276816622e+03
 1.145245427661825e+03 -2.833220101274352e+02  2.918975276816622e+03
 1.145163952040488e+03 -2.867351999649800e+02  2.918975276816622e+03
 1.145358260722950e+03 -2.885384680680196e+02  2.918975276816622e+03
 1.145524896238801e+03 -2.907233095607172e+02  2.918975276816622e+03
 1.145387327362874e+03 -2.929826886716867e+02  2.918975276816622e+03
 1.144438858048468e+03 -2.949651196757051e+02  2.918975276816622e+03
 1.145175045850219e+03 -2.987927303265642e+02  2.918975276816622e+03
 1.145621846781174e+03 -2.991508755706554e+02  2.918975276816622e+03
 1.145388243472824e+03 -3.026428129794418e+02  2.918975276816622e+03
 1.145276556775458e+03 -3.036164454510753e+02  2.918975276816622e+03
 1.145172647307068e+03 -3.082180119700419e+02  2.918975276816622e+03
 1.145153968896777e+03 -3.101187889076703e+02  2.918975276816622e+03
 1.145028538210020e+03 -3.122448012208047e+02  2.918975276816622e+03
 1.145114439372383e+03 -3.135102945480421e+02  2.918975276816622e+03
 1.144944941364077e+03 -3.149243310992324e+02  2.918975276816622e+03
 1.145134962451597e+03 -3.179432663972524e+02  2.918975276816622e+03
 1.144779776392065e+03 -3.191200085843921e+02  2.918975276816622e+03
 1.144987522042237e+03 -3.215533165146368e+02  2.918975276816622e+03
 1.144965505088697e+03 -3.233652600844844e+02  2.918975276816622e+03
 1.144952222281596e+03 -3.260802402485650e+02  2.918975276816622e+03
 1.144837652302234e+03 -3.263401074257839e+02  2.918975276816622e+03
 1.144965784379526e+03 -3.290279665179667e+02  2.918975276816622e+03
 1.144741766754723e+03 -3.317034648603184e+02  2.918975276816622e+03
 1.144854652476258e+03 -3.343403509864510e+02  2.918975276816622e+03
 1.144648844420235e+03 -3.379256711429702e+02  2.918975276816622e+03
 1.144725312691385e+03 -3.388284328994682e+02  2.918975276816622e+03
 1.144579932560735e+03 -3.406124828740108e+02  2.918975276816622e+03
 1.144903562931588e+03 -3.430614578927654e+02  2.918975276816622e+03
 1.144428504560034e+03 -3.449937125339401e+02  2.918975276816622e+03
 1.144590276786875e+03 -3.487298936250518e+02  2.918975276816622e+03
 1.144404953903019e+03 -3.514020265839706e+02  2.918975276816622e+03
 1.144521393603924e+03 -3.533425045682658e+02  2.918975276816622e+03
 1.143373662782076e+03 -3.571445465501390e+02  2.918975276816622e+03
 1.144360334562228e+03 -3.597932285276123e+02  2.918975276816622e+03
 1.145504184427148e+03 -3.601962559029043e+02  2.918975276816622e+03
 1.145863682024459e+03 -3.623856096250547e+02  2.918975276816622e+03
 1.144520993477967e+03 -3.668690404543635e+02  2.918975276816622e+03
 1.144543334275732e+03 -3.685869850632970e+02  2.918975276816622e+03
 1.144677445776825e+03 -3.713479055326803e+02  2.918975276816622e+03
 1.144826030509874e+03 -3.716799871114943e+02  2.918975276816622e+03
 1.144880315627777e+03 -3.752655071067595e+02  2.918975276816622e+03
 1.144804893145596e+03 -3.778685690034146e+02  2.918975276816622e+03
 1.144973492276585e+03 -3.828877128119017e+02  2.918975276816622e+03
 1.144991125988220e+03 -3.834889196734464e+02  2.918975276816622e+03
1.144928840928393e+03 3.848529382067096e+02 2.918975276816622e+03
1.145273542995920e+03 3.813257590320613e+02 2.918975276816622e+03
1.145165062606977e+03 3.788761616147353e+02 2.918975276816622e+03
1.144781052896620e+03 3.779282070870291e+02 2.918975276816622e+03
1.145096376286076e+03 3.763496363066185e+02 2.918975276816622e+03
1.145094280558551e+03 3.736762018209978e+02 2.918975276816622e+03
1.145001507746756e+03 3.728142024349074e+02 2.918975276816622e+03
1.145058587541965e+03 3.712196872091770e+02 2.918975276816622e+03
1.145184015290994e+03 3.672940526320754e+02 2.918975276816622e+03
1.145114800239460e+03 3.653617576345059e+02 2.918975276816622e+03
1.145156958879140e+03 3.626262573580336e+02 2.918975276816622e+03
1.145253330208650e+03 3.599692569912876e+02 2.918975276816622e+03
1.145158827506372e+03 3.582138226323602e+02 2.918975276816622e+03
1.145209832922667e+03 3.571573530625681e+02 2.918975276816622e+03
1.145201920607852e+03 3.554518772434556e+02 2.918975276816622e+03
1.145440902998243e+03 3.537510828704853e+02 2.918975276816622e+03
1.145360190964673e+03 3.517750346548378e+02 2.918975276816622e+03
1.145383732571081e+03 3.504311502417037e+02 2.918975276816622e+03
1.145486278187157e+03 3.481128976465986e+02 2.918975276816622e+03
1.145907436854233e+03 3.468532024818541e+02 2.918975276816622e+03
1.145685044437196e+03 3.447168152130254e+02 2.918975276816622e+03
1.145517628837894e+03 3.436561801489788e+02 2.918975276816622e+03
1.145784761608150e+03 3.416264733962901e+02 2.918975276816622e+03
1.145974451066314e+03 3.399900945627658e+02 2.918975276816622e+03
1.145741346137477e+03 3.381876794104248e+02 2.918975276816622e+03
1.145956231802147e+03 3.347371715811386e+02 2.918975276816622e+03
1.145547705454052e+03 3.314668740935515e+02 2.918975276816622e+03
1.146434550554384e+03 3.289619816217732e+02 2.918975276816622e+03
1.146553400470751e+03 3.288549640509473e+02 2.918975276816622e+03
1.145454094423575e+03 3.265453682285809e+02 2.918975276816622e+03
1.148056880626796e+03 3.262071824087296e+02 2.918975276816622e+03
1.147605934167900e+03 3.252063874714326e+02 2.918975276816622e+03
1.146505060574462e+03 3.232025966288766e+02 2.918975276816622e+03
1.145825996120236e+03 3.212623813393163e+02 2.918975276816622e+03
1.145959690089487e+03 3.193076404581592e+02 2.918975276816622e+03
1.145908556150773e+03 3.186040566212868e+02 2.918975276816622e+03
1.145918139424911e+03 3.160846446010341e+02 2.918975276816622e+03
1.145654653138157e+03 3.134884041612606e+02 2.918975276816622e+03
1.145923864448319e+03 3.118611649031507e+02 2.918975276816622e+03
1.145841068136096e+03 3.113654022892865e+02 2.918975276816622e+03
1.145873721109303e+03 3.096253332199336e+02 2.918975276816622e+03
1.145850498545011e+03 3.077997127143698e+02 2.918975276816622e+03
1.145784776323395e+03 3.065011360808337e+02 2.918975276816622e+03
1.145694973609975e+03 3.019747533229450e+02 2.918975276816622e+03
1.145898879924884e+03 3.013864183976678e+02 2.918975276816622e+03
1.145850680009253e+03 2.989190394974847e+02 2.918975276816622e+03
1.145571971001195e+03 2.975150497143471e+02 2.918975276816622e+03
1.145738525205490e+03 2.954309844067668e+02 2.918975276816622e+03
1.145938526768641e+03 2.938619372144771e+02 2.918975276816622e+03
1.145605717401369e+03 2.918925803065509e+02 2.918975276816622e+03
1.145504302309426e+03 2.870386986638857e+02 2.918975276816622e+03
1.145663180901204e+03 2.849983508669926e+02 2.918975276816622e+03
1.145692112946022e+03 2.830050387578394e+02 2.918975276816622e+03
1.145460686741307e+03 2.808950214880375e+02 2.918975276816622e+03
1.144848753101792e+03 2.773176754085000e+02 2.918975276816622e+03
1.145382348210904e+03 2.752519800642585e+02 2.918975276816622e+03
1.145312509845285e+03 2.711596880621956e+02 2.918975276816622e+03
1.144858879260054e+03 2.666477548170716e+02 2.918975276816622e+03
1.144914183244091e+03 2.651300928735690e+02 2.918975276816622e+03
1.144711046474727e+03 2.623753206484780e+02 2.918975276816622e+03
1.144272383075155e+03 2.588098048707420e+02 2.918975276816622e+03
1.144854666625392e+03 2.580287566891368e+02 2.918975276816622e+03
1.144453314643060e+03 2.533372367243616e+02 2.918975276816622e+03
1.144149835948074e+03 2.518346955433508e+02 2.918975276816622e+03
1.144003603432894e+03 2.502379592197115e+02 2.918975276816622e+03
1.143914657452865e+03 2.486615823993043e+02 2.918975276816622e+03
1.144482762672283e+03 2.490098797706862e+02 2.918975276816622e+03
1.144505816229941e+03 2.471414760669478e+02 2.918975276816622e+03
1.144277192946006e+03 2.456703892406880e+02 2.918975276816622e+03
1.144653496962778e+03 2.444564065823254e+02 2.918975276816622e+03
1.144502704764121e+03 2.429189205973044e+02 2.918975276816622e+03
1.144262946840276e+03 2.421033592303073e+02 2.918975276816622e+03
1.144571253440052e+03 2.402545283426738e+02 2.918975276816622e+03
1.144838845026334e+03 2.355631677430796e+02 2.918975276816622e+03
1.144800698202519e+03 2.339584133277532e+02 2.918975276816622e+03
1.144795805945724e+03 2.313452401278572e+02 2.918975276816622e+03
1.144945241288453e+03 2.286171272913613e+02 2.918975276816622e+03
1.145318845159675e+03 2.273820715290832e+02 2.918975276816622e+03
1.145141205637334e+03 2.262688168105001e+02 2.918975276816622e+03
1.145152612430077e+03 2.238437675072721e+02 2.918975276816622e+03
1.145087112453678e+03 2.218176778106400e+02 2.918975276816622e+03
1.145091945585795e+03 2.202248956714996e+02 2.918975276816622e+03
1.145110453136223e+03 2.158157024086925e+02 2.918975276816622e+03
1.145216687454390e+03 2.127296824577531e+02 2.918975276816622e+03
1.145209057351896e+03 2.112049850582600e+02 2.918975276816622e+03
1.145275579934669e+03 2.087407430276543e+02 2.918975276816622e+03
1.145176457264201e+03 2.076692361370810e+02 2.918975276816622e+03
1.145351775035942e+03 2.062911433732428e+02 2.918975276816622e+03
1.145236026546572e+03 2.060839791489435e+02 2.918975276816622e+03
1.145471273638853e+03 2.046492790550701e+02 2.918975276816622e+03
1.145397837290463e+03 2.039723028227091e+02 2.918975276816622e+03
1.145469727637542e+03 2.026739603915987e+02 2.918975276816622e+03
1.145143667075318e+03 2.014995084304189e+02 2.918975276816622e+03
1.145440195931568e+03 2.002543667402201e+02 2.918975276816622e+03
1.145338240352904e+03 1.954337263565974e+02 2.918975276816622e+03
1.144829283844943e+03 1.922069279231748e+02 2.918975276816622e+03
1.144838527570394e+03 1.879441806866827e+02 2.918975276816622e+03
1.145224076051752e+03 1.863044421213383e+02 2.918975276816622e+03
1.145295188790909e+03 1.836350151243559e+02 2.918975276816622e+03
1.145436364462072e+03 1.818888389110928e+02 2.918975276816622e+03
1.145270810132538e+03 1.804233987688799e+02 2.918975276816622e+03
1.144840126350324e+03 1.757970884879398e+02 2.918975276816622e+03
1.144918464333588e+03 1.728911174481839e+02 2.918975276816622e+03
1.145170625665475e+03 1.713382728474124e+02 2.918975276816622e+03
1.145172256306603e+03 1.686583188662314e+02 2.918975276816622e+03
1.145249586587525e+03 1.682534003239035e+02 2.918975276816622e+03
1.145521858775772e+03 1.669240276760863e+02 2.918975276816622e+03
1.144959770499919e+03 1.658715202704692e+02 2.918975276816622e+03
1.145291550215769e+03 1.645817068857431e+02 2.918975276816622e+03
1.145303297394238e+03 1.641386762821971e+02 2.918975276816622e+03
1.145396056632896e+03 1.627184816732123e+02 2.918975276816622e+03
1.144014186314678e+03 1.607745475754439e+02 2.918975276816622e+03
1.145145641969968e+03 1.602218184533668e+02 2.918975276816622e+03
1.144865685805953e+03 1.563483630967557e+02 2.918975276816622e+03
1.145202705278989e+03 1.540554508282148e+02 2.918975276816622e+03
1.144962007331360e+03 1.513410488373038e+02 2.918975276816622e+03
1.145472775614877e+03 1.473182391804539e+02 2.918975276816622e+03
1.145338283440589e+03 1.460276315736699e+02 2.918975276816622e+03
1.145443152393382e+03 1.450562614577787e+02 2.918975276816622e+03
1.145513207075127e+03 1.450117607746395e+02 2.918975276816622e+03
1.145314530390528e+03 1.438603440869962e+02 2.918975276816622e+03
1.145140793898077e+03 1.418433259798323e+02 2.918975276816622e+03
1.145041296165412e+03 1.404202215034567e+02 2.918975276816622e+03
1.144978729830143e+03 1.360119697460762e+02 2.918975276816622e+03
1.144976199473929e+03 1.329216570290796e+02 2.918975276816622e+03
1.144849644833594e+03 1.312830423097893e+02 2.918975276816622e+03
1.144973821611763e+03 1.289177217874329e+02 2.918975276816622e+03
1.145018533628173e+03 1.278004053995753e+02 2.918975276816622e+03
1.145065960691454e+03 1.264673861145954e+02 2.918975276816622e+03
1.145004719045292e+03 1.262984772758912e+02 2.918975276816622e+03
1.145101500269271e+03 1.249997019479462e+02 2.918975276816622e+03
1.145118331283345e+03 1.249461387353754e+02 2.918975276816622e+03
1.145014803568818e+03 1.236456738922413e+02 2.918975276816622e+03
1.144835746635472e+03 1.219714625687498e+02 2.918975276816622e+03
1.144718964762426e+03 1.204864159217983e+02 2.918975276816622e+03
1.144713931218174e+03 1.159029210916106e+02 2.918975276816622e+03
1.144560051215632e+03 1.124294267697169e+02 2.918975276816622e+03
1.144273049641359e+03 1.108694543155057e+02 2.918975276816622e+03
1.144437026443365e+03 1.089751018979977e+02 2.918975276816622e+03
1.143084866239201e+03 1.084071613716324e+02 2.918975276816622e+03
1.144285599380698e+03 1.069455876679610e+02 2.918975276816622e+03
1.144314854072967e+03 1.058065432143892e+02 2.918975276816622e+03
1.145322135296862e+03 1.048135060736758e+02 2.918975276816622e+03
1.144552758495453e+03 1.035868963753870e+02 2.918975276816622e+03
1.145405141462020e+03 1.012923118458616e+02 2.918975276816622e+03
1.145409210301003e+03 1.005709082901118e+02 2.918975276816622e+03
1.145213229349029e+03 9.563720714704307e+01 2.918975276816622e+03
1.145376425336117e+03 9.375937359968036e+01 2.918975276816622e+03
1.145365804839515e+03 8.861390171365174e+01 2.918975276816622e+03
1.145736363694946e+03 8.895831898829958e+01 2.918975276816622e+03
1.145744139264364e+03 8.356705209875021e+01 2.918975276816622e+03
1.145929798834336e+03 8.024933254838434e+01 2.918975276816622e+03
1.146688445103833e+03 7.957844793896105e+01 2.918975276816622e+03
1.146465949010205e+03 7.774761501736292e+01 2.918975276816622e+03
1.146469424490877e+03 7.565302923019107e+01 2.918975276816622e+03
1.145871365881470e+03 7.047876250865110e+01 2.918975276816622e+03
1.146658165384918e+03 6.865099602870033e+01 2.918975276816622e+03
1.146465243736852e+03 6.659682734699483e+01 2.918975276816622e+03
1.148365593678816e+03 6.467340045477722e+01 2.918975276816622e+03
1.147290922077458e+03 6.414472700052787e+01 2.918975276816622e+03
1.147882349653927e+03 5.995152355144767e+01 2.918975276816622e+03
1.146821123225787e+03 5.685475463321296e+01 2.918975276816622e+03
1.147093945972860e+03 5.598752348506596e+01 2.918975276816622e+03
1.146215398579628e+03 5.438894246997216e+01 2.918975276816622e+03
1.146798307084358e+03 5.270853716456322e+01 2.918975276816622e+03
1.145840840970135e+03 5.028262856225830e+01 2.918975276816622e+03
1.145836782691380e+03 4.930397018148093e+01 2.918975276816622e+03
1.145850816898661e+03 4.801334537642821e+01 2.918975276816622e+03
1.145855960907975e+03 4.709129921545372e+01 2.918975276816622e+03
1.145942394993118e+03 4.421728387623089e+01 2.918975276816622e+03
1.145828224139378e+03 4.243481507218340e+01 2.918975276816622e+03
1.146099315274859e+03 4.184689427315053e+01 2.918975276816622e+03
1.145892817798966e+03 4.026167289981875e+01 2.918975276816622e+03
1.145909937255042e+03 3.820243331938625e+01 2.918975276816622e+03
1.146050308451672e+03 3.604722850573521e+01 2.918975276816622e+03
1.146182949213708e+03 3.384974016479847e+01 2.918975276816622e+03
1.146096749380431e+03 2.914160390944952e+01 2.918975276816622e+03
1.146174557469113e+03 2.724862798507922e+01 2.918975276816622e+03
1.146027063288342e+03 2.358786884341422e+01 2.918975276816622e+03
1.146354323862711e+03 2.084102970953559e+01 2.918975276816622e+03
1.146506495023377e+03 1.742801715015234e+01 2.918975276816622e+03
1.146320393832307e+03 1.309415011301008e+01 2.918975276816622e+03
1.146246947494524e+03 1.105224279845971e+01 2.918975276816622e+03
1.146935083740540e+03 1.012671052955087e+01 2.918975276816622e+03
1.146820923476686e+03 7.546342464765248e+00 2.918975276816622e+03
1.146127939778074e+03 4.490186190204392e+00 2.918975276816622e+03
1.145702691827878e+03 2.892071899668983e+00 2.918975276816622e+03
-1.157424068268114e+03  1.171999983765927e+00 -2.918975276816622e+03
-1.157097804804007e+03 -2.436624751485944e+00 -2.918975276816622e+03
-1.157888695081005e+03 -2.538508793708977e+00 -2.918975276816622e+03
-1.157654339332097e+03 -5.982036952259281e+00 -2.918975276816622e+03
-1.157241892308926e+03 -1.053780309762184e+01 -2.918975276816622e+03
-1.157452641633344e+03 -1.070141566319896e+01 -2.918975276816622e+03
-1.157505059749921e+03 -1.381778388840762e+01 -2.918975276816622e+03
-1.157603232545444e+03 -1.490159748873084e+01 -2.918975276816622e+03
-1.157690957696216e+03 -1.690290417235300e+01 -2.918975276816622e+03
-1.156889846215102e+03 -2.141805032541444e+01 -2.918975276816622e+03
-1.156882928368833e+03 -2.272458816228052e+01 -2.918975276816622e+03
-1.157555745590096e+03 -2.581052945593613e+01 -2.918975276816622e+03
-1.158211340452225e+03 -2.839829401345146e+01 -2.918975276816622e+03
-1.156810111434832e+03 -3.287111176142422e+01 -2.918975276816622e+03
-1.157148562934500e+03 -3.445302106397354e+01 -2.918975276816622e+03
-1.157461286288654e+03 -3.583267985509426e+01 -2.918975276816622e+03
-1.157087125502220e+03 -3.721922315477480e+01 -2.918975276816622e+03
-1.156863675758803e+03 -4.045217609149457e+01 -2.918975276816622e+03
-1.156955693917293e+03 -4.119192425303667e+01 -2.918975276816622e+03
-1.156740584101508e+03 -4.356525629063562e+01 -2.918975276816622e+03
-1.156916264073184e+03 -4.526628559161581e+01 -2.918975276816622e+03
-1.156647933770726e+03 -4.570185155250443e+01 -2.918975276816622e+03
-1.156778450945219e+03 -4.740145668199834e+01 -2.918975276816622e+03
-1.156712721528272e+03 -4.963844292223742e+01 -2.918975276816622e+03
-1.156744821508282e+03 -5.036326769262581e+01 -2.918975276816622e+03
-1.156574527698927e+03 -5.216490230376619e+01 -2.918975276816622e+03
-1.156632108648109e+03 -5.514950295880229e+01 -2.918975276816622e+03
-1.156666308956108e+03 -5.623756786506021e+01 -2.918975276816622e+03
-1.156725926639451e+03 -5.865504608925753e+01 -2.918975276816622e+03
-1.156663506968885e+03 -6.046524347696342e+01 -2.918975276816622e+03
-1.156588967069925e+03 -6.139680477631237e+01 -2.918975276816622e+03
-1.156664269923589e+03 -6.357462866605711e+01 -2.918975276816622e+03
-1.156852023125498e+03 -6.486084117349952e+01 -2.918975276816622e+03
-1.156652284000237e+03 -6.586287279418818e+01 -2.918975276816622e+03
-1.156666906782185e+03 -6.745385891992433e+01 -2.918975276816622e+03
-1.156694113871277e+03 -6.993466415012483e+01 -2.918975276816622e+03
-1.156659793462936e+03 -7.047712848011814e+01 -2.918975276816622e+03
-1.156719937277051e+03 -7.197663372389458e+01 -2.918975276816622e+03
-1.156672745163094e+03 -7.330996085563287e+01 -2.918975276816622e+03
-1.156720133862230e+03 -7.528121801370118e+01 -2.918975276816622e+03
-1.156609294556845e+03 -7.616047136124089e+01 -2.918975276816622e+03
-1.156689877531333e+03 -7.680639187033124e+01 -2.918975276816622e+03
-1.156614625376627e+03 -7.866181883042059e+01 -2.918975276816622e+03
-1.156685564485232e+03 -8.044303521929938e+01 -2.918975276816622e+03
-1.156645827658500e+03 -8.128534465127761e+01 -2.918975276816622e+03
-1.156671362003641e+03 -8.345666278890300e+01 -2.918975276816622e+03
-1.156616971370044e+03 -8.486263587838323e+01 -2.918975276816622e+03
-1.156630420897914e+03 -8.593165529172580e+01 -2.918975276816622e+03
-1.156617734495790e+03 -8.732256310279425e+01 -2.918975276816622e+03
-1.156576818117976e+03 -8.971211907107418e+01 -2.918975276816622e+03
-1.156586995057521e+03 -9.052277632533227e+01 -2.918975276816622e+03
-1.156544177949422e+03 -9.203901089387331e+01 -2.918975276816622e+03
-1.156596619748824e+03 -9.527334003993823e+01 -2.918975276816622e+03
-1.156463743242514e+03 -9.650854825724633e+01 -2.918975276816622e+03
-1.156547134915577e+03 -9.894298347237208e+01 -2.918975276816622e+03
-1.156407822065513e+03 -1.011861827526722e+02 -2.918975276816622e+03
-1.156484261540361e+03 -1.013831930916677e+02 -2.918975276816622e+03
-1.156289451082196e+03 -1.035904145015596e+02 -2.918975276816622e+03
-1.156431120943129e+03 -1.052927979671425e+02 -2.918975276816622e+03
-1.156300023480611e+03 -1.066661184255141e+02 -2.918975276816622e+03
-1.156348544893125e+03 -1.071525668041042e+02 -2.918975276816622e+03
-1.156274235444142e+03 -1.095418092218976e+02 -2.918975276816622e+03
-1.156314465601243e+03 -1.108379625298334e+02 -2.918975276816622e+03
-1.156303355145672e+03 -1.128216937032364e+02 -2.918975276816622e+03
-1.156303873851734e+03 -1.134641165623828e+02 -2.918975276816622e+03
-1.156354096867694e+03 -1.182506079361102e+02 -2.918975276816622e+03
-1.156350513671595e+03 -1.204087490407809e+02 -2.918975276816622e+03
-1.156335108566528e+03 -1.212042510950094e+02 -2.918975276816622e+03
-1.156347512785574e+03 -1.234233115963326e+02 -2.918975276816622e+03
-1.156421848314270e+03 -1.247058249487753e+02 -2.918975276816622e+03
-1.156413568300593e+03 -1.258441822244305e+02 -2.918975276816622e+03
-1.156420283550201e+03 -1.273472833203944e+02 -2.918975276816622e+03
-1.156349678041337e+03 -1.298212639980317e+02 -2.918975276816622e+03
-1.156446190749268e+03 -1.315216757582424e+02 -2.918975276816622e+03
-1.156464002316484e+03 -1.324488809836208e+02 -2.918975276816622e+03
-1.156486152661485e+03 -1.332896167932367e+02 -2.918975276816622e+03
-1.156382682958530e+03 -1.351480327662680e+02 -2.918975276816622e+03
-1.156517567198242e+03 -1.362264674745863e+02 -2.918975276816622e+03
-1.156443856924323e+03 -1.385035211955543e+02 -2.918975276816622e+03
-1.156428259225775e+03 -1.403442779647590e+02 -2.918975276816622e+03
-1.156454003223392e+03 -1.413022644003372e+02 -2.918975276816622e+03
-1.156521758947823e+03 -1.434413498971676e+02 -2.918975276816622e+03
-1.156605993376275e+03 -1.448069760339574e+02 -2.918975276816622e+03
-1.156700151332145e+03 -1.458544920780175e+02 -2.918975276816622e+03
-1.156511614458627e+03 -1.476472394485734e+02 -2.918975276816622e+03
-1.156597635055330e+03 -1.516370256061981e+02 -2.918975276816622e+03
-1.157520316604324e+03 -1.512950292355791e+02 -2.918975276816622e+03
-1.156462783692194e+03 -1.549523670200153e+02 -2.918975276816622e+03
-1.156599926904302e+03 -1.561322030275991e+02 -2.918975276816622e+03
-1.156481221060986e+03 -1.586027258898971e+02 -2.918975276816622e+03
-1.156707029389436e+03 -1.604877116372566e+02 -2.918975276816622e+03
-1.156546258089738e+03 -1.611385464962911e+02 -2.918975276816622e+03
-1.156673993314307e+03 -1.633216813974845e+02 -2.918975276816622e+03
-1.156473201918399e+03 -1.645908331745763e+02 -2.918975276816622e+03
-1.156585638534025e+03 -1.659930490904440e+02 -2.918975276816622e+03
-1.156191368066925e+03 -1.674220940243765e+02 -2.918975276816622e+03
-1.156370784457810e+03 -1.698785551764513e+02 -2.918975276816622e+03
-1.155815573389656e+03 -1.717553452440238e+02 -2.918975276816622e+03
-1.156173119339394e+03 -1.730430164349651e+02 -2.918975276816622e+03
-1.155580240840264e+03 -1.772107651283798e+02 -2.918975276816622e+03
-1.156292115250780e+03 -1.822392037601928e+02 -2.918975276816622e+03
-1.156921524678176e+03 -1.844680943837248e+02 -2.918975276816622e+03
-1.157944879050115e+03 -1.856528694173244e+02 -2.918975276816622e+03
-1.157142011082260e+03 -1.870614186922016e+02 -2.918975276816622e+03
-1.157225198803619e+03 -1.895822609082713e+02 -2.918975276816622e+03
-1.157241082840694e+03 -1.913691079174276e+02 -2.918975276816622e+03
-1.157316216798145e+03 -1.930520219703860e+02 -2.918975276816622e+03
-1.157116343668552e+03 -1.932057457083643e+02 -2.918975276816622e+03
-1.157041049644045e+03 -1.950307416422576e+02 -2.918975276816622e+03
-1.156893401728889e+03 -1.973380232894996e+02 -2.918975276816622e+03
-1.157008172197754e+03 -1.985342215164866e+02 -2.918975276816622e+03
-1.157140834424095e+03 -2.003219115924806e+02 -2.918975276816622e+03
-1.157102578827552e+03 -2.009075871035522e+02 -2.918975276816622e+03
-1.157021317908573e+03 -2.031979736263699e+02 -2.918975276816622e+03
-1.156948873796586e+03 -2.044897578227343e+02 -2.918975276816622e+03
-1.156947913497270e+03 -2.055328127706734e+02 -2.918975276816622e+03
-1.157008500941259e+03 -2.071965311368017e+02 -2.918975276816622e+03
-1.156964202478365e+03 -2.095780268661696e+02 -2.918975276816622e+03
-1.156976161040449e+03 -2.108468190282067e+02 -2.918975276816622e+03
-1.156914733993360e+03 -2.123390044167897e+02 -2.918975276816622e+03
-1.156991043329535e+03 -2.152754703733627e+02 -2.918975276816622e+03
-1.156941256250903e+03 -2.158176427062691e+02 -2.918975276816622e+03
-1.156945849637214e+03 -2.184022940401057e+02 -2.918975276816622e+03
-1.156893392264528e+03 -2.207481325089342e+02 -2.918975276816622e+03
-1.157037641391928e+03 -2.209242980280994e+02 -2.918975276816622e+03
-1.156900606557481e+03 -2.231847328072535e+02 -2.918975276816622e+03
-1.156896154565414e+03 -2.247511103057624e+02 -2.918975276816622e+03
-1.156844420350599e+03 -2.258167004279772e+02 -2.918975276816622e+03
-1.156922126381232e+03 -2.272155878260209e+02 -2.918975276816622e+03
-1.156809637230382e+03 -2.297071278021372e+02 -2.918975276816622e+03
-1.156789644506507e+03 -2.311700353082379e+02 -2.918975276816622e+03
-1.156903708894853e+03 -2.318652089125032e+02 -2.918975276816622e+03
-1.156857758854833e+03 -2.383101144939300e+02 -2.918975276816622e+03
-1.156451126129597e+03 -2.382592433267282e+02 -2.918975276816622e+03
-1.156993587040221e+03 -2.409453391054110e+02 -2.918975276816622e+03
-1.156846786047125e+03 -2.439003038055663e+02 -2.918975276816622e+03
-1.157201294847623e+03 -2.466534726123771e+02 -2.918975276816622e+03
-1.156506795865497e+03 -2.491856850452164e+02 -2.918975276816622e+03
-1.157171468614940e+03 -2.502398164655234e+02 -2.918975276816622e+03
-1.156845698094374e+03 -2.517738680308157e+02 -2.918975276816622e+03
-1.156746829004457e+03 -2.544358200699608e+02 -2.918975276816622e+03
-1.156727746128731e+03 -2.564042560089258e+02 -2.918975276816622e+03
-1.156729702045008e+03 -2.601703533247373e+02 -2.918975276816622e+03
-1.156365599701045e+03 -2.609566950345742e+02 -2.918975276816622e+03
-1.156643429043553e+03 -2.628845113165754e+02 -2.918975276816622e+03
-1.156381353670935e+03 -2.645689910151206e+02 -2.918975276816622e+03
-1.156660526576699e+03 -2.661977447678615e+02 -2.918975276816622e+03
-1.156439689250162e+03 -2.670755824620178e+02 -2.918975276816622e+03
-1.157672082486093e+03 -2.686659363461358e+02 -2.918975276816622e+03
-1.156298817803248e+03 -2.706797373419890e+02 -2.918975276816622e+03
-1.156698075838378e+03 -2.718795675231574e+02 -2.918975276816622e+03
-1.156180267774640e+03 -2.733887383496860e+02 -2.918975276816622e+03
-1.156716918844151e+03 -2.752973171508893e+02 -2.918975276816622e+03
-1.156333112464179e+03 -2.765721549375523e+02 -2.918975276816622e+03
-1.156951174609130e+03 -2.776712250617075e+02 -2.918975276816622e+03
-1.156710870380653e+03 -2.798464703820767e+02 -2.918975276816622e+03
-1.156722434509459e+03 -2.820025994013725e+02 -2.918975276816622e+03
-1.156193364080556e+03 -2.861665178407472e+02 -2.918975276816622e+03
-1.156802866153038e+03 -2.885177954709842e+02 -2.918975276816622e+03
-1.156700642590840e+03 -2.894176314071625e+02 -2.918975276816622e+03
-1.157104177292730e+03 -2.933721810475467e+02 -2.918975276816622e+03
-1.156647975377731e+03 -2.949560063477859e+02 -2.918975276816622e+03
-1.157039000012824e+03 -2.988604275872352e+02 -2.918975276816622e+03
-1.156778303678319e+03 -2.993954026393988e+02 -2.918975276816622e+03
-1.157091019974718e+03 -3.012872312863079e+02 -2.918975276816622e+03
-1.156924448123596e+03 -3.018620941149937e+02 -2.918975276816622e+03
-1.157170241772918e+03 -3.038687734767336e+02 -2.918975276816622e+03
-1.157537960097977e+03 -3.054231490907831e+02 -2.918975276816622e+03
-1.157018242557673e+03 -3.076805881999098e+02 -2.918975276816622e+03
-1.156665903863180e+03 -3.095327998080220e+02 -2.918975276816622e+03
-1.156730835612800e+03 -3.152497019966671e+02 -2.918975276816622e+03
-1.156694016306065e+03 -3.172213062648919e+02 -2.918975276816622e+03
-1.156904082851978e+03 -3.188480221894273e+02 -2.918975276816622e+03
-1.156591733230478e+03 -3.203944706102334e+02 -2.918975276816622e+03
-1.156766762612332e+03 -3.217912321029472e+02 -2.918975276816622e+03
-1.156609314530406e+03 -3.235731392171130e+02 -2.918975276816622e+03
-1.156604195239399e+03 -3.242922927022304e+02 -2.918975276816622e+03
-1.156248015881504e+03 -3.256074102483414e+02 -2.918975276816622e+03
-1.157237189327415e+03 -3.270093972109808e+02 -2.918975276816622e+03
-1.156821313622604e+03 -3.289243643984192e+02 -2.918975276816622e+03
-1.156630506278602e+03 -3.298724711778402e+02 -2.918975276816622e+03
-1.156621976626422e+03 -3.312907623538390e+02 -2.918975276816622e+03
-1.156523307753376e+03 -3.348601217846227e+02 -2.918975276816622e+03
-1.156621941634244e+03 -3.354636434773132e+02 -2.918975276816622e+03
-1.156681918439567e+03 -3.365288348231101e+02 -2.918975276816622e+03
-1.156626492896163e+03 -3.385126264791440e+02 -2.918975276816622e+03
-1.156696057151790e+03 -3.413572655834384e+02 -2.918975276816622e+03
-1.156726035994958e+03 -3.427683540166946e+02 -2.918975276816622e+03
-1.156694427828409e+03 -3.441305598499346e+02 -2.918975276816622e+03
-1.156145410713073e+03 -3.483012376553530e+02 -2.918975276816622e+03
-1.156679804122358e+03 -3.484604710125628e+02 -2.918975276816622e+03
-1.156671974468424e+03 -3.532669460172656e+02 -2.918975276816622e+03
-1.156709743623122e+03 -3.575637885340735e+02 -2.918975276816622e+03
-1.156724026373495e+03 -3.586990630932466e+02 -2.918975276816622e+03
-1.156742471505296e+03 -3.622784592805066e+02 -2.918975276816622e+03
-1.156724779619556e+03 -3.629081929479166e+02 -2.918975276816622e+03
-1.156814848918721e+03 -3.647357392500052e+02 -2.918975276816622e+03
-1.156766339712004e+03 -3.672142460888745e+02 -2.918975276816622e+03
-1.156827443436504e+03 -3.710762955114324e+02 -2.918975276816622e+03
-1.156806008325321e+03 -3.725506232495170e+02 -2.918975276816622e+03
-1.156861814403149e+03 -3.741887192064109e+02 -2.918975276816622e+03
-1.156844715876378e+03 -3.768242947702107e+02 -2.918975276816622e+03
-1.156872926773056e+03 -3.776531190933981e+02 -2.918975276816622e+03
-1.156864101372419e+03 -3.798937029724282e+02 -2.918975276816622e+03
-1.156878559466113e+03 -3.803185192943384e+02 -2.918975276816622e+03
-1.156874345930486e+03 -3.825131295003699e+02 -2.918975276816622e+03
-1.156896630609053e+03 -3.861310031013626e+02 -2.918975276816622e+03
-1.156922171264383e+03  3.832708520312618e+02 -2.918975276816622e+03
-1.156951383801632e+03  3.822495521100282e+02 -2.918975276816622e+03
-1.156948962561954e+03  3.786459062972961e+02 -2.918975276816622e+03
-1.156936431939328e+03  3.775416357382362e+02 -2.918975276816622e+03
-1.156967253754213e+03  3.765460329891277e+02 -2.918975276816622e+03
-1.156989668562177e+03  3.736108631890581e+02 -2.918975276816622e+03
-1.156988620098849e+03  3.694453070282145e+02 -2.918975276816622e+03
-1.157030179243833e+03  3.642204122559954e+02 -2.918975276816622e+03
-1.156995363364910e+03  3.601311618529505e+02 -2.918975276816622e+03
-1.157014479169523e+03  3.563743837208289e+02 -2.918975276816622e+03
-1.157060912356663e+03  3.553059151645555e+02 -2.918975276816622e+03
-1.157067866067046e+03  3.532498613159661e+02 -2.918975276816622e+03
-1.156997266506023e+03  3.470793823333605e+02 -2.918975276816622e+03
-1.157019708567223e+03  3.433289957305865e+02 -2.918975276816622e+03
-1.157008548529209e+03  3.380623511554961e+02 -2.918975276816622e+03
-1.156986002285238e+03  3.353804651243901e+02 -2.918975276816622e+03
-1.156880265401540e+03  3.276280572238119e+02 -2.918975276816622e+03
-1.156853763788028e+03  3.263534767455978e+02 -2.918975276816622e+03
-1.156936361755749e+03  3.242098269304480e+02 -2.918975276816622e+03
-1.156949235662574e+03  3.217106218671267e+02 -2.918975276816622e+03
-1.156847207875529e+03  3.202291424780099e+02 -2.918975276816622e+03
-1.156705290927243e+03  3.177846499952004e+02 -2.918975276816622e+03
-1.156844154964703e+03  3.125357346782525e+02 -2.918975276816622e+03
-1.156563514605205e+03  3.104945585797372e+02 -2.918975276816622e+03
-1.156439684564397e+03  3.076335555031161e+02 -2.918975276816622e+03
-1.157102458420004e+03  3.024681111091709e+02 -2.918975276816622e+03
-1.156817492444450e+03  3.011709348981836e+02 -2.918975276816622e+03
-1.156652395387561e+03  2.978256947273299e+02 -2.918975276816622e+03
-1.156786569914577e+03  2.954280687719232e+02 -2.918975276816622e+03
-1.156549116786204e+03  2.942907900916266e+02 -2.918975276816622e+03
-1.156539364381006e+03  2.918476550314671e+02 -2.918975276816622e+03
-1.156556769821717e+03  2.902114489179734e+02 -2.918975276816622e+03
-1.156652187515034e+03  2.888984295743952e+02 -2.918975276816622e+03
-1.157041505112052e+03  2.884698815807320e+02 -2.918975276816622e+03
-1.156661335599100e+03  2.879765515881971e+02 -2.918975276816622e+03
-1.156709738055690e+03  2.865959112131865e+02 -2.918975276816622e+03
-1.156756678146516e+03  2.844018915106824e+02 -2.918975276816622e+03
-1.156784487275582e+03  2.820323766534401e+02 -2.918975276816622e+03
-1.156720971532249e+03  2.780095007766014e+02 -2.918975276816622e+03
-1.156738241475511e+03  2.777065428711030e+02 -2.918975276816622e+03
-1.156699311697431e+03  2.753601178870898e+02 -2.918975276816622e+03
-1.156770250222806e+03  2.740340371456562e+02 -2.918975276816622e+03
-1.156693978448322e+03  2.717503778974430e+02 -2.918975276816622e+03
-1.156764072422555e+03  2.711694736081329e+02 -2.918975276816622e+03
-1.156679346633661e+03  2.695886141241801e+02 -2.918975276816622e+03
-1.156796227240040e+03  2.661534602110376e+02 -2.918975276816622e+03
-1.156639985838315e+03  2.648887554259549e+02 -2.918975276816622e+03
-1.156846841258626e+03  2.627357851691481e+02 -2.918975276816622e+03
-1.156761566928596e+03  2.607964233567490e+02 -2.918975276816622e+03
-1.156847739420142e+03  2.600163692170755e+02 -2.918975276816622e+03
-1.156581047045242e+03  2.577290386747685e+02 -2.918975276816622e+03
-1.156883561968557e+03  2.568223489020616e+02 -2.918975276816622e+03
-1.156652141845470e+03  2.551832187659004e+02 -2.918975276816622e+03
-1.156891141083942e+03  2.540572400336003e+02 -2.918975276816622e+03
-1.156723313191021e+03  2.515609597246216e+02 -2.918975276816622e+03
-1.157052391689144e+03  2.502005934299888e+02 -2.918975276816622e+03
-1.156566380400934e+03  2.499115269918224e+02 -2.918975276816622e+03
-1.156844853367359e+03  2.473158140035081e+02 -2.918975276816622e+03
-1.156715391840407e+03  2.459876573174435e+02 -2.918975276816622e+03
-1.156797004740732e+03  2.442812491071087e+02 -2.918975276816622e+03
-1.156650534433676e+03  2.431024113386951e+02 -2.918975276816622e+03
-1.156640837271636e+03  2.409015124203818e+02 -2.918975276816622e+03
-1.156634808205654e+03  2.400763697632619e+02 -2.918975276816622e+03
-1.156617841586475e+03  2.385342192935556e+02 -2.918975276816622e+03
-1.156562239667405e+03  2.353422285171636e+02 -2.918975276816622e+03
-1.156455890628194e+03  2.341441080691508e+02 -2.918975276816622e+03
-1.156528307398225e+03  2.317115804964259e+02 -2.918975276816622e+03
-1.156425017169686e+03  2.298887996124066e+02 -2.918975276816622e+03
-1.156438536737580e+03  2.292401256536465e+02 -2.918975276816622e+03
-1.156317694933479e+03  2.270037035683679e+02 -2.918975276816622e+03
-1.156428697931219e+03  2.257345546086854e+02 -2.918975276816622e+03
-1.156323025440249e+03  2.249078325023711e+02 -2.918975276816622e+03
-1.156390477392033e+03  2.232967936957590e+02 -2.918975276816622e+03
-1.156290124042623e+03  2.207550107543359e+02 -2.918975276816622e+03
-1.156366434810159e+03  2.198318904818121e+02 -2.918975276816622e+03
-1.156129471945479e+03  2.184589728449707e+02 -2.918975276816622e+03
-1.156346528072017e+03  2.153977312273832e+02 -2.918975276816622e+03
-1.156314271870684e+03  2.141901447485529e+02 -2.918975276816622e+03
-1.156297497815570e+03  2.119668016540830e+02 -2.918975276816622e+03
-1.156226862527242e+03  2.100155990495468e+02 -2.918975276816622e+03
-1.156297943526070e+03  2.091561613503621e+02 -2.918975276816622e+03
-1.156267256832572e+03  2.070543123899896e+02 -2.918975276816622e+03
-1.156329904708849e+03  2.053798655259041e+02 -2.918975276816622e+03
-1.156317685839779e+03  2.044400156285614e+02 -2.918975276816622e+03
-1.156214305179351e+03  2.033395549793082e+02 -2.918975276816622e+03
-1.156243706752510e+03  2.008743273914418e+02 -2.918975276816622e+03
-1.156334871492353e+03  1.999066142954617e+02 -2.918975276816622e+03
-1.156420702264543e+03  1.981124881188157e+02 -2.918975276816622e+03
-1.156493674780835e+03  1.951963441594196e+02 -2.918975276816622e+03
-1.156009942906145e+03  1.948875430370149e+02 -2.918975276816622e+03
-1.156291333469275e+03  1.920444187346378e+02 -2.918975276816622e+03
-1.156197198557635e+03  1.901184337523178e+02 -2.918975276816622e+03
-1.156256745717290e+03  1.893039581908081e+02 -2.918975276816622e+03
-1.155780806546785e+03  1.871740661968855e+02 -2.918975276816622e+03
-1.156207149740082e+03  1.857808405251081e+02 -2.918975276816622e+03
-1.156174490506923e+03  1.845567592771209e+02 -2.918975276816622e+03
-1.156290105428684e+03  1.831869557058905e+02 -2.918975276816622e+03
-1.156310580853859e+03  1.808694818561271e+02 -2.918975276816622e+03
-1.156274529192013e+03  1.802725688092035e+02 -2.918975276816622e+03
-1.156167554614631e+03  1.787101355868566e+02 -2.918975276816622e+03
-1.156226552109010e+03  1.753712403283326e+02 -2.918975276816622e+03
-1.156286896820613e+03  1.743579065417330e+02 -2.918975276816622e+03
-1.156302110743073e+03  1.719391407856519e+02 -2.918975276816622e+03
-1.156294881080415e+03  1.701499108839893e+02 -2.918975276816622e+03
-1.156175917367860e+03  1.691699585711359e+02 -2.918975276816622e+03
-1.156355177787927e+03  1.671146575947820e+02 -2.918975276816622e+03
-1.156207206212605e+03  1.657637727334914e+02 -2.918975276816622e+03
-1.156366736266472e+03  1.646276816108217e+02 -2.918975276816622e+03
-1.156204944516823e+03  1.632335526393301e+02 -2.918975276816622e+03
-1.156380101518383e+03  1.608688947785737e+02 -2.918975276816622e+03
-1.156161924178814e+03  1.600563787688415e+02 -2.918975276816622e+03
-1.156335041386618e+03  1.585717915618036e+02 -2.918975276816622e+03
-1.156219961440859e+03  1.556837783473240e+02 -2.918975276816622e+03
-1.156284241104863e+03  1.545219691154746e+02 -2.918975276816622e+03
-1.156277226539901e+03  1.519091471385872e+02 -2.918975276816622e+03
-1.156303547534097e+03  1.501733172563291e+02 -2.918975276816622e+03
-1.156255507579902e+03  1.493484001966824e+02 -2.918975276816622e+03
-1.156290727720356e+03  1.471186921745223e+02 -2.918975276816622e+03
-1.156358890434646e+03  1.455867225815240e+02 -2.918975276816622e+03
-1.156251813645674e+03  1.447303820345889e+02 -2.918975276816622e+03
-1.156273435404837e+03  1.433612487528302e+02 -2.918975276816622e+03
-1.156372412179563e+03  1.409428566526714e+02 -2.918975276816622e+03
-1.156379890457868e+03  1.400859892433373e+02 -2.918975276816622e+03
-1.156250043455568e+03  1.385374726980235e+02 -2.918975276816622e+03
-1.156032560474344e+03  1.355276959544901e+02 -2.918975276816622e+03
-1.156425562228234e+03  1.343750757756698e+02 -2.918975276816622e+03
-1.156369424218470e+03  1.320008942988092e+02 -2.918975276816622e+03
-1.156590621589921e+03  1.301018120361134e+02 -2.918975276816622e+03
-1.156359367886965e+03  1.293637949619433e+02 -2.918975276816622e+03
-1.156480321511126e+03  1.271248764763400e+02 -2.918975276816622e+03
-1.156173480263328e+03  1.259477966401418e+02 -2.918975276816622e+03
-1.156594229579714e+03  1.247029965744045e+02 -2.918975276816622e+03
-1.156593528779828e+03  1.232775930148514e+02 -2.918975276816622e+03
-1.156599489872125e+03  1.209569766314182e+02 -2.918975276816622e+03
-1.156483103478222e+03  1.199657523754445e+02 -2.918975276816622e+03
-1.156548372721186e+03  1.185506230710823e+02 -2.918975276816622e+03
-1.156561152436734e+03  1.154585605954517e+02 -2.918975276816622e+03
-1.156642190844435e+03  1.143258007891931e+02 -2.918975276816622e+03
-1.156602230517461e+03  1.120211555050856e+02 -2.918975276816622e+03
-1.156637291336986e+03  1.104092213686607e+02 -2.918975276816622e+03
-1.156606746696769e+03  1.094682521362883e+02 -2.918975276816622e+03
-1.156688474044363e+03  1.073264367625337e+02 -2.918975276816622e+03
-1.156615957481728e+03  1.060240373583083e+02 -2.918975276816622e+03
-1.156674530668557e+03  1.046775950665336e+02 -2.918975276816622e+03
-1.156611477227954e+03  1.032520800110833e+02 -2.918975276816622e+03
-1.156685845862225e+03  1.010700368428760e+02 -2.918975276816622e+03
-1.156632536950177e+03  1.003074296157922e+02 -2.918975276816622e+03
-1.156698192239481e+03  9.822776232149410e+01 -2.918975276816622e+03
-1.156619196318440e+03  9.693635745219987e+01 -2.918975276816622e+03
-1.156720348923813e+03  9.515576627092624e+01 -2.918975276816622e+03
-1.156627217231940e+03  9.119175879018448e+01 -2.918975276816622e+03
-1.156721247935076e+03  8.994770807956505e+01 -2.918975276816622e+03
-1.156554159638008e+03  8.808795072528932e+01 -2.918975276816622e+03
-1.156687210129287e+03  8.678991556989442e+01 -2.918975276816622e+03
-1.156571474112003e+03  8.640825696225380e+01 -2.918975276816622e+03
-1.156738712887210e+03  8.508266326016680e+01 -2.918975276816622e+03
-1.156704050099677e+03  8.265216599707539e+01 -2.918975276816622e+03
-1.156608266300377e+03  7.912901218876425e+01 -2.918975276816622e+03
-1.156170702816128e+03  7.348258247065601e+01 -2.918975276816622e+03
-1.156269006305704e+03  7.184797584134299e+01 -2.918975276816622e+03
-1.156695629311941e+03  6.972260162572022e+01 -2.918975276816622e+03
-1.157552170952795e+03  6.762035793088576e+01 -2.918975276816622e+03
-1.158284688998940e+03  6.614728697888268e+01 -2.918975276816622e+03
-1.155980904675979e+03  6.423487444619327e+01 -2.918975276816622e+03
-1.157084457008303e+03  5.804088989939637e+01 -2.918975276816622e+03
-1.155959688585526e+03  5.627845545072957e+01 -2.918975276816622e+03
-1.155299417830314e+03  5.351280417100598e+01 -2.918975276816622e+03
-1.156220002028633e+03  5.077500171490604e+01 -2.918975276816622e+03
-1.156890325277640e+03  4.985812232806940e+01 -2.918975276816622e+03
-1.156731153650067e+03  4.790656789171385e+01 -2.918975276816622e+03
-1.156955494565680e+03  4.666352498410580e+01 -2.918975276816622e+03
-1.156924835283876e+03  4.422321910937836e+01 -2.918975276816622e+03
-1.157046730290726e+03  4.210272774035516e+01 -2.918975276816622e+03
-1.157034954257672e+03  4.156103983249756e+01 -2.918975276816622e+03
-1.157236536187555e+03  3.899302602185142e+01 -2.918975276816622e+03
-1.157224097609783e+03  3.657832294340650e+01 -2.918975276816622e+03
-1.157099752817196e+03  3.492996233057396e+01 -2.918975276816622e+03
-1.157371979944081e+03  3.322934096152242e+01 -2.918975276816622e+03
-1.157661656642867e+03  2.997252605503211e+01 -2.918975276816622e+03
-1.157568940671549e+03  2.883592264054344e+01 -2.918975276816622e+03
-1.157932081791410e+03  2.367838432310623e+01 -2.918975276816622e+03
-1.158200998303318e+03  2.183495365080108e+01 -2.918975276816622e+03
-1.158187745623816e+03  2.179030538282310e+01 -2.918975276816622e+03
-1.157913394409040e+03  1.903121530020753e+01 -2.918975276816622e+03
-1.157840491734155e+03  1.707865397644225e+01 -2.918975276816622e+03
-1.157767602052569e+03  1.585481394769944e+01 -2.918975276816622e+03
-1.157734495906500e+03  1.464624342475450e+01 -2.918975276816622e+03
-1.157683375328211e+03  1.323894791404522e+01 -2.918975276816622e+03
-1.157665073270359e+03  1.195567502662181e+01 -2.918975276816622e+03
-1.157596307805285e+03  7.571420418759805e+00 -2.918975276816622e+03
1.154291405676900e+03 5.926847561672343e-01 2.918975276816622e+03
 1.154344914086973e+03 -1.432558980637661e+00  2.918975276816622e+03
 1.154385287532471e+03 -2.139049409954878e+00  2.918975276816622e+03
 1.153872543396315e+03 -4.596922095014023e+00  2.918975276816622e+03
 1.153813852648058e+03 -6.435115035572714e+00  2.918975276816622e+03
 1.153594636278479e+03 -7.436205538461503e+00  2.918975276816622e+03
 1.156724481247333e+03 -6.409440196478145e+00  2.918975276816622e+03
 1.155554994329046e+03 -9.460544672435656e+00  2.918975276816622e+03
 1.154479279387638e+03 -1.652127317498298e+01  2.918975276816622e+03
 1.154134660614737e+03 -2.122029874032649e+01  2.918975276816622e+03
 1.153996323040655e+03 -2.681560254972858e+01  2.918975276816622e+03
 1.153428153675044e+03 -2.704575077480695e+01  2.918975276816622e+03
 1.153507611876350e+03 -3.035745727834574e+01  2.918975276816622e+03
 1.153484247819025e+03 -3.477588152163594e+01  2.918975276816622e+03
 1.153095475384226e+03 -3.780740334550216e+01  2.918975276816622e+03
 1.152839735489760e+03 -4.055818648513129e+01  2.918975276816622e+03
 1.154039073003620e+03 -4.032503880916140e+01  2.918975276816622e+03
 1.153342787005511e+03 -4.319042574743820e+01  2.918975276816622e+03
 1.153347848879944e+03 -4.592336697570908e+01  2.918975276816622e+03
 1.153180302999207e+03 -4.899316838233527e+01  2.918975276816622e+03
 1.153511202882963e+03 -5.074105581545635e+01  2.918975276816622e+03
 1.153306092854805e+03 -5.242897232116372e+01  2.918975276816622e+03
 1.153371022637411e+03 -5.458495832135866e+01  2.918975276816622e+03
 1.153239566774314e+03 -5.660680950360047e+01  2.918975276816622e+03
 1.153353993812268e+03 -5.891989659509974e+01  2.918975276816622e+03
 1.153294321571803e+03 -6.061026345550390e+01  2.918975276816622e+03
 1.153322028014064e+03 -6.178385580000473e+01  2.918975276816622e+03
 1.153288244014479e+03 -6.354724853202419e+01  2.918975276816622e+03
 1.153325617457025e+03 -6.532123834416861e+01  2.918975276816622e+03
 1.153353285447975e+03 -6.634048646170443e+01  2.918975276816622e+03
 1.153465485502372e+03 -6.914360135322714e+01  2.918975276816622e+03
 1.153415057027339e+03 -7.100913861417361e+01  2.918975276816622e+03
 1.153390915540535e+03 -7.209962290062128e+01  2.918975276816622e+03
 1.153485051500640e+03 -7.448843741878913e+01  2.918975276816622e+03
 1.153537001305945e+03 -7.813903322991005e+01  2.918975276816622e+03
 1.153546472240168e+03 -8.071542470642176e+01  2.918975276816622e+03
 1.153491799747423e+03 -8.184023126328826e+01  2.918975276816622e+03
 1.153458721836663e+03 -8.478624938512461e+01  2.918975276816622e+03
 1.153572994815773e+03 -8.600504594506057e+01  2.918975276816622e+03
 1.153624980113919e+03 -8.899304005957389e+01  2.918975276816622e+03
 1.153597737399528e+03 -9.073511917583838e+01  2.918975276816622e+03
 1.153518106023226e+03 -9.233065657694303e+01  2.918975276816622e+03
 1.153598646706865e+03 -9.467320598684162e+01  2.918975276816622e+03
 1.153547619198616e+03 -9.735375505477973e+01  2.918975276816622e+03
 1.153602752817321e+03 -9.786246242751878e+01  2.918975276816622e+03
 1.153515918155423e+03 -1.004469292676241e+02  2.918975276816622e+03
 1.153672941051857e+03 -1.036528840889933e+02  2.918975276816622e+03
 1.153670260539388e+03 -1.051956629554809e+02  2.918975276816622e+03
 1.153643309911285e+03 -1.060977936953289e+02  2.918975276816622e+03
 1.153756217730463e+03 -1.089379383800345e+02  2.918975276816622e+03
 1.154027811775878e+03 -1.106027899477625e+02  2.918975276816622e+03
 1.153820540241275e+03 -1.121357106349091e+02  2.918975276816622e+03
 1.153211826097664e+03 -1.142924089421916e+02  2.918975276816622e+03
 1.153703022333355e+03 -1.171919049931884e+02  2.918975276816622e+03
 1.153796896315756e+03 -1.207466367547502e+02  2.918975276816622e+03
 1.154311144876102e+03 -1.249520981422671e+02  2.918975276816622e+03
 1.154072323266822e+03 -1.266288803279432e+02  2.918975276816622e+03
 1.156465258704734e+03 -1.268291708262765e+02  2.918975276816622e+03
 1.154549986429798e+03 -1.297619057682206e+02  2.918975276816622e+03
 1.154609753706349e+03 -1.331717978731416e+02  2.918975276816622e+03
 1.153763700499560e+03 -1.433207661608760e+02  2.918975276816622e+03
 1.153697245100996e+03 -1.457833526582064e+02  2.918975276816622e+03
 1.153395092635285e+03 -1.489024775097344e+02  2.918975276816622e+03
 1.153657390850544e+03 -1.506651193251100e+02  2.918975276816622e+03
 1.154026016446202e+03 -1.522495652162909e+02  2.918975276816622e+03
 1.153835046100523e+03 -1.543647489017977e+02  2.918975276816622e+03
 1.153897277880943e+03 -1.578463898531012e+02  2.918975276816622e+03
 1.153602136589348e+03 -1.603429686464939e+02  2.918975276816622e+03
 1.153459347950954e+03 -1.615349895760060e+02  2.918975276816622e+03
 1.153757487780837e+03 -1.624960037647358e+02  2.918975276816622e+03
 1.153618355901436e+03 -1.636555240896600e+02  2.918975276816622e+03
 1.153683687410377e+03 -1.655707292175446e+02  2.918975276816622e+03
 1.153479601088628e+03 -1.664872843371491e+02  2.918975276816622e+03
 1.153671815921340e+03 -1.687009182892446e+02  2.918975276816622e+03
 1.153663766277006e+03 -1.705074417784312e+02  2.918975276816622e+03
 1.153776772683978e+03 -1.720803316096038e+02  2.918975276816622e+03
 1.153672563506413e+03 -1.742786490866207e+02  2.918975276816622e+03
 1.153813546760772e+03 -1.779278367609547e+02  2.918975276816622e+03
 1.153680968155531e+03 -1.805360193408986e+02  2.918975276816622e+03
 1.153717811076884e+03 -1.839028549967326e+02  2.918975276816622e+03
 1.153595344681469e+03 -1.861455728917729e+02  2.918975276816622e+03
 1.154031628180889e+03 -1.881909096655703e+02  2.918975276816622e+03
 1.153647173595025e+03 -1.914301676088827e+02  2.918975276816622e+03
 1.153614963435328e+03 -1.942815631911801e+02  2.918975276816622e+03
 1.153234986328056e+03 -1.976285507692234e+02  2.918975276816622e+03
 1.153629041897452e+03 -2.008619576106142e+02  2.918975276816622e+03
 1.153662911437975e+03 -2.087199017133112e+02  2.918975276816622e+03
 1.153384226050680e+03 -2.110755899614313e+02  2.918975276816622e+03
 1.153331927584876e+03 -2.178664328697283e+02  2.918975276816622e+03
 1.153253294953731e+03 -2.204404814260418e+02  2.918975276816622e+03
 1.153316768453230e+03 -2.234342438125278e+02  2.918975276816622e+03
 1.153611132405218e+03 -2.242313590756767e+02  2.918975276816622e+03
 1.153450238258972e+03 -2.257482993080678e+02  2.918975276816622e+03
 1.153474723069546e+03 -2.287899013617546e+02  2.918975276816622e+03
 1.153321498596341e+03 -2.304168483358132e+02  2.918975276816622e+03
 1.153560782602734e+03 -2.318008504117479e+02  2.918975276816622e+03
 1.153514118640917e+03 -2.344741928258651e+02  2.918975276816622e+03
 1.153652679333107e+03 -2.398204702065167e+02  2.918975276816622e+03
 1.153405353207738e+03 -2.418682061585735e+02  2.918975276816622e+03
 1.153342988202937e+03 -2.445819416933245e+02  2.918975276816622e+03
 1.153505400871712e+03 -2.476539154008673e+02  2.918975276816622e+03
 1.153585506291740e+03 -2.527102858803754e+02  2.918975276816622e+03
 1.153327210857167e+03 -2.554716863798865e+02  2.918975276816622e+03
 1.153720099153559e+03 -2.572824634977234e+02  2.918975276816622e+03
 1.153874943430433e+03 -2.606991509636833e+02  2.918975276816622e+03
 1.153626321080230e+03 -2.613880739051947e+02  2.918975276816622e+03
 1.153731740797844e+03 -2.657745685167297e+02  2.918975276816622e+03
 1.153870994791652e+03 -2.685460528059688e+02  2.918975276816622e+03
 1.153919609834887e+03 -2.714701287531014e+02  2.918975276816622e+03
 1.153719839029564e+03 -2.723312744709413e+02  2.918975276816622e+03
 1.153888225665719e+03 -2.743379969039759e+02  2.918975276816622e+03
 1.154037151458920e+03 -2.774752585998131e+02  2.918975276816622e+03
 1.154114242277548e+03 -2.794503532053080e+02  2.918975276816622e+03
 1.153972197198344e+03 -2.801658321958378e+02  2.918975276816622e+03
 1.153798556655686e+03 -2.834676673683876e+02  2.918975276816622e+03
 1.154075182739120e+03 -2.861163416688517e+02  2.918975276816622e+03
 1.154155907626455e+03 -2.913938941991517e+02  2.918975276816622e+03
 1.154235391622671e+03 -2.951340123272615e+02  2.918975276816622e+03
 1.154132219951852e+03 -2.965475962657380e+02  2.918975276816622e+03
 1.154150743406061e+03 -2.975191947573643e+02  2.918975276816622e+03
 1.153706262059177e+03 -2.979233440716887e+02  2.918975276816622e+03
 1.153600419919566e+03 -2.988425196351412e+02  2.918975276816622e+03
 1.154008951186824e+03 -3.032776158762290e+02  2.918975276816622e+03
 1.154091238612027e+03 -3.038261806000667e+02  2.918975276816622e+03
 1.154149716516012e+03 -3.074022473473191e+02  2.918975276816622e+03
 1.154040354861058e+03 -3.093935510398944e+02  2.918975276816622e+03
 1.154075766508822e+03 -3.100543946981475e+02  2.918975276816622e+03
 1.153886750531901e+03 -3.110871981071720e+02  2.918975276816622e+03
 1.154041374920737e+03 -3.115947490533854e+02  2.918975276816622e+03
 1.153912600280171e+03 -3.134300910396213e+02  2.918975276816622e+03
 1.153943393147606e+03 -3.145372252497858e+02  2.918975276816622e+03
 1.153814637431766e+03 -3.176911641712246e+02  2.918975276816622e+03
 1.153809181975069e+03 -3.214161349994812e+02  2.918975276816622e+03
 1.153722133427157e+03 -3.260623172208614e+02  2.918975276816622e+03
 1.153704604369669e+03 -3.285347947502984e+02  2.918975276816622e+03
 1.153669790679859e+03 -3.314906314105889e+02  2.918975276816622e+03
 1.153668322352872e+03 -3.323201355419488e+02  2.918975276816622e+03
 1.153572496270680e+03 -3.348086586084941e+02  2.918975276816622e+03
 1.153598506962291e+03 -3.385026058083898e+02  2.918975276816622e+03
 1.153671270391388e+03 -3.395526610635385e+02  2.918975276816622e+03
 1.153201017858448e+03 -3.439502182018751e+02  2.918975276816622e+03
 1.153410876152459e+03 -3.466830692043299e+02  2.918975276816622e+03
 1.153599091111081e+03 -3.505546755488032e+02  2.918975276816622e+03
 1.153520905025893e+03 -3.527673928473692e+02  2.918975276816622e+03
 1.153557066210500e+03 -3.548802193709761e+02  2.918975276816622e+03
 1.153518046094400e+03 -3.571980593522667e+02  2.918975276816622e+03
 1.153638164366175e+03 -3.601406787204040e+02  2.918975276816622e+03
 1.153629295088738e+03 -3.631553864458263e+02  2.918975276816622e+03
 1.153656887726033e+03 -3.646789910108614e+02  2.918975276816622e+03
 1.153700728994133e+03 -3.659068104181018e+02  2.918975276816622e+03
 1.153887653924606e+03 -3.667574993612968e+02  2.918975276816622e+03
 1.153760222188879e+03 -3.688200972045524e+02  2.918975276816622e+03
 1.153755807521668e+03 -3.708226203435336e+02  2.918975276816622e+03
 1.153688485955324e+03 -3.742643180135500e+02  2.918975276816622e+03
 1.153625987592799e+03 -3.760751432469809e+02  2.918975276816622e+03
 1.153821630201791e+03 -3.815159913305744e+02  2.918975276816622e+03
 1.153819661952665e+03 -3.833339474530146e+02  2.918975276816622e+03
 1.153813991283046e+03 -3.837822134332973e+02  2.918975276816622e+03
1.154001193603280e+03 3.851797612103226e+02 2.918975276816622e+03
1.153808861941949e+03 3.839942935355066e+02 2.918975276816622e+03
1.153782538280253e+03 3.815641362474748e+02 2.918975276816622e+03
1.153869479409076e+03 3.811239418103040e+02 2.918975276816622e+03
1.153859310322417e+03 3.765692921442778e+02 2.918975276816622e+03
1.153765970567656e+03 3.733899014728646e+02 2.918975276816622e+03
1.153874286554223e+03 3.723471840637930e+02 2.918975276816622e+03
1.153795366620411e+03 3.708818857760983e+02 2.918975276816622e+03
1.154058173824383e+03 3.675825058739811e+02 2.918975276816622e+03
1.153996028240481e+03 3.665369133780946e+02 2.918975276816622e+03
1.153970907151448e+03 3.648663213488479e+02 2.918975276816622e+03
1.153489808857453e+03 3.625875425408316e+02 2.918975276816622e+03
1.153867376577163e+03 3.594319644503453e+02 2.918975276816622e+03
1.153745707928144e+03 3.575896031293901e+02 2.918975276816622e+03
1.154456555274131e+03 3.573472839199955e+02 2.918975276816622e+03
1.153247574468334e+03 3.559888788965120e+02 2.918975276816622e+03
1.153596850815021e+03 3.558604881067450e+02 2.918975276816622e+03
1.153630917969299e+03 3.531832604748005e+02 2.918975276816622e+03
1.153656974317699e+03 3.522072678158992e+02 2.918975276816622e+03
1.153836267673013e+03 3.504702754245545e+02 2.918975276816622e+03
1.154056335955988e+03 3.451818539584641e+02 2.918975276816622e+03
1.154073330787482e+03 3.430642715743332e+02 2.918975276816622e+03
1.154317132070036e+03 3.419462685694137e+02 2.918975276816622e+03
1.154362052813477e+03 3.396765977105646e+02 2.918975276816622e+03
1.154689534498050e+03 3.324885828293241e+02 2.918975276816622e+03
1.154672033147853e+03 3.316958403748632e+02 2.918975276816622e+03
1.151658084033017e+03 3.322365924859345e+02 2.918975276816622e+03
1.152851532888208e+03 3.302720284832947e+02 2.918975276816622e+03
1.153346022281245e+03 3.281121341920485e+02 2.918975276816622e+03
1.153983227378598e+03 3.267871653459206e+02 2.918975276816622e+03
1.150909931427332e+03 3.263929365823775e+02 2.918975276816622e+03
1.151904862557242e+03 3.249464241087250e+02 2.918975276816622e+03
1.152485380074699e+03 3.240716522016859e+02 2.918975276816622e+03
1.153911061623915e+03 3.235452593798262e+02 2.918975276816622e+03
1.153350372008698e+03 3.216251077926035e+02 2.918975276816622e+03
1.153709968836299e+03 3.192012017512006e+02 2.918975276816622e+03
1.152879977338071e+03 3.154363420042893e+02 2.918975276816622e+03
1.154178791872747e+03 3.136621784805214e+02 2.918975276816622e+03
1.153361426298215e+03 3.112297937005220e+02 2.918975276816622e+03
1.154327120530106e+03 3.083783109822836e+02 2.918975276816622e+03
1.154460359657262e+03 3.017538610745390e+02 2.918975276816622e+03
1.154316593093749e+03 2.997024318451166e+02 2.918975276816622e+03
1.154129310653124e+03 2.946300425435132e+02 2.918975276816622e+03
1.154567846173613e+03 2.936870364376712e+02 2.918975276816622e+03
1.154552222110225e+03 2.880297790231619e+02 2.918975276816622e+03
1.154621240219413e+03 2.878175705294701e+02 2.918975276816622e+03
1.154298696369296e+03 2.817534924735722e+02 2.918975276816622e+03
1.154314742997795e+03 2.798154532853937e+02 2.918975276816622e+03
1.154492519401768e+03 2.769455156382877e+02 2.918975276816622e+03
1.154355519766911e+03 2.749689961645286e+02 2.918975276816622e+03
1.152738899990663e+03 2.707603683821797e+02 2.918975276816622e+03
1.153822745141111e+03 2.682531656967128e+02 2.918975276816622e+03
1.153987142032054e+03 2.644194151035991e+02 2.918975276816622e+03
1.153605131759349e+03 2.638008745077963e+02 2.918975276816622e+03
1.153618483179122e+03 2.606982638910525e+02 2.918975276816622e+03
1.153474174086684e+03 2.579595077250150e+02 2.918975276816622e+03
1.153592307268603e+03 2.563891536445985e+02 2.918975276816622e+03
1.153091706756709e+03 2.547412476341497e+02 2.918975276816622e+03
1.153426588819195e+03 2.531019725808009e+02 2.918975276816622e+03
1.153454861490749e+03 2.523656284734686e+02 2.918975276816622e+03
1.153474478744636e+03 2.505748605846935e+02 2.918975276816622e+03
1.153270302091471e+03 2.487668678298851e+02 2.918975276816622e+03
1.153409926689712e+03 2.482862851863305e+02 2.918975276816622e+03
1.153293586394537e+03 2.465414891020277e+02 2.918975276816622e+03
1.153378517239750e+03 2.456110689507846e+02 2.918975276816622e+03
1.153272588253070e+03 2.434167023235988e+02 2.918975276816622e+03
1.153414596597363e+03 2.417075024006783e+02 2.918975276816622e+03
1.153334987555191e+03 2.400177307842617e+02 2.918975276816622e+03
1.153507903098840e+03 2.383640988270623e+02 2.918975276816622e+03
1.153351757973660e+03 2.358292946763969e+02 2.918975276816622e+03
1.153457628570910e+03 2.330820985220242e+02 2.918975276816622e+03
1.153445265540422e+03 2.327696107568653e+02 2.918975276816622e+03
1.153555164347116e+03 2.299129536511522e+02 2.918975276816622e+03
1.153314188461155e+03 2.286215889404884e+02 2.918975276816622e+03
1.153537577103106e+03 2.267836181339074e+02 2.918975276816622e+03
1.153314235808466e+03 2.254530640635393e+02 2.918975276816622e+03
1.153532009592213e+03 2.242699066146390e+02 2.918975276816622e+03
1.153350270852265e+03 2.212346076347253e+02 2.918975276816622e+03
1.153647730292626e+03 2.182556606276429e+02 2.918975276816622e+03
1.153975932532519e+03 2.168722467163768e+02 2.918975276816622e+03
1.153411795765554e+03 2.158334184294359e+02 2.918975276816622e+03
1.153908199228773e+03 2.106414321479296e+02 2.918975276816622e+03
1.153210370390912e+03 2.095657134098443e+02 2.918975276816622e+03
1.153525591567818e+03 2.037940875659532e+02 2.918975276816622e+03
1.154068642371218e+03 2.011103131587226e+02 2.918975276816622e+03
1.153946221775069e+03 1.992450164460672e+02 2.918975276816622e+03
1.154749746666904e+03 1.994693634004042e+02 2.918975276816622e+03
1.154119610706908e+03 1.956721293327858e+02 2.918975276816622e+03
1.154083377702883e+03 1.923495306561039e+02 2.918975276816622e+03
1.153752348708113e+03 1.922876984837730e+02 2.918975276816622e+03
1.153371199132939e+03 1.898445012179188e+02 2.918975276816622e+03
1.154077189253834e+03 1.874628405190720e+02 2.918975276816622e+03
1.154145143577361e+03 1.843196537616299e+02 2.918975276816622e+03
1.153290291026320e+03 1.819900563448457e+02 2.918975276816622e+03
1.153445114207211e+03 1.760553994007568e+02 2.918975276816622e+03
1.152429645028216e+03 1.717685137795843e+02 2.918975276816622e+03
1.154145910261825e+03 1.702517224701652e+02 2.918975276816622e+03
1.153322317187580e+03 1.682430140164187e+02 2.918975276816622e+03
1.155215551546206e+03 1.654573556105198e+02 2.918975276816622e+03
1.150902057597161e+03 1.644915713464660e+02 2.918975276816622e+03
1.151726968880288e+03 1.636967159647015e+02 2.918975276816622e+03
1.150677853562087e+03 1.617966047379364e+02 2.918975276816622e+03
1.153984685505837e+03 1.612706252722946e+02 2.918975276816622e+03
1.153715459677643e+03 1.590629801084041e+02 2.918975276816622e+03
1.154225057375371e+03 1.575065591477939e+02 2.918975276816622e+03
1.152648498845125e+03 1.532203029846277e+02 2.918975276816622e+03
1.152744377066164e+03 1.515596618240653e+02 2.918975276816622e+03
1.152716516171046e+03 1.497228484881264e+02 2.918975276816622e+03
1.152611599765938e+03 1.488712742308074e+02 2.918975276816622e+03
1.152910991858494e+03 1.470648989963284e+02 2.918975276816622e+03
1.152943141851227e+03 1.457838762479202e+02 2.918975276816622e+03
1.153085675956226e+03 1.447755555917352e+02 2.918975276816622e+03
1.153127554645188e+03 1.415102741488482e+02 2.918975276816622e+03
1.153209780534852e+03 1.392883027116254e+02 2.918975276816622e+03
1.153204252999725e+03 1.388662142798652e+02 2.918975276816622e+03
1.153276022233295e+03 1.363018996105015e+02 2.918975276816622e+03
1.153303798652689e+03 1.303043755282670e+02 2.918975276816622e+03
1.153269745742878e+03 1.280471305413091e+02 2.918975276816622e+03
1.153220227164583e+03 1.269163887203215e+02 2.918975276816622e+03
1.153256969184268e+03 1.259581010316986e+02 2.918975276816622e+03
1.153204443610841e+03 1.246567247362896e+02 2.918975276816622e+03
1.153167945291269e+03 1.216080261642188e+02 2.918975276816622e+03
1.153009523703653e+03 1.198160659256673e+02 2.918975276816622e+03
1.153001451768316e+03 1.186779469152720e+02 2.918975276816622e+03
1.152811628797036e+03 1.163563165297725e+02 2.918975276816622e+03
1.152692369011204e+03 1.130841314174983e+02 2.918975276816622e+03
1.152383605757049e+03 1.116452748897695e+02 2.918975276816622e+03
1.152350699180903e+03 1.102847034602481e+02 2.918975276816622e+03
1.151848530428485e+03 1.085247998645627e+02 2.918975276816622e+03
1.151864157706289e+03 1.084913026675206e+02 2.918975276816622e+03
1.152326409160872e+03 1.068962118252223e+02 2.918975276816622e+03
1.152586927791275e+03 1.055819777290249e+02 2.918975276816622e+03
1.152758086182350e+03 1.045428058177039e+02 2.918975276816622e+03
1.153122711237042e+03 1.014625376550641e+02 2.918975276816622e+03
1.153432155388310e+03 9.938114045249786e+01 2.918975276816622e+03
1.153938100231272e+03 9.661325964230734e+01 2.918975276816622e+03
1.153772081364565e+03 9.655402687967825e+01 2.918975276816622e+03
1.153692251564308e+03 9.354279393338811e+01 2.918975276816622e+03
1.154210490730681e+03 9.130408743605521e+01 2.918975276816622e+03
1.154669656948388e+03 8.763193063090772e+01 2.918975276816622e+03
1.154473545330806e+03 8.582564426024335e+01 2.918975276816622e+03
1.154487118120127e+03 8.260119588638563e+01 2.918975276816622e+03
1.154838252318111e+03 8.013713029959057e+01 2.918975276816622e+03
1.155064486521414e+03 7.849224777697106e+01 2.918975276816622e+03
1.156115013174000e+03 7.261356641207146e+01 2.918975276816622e+03
1.154790389537702e+03 7.280920542275149e+01 2.918975276816622e+03
1.155153999105064e+03 6.762322742065194e+01 2.918975276816622e+03
1.155434526881091e+03 6.606588235663304e+01 2.918975276816622e+03
1.155837188779109e+03 6.258714425838311e+01 2.918975276816622e+03
1.155253590323973e+03 5.991227549342349e+01 2.918975276816622e+03
1.154777057489438e+03 5.833937442424912e+01 2.918975276816622e+03
1.155370886092675e+03 5.742465469480668e+01 2.918975276816622e+03
1.155653637410880e+03 5.533178190849927e+01 2.918975276816622e+03
1.154962728265801e+03 5.434946598877135e+01 2.918975276816622e+03
1.154859936550553e+03 5.185400614074921e+01 2.918975276816622e+03
1.155553873178626e+03 5.055117100126225e+01 2.918975276816622e+03
1.154600816226853e+03 4.791178075522996e+01 2.918975276816622e+03
1.154592169497120e+03 4.782863824504145e+01 2.918975276816622e+03
1.154391605296486e+03 4.428922117162531e+01 2.918975276816622e+03
1.154711934269664e+03 4.238697790901422e+01 2.918975276816622e+03
1.154578422684288e+03 4.189512426739311e+01 2.918975276816622e+03
1.154894490056857e+03 4.067334843054056e+01 2.918975276816622e+03
1.154655663071674e+03 3.883378988707678e+01 2.918975276816622e+03
1.154910742309778e+03 3.551101349256329e+01 2.918975276816622e+03
1.154796866675803e+03 3.407164728874373e+01 2.918975276816622e+03
1.155049513410074e+03 3.211944737806385e+01 2.918975276816622e+03
1.154946314676159e+03 3.005837590160353e+01 2.918975276816622e+03
1.155114732983292e+03 2.821744996212339e+01 2.918975276816622e+03
1.155098145830349e+03 2.544782155966791e+01 2.918975276816622e+03
1.155384519285292e+03 1.943734391868654e+01 2.918975276816622e+03
1.155528056791434e+03 1.936500935967880e+01 2.918975276816622e+03
1.155228500905044e+03 1.595758748020807e+01 2.918975276816622e+03
1.155076774080125e+03 1.440560371234007e+01 2.918975276816622e+03
1.155134509635965e+03 1.340260278751875e+01 2.918975276816622e+03
1.155331876655109e+03 1.165166503697301e+01 2.918975276816622e+03
1.154879504531365e+03 1.024506110131158e+01 2.918975276816622e+03
1.154726335883791e+03 5.451948314939031e+00 2.918975276816622e+03
1.154798184610837e+03 4.414410351323664e+00 2.918975276816622e+03
1.154550402596787e+03 2.444956450922687e+00 2.918975276816622e+03
1.154628588748702e+03 1.082567107052228e+00 2.918975276816622e+03
-1.148141739106228e+03 -3.863858941524650e+02 -2.918975276816622e+03
-1.148141739106228e+03  3.863858941524653e+02 -2.918975276816622e+03
 1.144950394371368e+03 -3.863858941524653e+02  2.918975276816622e+03
1.144950394371368e+03 3.863858941524650e+02 2.918975276816622e+03
-1.156898562423173e+03 -3.863858941524650e+02 -2.918975276816622e+03
-1.156898562423173e+03  3.863858941524653e+02 -2.918975276816622e+03
 1.153941928005182e+03 -3.863858941524653e+02  2.918975276816622e+03
1.153941928005182e+03 3.863858941524650e+02 2.918975276816622e+03
-1.148587422138160e+03  5.169218510698783e-02 -2.918975276816622e+03
-1.148530246047332e+03  3.162103125088811e+00 -2.918975276816622e+03
-1.148477949764683e+03 -1.344765596321838e+00 -2.918975276816622e+03
-1.148475759054866e+03 -2.812401543604865e+00 -2.918975276816622e+03
-1.148647830027004e+03 -4.591913140595643e+00 -2.918975276816622e+03
-1.148637134251033e+03 -5.833972073222837e+00 -2.918975276816622e+03
-1.148507171446303e+03 -7.315326912568312e+00 -2.918975276816622e+03
-1.148491706300108e+03 -9.408203221898052e+00 -2.918975276816622e+03
-1.148561436140293e+03 -1.180995263923832e+01 -2.918975276816622e+03
-1.148563107630237e+03 -1.335234127658246e+01 -2.918975276816622e+03
-1.148525314781924e+03 -1.515186358585301e+01 -2.918975276816622e+03
-1.148503354209405e+03 -1.835590697022807e+01 -2.918975276816622e+03
-1.148502095031911e+03 -2.150065544970664e+01 -2.918975276816622e+03
-1.148474691045920e+03 -2.491962154054253e+01 -2.918975276816622e+03
-1.148359946485675e+03 -2.750475811919095e+01 -2.918975276816622e+03
-1.148249118114042e+03 -2.915902680826609e+01 -2.918975276816622e+03
-1.148169938565562e+03 -3.133779625939117e+01 -2.918975276816622e+03
-1.147768442888686e+03 -3.234919002752331e+01 -2.918975276816622e+03
-1.147786538556384e+03 -3.363375139842775e+01 -2.918975276816622e+03
-1.148094151350801e+03 -3.544874720290132e+01 -2.918975276816622e+03
-1.147986142834361e+03 -3.715008739011358e+01 -2.918975276816622e+03
-1.147920432187121e+03 -3.918915395328825e+01 -2.918975276816622e+03
-1.148164575612274e+03 -4.053363663563620e+01 -2.918975276816622e+03
-1.148145675254043e+03 -4.222075594866649e+01 -2.918975276816622e+03
-1.147650886008180e+03 -4.422557816568011e+01 -2.918975276816622e+03
-1.147479753629383e+03 -4.626107573292168e+01 -2.918975276816622e+03
-1.147540797983317e+03 -4.858803939894445e+01 -2.918975276816622e+03
-1.147592625322497e+03 -5.003718246301675e+01 -2.918975276816622e+03
-1.147518587821976e+03 -5.124511229906400e+01 -2.918975276816622e+03
-1.147444405932483e+03 -5.316258536365087e+01 -2.918975276816622e+03
-1.147401869242567e+03 -5.424218766533559e+01 -2.918975276816622e+03
-1.147366952526076e+03 -5.512770496025544e+01 -2.918975276816622e+03
-1.147462788185805e+03 -5.719170022252081e+01 -2.918975276816622e+03
-1.147561028482580e+03 -5.930098812413229e+01 -2.918975276816622e+03
-1.147584564115584e+03 -6.076421146798396e+01 -2.918975276816622e+03
-1.147584001232084e+03 -6.234911170031892e+01 -2.918975276816622e+03
-1.147639946367914e+03 -6.382878837869445e+01 -2.918975276816622e+03
-1.147682537533684e+03 -6.532220162270002e+01 -2.918975276816622e+03
-1.147631749635330e+03 -6.682809736344193e+01 -2.918975276816622e+03
-1.147621217049207e+03 -6.861704632736922e+01 -2.918975276816622e+03
-1.147582263791810e+03 -7.023668997985237e+01 -2.918975276816622e+03
-1.147626431730321e+03 -7.137013261548647e+01 -2.918975276816622e+03
-1.147882676876051e+03 -7.318615523712282e+01 -2.918975276816622e+03
-1.147876546292799e+03 -7.475800382919687e+01 -2.918975276816622e+03
-1.147668303299126e+03 -7.578438640431564e+01 -2.918975276816622e+03
-1.147657784121891e+03 -7.729038961456531e+01 -2.918975276816622e+03
-1.147980797007831e+03 -7.929614753618618e+01 -2.918975276816622e+03
-1.147989766463267e+03 -8.085534181308715e+01 -2.918975276816622e+03
-1.147726968712401e+03 -8.239365098143710e+01 -2.918975276816622e+03
-1.147721892732031e+03 -8.418747027637774e+01 -2.918975276816622e+03
-1.147770902106415e+03 -8.633597323556197e+01 -2.918975276816622e+03
-1.147789937916279e+03 -8.860077001530119e+01 -2.918975276816622e+03
-1.147769930442177e+03 -8.997228723503301e+01 -2.918975276816622e+03
-1.147748318441704e+03 -9.125492424221046e+01 -2.918975276816622e+03
-1.147715267318353e+03 -9.348532414935595e+01 -2.918975276816622e+03
-1.147688556358655e+03 -9.520934360639170e+01 -2.918975276816622e+03
-1.147676863326600e+03 -9.700141517407324e+01 -2.918975276816622e+03
-1.147686761578529e+03 -9.937984239624529e+01 -2.918975276816622e+03
-1.147695751047682e+03 -1.008515086329998e+02 -2.918975276816622e+03
-1.147669619852265e+03 -1.023189713993137e+02 -2.918975276816622e+03
-1.147630776336010e+03 -1.037388169046907e+02 -2.918975276816622e+03
-1.147612064013934e+03 -1.052068184059014e+02 -2.918975276816622e+03
-1.147623465130891e+03 -1.067161652713169e+02 -2.918975276816622e+03
-1.147591444840949e+03 -1.084868134898279e+02 -2.918975276816622e+03
-1.147531340069248e+03 -1.101131872497216e+02 -2.918975276816622e+03
-1.147499390507068e+03 -1.113796762445439e+02 -2.918975276816622e+03
-1.147533497500248e+03 -1.132010169092214e+02 -2.918975276816622e+03
-1.147523742253908e+03 -1.142014123659440e+02 -2.918975276816622e+03
-1.147500605060745e+03 -1.150110828818920e+02 -2.918975276816622e+03
-1.147521814852649e+03 -1.170531824892412e+02 -2.918975276816622e+03
-1.147445494204479e+03 -1.192445189710589e+02 -2.918975276816622e+03
-1.147454632555064e+03 -1.207417670828318e+02 -2.918975276816622e+03
-1.147618210999069e+03 -1.223920112692486e+02 -2.918975276816622e+03
-1.147587845880854e+03 -1.241338336429244e+02 -2.918975276816622e+03
-1.147444441140735e+03 -1.260126134927693e+02 -2.918975276816622e+03
-1.147449164252898e+03 -1.284005682593984e+02 -2.918975276816622e+03
-1.147463686348148e+03 -1.299711490414483e+02 -2.918975276816622e+03
-1.147473423785180e+03 -1.312812978145805e+02 -2.918975276816622e+03
-1.147476443947543e+03 -1.331903386868308e+02 -2.918975276816622e+03
-1.147459736907577e+03 -1.343181202319738e+02 -2.918975276816622e+03
-1.147440218110160e+03 -1.351192995161570e+02 -2.918975276816622e+03
-1.147470935971897e+03 -1.370855637324513e+02 -2.918975276816622e+03
-1.147529500628976e+03 -1.392278397233596e+02 -2.918975276816622e+03
-1.147537520798460e+03 -1.406583894646761e+02 -2.918975276816622e+03
-1.147557311721391e+03 -1.422151564705900e+02 -2.918975276816622e+03
-1.147587143789950e+03 -1.436473325338089e+02 -2.918975276816622e+03
-1.147635682201248e+03 -1.451314420388204e+02 -2.918975276816622e+03
-1.147663631100462e+03 -1.466415097568223e+02 -2.918975276816622e+03
-1.147679085114657e+03 -1.483932918120710e+02 -2.918975276816622e+03
-1.147711285974255e+03 -1.499895044847567e+02 -2.918975276816622e+03
-1.147738829460764e+03 -1.511886964999725e+02 -2.918975276816622e+03
-1.147774202782604e+03 -1.530350805110613e+02 -2.918975276816622e+03
-1.147775606969730e+03 -1.540589293210956e+02 -2.918975276816622e+03
-1.147776668766621e+03 -1.550244801631870e+02 -2.918975276816622e+03
-1.147802007082041e+03 -1.580692413251594e+02 -2.918975276816622e+03
-1.147826502037944e+03 -1.607029559997370e+02 -2.918975276816622e+03
-1.147818937638534e+03 -1.622129017987984e+02 -2.918975276816622e+03
-1.147827298194602e+03 -1.639614883285579e+02 -2.918975276816622e+03
-1.147834210567776e+03 -1.659173353045823e+02 -2.918975276816622e+03
-1.147835416539928e+03 -1.682931674790820e+02 -2.918975276816622e+03
-1.147677758537593e+03 -1.693911786517549e+02 -2.918975276816622e+03
-1.147678708038023e+03 -1.708205050379532e+02 -2.918975276816622e+03
-1.147879732106920e+03 -1.740018635660318e+02 -2.918975276816622e+03
-1.147950324285747e+03 -1.769902408597599e+02 -2.918975276816622e+03
-1.147952729050944e+03 -1.792643912218822e+02 -2.918975276816622e+03
-1.147956638622715e+03 -1.807416916453996e+02 -2.918975276816622e+03
-1.147976501864125e+03 -1.822100007419703e+02 -2.918975276816622e+03
-1.147981184259876e+03 -1.839285644084863e+02 -2.918975276816622e+03
-1.148006083138088e+03 -1.859042374744868e+02 -2.918975276816622e+03
-1.148025675775142e+03 -1.882962742109571e+02 -2.918975276816622e+03
-1.148022062743765e+03 -1.898124920000141e+02 -2.918975276816622e+03
-1.148008590933495e+03 -1.910359123541469e+02 -2.918975276816622e+03
-1.148012423915266e+03 -1.929204204070967e+02 -2.918975276816622e+03
-1.148021689940532e+03 -1.940998988463732e+02 -2.918975276816622e+03
-1.148003647624776e+03 -1.951720798993344e+02 -2.918975276816622e+03
-1.147998701220944e+03 -1.980538827967103e+02 -2.918975276816622e+03
-1.147999902263750e+03 -2.005686092388086e+02 -2.918975276816622e+03
-1.148015041939292e+03 -2.020913045307778e+02 -2.918975276816622e+03
-1.148013222301664e+03 -2.035834078750164e+02 -2.918975276816622e+03
-1.147989366869500e+03 -2.050445754376932e+02 -2.918975276816622e+03
-1.147988208193426e+03 -2.065510568766483e+02 -2.918975276816622e+03
-1.147995161493343e+03 -2.083291261450066e+02 -2.918975276816622e+03
-1.147986612754913e+03 -2.099914428920063e+02 -2.918975276816622e+03
-1.147962354212340e+03 -2.114113282464749e+02 -2.918975276816622e+03
-1.147938558674722e+03 -2.140156829549660e+02 -2.918975276816622e+03
-1.147902280079571e+03 -2.169195035624976e+02 -2.918975276816622e+03
-1.147867871577904e+03 -2.191722503534660e+02 -2.918975276816622e+03
-1.147842480617858e+03 -2.206630558986940e+02 -2.918975276816622e+03
-1.147806527799209e+03 -2.221491277447848e+02 -2.918975276816622e+03
-1.147756589922442e+03 -2.238659916705679e+02 -2.918975276816622e+03
-1.147695049246873e+03 -2.258519569643967e+02 -2.918975276816622e+03
-1.147601326033596e+03 -2.282592487476033e+02 -2.918975276816622e+03
-1.147524327839936e+03 -2.298275043733913e+02 -2.918975276816622e+03
-1.147462074551051e+03 -2.310925687719862e+02 -2.918975276816622e+03
-1.147333011801590e+03 -2.328774962891812e+02 -2.918975276816622e+03
-1.147226311887747e+03 -2.338049826708373e+02 -2.918975276816622e+03
-1.147362286463155e+03 -2.346949994222285e+02 -2.918975276816622e+03
-1.147527030035244e+03 -2.368363346897340e+02 -2.918975276816622e+03
-1.147620581595545e+03 -2.391225852732473e+02 -2.918975276816622e+03
-1.147701084895355e+03 -2.406383634352172e+02 -2.918975276816622e+03
-1.147777206833898e+03 -2.421544492596141e+02 -2.918975276816622e+03
-1.147830543546911e+03 -2.438029201912458e+02 -2.918975276816622e+03
-1.147877014631469e+03 -2.457405086295895e+02 -2.918975276816622e+03
-1.147938153026558e+03 -2.470457629898982e+02 -2.918975276816622e+03
-1.147951813287275e+03 -2.484427246269313e+02 -2.918975276816622e+03
-1.147946886898588e+03 -2.503347080633946e+02 -2.918975276816622e+03
-1.147942228347159e+03 -2.512485088988736e+02 -2.918975276816622e+03
-1.147944246415999e+03 -2.527965137069467e+02 -2.918975276816622e+03
-1.147921987505160e+03 -2.545927665175070e+02 -2.918975276816622e+03
-1.147855310373980e+03 -2.563111897017713e+02 -2.918975276816622e+03
-1.147843593897413e+03 -2.575748410588016e+02 -2.918975276816622e+03
-1.147905312611113e+03 -2.589649451298213e+02 -2.918975276816622e+03
-1.147887463502844e+03 -2.605463836128836e+02 -2.918975276816622e+03
-1.147783576349610e+03 -2.621627961772846e+02 -2.918975276816622e+03
-1.147724814263476e+03 -2.647679264344749e+02 -2.918975276816622e+03
-1.147771473470323e+03 -2.673750082849400e+02 -2.918975276816622e+03
-1.147840151757827e+03 -2.698523786588872e+02 -2.918975276816622e+03
-1.147930524338879e+03 -2.724713923581624e+02 -2.918975276816622e+03
-1.148068031786106e+03 -2.746794029051462e+02 -2.918975276816622e+03
-1.147950424850042e+03 -2.764455385580343e+02 -2.918975276816622e+03
-1.147840654430245e+03 -2.788357813503092e+02 -2.918975276816622e+03
-1.147927193526482e+03 -2.823185983835187e+02 -2.918975276816622e+03
-1.147986890478619e+03 -2.850861505738380e+02 -2.918975276816622e+03
-1.148009593062019e+03 -2.867873943995884e+02 -2.918975276816622e+03
-1.147965851894577e+03 -2.889698811335038e+02 -2.918975276816622e+03
-1.147957901157086e+03 -2.914054156121917e+02 -2.918975276816622e+03
-1.147949950419594e+03 -2.938409500908793e+02 -2.918975276816622e+03
-1.147994161758110e+03 -2.968438291186167e+02 -2.918975276816622e+03
-1.148056109451379e+03 -2.994508459185857e+02 -2.918975276816622e+03
-1.148101708798293e+03 -3.019733636215885e+02 -2.918975276816622e+03
-1.148025939195022e+03 -3.039755041446523e+02 -2.918975276816622e+03
-1.147961062046086e+03 -3.057949977132528e+02 -2.918975276816622e+03
-1.147656579561304e+03 -3.090122625770463e+02 -2.918975276816622e+03
-1.147801327607865e+03 -3.123968176203917e+02 -2.918975276816622e+03
-1.148411588374013e+03 -3.161047546878075e+02 -2.918975276816622e+03
-1.148455394313218e+03 -3.193165356948930e+02 -2.918975276816622e+03
-1.148306407352502e+03 -3.216947354072630e+02 -2.918975276816622e+03
-1.147956351857478e+03 -3.241078283052770e+02 -2.918975276816622e+03
-1.148133375592892e+03 -3.259141572861080e+02 -2.918975276816622e+03
-1.148373516351017e+03 -3.283900156183735e+02 -2.918975276816622e+03
-1.147127999158712e+03 -3.319450425964038e+02 -2.918975276816622e+03
-1.146821641614041e+03 -3.345307900619387e+02 -2.918975276816622e+03
-1.147677176470354e+03 -3.371260583834398e+02 -2.918975276816622e+03
-1.147654492367428e+03 -3.398844565362186e+02 -2.918975276816622e+03
-1.147351483760309e+03 -3.420592019603098e+02 -2.918975276816622e+03
-1.147263445778526e+03 -3.444268429274378e+02 -2.918975276816622e+03
-1.147153652476536e+03 -3.461699522398832e+02 -2.918975276816622e+03
-1.147813142726453e+03 -3.468329068111141e+02 -2.918975276816622e+03
-1.148374888976284e+03 -3.479263788850224e+02 -2.918975276816622e+03
-1.148262412660281e+03 -3.508447388923531e+02 -2.918975276816622e+03
-1.148203272893167e+03 -3.532909433545223e+02 -2.918975276816622e+03
-1.148975654168804e+03 -3.550394997255535e+02 -2.918975276816622e+03
-1.148244518470086e+03 -3.562712671057093e+02 -2.918975276816622e+03
-1.146863948323568e+03 -3.570881753201429e+02 -2.918975276816622e+03
-1.147366242315612e+03 -3.584313979299384e+02 -2.918975276816622e+03
-1.147688576921775e+03 -3.605324467138269e+02 -2.918975276816622e+03
-1.147884408280054e+03 -3.634458748303314e+02 -2.918975276816622e+03
-1.147954761962778e+03 -3.659320903342957e+02 -2.918975276816622e+03
-1.148025115645501e+03 -3.684183058382595e+02 -2.918975276816622e+03
-1.148067459727024e+03 -3.707214762403432e+02 -2.918975276816622e+03
-1.148068418709293e+03 -3.729317931605437e+02 -2.918975276816622e+03
-1.148097661771406e+03 -3.742278579920869e+02 -2.918975276816622e+03
-1.148084311512866e+03 -3.753710985707826e+02 -2.918975276816622e+03
-1.148082562223703e+03 -3.769501956459197e+02 -2.918975276816622e+03
-1.148082763987760e+03 -3.785902459909015e+02 -2.918975276816622e+03
-1.148050615601620e+03 -3.798108142795146e+02 -2.918975276816622e+03
-1.148051833993151e+03 -3.811501737424358e+02 -2.918975276816622e+03
-1.148093598209657e+03 -3.841828746466056e+02 -2.918975276816622e+03
-1.148145292640022e+03 -3.862121476209181e+02 -2.918975276816622e+03
-1.148087124237684e+03  3.821491995706351e+02 -2.918975276816622e+03
-1.148102596330987e+03  3.797729834651982e+02 -2.918975276816622e+03
-1.148110563648630e+03  3.848616008879093e+02 -2.918975276816622e+03
-1.148110135727193e+03  3.779379163930808e+02 -2.918975276816622e+03
-1.148114302374669e+03  3.769189286993400e+02 -2.918975276816622e+03
-1.148125105398339e+03  3.751067663851400e+02 -2.918975276816622e+03
-1.148136162083482e+03  3.723647030295538e+02 -2.918975276816622e+03
-1.148145396002273e+03  3.697608435980988e+02 -2.918975276816622e+03
-1.148168884261780e+03  3.670263955317689e+02 -2.918975276816622e+03
-1.148206626862000e+03  3.641613588305641e+02 -2.918975276816622e+03
-1.148244369462221e+03  3.612963221293592e+02 -2.918975276816622e+03
-1.148187235082904e+03  3.587187420744842e+02 -2.918975276816622e+03
-1.148159799483967e+03  3.561161753541198e+02 -2.918975276816622e+03
-1.148193232503734e+03  3.537061644474369e+02 -2.918975276816622e+03
-1.148188151404550e+03  3.518977060862692e+02 -2.918975276816622e+03
-1.148232931852646e+03  3.498202089282475e+02 -2.918975276816622e+03
-1.148476972245850e+03  3.472399339046952e+02 -2.918975276816622e+03
-1.148411251691717e+03  3.451095783724455e+02 -2.918975276816622e+03
-1.148194429141191e+03  3.428406121801747e+02 -2.918975276816622e+03
-1.148251780768180e+03  3.409260958876928e+02 -2.918975276816622e+03
-1.148220378689085e+03  3.394304991361956e+02 -2.918975276816622e+03
-1.148140723111975e+03  3.369110227486318e+02 -2.918975276816622e+03
-1.148042491549412e+03  3.340289128837907e+02 -2.918975276816622e+03
-1.147944259986849e+03  3.311468030189494e+02 -2.918975276816622e+03
-1.147859472945446e+03  3.287066194058481e+02 -2.918975276816622e+03
-1.147864387891143e+03  3.268765707958162e+02 -2.918975276816622e+03
-1.147847790914319e+03  3.247528494072906e+02 -2.918975276816622e+03
-1.147717873853408e+03  3.234470099242868e+02 -2.918975276816622e+03
-1.147718153287097e+03  3.222525444348175e+02 -2.918975276816622e+03
-1.147808883101996e+03  3.206514161243882e+02 -2.918975276816622e+03
-1.147977474307457e+03  3.187485397456028e+02 -2.918975276816622e+03
-1.147935766366306e+03  3.152676525425409e+02 -2.918975276816622e+03
-1.147892437204482e+03  3.126166062849938e+02 -2.918975276816622e+03
-1.147891998714429e+03  3.108538348419630e+02 -2.918975276816622e+03
-1.147828051812124e+03  3.083772194293574e+02 -2.918975276816622e+03
-1.147787106183767e+03  3.059629335531574e+02 -2.918975276816622e+03
-1.147740330810682e+03  3.041388133675025e+02 -2.918975276816622e+03
-1.147818995063051e+03  3.022651500385011e+02 -2.918975276816622e+03
-1.147782054761582e+03  2.999408708694873e+02 -2.918975276816622e+03
-1.147710676303633e+03  2.974856134544400e+02 -2.918975276816622e+03
-1.147700389794316e+03  2.961174094247984e+02 -2.918975276816622e+03
-1.147748309257267e+03  2.948218567723226e+02 -2.918975276816622e+03
-1.147770483740125e+03  2.925103089204018e+02 -2.918975276816622e+03
-1.147769799219255e+03  2.901971678772773e+02 -2.918975276816622e+03
-1.147756263866579e+03  2.887664835619361e+02 -2.918975276816622e+03
-1.147758590478217e+03  2.873647810291170e+02 -2.918975276816622e+03
-1.147781878136441e+03  2.847012040506542e+02 -2.918975276816622e+03
-1.147792904680429e+03  2.825902055292809e+02 -2.918975276816622e+03
-1.147787188018712e+03  2.810578308169000e+02 -2.918975276816622e+03
-1.147805525649713e+03  2.790548964077378e+02 -2.918975276816622e+03
-1.147842324869586e+03  2.770970444153393e+02 -2.918975276816622e+03
-1.147863745735718e+03  2.759345086393189e+02 -2.918975276816622e+03
-1.147837558082095e+03  2.749500012029160e+02 -2.918975276816622e+03
-1.147762365327560e+03  2.729595814581302e+02 -2.918975276816622e+03
-1.147779507501906e+03  2.712920527990299e+02 -2.918975276816622e+03
-1.147877040855247e+03  2.700103127110879e+02 -2.918975276816622e+03
-1.147866288222274e+03  2.679122811492504e+02 -2.918975276816622e+03
-1.147821574581088e+03  2.661258082302306e+02 -2.918975276816622e+03
-1.147815310827197e+03  2.642986514953527e+02 -2.918975276816622e+03
-1.147818890245578e+03  2.620269769883547e+02 -2.918975276816622e+03
-1.147820234131511e+03  2.605062443319798e+02 -2.918975276816622e+03
-1.147814138061033e+03  2.590211056018798e+02 -2.918975276816622e+03
-1.147813608318368e+03  2.573811019217877e+02 -2.918975276816622e+03
-1.147794933808835e+03  2.553772278415818e+02 -2.918975276816622e+03
-1.147782169903800e+03  2.527140016361415e+02 -2.918975276816622e+03
-1.147745014506147e+03  2.508115454047117e+02 -2.918975276816622e+03
-1.147747418179931e+03  2.498483751117393e+02 -2.918975276816622e+03
-1.147761249756759e+03  2.482963718596206e+02 -2.918975276816622e+03
-1.147749933297898e+03  2.464669722103083e+02 -2.918975276816622e+03
-1.147682650296689e+03  2.447272040817298e+02 -2.918975276816622e+03
-1.147654787634071e+03  2.434990537925298e+02 -2.918975276816622e+03
-1.147624643861187e+03  2.420130427858411e+02 -2.918975276816622e+03
-1.147602726877131e+03  2.403736378234765e+02 -2.918975276816622e+03
-1.147591265991976e+03  2.393109858788827e+02 -2.918975276816622e+03
-1.147561213046545e+03  2.374207141119811e+02 -2.918975276816622e+03
-1.147502945376507e+03  2.358228723669198e+02 -2.918975276816622e+03
-1.147465454251876e+03  2.347060715240068e+02 -2.918975276816622e+03
-1.147411149426756e+03  2.330066797927654e+02 -2.918975276816622e+03
-1.147439401865466e+03  2.312575289475785e+02 -2.918975276816622e+03
-1.147380939116199e+03  2.300347581953335e+02 -2.918975276816622e+03
-1.147223972129930e+03  2.283993878568665e+02 -2.918975276816622e+03
-1.147215349418624e+03  2.267942544693870e+02 -2.918975276816622e+03
-1.147167493386980e+03  2.253701057733168e+02 -2.918975276816622e+03
-1.147032339122814e+03  2.238913500811881e+02 -2.918975276816622e+03
-1.146959075616096e+03  2.218888067761785e+02 -2.918975276816622e+03
-1.146962454117268e+03  2.184733291747096e+02 -2.918975276816622e+03
-1.146568697728732e+03  2.162829195432940e+02 -2.918975276816622e+03
-1.146416563793861e+03  2.152056332621882e+02 -2.918975276816622e+03
-1.146593114978008e+03  2.136939909495214e+02 -2.918975276816622e+03
-1.146747033726442e+03  2.124537795468953e+02 -2.918975276816622e+03
-1.146846805405102e+03  2.110722406477125e+02 -2.918975276816622e+03
-1.146883862302293e+03  2.097155599547502e+02 -2.918975276816622e+03
-1.146921430769195e+03  2.081783844420656e+02 -2.918975276816622e+03
-1.147006946735965e+03  2.065044039744181e+02 -2.918975276816622e+03
-1.147086714417205e+03  2.049767912162100e+02 -2.918975276816622e+03
-1.147088266134812e+03  2.036628399201941e+02 -2.918975276816622e+03
-1.146978694334573e+03  2.020752337621973e+02 -2.918975276816622e+03
-1.147041791634363e+03  2.009616542258186e+02 -2.918975276816622e+03
-1.147158583968486e+03  1.998358786625678e+02 -2.918975276816622e+03
-1.146961915803182e+03  1.974962529487691e+02 -2.918975276816622e+03
-1.146952598685040e+03  1.942363844294227e+02 -2.918975276816622e+03
-1.147122373279432e+03  1.912230768510643e+02 -2.918975276816622e+03
-1.147160676331811e+03  1.897036145749999e+02 -2.918975276816622e+03
-1.147115796054371e+03  1.882185805581610e+02 -2.918975276816622e+03
-1.147065690423859e+03  1.867959722728079e+02 -2.918975276816622e+03
-1.147040512959601e+03  1.853579394280715e+02 -2.918975276816622e+03
-1.147022778292312e+03  1.838883888138981e+02 -2.918975276816622e+03
-1.146959195025550e+03  1.819573131246487e+02 -2.918975276816622e+03
-1.146724042019792e+03  1.797742757542631e+02 -2.918975276816622e+03
-1.146624881514918e+03  1.786740557063451e+02 -2.918975276816622e+03
-1.146762484728662e+03  1.773102248906792e+02 -2.918975276816622e+03
-1.146691189629576e+03  1.761922922477243e+02 -2.918975276816622e+03
-1.146703966501451e+03  1.747884872840797e+02 -2.918975276816622e+03
-1.146808283263489e+03  1.726211865666176e+02 -2.918975276816622e+03
-1.146890147492682e+03  1.709765277395364e+02 -2.918975276816622e+03
-1.146955533905568e+03  1.696167688500929e+02 -2.918975276816622e+03
-1.146952580894171e+03  1.682305142042908e+02 -2.918975276816622e+03
-1.146936537947191e+03  1.668318121671225e+02 -2.918975276816622e+03
-1.146940200243558e+03  1.652789430320150e+02 -2.918975276816622e+03
-1.146971824688920e+03  1.638291034104928e+02 -2.918975276816622e+03
-1.146970573728047e+03  1.621627128496291e+02 -2.918975276816622e+03
-1.146928381623539e+03  1.606809603905736e+02 -2.918975276816622e+03
-1.146916396877164e+03  1.593160402914934e+02 -2.918975276816622e+03
-1.146945517990160e+03  1.571964525508290e+02 -2.918975276816622e+03
-1.146897663564242e+03  1.561747293352612e+02 -2.918975276816622e+03
-1.146866902353069e+03  1.546499318984426e+02 -2.918975276816622e+03
-1.146926930677077e+03  1.523901703153652e+02 -2.918975276816622e+03
-1.146999653219946e+03  1.508080601012239e+02 -2.918975276816622e+03
-1.146970278920913e+03  1.495169887575864e+02 -2.918975276816622e+03
-1.146946439078853e+03  1.482875823876271e+02 -2.918975276816622e+03
-1.146962789067404e+03  1.469226418594655e+02 -2.918975276816622e+03
-1.146972031361726e+03  1.454111324292419e+02 -2.918975276816622e+03
-1.146970623663947e+03  1.439325512028966e+02 -2.918975276816622e+03
-1.146954321294661e+03  1.421887195825372e+02 -2.918975276816622e+03
-1.146980877319501e+03  1.408836497417578e+02 -2.918975276816622e+03
-1.146972278382521e+03  1.397084926741978e+02 -2.918975276816622e+03
-1.146929243965566e+03  1.378500139391641e+02 -2.918975276816622e+03
-1.146902454578808e+03  1.368008437886332e+02 -2.918975276816622e+03
-1.146954672823443e+03  1.353768704280448e+02 -2.918975276816622e+03
-1.147021508914717e+03  1.336313842183648e+02 -2.918975276816622e+03
-1.147119893538494e+03  1.317516581141185e+02 -2.918975276816622e+03
-1.147185758719901e+03  1.298651374408532e+02 -2.918975276816622e+03
-1.147242382283239e+03  1.283907207841251e+02 -2.918975276816622e+03
-1.147315938485314e+03  1.266373410364713e+02 -2.918975276816622e+03
-1.147337685230436e+03  1.245885700464389e+02 -2.918975276816622e+03
-1.147361889737580e+03  1.222404409381269e+02 -2.918975276816622e+03
-1.147438532094218e+03  1.206173523561041e+02 -2.918975276816622e+03
-1.147671553217324e+03  1.190047409251971e+02 -2.918975276816622e+03
-1.147729820664262e+03  1.163427622546534e+02 -2.918975276816622e+03
-1.147655320624383e+03  1.138651670349336e+02 -2.918975276816622e+03
-1.147645100392099e+03  1.124442674723305e+02 -2.918975276816622e+03
-1.147602458602227e+03  1.112453471020984e+02 -2.918975276816622e+03
-1.147655108349622e+03  1.100152648166059e+02 -2.918975276816622e+03
-1.147775912637371e+03  1.083604017988856e+02 -2.918975276816622e+03
-1.147759185542463e+03  1.066295674243310e+02 -2.918975276816622e+03
-1.147690114761080e+03  1.053568883052719e+02 -2.918975276816622e+03
-1.147673593826669e+03  1.040357709979909e+02 -2.918975276816622e+03
-1.147716831414643e+03  1.022332847131959e+02 -2.918975276816622e+03
-1.147727820157218e+03  1.005189646490359e+02 -2.918975276816622e+03
-1.147776060593985e+03  9.932586526228991e+01 -2.918975276816622e+03
-1.147808055436426e+03  9.789433914793868e+01 -2.918975276816622e+03
-1.147901814161198e+03  9.619297326449220e+01 -2.918975276816622e+03
-1.148098830045032e+03  9.333666814699777e+01 -2.918975276816622e+03
-1.148400057821771e+03  9.017261758707683e+01 -2.918975276816622e+03
-1.148885396772791e+03  8.714678616248202e+01 -2.918975276816622e+03
-1.148315019159643e+03  8.440710728451069e+01 -2.918975276816622e+03
-1.147959414608642e+03  8.329901764483502e+01 -2.918975276816622e+03
-1.148125121654904e+03  8.293040687430405e+01 -2.918975276816622e+03
-1.148242997421946e+03  8.179517839497004e+01 -2.918975276816622e+03
-1.148126469139061e+03  7.983879844004737e+01 -2.918975276816622e+03
-1.147612844691051e+03  7.746888538028325e+01 -2.918975276816622e+03
-1.147544967519696e+03  7.497133258306953e+01 -2.918975276816622e+03
-1.147583226392265e+03  7.273647544256728e+01 -2.918975276816622e+03
-1.147610085915082e+03  7.114796075659149e+01 -2.918975276816622e+03
-1.147554830038164e+03  6.936153732630218e+01 -2.918975276816622e+03
-1.147502663967559e+03  6.776673353530295e+01 -2.918975276816622e+03
-1.147482645948326e+03  6.650899797323825e+01 -2.918975276816622e+03
-1.147530383943835e+03  6.378021965827194e+01 -2.918975276816622e+03
-1.147581978429776e+03  6.023934896117859e+01 -2.918975276816622e+03
-1.147648220296739e+03  5.679325597610124e+01 -2.918975276816622e+03
-1.147742965739319e+03  5.401874595321010e+01 -2.918975276816622e+03
-1.147943857963443e+03  5.208873409495516e+01 -2.918975276816622e+03
-1.148024023707120e+03  5.037348310452555e+01 -2.918975276816622e+03
-1.148071438576887e+03  4.856546370744294e+01 -2.918975276816622e+03
-1.147773422322148e+03  4.614907577938195e+01 -2.918975276816622e+03
-1.147753926891200e+03  4.365857990661802e+01 -2.918975276816622e+03
-1.148029642248290e+03  4.201039639750078e+01 -2.918975276816622e+03
-1.148159907669236e+03  4.080894129562819e+01 -2.918975276816622e+03
-1.148217694758228e+03  3.895876633699950e+01 -2.918975276816622e+03
-1.148219150065112e+03  3.654186211163917e+01 -2.918975276816622e+03
-1.148280360727985e+03  3.344939777080155e+01 -2.918975276816622e+03
-1.148265972918475e+03  3.023785467654820e+01 -2.918975276816622e+03
-1.148320565148797e+03  2.747447711131925e+01 -2.918975276816622e+03
-1.148214434660907e+03  2.451673056518369e+01 -2.918975276816622e+03
-1.148258097091367e+03  2.290752612557099e+01 -2.918975276816622e+03
-1.148544324989109e+03  2.195045757870643e+01 -2.918975276816622e+03
-1.148519972392396e+03  2.059476018545934e+01 -2.918975276816622e+03
-1.148278666870776e+03  1.905739106148534e+01 -2.918975276816622e+03
-1.148378330318015e+03  1.731150493681048e+01 -2.918975276816622e+03
-1.148554680557013e+03  1.513079001786265e+01 -2.918975276816622e+03
-1.148576931627463e+03  1.217872121367989e+01 -2.918975276816622e+03
-1.148522965587986e+03  9.161059415953405e+00 -2.918975276816622e+03
-1.148502537214462e+03  6.914860129526793e+00 -2.918975276816622e+03
-1.148489007081594e+03  5.697189034919402e+00 -2.918975276816622e+03
 1.145873459563802e+03 -8.649091536924095e-01  2.918975276816622e+03
1.145855957117370e+03 1.398909984353729e+00 2.918975276816622e+03
 1.145791328760294e+03 -2.607712322763901e+00  2.918975276816622e+03
 1.145810135765531e+03 -4.015747717288359e+00  2.918975276816622e+03
 1.145759891811957e+03 -5.550555483799540e+00  2.918975276816622e+03
 1.145729053973437e+03 -7.748392120454206e+00  2.918975276816622e+03
 1.145709209201995e+03 -9.364647857726172e+00  2.918975276816622e+03
 1.145698636818194e+03 -1.082697486971995e+01  2.918975276816622e+03
 1.145634888519070e+03 -1.260228247638824e+01  2.918975276816622e+03
 1.145528848099490e+03 -1.522701901985504e+01  2.918975276816622e+03
 1.145488085371140e+03 -1.815347388780220e+01  2.918975276816622e+03
 1.145503437218588e+03 -2.041754656400120e+01  2.918975276816622e+03
 1.145401461886189e+03 -2.270457286810647e+01  2.918975276816622e+03
 1.145193035926476e+03 -2.498457797081738e+01  2.918975276816622e+03
 1.145119170805633e+03 -2.693973125018339e+01  2.918975276816622e+03
 1.145114198644593e+03 -2.880489511987822e+01  2.918975276816622e+03
 1.145050415061878e+03 -3.001792941380710e+01  2.918975276816622e+03
 1.144989373093166e+03 -3.101015506933470e+01  2.918975276816622e+03
 1.144962389538300e+03 -3.255144789607259e+01  2.918975276816622e+03
 1.144937195720381e+03 -3.448863568084849e+01  2.918975276816622e+03
 1.144886494934701e+03 -3.690885977418980e+01  2.918975276816622e+03
 1.144829582106797e+03 -3.867126208286327e+01  2.918975276816622e+03
 1.144645067937363e+03 -4.053901990131600e+01  2.918975276816622e+03
 1.144582868143539e+03 -4.343012602491086e+01  2.918975276816622e+03
 1.144687934049990e+03 -4.525485215432619e+01  2.918975276816622e+03
 1.144769421367627e+03 -4.635055878221475e+01  2.918975276816622e+03
 1.144731095304922e+03 -4.824189063460876e+01  2.918975276816622e+03
 1.144683997570933e+03 -4.983118035206303e+01  2.918975276816622e+03
 1.144682741807374e+03 -5.207030489162198e+01  2.918975276816622e+03
 1.144826891015082e+03 -5.440210083133154e+01  2.918975276816622e+03
 1.144838653104269e+03 -5.569943999370943e+01  2.918975276816622e+03
 1.144743157182864e+03 -5.751995013550131e+01  2.918975276816622e+03
 1.144760659773349e+03 -5.953937204513912e+01  2.918975276816622e+03
 1.144813525155985e+03 -6.140664501410049e+01  2.918975276816622e+03
 1.144828567967233e+03 -6.304122470539562e+01  2.918975276816622e+03
 1.144699638652654e+03 -6.428888465825122e+01  2.918975276816622e+03
 1.144755071349246e+03 -6.520404708192798e+01  2.918975276816622e+03
 1.144870658166961e+03 -6.623715179364017e+01  2.918975276816622e+03
 1.144857168193831e+03 -6.779780137692968e+01  2.918975276816622e+03
 1.144807440753145e+03 -6.945959275673164e+01  2.918975276816622e+03
 1.144826306085501e+03 -7.147767069126819e+01  2.918975276816622e+03
 1.144840324828179e+03 -7.383295712899141e+01  2.918975276816622e+03
 1.144876805174510e+03 -7.686010202931512e+01  2.918975276816622e+03
 1.144833574374885e+03 -7.971444124242069e+01  2.918975276816622e+03
 1.144856303079199e+03 -8.151420871321757e+01  2.918975276816622e+03
 1.144980139207303e+03 -8.313415028858547e+01  2.918975276816622e+03
 1.145039223637506e+03 -8.448189661683008e+01  2.918975276816622e+03
 1.145023600787949e+03 -8.505356716267532e+01  2.918975276816622e+03
 1.145006783235856e+03 -8.564166970272011e+01  2.918975276816622e+03
 1.145006958304342e+03 -8.670564648754917e+01  2.918975276816622e+03
 1.144995022933764e+03 -8.802607118130680e+01  2.918975276816622e+03
 1.144985948002070e+03 -8.952391960219353e+01  2.918975276816622e+03
 1.144957025980568e+03 -9.135186634823637e+01  2.918975276816622e+03
 1.144952079079812e+03 -9.360329218886486e+01  2.918975276816622e+03
 1.144963787041244e+03 -9.637798415035910e+01  2.918975276816622e+03
 1.144979913035226e+03 -9.870296018050959e+01  2.918975276816622e+03
 1.145002734282775e+03 -1.005622588151486e+02  2.918975276816622e+03
 1.145019094121747e+03 -1.022696498079338e+02  2.918975276816622e+03
 1.145026299298268e+03 -1.034622119604729e+02  2.918975276816622e+03
 1.145069004570855e+03 -1.041886809565921e+02  2.918975276816622e+03
 1.145079372379998e+03 -1.048829528997085e+02  2.918975276816622e+03
 1.145166368792130e+03 -1.058013259147931e+02  2.918975276816622e+03
 1.145199956742470e+03 -1.066642738409614e+02  2.918975276816622e+03
 1.144954020173500e+03 -1.082639129925269e+02  2.918975276816622e+03
 1.145002228034722e+03 -1.097003490042549e+02  2.918975276816622e+03
 1.144874952554957e+03 -1.112516356580844e+02  2.918975276816622e+03
 1.144180160579658e+03 -1.135189139184114e+02  2.918975276816622e+03
 1.144257952506710e+03 -1.157138553299378e+02  2.918975276816622e+03
 1.145108328336113e+03 -1.178364598926634e+02  2.918975276816622e+03
 1.145526571573254e+03 -1.197642950107389e+02  2.918975276816622e+03
 1.144364339930623e+03 -1.220552067555893e+02  2.918975276816622e+03
 1.144017334252291e+03 -1.241247214852782e+02  2.918975276816622e+03
 1.145083958513550e+03 -1.256206000257967e+02  2.918975276816622e+03
 1.145189971325460e+03 -1.276200160680964e+02  2.918975276816622e+03
 1.145074913408556e+03 -1.294920814392645e+02  2.918975276816622e+03
 1.145110648144966e+03 -1.313497551307816e+02  2.918975276816622e+03
 1.145107573126376e+03 -1.336183184181441e+02  2.918975276816622e+03
 1.145073061276107e+03 -1.363493578192152e+02  2.918975276816622e+03
 1.145000247344543e+03 -1.386028946564759e+02  2.918975276816622e+03
 1.144970691450307e+03 -1.411161427878280e+02  2.918975276816622e+03
 1.144964994044359e+03 -1.438856860723985e+02  2.918975276816622e+03
 1.144882356752899e+03 -1.458089034558124e+02  2.918975276816622e+03
 1.144857746296752e+03 -1.477363224175754e+02  2.918975276816622e+03
 1.144910787068779e+03 -1.494447760177564e+02  2.918975276816622e+03
 1.144911484623565e+03 -1.514051552166583e+02  2.918975276816622e+03
 1.144890889655107e+03 -1.537435580369769e+02  2.918975276816622e+03
 1.144893428798298e+03 -1.568079411869864e+02  2.918975276816622e+03
 1.144888093739910e+03 -1.596014175236844e+02  2.918975276816622e+03
 1.144879742085385e+03 -1.613276562779555e+02  2.918975276816622e+03
 1.144908786752320e+03 -1.630482089190432e+02  2.918975276816622e+03
 1.144961465627942e+03 -1.645417896335663e+02  2.918975276816622e+03
 1.144945959325087e+03 -1.653600613167679e+02  2.918975276816622e+03
 1.144857431707774e+03 -1.663798824697722e+02  2.918975276816622e+03
 1.144861989604138e+03 -1.679255913474167e+02  2.918975276816622e+03
 1.144915792659294e+03 -1.694161279375842e+02  2.918975276816622e+03
 1.144955203554636e+03 -1.713752398016660e+02  2.918975276816622e+03
 1.145014669176713e+03 -1.737987647034613e+02  2.918975276816622e+03
 1.145162120303357e+03 -1.767752883743857e+02  2.918975276816622e+03
 1.145106265672489e+03 -1.794695851613072e+02  2.918975276816622e+03
 1.144911585056798e+03 -1.808968339151019e+02  2.918975276816622e+03
 1.145032869538934e+03 -1.818727893820167e+02  2.918975276816622e+03
 1.145025298949666e+03 -1.827989596204142e+02  2.918975276816622e+03
 1.144823159529293e+03 -1.844929218596988e+02  2.918975276816622e+03
 1.144868366367205e+03 -1.865496043717515e+02  2.918975276816622e+03
 1.144995427882218e+03 -1.881517421476586e+02  2.918975276816622e+03
 1.144923454692443e+03 -1.895951549591237e+02  2.918975276816622e+03
 1.144764834489924e+03 -1.914214816974960e+02  2.918975276816622e+03
 1.144650896459144e+03 -1.937702886408235e+02  2.918975276816622e+03
 1.144781992537607e+03 -1.968712140675531e+02  2.918975276816622e+03
 1.144996489081034e+03 -2.008526297941268e+02  2.918975276816622e+03
 1.144982730129543e+03 -2.048521026491694e+02  2.918975276816622e+03
 1.144869612658113e+03 -2.075991914763531e+02  2.918975276816622e+03
 1.144817875870325e+03 -2.092539743355020e+02  2.918975276816622e+03
 1.144854523307222e+03 -2.112704116514897e+02  2.918975276816622e+03
 1.144885437615856e+03 -2.135987400524652e+02  2.918975276816622e+03
 1.145108505267921e+03 -2.158871892870607e+02  2.918975276816622e+03
 1.145042206061348e+03 -2.178275977279759e+02  2.918975276816622e+03
 1.143963336519313e+03 -2.203602144808123e+02  2.918975276816622e+03
 1.144308817629281e+03 -2.221122378173369e+02  2.918975276816622e+03
 1.145796695617453e+03 -2.229873036292286e+02  2.918975276816622e+03
 1.145443795418765e+03 -2.245580046006061e+02  2.918975276816622e+03
 1.144711980270567e+03 -2.270808670678536e+02  2.918975276816622e+03
 1.144651070058010e+03 -2.295267480388567e+02  2.918975276816622e+03
 1.144648026657013e+03 -2.315609879676177e+02  2.918975276816622e+03
 1.144618035278286e+03 -2.335539103407701e+02  2.918975276816622e+03
 1.144654681103981e+03 -2.354832965008546e+02  2.918975276816622e+03
 1.144644004300305e+03 -2.378372959354806e+02  2.918975276816622e+03
 1.144647765152572e+03 -2.401313099976152e+02  2.918975276816622e+03
 1.144603779760034e+03 -2.431694032751656e+02  2.918975276816622e+03
 1.144633241876023e+03 -2.464363589745886e+02  2.918975276816622e+03
 1.144639287702499e+03 -2.484188636745475e+02  2.918975276816622e+03
 1.144576284130193e+03 -2.509608247062489e+02  2.918975276816622e+03
 1.144846147634345e+03 -2.539388787171952e+02  2.918975276816622e+03
 1.145871895740402e+03 -2.558331660856496e+02  2.918975276816622e+03
 1.145892014100554e+03 -2.576671340014028e+02  2.918975276816622e+03
 1.144804250875472e+03 -2.586933921670256e+02  2.918975276816622e+03
 1.144700778899705e+03 -2.598981809494481e+02  2.918975276816622e+03
 1.144859734863330e+03 -2.621577751359763e+02  2.918975276816622e+03
 1.144884320520766e+03 -2.645741400451035e+02  2.918975276816622e+03
 1.144909213083289e+03 -2.674504806266037e+02  2.918975276816622e+03
 1.144983813465075e+03 -2.695856295325118e+02  2.918975276816622e+03
 1.145089219399383e+03 -2.714020554885567e+02  2.918975276816622e+03
 1.145126169224771e+03 -2.730745590198125e+02  2.918975276816622e+03
 1.145148900203421e+03 -2.746181777487296e+02  2.918975276816622e+03
 1.145188606076406e+03 -2.772032590494573e+02  2.918975276816622e+03
 1.145210701047807e+03 -2.797563450134465e+02  2.918975276816622e+03
 1.145233852123819e+03 -2.821334550894390e+02  2.918975276816622e+03
 1.145204689851156e+03 -2.850286050462077e+02  2.918975276816622e+03
 1.145261106381719e+03 -2.876368340165000e+02  2.918975276816622e+03
 1.145441578480875e+03 -2.896308888143682e+02  2.918975276816622e+03
 1.145456111800837e+03 -2.918529991162019e+02  2.918975276816622e+03
 1.144913092705671e+03 -2.939739041736960e+02  2.918975276816622e+03
 1.144806951949343e+03 -2.968789250011347e+02  2.918975276816622e+03
 1.145398446315697e+03 -2.989718029486096e+02  2.918975276816622e+03
 1.145505045126999e+03 -3.008968442750487e+02  2.918975276816622e+03
 1.145332400124141e+03 -3.031296292152585e+02  2.918975276816622e+03
 1.145250579408360e+03 -3.047668370808170e+02  2.918975276816622e+03
 1.145198624674166e+03 -3.070676203403003e+02  2.918975276816622e+03
 1.145163308101923e+03 -3.091684004388559e+02  2.918975276816622e+03
 1.145091253553399e+03 -3.111817950642376e+02  2.918975276816622e+03
 1.145071488791201e+03 -3.128775478844232e+02  2.918975276816622e+03
 1.145029690368230e+03 -3.142173128236370e+02  2.918975276816622e+03
 1.145039951907837e+03 -3.164337987482423e+02  2.918975276816622e+03
 1.144957369421831e+03 -3.185316374908224e+02  2.918975276816622e+03
 1.144883649217151e+03 -3.203366625495145e+02  2.918975276816622e+03
 1.144976513565467e+03 -3.224592882995604e+02  2.918975276816622e+03
 1.144958863685147e+03 -3.247227501665247e+02  2.918975276816622e+03
 1.144894937291915e+03 -3.262101738371745e+02  2.918975276816622e+03
 1.144901718340880e+03 -3.276840369718753e+02  2.918975276816622e+03
 1.144853775567125e+03 -3.303657156891425e+02  2.918975276816622e+03
 1.144798209615491e+03 -3.330219079233847e+02  2.918975276816622e+03
 1.144751748448246e+03 -3.361330110647106e+02  2.918975276816622e+03
 1.144687078555810e+03 -3.383770520212194e+02  2.918975276816622e+03
 1.144652622626060e+03 -3.397204578867394e+02  2.918975276816622e+03
 1.144741747746161e+03 -3.418369703833879e+02  2.918975276816622e+03
 1.144666033745811e+03 -3.440275852133529e+02  2.918975276816622e+03
 1.144509390673454e+03 -3.468618030794960e+02  2.918975276816622e+03
 1.144497615344947e+03 -3.500659601045112e+02  2.918975276816622e+03
 1.144463173753471e+03 -3.523722655761182e+02  2.918975276816622e+03
 1.143947528193000e+03 -3.552435255592026e+02  2.918975276816622e+03
 1.143866998672152e+03 -3.584688875388758e+02  2.918975276816622e+03
 1.144932259494688e+03 -3.599947422152582e+02  2.918975276816622e+03
 1.145683933225803e+03 -3.612909327639795e+02  2.918975276816622e+03
 1.145528009887836e+03 -3.635064673323818e+02  2.918975276816622e+03
 1.144856665614590e+03 -3.657481827470362e+02  2.918975276816622e+03
 1.144532163876849e+03 -3.677280127588302e+02  2.918975276816622e+03
 1.144610390026279e+03 -3.699674452979888e+02  2.918975276816622e+03
 1.144751738143350e+03 -3.715139463220875e+02  2.918975276816622e+03
 1.144853173068826e+03 -3.734727471091269e+02  2.918975276816622e+03
 1.144842604386687e+03 -3.765670380550870e+02  2.918975276816622e+03
 1.144847042928343e+03 -3.791233549555363e+02  2.918975276816622e+03
 1.144931342493838e+03 -3.816329268597800e+02  2.918975276816622e+03
 1.144982309132403e+03 -3.831883162426739e+02  2.918975276816622e+03
 1.144970760179794e+03 -3.849374069129558e+02  2.918975276816622e+03
1.145101191962156e+03 3.830893486193854e+02 2.918975276816622e+03
1.144939617649881e+03 3.856194161795873e+02 2.918975276816622e+03
1.145219302801448e+03 3.801009603233983e+02 2.918975276816622e+03
1.144973057751799e+03 3.784021843508825e+02 2.918975276816622e+03
1.144938714591348e+03 3.771389216968238e+02 2.918975276816622e+03
1.145095328422314e+03 3.750129190638081e+02 2.918975276816622e+03
1.145047894152653e+03 3.732452021279524e+02 2.918975276816622e+03
1.145030047644360e+03 3.720169448220422e+02 2.918975276816622e+03
1.145121301416479e+03 3.692568699206261e+02 2.918975276816622e+03
1.145149407765227e+03 3.663279051332906e+02 2.918975276816622e+03
1.145135879559300e+03 3.639940074962697e+02 2.918975276816622e+03
1.145205144543895e+03 3.612977571746606e+02 2.918975276816622e+03
1.145206078857511e+03 3.590915398118240e+02 2.918975276816622e+03
1.145184330214520e+03 3.576855878474642e+02 2.918975276816622e+03
1.145205876765259e+03 3.563046151530117e+02 2.918975276816622e+03
1.145321411803047e+03 3.546014800569704e+02 2.918975276816622e+03
1.145400546981458e+03 3.527630587626614e+02 2.918975276816622e+03
1.145371961767877e+03 3.511030924482707e+02 2.918975276816622e+03
1.145435005379119e+03 3.492720239441513e+02 2.918975276816622e+03
1.145696857520695e+03 3.474830500642263e+02 2.918975276816622e+03
1.145796240645715e+03 3.457850088474399e+02 2.918975276816622e+03
1.145601336637545e+03 3.441864976810023e+02 2.918975276816622e+03
1.145651195223022e+03 3.426413267726343e+02 2.918975276816622e+03
1.145879606337232e+03 3.408082839795279e+02 2.918975276816622e+03
1.145857898601895e+03 3.390888869865952e+02 2.918975276816622e+03
1.145848788969812e+03 3.364624254957817e+02 2.918975276816622e+03
1.145751968628100e+03 3.331020228373452e+02 2.918975276816622e+03
1.145991128004219e+03 3.302144278576624e+02 2.918975276816622e+03
1.146493975512567e+03 3.289084728363603e+02 2.918975276816622e+03
1.146003747447163e+03 3.277001661397641e+02 2.918975276816622e+03
1.146755487525186e+03 3.263762753186553e+02 2.918975276816622e+03
1.147831407397348e+03 3.257067849400811e+02 2.918975276816622e+03
1.147055497371181e+03 3.242044920501544e+02 2.918975276816622e+03
1.146165528347349e+03 3.222324889840963e+02 2.918975276816622e+03
1.145892843104862e+03 3.202850108987378e+02 2.918975276816622e+03
1.145934123120130e+03 3.189558485397229e+02 2.918975276816622e+03
1.145913347787842e+03 3.173443506111604e+02 2.918975276816622e+03
1.145786396281534e+03 3.147865243811474e+02 2.918975276816622e+03
1.145789258793238e+03 3.126747845322055e+02 2.918975276816622e+03
1.145882466292207e+03 3.116132835962187e+02 2.918975276816622e+03
1.145857394622700e+03 3.104953677546100e+02 2.918975276816622e+03
1.145862109827157e+03 3.087125229671517e+02 2.918975276816622e+03
1.145817637434203e+03 3.071504243976016e+02 2.918975276816622e+03
1.145762325645040e+03 3.053695403913614e+02 2.918975276816622e+03
1.145717424288330e+03 3.031063490124172e+02 2.918975276816622e+03
1.145796926767430e+03 3.016805858603065e+02 2.918975276816622e+03
1.145874779967069e+03 3.001527289475763e+02 2.918975276816622e+03
1.145711325505224e+03 2.982170446059158e+02 2.918975276816622e+03
1.145655248103343e+03 2.964730170605569e+02 2.918975276816622e+03
1.145838525987065e+03 2.946464608106219e+02 2.918975276816622e+03
1.145772122085005e+03 2.928772587605138e+02 2.918975276816622e+03
1.145580363628383e+03 2.906791098958847e+02 2.918975276816622e+03
1.145529656082412e+03 2.882521690745519e+02 2.918975276816622e+03
1.145583741605315e+03 2.860185247654392e+02 2.918975276816622e+03
1.145677646923612e+03 2.840016948124160e+02 2.918975276816622e+03
1.145576399843664e+03 2.819500301229384e+02 2.918975276816622e+03
1.145154719921550e+03 2.791063484482687e+02 2.918975276816622e+03
1.145115550656348e+03 2.762848277363793e+02 2.918975276816622e+03
1.145347429028094e+03 2.732058340632271e+02 2.918975276816622e+03
1.145199102198977e+03 2.700317047509146e+02 2.918975276816622e+03
1.144972286906362e+03 2.677757381283527e+02 2.918975276816622e+03
1.144886531252073e+03 2.658889238453203e+02 2.918975276816622e+03
1.144812614859409e+03 2.637527067610235e+02 2.918975276816622e+03
1.144491714774941e+03 2.605925627596100e+02 2.918975276816622e+03
1.144563524850274e+03 2.584192807799394e+02 2.918975276816622e+03
1.144754328629809e+03 2.568558766979430e+02 2.918975276816622e+03
1.144553652638643e+03 2.545101167155555e+02 2.918975276816622e+03
1.144301575295567e+03 2.525859661338563e+02 2.918975276816622e+03
1.144076719690484e+03 2.510363273815312e+02 2.918975276816622e+03
1.143959130442880e+03 2.494497708095079e+02 2.918975276816622e+03
1.144198710062574e+03 2.488357310849953e+02 2.918975276816622e+03
1.144494289451112e+03 2.480756779188170e+02 2.918975276816622e+03
1.144391504587973e+03 2.464059326538179e+02 2.918975276816622e+03
1.144465344954392e+03 2.450633979115067e+02 2.918975276816622e+03
1.144578100863449e+03 2.436876635898149e+02 2.918975276816622e+03
1.144382825802198e+03 2.425111399138059e+02 2.918975276816622e+03
1.144417100140164e+03 2.411789437864905e+02 2.918975276816622e+03
1.144638151336623e+03 2.390816881927752e+02 2.918975276816622e+03
1.144771947129764e+03 2.367360078929781e+02 2.918975276816622e+03
1.144819771614427e+03 2.347607905354164e+02 2.918975276816622e+03
1.144798252074121e+03 2.326518267278052e+02 2.918975276816622e+03
1.144870523617089e+03 2.299811837096092e+02 2.918975276816622e+03
1.145132043224064e+03 2.279995994102222e+02 2.918975276816622e+03
1.145230025398504e+03 2.268254441697916e+02 2.918975276816622e+03
1.145146909033706e+03 2.250562921588861e+02 2.918975276816622e+03
1.145119862441878e+03 2.228307226589561e+02 2.918975276816622e+03
1.145089529019737e+03 2.210212867410698e+02 2.918975276816622e+03
1.145096572473402e+03 2.191225973557978e+02 2.918975276816622e+03
1.145105826248616e+03 2.169180007243943e+02 2.918975276816622e+03
1.145163570295306e+03 2.142726924332228e+02 2.918975276816622e+03
1.145212872403143e+03 2.119673337580065e+02 2.918975276816622e+03
1.145242318643283e+03 2.099728640429571e+02 2.918975276816622e+03
1.145226018599435e+03 2.082049895823677e+02 2.918975276816622e+03
1.145264116150072e+03 2.069801897551619e+02 2.918975276816622e+03
1.145293900791257e+03 2.061875612610932e+02 2.918975276816622e+03
1.145353650092713e+03 2.053666291020068e+02 2.918975276816622e+03
1.145434555464658e+03 2.043107909388895e+02 2.918975276816622e+03
1.145433782464002e+03 2.033231316071539e+02 2.918975276816622e+03
1.145306697356430e+03 2.020867344110088e+02 2.918975276816622e+03
1.145291931503443e+03 2.008769375853195e+02 2.918975276816622e+03
1.145414707036902e+03 1.990492066443144e+02 2.918975276816622e+03
1.145363729247570e+03 1.966388864525031e+02 2.918975276816622e+03
1.145083762098923e+03 1.938203271398861e+02 2.918975276816622e+03
1.144833905707668e+03 1.900755543049288e+02 2.918975276816622e+03
1.145031301811073e+03 1.871243114040105e+02 2.918975276816622e+03
1.145259632421330e+03 1.849697286228471e+02 2.918975276816622e+03
1.145365776626491e+03 1.827619270177243e+02 2.918975276816622e+03
1.145353587297305e+03 1.811561188399864e+02 2.918975276816622e+03
1.145163139186985e+03 1.792668211986449e+02 2.918975276816622e+03
1.144947797295878e+03 1.769536660581749e+02 2.918975276816622e+03
1.144879295341956e+03 1.743441029680619e+02 2.918975276816622e+03
1.145044544999532e+03 1.721146951477982e+02 2.918975276816622e+03
1.145171440986039e+03 1.699982958568219e+02 2.918975276816622e+03
1.145210921447064e+03 1.684558595950674e+02 2.918975276816622e+03
1.145385722681649e+03 1.675887139999949e+02 2.918975276816622e+03
1.145240814637845e+03 1.663977739732777e+02 2.918975276816622e+03
1.145125660357844e+03 1.652266135781062e+02 2.918975276816622e+03
1.145297423805003e+03 1.643601915839701e+02 2.918975276816622e+03
1.145349677013567e+03 1.634285789777047e+02 2.918975276816622e+03
1.144705121473787e+03 1.617465146243281e+02 2.918975276816622e+03
1.144579914142323e+03 1.604981830144053e+02 2.918975276816622e+03
1.145005663887960e+03 1.582850907750612e+02 2.918975276816622e+03
1.145034195542471e+03 1.552019069624853e+02 2.918975276816622e+03
1.145082356305175e+03 1.526982498327593e+02 2.918975276816622e+03
1.145217391473118e+03 1.493296440088788e+02 2.918975276816622e+03
1.145405529527733e+03 1.466729353770619e+02 2.918975276816622e+03
1.145390717916985e+03 1.455419465157243e+02 2.918975276816622e+03
1.145478179734255e+03 1.450340111162091e+02 2.918975276816622e+03
1.145413868732828e+03 1.444360524308178e+02 2.918975276816622e+03
1.145227662144302e+03 1.428518350334143e+02 2.918975276816622e+03
1.145091045031744e+03 1.411317737416445e+02 2.918975276816622e+03
1.145025654581594e+03 1.393181585641115e+02 2.918975276816622e+03
1.144994371413960e+03 1.371140326854213e+02 2.918975276816622e+03
1.144977464652035e+03 1.344668133875779e+02 2.918975276816622e+03
1.144912922153762e+03 1.321023496694344e+02 2.918975276816622e+03
1.144911733222679e+03 1.301003820486112e+02 2.918975276816622e+03
1.144996177619968e+03 1.283590635935041e+02 2.918975276816622e+03
1.145042247159814e+03 1.271338957570853e+02 2.918975276816622e+03
1.145035339868373e+03 1.263829316952433e+02 2.918975276816622e+03
1.145053109657281e+03 1.256490896119187e+02 2.918975276816622e+03
1.145109915776307e+03 1.249729203416608e+02 2.918975276816622e+03
1.145066567426081e+03 1.242959063138084e+02 2.918975276816622e+03
1.144925275102145e+03 1.228085682304956e+02 2.918975276816622e+03
1.144777355698949e+03 1.212289392452741e+02 2.918975276816622e+03
1.144717706376363e+03 1.193405422142514e+02 2.918975276816622e+03
1.144715189604237e+03 1.170487947991575e+02 2.918975276816622e+03
1.144636991216903e+03 1.141661739306638e+02 2.918975276816622e+03
1.144416550428495e+03 1.116494405426113e+02 2.918975276816622e+03
1.144355038042362e+03 1.099222781067517e+02 2.918975276816622e+03
1.143760946341283e+03 1.086911316348151e+02 2.918975276816622e+03
1.143685232809949e+03 1.076763745197967e+02 2.918975276816622e+03
1.144300226726833e+03 1.063760654411751e+02 2.918975276816622e+03
1.144818494684914e+03 1.053100246440325e+02 2.918975276816622e+03
1.144937446896157e+03 1.042002012245314e+02 2.918975276816622e+03
1.144978949978737e+03 1.024396041106243e+02 2.918975276816622e+03
1.145407175881512e+03 1.009316100679867e+02 2.918975276816622e+03
1.145360215063010e+03 9.933748300434463e+01 2.918975276816622e+03
1.145262224587023e+03 9.687063243281027e+01 2.918975276816622e+03
1.145294827342573e+03 9.469829037336173e+01 2.918975276816622e+03
1.145373770211967e+03 9.247300562817320e+01 2.918975276816622e+03
1.145368459963666e+03 8.990026968515890e+01 2.918975276816622e+03
1.145551084267230e+03 8.878611035097566e+01 2.918975276816622e+03
1.145738307587300e+03 8.761050226591222e+01 2.918975276816622e+03
1.145742195372009e+03 8.491486882113756e+01 2.918975276816622e+03
1.145836969049350e+03 8.190819232356726e+01 2.918975276816622e+03
1.146309121969085e+03 7.991389024367268e+01 2.918975276816622e+03
1.146577197057019e+03 7.866303147816200e+01 2.918975276816622e+03
1.146467686750541e+03 7.670032212377701e+01 2.918975276816622e+03
1.146319909838526e+03 7.435946254980607e+01 2.918975276816622e+03
1.146020880533822e+03 7.177232918903607e+01 2.918975276816622e+03
1.146264765633194e+03 6.956487926867570e+01 2.918975276816622e+03
1.146561704560885e+03 6.762391168784758e+01 2.918975276816622e+03
1.147415418707834e+03 6.563511390088604e+01 2.918975276816622e+03
1.147828257878137e+03 6.440906372765257e+01 2.918975276816622e+03
1.147586635865693e+03 6.204812527598776e+01 2.918975276816622e+03
1.147351736439857e+03 5.840313909233031e+01 2.918975276816622e+03
1.146957534599323e+03 5.642113905913945e+01 2.918975276816622e+03
1.146654672276244e+03 5.518823297751906e+01 2.918975276816622e+03
1.146506852831993e+03 5.354873981726769e+01 2.918975276816622e+03
1.146319574027246e+03 5.149558286341075e+01 2.918975276816622e+03
1.145838811830758e+03 4.979329937186959e+01 2.918975276816622e+03
1.145843799795021e+03 4.865865777895456e+01 2.918975276816622e+03
1.145853388903318e+03 4.755232229594095e+01 2.918975276816622e+03
1.145899177950547e+03 4.565429154584229e+01 2.918975276816622e+03
1.145885309566248e+03 4.332604947420712e+01 2.918975276816622e+03
1.145963769707118e+03 4.214085467266695e+01 2.918975276816622e+03
1.145996066536913e+03 4.105428358648464e+01 2.918975276816622e+03
1.145901377527004e+03 3.923205310960250e+01 2.918975276816622e+03
1.145980122853357e+03 3.712483091256074e+01 2.918975276816622e+03
1.146116628832690e+03 3.494848433526685e+01 2.918975276816622e+03
1.146161399255389e+03 3.267270610096124e+01 2.918975276816622e+03
1.146118299338751e+03 3.031863797328675e+01 2.918975276816622e+03
1.146135653424772e+03 2.819511594726437e+01 2.918975276816622e+03
1.146100810378728e+03 2.541824841424672e+01 2.918975276816622e+03
1.146190693575527e+03 2.221444927647491e+01 2.918975276816622e+03
1.146430409443044e+03 1.913452342984396e+01 2.918975276816622e+03
1.146459969725610e+03 1.634455039086678e+01 2.918975276816622e+03
1.146366919130075e+03 1.417761687229565e+01 2.918975276816622e+03
1.146283670663416e+03 1.207319645573490e+01 2.918975276816622e+03
1.146591015617531e+03 1.058947666400529e+01 2.918975276816622e+03
1.146878003608613e+03 8.836526497158060e+00 2.918975276816622e+03
1.146474431627380e+03 6.018264327484820e+00 2.918975276816622e+03
1.145915315802976e+03 3.691129044936688e+00 2.918975276816622e+03
-1.157260936536061e+03 -6.323123838600088e-01 -2.918975276816622e+03
-1.157467128152407e+03  2.771855092514397e+00 -2.918975276816622e+03
-1.157553247920992e+03  5.971565310011335e+00 -2.918975276816622e+03
-1.157493249942506e+03 -2.487566772597461e+00 -2.918975276816622e+03
-1.157771517206551e+03 -4.260272872984131e+00 -2.918975276816622e+03
-1.157551227576304e+03 -7.120978488599921e+00 -2.918975276816622e+03
-1.157345004064719e+03 -9.398861561281198e+00 -2.918975276816622e+03
-1.157347266971135e+03 -1.061960938041040e+01 -2.918975276816622e+03
-1.157478850691633e+03 -1.225959977580329e+01 -2.918975276816622e+03
-1.157554146147683e+03 -1.435969068856923e+01 -2.918975276816622e+03
-1.157647095120830e+03 -1.590225083054192e+01 -2.918975276816622e+03
-1.157490679825938e+03 -1.803169071061836e+01 -2.918975276816622e+03
-1.157090124085381e+03 -2.028926378714908e+01 -2.918975276816622e+03
-1.156886387291968e+03 -2.207131924384748e+01 -2.918975276816622e+03
-1.157219336979465e+03 -2.426755880910832e+01 -2.918975276816622e+03
-1.157883543021161e+03 -2.710441173469379e+01 -2.918975276816622e+03
-1.157861033197877e+03 -2.951649845044463e+01 -2.918975276816622e+03
-1.157160418689181e+03 -3.175290732443104e+01 -2.918975276816622e+03
-1.156979337184666e+03 -3.366206641269889e+01 -2.918975276816622e+03
-1.157304924611577e+03 -3.514285045953390e+01 -2.918975276816622e+03
-1.157274205895437e+03 -3.652595150493455e+01 -2.918975276816622e+03
-1.156975400630512e+03 -3.883569962313470e+01 -2.918975276816622e+03
-1.156909684838048e+03 -4.082205017226562e+01 -2.918975276816622e+03
-1.156848139009400e+03 -4.237859027183613e+01 -2.918975276816622e+03
-1.156828424087346e+03 -4.441577094112573e+01 -2.918975276816622e+03
-1.156782098921955e+03 -4.548406857206012e+01 -2.918975276816622e+03
-1.156713192357973e+03 -4.655165411725140e+01 -2.918975276816622e+03
-1.156745586236745e+03 -4.851994980211789e+01 -2.918975276816622e+03
-1.156728771518277e+03 -5.000085530743160e+01 -2.918975276816622e+03
-1.156659674603604e+03 -5.126408499819601e+01 -2.918975276816622e+03
-1.156603318173518e+03 -5.365720263128422e+01 -2.918975276816622e+03
-1.156649208802109e+03 -5.569353541193125e+01 -2.918975276816622e+03
-1.156696117797779e+03 -5.744630697715887e+01 -2.918975276816622e+03
-1.156694716804168e+03 -5.956014478311048e+01 -2.918975276816622e+03
-1.156626237019405e+03 -6.093102412663790e+01 -2.918975276816622e+03
-1.156626618496757e+03 -6.248571672118473e+01 -2.918975276816622e+03
-1.156758146524543e+03 -6.421773491977829e+01 -2.918975276816622e+03
-1.156752153562868e+03 -6.536185698384385e+01 -2.918975276816622e+03
-1.156659595391211e+03 -6.665836585705625e+01 -2.918975276816622e+03
-1.156680510326731e+03 -6.869426153502458e+01 -2.918975276816622e+03
-1.156676953667107e+03 -7.020589631512148e+01 -2.918975276816622e+03
-1.156689865369994e+03 -7.122688110200635e+01 -2.918975276816622e+03
-1.156696341220073e+03 -7.264329728976371e+01 -2.918975276816622e+03
-1.156696439512662e+03 -7.429558943466702e+01 -2.918975276816622e+03
-1.156664714209537e+03 -7.572084468747103e+01 -2.918975276816622e+03
-1.156649586044089e+03 -7.648343161578607e+01 -2.918975276816622e+03
-1.156652251453980e+03 -7.773410535037590e+01 -2.918975276816622e+03
-1.156650094930930e+03 -7.955242702485999e+01 -2.918975276816622e+03
-1.156665696071866e+03 -8.086418993528851e+01 -2.918975276816622e+03
-1.156658594831071e+03 -8.237100372009031e+01 -2.918975276816622e+03
-1.156644166686842e+03 -8.415964933364312e+01 -2.918975276816622e+03
-1.156623696133979e+03 -8.539714558505450e+01 -2.918975276816622e+03
-1.156624077696852e+03 -8.662710919726003e+01 -2.918975276816622e+03
-1.156597276306883e+03 -8.851734108693422e+01 -2.918975276816622e+03
-1.156581906587749e+03 -9.011744769820322e+01 -2.918975276816622e+03
-1.156565586503472e+03 -9.128089360960277e+01 -2.918975276816622e+03
-1.156570398849123e+03 -9.365617546690576e+01 -2.918975276816622e+03
-1.156530181495669e+03 -9.589094414859227e+01 -2.918975276816622e+03
-1.156505439079046e+03 -9.772576586480919e+01 -2.918975276816622e+03
-1.156477478490545e+03 -1.000645831125222e+02 -2.918975276816622e+03
-1.156446041802937e+03 -1.012846879221700e+02 -2.918975276816622e+03
-1.156386856311278e+03 -1.024868037966137e+02 -2.918975276816622e+03
-1.156360286012662e+03 -1.044416062343511e+02 -2.918975276816622e+03
-1.156365572211870e+03 -1.059794581963283e+02 -2.918975276816622e+03
-1.156324284186868e+03 -1.069093426148091e+02 -2.918975276816622e+03
-1.156311390168634e+03 -1.083471880130009e+02 -2.918975276816622e+03
-1.156294350522692e+03 -1.101898858758655e+02 -2.918975276816622e+03
-1.156308910373458e+03 -1.118298281165349e+02 -2.918975276816622e+03
-1.156303614498703e+03 -1.131429051328096e+02 -2.918975276816622e+03
-1.156316429605724e+03 -1.146607394058147e+02 -2.918975276816622e+03
-1.156341541113704e+03 -1.170539850926783e+02 -2.918975276816622e+03
-1.156352305269645e+03 -1.193296784884456e+02 -2.918975276816622e+03
-1.156342811119062e+03 -1.208065000678952e+02 -2.918975276816622e+03
-1.156341310676051e+03 -1.223137813456710e+02 -2.918975276816622e+03
-1.156384680549922e+03 -1.240645682725539e+02 -2.918975276816622e+03
-1.156417708307431e+03 -1.252750035866029e+02 -2.918975276816622e+03
-1.156416925925397e+03 -1.265957327724125e+02 -2.918975276816622e+03
-1.156384980795769e+03 -1.285842736592131e+02 -2.918975276816622e+03
-1.156397934395303e+03 -1.306714698781370e+02 -2.918975276816622e+03
-1.156455096532876e+03 -1.319852783709316e+02 -2.918975276816622e+03
-1.156475077488984e+03 -1.328692488884287e+02 -2.918975276816622e+03
-1.156434417810008e+03 -1.342188247797523e+02 -2.918975276816622e+03
-1.156450125078386e+03 -1.356872501204272e+02 -2.918975276816622e+03
-1.156480712061282e+03 -1.373649943350703e+02 -2.918975276816622e+03
-1.156436058075049e+03 -1.394238995801566e+02 -2.918975276816622e+03
-1.156441131224584e+03 -1.408232711825481e+02 -2.918975276816622e+03
-1.156487881085608e+03 -1.423718071487524e+02 -2.918975276816622e+03
-1.156563876162049e+03 -1.441241629655625e+02 -2.918975276816622e+03
-1.156653072354210e+03 -1.453307340559874e+02 -2.918975276816622e+03
-1.156605882895386e+03 -1.467508657632955e+02 -2.918975276816622e+03
-1.156554624756979e+03 -1.496421325273858e+02 -2.918975276816622e+03
-1.157058975829827e+03 -1.514660274208886e+02 -2.918975276816622e+03
-1.156991550148259e+03 -1.531236981277973e+02 -2.918975276816622e+03
-1.156531355298248e+03 -1.555422850238072e+02 -2.918975276816622e+03
-1.156540573982644e+03 -1.573674644587481e+02 -2.918975276816622e+03
-1.156594125225211e+03 -1.595452187635768e+02 -2.918975276816622e+03
-1.156626643739587e+03 -1.608131290667739e+02 -2.918975276816622e+03
-1.156610125702023e+03 -1.622301139468877e+02 -2.918975276816622e+03
-1.156573597616353e+03 -1.639562572860303e+02 -2.918975276816622e+03
-1.156529420226212e+03 -1.652919411325101e+02 -2.918975276816622e+03
-1.156388503300475e+03 -1.667075715574103e+02 -2.918975276816622e+03
-1.156281076262367e+03 -1.686503246004139e+02 -2.918975276816622e+03
-1.156093178923732e+03 -1.708169502102375e+02 -2.918975276816622e+03
-1.155994346364525e+03 -1.723991808394944e+02 -2.918975276816622e+03
-1.155876680089829e+03 -1.751268907816724e+02 -2.918975276816622e+03
-1.155758209442893e+03 -1.784678747863330e+02 -2.918975276816622e+03
-1.156114146648151e+03 -1.809820941022395e+02 -2.918975276816622e+03
-1.156606819964478e+03 -1.833536490719588e+02 -2.918975276816622e+03
-1.157433201864145e+03 -1.850604819005246e+02 -2.918975276816622e+03
-1.157543445066187e+03 -1.863571440547629e+02 -2.918975276816622e+03
-1.157183604942940e+03 -1.883218398002364e+02 -2.918975276816622e+03
-1.157233140822157e+03 -1.904756844128494e+02 -2.918975276816622e+03
-1.157278649819420e+03 -1.922105649439068e+02 -2.918975276816622e+03
-1.157216280233349e+03 -1.931288838393752e+02 -2.918975276816622e+03
-1.157078696656298e+03 -1.941182436753109e+02 -2.918975276816622e+03
-1.156967225686466e+03 -1.961843824658786e+02 -2.918975276816622e+03
-1.156950786963322e+03 -1.979361224029931e+02 -2.918975276816622e+03
-1.157074503310925e+03 -1.994280665544836e+02 -2.918975276816622e+03
-1.157121706625823e+03 -2.006147493480164e+02 -2.918975276816622e+03
-1.157061948368062e+03 -2.020527803649611e+02 -2.918975276816622e+03
-1.156985095852580e+03 -2.038438657245521e+02 -2.918975276816622e+03
-1.156948393646928e+03 -2.050112852967038e+02 -2.918975276816622e+03
-1.156978207219265e+03 -2.063646719537375e+02 -2.918975276816622e+03
-1.156986351709812e+03 -2.083872790014856e+02 -2.918975276816622e+03
-1.156970181759407e+03 -2.102124229471881e+02 -2.918975276816622e+03
-1.156945447516905e+03 -2.115929117224982e+02 -2.918975276816622e+03
-1.156952888661448e+03 -2.138072373950762e+02 -2.918975276816622e+03
-1.156966149790219e+03 -2.155465565398159e+02 -2.918975276816622e+03
-1.156943552944059e+03 -2.171099683731874e+02 -2.918975276816622e+03
-1.156919620950871e+03 -2.195752132745200e+02 -2.918975276816622e+03
-1.156965516828228e+03 -2.208362152685168e+02 -2.918975276816622e+03
-1.156969123974705e+03 -2.220545154176764e+02 -2.918975276816622e+03
-1.156898380561448e+03 -2.239679215565080e+02 -2.918975276816622e+03
-1.156870287458007e+03 -2.252839053668698e+02 -2.918975276816622e+03
-1.156883273365916e+03 -2.265161441269990e+02 -2.918975276816622e+03
-1.156865881805807e+03 -2.284613578140790e+02 -2.918975276816622e+03
-1.156799640868444e+03 -2.304385815551875e+02 -2.918975276816622e+03
-1.156846676700680e+03 -2.315176221103706e+02 -2.918975276816622e+03
-1.156892221384848e+03 -2.334764353078599e+02 -2.918975276816622e+03
-1.156869246364839e+03 -2.366988880985733e+02 -2.918975276816622e+03
-1.156654442492215e+03 -2.382846789103291e+02 -2.918975276816622e+03
-1.156722356584909e+03 -2.396022912160696e+02 -2.918975276816622e+03
-1.156920186543673e+03 -2.424228214554886e+02 -2.918975276816622e+03
-1.157024040447374e+03 -2.452768882089717e+02 -2.918975276816622e+03
-1.156854045356560e+03 -2.479195788287967e+02 -2.918975276816622e+03
-1.156839132240219e+03 -2.497127507553699e+02 -2.918975276816622e+03
-1.157008583354657e+03 -2.510068422481696e+02 -2.918975276816622e+03
-1.156796263549416e+03 -2.531048440503883e+02 -2.918975276816622e+03
-1.156737287566594e+03 -2.554200380394433e+02 -2.918975276816622e+03
-1.156728724086869e+03 -2.582873046668315e+02 -2.918975276816622e+03
-1.156547650873026e+03 -2.605635241796558e+02 -2.918975276816622e+03
-1.156504514372299e+03 -2.619206031755749e+02 -2.918975276816622e+03
-1.156512391357244e+03 -2.637267511658480e+02 -2.918975276816622e+03
-1.156520940123817e+03 -2.653833678914911e+02 -2.918975276816622e+03
-1.156550107913430e+03 -2.666366636149397e+02 -2.918975276816622e+03
-1.157055885868127e+03 -2.678707594040768e+02 -2.918975276816622e+03
-1.156985450144670e+03 -2.696728368440624e+02 -2.918975276816622e+03
-1.156498446820813e+03 -2.712796524325732e+02 -2.918975276816622e+03
-1.156439171806509e+03 -2.726341529364217e+02 -2.918975276816622e+03
-1.156448593309395e+03 -2.743430277502877e+02 -2.918975276816622e+03
-1.156525015654166e+03 -2.759347360442208e+02 -2.918975276816622e+03
-1.156642143536655e+03 -2.771216899996300e+02 -2.918975276816622e+03
-1.156831022494892e+03 -2.787588477218921e+02 -2.918975276816622e+03
-1.156716652445056e+03 -2.809245348917246e+02 -2.918975276816622e+03
-1.156457899295007e+03 -2.840845586210600e+02 -2.918975276816622e+03
-1.156498115116797e+03 -2.873421566558657e+02 -2.918975276816622e+03
-1.156751754371939e+03 -2.889677134390735e+02 -2.918975276816622e+03
-1.156902409941785e+03 -2.913949062273546e+02 -2.918975276816622e+03
-1.156876076335231e+03 -2.941640936976665e+02 -2.918975276816622e+03
-1.156843487695277e+03 -2.969082169675107e+02 -2.918975276816622e+03
-1.156908651845571e+03 -2.991279151133170e+02 -2.918975276816622e+03
-1.156934661826519e+03 -3.003413169628532e+02 -2.918975276816622e+03
-1.157007734049157e+03 -3.015746627006508e+02 -2.918975276816622e+03
-1.157047344948257e+03 -3.028654337958637e+02 -2.918975276816622e+03
-1.157354100935448e+03 -3.046459612837584e+02 -2.918975276816622e+03
-1.157278101327825e+03 -3.065518686453466e+02 -2.918975276816622e+03
-1.156842073210427e+03 -3.086066940039661e+02 -2.918975276816622e+03
-1.156682136800585e+03 -3.109620253551832e+02 -2.918975276816622e+03
-1.156714602675395e+03 -3.138204764495057e+02 -2.918975276816622e+03
-1.156712425959432e+03 -3.162355041307794e+02 -2.918975276816622e+03
-1.156799049579021e+03 -3.180346642271596e+02 -2.918975276816622e+03
-1.156747908041228e+03 -3.196212463998302e+02 -2.918975276816622e+03
-1.156679247921405e+03 -3.210928513565905e+02 -2.918975276816622e+03
-1.156688038571369e+03 -3.226821856600302e+02 -2.918975276816622e+03
-1.156606754884902e+03 -3.239327159596716e+02 -2.918975276816622e+03
-1.156426105560451e+03 -3.249498514752859e+02 -2.918975276816622e+03
-1.156742602604459e+03 -3.263084037296612e+02 -2.918975276816622e+03
-1.157029251475009e+03 -3.279668808046999e+02 -2.918975276816622e+03
-1.156725909950603e+03 -3.293984177881297e+02 -2.918975276816622e+03
-1.156626241452512e+03 -3.305816167658396e+02 -2.918975276816622e+03
-1.156572642189899e+03 -3.330754420692307e+02 -2.918975276816622e+03
-1.156572624693810e+03 -3.351618826309679e+02 -2.918975276816622e+03
-1.156651930036906e+03 -3.359962391502116e+02 -2.918975276816622e+03
-1.156654205667865e+03 -3.375207306511272e+02 -2.918975276816622e+03
-1.156661275023976e+03 -3.399349460312912e+02 -2.918975276816622e+03
-1.156711046573374e+03 -3.420628098000665e+02 -2.918975276816622e+03
-1.156710231911683e+03 -3.434494569333147e+02 -2.918975276816622e+03
-1.156419919270741e+03 -3.462158987526439e+02 -2.918975276816622e+03
-1.156412607417715e+03 -3.483808543339578e+02 -2.918975276816622e+03
-1.156677846708874e+03 -3.496620897637385e+02 -2.918975276816622e+03
-1.156673931881907e+03 -3.520653272660899e+02 -2.918975276816622e+03
-1.156681416757098e+03 -3.543411566464675e+02 -2.918975276816622e+03
-1.156700301334447e+03 -3.564895779048716e+02 -2.918975276816622e+03
-1.156716884998309e+03 -3.581314258136600e+02 -2.918975276816622e+03
-1.156733248939396e+03 -3.604887611868766e+02 -2.918975276816622e+03
-1.156733625562426e+03 -3.625933261142114e+02 -2.918975276816622e+03
-1.156769814269138e+03 -3.638219660989611e+02 -2.918975276816622e+03
-1.156790594315363e+03 -3.659749926694399e+02 -2.918975276816622e+03
-1.156796891574254e+03 -3.691452708001535e+02 -2.918975276816622e+03
-1.156816725880912e+03 -3.718134593804749e+02 -2.918975276816622e+03
-1.156833911364235e+03 -3.733696712279640e+02 -2.918975276816622e+03
-1.156853265139764e+03 -3.755065069883109e+02 -2.918975276816622e+03
-1.156858821324717e+03 -3.772387069318044e+02 -2.918975276816622e+03
-1.156868514072738e+03 -3.787734110329131e+02 -2.918975276816622e+03
-1.156871330419267e+03 -3.801061111333833e+02 -2.918975276816622e+03
-1.156876452698300e+03 -3.814158243973541e+02 -2.918975276816622e+03
-1.156885488269769e+03 -3.843220663008664e+02 -2.918975276816622e+03
-1.156897596516113e+03 -3.862584486269140e+02 -2.918975276816622e+03
-1.156936777533008e+03  3.827602020706449e+02 -2.918975276816622e+03
-1.156910366843778e+03  3.848283730918636e+02 -2.918975276816622e+03
-1.156950173181793e+03  3.804477292036621e+02 -2.918975276816622e+03
-1.156942697250641e+03  3.780937710177660e+02 -2.918975276816622e+03
-1.156951842846771e+03  3.770438343636819e+02 -2.918975276816622e+03
-1.156978461158195e+03  3.750784480890930e+02 -2.918975276816622e+03
-1.156989144330513e+03  3.715280851086365e+02 -2.918975276816622e+03
-1.156999009885096e+03  3.681390833351600e+02 -2.918975276816622e+03
-1.157019789457587e+03  3.655266359490503e+02 -2.918975276816622e+03
-1.157012771304372e+03  3.621757870544728e+02 -2.918975276816622e+03
-1.157004921267216e+03  3.582527727868896e+02 -2.918975276816622e+03
-1.157037695763093e+03  3.558401494426922e+02 -2.918975276816622e+03
-1.157064389211855e+03  3.542778882402608e+02 -2.918975276816622e+03
-1.157050216176791e+03  3.517072415703149e+02 -2.918975276816622e+03
-1.157014916396279e+03  3.486220020790118e+02 -2.918975276816622e+03
-1.157008487536623e+03  3.452041890319734e+02 -2.918975276816622e+03
-1.157016918557719e+03  3.420123345868141e+02 -2.918975276816622e+03
-1.157011338538712e+03  3.393790122992687e+02 -2.918975276816622e+03
-1.156997275407223e+03  3.367214081399431e+02 -2.918975276816622e+03
-1.156968379471288e+03  3.340883971409605e+02 -2.918975276816622e+03
-1.156933133843389e+03  3.315042611741009e+02 -2.918975276816622e+03
-1.156897888215490e+03  3.289201252072415e+02 -2.918975276816622e+03
-1.156867014594784e+03  3.269907669847047e+02 -2.918975276816622e+03
-1.156895062771889e+03  3.252816518380229e+02 -2.918975276816622e+03
-1.156942798709161e+03  3.229602243987874e+02 -2.918975276816622e+03
-1.156898221769052e+03  3.209698821725682e+02 -2.918975276816622e+03
-1.156776249401386e+03  3.190068962366051e+02 -2.918975276816622e+03
-1.156740006936608e+03  3.164724211659633e+02 -2.918975276816622e+03
-1.156809438955338e+03  3.138479635074896e+02 -2.918975276816622e+03
-1.156703834784954e+03  3.115151466289949e+02 -2.918975276816622e+03
-1.156501599584801e+03  3.090640570414265e+02 -2.918975276816622e+03
-1.156605378028299e+03  3.063421944046298e+02 -2.918975276816622e+03
-1.156936764956102e+03  3.037594722076572e+02 -2.918975276816622e+03
-1.156959975432227e+03  3.018195230036773e+02 -2.918975276816622e+03
-1.156734943916005e+03  2.994983148127568e+02 -2.918975276816622e+03
-1.156719482651069e+03  2.966268817496268e+02 -2.918975276816622e+03
-1.156667843350391e+03  2.948594294317749e+02 -2.918975276816622e+03
-1.156544240583605e+03  2.930692225615468e+02 -2.918975276816622e+03
-1.156548067101361e+03  2.910295519747201e+02 -2.918975276816622e+03
-1.156604478668376e+03  2.895549392461843e+02 -2.918975276816622e+03
-1.156846846313543e+03  2.886841555775634e+02 -2.918975276816622e+03
-1.156851420355576e+03  2.882232165844646e+02 -2.918975276816622e+03
-1.156685536827395e+03  2.872862314006917e+02 -2.918975276816622e+03
-1.156733208101103e+03  2.854989013619344e+02 -2.918975276816622e+03
-1.156770582711049e+03  2.832171340820612e+02 -2.918975276816622e+03
-1.156752729403916e+03  2.800209387150207e+02 -2.918975276816622e+03
-1.156729606503880e+03  2.778580218238521e+02 -2.918975276816622e+03
-1.156718776586471e+03  2.765333303790964e+02 -2.918975276816622e+03
-1.156734780960118e+03  2.746970775163730e+02 -2.918975276816622e+03
-1.156732114335564e+03  2.728922075215496e+02 -2.918975276816622e+03
-1.156729025435439e+03  2.714599257527880e+02 -2.918975276816622e+03
-1.156721709528108e+03  2.703790438661566e+02 -2.918975276816622e+03
-1.156737786936850e+03  2.678710371676088e+02 -2.918975276816622e+03
-1.156718106539178e+03  2.655211078184962e+02 -2.918975276816622e+03
-1.156743413548471e+03  2.638122702975515e+02 -2.918975276816622e+03
-1.156804204093611e+03  2.617661042629485e+02 -2.918975276816622e+03
-1.156804653174369e+03  2.604063962869122e+02 -2.918975276816622e+03
-1.156714393232692e+03  2.588727039459220e+02 -2.918975276816622e+03
-1.156732304506899e+03  2.572756937884151e+02 -2.918975276816622e+03
-1.156767851907014e+03  2.560027838339810e+02 -2.918975276816622e+03
-1.156771641464706e+03  2.546202293997504e+02 -2.918975276816622e+03
-1.156807227137482e+03  2.528090998791109e+02 -2.918975276816622e+03
-1.156887852440082e+03  2.508807765773052e+02 -2.918975276816622e+03
-1.156809386045039e+03  2.500560602109056e+02 -2.918975276816622e+03
-1.156705616884147e+03  2.486136704976652e+02 -2.918975276816622e+03
-1.156780122603883e+03  2.466517356604758e+02 -2.918975276816622e+03
-1.156756198290570e+03  2.451344532122761e+02 -2.918975276816622e+03
-1.156723769587204e+03  2.436918302229019e+02 -2.918975276816622e+03
-1.156645685852656e+03  2.420019618795385e+02 -2.918975276816622e+03
-1.156637822738645e+03  2.404889410918219e+02 -2.918975276816622e+03
-1.156626324896064e+03  2.393052945284087e+02 -2.918975276816622e+03
-1.156590040626940e+03  2.369382239053596e+02 -2.918975276816622e+03
-1.156509065147800e+03  2.347431682931572e+02 -2.918975276816622e+03
-1.156492099013210e+03  2.329278442827883e+02 -2.918975276816622e+03
-1.156476662283956e+03  2.308001900544162e+02 -2.918975276816622e+03
-1.156431776953633e+03  2.295644626330266e+02 -2.918975276816622e+03
-1.156378115835530e+03  2.281219146110072e+02 -2.918975276816622e+03
-1.156373196432349e+03  2.263691290885266e+02 -2.918975276816622e+03
-1.156375861685734e+03  2.253211935555283e+02 -2.918975276816622e+03
-1.156356751416141e+03  2.241023130990651e+02 -2.918975276816622e+03
-1.156340300717328e+03  2.220259022250474e+02 -2.918975276816622e+03
-1.156328279426391e+03  2.202934506180740e+02 -2.918975276816622e+03
-1.156247953377819e+03  2.191454316633914e+02 -2.918975276816622e+03
-1.156238000008748e+03  2.169283520361769e+02 -2.918975276816622e+03
-1.156330399971350e+03  2.147939379879681e+02 -2.918975276816622e+03
-1.156305884843127e+03  2.130784732013180e+02 -2.918975276816622e+03
-1.156262180171406e+03  2.109912003518149e+02 -2.918975276816622e+03
-1.156262403026656e+03  2.095858801999545e+02 -2.918975276816622e+03
-1.156282600179321e+03  2.081052368701758e+02 -2.918975276816622e+03
-1.156298580770710e+03  2.062170889579469e+02 -2.918975276816622e+03
-1.156323795274315e+03  2.049099405772328e+02 -2.918975276816622e+03
-1.156265995509565e+03  2.038897853039348e+02 -2.918975276816622e+03
-1.156229005965931e+03  2.021069411853750e+02 -2.918975276816622e+03
-1.156289289122431e+03  2.003904708434518e+02 -2.918975276816622e+03
-1.156377786878448e+03  1.990095512071387e+02 -2.918975276816622e+03
-1.156457188522689e+03  1.966544161391176e+02 -2.918975276816622e+03
-1.156251808843490e+03  1.950419435982172e+02 -2.918975276816622e+03
-1.156150638187710e+03  1.934659808858263e+02 -2.918975276816622e+03
-1.156244266013455e+03  1.910814262434778e+02 -2.918975276816622e+03
-1.156226972137463e+03  1.897111959715629e+02 -2.918975276816622e+03
-1.156018776132038e+03  1.882390121938467e+02 -2.918975276816622e+03
-1.155993978143434e+03  1.864774533609968e+02 -2.918975276816622e+03
-1.156190820123503e+03  1.851687999011145e+02 -2.918975276816622e+03
-1.156232297967803e+03  1.838718574915057e+02 -2.918975276816622e+03
-1.156300343141271e+03  1.820282187810088e+02 -2.918975276816622e+03
-1.156292555022936e+03  1.805710253326653e+02 -2.918975276816622e+03
-1.156221041903322e+03  1.794913521980301e+02 -2.918975276816622e+03
-1.156197053361820e+03  1.770406879575945e+02 -2.918975276816622e+03
-1.156256724464812e+03  1.748645734350328e+02 -2.918975276816622e+03
-1.156294503781843e+03  1.731485236636925e+02 -2.918975276816622e+03
-1.156298495911744e+03  1.710445258348206e+02 -2.918975276816622e+03
-1.156235399224138e+03  1.696599347275626e+02 -2.918975276816622e+03
-1.156265547577894e+03  1.681423080829589e+02 -2.918975276816622e+03
-1.156281192000266e+03  1.664392151641367e+02 -2.918975276816622e+03
-1.156286971239539e+03  1.651957271721565e+02 -2.918975276816622e+03
-1.156285840391647e+03  1.639306171250759e+02 -2.918975276816622e+03
-1.156292523017603e+03  1.620512237089519e+02 -2.918975276816622e+03
-1.156271012848599e+03  1.604626367737076e+02 -2.918975276816622e+03
-1.156248482782716e+03  1.593140851653226e+02 -2.918975276816622e+03
-1.156277501413738e+03  1.571277849545638e+02 -2.918975276816622e+03
-1.156252101272861e+03  1.551028737313993e+02 -2.918975276816622e+03
-1.156280733822382e+03  1.532155581270309e+02 -2.918975276816622e+03
-1.156290387036999e+03  1.510412321974582e+02 -2.918975276816622e+03
-1.156279527557000e+03  1.497608587265058e+02 -2.918975276816622e+03
-1.156273117650129e+03  1.482335461856023e+02 -2.918975276816622e+03
-1.156324809077501e+03  1.463527073780231e+02 -2.918975276816622e+03
-1.156305352040160e+03  1.451585523080564e+02 -2.918975276816622e+03
-1.156262624525256e+03  1.440458153937095e+02 -2.918975276816622e+03
-1.156322923792200e+03  1.421520527027508e+02 -2.918975276816622e+03
-1.156376151318716e+03  1.405144229480044e+02 -2.918975276816622e+03
-1.156314966956718e+03  1.393117309706804e+02 -2.918975276816622e+03
-1.156141301964956e+03  1.370325843262569e+02 -2.918975276816622e+03
-1.156229061351289e+03  1.349513858650799e+02 -2.918975276816622e+03
-1.156397493223352e+03  1.331879850372395e+02 -2.918975276816622e+03
-1.156480022904196e+03  1.310513531674613e+02 -2.918975276816622e+03
-1.156474994738443e+03  1.297328034990284e+02 -2.918975276816622e+03
-1.156419844699045e+03  1.282443357191417e+02 -2.918975276816622e+03
-1.156326900887227e+03  1.265363365582409e+02 -2.918975276816622e+03
-1.156383854921521e+03  1.253253966072732e+02 -2.918975276816622e+03
-1.156593879179771e+03  1.239902947946279e+02 -2.918975276816622e+03
-1.156596509325977e+03  1.221172848231348e+02 -2.918975276816622e+03
-1.156541296675173e+03  1.204613645034314e+02 -2.918975276816622e+03
-1.156515738099704e+03  1.192581877232634e+02 -2.918975276816622e+03
-1.156554762578960e+03  1.170045918332670e+02 -2.918975276816622e+03
-1.156601671640585e+03  1.148921806923224e+02 -2.918975276816622e+03
-1.156622210680948e+03  1.131734781471393e+02 -2.918975276816622e+03
-1.156619760927223e+03  1.112151884368731e+02 -2.918975276816622e+03
-1.156622019016877e+03  1.099387367524745e+02 -2.918975276816622e+03
-1.156647610370566e+03  1.083973444494110e+02 -2.918975276816622e+03
-1.156652215763045e+03  1.066752370604210e+02 -2.918975276816622e+03
-1.156645244075143e+03  1.053508162124210e+02 -2.918975276816622e+03
-1.156643003948255e+03  1.039648375388085e+02 -2.918975276816622e+03
-1.156648661545089e+03  1.021610584269797e+02 -2.918975276816622e+03
-1.156659191406201e+03  1.006887332293340e+02 -2.918975276816622e+03
-1.156665364594829e+03  9.926759596864312e+01 -2.918975276816622e+03
-1.156658694278961e+03  9.758205988684695e+01 -2.918975276816622e+03
-1.156669772621127e+03  9.604606186156305e+01 -2.918975276816622e+03
-1.156673783077876e+03  9.317376253055535e+01 -2.918975276816622e+03
-1.156674232583508e+03  9.056973343487478e+01 -2.918975276816622e+03
-1.156637703786542e+03  8.901782940242718e+01 -2.918975276816622e+03
-1.156620684883648e+03  8.743893314759184e+01 -2.918975276816622e+03
-1.156629342120645e+03  8.659908626607410e+01 -2.918975276816622e+03
-1.156655093499607e+03  8.574546011121029e+01 -2.918975276816622e+03
-1.156721381493443e+03  8.386741462862109e+01 -2.918975276816622e+03
-1.156656158200027e+03  8.089058909291981e+01 -2.918975276816622e+03
-1.156498875429315e+03  7.771740475923718e+01 -2.918975276816622e+03
-1.156280093687190e+03  7.489418990018309e+01 -2.918975276816622e+03
-1.156219854560916e+03  7.266527915599950e+01 -2.918975276816622e+03
-1.156482317808822e+03  7.078528873353160e+01 -2.918975276816622e+03
-1.157123900132368e+03  6.867147977830298e+01 -2.918975276816622e+03
-1.157918429975867e+03  6.688382245488421e+01 -2.918975276816622e+03
-1.157132796837460e+03  6.519108071253798e+01 -2.918975276816622e+03
-1.156256792759060e+03  6.268637830949405e+01 -2.918975276816622e+03
-1.156808568925222e+03  5.958938603609560e+01 -2.918975276816622e+03
-1.156522072796914e+03  5.715967267506296e+01 -2.918975276816622e+03
-1.155629553207919e+03  5.489562981086775e+01 -2.918975276816622e+03
-1.155759709929473e+03  5.214390294295600e+01 -2.918975276816622e+03
-1.156555163653136e+03  5.031656202148773e+01 -2.918975276816622e+03
-1.156810739463853e+03  4.888234510989164e+01 -2.918975276816622e+03
-1.156843324107874e+03  4.728504643790982e+01 -2.918975276816622e+03
-1.156940164924778e+03  4.544337204674210e+01 -2.918975276816622e+03
-1.156985782787301e+03  4.316297342486678e+01 -2.918975276816622e+03
-1.157040842274199e+03  4.183188378642635e+01 -2.918975276816622e+03
-1.157135745222613e+03  4.027703292717450e+01 -2.918975276816622e+03
-1.157230316898669e+03  3.778567448262896e+01 -2.918975276816622e+03
-1.157161925213490e+03  3.575414263699023e+01 -2.918975276816622e+03
-1.157235866380639e+03  3.407965164604821e+01 -2.918975276816622e+03
-1.157516818293474e+03  3.160093350827727e+01 -2.918975276816622e+03
-1.157615298657208e+03  2.940422434778778e+01 -2.918975276816622e+03
-1.157659725951514e+03  2.754653806118414e+01 -2.918975276816622e+03
-1.157841296511444e+03  2.496776890246553e+01 -2.918975276816622e+03
-1.158066540047364e+03  2.275666898695365e+01 -2.918975276816622e+03
-1.158194371963567e+03  2.181262951681209e+01 -2.918975276816622e+03
-1.158050570016428e+03  2.041076034151531e+01 -2.918975276816622e+03
-1.157876943071598e+03  1.805493463832489e+01 -2.918975276816622e+03
-1.157804046893362e+03  1.646673396207084e+01 -2.918975276816622e+03
-1.157751048979535e+03  1.525052868622697e+01 -2.918975276816622e+03
-1.157708935617356e+03  1.394259566939986e+01 -2.918975276816622e+03
-1.157674224299285e+03  1.259731147033351e+01 -2.918975276816622e+03
-1.157647881904090e+03  1.085961137465631e+01 -2.918975276816622e+03
-1.157613499171553e+03  8.667484070725305e+00 -2.918975276816622e+03
 1.154365100809722e+03 -1.785804195296270e+00  2.918975276816622e+03
 1.154486751417837e+03 -1.749959367927170e-01  2.918975276816622e+03
 1.154128915464393e+03 -3.367985752484450e+00  2.918975276816622e+03
 1.153843198022187e+03 -5.516018565293370e+00  2.918975276816622e+03
 1.153704244463268e+03 -6.935660287017106e+00  2.918975276816622e+03
 1.155159558762906e+03 -6.922822867469823e+00  2.918975276816622e+03
 1.156139737788190e+03 -7.934992434456903e+00  2.918975276816622e+03
 1.155286065593694e+03 -1.122572679807249e+01  2.918975276816622e+03
 1.154748208122990e+03 -1.475609104934615e+01  2.918975276816622e+03
 1.154393124694413e+03 -1.769602956631886e+01  2.918975276816622e+03
 1.154220815307962e+03 -2.004554234899062e+01  2.918975276816622e+03
 1.154100076221216e+03 -2.261912469267702e+01  2.918975276816622e+03
 1.154030907434175e+03 -2.541677659737806e+01  2.918975276816622e+03
 1.153712238357850e+03 -2.693067666226776e+01  2.918975276816622e+03
 1.153467882775697e+03 -2.870160402657634e+01  2.918975276816622e+03
 1.153501770862018e+03 -3.146206333916829e+01  2.918975276816622e+03
 1.153490088833356e+03 -3.367127546081339e+01  2.918975276816622e+03
 1.153289861601625e+03 -3.629164243356907e+01  2.918975276816622e+03
 1.152967605436993e+03 -3.918279491531673e+01  2.918975276816622e+03
 1.153439404246690e+03 -4.044161264714634e+01  2.918975276816622e+03
 1.153690930004565e+03 -4.175773227829978e+01  2.918975276816622e+03
 1.153345317942728e+03 -4.455689636157362e+01  2.918975276816622e+03
 1.153264075939576e+03 -4.745826767902217e+01  2.918975276816622e+03
 1.153345752941085e+03 -4.986711209889580e+01  2.918975276816622e+03
 1.153408647868884e+03 -5.158501406831004e+01  2.918975276816622e+03
 1.153338557746107e+03 -5.350696532126120e+01  2.918975276816622e+03
 1.153305294705862e+03 -5.559588391247957e+01  2.918975276816622e+03
 1.153296780293291e+03 -5.776335304935012e+01  2.918975276816622e+03
 1.153324157692035e+03 -5.976508002530181e+01  2.918975276816622e+03
 1.153308174792934e+03 -6.119705962775431e+01  2.918975276816622e+03
 1.153305136014271e+03 -6.266555216601445e+01  2.918975276816622e+03
 1.153306930735752e+03 -6.443424343809642e+01  2.918975276816622e+03
 1.153339451452500e+03 -6.583086240293652e+01  2.918975276816622e+03
 1.153409385475173e+03 -6.774204390746578e+01  2.918975276816622e+03
 1.153440271264855e+03 -7.007636998370036e+01  2.918975276816622e+03
 1.153402986283937e+03 -7.155438075739745e+01  2.918975276816622e+03
 1.153437983520588e+03 -7.329403015970522e+01  2.918975276816622e+03
 1.153511026403292e+03 -7.631373532434958e+01  2.918975276816622e+03
 1.153541736773057e+03 -7.942722896816591e+01  2.918975276816622e+03
 1.153519135993796e+03 -8.127782798485502e+01  2.918975276816622e+03
 1.153475260792043e+03 -8.331324032420643e+01  2.918975276816622e+03
 1.153515858326218e+03 -8.539564766509260e+01  2.918975276816622e+03
 1.153598987464846e+03 -8.749904300231722e+01  2.918975276816622e+03
 1.153611358756723e+03 -8.986407961770614e+01  2.918975276816622e+03
 1.153557921711377e+03 -9.153288787639070e+01  2.918975276816622e+03
 1.153558376365045e+03 -9.350193128189230e+01  2.918975276816622e+03
 1.153573132952740e+03 -9.601348052081067e+01  2.918975276816622e+03
 1.153575186007968e+03 -9.760810874114927e+01  2.918975276816622e+03
 1.153559335486372e+03 -9.915469584757145e+01  2.918975276816622e+03
 1.153594429603639e+03 -1.020499066783087e+02  2.918975276816622e+03
 1.153671600795622e+03 -1.044242735222371e+02  2.918975276816622e+03
 1.153656785225337e+03 -1.056467283254049e+02  2.918975276816622e+03
 1.153699763820874e+03 -1.075178660376817e+02  2.918975276816622e+03
 1.153892014753170e+03 -1.097703641638985e+02  2.918975276816622e+03
 1.153924176008576e+03 -1.113692502913358e+02  2.918975276816622e+03
 1.153516183169470e+03 -1.132140597885503e+02  2.918975276816622e+03
 1.153457424215509e+03 -1.157421569676900e+02  2.918975276816622e+03
 1.153749959324556e+03 -1.189692708739693e+02  2.918975276816622e+03
 1.154054020595930e+03 -1.228493674485086e+02  2.918975276816622e+03
 1.154191734071462e+03 -1.257904892351051e+02  2.918975276816622e+03
 1.155268790985778e+03 -1.267290255771098e+02  2.918975276816622e+03
 1.155507622567266e+03 -1.282955382972485e+02  2.918975276816622e+03
 1.154579870068074e+03 -1.314668518206811e+02  2.918975276816622e+03
 1.154503997055501e+03 -1.344404189091084e+02  2.918975276816622e+03
 1.154292483753803e+03 -1.369776609810420e+02  2.918975276816622e+03
 1.154080970452106e+03 -1.395149030529756e+02  2.918975276816622e+03
 1.153869457150408e+03 -1.420521451249092e+02  2.918975276816622e+03
 1.153730472800278e+03 -1.445520594095412e+02  2.918975276816622e+03
 1.153546168868141e+03 -1.473429150839704e+02  2.918975276816622e+03
 1.153526241742915e+03 -1.497837984174222e+02  2.918975276816622e+03
 1.153841703648373e+03 -1.514573422707005e+02  2.918975276816622e+03
 1.153930531273363e+03 -1.533071570590443e+02  2.918975276816622e+03
 1.153866161990733e+03 -1.561055693774494e+02  2.918975276816622e+03
 1.153749707235145e+03 -1.590946792497975e+02  2.918975276816622e+03
 1.153530742270151e+03 -1.609389791112500e+02  2.918975276816622e+03
 1.153608417865896e+03 -1.620154966703710e+02  2.918975276816622e+03
 1.153687921841136e+03 -1.630757639271979e+02  2.918975276816622e+03
 1.153651021655906e+03 -1.646131266536023e+02  2.918975276816622e+03
 1.153581644249503e+03 -1.660290067773468e+02  2.918975276816622e+03
 1.153575708504984e+03 -1.675941013131968e+02  2.918975276816622e+03
 1.153667791099173e+03 -1.696041800338379e+02  2.918975276816622e+03
 1.153720269480492e+03 -1.712938866940175e+02  2.918975276816622e+03
 1.153724668095195e+03 -1.731794903481122e+02  2.918975276816622e+03
 1.153743055133592e+03 -1.761032429237877e+02  2.918975276816622e+03
 1.153747257458152e+03 -1.792319280509267e+02  2.918975276816622e+03
 1.153699389616208e+03 -1.822194371688156e+02  2.918975276816622e+03
 1.153656577879176e+03 -1.850242139442528e+02  2.918975276816622e+03
 1.153813486431179e+03 -1.871682412786716e+02  2.918975276816622e+03
 1.153839400887957e+03 -1.898105386372265e+02  2.918975276816622e+03
 1.153631068515176e+03 -1.928558654000314e+02  2.918975276816622e+03
 1.153424974881692e+03 -1.959550569802017e+02  2.918975276816622e+03
 1.153432014112754e+03 -1.992452541899188e+02  2.918975276816622e+03
 1.153634686820872e+03 -2.021716149610638e+02  2.918975276816622e+03
 1.153645976667714e+03 -2.047909296619628e+02  2.918975276816622e+03
 1.153657266514555e+03 -2.074102443628618e+02  2.918975276816622e+03
 1.153523568744328e+03 -2.098977458373712e+02  2.918975276816622e+03
 1.153371151434229e+03 -2.127733006885055e+02  2.918975276816622e+03
 1.153345002201327e+03 -2.161687221426540e+02  2.918975276816622e+03
 1.153292611269303e+03 -2.191534571478850e+02  2.918975276816622e+03
 1.153285031703481e+03 -2.219373626192848e+02  2.918975276816622e+03
 1.153463950429224e+03 -2.238328014441023e+02  2.918975276816622e+03
 1.153530685332095e+03 -2.249898291918723e+02  2.918975276816622e+03
 1.153462480664259e+03 -2.272691003349112e+02  2.918975276816622e+03
 1.153398110832944e+03 -2.296033748487839e+02  2.918975276816622e+03
 1.153441140599537e+03 -2.311088493737806e+02  2.918975276816622e+03
 1.153537450621825e+03 -2.331375216188065e+02  2.918975276816622e+03
 1.153548758813965e+03 -2.358107621710280e+02  2.918975276816622e+03
 1.153618039160060e+03 -2.384839008613538e+02  2.918975276816622e+03
 1.153529016270423e+03 -2.408443381825451e+02  2.918975276816622e+03
 1.153374170705338e+03 -2.432250739259490e+02  2.918975276816622e+03
 1.153424194537324e+03 -2.461179285470959e+02  2.918975276816622e+03
 1.153525427226719e+03 -2.489180080207443e+02  2.918975276816622e+03
 1.153565479936733e+03 -2.514461932604983e+02  2.918975276816622e+03
 1.153456358574453e+03 -2.540909861301309e+02  2.918975276816622e+03
 1.153523655005363e+03 -2.563770749388050e+02  2.918975276816622e+03
 1.153797521291996e+03 -2.589908072307034e+02  2.918975276816622e+03
 1.153750632255332e+03 -2.610436124344390e+02  2.918975276816622e+03
 1.153652676009634e+03 -2.624846975580785e+02  2.918975276816622e+03
 1.153705385868440e+03 -2.646779448638459e+02  2.918975276816622e+03
 1.153801367794748e+03 -2.671603106613492e+02  2.918975276816622e+03
 1.153895302313269e+03 -2.700080907795351e+02  2.918975276816622e+03
 1.153819724432225e+03 -2.719007016120214e+02  2.918975276816622e+03
 1.153804032347642e+03 -2.733346356874586e+02  2.918975276816622e+03
 1.153962688562319e+03 -2.759066277518945e+02  2.918975276816622e+03
 1.154075696868234e+03 -2.784628059025605e+02  2.918975276816622e+03
 1.154043219737946e+03 -2.798080927005729e+02  2.918975276816622e+03
 1.153885376927015e+03 -2.818167497821127e+02  2.918975276816622e+03
 1.153936869697404e+03 -2.847920045186196e+02  2.918975276816622e+03
 1.154095363960954e+03 -2.874357298014268e+02  2.918975276816622e+03
 1.154135726404621e+03 -2.900745060665766e+02  2.918975276816622e+03
 1.154195649624563e+03 -2.932639532632066e+02  2.918975276816622e+03
 1.154183805787262e+03 -2.958408042964997e+02  2.918975276816622e+03
 1.154141481678957e+03 -2.970333955115510e+02  2.918975276816622e+03
 1.153928502732619e+03 -2.977212694145264e+02  2.918975276816622e+03
 1.153653340989372e+03 -2.983829318534150e+02  2.918975276816622e+03
 1.153702552736381e+03 -2.999512936954131e+02  2.918975276816622e+03
 1.153906818370009e+03 -3.021688418159571e+02  2.918975276816622e+03
 1.154050094899425e+03 -3.035518982381479e+02  2.918975276816622e+03
 1.154120477564019e+03 -3.056142139736929e+02  2.918975276816622e+03
 1.154095035688535e+03 -3.083978991936068e+02  2.918975276816622e+03
 1.154058060684940e+03 -3.097239728690209e+02  2.918975276816622e+03
 1.153981258520361e+03 -3.105707964026599e+02  2.918975276816622e+03
 1.153964062726319e+03 -3.113409735802789e+02  2.918975276816622e+03
 1.153976987600455e+03 -3.125124200465033e+02  2.918975276816622e+03
 1.153927996713889e+03 -3.139836581447034e+02  2.918975276816622e+03
 1.153879015289686e+03 -3.161141947105050e+02  2.918975276816622e+03
 1.153811909703418e+03 -3.195536495853527e+02  2.918975276816622e+03
 1.153787419838091e+03 -3.225776805548263e+02  2.918975276816622e+03
 1.153743895564135e+03 -3.249007716655163e+02  2.918975276816622e+03
 1.153713368898413e+03 -3.272985559855800e+02  2.918975276816622e+03
 1.153687197524764e+03 -3.300127130804439e+02  2.918975276816622e+03
 1.153669056516366e+03 -3.319053834762689e+02  2.918975276816622e+03
 1.153620409311776e+03 -3.335643970752216e+02  2.918975276816622e+03
 1.153585501616486e+03 -3.366556322084421e+02  2.918975276816622e+03
 1.153634888676839e+03 -3.390276334359640e+02  2.918975276816622e+03
 1.153553707258153e+03 -3.406520503481227e+02  2.918975276816622e+03
 1.153318580991683e+03 -3.428508289172909e+02  2.918975276816622e+03
 1.153305947005453e+03 -3.453166437031024e+02  2.918975276816622e+03
 1.153504983631770e+03 -3.486188723765665e+02  2.918975276816622e+03
 1.153559998068487e+03 -3.516610341980862e+02  2.918975276816622e+03
 1.153538985618196e+03 -3.538238061091728e+02  2.918975276816622e+03
 1.153537556152450e+03 -3.560391393616214e+02  2.918975276816622e+03
 1.153578105230287e+03 -3.586693690363352e+02  2.918975276816622e+03
 1.153633729727456e+03 -3.616480325831150e+02  2.918975276816622e+03
 1.153643091407385e+03 -3.639171887283439e+02  2.918975276816622e+03
 1.153678808360083e+03 -3.652929007144814e+02  2.918975276816622e+03
 1.153794191459370e+03 -3.663321548896993e+02  2.918975276816622e+03
 1.153823938056743e+03 -3.677887982829246e+02  2.918975276816622e+03
 1.153758014855274e+03 -3.698213587740431e+02  2.918975276816622e+03
 1.153722146738496e+03 -3.725434691785418e+02  2.918975276816622e+03
 1.153657236774061e+03 -3.751697306302654e+02  2.918975276816622e+03
 1.153674898245047e+03 -3.774353552678792e+02  2.918975276816622e+03
 1.153772719549543e+03 -3.801557793096758e+02  2.918975276816622e+03
 1.153820646077228e+03 -3.824249693917944e+02  2.918975276816622e+03
 1.153816826617856e+03 -3.835580804431559e+02  2.918975276816622e+03
 1.153877959644114e+03 -3.850840537928813e+02  2.918975276816622e+03
1.153905027772614e+03 3.845870273729146e+02 2.918975276816622e+03
1.153971560804231e+03 3.857828276813940e+02 2.918975276816622e+03
1.153795700111101e+03 3.827792148914908e+02 2.918975276816622e+03
1.153826008844664e+03 3.813440390288892e+02 2.918975276816622e+03
1.153866937137411e+03 3.799852793937972e+02 2.918975276816622e+03
1.153861852594082e+03 3.777079545607842e+02 2.918975276816622e+03
1.153812640445037e+03 3.749795968085713e+02 2.918975276816622e+03
1.153820128560940e+03 3.728685427683287e+02 2.918975276816622e+03
1.153834826587317e+03 3.716145349199458e+02 2.918975276816622e+03
1.153926770222397e+03 3.692321958250397e+02 2.918975276816622e+03
1.154027101032432e+03 3.670597096260381e+02 2.918975276816622e+03
1.153983467695965e+03 3.657016173634712e+02 2.918975276816622e+03
1.153730358004450e+03 3.637269319448399e+02 2.918975276816622e+03
1.153678592717308e+03 3.610097534955883e+02 2.918975276816622e+03
1.153806542252654e+03 3.585107837898676e+02 2.918975276816622e+03
1.154101131601137e+03 3.574684435246928e+02 2.918975276816622e+03
1.153852064871232e+03 3.566680814082538e+02 2.918975276816622e+03
1.153422212641677e+03 3.559246835016287e+02 2.918975276816622e+03
1.153613884392160e+03 3.545218742907728e+02 2.918975276816622e+03
1.153643946143499e+03 3.526952641453498e+02 2.918975276816622e+03
1.153746620995356e+03 3.513387716202266e+02 2.918975276816622e+03
1.153891284743757e+03 3.491481700580319e+02 2.918975276816622e+03
1.154001318885244e+03 3.465039593249866e+02 2.918975276816622e+03
1.154064833371735e+03 3.441230627663986e+02 2.918975276816622e+03
1.154195231428759e+03 3.425052700718734e+02 2.918975276816622e+03
1.154339592441757e+03 3.408114331399893e+02 2.918975276816622e+03
1.154416633094239e+03 3.384785952303579e+02 2.918975276816622e+03
1.154525793655763e+03 3.360825902699445e+02 2.918975276816622e+03
1.154634954217287e+03 3.336865853095309e+02 2.918975276816622e+03
1.154680783822952e+03 3.320922116020938e+02 2.918975276816622e+03
1.153165058590435e+03 3.319662164303988e+02 2.918975276816622e+03
1.152254808460612e+03 3.312543104846144e+02 2.918975276816622e+03
1.153098777584727e+03 3.291920813376715e+02 2.918975276816622e+03
1.153664624829922e+03 3.274496497689846e+02 2.918975276816622e+03
1.152446579402965e+03 3.265900509641492e+02 2.918975276816622e+03
1.151407396992287e+03 3.256696803455512e+02 2.918975276816622e+03
1.152195121315971e+03 3.245090381552056e+02 2.918975276816622e+03
1.153198220849307e+03 3.238084557907559e+02 2.918975276816622e+03
1.153630716816306e+03 3.225851835862150e+02 2.918975276816622e+03
1.153530170422498e+03 3.204131547719022e+02 2.918975276816622e+03
1.153294973087185e+03 3.173187718777448e+02 2.918975276816622e+03
1.153529384605409e+03 3.145492602424052e+02 2.918975276816622e+03
1.153770109085481e+03 3.124459860905217e+02 2.918975276816622e+03
1.153844273414160e+03 3.098040523414027e+02 2.918975276816622e+03
1.154360430311895e+03 3.067221985053475e+02 2.918975276816622e+03
1.154427049875472e+03 3.034099735514750e+02 2.918975276816622e+03
1.154388476375506e+03 3.007281464598277e+02 2.918975276816622e+03
1.154269772483593e+03 2.984343345197157e+02 2.918975276816622e+03
1.154176131263280e+03 2.958981398689141e+02 2.918975276816622e+03
1.154348578413369e+03 2.941585394905924e+02 2.918975276816622e+03
1.154563940157766e+03 2.922727220840438e+02 2.918975276816622e+03
1.154556128126072e+03 2.894440933767892e+02 2.918975276816622e+03
1.154586731164819e+03 2.879236747763161e+02 2.918975276816622e+03
1.154540604256883e+03 2.863015510154957e+02 2.918975276816622e+03
1.154379332331825e+03 2.832695119875467e+02 2.918975276816622e+03
1.154306719683545e+03 2.807844728794830e+02 2.918975276816622e+03
1.154403631199782e+03 2.783804844618407e+02 2.918975276816622e+03
1.154424019584339e+03 2.759572559014082e+02 2.918975276816622e+03
1.153951364822849e+03 2.739168392189414e+02 2.918975276816622e+03
1.153143054934725e+03 2.718125253277669e+02 2.918975276816622e+03
1.153280822565887e+03 2.695067670394462e+02 2.918975276816622e+03
1.153904943586583e+03 2.663362904001559e+02 2.918975276816622e+03
1.153796136895701e+03 2.641101448056976e+02 2.918975276816622e+03
1.153611807469235e+03 2.622495691994244e+02 2.918975276816622e+03
1.153546328632903e+03 2.593288858080338e+02 2.918975276816622e+03
1.153533240677644e+03 2.571743306848068e+02 2.918975276816622e+03
1.153342007012656e+03 2.555652006393741e+02 2.918975276816622e+03
1.153259147787952e+03 2.539216101074753e+02 2.918975276816622e+03
1.153440725154972e+03 2.527338005271347e+02 2.918975276816622e+03
1.153464670117693e+03 2.514702445290810e+02 2.918975276816622e+03
1.153372390418053e+03 2.496708642072893e+02 2.918975276816622e+03
1.153340114390591e+03 2.485265765081078e+02 2.918975276816622e+03
1.153351756542124e+03 2.474138871441791e+02 2.918975276816622e+03
1.153336051817144e+03 2.460762790264062e+02 2.918975276816622e+03
1.153325552746410e+03 2.445138856371917e+02 2.918975276816622e+03
1.153343592425217e+03 2.425621023621385e+02 2.918975276816622e+03
1.153374792076277e+03 2.408626165924700e+02 2.918975276816622e+03
1.153421445327015e+03 2.391909148056620e+02 2.918975276816622e+03
1.153429830536250e+03 2.370966967517296e+02 2.918975276816622e+03
1.153404693272285e+03 2.344556965992105e+02 2.918975276816622e+03
1.153451447055666e+03 2.329258546394447e+02 2.918975276816622e+03
1.153500214943769e+03 2.313412822040088e+02 2.918975276816622e+03
1.153434676404136e+03 2.292672712958203e+02 2.918975276816622e+03
1.153425882782130e+03 2.277026035371979e+02 2.918975276816622e+03
1.153425906455786e+03 2.261183410987234e+02 2.918975276816622e+03
1.153423122700340e+03 2.248614853390892e+02 2.918975276816622e+03
1.153441140222239e+03 2.227522571246821e+02 2.918975276816622e+03
1.153499000572446e+03 2.197451341311841e+02 2.918975276816622e+03
1.153811831412572e+03 2.175639536720098e+02 2.918975276816622e+03
1.153693864149036e+03 2.163528325729063e+02 2.918975276816622e+03
1.153535896631358e+03 2.145354218590593e+02 2.918975276816622e+03
1.153784098362968e+03 2.119394287183062e+02 2.918975276816622e+03
1.153559284809843e+03 2.101035727788869e+02 2.918975276816622e+03
1.153289175685139e+03 2.081228069488715e+02 2.918975276816622e+03
1.153446786273591e+03 2.052369940269259e+02 2.918975276816622e+03
1.153797116969518e+03 2.024522003623378e+02 2.918975276816622e+03
1.154007432073143e+03 2.001776648023949e+02 2.918975276816622e+03
1.154347984220986e+03 1.993571899232358e+02 2.918975276816622e+03
1.154434678686905e+03 1.975707463665950e+02 2.918975276816622e+03
1.154101494204896e+03 1.940108299944448e+02 2.918975276816622e+03
1.153917863205499e+03 1.923186145699384e+02 2.918975276816622e+03
1.153561773920526e+03 1.910660998508459e+02 2.918975276816622e+03
1.153724194193386e+03 1.886536708684954e+02 2.918975276816622e+03
1.154111166415597e+03 1.858912471403509e+02 2.918975276816622e+03
1.153717717301840e+03 1.831548550532378e+02 2.918975276816622e+03
1.153328996821543e+03 1.805063921088235e+02 2.918975276816622e+03
1.153406408411988e+03 1.775390636367790e+02 2.918975276816622e+03
1.153191246912462e+03 1.749836779954636e+02 2.918975276816622e+03
1.152683512322965e+03 1.728402351848774e+02 2.918975276816622e+03
1.153287777645020e+03 1.710101181248747e+02 2.918975276816622e+03
1.153734113724703e+03 1.692473682432920e+02 2.918975276816622e+03
1.154268934366893e+03 1.668501848134693e+02 2.918975276816622e+03
1.154137178058945e+03 1.652159095445063e+02 2.918975276816622e+03
1.151980431084422e+03 1.647330174124794e+02 2.918975276816622e+03
1.151314513238725e+03 1.640941436555837e+02 2.918975276816622e+03
1.151202411221188e+03 1.627466603513190e+02 2.918975276816622e+03
1.152331269533962e+03 1.615336150051155e+02 2.918975276816622e+03
1.153850072591740e+03 1.601668026903493e+02 2.918975276816622e+03
1.153970258526507e+03 1.582847696280990e+02 2.918975276816622e+03
1.153830917742809e+03 1.564349951070024e+02 2.918975276816622e+03
1.153042638477687e+03 1.542918670254193e+02 2.918975276816622e+03
1.152696437955645e+03 1.523899824043465e+02 2.918975276816622e+03
1.152730446618606e+03 1.506412551560959e+02 2.918975276816622e+03
1.152664057968492e+03 1.492970613594669e+02 2.918975276816622e+03
1.152761295812216e+03 1.479680866135679e+02 2.918975276816622e+03
1.152927066854860e+03 1.464243876221243e+02 2.918975276816622e+03
1.153014408903726e+03 1.452797159198277e+02 2.918975276816622e+03
1.153106615300707e+03 1.431429148702917e+02 2.918975276816622e+03
1.153168667590020e+03 1.403992884302368e+02 2.918975276816622e+03
1.153207016767289e+03 1.390772584957453e+02 2.918975276816622e+03
1.153240137616510e+03 1.375840569451833e+02 2.918975276816622e+03
1.153282966338143e+03 1.348025185899428e+02 2.918975276816622e+03
1.153296854547840e+03 1.318037565488256e+02 2.918975276816622e+03
1.153286772197783e+03 1.291757530347881e+02 2.918975276816622e+03
1.153244986453730e+03 1.274817596308153e+02 2.918975276816622e+03
1.153238598174426e+03 1.264372448760101e+02 2.918975276816622e+03
1.153230706397555e+03 1.253074128839941e+02 2.918975276816622e+03
1.153186194451055e+03 1.231323754502542e+02 2.918975276816622e+03
1.153088734497461e+03 1.207120460449431e+02 2.918975276816622e+03
1.153005487735984e+03 1.192470064204697e+02 2.918975276816622e+03
1.152906540282676e+03 1.175171317225223e+02 2.918975276816622e+03
1.152751998904120e+03 1.147202239736354e+02 2.918975276816622e+03
1.152537987384126e+03 1.123647031536339e+02 2.918975276816622e+03
1.152367152468976e+03 1.109649891750088e+02 2.918975276816622e+03
1.152099614804694e+03 1.094047516624054e+02 2.918975276816622e+03
1.151856344067387e+03 1.085080512660416e+02 2.918975276816622e+03
1.152095283433581e+03 1.076937572463714e+02 2.918975276816622e+03
1.152456668476074e+03 1.062390947771236e+02 2.918975276816622e+03
1.152672506986813e+03 1.050623917733644e+02 2.918975276816622e+03
1.152940398709696e+03 1.030026717363840e+02 2.918975276816622e+03
1.153277433312676e+03 1.004218390537810e+02 2.918975276816622e+03
1.153685127809791e+03 9.799720004740261e+01 2.918975276816622e+03
1.153855090797919e+03 9.658364326099280e+01 2.918975276816622e+03
1.153732166464437e+03 9.504841040653318e+01 2.918975276816622e+03
1.153951371147495e+03 9.242344068472167e+01 2.918975276816622e+03
1.154440073839534e+03 8.946800903348148e+01 2.918975276816622e+03
1.154571601139597e+03 8.672878744557553e+01 2.918975276816622e+03
1.154480331725467e+03 8.421342007331447e+01 2.918975276816622e+03
1.154662685219119e+03 8.136916309298810e+01 2.918975276816622e+03
1.154951369419762e+03 7.931468903828080e+01 2.918975276816622e+03
1.155327118184560e+03 7.702257743574617e+01 2.918975276816622e+03
1.155852381510854e+03 7.408323675329636e+01 2.918975276816622e+03
1.155452701355851e+03 7.271138591741148e+01 2.918975276816622e+03
1.154881291929542e+03 7.151271092222657e+01 2.918975276816622e+03
1.155063096713224e+03 6.891972192117682e+01 2.918975276816622e+03
1.155294262993078e+03 6.684455488864249e+01 2.918975276816622e+03
1.155635857830100e+03 6.432651330750808e+01 2.918975276816622e+03
1.155545389551541e+03 6.124970987590330e+01 2.918975276816622e+03
1.155015323906705e+03 5.912582495883629e+01 2.918975276816622e+03
1.155073971791056e+03 5.788201455952790e+01 2.918975276816622e+03
1.155512261751777e+03 5.637821830165299e+01 2.918975276816622e+03
1.155308182838340e+03 5.484062394863533e+01 2.918975276816622e+03
1.154911332408177e+03 5.310173606476030e+01 2.918975276816622e+03
1.155206904864589e+03 5.120258857100573e+01 2.918975276816622e+03
1.155077344702740e+03 4.923147587824609e+01 2.918975276816622e+03
1.154596492861987e+03 4.787020950013571e+01 2.918975276816622e+03
1.154491887396802e+03 4.605892970833340e+01 2.918975276816622e+03
1.154551769783074e+03 4.333809954031978e+01 2.918975276816622e+03
1.154645178476976e+03 4.214105108820367e+01 2.918975276816622e+03
1.154736456370572e+03 4.128423634896684e+01 2.918975276816622e+03
1.154775076564265e+03 3.975356915880867e+01 2.918975276816622e+03
1.154783202690726e+03 3.717240168982006e+01 2.918975276816622e+03
1.154853804492791e+03 3.479133039065349e+01 2.918975276816622e+03
1.154923190042939e+03 3.309554733340379e+01 2.918975276816622e+03
1.154997914043116e+03 3.108891163983370e+01 2.918975276816622e+03
1.155030523829726e+03 2.913791293186348e+01 2.918975276816622e+03
1.155106439406821e+03 2.683263576089565e+01 2.918975276816622e+03
1.155169739194085e+03 2.394520214942257e+01 2.918975276816622e+03
1.155312925921556e+03 2.093996332893189e+01 2.918975276816622e+03
1.155456288038363e+03 1.940117663918267e+01 2.918975276816622e+03
1.155378278848239e+03 1.766129841994344e+01 2.918975276816622e+03
1.155152637492584e+03 1.518159559627407e+01 2.918975276816622e+03
1.155105641858045e+03 1.390410324992941e+01 2.918975276816622e+03
1.155233193145536e+03 1.252713391224588e+01 2.918975276816622e+03
1.155105690593237e+03 1.094836306914229e+01 2.918975276816622e+03
1.154841212369472e+03 9.046782904718439e+00 2.918975276816622e+03
1.154764628045685e+03 6.650226511532166e+00 2.918975276816622e+03
1.154762260247314e+03 4.933179333131346e+00 2.918975276816622e+03
1.154674293603812e+03 3.429683401123176e+00 2.918975276816622e+03
1.154589495672744e+03 1.763761778987457e+00 2.918975276816622e+03

CELLS 1486 6063
3 6 1498 7
3 6 1499 390
3 7 1500 8
3 8 1501 9
3 9 1502 10
3 10 1503 11
3 11 1504 12
4 12 1505 1506 13
3 13 1507 14
3 14 1508 15
3 15 1509 16
3 16 1510 17
3 17 1511 18
3 18 1512 19
4 19 1513 1514 20
3 20 1515 21
3 21 1516 22
3 22 1517 23
3 23 1518 24
3 24 1519 25
3 25 1520 26
3 26 1521 27
3 27 1522 28
4 28 1523 1524 29
3 29 1525 30
3 30 1526 31
3 31 1527 32
3 32 1528 33
3 33 1529 34
3 34 1530 35
3 35 1531 36
3 36 1532 37
3 37 1533 38
3 38 1534 39
3 39 1535 40
3 40 1536 41
3 41 1537 42
3 42 1538 43
3 43 1539 44
3 44 1540 45
3 45 1541 46
3 46 1542 47
3 47 1543 48
3 48 1544 49
3 49 1545 50
3 50 1546 51
3 51 1547 52
3 52 1548 53
3 53 1549 54
3 54 1550 55
3 55 1551 56
3 56 1552 57
3 57 1553 58
3 58 1554 59
3 59 1555 60
3 60 1556 61
3 61 1557 62
3 62 1558 63
3 63 1559 64
3 64 1560 65
3 65 1561 66
3 66 1562 67
3 67 1563 68
3 68 1564 69
3 69 1565 70
3 70 1566 71
3 71 1567 72
3 72 1568 73
3 73 1569 74
3 74 1570 75
3 75 1571 76
4 76 1572 1573 77
3 77 1574 78
3 78 1575 79
3 79 1576 80
3 80 1577 81
3 81 1578 82
3 82 1579 83
3 83 1580 84
3 84 1581 85
3 85 1582 86
3 86 1583 87
3 87 1584 88
3 88 1585 89
3 89 1586 90
3 90 1587 91
3 91 1588 92
3 92 1589 93
3 93 1590 94
3 94 1591 95
3 95 1592 96
3 96 1593 97
3 97 1594 98
3 98 1595 99
4 99 1596 1597 100
3 100 1598 101
3 101 1599 102
3 102 1600 103
3 103 1601 104
3 104 1602 105
3 105 1603 106
3 106 1604 107
3 107 1605 108
4 108 1606 1607 109
3 109 1608 110
3 110 1609 111
3 111 1610 112
3 112 1611 113
3 113 1612 114
3 114 1613 115
3 115 1614 116
3 116 1615 117
3 117 1616 118
3 118 1617 119
3 119 1618 120
3 120 1619 121
3 121 1620 122
3 122 1621 123
3 123 1622 124
3 124 1623 125
3 125 1624 126
3 126 1625 127
3 127 1626 128
3 128 1627 129
4 129 1628 1629 130
3 130 1630 131
3 131 1631 132
3 132 1632 133
3 133 1633 134
3 134 1634 135
3 135 1635 136
3 136 1636 137
3 137 1637 138
3 138 1638 139
3 139 1639 140
3 140 1640 141
3 141 1641 142
3 142 1642 143
3 143 1643 144
3 144 1644 145
3 145 1645 146
3 146 1646 147
3 147 1647 148
3 148 1648 149
3 149 1649 150
3 150 1650 151
3 151 1651 152
3 152 1652 153
4 153 1653 1654 154
3 154 1655 155
3 155 1656 156
3 156 1657 157
3 157 1658 158
3 158 1659 159
3 159 1660 160
3 160 1661 161
5 161 1662 1663 1664 162
3 162 1665 163
3 163 1666 164
3 164 1667 165
3 165 1668 166
3 166 1669 167
3 167 1670 168
3 168 1671 169
3 169 1672 170
4 170 1673 1674 171
3 171 1675 172
3 172 1676 173
3 173 1677 174
3 174 1678 175
3 175 1679 176
3 176 1680 177
4 177 1681 1682 178
3 178 1683 179
3 179 1684 180
3 180 1685 181
3 181 1686 182
3 182 1687 183
3 183 1688 184
3 184 1689 185
3 185 1690 186
3 186 1691 187
3 187 1692 188
3 188 1693 189
5 189 1694 1695 1696 190
3 190 1697 191
3 191 1698 192
3 192 1699 193
3 193 1700 194
3 194 1701 195
3 195 1702 196
3 196 1703 197
3 197 1704 198
3 198 1705 199
3 199 1706 1490
4 200 1707 1708 201
3 200 1709 1491
3 201 1710 202
3 202 1711 203
3 203 1712 204
4 204 1713 1714 205
5 205 1715 1716 1717 206
3 206 1718 207
3 207 1719 208
3 208 1720 209
3 209 1721 210
3 210 1722 211
3 211 1723 212
3 212 1724 213
3 213 1725 214
3 214 1726 215
3 215 1727 216
5 216 1728 1729 1730 217
3 217 1731 218
3 218 1732 219
3 219 1733 220
3 220 1734 221
3 221 1735 222
3 222 1736 223
3 223 1737 224
3 224 1738 225
3 225 1739 226
3 226 1740 227
3 227 1741 228
3 228 1742 229
3 229 1743 230
3 230 1744 231
4 231 1745 1746 232
3 232 1747 233
3 233 1748 234
4 234 1749 1750 235
3 235 1751 236
3 236 1752 237
3 237 1753 238
3 238 1754 239
3 239 1755 240
3 240 1756 241
3 241 1757 242
3 242 1758 243
3 243 1759 244
3 244 1760 245
3 245 1761 246
3 246 1762 247
3 247 1763 248
3 248 1764 249
3 249 1765 250
3 250 1766 251
3 251 1767 252
3 252 1768 253
3 253 1769 254
4 254 1770 1771 255
3 255 1772 256
3 256 1773 257
3 257 1774 258
3 258 1775 259
3 259 1776 260
3 260 1777 261
3 261 1778 262
3 262 1779 263
3 263 1780 264
3 264 1781 265
3 265 1782 266
3 266 1783 267
3 267 1784 268
3 268 1785 269
3 269 1786 270
3 270 1787 271
3 271 1788 272
3 272 1789 273
3 273 1790 274
3 274 1791 275
3 275 1792 276
3 276 1793 277
3 277 1794 278
3 278 1795 279
3 279 1796 280
3 280 1797 281
3 281 1798 282
3 282 1799 283
3 283 1800 284
3 284 1801 285
3 285 1802 286
3 286 1803 287
3 287 1804 288
3 288 1805 289
3 289 1806 290
3 290 1807 291
3 291 1808 292
3 292 1809 293
3 293 1810 294
3 294 1811 295
3 295 1812 296
3 296 1813 297
3 297 1814 298
3 298 1815 299
3 299 1816 300
3 300 1817 301
3 301 1818 302
3 302 1819 303
3 303 1820 304
3 304 1821 305
3 305 1822 306
3 306 1823 307
3 307 1824 308
3 308 1825 309
3 309 1826 310
3 310 1827 311
3 311 1828 312
3 312 1829 313
3 313 1830 314
3 314 1831 315
3 315 1832 316
3 316 1833 317
3 317 1834 318
3 318 1835 319
3 319 1836 320
3 320 1837 321
3 321 1838 322
3 322 1839 323
3 323 1840 324
3 324 1841 325
3 325 1842 326
3 326 1843 327
3 327 1844 328
3 328 1845 329
3 329 1846 330
3 330 1847 331
3 331 1848 332
3 332 1849 333
3 333 1850 334
4 334 1851 1852 335
3 335 1853 336
3 336 1854 337
3 337 1855 338
3 338 1856 339
3 339 1857 340
3 340 1858 341
3 341 1859 342
3 342 1860 343
3 343 1861 344
3 344 1862 345
3 345 1863 346
3 346 1864 347
3 347 1865 348
3 348 1866 349
3 349 1867 350
3 350 1868 351
3 351 1869 352
3 352 1870 353
3 353 1871 354
3 354 1872 355
3 355 1873 356
3 356 1874 357
3 357 1875 358
3 358 1876 359
3 359 1877 360
3 360 1878 361
3 361 1879 362
3 362 1880 363
3 363 1881 364
3 364 1882 365
3 365 1883 366
3 366 1884 367
4 367 1885 1886 368
3 368 1887 369
3 369 1888 370
3 370 1889 371
3 371 1890 372
3 372 1891 373
3 373 1892 374
3 374 1893 375
3 375 1894 376
3 376 1895 377
3 377 1896 378
3 378 1897 379
3 379 1898 380
4 380 1899 1900 381
3 381 1901 382
3 382 1902 383
3 383 1903 384
3 384 1904 385
3 385 1905 386
3 386 1906 387
4 387 1907 1908 388
3 388 1909 389
3 389 1910 390
3 392 1911 393
3 392 1912 754
3 393 1913 394
3 394 1914 395
4 395 1915 1916 396
3 396 1917 397
3 397 1918 398
3 398 1919 399
3 399 1920 400
4 400 1921 1922 401
3 401 1923 402
3 402 1924 403
3 403 1925 404
3 404 1926 405
3 405 1927 406
3 406 1928 407
3 407 1929 408
4 408 1930 1931 409
3 409 1932 410
3 410 1933 411
3 411 1934 412
3 412 1935 413
3 413 1936 414
3 414 1937 415
3 415 1938 416
3 416 1939 417
3 417 1940 418
3 418 1941 419
3 419 1942 420
3 420 1943 421
3 421 1944 422
3 422 1945 423
3 423 1946 424
3 424 1947 425
3 425 1948 426
3 426 1949 427
3 427 1950 428
4 428 1951 1952 429
3 429 1953 430
3 430 1954 431
3 431 1955 432
3 432 1956 433
3 433 1957 434
3 434 1958 435
3 435 1959 436
3 436 1960 437
3 437 1961 438
3 438 1962 439
4 439 1963 1964 440
3 440 1965 441
3 441 1966 442
3 442 1967 443
3 443 1968 444
3 444 1969 445
3 445 1970 446
3 446 1971 447
3 447 1972 448
3 448 1973 449
3 449 1974 450
3 450 1975 451
4 451 1976 1977 452
4 452 1978 1979 453
3 453 1980 454
3 454 1981 455
3 455 1982 456
3 456 1983 457
3 457 1984 458
3 458 1985 459
4 459 1986 1987 460
3 460 1988 461
3 461 1989 462
3 462 1990 463
3 463 1991 464
3 464 1992 465
3 465 1993 466
3 466 1994 467
4 467 1995 1996 468
3 468 1997 469
3 469 1998 470
3 470 1999 471
3 471 2000 472
3 472 2001 473
3 473 2002 474
3 474 2003 475
3 475 2004 476
3 476 2005 477
4 477 2006 2007 478
3 478 2008 479
3 479 2009 480
3 480 2010 481
3 481 2011 482
3 482 2012 483
3 483 2013 484
3 484 2014 485
3 485 2015 486
3 486 2016 487
4 487 2017 2018 488
3 488 2019 489
3 489 2020 490
3 490 2021 491
3 491 2022 492
3 492 2023 493
4 493 2024 2025 494
3 494 2026 495
3 495 2027 496
3 496 2028 497
3 497 2029 498
3 498 2030 499
3 499 2031 500
3 500 2032 501
3 501 2033 502
3 502 2034 503
3 503 2035 504
3 504 2036 505
3 505 2037 506
3 506 2038 507
3 507 2039 508
3 508 2040 509
3 509 2041 510
3 510 2042 511
3 511 2043 512
3 512 2044 513
3 513 2045 514
3 514 2046 515
3 515 2047 516
4 516 2048 2049 517
3 517 2050 518
3 518 2051 519
3 519 2052 520
3 520 2053 521
3 521 2054 522
3 522 2055 523
4 523 2056 2057 524
3 524 2058 525
3 525 2059 526
3 526 2060 527
3 527 2061 528
3 528 2062 529
3 529 2063 530
3 530 2064 531
3 531 2065 532
3 532 2066 533
4 533 2067 2068 534
3 534 2069 535
3 535 2070 536
3 536 2071 537
3 537 2072 538
3 538 2073 539
3 539 2074 540
3 540 2075 541
3 541 2076 542
3 542 2077 543
3 543 2078 544
3 544 2079 545
3 545 2080 546
3 546 2081 547
3 547 2082 548
3 548 2083 549
3 549 2084 550
3 550 2085 551
3 551 2086 552
3 552 2087 553
3 553 2088 554
3 554 2089 555
3 555 2090 556
3 556 2091 557
3 557 2092 558
3 558 2093 559
4 559 2094 2095 560
3 560 2096 561
3 561 2097 562
3 562 2098 563
3 563 2099 564
3 564 2100 565
4 565 2101 2102 566
3 566 2103 567
3 567 2104 1492
3 568 2105 569
3 568 2106 1493
3 569 2107 570
3 570 2108 571
3 571 2109 572
3 572 2110 573
3 573 2111 574
3 574 2112 575
3 575 2113 576
3 576 2114 577
3 577 2115 578
3 578 2116 579
3 579 2117 580
3 580 2118 581
3 581 2119 582
3 582 2120 583
3 583 2121 584
3 584 2122 585
3 585 2123 586
3 586 2124 587
3 587 2125 588
3 588 2126 589
3 589 2127 590
3 590 2128 591
3 591 2129 592
3 592 2130 593
3 593 2131 594
3 594 2132 595
3 595 2133 596
3 596 2134 597
3 597 2135 598
3 598 2136 599
3 599 2137 600
3 600 2138 601
3 601 2139 602
3 602 2140 603
3 603 2141 604
3 604 2142 605
3 605 2143 606
3 606 2144 607
3 607 2145 608
3 608 2146 609
3 609 2147 610
4 610 2148 2149 611
3 611 2150 612
3 612 2151 613
3 613 2152 614
3 614 2153 615
3 615 2154 616
3 616 2155 617
4 617 2156 2157 618
3 618 2158 619
3 619 2159 620
3 620 2160 621
3 621 2161 622
3 622 2162 623
3 623 2163 624
4 624 2164 2165 625
3 625 2166 626
3 626 2167 627
3 627 2168 628
3 628 2169 629
4 629 2170 2171 630
3 630 2172 631
3 631 2173 632
3 632 2174 633
3 633 2175 634
3 634 2176 635
3 635 2177 636
3 636 2178 637
3 637 2179 638
3 638 2180 639
3 639 2181 640
4 640 2182 2183 641
3 641 2184 642
3 642 2185 643
3 643 2186 644
3 644 2187 645
3 645 2188 646
3 646 2189 647
3 647 2190 648
3 648 2191 649
4 649 2192 2193 650
3 650 2194 651
3 651 2195 652
3 652 2196 653
3 653 2197 654
3 654 2198 655
3 655 2199 656
3 656 2200 657
3 657 2201 658
3 658 2202 659
3 659 2203 660
3 660 2204 661
4 661 2205 2206 662
3 662 2207 663
3 663 2208 664
3 664 2209 665
3 665 2210 666
3 666 2211 667
3 667 2212 668
4 668 2213 2214 669
3 669 2215 670
3 670 2216 671
3 671 2217 672
3 672 2218 673
3 673 2219 674
3 674 2220 675
3 675 2221 676
3 676 2222 677
3 677 2223 678
3 678 2224 679
3 679 2225 680
3 680 2226 681
3 681 2227 682
3 682 2228 683
3 683 2229 684
3 684 2230 685
3 685 2231 686
3 686 2232 687
3 687 2233 688
3 688 2234 689
3 689 2235 690
4 690 2236 2237 691
3 691 2238 692
3 692 2239 693
3 693 2240 694
3 694 2241 695
3 695 2242 696
3 696 2243 697
3 697 2244 698
3 698 2245 699
3 699 2246 700
3 700 2247 701
3 701 2248 702
4 702 2249 2250 703
3 703 2251 704
3 704 2252 705
3 705 2253 706
3 706 2254 707
3 707 2255 708
3 708 2256 709
3 709 2257 710
3 710 2258 711
3 711 2259 712
3 712 2260 713
4 713 2261 2262 714
3 714 2263 715
4 715 2264 2265 716
3 716 2266 717
4 717 2267 2268 718
3 718 2269 719
3 719 2270 720
3 720 2271 721
3 721 2272 722
4 722 2273 2274 723
3 723 2275 724
3 724 2276 725
3 725 2277 726
3 726 2278 727
3 727 2279 728
3 728 2280 729
3 729 2281 730
3 730 2282 731
3 731 2283 732
3 732 2284 733
3 733 2285 734
3 734 2286 735
3 735 2287 736
3 736 2288 737
3 737 2289 738
3 738 2290 739
3 739 2291 740
3 740 2292 741
3 741 2293 742
3 742 2294 743
4 743 2295 2296 744
3 744 2297 745
3 745 2298 746
3 746 2299 747
3 747 2300 748
4 748 2301 2302 749
3 749 2303 750
3 750 2304 751
3 751 2305 752
3 752 2306 753
3 753 2307 754
3 755 2308 756
4 755 2309 2310 1151
3 756 2311 757
3 757 2312 758
4 758 2313 2314 759
3 759 2315 760
3 760 2316 761
3 761 2317 762
3 762 2318 763
4 763 2319 2320 764
3 764 2321 765
3 765 2322 766
3 766 2323 767
4 767 2324 2325 768
3 768 2326 769
3 769 2327 770
3 770 2328 771
3 771 2329 772
3 772 2330 773
3 773 2331 774
3 774 2332 775
3 775 2333 776
3 776 2334 777
3 777 2335 778
3 778 2336 779
3 779 2337 780
3 780 2338 781
3 781 2339 782
3 782 2340 783
3 783 2341 784
3 784 2342 785
3 785 2343 786
3 786 2344 787
3 787 2345 788
3 788 2346 789
3 789 2347 790
3 790 2348 791
3 791 2349 792
3 792 2350 793
3 793 2351 794
3 794 2352 795
3 795 2353 796
3 796 2354 797
3 797 2355 798
3 798 2356 799
3 799 2357 800
3 800 2358 801
3 801 2359 802
3 802 2360 803
3 803 2361 804
3 804 2362 805
3 805 2363 806
3 806 2364 807
3 807 2365 808
3 808 2366 809
3 809 2367 810
3 810 2368 811
3 811 2369 812
3 812 2370 813
3 813 2371 814
3 814 2372 815
3 815 2373 816
3 816 2374 817
3 817 2375 818
3 818 2376 819
4 819 2377 2378 820
3 820 2379 821
3 821 2380 822
3 822 2381 823
3 823 2382 824
3 824 2383 825
3 825 2384 826
3 826 2385 827
3 827 2386 828
3 828 2387 829
3 829 2388 830
3 830 2389 831
3 831 2390 832
3 832 2391 833
3 833 2392 834
3 834 2393 835
3 835 2394 836
3 836 2395 837
3 837 2396 838
3 838 2397 839
3 839 2398 840
3 840 2399 841
3 841 2400 842
3 842 2401 843
3 843 2402 844
3 844 2403 845
3 845 2404 846
3 846 2405 847
3 847 2406 848
3 848 2407 849
3 849 2408 850
3 850 2409 851
3 851 2410 852
3 852 2411 853
3 853 2412 854
4 854 2413 2414 855
3 855 2415 856
3 856 2416 857
3 857 2417 858
3 858 2418 859
3 859 2419 860
3 860 2420 861
3 861 2421 862
3 862 2422 863
3 863 2423 864
3 864 2424 865
3 865 2425 866
3 866 2426 867
3 867 2427 868
3 868 2428 869
3 869 2429 870
3 870 2430 871
3 871 2431 872
3 872 2432 873
3 873 2433 874
3 874 2434 875
3 875 2435 876
3 876 2436 877
3 877 2437 878
3 878 2438 879
3 879 2439 880
3 880 2440 881
3 881 2441 882
3 882 2442 883
3 883 2443 884
3 884 2444 885
3 885 2445 886
4 886 2446 2447 887
3 887 2448 888
3 888 2449 889
3 889 2450 890
3 890 2451 891
3 891 2452 892
3 892 2453 893
3 893 2454 894
3 894 2455 895
3 895 2456 896
3 896 2457 897
3 897 2458 898
3 898 2459 899
3 899 2460 900
3 900 2461 901
3 901 2462 902
3 902 2463 903
3 903 2464 904
3 904 2465 905
3 905 2466 906
3 906 2467 907
3 907 2468 908
3 908 2469 909
3 909 2470 910
3 910 2471 911
3 911 2472 912
3 912 2473 913
3 913 2474 914
3 914 2475 915
3 915 2476 916
3 916 2477 917
3 917 2478 918
3 918 2479 919
3 919 2480 920
3 920 2481 921
3 921 2482 922
3 922 2483 923
3 923 2484 924
4 924 2485 2486 925
3 925 2487 926
3 926 2488 927
3 927 2489 928
3 928 2490 929
3 929 2491 930
3 930 2492 931
3 931 2493 932
3 932 2494 933
3 933 2495 934
3 934 2496 935
3 935 2497 936
3 936 2498 937
3 937 2499 938
3 938 2500 939
3 939 2501 940
3 940 2502 941
3 941 2503 942
3 942 2504 943
3 943 2505 944
3 944 2506 945
4 945 2507 2508 946
4 946 2509 2510 947
3 947 2511 948
3 948 2512 949
3 949 2513 950
3 950 2514 951
3 951 2515 952
3 952 2516 953
3 953 2517 954
3 954 2518 955
3 955 2519 956
3 956 2520 957
3 957 2521 958
3 958 2522 959
3 959 2523 960
3 960 2524 961
3 961 2525 1494
3 962 2526 963
3 962 2527 1495
3 963 2528 964
3 964 2529 965
3 965 2530 966
3 966 2531 967
3 967 2532 968
4 968 2533 2534 969
3 969 2535 970
3 970 2536 971
3 971 2537 972
3 972 2538 973
4 973 2539 2540 974
3 974 2541 975
4 975 2542 2543 976
3 976 2544 977
5 977 2545 2546 2547 978
3 978 2548 979
3 979 2549 980
3 980 2550 981
3 981 2551 982
3 982 2552 983
4 983 2553 2554 984
3 984 2555 985
3 985 2556 986
4 986 2557 2558 987
3 987 2559 988
3 988 2560 989
3 989 2561 990
3 990 2562 991
3 991 2563 992
3 992 2564 993
3 993 2565 994
3 994 2566 995
3 995 2567 996
3 996 2568 997
3 997 2569 998
3 998 2570 999
3 999 2571 1000
3 1000 2572 1001
3 1001 2573 1002
3 1002 2574 1003
3 1003 2575 1004
3 1004 2576 1005
3 1005 2577 1006
3 1006 2578 1007
3 1007 2579 1008
3 1008 2580 1009
3 1009 2581 1010
3 1010 2582 1011
3 1011 2583 1012
3 1012 2584 1013
3 1013 2585 1014
3 1014 2586 1015
3 1015 2587 1016
3 1016 2588 1017
3 1017 2589 1018
3 1018 2590 1019
3 1019 2591 1020
3 1020 2592 1021
3 1021 2593 1022
3 1022 2594 1023
3 1023 2595 1024
3 1024 2596 1025
3 1025 2597 1026
3 1026 2598 1027
3 1027 2599 1028
3 1028 2600 1029
3 1029 2601 1030
3 1030 2602 1031
3 1031 2603 1032
3 1032 2604 1033
3 1033 2605 1034
3 1034 2606 1035
3 1035 2607 1036
3 1036 2608 1037
3 1037 2609 1038
3 1038 2610 1039
3 1039 2611 1040
3 1040 2612 1041
3 1041 2613 1042
3 1042 2614 1043
3 1043 2615 1044
3 1044 2616 1045
3 1045 2617 1046
3 1046 2618 1047
3 1047 2619 1048
3 1048 2620 1049
3 1049 2621 1050
3 1050 2622 1051
3 1051 2623 1052
3 1052 2624 1053
3 1053 2625 1054
3 1054 2626 1055
3 1055 2627 1056
3 1056 2628 1057
3 1057 2629 1058
3 1058 2630 1059
3 1059 2631 1060
3 1060 2632 1061
3 1061 2633 1062
3 1062 2634 1063
3 1063 2635 1064
3 1064 2636 1065
3 1065 2637 1066
3 1066 2638 1067
3 1067 2639 1068
3 1068 2640 1069
3 1069 2641 1070
3 1070 2642 1071
3 1071 2643 1072
3 1072 2644 1073
3 1073 2645 1074
3 1074 2646 1075
3 1075 2647 1076
3 1076 2648 1077
3 1077 2649 1078
3 1078 2650 1079
3 1079 2651 1080
3 1080 2652 1081
3 1081 2653 1082
3 1082 2654 1083
3 1083 2655 1084
3 1084 2656 1085
3 1085 2657 1086
3 1086 2658 1087
3 1087 2659 1088
3 1088 2660 1089
3 1089 2661 1090
3 1090 2662 1091
3 1091 2663 1092
3 1092 2664 1093
3 1093 2665 1094
3 1094 2666 1095
3 1095 2667 1096
3 1096 2668 1097
3 1097 2669 1098
3 1098 2670 1099
3 1099 2671 1100
3 1100 2672 1101
3 1101 2673 1102
3 1102 2674 1103
3 1103 2675 1104
3 1104 2676 1105
3 1105 2677 1106
3 1106 2678 1107
3 1107 2679 1108
3 1108 2680 1109
3 1109 2681 1110
3 1110 2682 1111
3 1111 2683 1112
3 1112 2684 1113
3 1113 2685 1114
3 1114 2686 1115
3 1115 2687 1116
3 1116 2688 1117
3 1117 2689 1118
3 1118 2690 1119
4 1119 2691 2692 1120
3 1120 2693 1121
3 1121 2694 1122
3 1122 2695 1123
3 1123 2696 1124
3 1124 2697 1125
4 1125 2698 2699 1126
3 1126 2700 1127
3 1127 2701 1128
3 1128 2702 1129
3 1129 2703 1130
3 1130 2704 1131
3 1131 2705 1132
3 1132 2706 1133
3 1133 2707 1134
3 1134 2708 1135
3 1135 2709 1136
3 1136 2710 1137
3 1137 2711 1138
3 1138 2712 1139
3 1139 2713 1140
3 1140 2714 1141
4 1141 2715 2716 1142
3 1142 2717 1143
3 1143 2718 1144
3 1144 2719 1145
3 1145 2720 1146
3 1146 2721 1147
3 1147 2722 1148
3 1148 2723 1149
3 1149 2724 1150
4 1150 2725 2726 1151
3 1153 2727 1154
3 1153 2728 1489
3 1154 2729 1155
3 1155 2730 1156
3 1156 2731 1157
3 1157 2732 1158
3 1158 2733 1159
4 1159 2734 2735 1160
4 1160 2736 2737 1161
4 1161 2738 2739 1162
3 1162 2740 1163
3 1163 2741 1164
4 1164 2742 2743 1165
3 1165 2744 1166
3 1166 2745 1167
3 1167 2746 1168
3 1168 2747 1169
3 1169 2748 1170
3 1170 2749 1171
3 1171 2750 1172
3 1172 2751 1173
3 1173 2752 1174
3 1174 2753 1175
3 1175 2754 1176
3 1176 2755 1177
3 1177 2756 1178
3 1178 2757 1179
3 1179 2758 1180
3 1180 2759 1181
3 1181 2760 1182
3 1182 2761 1183
3 1183 2762 1184
3 1184 2763 1185
3 1185 2764 1186
3 1186 2765 1187
3 1187 2766 1188
3 1188 2767 1189
3 1189 2768 1190
3 1190 2769 1191
3 1191 2770 1192
3 1192 2771 1193
3 1193 2772 1194
3 1194 2773 1195
3 1195 2774 1196
3 1196 2775 1197
3 1197 2776 1198
3 1198 2777 1199
3 1199 2778 1200
3 1200 2779 1201
3 1201 2780 1202
3 1202 2781 1203
3 1203 2782 1204
3 1204 2783 1205
3 1205 2784 1206
3 1206 2785 1207
3 1207 2786 1208
3 1208 2787 1209
3 1209 2788 1210
3 1210 2789 1211
6 1211 2790 2791 2792 2793 1212
3 1212 2794 1213
3 1213 2795 1214
3 1214 2796 1215
3 1215 2797 1216
3 1216 2798 1217
3 1217 2799 1218
3 1218 2800 1219
3 1219 2801 1220
3 1220 2802 1221
3 1221 2803 1222
3 1222 2804 1223
3 1223 2805 1224
3 1224 2806 1225
3 1225 2807 1226
3 1226 2808 1227
3 1227 2809 1228
3 1228 2810 1229
3 1229 2811 1230
3 1230 2812 1231
3 1231 2813 1232
3 1232 2814 1233
3 1233 2815 1234
3 1234 2816 1235
3 1235 2817 1236
3 1236 2818 1237
5 1237 2819 2820 2821 1238
3 1238 2822 1239
4 1239 2823 2824 1240
3 1240 2825 1241
3 1241 2826 1242
3 1242 2827 1243
3 1243 2828 1244
3 1244 2829 1245
3 1245 2830 1246
3 1246 2831 1247
3 1247 2832 1248
4 1248 2833 2834 1249
3 1249 2835 1250
3 1250 2836 1251
3 1251 2837 1252
4 1252 2838 2839 1253
3 1253 2840 1254
3 1254 2841 1255
3 1255 2842 1256
3 1256 2843 1257
4 1257 2844 2845 1258
3 1258 2846 1259
3 1259 2847 1260
3 1260 2848 1261
3 1261 2849 1262
3 1262 2850 1263
3 1263 2851 1264
3 1264 2852 1265
3 1265 2853 1266
3 1266 2854 1267
4 1267 2855 2856 1268
3 1268 2857 1269
3 1269 2858 1270
3 1270 2859 1271
3 1271 2860 1272
3 1272 2861 1273
4 1273 2862 2863 1274
3 1274 2864 1275
3 1275 2865 1276
3 1276 2866 1277
3 1277 2867 1278
3 1278 2868 1279
3 1279 2869 1280
3 1280 2870 1281
3 1281 2871 1282
3 1282 2872 1283
3 1283 2873 1284
4 1284 2874 2875 1285
3 1285 2876 1286
3 1286 2877 1287
3 1287 2878 1288
3 1288 2879 1289
3 1289 2880 1290
3 1290 2881 1291
4 1291 2882 2883 1292
3 1292 2884 1293
3 1293 2885 1294
3 1294 2886 1295
3 1295 2887 1296
3 1296 2888 1297
3 1297 2889 1298
3 1298 2890 1299
3 1299 2891 1300
3 1300 2892 1301
3 1301 2893 1302
3 1302 2894 1303
3 1303 2895 1304
3 1304 2896 1305
3 1305 2897 1306
4 1306 2898 2899 1307
3 1307 2900 1308
3 1308 2901 1309
3 1309 2902 1496
3 1310 2903 1311
3 1310 2904 1497
3 1311 2905 1312
3 1312 2906 1313
4 1313 2907 2908 1314
3 1314 2909 1315
3 1315 2910 1316
3 1316 2911 1317
3 1317 2912 1318
3 1318 2913 1319
3 1319 2914 1320
3 1320 2915 1321
3 1321 2916 1322
3 1322 2917 1323
3 1323 2918 1324
3 1324 2919 1325
3 1325 2920 1326
3 1326 2921 1327
3 1327 2922 1328
3 1328 2923 1329
4 1329 2924 2925 1330
3 1330 2926 1331
3 1331 2927 1332
3 1332 2928 1333
5 1333 2929 2930 2931 1334
3 1334 2932 1335
3 1335 2933 1336
3 1336 2934 1337
3 1337 2935 1338
3 1338 2936 1339
3 1339 2937 1340
3 1340 2938 1341
3 1341 2939 1342
3 1342 2940 1343
3 1343 2941 1344
3 1344 2942 1345
3 1345 2943 1346
3 1346 2944 1347
3 1347 2945 1348
3 1348 2946 1349
4 1349 2947 2948 1350
3 1350 2949 1351
4 1351 2950 2951 1352
3 1352 2952 1353
4 1353 2953 2954 1354
3 1354 2955 1355
4 1355 2956 2957 1356
3 1356 2958 1357
3 1357 2959 1358
3 1358 2960 1359
4 1359 2961 2962 1360
3 1360 2963 1361
3 1361 2964 1362
3 1362 2965 1363
3 1363 2966 1364
3 1364 2967 1365
3 1365 2968 1366
3 1366 2969 1367
3 1367 2970 1368
3 1368 2971 1369
3 1369 2972 1370
3 1370 2973 1371
3 1371 2974 1372
3 1372 2975 1373
3 1373 2976 1374
3 1374 2977 1375
3 1375 2978 1376
3 1376 2979 1377
3 1377 2980 1378
3 1378 2981 1379
3 1379 2982 1380
3 1380 2983 1381
3 1381 2984 1382
3 1382 2985 1383
3 1383 2986 1384
3 1384 2987 1385
3 1385 2988 1386
3 1386 2989 1387
3 1387 2990 1388
3 1388 2991 1389
3 1389 2992 1390
4 1390 2993 2994 1391
3 1391 2995 1392
4 1392 2996 2997 1393
3 1393 2998 1394
3 1394 2999 1395
3 1395 3000 1396
3 1396 3001 1397
3 1397 3002 1398
3 1398 3003 1399
3 1399 3004 1400
3 1400 3005 1401
3 1401 3006 1402
3 1402 3007 1403
4 1403 3008 3009 1404
4 1404 3010 3011 1405
3 1405 3012 1406
3 1406 3013 1407
3 1407 3014 1408
4 1408 3015 3016 1409
3 1409 3017 1410
3 1410 3018 1411
3 1411 3019 1412
3 1412 3020 1413
3 1413 3021 1414
4 1414 3022 3023 1415
3 1415 3024 1416
3 1416 3025 1417
3 1417 3026 1418
3 1418 3027 1419
3 1419 3028 1420
3 1420 3029 1421
3 1421 3030 1422
3 1422 3031 1423
3 1423 3032 1424
3 1424 3033 1425
4 1425 3034 3035 1426
3 1426 3036 1427
3 1427 3037 1428
3 1428 3038 1429
3 1429 3039 1430
3 1430 3040 1431
3 1431 3041 1432
3 1432 3042 1433
3 1433 3043 1434
3 1434 3044 1435
3 1435 3045 1436
3 1436 3046 1437
3 1437 3047 1438
3 1438 3048 1439
3 1439 3049 1440
3 1440 3050 1441
3 1441 3051 1442
3 1442 3052 1443
3 1443 3053 1444
3 1444 3054 1445
3 1445 3055 1446
3 1446 3056 1447
3 1447 3057 1448
3 1448 3058 1449
3 1449 3059 1450
3 1450 3060 1451
3 1451 3061 1452
3 1452 3062 1453
4 1453 3063 3064 1454
3 1454 3065 1455
4 1455 3066 3067 1456
3 1456 3068 1457
3 1457 3069 1458
3 1458 3070 1459
3 1459 3071 1460
3 1460 3072 1461
3 1461 3073 1462
3 1462 3074 1463
3 1463 3075 1464
3 1464 3076 1465
3 1465 3077 1466
3 1466 3078 1467
3 1467 3079 1468
3 1468 3080 1469
3 1469 3081 1470
3 1470 3082 1471
3 1471 3083 1472
3 1472 3084 1473
3 1473 3085 1474
3 1474 3086 1475
3 1475 3087 1476
3 1476 3088 1477
3 1477 3089 1478
4 1478 3090 3091 1479
3 1479 3092 1480
3 1480 3093 1481
3 1481 3094 1482
3 1482 3095 1483
3 1483 3096 1484
3 1484 3097 1485
4 1485 3098 3099 1486
3 1486 3100 1487
3 1487 3101 1488
3 1488 3102 1489

CELL_TYPES 1486
4
4
4
4
4
4
4
4
4
4
4
4
4
4
4
4
4
4
4
4
4
4
4
4
4
4
4
4
4
4
4
4
4
4
4
4
4
4
4
4
4
4
4
4
4
4
4
4
4
4
4
4
4
4
4
4
4
4
4
4
4
4
4
4
4
4
4
4
4
4
4
4
4
4
4
4
4
4
4
4
4
4
4
4
4
4
4
4
4
4
4
4
4
4
4
4
4
4
4
4
4
4
4
4
4
4
4
4
4
4
4
4
4
4
4
4
4
4
4
4
4
4
4
4
4
4
4
4
4
4
4
4
4
4
4
4
4
4
4
4
4
4
4
4
4
4
4
4
4
4
4
4
4
4
4
4
4
4
4
4
4
4
4
4
4
4
4
4
4
4
4
4
4
4
4
4
4
4
4
4
4
4
4
4
4
4
4
4
4
4
4
4
4
4
4
4
4
4
4
4
4
4
4
4
4
4
4
4
4
4
4
4
4
4
4
4
4
4
4
4
4
4
4
4
4
4
4
4
4
4
4
4
4
4
4
4
4
4
4
4
4
4
4
4
4
4
4
4
4
4
4
4
4
4
4
4
4
4
4
4
4
4
4
4
4
4
4
4
4
4
4
4
4
4
4
4
4
4
4
4
4
4
4
4
4
4
4
4
4
4
4
4
4
4
4
4
4
4
4
4
4
4
4
4
4
4
4
4
4
4
4
4
4
4
4
4
4
4
4
4
4
4
4
4
4
4
4
4
4
4
4
4
4
4
4
4
4
4
4
4
4
4
4
4
4
4
4
4
4
4
4
4
4
4
4
4
4
4
4
4
4
4
4
4
4
4
4
4
4
4
4
4
4
4
4
4
4
4
4
4
4
4
4
4
4
4
4
4
4
4
4
4
4
4
4
4
4
4
4
4
4
4
4
4
4
4
4
4
4
4
4
4
4
4
4
4
4
4
4
4
4
4
4
4
4
4
4
4
4
4
4
4
4
4
4
4
4
4
4
4
4
4
4
4
4
4
4
4
4
4
4
4
4
4
4
4
4
4
4
4
4
4
4
4
4
4
4
4
4
4
4
4
4
4
4
4
4
4
4
4
4
4
4
4
4
4
4
4
4
4
4
4
4
4
4
4
4
4
4
4
4
4
4
4
4
4
4
4
4
4
4
4
4
4
4
4
4
4
4
4
4
4
4
4
4
4
4
4
4
4
4
4
4
4
4
4
4
4
4
4
4
4
4
4
4
4
4
4
4
4
4
4
4
4
4
4
4
4
4
4
4
4
4
4
4
4
4
4
4
4
4
4
4
4
4
4
4
4
4
4
4
4
4
4
4
4
4
4
4
4
4
4
4
4
4
4
4
4
4
4
4
4
4
4
4
4
4
4
4
4
4
4
4
4
4
4
4
4
4
4
4
4
4
4
4
4
4
4
4
4
4
4
4
4
4
4
4
4
4
4
4
4
4
4
4
4
4
4
4
4
4
4
4
4
4
4
4
4
4
4
4
4
4
4
4
4
4
4
4
4
4
4
4
4
4
4
4
4
4
4
4
4
4
4
4
4
4
4
4
4
4
4
4
4
4
4
4
4
4
4
4
4
4
4
4
4
4
4
4
4
4
4
4
4
4
4
4
4
4
4
4
4
4
4
4
4
4
4
4
4
4
4
4
4
4
4
4
4
4
4
4
4
4
4
4
4
4
4
4
4
4
4
4
4
4
4
4
4
4
4
4
4
4
4
4
4
4
4
4
4
4
4
4
4
4
4
4
4
4
4
4
4
4
4
4
4
4
4
4
4
4
4
4
4
4
4
4
4
4
4
4
4
4
4
4
4
4
4
4
4
4
4
4
4
4
4
4
4
4
4
4
4
4
4
4
4
4
4
4
4
4
4
4
4
4
4
4
4
4
4
4
4
4
4
4
4
4
4
4
4
4
4
4
4
4
4
4
4
4
4
4
4
4
4
4
4
4
4
4
4
4
4
4
4
4
4
4
4
4
4
4
4
4
4
4
4
4
4
4
4
4
4
4
4
4
4
4
4
4
4
4
4
4
4
4
4
4
4
4
4
4
4
4
4
4
4
4
4
4
4
4
4
4
4
4
4
4
4
4
4
4
4
4
4
4
4
4
4
4
4
4
4
4
4
4
4
4
4
4
4
4
4
4
4
4
4
4
4
4
4
4
4
4
4
4
4
4
4
4
4
4
4
4
4
4
4
4
4
4
4
4
4
4
4
4
4
4
4
4
4
4
4
4
4
4
4
4
4
4
4
4
4
4
4
4
4
4
4
4
4
4
4
4
4
4
4
4
4
4
4
4
4
4
4
4
4
4
4
4
4
4
4
4
4
4
4
4
4
4
4
4
4
4
4
4
4
4
4
4
4
4
4
4
4
4
4
4
4
4
4
4
4
4
4
4
4
4
4
4
4
4
4
4
4
4
4
4
4
4
4
4
4
4
4
4
4
4
4
4
4
4
4
4
4
4
4
4
4
4
4
4
4
4
4
4
4
4
4
4
4
4
4
4
4
4
4
4
4
4
4
4
4
4
4
4
4
4
4
4
4
4
4
4
4
4
4
4
4
4
4
4
4
4
4
4
4
4
4
4
4
4
4
4
4
4
4
4
4
4
4
4
4
4
4
4
4
4
4
4
4
4
4
4
4
4
4
4
4
4
4
4
4
4
4
4
4
4
4
4
4
4
4
4
4
4
4
4
4
4
4
4
4
4
4
4
4
4
4
4
4
4
4
4
4
4
4
4
4
4
4
4
4
4
4
4
4
4
4
4
4
4
4
4
4
4
4
4
4
4
4
4
4
4
4
4
4
4
4
4
4
4
4
4
4
4
4
4
4
4
4
4
4
4
4
4
4
4
4
4
4
4
4
4
4
4
4
4
4
4
4
4
4
4
4
4
4
4
4
4
4
4
4
4
4
4
4
4
4
4
4
4
4
4
4
4
4
4
4
4
4
4
4
4
4
4
4
4
4
4
4
4
4
4
4
4
4
4
4
4
4
4
4
4
4
4
4
4
4
4
4
4
4
4
4
4
4
4
4
4
4
4
4
4
4
4
4
4
4
4
4
4
4
4
4
4
4
4
4
4
4
4
4
4
4
4
4
4
4
4
4
4
4
4
4
4
4
4
4
4
4
4
4
4
4
4
4
4
4
4
4
4
4
4
4
4
4
4
4
4
4
4
4
4
4
4
4
4
4
4
4
4
4
4
4
4
4
4
4
4
4
4
4
4
4
4
4
4
4
4
4
4
4
4
4
4
4
4
4
4
4
4
4
4
4
4
4
4
4
4
4
4
4
4
4
4
4
4
4
4
4
4
4
4
4
4
4
4
4
4
4
4
4
4
4
4
4

POINT_DATA 3103
VECTORS PK_force double
0.000000000000000e+00 0.000000000000000e+00 0.000000000000000e+00
0.000000000000000e+00 0.000000000000000e+00 0.000000000000000e+00
0.000000000000000e+00 0.000000000000000e+00 0.000000000000000e+00
0.000000000000000e+00 0.000000000000000e+00 0.000000000000000e+00
0.000000000000000e+00 0.000000000000000e+00 0.000000000000000e+00
0.000000000000000e+00 0.000000000000000e+00 0.000000000000000e+00
0.000000000000000e+00 0.000000000000000e+00 0.000000000000000e+00
0.000000000000000e+00 0.000000000000000e+00 0.000000000000000e+00
0.000000000000000e+00 0.000000000000000e+00 0.000000000000000e+00
0.000000000000000e+00 0.000000000000000e+00 0.000000000000000e+00
0.000000000000000e+00 0.000000000000000e+00 0.000000000000000e+00
0.000000000000000e+00 0.000000000000000e+00 0.000000000000000e+00
0.000000000000000e+00 0.000000000000000e+00 0.000000000000000e+00
0.000000000000000e+00 0.000000000000000e+00 0.000000000000000e+00
0.000000000000000e+00 0.000000000000000e+00 0.000000000000000e+00
0.000000000000000e+00 0.000000000000000e+00 0.000000000000000e+00
0.000000000000000e+00 0.000000000000000e+00 0.000000000000000e+00
0.000000000000000e+00 0.000000000000000e+00 0.000000000000000e+00
0.000000000000000e+00 0.000000000000000e+00 0.000000000000000e+00
0.000000000000000e+00 0.000000000000000e+00 0.000000000000000e+00
0.000000000000000e+00 0.000000000000000e+00 0.000000000000000e+00
0.000000000000000e+00 0.000000000000000e+00 0.000000000000000e+00
0.000000000000000e+00 0.000000000000000e+00 0.000000000000000e+00
0.000000000000000e+00 0.000000000000000e+00 0.000000000000000e+00
0.000000000000000e+00 0.000000000000000e+00 0.000000000000000e+00
0.000000000000000e+00 0.000000000000000e+00 0.000000000000000e+00
0.000000000000000e+00 0.000000000000000e+00 0.000000000000000e+00
0.000000000000000e+00 0.000000000000000e+00 0.000000000000000e+00
0.000000000000000e+00 0.000000000000000e+00 0.000000000000000e+00
0.000000000000000e+00 0.000000000000000e+00 0.000000000000000e+00
0.000000000000000e+00 0.000000000000000e+00 0.000000000000000e+00
0.000000000000000e+00 0.000000000000000e+00 0.000000000000000e+00
0.000000000000000e+00 0.000000000000000e+00 0.000000000000000e+00
0.000000000000000e+00 0.000000000000000e+00 0.000000000000000e+00
0.000000000000000e+00 0.000000000000000e+00 0.000000000000000e+00
0.000000000000000e+00 0.000000000000000e+00 0.000000000000000e+00
0.000000000000000e+00 0.000000000000000e+00 0.000000000000000e+00
0.000000000000000e+00 0.000000000000000e+00 0.000000000000000e+00
0.000000000000000e+00 0.000000000000000e+00 0.000000000000000e+00
0.000000000000000e+00 0.000000000000000e+00 0.000000000000000e+00
0.000000000000000e+00 0.000000000000000e+00 0.000000000000000e+00
0.000000000000000e+00 0.000000000000000e+00 0.000000000000000e+00
0.000000000000000e+00 0.000000000000000e+00 0.000000000000000e+00
0.000000000000000e+00 0.000000000000000e+00 0.000000000000000e+00
0.000000000000000e+00 0.000000000000000e+00 0.000000000000000e+00
0.000000000000000e+00 0.000000000000000e+00 0.000000000000000e+00
0.000000000000000e+00 0.000000000000000e+00 0.000000000000000e+00
0.000000000000000e+00 0.000000000000000e+00 0.000000000000000e+00
0.000000000000000e+00 0.000000000000000e+00 0.000000000000000e+00
0.000000000000000e+00 0.000000000000000e+00 0.000000000000000e+00
0.000000000000000e+00 0.000000000000000e+00 0.000000000000000e+00
0.000000000000000e+00 0.000000000000000e+00 0.000000000000000e+00
0.000000000000000e+00 0.000000000000000e+00 0.000000000000000e+00
0.000000000000000e+00 0.000000000000000e+00 0.000000000000000e+00
0.000000000000000e+00 0.000000000000000e+00 0.000000000000000e+00
0.000000000000000e+00 0.000000000000000e+00 0.000000000000000e+00
0.000000000000000e+00 0.000000000000000e+00 0.000000000000000e+00
0.000000000000000e+00 0.000000000000000e+00 0.000000000000000e+00
0.000000000000000e+00 0.000000000000000e+00 0.000000000000000e+00
0.000000000000000e+00 0.000000000000000e+00 0.000000000000000e+00
0.000000000000000e+00 0.000000000000000e+00 0.000000000000000e+00
0.000000000000000e+00 0.000000000000000e+00 0.000000000000000e+00
0.000000000000000e+00 0.000000000000000e+00 0.000000000000000e+00
0.000000000000000e+00 0.000000000000000e+00 0.000000000000000e+00
0.000000000000000e+00 0.000000000000000e+00 0.000000000000000e+00
0.000000000000000e+00 0.000000000000000e+00 0.000000000000000e+00
0.000000000000000e+00 0.000000000000000e+00 0.000000000000000e+00
0.000000000000000e+00 0.000000000000000e+00 0.000000000000000e+00
0.000000000000000e+00 0.000000000000000e+00 0.000000000000000e+00
0.000000000000000e+00 0.000000000000000e+00 0.000000000000000e+00
0.000000000000000e+00 0.000000000000000e+00 0.000000000000000e+00
0.000000000000000e+00 0.000000000000000e+00 0.000000000000000e+00
0.000000000000000e+00 0.000000000000000e+00 0.000000000000000e+00
0.000000000000000e+00 0.000000000000000e+00 0.000000000000000e+00
0.000000000000000e+00 0.000000000000000e+00 0.000000000000000e+00
0.000000000000000e+00 0.000000000000000e+00 0.000000000000000e+00
0.000000000000000e+00 0.000000000000000e+00 0.000000000000000e+00
0.000000000000000e+00 0.000000000000000e+00 0.000000000000000e+00
0.000000000000000e+00 0.000000000000000e+00 0.000000000000000e+00
0.000000000000000e+00 0.000000000000000e+00 0.000000000000000e+00
0.000000000000000e+00 0.000000000000000e+00 0.000000000000000e+00
0.000000000000000e+00 0.000000000000000e+00 0.000000000000000e+00
0.000000000000000e+00 0.000000000000000e+00 0.000000000000000e+00
0.000000000000000e+00 0.000000000000000e+00 0.000000000000000e+00
0.000000000000000e+00 0.000000000000000e+00 0.000000000000000e+00
0.000000000000000e+00 0.000000000000000e+00 0.000000000000000e+00
0.000000000000000e+00 0.000000000000000e+00 0.000000000000000e+00
0.000000000000000e+00 0.000000000000000e+00 0.000000000000000e+00
0.000000000000000e+00 0.000000000000000e+00 0.000000000000000e+00
0.000000000000000e+00 0.000000000000000e+00 0.000000000000000e+00
0.000000000000000e+00 0.000000000000000e+00 0.000000000000000e+00
0.000000000000000e+00 0.000000000000000e+00 0.000000000000000e+00
0.000000000000000e+00 0.000000000000000e+00 0.000000000000000e+00
0.000000000000000e+00 0.000000000000000e+00 0.000000000000000e+00
0.000000000000000e+00 0.000000000000000e+00 0.000000000000000e+00
0.000000000000000e+00 0.000000000000000e+00 0.000000000000000e+00
0.000000000000000e+00 0.000000000000000e+00 0.000000000000000e+00
0.000000000000000e+00 0.000000000000000e+00 0.000000000000000e+00
0.000000000000000e+00 0.000000000000000e+00 0.000000000000000e+00
0.000000000000000e+00 0.000000000000000e+00 0.000000000000000e+00
0.000000000000000e+00 0.000000000000000e+00 0.000000000000000e+00
0.000000000000000e+00 0.000000000000000e+00 0.000000000000000e+00
0.000000000000000e+00 0.000000000000000e+00 0.000000000000000e+00
0.000000000000000e+00 0.000000000000000e+00 0.000000000000000e+00
0.000000000000000e+00 0.000000000000000e+00 0.000000000000000e+00
0.000000000000000e+00 0.000000000000000e+00 0.000000000000000e+00
0.000000000000000e+00 0.000000000000000e+00 0.000000000000000e+00
0.000000000000000e+00 0.000000000000000e+00 0.000000000000000e+00
0.000000000000000e+00 0.000000000000000e+00 0.000000000000000e+00
0.000000000000000e+00 0.000000000000000e+00 0.000000000000000e+00
0.000000000000000e+00 0.000000000000000e+00 0.000000000000000e+00
0.000000000000000e+00 0.000000000000000e+00 0.000000000000000e+00
0.000000000000000e+00 0.000000000000000e+00 0.000000000000000e+00
0.000000000000000e+00 0.000000000000000e+00 0.000000000000000e+00
0.000000000000000e+00 0.000000000000000e+00 0.000000000000000e+00
0.000000000000000e+00 0.000000000000000e+00 0.000000000000000e+00
0.000000000000000e+00 0.000000000000000e+00 0.000000000000000e+00
0.000000000000000e+00 0.000000000000000e+00 0.000000000000000e+00
0.000000000000000e+00 0.000000000000000e+00 0.000000000000000e+00
0.000000000000000e+00 0.000000000000000e+00 0.000000000000000e+00
0.000000000000000e+00 0.000000000000000e+00 0.000000000000000e+00
0.000000000000000e+00 0.000000000000000e+00 0.000000000000000e+00
0.000000000000000e+00 0.000000000000000e+00 0.000000000000000e+00
0.000000000000000e+00 0.000000000000000e+00 0.000000000000000e+00
0.000000000000000e+00 0.000000000000000e+00 0.000000000000000e+00
0.000000000000000e+00 0.000000000000000e+00 0.000000000000000e+00
0.000000000000000e+00 0.000000000000000e+00 0.000000000000000e+00
0.000000000000000e+00 0.000000000000000e+00 0.000000000000000e+00
0.000000000000000e+00 0.000000000000000e+00 0.000000000000000e+00
0.000000000000000e+00 0.000000000000000e+00 0.000000000000000e+00
0.000000000000000e+00 0.000000000000000e+00 0.000000000000000e+00
0.000000000000000e+00 0.000000000000000e+00 0.000000000000000e+00
0.000000000000000e+00 0.000000000000000e+00 0.000000000000000e+00
0.000000000000000e+00 0.000000000000000e+00 0.000000000000000e+00
0.000000000000000e+00 0.000000000000000e+00 0.000000000000000e+00
0.000000000000000e+00 0.000000000000000e+00 0.000000000000000e+00
0.000000000000000e+00 0.000000000000000e+00 0.000000000000000e+00
0.000000000000000e+00 0.000000000000000e+00 0.000000000000000e+00
0.000000000000000e+00 0.000000000000000e+00 0.000000000000000e+00
0.000000000000000e+00 0.000000000000000e+00 0.000000000000000e+00
0.000000000000000e+00 0.000000000000000e+00 0.000000000000000e+00
0.000000000000000e+00 0.000000000000000e+00 0.000000000000000e+00
0.000000000000000e+00 0.000000000000000e+00 0.000000000000000e+00
0.000000000000000e+00 0.000000000000000e+00 0.000000000000000e+00
0.000000000000000e+00 0.000000000000000e+00 0.000000000000000e+00
0.000000000000000e+00 0.000000000000000e+00 0.000000000000000e+00
0.000000000000000e+00 0.000000000000000e+00 0.000000000000000e+00
0.000000000000000e+00 0.000000000000000e+00 0.000000000000000e+00
0.000000000000000e+00 0.000000000000000e+00 0.000000000000000e+00
0.000000000000000e+00 0.000000000000000e+00 0.000000000000000e+00
0.000000000000000e+00 0.000000000000000e+00 0.000000000000000e+00
0.000000000000000e+00 0.000000000000000e+00 0.000000000000000e+00
0.000000000000000e+00 0.000000000000000e+00 0.000000000000000e+00
0.000000000000000e+00 0.000000000000000e+00 0.000000000000000e+00
0.000000000000000e+00 0.000000000000000e+00 0.000000000000000e+00
0.000000000000000e+00 0.000000000000000e+00 0.000000000000000e+00
0.000000000000000e+00 0.000000000000000e+00 0.000000000000000e+00
0.000000000000000e+00 0.000000000000000e+00 0.000000000000000e+00
0.000000000000000e+00 0.000000000000000e+00 0.000000000000000e+00
0.000000000000000e+00 0.000000000000000e+00 0.000000000000000e+00
0.000000000000000e+00 0.000000000000000e+00 0.000000000000000e+00
0.000000000000000e+00 0.000000000000000e+00 0.000000000000000e+00
0.000000000000000e+00 0.000000000000000e+00 0.000000000000000e+00
0.000000000000000e+00 0.000000000000000e+00 0.000000000000000e+00
0.000000000000000e+00 0.000000000000000e+00 0.000000000000000e+00
0.000000000000000e+00 0.000000000000000e+00 0.000000000000000e+00
0.000000000000000e+00 0.000000000000000e+00 0.000000000000000e+00
0.000000000000000e+00 0.000000000000000e+00 0.000000000000000e+00
0.000000000000000e+00 0.000000000000000e+00 0.000000000000000e+00
0.000000000000000e+00 0.000000000000000e+00 0.000000000000000e+00
0.000000000000000e+00 0.000000000000000e+00 0.000000000000000e+00
0.000000000000000e+00 0.000000000000000e+00 0.000000000000000e+00
0.000000000000000e+00 0.000000000000000e+00 0.000000000000000e+00
0.000000000000000e+00 0.000000000000000e+00 0.000000000000000e+00
0.000000000000000e+00 0.000000000000000e+00 0.000000000000000e+00
0.000000000000000e+00 0.000000000000000e+00 0.000000000000000e+00
0.000000000000000e+00 0.000000000000000e+00 0.000000000000000e+00
0.000000000000000e+00 0.000000000000000e+00 0.000000000000000e+00
0.000000000000000e+00 0.000000000000000e+00 0.000000000000000e+00
0.000000000000000e+00 0.000000000000000e+00 0.000000000000000e+00
0.000000000000000e+00 0.000000000000000e+00 0.000000000000000e+00
0.000000000000000e+00 0.000000000000000e+00 0.000000000000000e+00
0.000000000000000e+00 0.000000000000000e+00 0.000000000000000e+00
0.000000000000000e+00 0.000000000000000e+00 0.000000000000000e+00
0.000000000000000e+00 0.000000000000000e+00 0.000000000000000e+00
0.000000000000000e+00 0.000000000000000e+00 0.000000000000000e+00
0.000000000000000e+00 0.000000000000000e+00 0.000000000000000e+00
0.000000000000000e+00 0.000000000000000e+00 0.000000000000000e+00
0.000000000000000e+00 0.000000000000000e+00 0.000000000000000e+00
0.000000000000000e+00 0.000000000000000e+00 0.000000000000000e+00
0.000000000000000e+00 0.000000000000000e+00 0.000000000000000e+00
0.000000000000000e+00 0.000000000000000e+00 0.000000000000000e+00
0.000000000000000e+00 0.000000000000000e+00 0.000000000000000e+00
0.000000000000000e+00 0.000000000000000e+00 0.000000000000000e+00
0.000000000000000e+00 0.000000000000000e+00 0.000000000000000e+00
0.000000000000000e+00 0.000000000000000e+00 0.000000000000000e+00
0.000000000000000e+00 0.000000000000000e+00 0.000000000000000e+00
0.000000000000000e+00 0.000000000000000e+00 0.000000000000000e+00
0.000000000000000e+00 0.000000000000000e+00 0.000000000000000e+00
0.000000000000000e+00 0.000000000000000e+00 0.000000000000000e+00
0.000000000000000e+00 0.000000000000000e+00 0.000000000000000e+00
0.000000000000000e+00 0.000000000000000e+00 0.000000000000000e+00
0.000000000000000e+00 0.000000000000000e+00 0.000000000000000e+00
0.000000000000000e+00 0.000000000000000e+00 0.000000000000000e+00
0.000000000000000e+00 0.000000000000000e+00 0.000000000000000e+00
0.000000000000000e+00 0.000000000000000e+00 0.000000000000000e+00
0.000000000000000e+00 0.000000000000000e+00 0.000000000000000e+00
0.000000000000000e+00 0.000000000000000e+00 0.000000000000000e+00
0.000000000000000e+00 0.000000000000000e+00 0.000000000000000e+00
0.000000000000000e+00 0.000000000000000e+00 0.000000000000000e+00
0.000000000000000e+00 0.000000000000000e+00 0.000000000000000e+00
0.000000000000000e+00 0.000000000000000e+00 0.000000000000000e+00
0.000000000000000e+00 0.000000000000000e+00 0.000000000000000e+00
0.000000000000000e+00 0.000000000000000e+00 0.000000000000000e+00
0.000000000000000e+00 0.000000000000000e+00 0.000000000000000e+00
0.000000000000000e+00 0.000000000000000e+00 0.000000000000000e+00
0.000000000000000e+00 0.000000000000000e+00 0.000000000000000e+00
0.000000000000000e+00 0.000000000000000e+00 0.000000000000000e+00
0.000000000000000e+00 0.000000000000000e+00 0.000000000000000e+00
0.000000000000000e+00 0.000000000000000e+00 0.000000000000000e+00
0.000000000000000e+00 0.000000000000000e+00 0.000000000000000e+00
0.000000000000000e+00 0.000000000000000e+00 0.000000000000000e+00
0.000000000000000e+00 0.000000000000000e+00 0.000000000000000e+00
0.000000000000000e+00 0.000000000000000e+00 0.000000000000000e+00
0.000000000000000e+00 0.000000000000000e+00 0.000000000000000e+00
0.000000000000000e+00 0.000000000000000e+00 0.000000000000000e+00
0.000000000000000e+00 0.000000000000000e+00 0.000000000000000e+00
0.000000000000000e+00 0.000000000000000e+00 0.000000000000000e+00
0.000000000000000e+00 0.000000000000000e+00 0.000000000000000e+00
0.000000000000000e+00 0.000000000000000e+00 0.000000000000000e+00
0.000000000000000e+00 0.000000000000000e+00 0.000000000000000e+00
0.000000000000000e+00 0.000000000000000e+00 0.000000000000000e+00
0.000000000000000e+00 0.000000000000000e+00 0.000000000000000e+00
0.000000000000000e+00 0.000000000000000e+00 0.000000000000000e+00
0.000000000000000e+00 0.000000000000000e+00 0.000000000000000e+00
0.000000000000000e+00 0.000000000000000e+00 0.000000000000000e+00
0.000000000000000e+00 0.000000000000000e+00 0.000000000000000e+00
0.000000000000000e+00 0.000000000000000e+00 0.000000000000000e+00
0.000000000000000e+00 0.000000000000000e+00 0.000000000000000e+00
0.000000000000000e+00 0.000000000000000e+00 0.000000000000000e+00
0.000000000000000e+00 0.000000000000000e+00 0.000000000000000e+00
0.000000000000000e+00 0.000000000000000e+00 0.000000000000000e+00
0.000000000000000e+00 0.000000000000000e+00 0.000000000000000e+00
0.000000000000000e+00 0.000000000000000e+00 0.000000000000000e+00
0.000000000000000e+00 0.000000000000000e+00 0.000000000000000e+00
0.000000000000000e+00 0.000000000000000e+00 0.000000000000000e+00
0.000000000000000e+00 0.000000000000000e+00 0.000000000000000e+00
0.000000000000000e+00 0.000000000000000e+00 0.000000000000000e+00
0.000000000000000e+00 0.000000000000000e+00 0.000000000000000e+00
0.000000000000000e+00 0.000000000000000e+00 0.000000000000000e+00
0.000000000000000e+00 0.000000000000000e+00 0.000000000000000e+00
0.000000000000000e+00 0.000000000000000e+00 0.000000000000000e+00
0.000000000000000e+00 0.000000000000000e+00 0.000000000000000e+00
0.000000000000000e+00 0.000000000000000e+00 0.000000000000000e+00
0.000000000000000e+00 0.000000000000000e+00 0.000000000000000e+00
0.000000000000000e+00 0.000000000000000e+00 0.000000000000000e+00
0.000000000000000e+00 0.000000000000000e+00 0.000000000000000e+00
0.000000000000000e+00 0.000000000000000e+00 0.000000000000000e+00
0.000000000000000e+00 0.000000000000000e+00 0.000000000000000e+00
0.000000000000000e+00 0.000000000000000e+00 0.000000000000000e+00
0.000000000000000e+00 0.000000000000000e+00 0.000000000000000e+00
0.000000000000000e+00 0.000000000000000e+00 0.000000000000000e+00
0.000000000000000e+00 0.000000000000000e+00 0.000000000000000e+00
0.000000000000000e+00 0.000000000000000e+00 0.000000000000000e+00
0.000000000000000e+00 0.000000000000000e+00 0.000000000000000e+00
0.000000000000000e+00 0.000000000000000e+00 0.000000000000000e+00
0.000000000000000e+00 0.000000000000000e+00 0.000000000000000e+00
0.000000000000000e+00 0.000000000000000e+00 0.000000000000000e+00
0.000000000000000e+00 0.000000000000000e+00 0.000000000000000e+00
0.000000000000000e+00 0.000000000000000e+00 0.000000000000000e+00
0.000000000000000e+00 0.000000000000000e+00 0.000000000000000e+00
0.000000000000000e+00 0.000000000000000e+00 0.000000000000000e+00
0.000000000000000e+00 0.000000000000000e+00 0.000000000000000e+00
0.000000000000000e+00 0.000000000000000e+00 0.000000000000000e+00
0.000000000000000e+00 0.000000000000000e+00 0.000000000000000e+00
0.000000000000000e+00 0.000000000000000e+00 0.000000000000000e+00
0.000000000000000e+00 0.000000000000000e+00 0.000000000000000e+00
0.000000000000000e+00 0.000000000000000e+00 0.000000000000000e+00
0.000000000000000e+00 0.000000000000000e+00 0.000000000000000e+00
0.000000000000000e+00 0.000000000000000e+00 0.000000000000000e+00
0.000000000000000e+00 0.000000000000000e+00 0.000000000000000e+00
0.000000000000000e+00 0.000000000000000e+00 0.000000000000000e+00
0.000000000000000e+00 0.000000000000000e+00 0.000000000000000e+00
0.000000000000000e+00 0.000000000000000e+00 0.000000000000000e+00
0.000000000000000e+00 0.000000000000000e+00 0.000000000000000e+00
0.000000000000000e+00 0.000000000000000e+00 0.000000000000000e+00
0.000000000000000e+00 0.000000000000000e+00 0.000000000000000e+00
0.000000000000000e+00 0.000000000000000e+00 0.000000000000000e+00
0.000000000000000e+00 0.000000000000000e+00 0.000000000000000e+00
0.000000000000000e+00 0.000000000000000e+00 0.000000000000000e+00
0.000000000000000e+00 0.000000000000000e+00 0.000000000000000e+00
0.000000000000000e+00 0.000000000000000e+00 0.000000000000000e+00
0.000000000000000e+00 0.000000000000000e+00 0.000000000000000e+00
0.000000000000000e+00 0.000000000000000e+00 0.000000000000000e+00
0.000000000000000e+00 0.000000000000000e+00 0.000000000000000e+00
0.000000000000000e+00 0.000000000000000e+00 0.000000000000000e+00
0.000000000000000e+00 0.000000000000000e+00 0.000000000000000e+00
0.000000000000000e+00 0.000000000000000e+00 0.000000000000000e+00
0.000000000000000e+00 0.000000000000000e+00 0.000000000000000e+00
0.000000000000000e+00 0.000000000000000e+00 0.000000000000000e+00
0.000000000000000e+00 0.000000000000000e+00 0.000000000000000e+00
0.000000000000000e+00 0.000000000000000e+00 0.000000000000000e+00
0.000000000000000e+00 0.000000000000000e+00 0.000000000000000e+00
0.000000000000000e+00 0.000000000000000e+00 0.000000000000000e+00
0.000000000000000e+00 0.000000000000000e+00 0.000000000000000e+00
0.000000000000000e+00 0.000000000000000e+00 0.000000000000000e+00
0.000000000000000e+00 0.000000000000000e+00 0.000000000000000e+00
0.000000000000000e+00 0.000000000000000e+00 0.000000000000000e+00
0.000000000000000e+00 0.000000000000000e+00 0.000000000000000e+00
0.000000000000000e+00 0.000000000000000e+00 0.000000000000000e+00
0.000000000000000e+00 0.000000000000000e+00 0.000000000000000e+00
0.000000000000000e+00 0.000000000000000e+00 0.000000000000000e+00
0.000000000000000e+00 0.000000000000000e+00 0.000000000000000e+00
0.000000000000000e+00 0.000000000000000e+00 0.000000000000000e+00
0.000000000000000e+00 0.000000000000000e+00 0.000000000000000e+00
0.000000000000000e+00 0.000000000000000e+00 0.000000000000000e+00
0.000000000000000e+00 0.000000000000000e+00 0.000000000000000e+00
0.000000000000000e+00 0.000000000000000e+00 0.000000000000000e+00
0.000000000000000e+00 0.000000000000000e+00 0.000000000000000e+00
0.000000000000000e+00 0.000000000000000e+00 0.000000000000000e+00
0.000000000000000e+00 0.000000000000000e+00 0.000000000000000e+00
0.000000000000000e+00 0.000000000000000e+00 0.000000000000000e+00
0.000000000000000e+00 0.000000000000000e+00 0.000000000000000e+00
0.000000000000000e+00 0.000000000000000e+00 0.000000000000000e+00
0.000000000000000e+00 0.000000000000000e+00 0.000000000000000e+00
0.000000000000000e+00 0.000000000000000e+00 0.000000000000000e+00
0.000000000000000e+00 0.000000000000000e+00 0.000000000000000e+00
0.000000000000000e+00 0.000000000000000e+00 0.000000000000000e+00
0.000000000000000e+00 0.000000000000000e+00 0.000000000000000e+00
0.000000000000000e+00 0.000000000000000e+00 0.000000000000000e+00
0.000000000000000e+00 0.000000000000000e+00 0.000000000000000e+00
0.000000000000000e+00 0.000000000000000e+00 0.000000000000000e+00
0.000000000000000e+00 0.000000000000000e+00 0.000000000000000e+00
0.000000000000000e+00 0.000000000000000e+00 0.000000000000000e+00
0.000000000000000e+00 0.000000000000000e+00 0.000000000000000e+00
0.000000000000000e+00 0.000000000000000e+00 0.000000000000000e+00
0.000000000000000e+00 0.000000000000000e+00 0.000000000000000e+00
0.000000000000000e+00 0.000000000000000e+00 0.000000000000000e+00
0.000000000000000e+00 0.000000000000000e+00 0.000000000000000e+00
0.000000000000000e+00 0.000000000000000e+00 0.000000000000000e+00
0.000000000000000e+00 0.000000000000000e+00 0.000000000000000e+00
0.000000000000000e+00 0.000000000000000e+00 0.000000000000000e+00
0.000000000000000e+00 0.000000000000000e+00 0.000000000000000e+00
0.000000000000000e+00 0.000000000000000e+00 0.000000000000000e+00
0.000000000000000e+00 0.000000000000000e+00 0.000000000000000e+00
0.000000000000000e+00 0.000000000000000e+00 0.000000000000000e+00
0.000000000000000e+00 0.000000000000000e+00 0.000000000000000e+00
0.000000000000000e+00 0.000000000000000e+00 0.000000000000000e+00
0.000000000000000e+00 0.000000000000000e+00 0.000000000000000e+00
0.000000000000000e+00 0.000000000000000e+00 0.000000000000000e+00
0.000000000000000e+00 0.000000000000000e+00 0.000000000000000e+00
0.000000000000000e+00 0.000000000000000e+00 0.000000000000000e+00
0.000000000000000e+00 0.000000000000000e+00 0.000000000000000e+00
0.000000000000000e+00 0.000000000000000e+00 0.000000000000000e+00
0.000000000000000e+00 0.000000000000000e+00 0.000000000000000e+00
0.000000000000000e+00 0.000000000000000e+00 0.000000000000000e+00
0.000000000000000e+00 0.000000000000000e+00 0.000000000000000e+00
0.000000000000000e+00 0.000000000000000e+00 0.000000000000000e+00
0.000000000000000e+00 0.000000000000000e+00 0.000000000000000e+00
0.000000000000000e+00 0.000000000000000e+00 0.000000000000000e+00
0.000000000000000e+00 0.000000000000000e+00 0.000000000000000e+00
0.000000000000000e+00 0.000000000000000e+00 0.000000000000000e+00
0.000000000000000e+00 0.000000000000000e+00 0.000000000000000e+00
0.000000000000000e+00 0.000000000000000e+00 0.000000000000000e+00
0.000000000000000e+00 0.000000000000000e+00 0.000000000000000e+00
0.000000000000000e+00 0.000000000000000e+00 0.000000000000000e+00
0.000000000000000e+00 0.000000000000000e+00 0.000000000000000e+00
0.000000000000000e+00 0.000000000000000e+00 0.000000000000000e+00
0.000000000000000e+00 0.000000000000000e+00 0.000000000000000e+00
0.000000000000000e+00 0.000000000000000e+00 0.000000000000000e+00
0.000000000000000e+00 0.000000000000000e+00 0.000000000000000e+00
0.000000000000000e+00 0.000000000000000e+00 0.000000000000000e+00
0.000000000000000e+00 0.000000000000000e+00 0.000000000000000e+00
0.000000000000000e+00 0.000000000000000e+00 0.000000000000000e+00
0.000000000000000e+00 0.000000000000000e+00 0.000000000000000e+00
0.000000000000000e+00 0.000000000000000e+00 0.000000000000000e+00
0.000000000000000e+00 0.000000000000000e+00 0.000000000000000e+00
0.000000000000000e+00 0.000000000000000e+00 0.000000000000000e+00
0.000000000000000e+00 0.000000000000000e+00 0.000000000000000e+00
0.000000000000000e+00 0.000000000000000e+00 0.000000000000000e+00
0.000000000000000e+00 0.000000000000000e+00 0.000000000000000e+00
0.000000000000000e+00 0.000000000000000e+00 0.000000000000000e+00
0.000000000000000e+00 0.000000000000000e+00 0.000000000000000e+00
0.000000000000000e+00 0.000000000000000e+00 0.000000000000000e+00
0.000000000000000e+00 0.000000000000000e+00 0.000000000000000e+00
0.000000000000000e+00 0.000000000000000e+00 0.000000000000000e+00
0.000000000000000e+00 0.000000000000000e+00 0.000000000000000e+00
0.000000000000000e+00 0.000000000000000e+00 0.000000000000000e+00
0.000000000000000e+00 0.000000000000000e+00 0.000000000000000e+00
0.000000000000000e+00 0.000000000000000e+00 0.000000000000000e+00
0.000000000000000e+00 0.000000000000000e+00 0.000000000000000e+00
0.000000000000000e+00 0.000000000000000e+00 0.000000000000000e+00
0.000000000000000e+00 0.000000000000000e+00 0.000000000000000e+00
0.000000000000000e+00 0.000000000000000e+00 0.000000000000000e+00
0.000000000000000e+00 0.000000000000000e+00 0.000000000000000e+00
0.000000000000000e+00 0.000000000000000e+00 0.000000000000000e+00
0.000000000000000e+00 0.000000000000000e+00 0.000000000000000e+00
0.000000000000000e+00 0.000000000000000e+00 0.000000000000000e+00
0.000000000000000e+00 0.000000000000000e+00 0.000000000000000e+00
0.000000000000000e+00 0.000000000000000e+00 0.000000000000000e+00
0.000000000000000e+00 0.000000000000000e+00 0.000000000000000e+00
0.000000000000000e+00 0.000000000000000e+00 0.000000000000000e+00
0.000000000000000e+00 0.000000000000000e+00 0.000000000000000e+00
0.000000000000000e+00 0.000000000000000e+00 0.000000000000000e+00
0.000000000000000e+00 0.000000000000000e+00 0.000000000000000e+00
0.000000000000000e+00 0.000000000000000e+00 0.000000000000000e+00
0.000000000000000e+00 0.000000000000000e+00 0.000000000000000e+00
0.000000000000000e+00 0.000000000000000e+00 0.000000000000000e+00
0.000000000000000e+00 0.000000000000000e+00 0.000000000000000e+00
0.000000000000000e+00 0.000000000000000e+00 0.000000000000000e+00
0.000000000000000e+00 0.000000000000000e+00 0.000000000000000e+00
0.000000000000000e+00 0.000000000000000e+00 0.000000000000000e+00
0.000000000000000e+00 0.000000000000000e+00 0.000000000000000e+00
0.000000000000000e+00 0.000000000000000e+00 0.000000000000000e+00
0.000000000000000e+00 0.000000000000000e+00 0.000000000000000e+00
0.000000000000000e+00 0.000000000000000e+00 0.000000000000000e+00
0.000000000000000e+00 0.000000000000000e+00 0.000000000000000e+00
0.000000000000000e+00 0.000000000000000e+00 0.000000000000000e+00
0.000000000000000e+00 0.000000000000000e+00 0.000000000000000e+00
0.000000000000000e+00 0.000000000000000e+00 0.000000000000000e+00
0.000000000000000e+00 0.000000000000000e+00 0.000000000000000e+00
0.000000000000000e+00 0.000000000000000e+00 0.000000000000000e+00
0.000000000000000e+00 0.000000000000000e+00 0.000000000000000e+00
0.000000000000000e+00 0.000000000000000e+00 0.000000000000000e+00
0.000000000000000e+00 0.000000000000000e+00 0.000000000000000e+00
0.000000000000000e+00 0.000000000000000e+00 0.000000000000000e+00
0.000000000000000e+00 0.000000000000000e+00 0.000000000000000e+00
0.000000000000000e+00 0.000000000000000e+00 0.000000000000000e+00
0.000000000000000e+00 0.000000000000000e+00 0.000000000000000e+00
0.000000000000000e+00 0.000000000000000e+00 0.000000000000000e+00
0.000000000000000e+00 0.000000000000000e+00 0.000000000000000e+00
0.000000000000000e+00 0.000000000000000e+00 0.000000000000000e+00
0.000000000000000e+00 0.000000000000000e+00 0.000000000000000e+00
0.000000000000000e+00 0.000000000000000e+00 0.000000000000000e+00
0.000000000000000e+00 0.000000000000000e+00 0.000000000000000e+00
0.000000000000000e+00 0.000000000000000e+00 0.000000000000000e+00
0.000000000000000e+00 0.000000000000000e+00 0.000000000000000e+00
0.000000000000000e+00 0.000000000000000e+00 0.000000000000000e+00
0.000000000000000e+00 0.000000000000000e+00 0.000000000000000e+00
0.000000000000000e+00 0.000000000000000e+00 0.000000000000000e+00
0.000000000000000e+00 0.000000000000000e+00 0.000000000000000e+00
0.000000000000000e+00 0.000000000000000e+00 0.000000000000000e+00
0.000000000000000e+00 0.000000000000000e+00 0.000000000000000e+00
0.000000000000000e+00 0.000000000000000e+00 0.000000000000000e+00
0.000000000000000e+00 0.000000000000000e+00 0.000000000000000e+00
0.000000000000000e+00 0.000000000000000e+00 0.000000000000000e+00
0.000000000000000e+00 0.000000000000000e+00 0.000000000000000e+00
0.000000000000000e+00 0.000000000000000e+00 0.000000000000000e+00
0.000000000000000e+00 0.000000000000000e+00 0.000000000000000e+00
0.000000000000000e+00 0.000000000000000e+00 0.000000000000000e+00
0.000000000000000e+00 0.000000000000000e+00 0.000000000000000e+00
0.000000000000000e+00 0.000000000000000e+00 0.000000000000000e+00
0.000000000000000e+00 0.000000000000000e+00 0.000000000000000e+00
0.000000000000000e+00 0.000000000000000e+00 0.000000000000000e+00
0.000000000000000e+00 0.000000000000000e+00 0.000000000000000e+00
0.000000000000000e+00 0.000000000000000e+00 0.000000000000000e+00
0.000000000000000e+00 0.000000000000000e+00 0.000000000000000e+00
0.000000000000000e+00 0.000000000000000e+00 0.000000000000000e+00
0.000000000000000e+00 0.000000000000000e+00 0.000000000000000e+00
0.000000000000000e+00 0.000000000000000e+00 0.000000000000000e+00
0.000000000000000e+00 0.000000000000000e+00 0.000000000000000e+00
0.000000000000000e+00 0.000000000000000e+00 0.000000000000000e+00
0.000000000000000e+00 0.000000000000000e+00 0.000000000000000e+00
0.000000000000000e+00 0.000000000000000e+00 0.000000000000000e+00
0.000000000000000e+00 0.000000000000000e+00 0.000000000000000e+00
0.000000000000000e+00 0.000000000000000e+00 0.000000000000000e+00
0.000000000000000e+00 0.000000000000000e+00 0.000000000000000e+00
0.000000000000000e+00 0.000000000000000e+00 0.000000000000000e+00
0.000000000000000e+00 0.000000000000000e+00 0.000000000000000e+00
0.000000000000000e+00 0.000000000000000e+00 0.000000000000000e+00
0.000000000000000e+00 0.000000000000000e+00 0.000000000000000e+00
0.000000000000000e+00 0.000000000000000e+00 0.000000000000000e+00
0.000000000000000e+00 0.000000000000000e+00 0.000000000000000e+00
0.000000000000000e+00 0.000000000000000e+00 0.000000000000000e+00
0.000000000000000e+00 0.000000000000000e+00 0.000000000000000e+00
0.000000000000000e+00 0.000000000000000e+00 0.000000000000000e+00
0.000000000000000e+00 0.000000000000000e+00 0.000000000000000e+00
0.000000000000000e+00 0.000000000000000e+00 0.000000000000000e+00
0.000000000000000e+00 0.000000000000000e+00 0.000000000000000e+00
0.000000000000000e+00 0.000000000000000e+00 0.000000000000000e+00
0.000000000000000e+00 0.000000000000000e+00 0.000000000000000e+00
0.000000000000000e+00 0.000000000000000e+00 0.000000000000000e+00
0.000000000000000e+00 0.000000000000000e+00 0.000000000000000e+00
0.000000000000000e+00 0.000000000000000e+00 0.000000000000000e+00
0.000000000000000e+00 0.000000000000000e+00 0.000000000000000e+00
0.000000000000000e+00 0.000000000000000e+00 0.000000000000000e+00
0.000000000000000e+00 0.000000000000000e+00 0.000000000000000e+00
0.000000000000000e+00 0.000000000000000e+00 0.000000000000000e+00
0.000000000000000e+00 0.000000000000000e+00 0.000000000000000e+00
0.000000000000000e+00 0.000000000000000e+00 0.000000000000000e+00
0.000000000000000e+00 0.000000000000000e+00 0.000000000000000e+00
0.000000000000000e+00 0.000000000000000e+00 0.000000000000000e+00
0.000000000000000e+00 0.000000000000000e+00 0.000000000000000e+00
0.000000000000000e+00 0.000000000000000e+00 0.000000000000000e+00
0.000000000000000e+00 0.000000000000000e+00 0.000000000000000e+00
0.000000000000000e+00 0.000000000000000e+00 0.000000000000000e+00
0.000000000000000e+00 0.000000000000000e+00 0.000000000000000e+00
0.000000000000000e+00 0.000000000000000e+00 0.000000000000000e+00
0.000000000000000e+00 0.000000000000000e+00 0.000000000000000e+00
0.000000000000000e+00 0.000000000000000e+00 0.000000000000000e+00
0.000000000000000e+00 0.000000000000000e+00 0.000000000000000e+00
0.000000000000000e+00 0.000000000000000e+00 0.000000000000000e+00
0.000000000000000e+00 0.000000000000000e+00 0.000000000000000e+00
0.000000000000000e+00 0.000000000000000e+00 0.000000000000000e+00
0.000000000000000e+00 0.000000000000000e+00 0.000000000000000e+00
0.000000000000000e+00 0.000000000000000e+00 0.000000000000000e+00
0.000000000000000e+00 0.000000000000000e+00 0.000000000000000e+00
0.000000000000000e+00 0.000000000000000e+00 0.000000000000000e+00
0.000000000000000e+00 0.000000000000000e+00 0.000000000000000e+00
0.000000000000000e+00 0.000000000000000e+00 0.000000000000000e+00
0.000000000000000e+00 0.000000000000000e+00 0.000000000000000e+00
0.000000000000000e+00 0.000000000000000e+00 0.000000000000000e+00
0.000000000000000e+00 0.000000000000000e+00 0.000000000000000e+00
0.000000000000000e+00 0.000000000000000e+00 0.000000000000000e+00
0.000000000000000e+00 0.000000000000000e+00 0.000000000000000e+00
0.000000000000000e+00 0.000000000000000e+00 0.000000000000000e+00
0.000000000000000e+00 0.000000000000000e+00 0.000000000000000e+00
0.000000000000000e+00 0.000000000000000e+00 0.000000000000000e+00
0.000000000000000e+00 0.000000000000000e+00 0.000000000000000e+00
0.000000000000000e+00 0.000000000000000e+00 0.000000000000000e+00
0.000000000000000e+00 0.000000000000000e+00 0.000000000000000e+00
0.000000000000000e+00 0.000000000000000e+00 0.000000000000000e+00
0.000000000000000e+00 0.000000000000000e+00 0.000000000000000e+00
0.000000000000000e+00 0.000000000000000e+00 0.000000000000000e+00
0.000000000000000e+00 0.000000000000000e+00 0.000000000000000e+00
0.000000000000000e+00 0.000000000000000e+00 0.000000000000000e+00
0.000000000000000e+00 0.000000000000000e+00 0.000000000000000e+00
0.000000000000000e+00 0.000000000000000e+00 0.000000000000000e+00
0.000000000000000e+00 0.000000000000000e+00 0.000000000000000e+00
0.000000000000000e+00 0.000000000000000e+00 0.000000000000000e+00
0.000000000000000e+00 0.000000000000000e+00 0.000000000000000e+00
0.000000000000000e+00 0.000000000000000e+00 0.000000000000000e+00
0.000000000000000e+00 0.000000000000000e+00 0.000000000000000e+00
0.000000000000000e+00 0.000000000000000e+00 0.000000000000000e+00
0.000000000000000e+00 0.000000000000000e+00 0.000000000000000e+00
0.000000000000000e+00 0.000000000000000e+00 0.000000000000000e+00
0.000000000000000e+00 0.000000000000000e+00 0.000000000000000e+00
0.000000000000000e+00 0.000000000000000e+00 0.000000000000000e+00
0.000000000000000e+00 0.000000000000000e+00 0.000000000000000e+00
0.000000000000000e+00 0.000000000000000e+00 0.000000000000000e+00
0.000000000000000e+00 0.000000000000000e+00 0.000000000000000e+00
0.000000000000000e+00 0.000000000000000e+00 0.000000000000000e+00
0.000000000000000e+00 0.000000000000000e+00 0.000000000000000e+00
0.000000000000000e+00 0.000000000000000e+00 0.000000000000000e+00
0.000000000000000e+00 0.000000000000000e+00 0.000000000000000e+00
0.000000000000000e+00 0.000000000000000e+00 0.000000000000000e+00
0.000000000000000e+00 0.000000000000000e+00 0.000000000000000e+00
0.000000000000000e+00 0.000000000000000e+00 0.000000000000000e+00
0.000000000000000e+00 0.000000000000000e+00 0.000000000000000e+00
0.000000000000000e+00 0.000000000000000e+00 0.000000000000000e+00
0.000000000000000e+00 0.000000000000000e+00 0.000000000000000e+00
0.000000000000000e+00 0.000000000000000e+00 0.000000000000000e+00
0.000000000000000e+00 0.000000000000000e+00 0.000000000000000e+00
0.000000000000000e+00 0.000000000000000e+00 0.000000000000000e+00
0.000000000000000e+00 0.000000000000000e+00 0.000000000000000e+00
0.000000000000000e+00 0.000000000000000e+00 0.000000000000000e+00
0.000000000000000e+00 0.000000000000000e+00 0.000000000000000e+00
0.000000000000000e+00 0.000000000000000e+00 0.000000000000000e+00
0.000000000000000e+00 0.000000000000000e+00 0.000000000000000e+00
0.000000000000000e+00 0.000000000000000e+00 0.000000000000000e+00
0.000000000000000e+00 0.000000000000000e+00 0.000000000000000e+00
0.000000000000000e+00 0.000000000000000e+00 0.000000000000000e+00
0.000000000000000e+00 0.000000000000000e+00 0.000000000000000e+00
0.000000000000000e+00 0.000000000000000e+00 0.000000000000000e+00
0.000000000000000e+00 0.000000000000000e+00 0.000000000000000e+00
0.000000000000000e+00 0.000000000000000e+00 0.000000000000000e+00
0.000000000000000e+00 0.000000000000000e+00 0.000000000000000e+00
0.000000000000000e+00 0.000000000000000e+00 0.000000000000000e+00
0.000000000000000e+00 0.000000000000000e+00 0.000000000000000e+00
0.000000000000000e+00 0.000000000000000e+00 0.000000000000000e+00
0.000000000000000e+00 0.000000000000000e+00 0.000000000000000e+00
0.000000000000000e+00 0.000000000000000e+00 0.000000000000000e+00
0.000000000000000e+00 0.000000000000000e+00 0.000000000000000e+00
0.000000000000000e+00 0.000000000000000e+00 0.000000000000000e+00
0.000000000000000e+00 0.000000000000000e+00 0.000000000000000e+00
0.000000000000000e+00 0.000000000000000e+00 0.000000000000000e+00
0.000000000000000e+00 0.000000000000000e+00 0.000000000000000e+00
0.000000000000000e+00 0.000000000000000e+00 0.000000000000000e+00
0.000000000000000e+00 0.000000000000000e+00 0.000000000000000e+00
0.000000000000000e+00 0.000000000000000e+00 0.000000000000000e+00
0.000000000000000e+00 0.000000000000000e+00 0.000000000000000e+00
0.000000000000000e+00 0.000000000000000e+00 0.000000000000000e+00
0.000000000000000e+00 0.000000000000000e+00 0.000000000000000e+00
0.000000000000000e+00 0.000000000000000e+00 0.000000000000000e+00
0.000000000000000e+00 0.000000000000000e+00 0.000000000000000e+00
0.000000000000000e+00 0.000000000000000e+00 0.000000000000000e+00
0.000000000000000e+00 0.000000000000000e+00 0.000000000000000e+00
0.000000000000000e+00 0.000000000000000e+00 0.000000000000000e+00
0.000000000000000e+00 0.000000000000000e+00 0.000000000000000e+00
0.000000000000000e+00 0.000000000000000e+00 0.000000000000000e+00
0.000000000000000e+00 0.000000000000000e+00 0.000000000000000e+00
0.000000000000000e+00 0.000000000000000e+00 0.000000000000000e+00
0.000000000000000e+00 0.000000000000000e+00 0.000000000000000e+00
0.000000000000000e+00 0.000000000000000e+00 0.000000000000000e+00
0.000000000000000e+00 0.000000000000000e+00 0.000000000000000e+00
0.000000000000000e+00 0.000000000000000e+00 0.000000000000000e+00
0.000000000000000e+00 0.000000000000000e+00 0.000000000000000e+00
0.000000000000000e+00 0.000000000000000e+00 0.000000000000000e+00
0.000000000000000e+00 0.000000000000000e+00 0.000000000000000e+00
0.000000000000000e+00 0.000000000000000e+00 0.000000000000000e+00
0.000000000000000e+00 0.000000000000000e+00 0.000000000000000e+00
0.000000000000000e+00 0.000000000000000e+00 0.000000000000000e+00
0.000000000000000e+00 0.000000000000000e+00 0.000000000000000e+00
0.000000000000000e+00 0.000000000000000e+00 0.000000000000000e+00
0.000000000000000e+00 0.000000000000000e+00 0.000000000000000e+00
0.000000000000000e+00 0.000000000000000e+00 0.000000000000000e+00
0.000000000000000e+00 0.000000000000000e+00 0.000000000000000e+00
0.000000000000000e+00 0.000000000000000e+00 0.000000000000000e+00
0.000000000000000e+00 0.000000000000000e+00 0.000000000000000e+00
0.000000000000000e+00 0.000000000000000e+00 0.000000000000000e+00
0.000000000000000e+00 0.000000000000000e+00 0.000000000000000e+00
0.000000000000000e+00 0.000000000000000e+00 0.000000000000000e+00
0.000000000000000e+00 0.000000000000000e+00 0.000000000000000e+00
0.000000000000000e+00 0.000000000000000e+00 0.000000000000000e+00
0.000000000000000e+00 0.000000000000000e+00 0.000000000000000e+00
0.000000000000000e+00 0.000000000000000e+00 0.000000000000000e+00
0.000000000000000e+00 0.000000000000000e+00 0.000000000000000e+00
0.000000000000000e+00 0.000000000000000e+00 0.000000000000000e+00
0.000000000000000e+00 0.000000000000000e+00 0.000000000000000e+00
0.000000000000000e+00 0.000000000000000e+00 0.000000000000000e+00
0.000000000000000e+00 0.000000000000000e+00 0.000000000000000e+00
0.000000000000000e+00 0.000000000000000e+00 0.000000000000000e+00
0.000000000000000e+00 0.000000000000000e+00 0.000000000000000e+00
0.000000000000000e+00 0.000000000000000e+00 0.000000000000000e+00
0.000000000000000e+00 0.000000000000000e+00 0.000000000000000e+00
0.000000000000000e+00 0.000000000000000e+00 0.000000000000000e+00
0.000000000000000e+00 0.000000000000000e+00 0.000000000000000e+00
0.000000000000000e+00 0.000000000000000e+00 0.000000000000000e+00
0.000000000000000e+00 0.000000000000000e+00 0.000000000000000e+00
0.000000000000000e+00 0.000000000000000e+00 0.000000000000000e+00
0.000000000000000e+00 0.000000000000000e+00 0.000000000000000e+00
0.000000000000000e+00 0.000000000000000e+00 0.000000000000000e+00
0.000000000000000e+00 0.000000000000000e+00 0.000000000000000e+00
0.000000000000000e+00 0.000000000000000e+00 0.000000000000000e+00
0.000000000000000e+00 0.000000000000000e+00 0.000000000000000e+00
0.000000000000000e+00 0.000000000000000e+00 0.000000000000000e+00
0.000000000000000e+00 0.000000000000000e+00 0.000000000000000e+00
0.000000000000000e+00 0.000000000000000e+00 0.000000000000000e+00
0.000000000000000e+00 0.000000000000000e+00 0.000000000000000e+00
0.000000000000000e+00 0.000000000000000e+00 0.000000000000000e+00
0.000000000000000e+00 0.000000000000000e+00 0.000000000000000e+00
0.000000000000000e+00 0.000000000000000e+00 0.000000000000000e+00
0.000000000000000e+00 0.000000000000000e+00 0.000000000000000e+00
0.000000000000000e+00 0.000000000000000e+00 0.000000000000000e+00
0.000000000000000e+00 0.000000000000000e+00 0.000000000000000e+00
0.000000000000000e+00 0.000000000000000e+00 0.000000000000000e+00
0.000000000000000e+00 0.000000000000000e+00 0.000000000000000e+00
0.000000000000000e+00 0.000000000000000e+00 0.000000000000000e+00
0.000000000000000e+00 0.000000000000000e+00 0.000000000000000e+00
0.000000000000000e+00 0.000000000000000e+00 0.000000000000000e+00
0.000000000000000e+00 0.000000000000000e+00 0.000000000000000e+00
0.000000000000000e+00 0.000000000000000e+00 0.000000000000000e+00
0.000000000000000e+00 0.000000000000000e+00 0.000000000000000e+00
0.000000000000000e+00 0.000000000000000e+00 0.000000000000000e+00
0.000000000000000e+00 0.000000000000000e+00 0.000000000000000e+00
0.000000000000000e+00 0.000000000000000e+00 0.000000000000000e+00
0.000000000000000e+00 0.000000000000000e+00 0.000000000000000e+00
0.000000000000000e+00 0.000000000000000e+00 0.000000000000000e+00
0.000000000000000e+00 0.000000000000000e+00 0.000000000000000e+00
0.000000000000000e+00 0.000000000000000e+00 0.000000000000000e+00
0.000000000000000e+00 0.000000000000000e+00 0.000000000000000e+00
0.000000000000000e+00 0.000000000000000e+00 0.000000000000000e+00
0.000000000000000e+00 0.000000000000000e+00 0.000000000000000e+00
0.000000000000000e+00 0.000000000000000e+00 0.000000000000000e+00
0.000000000000000e+00 0.000000000000000e+00 0.000000000000000e+00
0.000000000000000e+00 0.000000000000000e+00 0.000000000000000e+00
0.000000000000000e+00 0.000000000000000e+00 0.000000000000000e+00
0.000000000000000e+00 0.000000000000000e+00 0.000000000000000e+00
0.000000000000000e+00 0.000000000000000e+00 0.000000000000000e+00
0.000000000000000e+00 0.000000000000000e+00 0.000000000000000e+00
0.000000000000000e+00 0.000000000000000e+00 0.000000000000000e+00
0.000000000000000e+00 0.000000000000000e+00 0.000000000000000e+00
0.000000000000000e+00 0.000000000000000e+00 0.000000000000000e+00
0.000000000000000e+00 0.000000000000000e+00 0.000000000000000e+00
0.000000000000000e+00 0.000000000000000e+00 0.000000000000000e+00
0.000000000000000e+00 0.000000000000000e+00 0.000000000000000e+00
0.000000000000000e+00 0.000000000000000e+00 0.000000000000000e+00
0.000000000000000e+00 0.000000000000000e+00 0.000000000000000e+00
0.000000000000000e+00 0.000000000000000e+00 0.000000000000000e+00
0.000000000000000e+00 0.000000000000000e+00 0.000000000000000e+00
0.000000000000000e+00 0.000000000000000e+00 0.000000000000000e+00
0.000000000000000e+00 0.000000000000000e+00 0.000000000000000e+00
0.000000000000000e+00 0.000000000000000e+00 0.000000000000000e+00
0.000000000000000e+00 0.000000000000000e+00 0.000000000000000e+00
0.000000000000000e+00 0.000000000000000e+00 0.000000000000000e+00
0.000000000000000e+00 0.000000000000000e+00 0.000000000000000e+00
0.000000000000000e+00 0.000000000000000e+00 0.000000000000000e+00
0.000000000000000e+00 0.000000000000000e+00 0.000000000000000e+00
0.000000000000000e+00 0.000000000000000e+00 0.000000000000000e+00
0.000000000000000e+00 0.000000000000000e+00 0.000000000000000e+00
0.000000000000000e+00 0.000000000000000e+00 0.000000000000000e+00
0.000000000000000e+00 0.000000000000000e+00 0.000000000000000e+00
0.000000000000000e+00 0.000000000000000e+00 0.000000000000000e+00
0.000000000000000e+00 0.000000000000000e+00 0.000000000000000e+00
0.000000000000000e+00 0.000000000000000e+00 0.000000000000000e+00
0.000000000000000e+00 0.000000000000000e+00 0.000000000000000e+00
0.000000000000000e+00 0.000000000000000e+00 0.000000000000000e+00
0.000000000000000e+00 0.000000000000000e+00 0.000000000000000e+00
0.000000000000000e+00 0.000000000000000e+00 0.000000000000000e+00
0.000000000000000e+00 0.000000000000000e+00 0.000000000000000e+00
0.000000000000000e+00 0.000000000000000e+00 0.000000000000000e+00
0.000000000000000e+00 0.000000000000000e+00 0.000000000000000e+00
0.000000000000000e+00 0.000000000000000e+00 0.000000000000000e+00
0.000000000000000e+00 0.000000000000000e+00 0.000000000000000e+00
0.000000000000000e+00 0.000000000000000e+00 0.000000000000000e+00
0.000000000000000e+00 0.000000000000000e+00 0.000000000000000e+00
0.000000000000000e+00 0.000000000000000e+00 0.000000000000000e+00
0.000000000000000e+00 0.000000000000000e+00 0.000000000000000e+00
0.000000000000000e+00 0.000000000000000e+00 0.000000000000000e+00
0.000000000000000e+00 0.000000000000000e+00 0.000000000000000e+00
0.000000000000000e+00 0.000000000000000e+00 0.000000000000000e+00
0.000000000000000e+00 0.000000000000000e+00 0.000000000000000e+00
0.000000000000000e+00 0.000000000000000e+00 0.000000000000000e+00
0.000000000000000e+00 0.000000000000000e+00 0.000000000000000e+00
0.000000000000000e+00 0.000000000000000e+00 0.000000000000000e+00
0.000000000000000e+00 0.000000000000000e+00 0.000000000000000e+00
0.000000000000000e+00 0.000000000000000e+00 0.000000000000000e+00
0.000000000000000e+00 0.000000000000000e+00 0.000000000000000e+00
0.000000000000000e+00 0.000000000000000e+00 0.000000000000000e+00
0.000000000000000e+00 0.000000000000000e+00 0.000000000000000e+00
0.000000000000000e+00 0.000000000000000e+00 0.000000000000000e+00
0.000000000000000e+00 0.000000000000000e+00 0.000000000000000e+00
0.000000000000000e+00 0.000000000000000e+00 0.000000000000000e+00
0.000000000000000e+00 0.000000000000000e+00 0.000000000000000e+00
0.000000000000000e+00 0.000000000000000e+00 0.000000000000000e+00
0.000000000000000e+00 0.000000000000000e+00 0.000000000000000e+00
0.000000000000000e+00 0.000000000000000e+00 0.000000000000000e+00
0.000000000000000e+00 0.000000000000000e+00 0.000000000000000e+00
0.000000000000000e+00 0.000000000000000e+00 0.000000000000000e+00
0.000000000000000e+00 0.000000000000000e+00 0.000000000000000e+00
0.000000000000000e+00 0.000000000000000e+00 0.000000000000000e+00
0.000000000000000e+00 0.000000000000000e+00 0.000000000000000e+00
0.000000000000000e+00 0.000000000000000e+00 0.000000000000000e+00
0.000000000000000e+00 0.000000000000000e+00 0.000000000000000e+00
0.000000000000000e+00 0.000000000000000e+00 0.000000000000000e+00
0.000000000000000e+00 0.000000000000000e+00 0.000000000000000e+00
0.000000000000000e+00 0.000000000000000e+00 0.000000000000000e+00
0.000000000000000e+00 0.000000000000000e+00 0.000000000000000e+00
0.000000000000000e+00 0.000000000000000e+00 0.000000000000000e+00
0.000000000000000e+00 0.000000000000000e+00 0.000000000000000e+00
0.000000000000000e+00 0.000000000000000e+00 0.000000000000000e+00
0.000000000000000e+00 0.000000000000000e+00 0.000000000000000e+00
0.000000000000000e+00 0.000000000000000e+00 0.000000000000000e+00
0.000000000000000e+00 0.000000000000000e+00 0.000000000000000e+00
0.000000000000000e+00 0.000000000000000e+00 0.000000000000000e+00
0.000000000000000e+00 0.000000000000000e+00 0.000000000000000e+00
0.000000000000000e+00 0.000000000000000e+00 0.000000000000000e+00
0.000000000000000e+00 0.000000000000000e+00 0.000000000000000e+00
0.000000000000000e+00 0.000000000000000e+00 0.000000000000000e+00
0.000000000000000e+00 0.000000000000000e+00 0.000000000000000e+00
0.000000000000000e+00 0.000000000000000e+00 0.000000000000000e+00
0.000000000000000e+00 0.000000000000000e+00 0.000000000000000e+00
0.000000000000000e+00 0.000000000000000e+00 0.000000000000000e+00
0.000000000000000e+00 0.000000000000000e+00 0.000000000000000e+00
0.000000000000000e+00 0.000000000000000e+00 0.000000000000000e+00
0.000000000000000e+00 0.000000000000000e+00 0.000000000000000e+00
0.000000000000000e+00 0.000000000000000e+00 0.000000000000000e+00
0.000000000000000e+00 0.000000000000000e+00 0.000000000000000e+00
0.000000000000000e+00 0.000000000000000e+00 0.000000000000000e+00
0.000000000000000e+00 0.000000000000000e+00 0.000000000000000e+00
0.000000000000000e+00 0.000000000000000e+00 0.000000000000000e+00
0.000000000000000e+00 0.000000000000000e+00 0.000000000000000e+00
0.000000000000000e+00 0.000000000000000e+00 0.000000000000000e+00
0.000000000000000e+00 0.000000000000000e+00 0.000000000000000e+00
0.000000000000000e+00 0.000000000000000e+00 0.000000000000000e+00
0.000000000000000e+00 0.000000000000000e+00 0.000000000000000e+00
0.000000000000000e+00 0.000000000000000e+00 0.000000000000000e+00
0.000000000000000e+00 0.000000000000000e+00 0.000000000000000e+00
0.000000000000000e+00 0.000000000000000e+00 0.000000000000000e+00
0.000000000000000e+00 0.000000000000000e+00 0.000000000000000e+00
0.000000000000000e+00 0.000000000000000e+00 0.000000000000000e+00
0.000000000000000e+00 0.000000000000000e+00 0.000000000000000e+00
0.000000000000000e+00 0.000000000000000e+00 0.000000000000000e+00
0.000000000000000e+00 0.000000000000000e+00 0.000000000000000e+00
0.000000000000000e+00 0.000000000000000e+00 0.000000000000000e+00
0.000000000000000e+00 0.000000000000000e+00 0.000000000000000e+00
0.000000000000000e+00 0.000000000000000e+00 0.000000000000000e+00
0.000000000000000e+00 0.000000000000000e+00 0.000000000000000e+00
0.000000000000000e+00 0.000000000000000e+00 0.000000000000000e+00
0.000000000000000e+00 0.000000000000000e+00 0.000000000000000e+00
0.000000000000000e+00 0.000000000000000e+00 0.000000000000000e+00
0.000000000000000e+00 0.000000000000000e+00 0.000000000000000e+00
0.000000000000000e+00 0.000000000000000e+00 0.000000000000000e+00
0.000000000000000e+00 0.000000000000000e+00 0.000000000000000e+00
0.000000000000000e+00 0.000000000000000e+00 0.000000000000000e+00
0.000000000000000e+00 0.000000000000000e+00 0.000000000000000e+00
0.000000000000000e+00 0.000000000000000e+00 0.000000000000000e+00
0.000000000000000e+00 0.000000000000000e+00 0.000000000000000e+00
0.000000000000000e+00 0.000000000000000e+00 0.000000000000000e+00
0.000000000000000e+00 0.000000000000000e+00 0.000000000000000e+00
0.000000000000000e+00 0.000000000000000e+00 0.000000000000000e+00
0.000000000000000e+00 0.000000000000000e+00 0.000000000000000e+00
0.000000000000000e+00 0.000000000000000e+00 0.000000000000000e+00
0.000000000000000e+00 0.000000000000000e+00 0.000000000000000e+00
0.000000000000000e+00 0.000000000000000e+00 0.000000000000000e+00
0.000000000000000e+00 0.000000000000000e+00 0.000000000000000e+00
0.000000000000000e+00 0.000000000000000e+00 0.000000000000000e+00
0.000000000000000e+00 0.000000000000000e+00 0.000000000000000e+00
0.000000000000000e+00 0.000000000000000e+00 0.000000000000000e+00
0.000000000000000e+00 0.000000000000000e+00 0.000000000000000e+00
0.000000000000000e+00 0.000000000000000e+00 0.000000000000000e+00
0.000000000000000e+00 0.000000000000000e+00 0.000000000000000e+00
0.000000000000000e+00 0.000000000000000e+00 0.000000000000000e+00
0.000000000000000e+00 0.000000000000000e+00 0.000000000000000e+00
0.000000000000000e+00 0.000000000000000e+00 0.000000000000000e+00
0.000000000000000e+00 0.000000000000000e+00 0.000000000000000e+00
0.000000000000000e+00 0.000000000000000e+00 0.000000000000000e+00
0.000000000000000e+00 0.000000000000000e+00 0.000000000000000e+00
0.000000000000000e+00 0.000000000000000e+00 0.000000000000000e+00
0.000000000000000e+00 0.000000000000000e+00 0.000000000000000e+00
0.000000000000000e+00 0.000000000000000e+00 0.000000000000000e+00
0.000000000000000e+00 0.000000000000000e+00 0.000000000000000e+00
0.000000000000000e+00 0.000000000000000e+00 0.000000000000000e+00
0.000000000000000e+00 0.000000000000000e+00 0.000000000000000e+00
0.000000000000000e+00 0.000000000000000e+00 0.000000000000000e+00
0.000000000000000e+00 0.000000000000000e+00 0.000000000000000e+00
0.000000000000000e+00 0.000000000000000e+00 0.000000000000000e+00
0.000000000000000e+00 0.000000000000000e+00 0.000000000000000e+00
0.000000000000000e+00 0.000000000000000e+00 0.000000000000000e+00
0.000000000000000e+00 0.000000000000000e+00 0.000000000000000e+00
0.000000000000000e+00 0.000000000000000e+00 0.000000000000000e+00
0.000000000000000e+00 0.000000000000000e+00 0.000000000000000e+00
0.000000000000000e+00 0.000000000000000e+00 0.000000000000000e+00
0.000000000000000e+00 0.000000000000000e+00 0.000000000000000e+00
0.000000000000000e+00 0.000000000000000e+00 0.000000000000000e+00
0.000000000000000e+00 0.000000000000000e+00 0.000000000000000e+00
0.000000000000000e+00 0.000000000000000e+00 0.000000000000000e+00
0.000000000000000e+00 0.000000000000000e+00 0.000000000000000e+00
0.000000000000000e+00 0.000000000000000e+00 0.000000000000000e+00
0.000000000000000e+00 0.000000000000000e+00 0.000000000000000e+00
0.000000000000000e+00 0.000000000000000e+00 0.000000000000000e+00
0.000000000000000e+00 0.000000000000000e+00 0.000000000000000e+00
0.000000000000000e+00 0.000000000000000e+00 0.000000000000000e+00
0.000000000000000e+00 0.000000000000000e+00 0.000000000000000e+00
0.000000000000000e+00 0.000000000000000e+00 0.000000000000000e+00
0.000000000000000e+00 0.000000000000000e+00 0.000000000000000e+00
0.000000000000000e+00 0.000000000000000e+00 0.000000000000000e+00
0.000000000000000e+00 0.000000000000000e+00 0.000000000000000e+00
0.000000000000000e+00 0.000000000000000e+00 0.000000000000000e+00
0.000000000000000e+00 0.000000000000000e+00 0.000000000000000e+00
0.000000000000000e+00 0.000000000000000e+00 0.000000000000000e+00
0.000000000000000e+00 0.000000000000000e+00 0.000000000000000e+00
0.000000000000000e+00 0.000000000000000e+00 0.000000000000000e+00
0.000000000000000e+00 0.000000000000000e+00 0.000000000000000e+00
0.000000000000000e+00 0.000000000000000e+00 0.000000000000000e+00
0.000000000000000e+00 0.000000000000000e+00 0.000000000000000e+00
0.000000000000000e+00 0.000000000000000e+00 0.000000000000000e+00
0.000000000000000e+00 0.000000000000000e+00 0.000000000000000e+00
0.000000000000000e+00 0.000000000000000e+00 0.000000000000000e+00
0.000000000000000e+00 0.000000000000000e+00 0.000000000000000e+00
0.000000000000000e+00 0.000000000000000e+00 0.000000000000000e+00
0.000000000000000e+00 0.000000000000000e+00 0.000000000000000e+00
0.000000000000000e+00 0.000000000000000e+00 0.000000000000000e+00
0.000000000000000e+00 0.000000000000000e+00 0.000000000000000e+00
0.000000000000000e+00 0.000000000000000e+00 0.000000000000000e+00
0.000000000000000e+00 0.000000000000000e+00 0.000000000000000e+00
0.000000000000000e+00 0.000000000000000e+00 0.000000000000000e+00
0.000000000000000e+00 0.000000000000000e+00 0.000000000000000e+00
0.000000000000000e+00 0.000000000000000e+00 0.000000000000000e+00
0.000000000000000e+00 0.000000000000000e+00 0.000000000000000e+00
0.000000000000000e+00 0.000000000000000e+00 0.000000000000000e+00
0.000000000000000e+00 0.000000000000000e+00 0.000000000000000e+00
0.000000000000000e+00 0.000000000000000e+00 0.000000000000000e+00
0.000000000000000e+00 0.000000000000000e+00 0.000000000000000e+00
0.000000000000000e+00 0.000000000000000e+00 0.000000000000000e+00
0.000000000000000e+00 0.000000000000000e+00 0.000000000000000e+00
0.000000000000000e+00 0.000000000000000e+00 0.000000000000000e+00
0.000000000000000e+00 0.000000000000000e+00 0.000000000000000e+00
0.000000000000000e+00 0.000000000000000e+00 0.000000000000000e+00
0.000000000000000e+00 0.000000000000000e+00 0.000000000000000e+00
0.000000000000000e+00 0.000000000000000e+00 0.000000000000000e+00
0.000000000000000e+00 0.000000000000000e+00 0.000000000000000e+00
0.000000000000000e+00 0.000000000000000e+00 0.000000000000000e+00
0.000000000000000e+00 0.000000000000000e+00 0.000000000000000e+00
0.000000000000000e+00 0.000000000000000e+00 0.000000000000000e+00
0.000000000000000e+00 0.000000000000000e+00 0.000000000000000e+00
0.000000000000000e+00 0.000000000000000e+00 0.000000000000000e+00
0.000000000000000e+00 0.000000000000000e+00 0.000000000000000e+00
0.000000000000000e+00 0.000000000000000e+00 0.000000000000000e+00
0.000000000000000e+00 0.000000000000000e+00 0.000000000000000e+00
0.000000000000000e+00 0.000000000000000e+00 0.000000000000000e+00
0.000000000000000e+00 0.000000000000000e+00 0.000000000000000e+00
0.000000000000000e+00 0.000000000000000e+00 0.000000000000000e+00
0.000000000000000e+00 0.000000000000000e+00 0.000000000000000e+00
0.000000000000000e+00 0.000000000000000e+00 0.000000000000000e+00
0.000000000000000e+00 0.000000000000000e+00 0.000000000000000e+00
0.000000000000000e+00 0.000000000000000e+00 0.000000000000000e+00
0.000000000000000e+00 0.000000000000000e+00 0.000000000000000e+00
0.000000000000000e+00 0.000000000000000e+00 0.000000000000000e+00
0.000000000000000e+00 0.000000000000000e+00 0.000000000000000e+00
0.000000000000000e+00 0.000000000000000e+00 0.000000000000000e+00
0.000000000000000e+00 0.000000000000000e+00 0.000000000000000e+00
0.000000000000000e+00 0.000000000000000e+00 0.000000000000000e+00
0.000000000000000e+00 0.000000000000000e+00 0.000000000000000e+00
0.000000000000000e+00 0.000000000000000e+00 0.000000000000000e+00
0.000000000000000e+00 0.000000000000000e+00 0.000000000000000e+00
0.000000000000000e+00 0.000000000000000e+00 0.000000000000000e+00
0.000000000000000e+00 0.000000000000000e+00 0.000000000000000e+00
0.000000000000000e+00 0.000000000000000e+00 0.000000000000000e+00
0.000000000000000e+00 0.000000000000000e+00 0.000000000000000e+00
0.000000000000000e+00 0.000000000000000e+00 0.000000000000000e+00
0.000000000000000e+00 0.000000000000000e+00 0.000000000000000e+00
0.000000000000000e+00 0.000000000000000e+00 0.000000000000000e+00
0.000000000000000e+00 0.000000000000000e+00 0.000000000000000e+00
0.000000000000000e+00 0.000000000000000e+00 0.000000000000000e+00
0.000000000000000e+00 0.000000000000000e+00 0.000000000000000e+00
0.000000000000000e+00 0.000000000000000e+00 0.000000000000000e+00
0.000000000000000e+00 0.000000000000000e+00 0.000000000000000e+00
0.000000000000000e+00 0.000000000000000e+00 0.000000000000000e+00
0.000000000000000e+00 0.000000000000000e+00 0.000000000000000e+00
0.000000000000000e+00 0.000000000000000e+00 0.000000000000000e+00
0.000000000000000e+00 0.000000000000000e+00 0.000000000000000e+00
0.000000000000000e+00 0.000000000000000e+00 0.000000000000000e+00
0.000000000000000e+00 0.000000000000000e+00 0.000000000000000e+00
0.000000000000000e+00 0.000000000000000e+00 0.000000000000000e+00
0.000000000000000e+00 0.000000000000000e+00 0.000000000000000e+00
0.000000000000000e+00 0.000000000000000e+00 0.000000000000000e+00
0.000000000000000e+00 0.000000000000000e+00 0.000000000000000e+00
0.000000000000000e+00 0.000000000000000e+00 0.000000000000000e+00
0.000000000000000e+00 0.000000000000000e+00 0.000000000000000e+00
0.000000000000000e+00 0.000000000000000e+00 0.000000000000000e+00
0.000000000000000e+00 0.000000000000000e+00 0.000000000000000e+00
0.000000000000000e+00 0.000000000000000e+00 0.000000000000000e+00
0.000000000000000e+00 0.000000000000000e+00 0.000000000000000e+00
0.000000000000000e+00 0.000000000000000e+00 0.000000000000000e+00
0.000000000000000e+00 0.000000000000000e+00 0.000000000000000e+00
0.000000000000000e+00 0.000000000000000e+00 0.000000000000000e+00
0.000000000000000e+00 0.000000000000000e+00 0.000000000000000e+00
0.000000000000000e+00 0.000000000000000e+00 0.000000000000000e+00
0.000000000000000e+00 0.000000000000000e+00 0.000000000000000e+00
0.000000000000000e+00 0.000000000000000e+00 0.000000000000000e+00
0.000000000000000e+00 0.000000000000000e+00 0.000000000000000e+00
0.000000000000000e+00 0.000000000000000e+00 0.000000000000000e+00
0.000000000000000e+00 0.000000000000000e+00 0.000000000000000e+00
0.000000000000000e+00 0.000000000000000e+00 0.000000000000000e+00
0.000000000000000e+00 0.000000000000000e+00 0.000000000000000e+00
0.000000000000000e+00 0.000000000000000e+00 0.000000000000000e+00
0.000000000000000e+00 0.000000000000000e+00 0.000000000000000e+00
0.000000000000000e+00 0.000000000000000e+00 0.000000000000000e+00
0.000000000000000e+00 0.000000000000000e+00 0.000000000000000e+00
0.000000000000000e+00 0.000000000000000e+00 0.000000000000000e+00
0.000000000000000e+00 0.000000000000000e+00 0.000000000000000e+00
0.000000000000000e+00 0.000000000000000e+00 0.000000000000000e+00
0.000000000000000e+00 0.000000000000000e+00 0.000000000000000e+00
0.000000000000000e+00 0.000000000000000e+00 0.000000000000000e+00
0.000000000000000e+00 0.000000000000000e+00 0.000000000000000e+00
0.000000000000000e+00 0.000000000000000e+00 0.000000000000000e+00
0.000000000000000e+00 0.000000000000000e+00 0.000000000000000e+00
0.000000000000000e+00 0.000000000000000e+00 0.000000000000000e+00
0.000000000000000e+00 0.000000000000000e+00 0.000000000000000e+00
0.000000000000000e+00 0.000000000000000e+00 0.000000000000000e+00
0.000000000000000e+00 0.000000000000000e+00 0.000000000000000e+00
0.000000000000000e+00 0.000000000000000e+00 0.000000000000000e+00
0.000000000000000e+00 0.000000000000000e+00 0.000000000000000e+00
0.000000000000000e+00 0.000000000000000e+00 0.000000000000000e+00
0.000000000000000e+00 0.000000000000000e+00 0.000000000000000e+00
0.000000000000000e+00 0.000000000000000e+00 0.000000000000000e+00
0.000000000000000e+00 0.000000000000000e+00 0.000000000000000e+00
0.000000000000000e+00 0.000000000000000e+00 0.000000000000000e+00
0.000000000000000e+00 0.000000000000000e+00 0.000000000000000e+00
0.000000000000000e+00 0.000000000000000e+00 0.000000000000000e+00
0.000000000000000e+00 0.000000000000000e+00 0.000000000000000e+00
0.000000000000000e+00 0.000000000000000e+00 0.000000000000000e+00
0.000000000000000e+00 0.000000000000000e+00 0.000000000000000e+00
0.000000000000000e+00 0.000000000000000e+00 0.000000000000000e+00
0.000000000000000e+00 0.000000000000000e+00 0.000000000000000e+00
0.000000000000000e+00 0.000000000000000e+00 0.000000000000000e+00
0.000000000000000e+00 0.000000000000000e+00 0.000000000000000e+00
0.000000000000000e+00 0.000000000000000e+00 0.000000000000000e+00
0.000000000000000e+00 0.000000000000000e+00 0.000000000000000e+00
0.000000000000000e+00 0.000000000000000e+00 0.000000000000000e+00
0.000000000000000e+00 0.000000000000000e+00 0.000000000000000e+00
0.000000000000000e+00 0.000000000000000e+00 0.000000000000000e+00
0.000000000000000e+00 0.000000000000000e+00 0.000000000000000e+00
0.000000000000000e+00 0.000000000000000e+00 0.000000000000000e+00
0.000000000000000e+00 0.000000000000000e+00 0.000000000000000e+00
0.000000000000000e+00 0.000000000000000e+00 0.000000000000000e+00
0.000000000000000e+00 0.000000000000000e+00 0.000000000000000e+00
0.000000000000000e+00 0.000000000000000e+00 0.000000000000000e+00
0.000000000000000e+00 0.000000000000000e+00 0.000000000000000e+00
0.000000000000000e+00 0.000000000000000e+00 0.000000000000000e+00
0.000000000000000e+00 0.000000000000000e+00 0.000000000000000e+00
0.000000000000000e+00 0.000000000000000e+00 0.000000000000000e+00
0.000000000000000e+00 0.000000000000000e+00 0.000000000000000e+00
0.000000000000000e+00 0.000000000000000e+00 0.000000000000000e+00
0.000000000000000e+00 0.000000000000000e+00 0.000000000000000e+00
0.000000000000000e+00 0.000000000000000e+00 0.000000000000000e+00
0.000000000000000e+00 0.000000000000000e+00 0.000000000000000e+00
0.000000000000000e+00 0.000000000000000e+00 0.000000000000000e+00
0.000000000000000e+00 0.000000000000000e+00 0.000000000000000e+00
0.000000000000000e+00 0.000000000000000e+00 0.000000000000000e+00
0.000000000000000e+00 0.000000000000000e+00 0.000000000000000e+00
0.000000000000000e+00 0.000000000000000e+00 0.000000000000000e+00
0.000000000000000e+00 0.000000000000000e+00 0.000000000000000e+00
0.000000000000000e+00 0.000000000000000e+00 0.000000000000000e+00
0.000000000000000e+00 0.000000000000000e+00 0.000000000000000e+00
0.000000000000000e+00 0.000000000000000e+00 0.000000000000000e+00
0.000000000000000e+00 0.000000000000000e+00 0.000000000000000e+00
0.000000000000000e+00 0.000000000000000e+00 0.000000000000000e+00
0.000000000000000e+00 0.000000000000000e+00 0.000000000000000e+00
0.000000000000000e+00 0.000000000000000e+00 0.000000000000000e+00
0.000000000000000e+00 0.000000000000000e+00 0.000000000000000e+00
0.000000000000000e+00 0.000000000000000e+00 0.000000000000000e+00
0.000000000000000e+00 0.000000000000000e+00 0.000000000000000e+00
0.000000000000000e+00 0.000000000000000e+00 0.000000000000000e+00
0.000000000000000e+00 0.000000000000000e+00 0.000000000000000e+00
0.000000000000000e+00 0.000000000000000e+00 0.000000000000000e+00
0.000000000000000e+00 0.000000000000000e+00 0.000000000000000e+00
0.000000000000000e+00 0.000000000000000e+00 0.000000000000000e+00
0.000000000000000e+00 0.000000000000000e+00 0.000000000000000e+00
0.000000000000000e+00 0.000000000000000e+00 0.000000000000000e+00
0.000000000000000e+00 0.000000000000000e+00 0.000000000000000e+00
0.000000000000000e+00 0.000000000000000e+00 0.000000000000000e+00
0.000000000000000e+00 0.000000000000000e+00 0.000000000000000e+00
0.000000000000000e+00 0.000000000000000e+00 0.000000000000000e+00
0.000000000000000e+00 0.000000000000000e+00 0.000000000000000e+00
0.000000000000000e+00 0.000000000000000e+00 0.000000000000000e+00
0.000000000000000e+00 0.000000000000000e+00 0.000000000000000e+00
0.000000000000000e+00 0.000000000000000e+00 0.000000000000000e+00
0.000000000000000e+00 0.000000000000000e+00 0.000000000000000e+00
0.000000000000000e+00 0.000000000000000e+00 0.000000000000000e+00
0.000000000000000e+00 0.000000000000000e+00 0.000000000000000e+00
0.000000000000000e+00 0.000000000000000e+00 0.000000000000000e+00
0.000000000000000e+00 0.000000000000000e+00 0.000000000000000e+00
0.000000000000000e+00 0.000000000000000e+00 0.000000000000000e+00
0.000000000000000e+00 0.000000000000000e+00 0.000000000000000e+00
0.000000000000000e+00 0.000000000000000e+00 0.000000000000000e+00
0.000000000000000e+00 0.000000000000000e+00 0.000000000000000e+00
0.000000000000000e+00 0.000000000000000e+00 0.000000000000000e+00
0.000000000000000e+00 0.000000000000000e+00 0.000000000000000e+00
0.000000000000000e+00 0.000000000000000e+00 0.000000000000000e+00
0.000000000000000e+00 0.000000000000000e+00 0.000000000000000e+00
0.000000000000000e+00 0.000000000000000e+00 0.000000000000000e+00
0.000000000000000e+00 0.000000000000000e+00 0.000000000000000e+00
0.000000000000000e+00 0.000000000000000e+00 0.000000000000000e+00
0.000000000000000e+00 0.000000000000000e+00 0.000000000000000e+00
0.000000000000000e+00 0.000000000000000e+00 0.000000000000000e+00
0.000000000000000e+00 0.000000000000000e+00 0.000000000000000e+00
0.000000000000000e+00 0.000000000000000e+00 0.000000000000000e+00
0.000000000000000e+00 0.000000000000000e+00 0.000000000000000e+00
0.000000000000000e+00 0.000000000000000e+00 0.000000000000000e+00
0.000000000000000e+00 0.000000000000000e+00 0.000000000000000e+00
0.000000000000000e+00 0.000000000000000e+00 0.000000000000000e+00
0.000000000000000e+00 0.000000000000000e+00 0.000000000000000e+00
0.000000000000000e+00 0.000000000000000e+00 0.000000000000000e+00
0.000000000000000e+00 0.000000000000000e+00 0.000000000000000e+00
0.000000000000000e+00 0.000000000000000e+00 0.000000000000000e+00
0.000000000000000e+00 0.000000000000000e+00 0.000000000000000e+00
0.000000000000000e+00 0.000000000000000e+00 0.000000000000000e+00
0.000000000000000e+00 0.000000000000000e+00 0.000000000000000e+00
0.000000000000000e+00 0.000000000000000e+00 0.000000000000000e+00
0.000000000000000e+00 0.000000000000000e+00 0.000000000000000e+00
0.000000000000000e+00 0.000000000000000e+00 0.000000000000000e+00
0.000000000000000e+00 0.000000000000000e+00 0.000000000000000e+00
0.000000000000000e+00 0.000000000000000e+00 0.000000000000000e+00
0.000000000000000e+00 0.000000000000000e+00 0.000000000000000e+00
0.000000000000000e+00 0.000000000000000e+00 0.000000000000000e+00
0.000000000000000e+00 0.000000000000000e+00 0.000000000000000e+00
0.000000000000000e+00 0.000000000000000e+00 0.000000000000000e+00
0.000000000000000e+00 0.000000000000000e+00 0.000000000000000e+00
0.000000000000000e+00 0.000000000000000e+00 0.000000000000000e+00
0.000000000000000e+00 0.000000000000000e+00 0.000000000000000e+00
0.000000000000000e+00 0.000000000000000e+00 0.000000000000000e+00
0.000000000000000e+00 0.000000000000000e+00 0.000000000000000e+00
0.000000000000000e+00 0.000000000000000e+00 0.000000000000000e+00
0.000000000000000e+00 0.000000000000000e+00 0.000000000000000e+00
0.000000000000000e+00 0.000000000000000e+00 0.000000000000000e+00
0.000000000000000e+00 0.000000000000000e+00 0.000000000000000e+00
0.000000000000000e+00 0.000000000000000e+00 0.000000000000000e+00
0.000000000000000e+00 0.000000000000000e+00 0.000000000000000e+00
0.000000000000000e+00 0.000000000000000e+00 0.000000000000000e+00
0.000000000000000e+00 0.000000000000000e+00 0.000000000000000e+00
0.000000000000000e+00 0.000000000000000e+00 0.000000000000000e+00
0.000000000000000e+00 0.000000000000000e+00 0.000000000000000e+00
0.000000000000000e+00 0.000000000000000e+00 0.000000000000000e+00
0.000000000000000e+00 0.000000000000000e+00 0.000000000000000e+00
0.000000000000000e+00 0.000000000000000e+00 0.000000000000000e+00
0.000000000000000e+00 0.000000000000000e+00 0.000000000000000e+00
0.000000000000000e+00 0.000000000000000e+00 0.000000000000000e+00
0.000000000000000e+00 0.000000000000000e+00 0.000000000000000e+00
0.000000000000000e+00 0.000000000000000e+00 0.000000000000000e+00
0.000000000000000e+00 0.000000000000000e+00 0.000000000000000e+00
0.000000000000000e+00 0.000000000000000e+00 0.000000000000000e+00
0.000000000000000e+00 0.000000000000000e+00 0.000000000000000e+00
0.000000000000000e+00 0.000000000000000e+00 0.000000000000000e+00
0.000000000000000e+00 0.000000000000000e+00 0.000000000000000e+00
0.000000000000000e+00 0.000000000000000e+00 0.000000000000000e+00
0.000000000000000e+00 0.000000000000000e+00 0.000000000000000e+00
0.000000000000000e+00 0.000000000000000e+00 0.000000000000000e+00
0.000000000000000e+00 0.000000000000000e+00 0.000000000000000e+00
0.000000000000000e+00 0.000000000000000e+00 0.000000000000000e+00
0.000000000000000e+00 0.000000000000000e+00 0.000000000000000e+00
0.000000000000000e+00 0.000000000000000e+00 0.000000000000000e+00
0.000000000000000e+00 0.000000000000000e+00 0.000000000000000e+00
0.000000000000000e+00 0.000000000000000e+00 0.000000000000000e+00
0.000000000000000e+00 0.000000000000000e+00 0.000000000000000e+00
0.000000000000000e+00 0.000000000000000e+00 0.000000000000000e+00
0.000000000000000e+00 0.000000000000000e+00 0.000000000000000e+00
0.000000000000000e+00 0.000000000000000e+00 0.000000000000000e+00
0.000000000000000e+00 0.000000000000000e+00 0.000000000000000e+00
0.000000000000000e+00 0.000000000000000e+00 0.000000000000000e+00
0.000000000000000e+00 0.000000000000000e+00 0.000000000000000e+00
0.000000000000000e+00 0.000000000000000e+00 0.000000000000000e+00
0.000000000000000e+00 0.000000000000000e+00 0.000000000000000e+00
0.000000000000000e+00 0.000000000000000e+00 0.000000000000000e+00
0.000000000000000e+00 0.000000000000000e+00 0.000000000000000e+00
0.000000000000000e+00 0.000000000000000e+00 0.000000000000000e+00
0.000000000000000e+00 0.000000000000000e+00 0.000000000000000e+00
0.000000000000000e+00 0.000000000000000e+00 0.000000000000000e+00
0.000000000000000e+00 0.000000000000000e+00 0.000000000000000e+00
0.000000000000000e+00 0.000000000000000e+00 0.000000000000000e+00
0.000000000000000e+00 0.000000000000000e+00 0.000000000000000e+00
0.000000000000000e+00 0.000000000000000e+00 0.000000000000000e+00
0.000000000000000e+00 0.000000000000000e+00 0.000000000000000e+00
0.000000000000000e+00 0.000000000000000e+00 0.000000000000000e+00
0.000000000000000e+00 0.000000000000000e+00 0.000000000000000e+00
0.000000000000000e+00 0.000000000000000e+00 0.000000000000000e+00
0.000000000000000e+00 0.000000000000000e+00 0.000000000000000e+00
0.000000000000000e+00 0.000000000000000e+00 0.000000000000000e+00
0.000000000000000e+00 0.000000000000000e+00 0.000000000000000e+00
0.000000000000000e+00 0.000000000000000e+00 0.000000000000000e+00
0.000000000000000e+00 0.000000000000000e+00 0.000000000000000e+00
0.000000000000000e+00 0.000000000000000e+00 0.000000000000000e+00
0.000000000000000e+00 0.000000000000000e+00 0.000000000000000e+00
0.000000000000000e+00 0.000000000000000e+00 0.000000000000000e+00
0.000000000000000e+00 0.000000000000000e+00 0.000000000000000e+00
0.000000000000000e+00 0.000000000000000e+00 0.000000000000000e+00
0.000000000000000e+00 0.000000000000000e+00 0.000000000000000e+00
0.000000000000000e+00 0.000000000000000e+00 0.000000000000000e+00
0.000000000000000e+00 0.000000000000000e+00 0.000000000000000e+00
0.000000000000000e+00 0.000000000000000e+00 0.000000000000000e+00
0.000000000000000e+00 0.000000000000000e+00 0.000000000000000e+00
0.000000000000000e+00 0.000000000000000e+00 0.000000000000000e+00
0.000000000000000e+00 0.000000000000000e+00 0.000000000000000e+00
0.000000000000000e+00 0.000000000000000e+00 0.000000000000000e+00
0.000000000000000e+00 0.000000000000000e+00 0.000000000000000e+00
0.000000000000000e+00 0.000000000000000e+00 0.000000000000000e+00
0.000000000000000e+00 0.000000000000000e+00 0.000000000000000e+00
0.000000000000000e+00 0.000000000000000e+00 0.000000000000000e+00
0.000000000000000e+00 0.000000000000000e+00 0.000000000000000e+00
0.000000000000000e+00 0.000000000000000e+00 0.000000000000000e+00
0.000000000000000e+00 0.000000000000000e+00 0.000000000000000e+00
0.000000000000000e+00 0.000000000000000e+00 0.000000000000000e+00
0.000000000000000e+00 0.000000000000000e+00 0.000000000000000e+00
0.000000000000000e+00 0.000000000000000e+00 0.000000000000000e+00
0.000000000000000e+00 0.000000000000000e+00 0.000000000000000e+00
0.000000000000000e+00 0.000000000000000e+00 0.000000000000000e+00
0.000000000000000e+00 0.000000000000000e+00 0.000000000000000e+00
0.000000000000000e+00 0.000000000000000e+00 0.000000000000000e+00
0.000000000000000e+00 0.000000000000000e+00 0.000000000000000e+00
0.000000000000000e+00 0.000000000000000e+00 0.000000000000000e+00
0.000000000000000e+00 0.000000000000000e+00 0.000000000000000e+00
0.000000000000000e+00 0.000000000000000e+00 0.000000000000000e+00
0.000000000000000e+00 0.000000000000000e+00 0.000000000000000e+00
0.000000000000000e+00 0.000000000000000e+00 0.000000000000000e+00
0.000000000000000e+00 0.000000000000000e+00 0.000000000000000e+00
0.000000000000000e+00 0.000000000000000e+00 0.000000000000000e+00
0.000000000000000e+00 0.000000000000000e+00 0.000000000000000e+00
0.000000000000000e+00 0.000000000000000e+00 0.000000000000000e+00
0.000000000000000e+00 0.000000000000000e+00 0.000000000000000e+00
0.000000000000000e+00 0.000000000000000e+00 0.000000000000000e+00
0.000000000000000e+00 0.000000000000000e+00 0.000000000000000e+00
0.000000000000000e+00 0.000000000000000e+00 0.000000000000000e+00
0.000000000000000e+00 0.000000000000000e+00 0.000000000000000e+00
0.000000000000000e+00 0.000000000000000e+00 0.000000000000000e+00
0.000000000000000e+00 0.000000000000000e+00 0.000000000000000e+00
0.000000000000000e+00 0.000000000000000e+00 0.000000000000000e+00
0.000000000000000e+00 0.000000000000000e+00 0.000000000000000e+00
0.000000000000000e+00 0.000000000000000e+00 0.000000000000000e+00
0.000000000000000e+00 0.000000000000000e+00 0.000000000000000e+00
0.000000000000000e+00 0.000000000000000e+00 0.000000000000000e+00
0.000000000000000e+00 0.000000000000000e+00 0.000000000000000e+00
0.000000000000000e+00 0.000000000000000e+00 0.000000000000000e+00
0.000000000000000e+00 0.000000000000000e+00 0.000000000000000e+00
0.000000000000000e+00 0.000000000000000e+00 0.000000000000000e+00
0.000000000000000e+00 0.000000000000000e+00 0.000000000000000e+00
0.000000000000000e+00 0.000000000000000e+00 0.000000000000000e+00
0.000000000000000e+00 0.000000000000000e+00 0.000000000000000e+00
0.000000000000000e+00 0.000000000000000e+00 0.000000000000000e+00
0.000000000000000e+00 0.000000000000000e+00 0.000000000000000e+00
0.000000000000000e+00 0.000000000000000e+00 0.000000000000000e+00
0.000000000000000e+00 0.000000000000000e+00 0.000000000000000e+00
0.000000000000000e+00 0.000000000000000e+00 0.000000000000000e+00
0.000000000000000e+00 0.000000000000000e+00 0.000000000000000e+00
0.000000000000000e+00 0.000000000000000e+00 0.000000000000000e+00
0.000000000000000e+00 0.000000000000000e+00 0.000000000000000e+00
0.000000000000000e+00 0.000000000000000e+00 0.000000000000000e+00
0.000000000000000e+00 0.000000000000000e+00 0.000000000000000e+00
0.000000000000000e+00 0.000000000000000e+00 0.000000000000000e+00
0.000000000000000e+00 0.000000000000000e+00 0.000000000000000e+00
0.000000000000000e+00 0.000000000000000e+00 0.000000000000000e+00
0.000000000000000e+00 0.000000000000000e+00 0.000000000000000e+00
0.000000000000000e+00 0.000000000000000e+00 0.000000000000000e+00
0.000000000000000e+00 0.000000000000000e+00 0.000000000000000e+00
0.000000000000000e+00 0.000000000000000e+00 0.000000000000000e+00
0.000000000000000e+00 0.000000000000000e+00 0.000000000000000e+00
0.000000000000000e+00 0.000000000000000e+00 0.000000000000000e+00
0.000000000000000e+00 0.000000000000000e+00 0.000000000000000e+00
0.000000000000000e+00 0.000000000000000e+00 0.000000000000000e+00
0.000000000000000e+00 0.000000000000000e+00 0.000000000000000e+00
0.000000000000000e+00 0.000000000000000e+00 0.000000000000000e+00
0.000000000000000e+00 0.000000000000000e+00 0.000000000000000e+00
0.000000000000000e+00 0.000000000000000e+00 0.000000000000000e+00
0.000000000000000e+00 0.000000000000000e+00 0.000000000000000e+00
0.000000000000000e+00 0.000000000000000e+00 0.000000000000000e+00
0.000000000000000e+00 0.000000000000000e+00 0.000000000000000e+00
0.000000000000000e+00 0.000000000000000e+00 0.000000000000000e+00
0.000000000000000e+00 0.000000000000000e+00 0.000000000000000e+00
0.000000000000000e+00 0.000000000000000e+00 0.000000000000000e+00
0.000000000000000e+00 0.000000000000000e+00 0.000000000000000e+00
0.000000000000000e+00 0.000000000000000e+00 0.000000000000000e+00
0.000000000000000e+00 0.000000000000000e+00 0.000000000000000e+00
0.000000000000000e+00 0.000000000000000e+00 0.000000000000000e+00
0.000000000000000e+00 0.000000000000000e+00 0.000000000000000e+00
0.000000000000000e+00 0.000000000000000e+00 0.000000000000000e+00
0.000000000000000e+00 0.000000000000000e+00 0.000000000000000e+00
0.000000000000000e+00 0.000000000000000e+00 0.000000000000000e+00
0.000000000000000e+00 0.000000000000000e+00 0.000000000000000e+00
0.000000000000000e+00 0.000000000000000e+00 0.000000000000000e+00
0.000000000000000e+00 0.000000000000000e+00 0.000000000000000e+00
0.000000000000000e+00 0.000000000000000e+00 0.000000000000000e+00
0.000000000000000e+00 0.000000000000000e+00 0.000000000000000e+00
0.000000000000000e+00 0.000000000000000e+00 0.000000000000000e+00
0.000000000000000e+00 0.000000000000000e+00 0.000000000000000e+00
0.000000000000000e+00 0.000000000000000e+00 0.000000000000000e+00
0.000000000000000e+00 0.000000000000000e+00 0.000000000000000e+00
0.000000000000000e+00 0.000000000000000e+00 0.000000000000000e+00
0.000000000000000e+00 0.000000000000000e+00 0.000000000000000e+00
0.000000000000000e+00 0.000000000000000e+00 0.000000000000000e+00
0.000000000000000e+00 0.000000000000000e+00 0.000000000000000e+00
0.000000000000000e+00 0.000000000000000e+00 0.000000000000000e+00
0.000000000000000e+00 0.000000000000000e+00 0.000000000000000e+00
0.000000000000000e+00 0.000000000000000e+00 0.000000000000000e+00
0.000000000000000e+00 0.000000000000000e+00 0.000000000000000e+00
0.000000000000000e+00 0.000000000000000e+00 0.000000000000000e+00
0.000000000000000e+00 0.000000000000000e+00 0.000000000000000e+00
0.000000000000000e+00 0.000000000000000e+00 0.000000000000000e+00
0.000000000000000e+00 0.000000000000000e+00 0.000000000000000e+00
0.000000000000000e+00 0.000000000000000e+00 0.000000000000000e+00
0.000000000000000e+00 0.000000000000000e+00 0.000000000000000e+00
0.000000000000000e+00 0.000000000000000e+00 0.000000000000000e+00
0.000000000000000e+00 0.000000000000000e+00 0.000000000000000e+00
0.000000000000000e+00 0.000000000000000e+00 0.000000000000000e+00
0.000000000000000e+00 0.000000000000000e+00 0.000000000000000e+00
0.000000000000000e+00 0.000000000000000e+00 0.000000000000000e+00
0.000000000000000e+00 0.000000000000000e+00 0.000000000000000e+00
0.000000000000000e+00 0.000000000000000e+00 0.000000000000000e+00
0.000000000000000e+00 0.000000000000000e+00 0.000000000000000e+00
0.000000000000000e+00 0.000000000000000e+00 0.000000000000000e+00
0.000000000000000e+00 0.000000000000000e+00 0.000000000000000e+00
0.000000000000000e+00 0.000000000000000e+00 0.000000000000000e+00
0.000000000000000e+00 0.000000000000000e+00 0.000000000000000e+00
0.000000000000000e+00 0.000000000000000e+00 0.000000000000000e+00
0.000000000000000e+00 0.000000000000000e+00 0.000000000000000e+00
0.000000000000000e+00 0.000000000000000e+00 0.000000000000000e+00
0.000000000000000e+00 0.000000000000000e+00 0.000000000000000e+00
0.000000000000000e+00 0.000000000000000e+00 0.000000000000000e+00
0.000000000000000e+00 0.000000000000000e+00 0.000000000000000e+00
0.000000000000000e+00 0.000000000000000e+00 0.000000000000000e+00
0.000000000000000e+00 0.000000000000000e+00 0.000000000000000e+00
0.000000000000000e+00 0.000000000000000e+00 0.000000000000000e+00
0.000000000000000e+00 0.000000000000000e+00 0.000000000000000e+00
0.000000000000000e+00 0.000000000000000e+00 0.000000000000000e+00
0.000000000000000e+00 0.000000000000000e+00 0.000000000000000e+00
0.000000000000000e+00 0.000000000000000e+00 0.000000000000000e+00
0.000000000000000e+00 0.000000000000000e+00 0.000000000000000e+00
0.000000000000000e+00 0.000000000000000e+00 0.000000000000000e+00
0.000000000000000e+00 0.000000000000000e+00 0.000000000000000e+00
0.000000000000000e+00 0.000000000000000e+00 0.000000000000000e+00
0.000000000000000e+00 0.000000000000000e+00 0.000000000000000e+00
0.000000000000000e+00 0.000000000000000e+00 0.000000000000000e+00
0.000000000000000e+00 0.000000000000000e+00 0.000000000000000e+00
0.000000000000000e+00 0.000000000000000e+00 0.000000000000000e+00
0.000000000000000e+00 0.000000000000000e+00 0.000000000000000e+00
0.000000000000000e+00 0.000000000000000e+00 0.000000000000000e+00
0.000000000000000e+00 0.000000000000000e+00 0.000000000000000e+00
0.000000000000000e+00 0.000000000000000e+00 0.000000000000000e+00
0.000000000000000e+00 0.000000000000000e+00 0.000000000000000e+00
0.000000000000000e+00 0.000000000000000e+00 0.000000000000000e+00
0.000000000000000e+00 0.000000000000000e+00 0.000000000000000e+00
0.000000000000000e+00 0.000000000000000e+00 0.000000000000000e+00
0.000000000000000e+00 0.000000000000000e+00 0.000000000000000e+00
0.000000000000000e+00 0.000000000000000e+00 0.000000000000000e+00
0.000000000000000e+00 0.000000000000000e+00 0.000000000000000e+00
0.000000000000000e+00 0.000000000000000e+00 0.000000000000000e+00
0.000000000000000e+00 0.000000000000000e+00 0.000000000000000e+00
0.000000000000000e+00 0.000000000000000e+00 0.000000000000000e+00
0.000000000000000e+00 0.000000000000000e+00 0.000000000000000e+00
0.000000000000000e+00 0.000000000000000e+00 0.000000000000000e+00
0.000000000000000e+00 0.000000000000000e+00 0.000000000000000e+00
0.000000000000000e+00 0.000000000000000e+00 0.000000000000000e+00
0.000000000000000e+00 0.000000000000000e+00 0.000000000000000e+00
0.000000000000000e+00 0.000000000000000e+00 0.000000000000000e+00
0.000000000000000e+00 0.000000000000000e+00 0.000000000000000e+00
0.000000000000000e+00 0.000000000000000e+00 0.000000000000000e+00
0.000000000000000e+00 0.000000000000000e+00 0.000000000000000e+00
0.000000000000000e+00 0.000000000000000e+00 0.000000000000000e+00
0.000000000000000e+00 0.000000000000000e+00 0.000000000000000e+00
0.000000000000000e+00 0.000000000000000e+00 0.000000000000000e+00
0.000000000000000e+00 0.000000000000000e+00 0.000000000000000e+00
0.000000000000000e+00 0.000000000000000e+00 0.000000000000000e+00
0.000000000000000e+00 0.000000000000000e+00 0.000000000000000e+00
0.000000000000000e+00 0.000000000000000e+00 0.000000000000000e+00
0.000000000000000e+00 0.000000000000000e+00 0.000000000000000e+00
0.000000000000000e+00 0.000000000000000e+00 0.000000000000000e+00
0.000000000000000e+00 0.000000000000000e+00 0.000000000000000e+00
0.000000000000000e+00 0.000000000000000e+00 0.000000000000000e+00
0.000000000000000e+00 0.000000000000000e+00 0.000000000000000e+00
0.000000000000000e+00 0.000000000000000e+00 0.000000000000000e+00
0.000000000000000e+00 0.000000000000000e+00 0.000000000000000e+00
0.000000000000000e+00 0.000000000000000e+00 0.000000000000000e+00
0.000000000000000e+00 0.000000000000000e+00 0.000000000000000e+00
0.000000000000000e+00 0.000000000000000e+00 0.000000000000000e+00
0.000000000000000e+00 0.000000000000000e+00 0.000000000000000e+00
0.000000000000000e+00 0.000000000000000e+00 0.000000000000000e+00
0.000000000000000e+00 0.000000000000000e+00 0.000000000000000e+00
0.000000000000000e+00 0.000000000000000e+00 0.000000000000000e+00
0.000000000000000e+00 0.000000000000000e+00 0.000000000000000e+00
0.000000000000000e+00 0.000000000000000e+00 0.000000000000000e+00
0.000000000000000e+00 0.000000000000000e+00 0.000000000000000e+00
0.000000000000000e+00 0.000000000000000e+00 0.000000000000000e+00
0.000000000000000e+00 0.000000000000000e+00 0.000000000000000e+00
0.000000000000000e+00 0.000000000000000e+00 0.000000000000000e+00
0.000000000000000e+00 0.000000000000000e+00 0.000000000000000e+00
0.000000000000000e+00 0.000000000000000e+00 0.000000000000000e+00
0.000000000000000e+00 0.000000000000000e+00 0.000000000000000e+00
0.000000000000000e+00 0.000000000000000e+00 0.000000000000000e+00
0.000000000000000e+00 0.000000000000000e+00 0.000000000000000e+00
0.000000000000000e+00 0.000000000000000e+00 0.000000000000000e+00
0.000000000000000e+00 0.000000000000000e+00 0.000000000000000e+00
0.000000000000000e+00 0.000000000000000e+00 0.000000000000000e+00
0.000000000000000e+00 0.000000000000000e+00 0.000000000000000e+00
0.000000000000000e+00 0.000000000000000e+00 0.000000000000000e+00
0.000000000000000e+00 0.000000000000000e+00 0.000000000000000e+00
0.000000000000000e+00 0.000000000000000e+00 0.000000000000000e+00
0.000000000000000e+00 0.000000000000000e+00 0.000000000000000e+00
0.000000000000000e+00 0.000000000000000e+00 0.000000000000000e+00
0.000000000000000e+00 0.000000000000000e+00 0.000000000000000e+00
0.000000000000000e+00 0.000000000000000e+00 0.000000000000000e+00
0.000000000000000e+00 0.000000000000000e+00 0.000000000000000e+00
0.000000000000000e+00 0.000000000000000e+00 0.000000000000000e+00
0.000000000000000e+00 0.000000000000000e+00 0.000000000000000e+00
0.000000000000000e+00 0.000000000000000e+00 0.000000000000000e+00
0.000000000000000e+00 0.000000000000000e+00 0.000000000000000e+00
0.000000000000000e+00 0.000000000000000e+00 0.000000000000000e+00
0.000000000000000e+00 0.000000000000000e+00 0.000000000000000e+00
0.000000000000000e+00 0.000000000000000e+00 0.000000000000000e+00
0.000000000000000e+00 0.000000000000000e+00 0.000000000000000e+00
0.000000000000000e+00 0.000000000000000e+00 0.000000000000000e+00
0.000000000000000e+00 0.000000000000000e+00 0.000000000000000e+00
0.000000000000000e+00 0.000000000000000e+00 0.000000000000000e+00
0.000000000000000e+00 0.000000000000000e+00 0.000000000000000e+00
0.000000000000000e+00 0.000000000000000e+00 0.000000000000000e+00
0.000000000000000e+00 0.000000000000000e+00 0.000000000000000e+00
0.000000000000000e+00 0.000000000000000e+00 0.000000000000000e+00
0.000000000000000e+00 0.000000000000000e+00 0.000000000000000e+00
0.000000000000000e+00 0.000000000000000e+00 0.000000000000000e+00
0.000000000000000e+00 0.000000000000000e+00 0.000000000000000e+00
0.000000000000000e+00 0.000000000000000e+00 0.000000000000000e+00
0.000000000000000e+00 0.000000000000000e+00 0.000000000000000e+00
0.000000000000000e+00 0.000000000000000e+00 0.000000000000000e+00
0.000000000000000e+00 0.000000000000000e+00 0.000000000000000e+00
0.000000000000000e+00 0.000000000000000e+00 0.000000000000000e+00
0.000000000000000e+00 0.000000000000000e+00 0.000000000000000e+00
0.000000000000000e+00 0.000000000000000e+00 0.000000000000000e+00
0.000000000000000e+00 0.000000000000000e+00 0.000000000000000e+00
0.000000000000000e+00 0.000000000000000e+00 0.000000000000000e+00
0.000000000000000e+00 0.000000000000000e+00 0.000000000000000e+00
0.000000000000000e+00 0.000000000000000e+00 0.000000000000000e+00
0.000000000000000e+00 0.000000000000000e+00 0.000000000000000e+00
0.000000000000000e+00 0.000000000000000e+00 0.000000000000000e+00
0.000000000000000e+00 0.000000000000000e+00 0.000000000000000e+00
0.000000000000000e+00 0.000000000000000e+00 0.000000000000000e+00
0.000000000000000e+00 0.000000000000000e+00 0.000000000000000e+00
0.000000000000000e+00 0.000000000000000e+00 0.000000000000000e+00
0.000000000000000e+00 0.000000000000000e+00 0.000000000000000e+00
0.000000000000000e+00 0.000000000000000e+00 0.000000000000000e+00
0.000000000000000e+00 0.000000000000000e+00 0.000000000000000e+00
0.000000000000000e+00 0.000000000000000e+00 0.000000000000000e+00
0.000000000000000e+00 0.000000000000000e+00 0.000000000000000e+00
0.000000000000000e+00 0.000000000000000e+00 0.000000000000000e+00
0.000000000000000e+00 0.000000000000000e+00 0.000000000000000e+00
0.000000000000000e+00 0.000000000000000e+00 0.000000000000000e+00
0.000000000000000e+00 0.000000000000000e+00 0.000000000000000e+00
0.000000000000000e+00 0.000000000000000e+00 0.000000000000000e+00
0.000000000000000e+00 0.000000000000000e+00 0.000000000000000e+00
0.000000000000000e+00 0.000000000000000e+00 0.000000000000000e+00
0.000000000000000e+00 0.000000000000000e+00 0.000000000000000e+00
0.000000000000000e+00 0.000000000000000e+00 0.000000000000000e+00
0.000000000000000e+00 0.000000000000000e+00 0.000000000000000e+00
0.000000000000000e+00 0.000000000000000e+00 0.000000000000000e+00
0.000000000000000e+00 0.000000000000000e+00 0.000000000000000e+00
0.000000000000000e+00 0.000000000000000e+00 0.000000000000000e+00
0.000000000000000e+00 0.000000000000000e+00 0.000000000000000e+00
0.000000000000000e+00 0.000000000000000e+00 0.000000000000000e+00
0.000000000000000e+00 0.000000000000000e+00 0.000000000000000e+00
0.000000000000000e+00 0.000000000000000e+00 0.000000000000000e+00
0.000000000000000e+00 0.000000000000000e+00 0.000000000000000e+00
0.000000000000000e+00 0.000000000000000e+00 0.000000000000000e+00
0.000000000000000e+00 0.000000000000000e+00 0.000000000000000e+00
0.000000000000000e+00 0.000000000000000e+00 0.000000000000000e+00
0.000000000000000e+00 0.000000000000000e+00 0.000000000000000e+00
0.000000000000000e+00 0.000000000000000e+00 0.000000000000000e+00
0.000000000000000e+00 0.000000000000000e+00 0.000000000000000e+00
0.000000000000000e+00 0.000000000000000e+00 0.000000000000000e+00
0.000000000000000e+00 0.000000000000000e+00 0.000000000000000e+00
0.000000000000000e+00 0.000000000000000e+00 0.000000000000000e+00
0.000000000000000e+00 0.000000000000000e+00 0.000000000000000e+00
0.000000000000000e+00 0.000000000000000e+00 0.000000000000000e+00
0.000000000000000e+00 0.000000000000000e+00 0.000000000000000e+00
0.000000000000000e+00 0.000000000000000e+00 0.000000000000000e+00
0.000000000000000e+00 0.000000000000000e+00 0.000000000000000e+00
0.000000000000000e+00 0.000000000000000e+00 0.000000000000000e+00
0.000000000000000e+00 0.000000000000000e+00 0.000000000000000e+00
0.000000000000000e+00 0.000000000000000e+00 0.000000000000000e+00
0.000000000000000e+00 0.000000000000000e+00 0.000000000000000e+00
0.000000000000000e+00 0.000000000000000e+00 0.000000000000000e+00
0.000000000000000e+00 0.000000000000000e+00 0.000000000000000e+00
0.000000000000000e+00 0.000000000000000e+00 0.000000000000000e+00
0.000000000000000e+00 0.000000000000000e+00 0.000000000000000e+00
0.000000000000000e+00 0.000000000000000e+00 0.000000000000000e+00
0.000000000000000e+00 0.000000000000000e+00 0.000000000000000e+00
0.000000000000000e+00 0.000000000000000e+00 0.000000000000000e+00
0.000000000000000e+00 0.000000000000000e+00 0.000000000000000e+00
0.000000000000000e+00 0.000000000000000e+00 0.000000000000000e+00
0.000000000000000e+00 0.000000000000000e+00 0.000000000000000e+00
0.000000000000000e+00 0.000000000000000e+00 0.000000000000000e+00
0.000000000000000e+00 0.000000000000000e+00 0.000000000000000e+00
0.000000000000000e+00 0.000000000000000e+00 0.000000000000000e+00
0.000000000000000e+00 0.000000000000000e+00 0.000000000000000e+00
0.000000000000000e+00 0.000000000000000e+00 0.000000000000000e+00
0.000000000000000e+00 0.000000000000000e+00 0.000000000000000e+00
0.000000000000000e+00 0.000000000000000e+00 0.000000000000000e+00
0.000000000000000e+00 0.000000000000000e+00 0.000000000000000e+00
0.000000000000000e+00 0.000000000000000e+00 0.000000000000000e+00
0.000000000000000e+00 0.000000000000000e+00 0.000000000000000e+00
0.000000000000000e+00 0.000000000000000e+00 0.000000000000000e+00
0.000000000000000e+00 0.000000000000000e+00 0.000000000000000e+00
0.000000000000000e+00 0.000000000000000e+00 0.000000000000000e+00
0.000000000000000e+00 0.000000000000000e+00 0.000000000000000e+00
0.000000000000000e+00 0.000000000000000e+00 0.000000000000000e+00
0.000000000000000e+00 0.000000000000000e+00 0.000000000000000e+00
0.000000000000000e+00 0.000000000000000e+00 0.000000000000000e+00
0.000000000000000e+00 0.000000000000000e+00 0.000000000000000e+00
0.000000000000000e+00 0.000000000000000e+00 0.000000000000000e+00
0.000000000000000e+00 0.000000000000000e+00 0.000000000000000e+00
0.000000000000000e+00 0.000000000000000e+00 0.000000000000000e+00
0.000000000000000e+00 0.000000000000000e+00 0.000000000000000e+00
0.000000000000000e+00 0.000000000000000e+00 0.000000000000000e+00
0.000000000000000e+00 0.000000000000000e+00 0.000000000000000e+00
0.000000000000000e+00 0.000000000000000e+00 0.000000000000000e+00
0.000000000000000e+00 0.000000000000000e+00 0.000000000000000e+00
0.000000000000000e+00 0.000000000000000e+00 0.000000000000000e+00
0.000000000000000e+00 0.000000000000000e+00 0.000000000000000e+00
0.000000000000000e+00 0.000000000000000e+00 0.000000000000000e+00
0.000000000000000e+00 0.000000000000000e+00 0.000000000000000e+00
0.000000000000000e+00 0.000000000000000e+00 0.000000000000000e+00
0.000000000000000e+00 0.000000000000000e+00 0.000000000000000e+00
0.000000000000000e+00 0.000000000000000e+00 0.000000000000000e+00
0.000000000000000e+00 0.000000000000000e+00 0.000000000000000e+00
0.000000000000000e+00 0.000000000000000e+00 0.000000000000000e+00
0.000000000000000e+00 0.000000000000000e+00 0.000000000000000e+00
0.000000000000000e+00 0.000000000000000e+00 0.000000000000000e+00
0.000000000000000e+00 0.000000000000000e+00 0.000000000000000e+00
0.000000000000000e+00 0.000000000000000e+00 0.000000000000000e+00
0.000000000000000e+00 0.000000000000000e+00 0.000000000000000e+00
0.000000000000000e+00 0.000000000000000e+00 0.000000000000000e+00
0.000000000000000e+00 0.000000000000000e+00 0.000000000000000e+00
0.000000000000000e+00 0.000000000000000e+00 0.000000000000000e+00
0.000000000000000e+00 0.000000000000000e+00 0.000000000000000e+00
0.000000000000000e+00 0.000000000000000e+00 0.000000000000000e+00
0.000000000000000e+00 0.000000000000000e+00 0.000000000000000e+00
0.000000000000000e+00 0.000000000000000e+00 0.000000000000000e+00
0.000000000000000e+00 0.000000000000000e+00 0.000000000000000e+00
0.000000000000000e+00 0.000000000000000e+00 0.000000000000000e+00
0.000000000000000e+00 0.000000000000000e+00 0.000000000000000e+00
0.000000000000000e+00 0.000000000000000e+00 0.000000000000000e+00
0.000000000000000e+00 0.000000000000000e+00 0.000000000000000e+00
0.000000000000000e+00 0.000000000000000e+00 0.000000000000000e+00
0.000000000000000e+00 0.000000000000000e+00 0.000000000000000e+00
0.000000000000000e+00 0.000000000000000e+00 0.000000000000000e+00
0.000000000000000e+00 0.000000000000000e+00 0.000000000000000e+00
0.000000000000000e+00 0.000000000000000e+00 0.000000000000000e+00
0.000000000000000e+00 0.000000000000000e+00 0.000000000000000e+00
0.000000000000000e+00 0.000000000000000e+00 0.000000000000000e+00
0.000000000000000e+00 0.000000000000000e+00 0.000000000000000e+00
0.000000000000000e+00 0.000000000000000e+00 0.000000000000000e+00
0.000000000000000e+00 0.000000000000000e+00 0.000000000000000e+00
0.000000000000000e+00 0.000000000000000e+00 0.000000000000000e+00
0.000000000000000e+00 0.000000000000000e+00 0.000000000000000e+00
0.000000000000000e+00 0.000000000000000e+00 0.000000000000000e+00
0.000000000000000e+00 0.000000000000000e+00 0.000000000000000e+00
0.000000000000000e+00 0.000000000000000e+00 0.000000000000000e+00
0.000000000000000e+00 0.000000000000000e+00 0.000000000000000e+00
0.000000000000000e+00 0.000000000000000e+00 0.000000000000000e+00
0.000000000000000e+00 0.000000000000000e+00 0.000000000000000e+00
0.000000000000000e+00 0.000000000000000e+00 0.000000000000000e+00
0.000000000000000e+00 0.000000000000000e+00 0.000000000000000e+00
6.592765801398226e-03 2.590355524306293e-05 3.057624869295749e-19
 6.818617051733177e-03 -2.034974451556717e-04  3.106837448834512e-19
6.790570955401282e-03 2.098450512521755e-03 3.016039520044470e-19
 7.096048627932994e-03 -6.494853690390037e-04  3.151862129455270e-19
 6.410902040444222e-03 -6.771016669289009e-04  3.062553786661513e-19
6.511560794062574e-03 8.798346789979652e-04 3.007333312110415e-19
7.031981688665640e-03 3.967707056303401e-04 3.153191302798184e-19
 6.802143064919331e-03 -1.974861929411452e-04  3.081882752486890e-19
 6.801380774205596e-03 -1.974640614026678e-04  3.128433924697384e-19
6.782475751411624e-03 6.592224099355595e-04 3.090552918306793e-19
6.941729548611369e-03 2.189830826707977e-05 3.148011104008503e-19
6.912597501400703e-03 6.873325675603299e-05 3.136300479184819e-19
 7.016630142590513e-03 -8.077538263893800e-05  3.181439250396001e-19
7.090357703252349e-03 1.526902311820949e-04 3.215038937160856e-19
6.871501079349964e-03 8.665781478851062e-04 3.110256684301386e-19
6.902309226914257e-03 2.508396323341804e-04 3.129302420769793e-19
5.318848043416155e-03 1.932944241978478e-04 2.587707948944604e-19
-1.708534917631369e-03  7.928212345669062e-03 -3.475675627183034e-20
 6.910993867141887e-03 -1.927403790277491e-03  2.933088567143213e-19
5.451749037018563e-03 8.722535746738274e-04 2.601464187275925e-19
6.770937223386836e-03 1.931136697300247e-04 3.065319596931635e-19
7.874753298717259e-03 2.998829508669405e-04 3.392570978432033e-19
 6.047252842426348e-03 -2.991748075096061e-03  2.976089546582289e-19
6.565948679472594e-03 1.699061014061599e-03 3.016738244321905e-19
6.708806587783324e-03 1.551418580023761e-03 2.965377471535010e-19
 6.323219752198867e-03 -1.658800565668500e-04  2.844419958449427e-19
 6.408173546589581e-03 -1.681086902015106e-04  2.961609068800056e-19
 6.017370370332648e-03 -4.487870172838607e-04  2.887812710972191e-19
6.436779149114524e-03 6.654239992496380e-04 2.940847035236376e-19
 6.251473779377880e-03 -1.329234588904977e-04  2.887407410551408e-19
5.092357132996885e-03 3.843347446525597e-03 2.197388908303426e-19
 6.707579905713864e-03 -2.409742483842359e-04  3.007663268975597e-19
 6.434061546070094e-03 -3.416293466013478e-04  2.959619605205315e-19
 6.540911346159406e-03 -2.409947022718494e-04  3.023944486830668e-19
6.641349958856595e-03 8.236664200356112e-05 3.038648970788075e-19
 6.875449520998755e-03 -5.033152811498170e-05  3.100065630483101e-19
 6.731166840951784e-03 -6.428480573980363e-04  3.092559150218815e-19
6.601127537849969e-03 4.213573927281727e-05 3.049236193922676e-19
6.796141203977295e-03 5.773455845024320e-04 3.069284513257729e-19
 6.533106493403577e-03 -1.755493069708998e-04  2.989558890289938e-19
6.909174255461016e-03 1.420561415593451e-03 3.048933217366181e-19
 7.226653670261713e-03 -1.086854107077193e-03  3.174462803949749e-19
 6.512435908995510e-03 -8.734921426439289e-04  3.129341529833208e-19
6.133636081961620e-03 1.666987012537424e-03 2.789446554914534e-19
7.518863770850289e-03 9.626618431305754e-04 3.287435146712126e-19
 7.274185520555766e-03 -3.762709485077763e-04  3.151274324364692e-19
 6.327200550070453e-03 -1.726301222347647e-03  3.119368687817236e-19
5.941707903155725e-03 2.738503911259320e-03 2.639654887595808e-19
7.403673953874269e-03 9.242218300300239e-06 3.251360966005456e-19
6.787711217039609e-03 3.186706440826109e-05 3.056887593761243e-19
 6.835326188258953e-03 -2.726717563796661e-04  3.119825251396413e-19
6.946369800392914e-03 2.502216743065743e-04 3.152716889769273e-19
 6.931317130625531e-03 -2.218242145233027e-04  3.152616395621608e-19
6.876257557980496e-03 2.865544408769380e-04 3.113653790908860e-19
 6.841471776197703e-03 -1.185498803559370e-05  3.108217977560902e-19
6.846949088757966e-03 5.790707477855540e-04 3.084341376513082e-19
 6.882646940060977e-03 -8.275076933251906e-05  3.115936784039686e-19
6.959026368031979e-03 5.617430942338827e-05 3.149493724230787e-19
 6.869983311738001e-03 -2.094517126162815e-04  3.139202126822662e-19
6.918487332871257e-03 3.184273704040272e-04 3.128764750868412e-19
 6.994698162932608e-03 -5.367950119278401e-05  3.155701991553271e-19
6.986047469458726e-03 1.613157491891900e-04 3.141844610964216e-19
 6.847165568562049e-03 -4.339379919928405e-04  3.134242600757156e-19
6.856170173836400e-03 3.657565434219685e-04 3.104905272056573e-19
 6.848456076447369e-03 -1.019732531991566e-04  3.096667647397837e-19
6.873165323789427e-03 2.963767109033423e-04 3.081954100514496e-19
 6.541129880241094e-03 -4.972266476789363e-04  3.024091355320682e-19
3.805421751366360e-03 5.659831652020911e-03 1.522253583752871e-19
 7.171176174177253e-03 -5.557237355777967e-04  3.219136312968438e-19
6.734961679766554e-03 1.950505508190491e-04 3.065167671997447e-19
6.872396211403442e-03 2.967741390051098e-04 3.059627647470907e-19
 7.196177188408706e-03 -5.844200159136929e-04  3.179810238184994e-19
 6.671805674471342e-03 -7.284008833844613e-04  3.128171088008951e-19
6.630465830969175e-03 1.411353628966104e-03 2.975628576538630e-19
 6.911194579567050e-03 -1.366958354302322e-05  3.077464726904897e-19
 6.691375095373164e-03 -1.323480475493115e-05  3.025118386965570e-19
 6.695191746958303e-03 -2.161880157007713e-04  3.042541650404595e-19
6.711228181850142e-03 1.741960464889979e-05 3.042745466583371e-19
 6.636092860730186e-03 -3.702939558511841e-05  3.018400899510121e-19
6.605269602229197e-03 9.607494276034177e-04 2.948300806257674e-19
 6.838582998111385e-03 -2.773303579268861e-05  3.062803566730035e-19
 6.681277431508842e-03 -1.424448622634773e-04  3.017778420006375e-19
 6.626363476131882e-03 -2.448285644544109e-04  3.022540519308067e-19
6.752246198231096e-03 2.503825016237189e-04 3.033987713810982e-19
 6.756946674639148e-03 -3.001450229167357e-04  3.048880383561713e-19
6.820154890054922e-03 1.760422197761472e-04 3.057729508811468e-19
 6.747845898664835e-03 -4.100645945671177e-04  3.064641005994828e-19
6.746982963561218e-03 4.392288325374393e-04 3.030171430290681e-19
 6.837647486157995e-03 -2.661984897052805e-04  3.073774216159678e-19
6.881563111431721e-03 3.183786749651633e-04 3.072085966175089e-19
 6.907565837990426e-03 -3.569133490749654e-04  3.107635256659607e-19
6.882413989530702e-03 5.809682628502519e-05 3.092540651604526e-19
 6.423737966164318e-03 -2.505377310931617e-03  2.968719922551595e-19
6.879969580916258e-03 6.418183363237743e-05 3.079437407168752e-19
 6.931794026923251e-03 -1.123571440187411e-04  3.105569460894680e-19
6.954367240813739e-03 1.263393862848859e-04 3.112232540257481e-19
 7.035587970263665e-03 -1.471584838012511e-05  3.136116143925040e-19
 7.039966174446774e-03 -5.784097554157129e-05  3.144414308493809e-19
 7.094718375547270e-03 -3.601278269674062e-06  3.172199438657711e-19
 6.480093009972575e-03 -3.289294501486240e-06  2.980307637874917e-19
-3.719297384150456e-03  6.547135748679422e-03 -1.690504251966779e-19
 7.172443670129342e-03 -7.516487201954868e-04  3.134976978959034e-19
 7.227954206627672e-03 -1.818312322252174e-04  3.237347901258182e-19
 7.340989600918001e-03 -1.592937860343831e-04  3.273098800846555e-19
7.316797312841742e-03 2.035783673670557e-04 3.230342035509863e-19
 7.217498901040343e-03 -4.128643597006821e-04  3.217431794076071e-19
7.046185909436035e-03 7.819971342905763e-05 3.137145589837981e-19
 7.036305131634230e-03 -1.362990802500289e-04  3.130188267715048e-19
 6.915309153971328e-03 -5.664174813977727e-05  3.080650112015968e-19
 6.826671108060277e-03 -5.591573376206683e-05  3.043740701671129e-19
6.777477704310667e-03 2.838280274652761e-04 2.999383489727474e-19
6.836065675387073e-03 4.727339060304297e-07 3.018670059572528e-19
 6.771332935281715e-03 -2.688034430110239e-05  2.994133823299910e-19
 6.617603493968400e-03 -1.793236441981451e-04  2.952384024238467e-19
6.730867440447296e-03 1.803100343056311e-04 2.962448503476224e-19
 6.744539438716018e-03 -6.203167028612947e-05  2.968396531658849e-19
6.859825899461911e-03 2.336454806580540e-04 2.991571426086013e-19
 6.772273810094718e-03 -2.160467455023016e-04  2.985086572812053e-19
6.737163603021792e-03 4.840804499437726e-04 2.938079217361419e-19
 6.856689328285268e-03 -7.219329711440265e-05  2.988022620919221e-19
6.825396140921953e-03 1.508395702299037e-04 2.969009001202215e-19
 6.808536675828272e-03 -1.001490453328464e-04  2.977014342691955e-19
6.787614815759436e-03 4.520260625467104e-04 2.938619916417741e-19
 6.881810630344666e-03 -1.880958881760143e-05  2.982574403996468e-19
6.809411754607622e-03 1.137521306710374e-04 2.947482016634515e-19
6.800809771839537e-03 5.028397501636844e-05 2.939028919950456e-19
6.810281910104156e-03 1.790664177552014e-04 2.929467667071315e-19
6.766628531154679e-03 8.514742908166769e-06 2.921768475980896e-19
6.744423255326951e-03 2.544558525969080e-04 2.893605711488213e-19
6.731002923141202e-03 1.262973353299033e-04 2.888398450667582e-19
6.647304442110476e-03 2.587998415038511e-04 2.845291167344163e-19
6.501664252428224e-03 2.531296246009542e-04 2.788217832158477e-19
6.369339034361755e-03 5.264536902843925e-04 2.712056359071712e-19
6.154047099086083e-03 2.194976646234188e-04 2.647452010043179e-19
6.174882044483609e-03 6.768216872952151e-04 2.564776483079678e-19
7.331284709937507e-03 1.662462307958319e-03 2.947355067135462e-19
 6.199844178324619e-03 -1.066694442940319e-03  2.683148199605979e-19
 6.271053139411061e-03 -9.212851822802748e-05  2.709229991932744e-19
 6.543457082469638e-03 -4.916995811474387e-04  2.805280279058926e-19
 6.672643247252513e-03 -7.600279280438121e-05  2.829546389249333e-19
 6.717607037808058e-03 -4.749664765221295e-04  2.871043434273497e-19
6.800313531049018e-03 1.742796334041111e-04 2.850931843085237e-19
 6.924160449492315e-03 -3.420052213303641e-04  2.906669772680428e-19
6.721235168398774e-03 6.046543320287240e-04 2.790280859612374e-19
 6.969719000223515e-03 -8.025948019730972e-05  2.915901776395121e-19
7.056826443257727e-03 2.820064732452646e-04 2.909670422113621e-19
 7.060062175505446e-03 -2.874875637425783e-04  2.933481554551000e-19
6.937487377098698e-03 8.459408846491153e-05 2.870886321692414e-19
6.819068273056282e-03 8.692300338344312e-05 2.821083944456807e-19
7.011960794562141e-03 3.813372343393909e-04 2.830258770766578e-19
 6.981611773409416e-03 -1.733417959021489e-03  2.914895089315238e-19
 6.785964889679268e-03 -8.445132516867467e-05  2.819160923451657e-19
6.655849489252894e-03 5.750783846146368e-04 2.707953835951257e-19
6.796077021405469e-03 3.906093951657198e-04 2.726329041005111e-19
 6.617535550176168e-03 -5.957954859708729e-05  2.670824804144057e-19
 6.673779427563641e-03 -1.850121996650190e-04  2.697643222474411e-19
 6.827936804840251e-03 -1.892857894313724e-04  2.736126657259833e-19
 7.127951133863821e-03 -2.893540192566967e-04  2.827298171699290e-19
 6.807690064690422e-03 -6.701242562700586e-04  2.826017687012229e-19
6.828569934695223e-03 1.448593874010509e-03 2.529524933480480e-19
 6.826337157068625e-03 -4.199395989293883e-04  2.633497488591804e-19
6.930735566320829e-03 9.457304142196142e-06 2.625960216420485e-19
 6.946264207158404e-03 -5.891480678395602e-04  2.677295638712133e-19
6.947180150367615e-03 2.863632060083781e-04 2.556945618675096e-19
6.978945211179680e-03 2.278258091870849e-05 2.528881800164030e-19
6.837764479613356e-03 2.232170017760168e-05 2.436363793226203e-19
6.792202301538937e-03 2.217296365977516e-05 2.365617583912527e-19
 6.830015180605237e-03 -1.843671327693294e-04  2.341332960194159e-19
 6.968423501691713e-03 -1.166708767439942e-04  2.322954383519437e-19
 6.995212679175768e-03 -1.309622743717952e-04  2.286571798475103e-19
6.600811111234823e-03 2.355669265223104e-03 1.656213544292609e-19
 6.866792388073120e-03 -1.933005664693063e-04  2.104661965840491e-19
5.846715111846382e-03 1.194643848297251e-03 1.201800072337074e-19
 6.098572742968577e-03 -1.780300564132300e-03  1.914972009814634e-19
 7.800317699907264e-03 -4.562128123320929e-04  2.056217192086896e-19
7.758954524758785e-03 4.860748434904249e-04 1.572355555558674e-19
7.233210279771960e-03 4.531385695655682e-04 1.142651130695502e-19
7.303337180556634e-03 1.644226918353416e-03 4.210540091138735e-20
 6.095898351746959e-03 -4.737672094673333e-03  2.315579397474370e-19
8.121472614141527e-03 9.111939686118040e-04 6.275194052134180e-20
 4.433561392536396e-03  2.756651450238968e-03 -3.084790267295743e-19
 4.656447961166383e-03 -3.661276756578833e-03  1.374076418045835e-19
 6.566007067238941e-03 -5.061768224109297e-04 -1.097120838507860e-19
 6.720465348407191e-03  9.363665382856236e-04 -3.305938375769356e-19
 6.128640583161417e-03  8.539072325715881e-04 -4.752885025620467e-19
 5.715033619109299e-03 -2.833095026690246e-04 -4.920344978079006e-19
 1.103266722108018e-02  4.129961552569388e-03 -6.981632888931910e-19
 1.567315732505991e-03 -6.522208086005820e-03  8.244175609926368e-19
 4.121412903358036e-03  1.250245849942396e-03 -1.037794077696598e-18
 7.832585792798439e-03 -6.131742478000529e-04 -8.016230354528094e-19
 9.602251902866671e-03  4.962201149883874e-03 -1.736055244622933e-18
 4.799901102137238e-03 -3.580157572355447e-03  2.994732795242535e-20
-3.289358253678380e-04  5.923035152097463e-03 -2.128702168717794e-18
 9.524352697305076e-03 -3.555230244639781e-03 -1.228204124213748e-18
 4.215433347057599e-03 -1.582323359948205e-03 -1.521845292197141e-18
 5.877003411794841e-03 -5.652611104442724e-04 -2.958102979815818e-18
 6.762808231022868e-03 -1.913705645570562e-04 -4.675925745674227e-18
 6.930654341210438e-03 -1.961201898263273e-04 -6.725555524479375e-18
 6.983363648597289e-03 -1.976117314415045e-04 -9.941825351414623e-18
 6.991680429556313e-03 -4.727178413647363e-05 -1.490153375534154e-17
 7.078326847284723e-03  3.820379515149631e-05 -2.226291303865477e-17
 6.584290233319828e-03 -1.600856465755124e-03 -2.399714447173890e-17
 6.925804698741157e-03  3.388610690911035e-04 -3.565851130477856e-17
 6.943434472551043e-03 -5.616692292852207e-04 -4.569839439088539e-17
 6.860083568203908e-03  3.036693066309463e-04 -6.653569472914070e-17
 6.978820825716132e-03 -6.326330681997605e-04 -8.527975096607846e-17
 6.815275904506768e-03  7.806443606729553e-05 -1.198411605292223e-16
 6.896175190244050e-03 -2.053323687334239e-04  2.606468471856056e-16
 6.727305751436082e-03  1.375895571236690e-04 -6.558766385324247e-15
 6.863203371011932e-03 -4.468790640527572e-05  1.908779641668651e-16
 6.843530385645170e-03 -4.455981104203827e-05 -1.270662250434025e-16
 6.936450613710873e-03  1.418670717880617e-04 -6.616052338115993e-15
 6.872457235764330e-03  2.088960412745344e-06 -8.336576013606289e-17
 6.877753823324600e-03 -8.066498911735800e-05 -6.489373791091515e-17
 6.864689074989556e-03 -3.069625884717125e-05 -4.670243958332012e-17
 6.860578974531638e-03 -2.432928150779514e-05 -2.802591349676753e-17
 6.856535251152139e-03 -2.431494148127482e-05 -1.753471837283534e-17
 6.880401616490579e-03 -9.063906492340194e-05 -1.098261902869380e-17
 6.955250170933094e-03 -9.162508338041732e-05 -6.971652012235413e-18
 6.984792866019295e-03 -9.201426447872885e-05 -4.571472735382658e-18
 6.868128676308570e-03  4.558852894051299e-04 -3.265238816955159e-18
 6.780015259559314e-03 -2.259380813447347e-04 -2.183248531371474e-18
 6.763823296519884e-03  1.074895231321491e-04 -1.723230044788433e-18
 6.853196933138006e-03 -8.051321439498449e-05 -1.375350216969792e-18
 7.054783261710765e-03 -2.005442199966502e-04 -1.070873647085691e-18
 7.155585994052935e-03 -1.102336446115158e-03 -7.561874214949938e-19
 6.721398280906816e-03  2.395761055900598e-03 -6.433532757344503e-19
 7.027156568964102e-03 -2.732031400365096e-04 -4.618527227633038e-19
 6.731743068537913e-03  1.391422130907996e-05 -3.660416387593028e-19
 6.978990952378960e-03  1.976379065524522e-04 -2.995744406129604e-19
 6.939370929552413e-03  2.365160530236879e-04 -2.015091322621603e-19
 6.817622618768298e-03  2.323664794929907e-04 -1.218826684109731e-19
 6.685565380725887e-03  2.278655446053647e-04 -6.067780392597478e-20
 6.715077855655989e-03  2.397441826664769e-04 -1.571968288184527e-20
 6.635650433108826e-03 -3.241177214664109e-04  2.261662481207339e-20
6.373025781766773e-03 2.818916196926370e-04 3.196208643039135e-20
 1.244199770333580e-03  6.940888881626028e-03 -8.788158495917386e-20
 6.738957335817622e-03 -4.164738069264007e-04  7.758032690028785e-20
 6.762604961255051e-03 -2.854645450026377e-04  9.606593534208851e-20
 6.958575071541111e-03 -7.078548154327265e-04  1.319657606318815e-19
7.002729423277352e-03 6.750744695150851e-04 1.443162640163253e-19
 6.613372656829483e-03 -1.510816835937213e-03  1.713685917214899e-19
6.667026252178121e-03 8.995557541620385e-04 1.552648025009816e-19
 6.829563562090757e-03 -4.283283990024078e-04  1.873924261053369e-19
6.753533710931772e-03 8.171176770910765e-04 1.849840530472158e-19
 6.913783546558651e-03 -7.110786465305329e-04  2.063648094483703e-19
6.690694601684883e-03 7.632827671728157e-06 2.049542691584669e-19
6.781711213004881e-03 1.971557384038144e-04 2.121136823614811e-19
6.762970670299455e-03 1.966109193427945e-04 2.155369210342480e-19
 6.812782965812812e-03 -1.231106663366241e-03  2.347249156024447e-19
 6.686333882936314e-03 -1.303527434345359e-04  2.257021556050351e-19
6.822570218368666e-03 2.018982680400702e-06 2.349722914050126e-19
6.796916531245720e-03 2.011391061944331e-06 2.384267131867390e-19
6.846028258873138e-03 3.294992238748476e-04 2.383514427815855e-19
 6.825972384824622e-03 -9.395009584250335e-05  2.449413222212453e-19
 6.805360614111213e-03 -3.441675475512352e-05  2.490874948407731e-19
 6.775096885166830e-03 -3.839454917798047e-05  2.517892776244588e-19
6.829352053014349e-03 6.402488891578628e-05 2.541744053757269e-19
 6.866246581072995e-03 -1.793633988646938e-04  2.596044871852687e-19
 6.898230774387575e-03 -7.173104849299493e-05  2.646013162319224e-19
 6.639959063113396e-03 -3.166577026688669e-04  2.603853634707657e-19
6.723929927693660e-03 3.491039829253484e-04 2.584887867588983e-19
6.855071225422410e-03 2.022992177164633e-04 2.612359333362927e-19
 7.000156263060923e-03 -9.225381905281719e-04  2.752311905040099e-19
 6.670081407184780e-03 -3.319846543031613e-04  2.678361660661473e-19
6.929124151785445e-03 3.052001394462486e-04 2.720847750277889e-19
 6.958116166085742e-03 -1.165407587095482e-04  2.758156869045215e-19
6.822239342438918e-03 8.403616347405889e-05 2.715573282654971e-19
 6.810228781935516e-03 -1.303403647087106e-04  2.747968594051824e-19
6.831789042338813e-03 2.358118872267119e-04 2.744289832482237e-19
 6.878018958374793e-03 -8.360162251627068e-05  2.787935425808061e-19
6.823477339530270e-03 1.247699733527769e-04 2.771164776554338e-19
6.853434064735685e-03 3.284609522917241e-05 2.796835790532674e-19
6.803578624772158e-03 3.260715566788586e-05 2.796377605477472e-19
7.000913691108339e-03 3.774105748899355e-04 2.843482474051541e-19
 6.930833875860471e-03 -5.861054769173997e-04  2.866976587492521e-19
6.843207168500278e-03 1.141573528274175e-04 2.831106423909445e-19
 6.792426371727443e-03 -8.143204124833198e-05  2.841176001949677e-19
6.948352608173397e-03 4.890403020797555e-04 2.856270935917197e-19
 6.576263858386137e-03 -1.973615589156875e-03  2.802176284519598e-19
6.771574426095347e-03 3.956819051804852e-04 2.804904670572860e-19
 6.587791090881874e-03 -1.177475518265481e-03  2.834873572906089e-19
6.638590397411408e-03 5.933493104018783e-04 2.752028876564732e-19
 6.758819947353738e-03 -2.200340660354655e-04  2.862087635063558e-19
6.825723724127543e-03 1.418821933847585e-03 2.796621838666668e-19
 6.932729576596492e-03 -6.095511360755647e-04  2.922141444515766e-19
6.896058971943921e-03 7.428121494057185e-04 2.857064742156593e-19
 6.241926132977557e-03 -1.238247859605416e-03  2.794573240131046e-19
5.953884505540027e-03 2.299547083206082e-03 2.398303090567028e-19
 6.926302776041533e-03 -2.591016327172893e-04  2.902535970073253e-19
6.534798057855325e-03 6.813452747922712e-04 2.763788685754271e-19
 6.429179740481244e-03 -1.834343518083625e-05  2.781651472266362e-19
6.384006708953478e-03 1.631619508594049e-03 2.630614522945095e-19
 6.555849924424035e-03 -2.893023489401670e-04  2.786658040984097e-19
6.486204024403108e-03 2.033093269416293e-04 2.837851263423322e-19
3.980969567760475e-03 5.558691624229248e-03 1.565713945921632e-19
 6.867274832127529e-03 -1.476630045847374e-03  2.755609196181335e-19
5.899054000047063e-03 3.402107568233006e-05 2.537948969024968e-19
 5.666344868453997e-03 -1.575058732134141e-03  2.654002552033545e-19
6.178576584956766e-03 4.405155338629163e-04 2.698535876415999e-19
 6.445426988788426e-03 -1.128997208224243e-03  2.852896882362610e-19
6.662754281025128e-03 3.853795537700538e-04 2.850241361561286e-19
 6.576517180503050e-03 -1.384047118997854e-03  2.902375405915979e-19
6.655977358219856e-03 4.965584626039685e-04 2.894863392261246e-19
 6.519956976109334e-03 -9.068967519095112e-04  2.900128680617101e-19
7.419044818334318e-03 1.153471265393237e-03 3.100909986036651e-19
-2.398423054818116e-04 -7.068380800440888e-03  8.935574816228022e-21
5.918414948740533e-03 6.299853853784090e-04 2.651263603714907e-19
6.613675572059868e-03 4.167295367669998e-04 2.847024931716288e-19
 6.453128951260216e-03 -2.094209426486578e-04  2.818923641893672e-19
 6.660616987494776e-03 -7.159961562658792e-04  2.981117756992987e-19
6.734650096974132e-03 7.791102496298447e-04 2.950161327719817e-19
 6.944128918003796e-03 -1.496579809883560e-04  3.033325287049984e-19
6.901684481998985e-03 9.710044418200437e-04 2.964678939792332e-19
 6.851482128657166e-03 -3.268916410292399e-04  2.995589116804276e-19
6.635349311049984e-03 7.846482159806932e-04 2.893768267069418e-19
6.582182249145063e-03 4.645605206379653e-06 2.926043392734065e-19
6.545812584841731e-03 1.961885227449838e-03 2.775283080443814e-19
 6.669989898220039e-03 -2.823364039484942e-03  2.793587207014564e-19
 5.592518685041381e-03 -1.391604866174095e-05  2.573540636730900e-19
4.531068593139931e-03 4.584314125323523e-03 1.821789068216585e-19
 6.383355596479977e-03 -4.157436042098752e-04  2.815641963998502e-19
 6.431509177665167e-03 -1.356579757485475e-04  2.855036158055341e-19
 6.541236010911457e-03 -5.198133912053584e-04  2.926851742098071e-19
 6.462816612960695e-03 -1.367147014701896e-05  2.901478440674804e-19
6.657111769605382e-03 3.286144679980092e-05 2.950578363937397e-19
6.720203090476146e-03 1.420455126225375e-04 2.954068663692840e-19
 6.712259127343475e-03 -1.057987148581549e-04  2.954887141863141e-19
 6.571352797933932e-03 -2.286058226156631e-04  2.935753210055811e-19
6.576338040953605e-03 9.433483191160289e-05 2.929503403754407e-19
6.676240104199539e-03 6.014625863371604e-04 2.928194324755979e-19
 6.651692592421405e-03 -7.893525475059008e-05  2.928085609254590e-19
 6.236097242593630e-03 -9.800287734245799e-05  2.996289978030272e-19
-9.396436926169402e-04  6.432899434371181e-03 -6.926511829562331e-20
 6.552234191638932e-03 -1.422087703889871e-04  1.881169862670801e-19
 6.601368512684593e-03 -2.431933495026579e-04  2.690676172297818e-19
 6.341812440144252e-03 -3.405337064584161e-04  3.642694839738482e-19
6.555145397917656e-03 1.136834634497474e-03 2.854742665271280e-19
 6.736167348258964e-03 -4.366752120449889e-04  3.027319542210256e-19
6.533142700561506e-03 4.030998397751427e-04 2.896955424706051e-19
 6.532408066332505e-03 -3.082161836482878e-04  2.941584646842457e-19
6.475191462987229e-03 5.523914340001932e-04 2.889541137936622e-19
 6.587397461606448e-03 -1.611743798949386e-04  2.943060192478359e-19
6.362677778048432e-03 1.918487491725395e-04 2.871982692425509e-19
6.431574456808889e-03 3.363837596703378e-05 2.905173002816244e-19
6.442765480264149e-03 3.082603893555468e-04 2.874894310002211e-19
 6.649682313465261e-03 -2.638989529902264e-04  2.946508555194100e-19
 6.342505490844258e-03 -2.281626516711863e-04  2.860878355002345e-19
 6.471800822244772e-03 -2.772599648593528e-04  2.921337063927235e-19
 6.501322768366952e-03 -3.684550311916533e-04  2.955312860458581e-19
6.683451697573393e-03 8.176336353481890e-05 2.998930550475946e-19
 6.704618646058837e-03 -4.876711746462037e-04  3.025305248503055e-19
 6.611081439861850e-03 -7.289362061693940e-05  3.001847503471525e-19
 6.620009495603985e-03 -6.823903615718877e-05  2.989626700335832e-19
 6.673884695378937e-03 -6.879438153967809e-05  2.971541893914915e-19
 7.132980348549506e-03 -1.025253122988648e-03  3.122411087268864e-19
 6.831800284474812e-03 -9.892068938086114e-04  3.149195246722051e-19
7.119097719862329e-03 5.236423983419568e-04 3.190093746012153e-19
 6.808074910749931e-03 -2.483041545764062e-04  3.070395320261353e-19
6.597034285143847e-03 6.860530618201045e-04 2.959153607898650e-19
 7.065464761168169e-03 -3.071655746665939e-05  3.121864383022117e-19
 6.950929906909899e-03 -7.255513410379277e-04  3.121814330135427e-19
 6.711360231477096e-03 -4.056692708413928e-04  3.109975187774400e-19
6.718803037671427e-03 1.079427748176297e-03 3.025831094933641e-19
 6.934506428699331e-03 -1.830056652507275e-04  3.116548335942372e-19
6.749260098264752e-03 4.025570138001401e-04 3.028236967728401e-19
 6.547551806258064e-03 -4.284272778309880e-04  3.014347761491257e-19
6.825992984276696e-03 9.100317845145347e-04 3.057097586394377e-19
 6.538319065744118e-03 -1.109920712323800e-03  3.034855028110514e-19
6.659156813948626e-03 7.493453429184492e-04 2.994545174283059e-19
 6.825939779178365e-03 -1.272938184783924e-03  3.115702255161828e-19
 6.974080639247785e-03 -7.015976182307296e-05  3.159971240141774e-19
 7.567131297239646e-03 -1.692002731897588e-03  3.351632923980329e-19
 8.632875854221622e-03 -9.945503459996864e-04  3.929858441756888e-19
6.717179001650225e-03 5.327485957907632e-03 3.010249976717362e-19
 2.750786126435407e-03 -8.668068259425661e-03  5.483106239624119e-20
4.549787138712500e-03 4.865324882357251e-03 1.937592955936445e-19
 6.442873008922291e-03 -2.652243685254353e-03  3.099784298007020e-19
6.191128839853646e-03 2.850569089288701e-03 2.746128325250593e-19
6.553074108827101e-03 1.342964031491355e-04 2.935762139031246e-19
6.373209938031556e-03 2.204097372623803e-04 2.910015968268306e-19
 6.448497988259254e-03 -4.865435986713164e-04  3.008381421529646e-19
6.378186941901141e-03 6.204298715186474e-04 2.944114879966004e-19
6.535349224195771e-03 1.510020038713046e-05 3.008428683032456e-19
6.500550639635995e-03 9.238185611881000e-04 2.936416400820098e-19
 6.586840781179367e-03 -2.116025656084115e-04  3.001165032266693e-19
 6.498526052246684e-03 -6.604096349777345e-05  2.991167148674294e-19
 6.650693112775447e-03 -1.278416834066634e-04  3.050126028204799e-19
 6.766134862176148e-03 -1.300607404776393e-04  3.087705995080611e-19
 7.147339540440212e-03 -4.188935496305064e-04  3.207573890993976e-19
 7.028777053410820e-03 -1.114203611306597e-03  3.265470417160062e-19
7.414558653223990e-03 5.237404548979348e-04 3.359851236796093e-19
 7.106480164981337e-03 -7.793130620471182e-04  3.334341748818074e-19
6.291724349189789e-03 1.761304730642622e-03 2.796704430238199e-19
 5.938882223151824e-03 -2.187334380671961e-03  2.759499394796898e-19
6.563699657910085e-03 1.190457540975521e-03 2.992639796244770e-19
 6.485375552501879e-03 -2.595333345811481e-03  3.107494523005879e-19
6.782263498040723e-03 9.852503731775627e-04 3.085840863596330e-19
 6.925099744621227e-03 -1.088929036785497e-03  3.139251742195000e-19
6.810697456330615e-03 4.313423802763014e-04 3.094516736459164e-19
 6.628947138793118e-03 -5.555884167654011e-04  3.037415579943846e-19
6.548046259057619e-03 2.349583824570957e-04 3.013299467892601e-19
6.569419488783907e-03 2.357253012120489e-04 2.932183621988757e-19
 6.247475072694458e-03 -4.636678629580342e-03  2.602074350764659e-19
 5.432258539436751e-03 -1.245152609460650e-03  2.835028911402367e-19
5.515555171611551e-03 2.229879383619890e-03 2.492070896072788e-19
7.036827636419260e-03 1.915690040795568e-04 3.080442440678874e-19
 6.479994535731244e-03 -1.116932371406755e-03  2.937227820248012e-19
 6.713790680462915e-03 -2.290318004070724e-04  3.093152376220111e-19
6.892161139756658e-03 1.232552436570926e-04 3.129240103852846e-19
6.763488666368548e-03 1.209541429228209e-04 3.069072299568236e-19
 6.662998409674236e-03 -5.922900688982521e-05  3.040805581269519e-19
6.754360840732291e-03 2.824465557789134e-04 3.059546015955261e-19
-6.560999140258110e-03  1.155818527770712e-03 -3.111043749079450e-19
-6.466410620095602e-03 -6.637433526132596e-04 -2.952600124705262e-19
-6.898947872067701e-03 -3.806060669456730e-04 -3.129968631099998e-19
-6.536582321538070e-03  5.222349487784017e-04 -3.067134584224000e-19
-6.814869956057385e-03  9.561941762822334e-05 -3.123036270187659e-19
-6.739044813894650e-03  9.455551531138851e-05 -3.095514599626628e-19
-6.767193315492876e-03  5.789373860415558e-05 -3.111170363621721e-19
-6.659442592230934e-03  4.331526479906756e-05 -3.086258231452567e-19
-6.644648011986153e-03  4.609600944012494e-04 -3.086399731963383e-19
-6.642760395981663e-03  1.793151119881233e-04 -3.058331592641960e-19
-6.862957671163294e-03 -4.653520194586441e-05 -3.138312438956513e-19
-6.986334849790013e-03 -4.737177739889825e-05 -3.223823860263609e-19
-6.929113185475770e-03  6.578290608257154e-04 -3.225964363863575e-19
-6.916080820103012e-03  6.072219037149582e-04 -3.156765704858305e-19
-6.907438783392943e-03 -2.072684160766071e-04 -3.146614306129107e-19
-6.732580337950630e-03  1.943731787916060e-04 -3.145811570638664e-19
-6.772978387167355e-03  1.289917818747202e-03 -3.170422634385973e-19
-7.103931185356770e-03  2.367938686870655e-04 -3.230336003007461e-19
-6.965640486255991e-03 -1.500042638324840e-06 -3.185333491164233e-19
-7.000177515466581e-03  1.466453048333357e-04 -3.216453189140688e-19
-7.036914352403537e-03  1.474148974099996e-04 -3.242481844081767e-19
-6.652306577242508e-03  3.801678371314363e-04 -3.140799425967296e-19
-6.631234906062955e-03  7.710253855509415e-04 -3.066074844753990e-19
-6.554490572527714e-03 -3.775185192506541e-04 -2.989579616095578e-19
-6.894682748708855e-03 -3.962070723167742e-04 -3.155856821596690e-19
-6.716897094188264e-03 -5.329392041459724e-04 -3.117115107349418e-19
-6.978602179416890e-03  7.047280868240810e-04 -3.219657564584201e-19
-7.021356547814800e-03 -7.529863978943979e-04 -3.163563479965187e-19
-6.874772776153775e-03  2.420300083620313e-04 -3.135087036938659e-19
-6.169863694542682e-03 -1.973264111149294e-03 -2.793233819672897e-19
-6.324726031146112e-03  1.840094098723220e-03 -3.092104146155446e-19
-7.143105789637971e-03 -5.943172018065658e-04 -3.207937743824209e-19
-7.017014135893327e-03  6.457107989069278e-04 -3.205350344505321e-19
-6.856989446706765e-03 -8.970959904873860e-04 -3.121978365071739e-19
-6.555969271390539e-03  1.223336565841263e-03 -3.111193407090663e-19
-7.775894562170546e-03  1.509335774851631e-04 -3.397461203676408e-19
-7.149444791710801e-03 -1.642344765341443e-03 -3.174774977578176e-19
-6.584044914111872e-03 -4.283137110877667e-04 -3.056971873944795e-19
-6.945673330354974e-03  5.207703418952835e-04 -3.211974192762158e-19
-7.116201074087797e-03 -1.003878123428560e-04 -3.213030865947275e-19
-6.922926617768152e-03 -4.120548790828125e-05 -3.158162130035606e-19
-6.950390907377636e-03 -4.136895626724212e-05 -3.167244775475504e-19
-6.957944853082424e-03 -1.108717125382387e-04 -3.178596189424381e-19
-6.940447960207059e-03  5.021536989414332e-04 -3.145729222795969e-19
-7.016061275814967e-03 -8.422705634592710e-04 -3.134219243444273e-19
-6.939777504810886e-03 -2.389407330609468e-04 -3.176826447468369e-19
-6.793033505200915e-03 -3.986764043323784e-04 -3.129124842446955e-19
-5.156553371466256e-03  4.878975448365712e-03 -2.512370946984468e-19
-7.310709185081397e-03 -3.997827183374864e-04 -3.296006592931309e-19
-7.126058326341320e-03  3.979681705055458e-04 -3.243484518079889e-19
-7.115246224592960e-03 -1.553738746259559e-04 -3.219029666570678e-19
-6.982768233798701e-03  2.629953663644512e-04 -3.185844369854533e-19
-6.998605775254334e-03  1.537754767531983e-05 -3.170441969212730e-19
-6.940908107321998e-03  1.525077261927632e-05 -3.151082509840511e-19
-6.948986316640214e-03 -5.976209167004437e-05 -3.150425896612987e-19
-7.003193254152775e-03 -2.014548137012868e-05 -3.166677400988018e-19
-7.004784938490737e-03 -1.235834934655775e-04 -3.161571565326804e-19
-7.096467668229210e-03  6.116039702178860e-05 -3.190962713617744e-19
-7.375769983128990e-03 -1.293377929924560e-04 -3.272615850974757e-19
-6.330841963964346e-03 -3.382121849533101e-03 -2.763808917074294e-19
-7.559341500896476e-03  2.449241632341243e-04 -3.365351613305075e-19
-6.486552007150763e-03 -2.474430279579352e-03 -2.876281665807748e-19
-6.329141793749060e-03  8.065892489343928e-04 -3.068655911465635e-19
-7.854972347912097e-03  1.325465591348520e-03 -3.390691329366113e-19
-5.925368692099905e-03 -3.122956780535815e-03 -2.580143367231148e-19
-5.579038802104435e-03  1.709658429408365e-03 -2.935782471293770e-19
-5.769897091681132e-03  1.768145651880126e-03 -2.488438580856810e-19
-5.564934747589764e-03 -2.229471322477037e-03 -2.380958194609770e-19
-6.926620520113416e-03 -2.775001417215584e-03 -3.077108473790357e-19
-6.108667896651384e-03  4.895686241707330e-05 -3.190132778443151e-19
-4.931382805031782e-03  3.999751921261362e-03 -1.999186174674191e-19
-4.200956061686259e-03 -5.263316742994266e-03 -1.954945859724148e-19
-4.901315591750922e-03 -1.488370597593949e-03 -2.247705230034934e-19
-6.971896329460059e-03  9.245710507794019e-04 -3.220455106143555e-19
-7.199699681333304e-03 -3.709592555305457e-04 -3.150138972380833e-19
-6.709885901850000e-03  9.095194301549520e-06 -3.005788639136669e-19
-6.740645183327797e-03  9.136888250702888e-06 -3.023100206519737e-19
-6.719966431929048e-03  1.387727496153295e-04 -3.025107872175781e-19
-6.727657392912588e-03  4.080932605352399e-04 -3.019554092110042e-19
-6.724712057304072e-03 -3.725076741705277e-05 -3.011315422152144e-19
-6.683816972290704e-03  1.169836568822674e-04 -3.029744175064055e-19
-6.764586867999191e-03  4.463739438468577e-04 -3.028912755141312e-19
-6.800234220043717e-03 -3.117064996994171e-04 -3.007909304434814e-19
-6.694831996916339e-03 -9.303842959832730e-05 -3.012151200181960e-19
-6.818789592185219e-03  6.005498939083805e-05 -3.057478909855731e-19
-6.809566365442661e-03  5.997375785015395e-05 -3.041400895372821e-19
-6.799347531272188e-03 -4.605399530660151e-05 -3.036750873327661e-19
-6.812708697410999e-03  1.378149243923404e-04 -3.044334321387147e-19
-6.895165961348464e-03 -8.178177819166617e-05 -3.053684664799563e-19
-6.936767223842258e-03 -1.494012491757971e-04 -3.079887224451124e-19
-6.477669288025172e-03 -3.605915409722443e-04 -2.934634590987890e-19
-6.264572661141342e-03  1.411494022402613e-03 -2.952199414621012e-19
-7.074861685527114e-03  3.488149654705923e-04 -3.108873470309262e-19
-6.849794063430509e-03 -4.066902292624211e-04 -3.004788864353137e-19
-6.713618204689374e-03 -8.694054189211432e-05 -2.993176793260310e-19
-6.868233119318904e-03 -1.685246785415660e-04 -3.039201523071832e-19
-7.021096734937540e-03 -1.722754673158100e-04 -3.084020917017380e-19
-7.302426296720186e-03 -4.871080085664059e-04 -3.212958476721566e-19
-6.999465500971393e-03  1.307015991654049e-03 -3.147974901383198e-19
-8.156539222289205e-03  3.459131411346434e-04 -3.416857676993411e-19
-5.983686754614484e-03 -1.781586584085383e-03 -2.585165070136640e-19
-5.592291223580705e-03  1.872254907408767e-03 -2.794909806966558e-19
-6.967514605781546e-03  2.917590501381402e-04 -3.011372011193150e-19
-6.893094715453013e-03 -8.280704073173684e-04 -2.980488635513248e-19
-6.537616283349514e-03 -2.451369825883156e-04 -2.964712801446782e-19
-6.692094935236306e-03  1.043465434172568e-03 -3.063110069427278e-19
-6.756239706180293e-03  3.277377265046611e-04 -2.978560420303182e-19
-6.477649451425078e-03  3.142236209236665e-04 -2.849633565801871e-19
-6.675967092291323e-03 -6.517010483443125e-04 -2.895249138930732e-19
-7.262336811984674e-03 -9.341314470456320e-05 -3.156804663250172e-19
-7.151466954383088e-03  1.478059326692300e-04 -3.117988900348361e-19
-6.952534848283919e-03  6.318029184347515e-04 -3.032123236833788e-19
-6.973770280146146e-03 -1.733906187973661e-04 -2.984084581989388e-19
-6.866680400360786e-03 -9.117213752999869e-05 -2.968408774479944e-19
-7.338629204227746e-03 -9.743842323786652e-05 -3.110980918235002e-19
-7.274475178961294e-03 -1.343304737632046e-03 -3.136323919446364e-19
-5.494996955881465e-03  1.844246812289559e-03 -2.957687835501507e-19
-5.634665574330467e-03  2.642410176984780e-03 -2.163933197137538e-19
-2.671099503058233e-04 -8.648868746612103e-03 -1.755508412842027e-20
-4.369871827726307e-03 -1.756395116558605e-03 -1.796085881160225e-19
-5.624407534862757e-03  5.310343319474715e-03 -2.973917390248535e-19
-7.249920786595824e-03  1.678361360921424e-04 -2.957420713332218e-19
-6.675296887098768e-03  1.982874298172402e-04 -2.836539566691750e-19
-6.611508757282294e-03 -7.851518423664534e-05 -2.811472662565484e-19
-6.789981041065964e-03  5.138499771347556e-04 -2.882276515186977e-19
-6.738706743561000e-03 -4.249753597175987e-04 -2.819646775164534e-19
-6.765235589905800e-03  6.110215611576148e-04 -2.873150907121201e-19
-6.795134501029153e-03 -5.270681211580456e-04 -2.806316034309245e-19
-6.652911512743195e-03  5.282165408638354e-04 -2.803919107216540e-19
-6.465917898123841e-03 -7.439749549378477e-04 -2.648599338370303e-19
-5.984508895548519e-03  1.984758922448852e-03 -2.710559576493174e-19
-6.126549944288231e-03 -3.051865904372340e-04 -2.454336495516846e-19
-7.636334060188934e-03 -1.374749035679593e-03 -2.935015672675453e-19
-5.957152225998833e-03 -5.316612731688515e-03 -2.103820344052725e-19
-4.630870279721701e-03  4.443843580848747e-03 -2.964912661537447e-19
-6.544865471931386e-03  1.067370016752873e-02 -1.316185819996588e-19
-8.203122949956608e-03 -1.144266980565709e-03 -2.994334283809252e-19
-6.204608334918562e-03 -6.312969306536367e-05 -2.764773980640393e-19
-6.550950039386980e-03 -6.665359728600179e-05 -2.881722617072804e-19
-6.642045544409305e-03 -5.016790940246960e-05  3.583687394939489e-19
-6.773670108009529e-03 -8.993152644996537e-04 -5.355655443050256e-19
-6.839713157885284e-03 -2.200029412657613e-04 -2.319138482801222e-19
-6.947776095154501e-03  1.388285067408820e-04 -2.703478438178634e-19
-6.998502893932602e-03 -1.673518653157122e-04 -2.585057389049458e-19
-6.972692130520150e-03 -5.375383515240398e-05 -2.590245711760080e-19
-6.974624979495120e-03 -6.792704918644218e-05 -2.542133831314036e-19
-6.932229899093216e-03 -6.751415634701501e-05 -2.497200259312366e-19
-6.842960276556996e-03  1.633470351357826e-04 -2.403726392776740e-19
-7.135612664521649e-03 -7.688881609268052e-04 -2.367372049627031e-19
-7.330421737806198e-03 -5.590833988486198e-04 -2.487406387471981e-19
-6.740754082094034e-03  4.104304397046658e-04 -2.435163197799720e-19
-5.893684510291305e-03  2.819759626171105e-03 -2.119540693184302e-19
-5.819516646301868e-03 -1.119303282880481e-03 -1.490236102057333e-19
-3.861849877969634e-03 -4.817816651637882e-03 -2.561113584491663e-20
-7.512515320670313e-03  5.025715605695808e-04 -2.379994453001768e-19
-7.437080804641626e-03  8.531175955090512e-04 -2.185431716442383e-19
-7.129533531609587e-03  1.609943127156171e-04 -1.906946700999111e-19
-6.919196975059791e-03  1.562446346040593e-04 -1.743604135306853e-19
-6.825028743008668e-03  6.706767353272192e-05 -1.600142317459184e-19
-6.883527715185508e-03  4.061150555410919e-04 -1.537857108239779e-19
-6.631102751671319e-03 -4.501165054443918e-04 -1.201601633446947e-19
-6.732105774039449e-03  8.069653641163569e-04 -1.360207652302429e-19
-6.752938562137148e-03 -4.250507556007064e-04 -9.790123772298948e-20
-6.524001210247113e-03  1.969194533498412e-03 -1.221918507748708e-19
-6.894389184983188e-03 -5.886141026258404e-04 -5.551587044581784e-20
-6.743257889823712e-03  8.193742793155643e-05 -4.486529424944575e-20
-6.835187623352611e-03  3.344056796288691e-05 -1.471359629551399e-20
-6.566875116336007e-03  2.895197287351760e-03 -6.464962581469039e-20
-6.997306049342159e-03 -3.335663547832116e-04  3.847292261111350e-20
-6.842192419741286e-03  5.728920366160909e-04  7.233027358413552e-20
-6.853438652396591e-03 -2.933973369598070e-04  1.634986817534774e-19
-6.840552592173904e-03  3.926680936881525e-04  2.393712247713429e-19
-6.642621526964340e-03 -5.626620538787071e-04  3.632993425934481e-19
-6.854012156289266e-03  5.585253759607920e-04  3.777420119268035e-19
-6.843732716041531e-03 -9.043945895545364e-04  5.432797041328227e-19
-6.609947925827141e-03  1.625102111693663e-03  5.616402947107034e-19
-6.707380412723350e-03 -2.904216469113216e-04  7.831556794955606e-19
-6.852905174653172e-03  4.752758074865850e-04  1.259248014155634e-18
-6.339065817374655e-03 -3.803799547151058e-04  1.706708648693086e-18
-4.992181525228069e-03  1.507000877969572e-03  2.077005055904459e-18
-5.078353133731936e-03 -1.891758908510607e-03  3.471311767670266e-18
-2.310754534667049e-03 -6.558254908684168e-03  2.309091361876051e-18
-7.808545052183685e-03 -1.282183484721387e-03  5.027406414702208e-18
-8.026547069445045e-03  2.403773634148633e-03  6.383332213252909e-18
-7.100918564131066e-03  2.126568333184268e-03  8.666696461463359e-18
-6.682884746058631e-03 -8.690674648064486e-05  1.298150622973786e-17
-6.294922798120921e-03 -3.057753945052599e-04  1.973589054368317e-17
-5.848604852054884e-03 -2.616867197977817e-03  2.849978105615566e-17
-6.817413405596475e-03 -1.032162952669163e-04  3.813645764204358e-17
-6.801944916363995e-03  1.970831234986305e-04  6.901491843420347e-17
-6.755963898370855e-03 -2.269410253470032e-04  1.369280655502323e-16
-6.832718837679791e-03 -2.295193168964025e-04  1.374225279451728e-16
-6.692659191422312e-03 -1.962991938368981e-04 -1.252437914475774e-15
-6.784508073601298e-03  9.539054809894945e-05  6.185482232975617e-15
-7.004868765662005e-03 -6.845676464719412e-04  2.270290666457326e-17
-6.904460954019538e-03  9.707709204476884e-05  6.499851873582485e-15
-6.780909645068351e-03  3.002924931556581e-04  1.316788815140510e-16
-7.017696500922227e-03  2.842819483351397e-03  7.128220899440497e-17
-7.201977771144075e-03 -1.438612743731105e-03  6.866340594685249e-17
-6.612730781179662e-03  5.183774648065860e-06  4.301069135058539e-17
-6.862615100092055e-03  7.385899681386115e-04  2.890328068381533e-17
-6.969268564473928e-03 -2.494829876813512e-04  2.466073867780484e-17
-6.866701420394079e-03 -2.193976248923858e-04  1.565335343758020e-17
-6.878489625286230e-03  2.463883695225144e-04  9.259926291047998e-18
-6.887182044773254e-03 -1.061430074549840e-04  6.829217344797904e-18
-6.894213438694092e-03 -2.500581194237658e-04  4.772444490055025e-18
-6.891025419011388e-03  3.709740100809874e-04  3.251095266437855e-18
-6.948963509039893e-03 -3.354898112825664e-04  3.062662045988231e-18
-6.981182613468920e-03  3.238821330854423e-05  2.441782096331309e-18
-6.846364613035013e-03 -9.619978797660474e-04  2.325715911404196e-18
-6.862917740172128e-03  2.803170705285281e-04  1.505875374873142e-18
-7.098998701265655e-03 -1.243572971606544e-04  1.351684375333941e-18
-7.232102827265525e-03 -3.199049324959851e-04  1.141948558799801e-18
-6.678972757046627e-03 -2.233006319722113e-03  1.251731759858156e-18
-6.868626250508031e-03  7.150063173747633e-04  5.622990609413233e-19
-7.698301478385858e-03  1.215135911780935e-03  3.974579134551337e-19
-7.292235897129704e-03 -9.597421765392012e-04  6.105493177583883e-19
-6.809821195096156e-03 -7.893962365117650e-04  4.824239502700894e-19
-7.164890041833118e-03  9.266295731919901e-04  1.944289646627825e-19
-7.230087104357157e-03 -4.502647580919556e-04  2.438638152828014e-19
-6.959678368751648e-03  8.694046944331456e-04  4.750130365098161e-20
-6.910593130098072e-03 -2.446662172872566e-03  1.886369261610146e-19
-2.467693793256263e-03 -2.740533154349259e-03  4.844663539920479e-19
-9.218092381759174e-03  4.387566257505763e-03 -2.468749424263845e-19
-1.277421160572655e-03 -9.831441702379793e-03  3.336717147616712e-19
-3.403432076284173e-03  1.533546569528104e-03 -2.099579127485901e-19
-8.782069352101868e-03  4.824829039111174e-03 -3.485841692062123e-19
-8.929865994103137e-03  3.125402943800197e-03 -2.336583373321298e-19
-7.786469091840946e-03 -5.325534291397814e-04 -9.870744379353452e-20
-7.092595214570066e-03  5.154642702437641e-04 -1.377967534636979e-19
-7.375777367530021e-03 -2.805579076714252e-05 -1.420046577596855e-19
-7.315479848114967e-03  7.424307053691616e-04 -1.777039995954108e-19
-7.141208459125206e-03 -1.181445245892729e-03 -1.284304701513286e-19
-6.655307884033511e-03  1.111489519569380e-03 -1.957503750462410e-19
-7.443600132871697e-03 -1.396816252763554e-04 -1.858306501757508e-19
-7.249216348452450e-03  9.221269820405145e-05 -1.944388640476977e-19
-7.173316534345109e-03  3.630485000408553e-04 -2.038955119999983e-19
-7.032604814121842e-03  1.395257600831476e-04 -1.985942312169917e-19
-7.220926506288972e-03  1.432620324792590e-04 -2.106230488873769e-19
-6.727916454768907e-03 -2.331774967575726e-03 -1.555002568677967e-19
-6.843640074227502e-03  1.336895902647006e-04 -2.196827099460617e-19
-7.071086222911413e-03  1.403696416272479e-03 -2.443464907261148e-19
-7.277395588422826e-03 -5.815944573108564e-04 -2.202482346054109e-19
-6.686183894299247e-03 -8.522670554140534e-04 -2.095175889373478e-19
-6.847704713032592e-03  1.157220544250317e-03 -2.549187846646887e-19
-6.898074438362353e-03  1.441256513641066e-04 -2.347289454626490e-19
-6.751765149491255e-03  1.410687226882003e-04 -2.347399114744029e-19
-7.004614948871057e-03 -5.454380673313998e-04 -2.416299674636219e-19
-7.082228283261614e-03 -1.027954153091336e-04 -2.610121195122713e-19
-6.907855161975686e-03  7.576519518259045e-04 -2.706277711261924e-19
-6.290218107730255e-03  1.075992083075895e-03 -2.436998419524180e-19
-6.421882931172492e-03 -1.658853195807727e-03 -2.187238289696767e-19
-7.421960366247059e-03  1.266619247621694e-04 -2.901555288776675e-19
-7.157830334179294e-03  7.196495575330500e-04 -2.875864298880283e-19
-7.034376803849198e-03  7.072375172456872e-04 -2.782340680730214e-19
-6.882011197031231e-03 -2.507822239414384e-04 -2.683841304220064e-19
-6.635517153625837e-03  4.893027108998933e-04 -2.736111085885674e-19
-6.390499814701893e-03  7.862195958249435e-04 -2.575300615602128e-19
-5.425044361973066e-03 -4.044454830928139e-03 -1.816314251488392e-19
-6.464455607508752e-03  5.530237731583899e-04 -2.823415928924937e-19
-6.735613791587398e-03  5.762209193972424e-04 -2.847050184621335e-19
-6.077094337412149e-03  1.227433019565699e-03 -2.636003371765085e-19
-6.162768163884286e-03  5.643994413675481e-04 -2.492212688110309e-19
-8.182655711012005e-03  4.617007317226494e-04 -3.138326985233666e-19
 3.422217021482081e-03 -5.581952410865815e-03  1.869133636151805e-19
-4.615281042768115e-03 -5.694628383258185e-05 -2.123888493496115e-19
-7.142258388471634e-03  1.109986533991378e-03 -2.999670665032866e-19
-6.597044407311246e-03 -2.044917439465095e-03 -2.597741816942660e-19
-5.747385750604505e-03  5.636870464565541e-04 -2.625372518713076e-19
-7.108934099061471e-03  2.089877413665418e-03 -2.945494161364927e-19
-6.865859849979258e-03 -1.144934303645254e-03 -2.738703827606197e-19
-6.695722946900906e-03 -3.819188669533152e-04 -2.812631830283508e-19
-6.982364432777478e-03 -3.982686759845363e-04 -2.941527104091492e-19
-6.922292105753264e-03  1.645506968772276e-04 -2.969617890642700e-19
-6.889318806168440e-03  1.289785030045531e-05 -2.916645090033795e-19
-7.063818305659483e-03 -3.869283173931586e-04 -2.950146772350109e-19
-6.613807345345333e-03 -2.000674061206721e-03 -2.736261589797190e-19
-6.708091580328051e-03  1.070394909856829e-03 -3.085537664305035e-19
-7.536253500763416e-03 -3.544855010977412e-05 -3.209074125895786e-19
-7.206237854968709e-03  2.329652089019069e-04 -3.106247785725533e-19
-7.148624537424462e-03 -2.169175934189492e-05 -3.068458709518491e-19
-7.014860332713385e-03 -2.944481532418249e-05 -3.036154715856322e-19
-7.023940165368976e-03 -2.948292784289818e-05 -3.040292828395514e-19
-7.069094022642356e-03 -2.433491667227602e-04 -3.063595583415618e-19
-7.145043086450726e-03  3.575621699410660e-05 -3.118131939323966e-19
-7.089365822045442e-03 -1.913784923910955e-04 -3.090840383801257e-19
-7.339040896700002e-03  6.789180160722973e-04 -3.185717886858886e-19
-7.166077291835896e-03 -9.116517667703826e-04 -3.061533611843713e-19
-6.493467087022085e-03  3.628083027542826e-03 -2.936122318298694e-19
-7.292707074298218e-03 -1.195781711738274e-03 -3.130774230371438e-19
-6.912531668297913e-03  7.498506736044125e-04 -3.142674530230127e-19
-6.861837289764933e-03 -3.799458852585033e-04 -3.048812661615505e-19
-7.401143764894122e-03  2.054763563638087e-03 -3.185176741218382e-19
-7.538104474781044e-03 -1.795189668609279e-03 -3.180771749555746e-19
-7.113109864033449e-03  1.504408490533709e-04 -3.161758126948361e-19
-7.180140434368411e-03  1.518585321914751e-04 -3.198788437951845e-19
-6.601869942336403e-03  1.041299833624343e-03 -2.994168173116955e-19
-6.097548956424588e-03 -1.322247493227596e-05 -2.727862066739400e-19
-6.570637933255834e-03 -1.544941084060297e-03 -2.844223380729242e-19
-7.290232754443458e-03 -1.942096265791991e-04 -3.246115616671754e-19
-7.465942619831812e-03 -6.036100206916771e-04 -3.317287872880347e-19
-7.251531646118092e-03  8.192231297504360e-04 -3.334660069552949e-19
-7.274533699539609e-03  6.772186682920072e-04 -3.269121282071152e-19
-6.847152051746586e-03  6.374318115221846e-04 -3.077567651145362e-19
-6.744408495410158e-03 -1.818130162386591e-04 -2.997313859635962e-19
-6.926213222907597e-03 -1.124725004907079e-03 -3.066642975235741e-19
-7.526675704658964e-03 -4.579670785872589e-06 -3.366340751178946e-19
-8.200396863220624e-03 -1.566090279441127e-03 -3.578437812657475e-19
-6.455074909715140e-03 -1.322080286409818e-03 -2.946358425136455e-19
-7.030142237562434e-03  3.754425392378286e-03 -3.231345703953137e-19
-8.701188735400139e-03 -2.238213651966875e-03 -3.744250687405501e-19
-6.984813345792019e-03 -1.852058261683702e-04 -3.269201842478670e-19
-5.741681018492625e-03 -3.750147736952968e-04 -2.876663250082004e-19
-7.060234968458611e-03  5.018857971447426e-03 -2.742207379060621e-19
-4.018238044379989e-03 -8.225472438518448e-03 -2.035185935782105e-19
-6.840328727916603e-03  4.943886052543677e-04 -3.216189833071145e-19
-7.128314513150495e-03 -1.047742137290496e-03 -3.192780416900922e-19
-7.253276576061428e-03  6.431798942417960e-04 -3.320116268793521e-19
-7.580373800537814e-03 -9.624652530903138e-04 -3.371284963348322e-19
-8.059597061152415e-03  8.398778427632453e-04 -3.659988861018191e-19
-8.228544496226804e-03 -8.883522667750630e-04 -3.672374881463737e-19
-3.648937534205195e-03 -5.744297382349785e-03 -1.241371834049368e-19
-7.188684751845006e-03  1.240405900362293e-03 -3.437295356763638e-19
-7.733916660731716e-03  6.661633570725785e-04 -3.403928040916096e-19
-7.453014350869354e-03  5.210847423657522e-04 -2.999863814403749e-19
-7.185509034014000e-03  1.019839591845773e-04 -5.510587339441529e-19
-7.113951894834960e-03  1.009683484147828e-04 -5.499378708572922e-19
-7.082027342151759e-03  5.798782691382410e-06 -3.054244306861646e-19
-7.080828453564574e-03  5.468715053390555e-04 -3.216107352335769e-19
-7.141949879799579e-03 -3.749446713593901e-04 -3.214412703836097e-19
-7.222654234535251e-03 -2.890313237765010e-04 -3.279462308915439e-19
-7.288499525614852e-03 -2.593151742972900e-04 -3.320186900620871e-19
-7.231254124461275e-03  2.621851584539217e-03 -3.333590611986468e-19
-7.621283860167974e-03 -5.679174560860047e-04 -3.441142821518812e-19
-6.492378586044361e-03 -2.040081431137925e-03 -2.918001138932232e-19
-7.101185696323057e-03  5.653128798174077e-04 -3.338256953325745e-19
-7.324669380671239e-03  7.833735315674988e-04 -3.358858668618435e-19
-7.337735307753323e-03  5.770286575911239e-04 -3.302224591789521e-19
-7.149062458734718e-03  7.851022764147280e-06 -3.238406126564608e-19
-7.226800247940601e-03  7.936393560138046e-06 -3.305887232093677e-19
-7.282193817253650e-03  3.226099999789533e-04 -3.362191454131245e-19
-6.963956431785968e-03  1.281219071334825e-03 -3.268154492812796e-19
-4.345235021588846e-03 -3.761273436884536e-04 -2.258777277714031e-19
-3.212212319830121e-03  7.647676938987077e-03 -9.272283318795611e-20
-6.556147844333141e-03 -5.386101280744246e-03 -2.968947924969661e-19
-6.346843228107846e-03 -1.630093934762537e-04 -2.907617763065177e-19
-3.774869863263512e-03 -3.829016438578168e-03 -1.327699436119964e-19
-5.331302931647275e-03  3.343998341619587e-03 -2.892038887516586e-19
-7.680899055603484e-03 -2.853269268870645e-03 -3.383448714906174e-19
-6.626734046617551e-03 -3.737590923077802e-05 -3.203676836765746e-19
-7.783607787865274e-03  3.091875287583803e-04 -3.542741182627046e-19
-7.299524362833266e-03  2.899583278559556e-04 -3.271276874786314e-19
-6.946917795669623e-03 -6.037324812274616e-04 -3.133607975204773e-19
-6.699029214024941e-03  1.382711218355266e-05 -3.090507894666247e-19
-7.340168261681485e-03  1.515045341016552e-05 -3.232476801521556e-19
 4.650825955300224e-03 -5.003827826480628e-03  2.217890761610259e-19
-6.338343221777223e-03 -9.141492849227242e-06 -4.828428105449632e-19
-6.750187314371581e-03 -9.735476118311271e-06 -4.889539020247722e-19
-6.749026823643765e-03 -3.776755083676245e-04 -1.483105546427454e-19
-4.499203995432834e-03 -5.087766627671842e-03 -2.046740088094222e-19
-6.601897527983720e-03  8.023104638247281e-04 -3.316735208168914e-19
-7.615714848327420e-03 -1.263651740899455e-05 -3.453059480444205e-19
-6.625522745302547e-03  7.657995099397616e-04 -3.103559963797529e-19
-6.096296631542693e-03  7.046298310865777e-04 -2.757588993503128e-19
-5.405679030149895e-03 -2.326985215768238e-03 -2.393454224765515e-19
-7.066243272945074e-03  6.636413601261643e-04 -3.171556759708322e-19
-5.008666387039874e-03 -4.948573255600812e-03 -2.135892698031936e-19
-2.587708309902978e-03  5.260216133224338e-03 -2.173395477572112e-19
-9.098691190070292e-03 -1.283318814582678e-03 -3.938951543817788e-19
-7.999638935487247e-03  2.741382543569546e-03 -4.110821347935852e-19
-6.523759253887243e-03 -2.052313186270898e-03 -3.766463119969390e-19
-6.422148906726585e-03  3.529481538736231e-03 -3.124303412096225e-19
-6.755885585579206e-03 -2.343519835444896e-03 -3.004610332841627e-19
-5.816680204848909e-03  2.295747740917744e-03 -2.979943683990164e-19
-7.395774272225433e-03  3.066863186174774e-05 -3.191945198143570e-19
-6.127763180851762e-03 -6.663307439199186e-05 -2.813075475332033e-19
-6.106786448581886e-03 -3.406919056795617e-05 -2.854052040000562e-19
-6.314788450376772e-03 -1.899130304306705e-04 -2.953497392632162e-19
-6.970954179985011e-03  4.465041903144801e-04 -3.173409437108064e-19
-5.824732186540143e-03 -2.685792482456406e-03 -2.583646399224900e-19
-6.094642666797947e-03  7.939132971154132e-04 -2.964169627764174e-19
-6.815506550933340e-03 -5.666060721685474e-05 -3.084633056245381e-19
-6.723844775448377e-03 -4.379324559343591e-04 -3.059877552415276e-19
-6.862953121845236e-03 -4.142489927905881e-04 -3.146362812968504e-19
-6.927170299073334e-03  1.268274519844681e-04 -3.189562000335852e-19
-6.880541588817613e-03  1.259737411248050e-04 -3.136703101364673e-19
-6.713822272427556e-03 -2.759621356184879e-04 -3.095359269985016e-19
-6.529898736634943e-03  2.630935353582510e-04 -3.384805375450377e-19
-6.627484799960407e-03 -7.896037505465005e-04 -3.078108729187296e-19
-7.135802398076868e-03 -3.181539224668626e-04 -2.792753082976103e-19
-7.026222094568627e-03  3.017139864498120e-04 -3.260142667876821e-19
-6.801543469550073e-03  2.920660301637714e-04 -3.129183140667104e-19
-7.645516212620962e-03  2.750052180525935e-04 -3.306716963654122e-19
-6.109460300211604e-03 -4.542403563223055e-03 -2.725077666001025e-19
-7.799236165217043e-03  3.450526576518002e-04 -3.674898741960878e-19
-7.365225076229212e-03  1.670065420711675e-03 -3.404546292527941e-19
-6.983071839973840e-03  1.858150573843896e-03 -3.041484901335301e-19
-6.982818541300063e-03 -6.313315275659236e-04 -3.355658924759166e-19
-6.965105800993331e-03 -1.874648824363236e-04 -3.267142172253906e-19
-6.753034389446386e-03 -1.817570090213810e-04 -3.225033678870433e-19
-8.520788652963134e-04  6.614390979143447e-03 -1.932791673053437e-19
-6.565374486794372e-03 -4.468188392464585e-04 -3.065189363989186e-19
-6.623740292763120e-03 -5.996668570856021e-04 -3.207638603523285e-19
-6.596401659616123e-03 -5.971918095306447e-04 -3.269573146349678e-19
-3.990516367625470e-03  5.140183613586324e-03 -1.366736210619379e-19
-6.924676551228856e-03  1.164748439490026e-04 -3.267770191178315e-19
-6.315235730279203e-03  5.720396439435267e-04 -3.345264418060376e-19
-6.554762463614646e-03  2.873210438468912e-04 -3.109575401717886e-19
-6.746990753961309e-03 -1.197102280355537e-03 -2.986786064902252e-19
-7.286640578222208e-03 -1.292851045808774e-03 -3.194604002063258e-19
-7.120942849678735e-03 -3.770391222781272e-05 -3.457903076345799e-19
-7.043567436496360e-03  1.535684907598612e-03 -3.037872734238922e-19
-5.430014550918815e-03  1.375662105939172e-03 -2.639595280248926e-19
-5.844334729826371e-03 -1.830893157786329e-03 -3.387876281843280e-19
-5.957060113534189e-03 -1.866207379726114e-03 -3.255685160092439e-19
-6.082662420711182e-03  1.301393332059443e-03 -3.222465977145633e-19
-7.467997182103463e-03  1.692749789026539e-03 -3.438341747518212e-19
-6.905167937081944e-03 -1.863369911628035e-03 -3.204033832176552e-19
-6.636771748483908e-03 -4.587091038262372e-04 -3.139166618602094e-19
-6.959855506355592e-03  8.657447498204375e-04 -3.394973976191830e-19
-6.897748803700512e-03 -6.251857940572175e-04 -3.252992716015177e-19
-7.249645405722795e-03  7.487334279328474e-04 -3.265135905141782e-19
-5.943346076285305e-03 -3.661396880067668e-03 -2.333627136315404e-19
-6.356383206986249e-03  4.881234833714488e-04 -3.129842679175535e-19
-6.822580427708762e-03 -2.004680339639208e-04 -3.203603885932119e-19
-7.016043943271016e-03  3.107162993447846e-04 -3.251234675840140e-19
-6.855767537091956e-03 -6.480197275995189e-04 -3.217936657355018e-19
-6.883412651994018e-03  1.327994864071549e-04 -3.280808974422597e-19
-6.780314704619840e-03  2.131204213015226e-04 -3.241310684108399e-19
-6.721043770797699e-03  1.657483634186970e-04 -3.209296220159318e-19
-6.851200273887636e-03 -2.362447692074753e-04 -3.228655779123809e-19
-6.574553980671600e-03 -5.260701467161703e-04 -3.195176297621284e-19
-6.579160324688074e-03  2.274883426023617e-04 -3.245437040711020e-19
-7.082873891528819e-03  1.033913326265685e-03 -3.286363481956141e-19
-6.908216973008405e-03 -1.377043585065152e-03 -3.319186915648615e-19
-6.404939020017684e-03  5.886790913329863e-05 -3.195228471088616e-19
-6.818692400638105e-03  7.478086928163639e-05 -3.262998048417916e-19
-6.651440181182522e-03 -4.208205598966090e-04 -3.200718780368029e-19
-6.746311389448047e-03  2.705885156806559e-04 -3.257930714072680e-19
-6.779313815336485e-03 -2.399487286427029e-04 -3.247443054590850e-19
-6.843363313571096e-03  1.645133329355762e-04 -3.288491926255578e-19
-6.601791675424074e-03 -8.322265768462754e-04 -3.151562554493430e-19
-6.571000407523892e-03  8.197769706146084e-04 -3.224485341204114e-19
-6.895132872880584e-03 -2.796518627931952e-04 -3.248737089255368e-19
-6.847287390321042e-03  2.727015464617281e-04 -3.303696626621160e-19
-6.903498692358885e-03 -3.256797573040411e-04 -3.281604395275029e-19
-6.801509506533333e-03  7.998463615875066e-05 -3.277752747069935e-19
-6.807775747836060e-03 -2.633615387718580e-04 -3.247153953203532e-19
-6.750717206241944e-03  8.493200224305777e-05 -3.279984034649980e-19
-6.889269391748034e-03 -6.283668921097709e-05 -3.293925924755109e-19
-6.839660167644855e-03 -1.171155324476401e-04 -3.280174366497562e-19
-6.900243279499636e-03  8.662521470497653e-05 -3.314530413709797e-19
-6.850604452366950e-03 -1.934549425687285e-04 -3.302334041940199e-19
-6.838342499406879e-03  1.108777027310738e-04 -3.293804286761603e-19
-6.743109994623821e-03 -7.253845021380833e-04 -3.254661056427677e-19
-6.790505673759308e-03  2.326090361991535e-04 -3.293937100709922e-19
-6.800750006384342e-03 -4.223574224033950e-04 -3.246027428257987e-19
-6.581367411194561e-03  2.553552627031718e-03 -3.439636895677200e-19
-6.980664564468711e-03 -6.161169223930522e-04 -3.292427192894299e-19
-7.001809854724744e-03  5.826803704658032e-04 -3.345911840062683e-19
-7.044424954081522e-03 -6.724623016781041e-04 -3.294153006121996e-19
-6.749656287045517e-03  6.732530550930196e-04 -3.357486907766768e-19
-7.042223767559663e-03 -2.190249779122569e-04 -3.368746646225983e-19
-6.989310614906766e-03  2.169350356492281e-04 -3.350645254770748e-19
-7.050886960305639e-03 -3.949051532659725e-05 -3.356116065110360e-19
-6.929044977431999e-03  5.594660253967917e-06 -3.341814292855026e-19
-6.948614446437650e-03  7.290943344397973e-05 -3.347263653706657e-19
-6.909114084904409e-03  7.249496966815502e-05 -3.332498260902083e-19
-6.927110048121970e-03 -1.150119130167747e-05 -3.327400852386994e-19
-6.895444583051254e-03 -1.335320854532446e-04 -3.321385818204029e-19
-6.848779429532006e-03  3.828366111935886e-05 -3.328137463039037e-19
-6.867998874426298e-03  3.980748632703685e-04 -3.349850422847990e-19
-6.937394905444380e-03 -5.046019024650968e-05 -3.317458428776824e-19
-6.854645001731853e-03  3.062378989778225e-05 -3.302546850990839e-19
-6.832045743736189e-03 -1.949813394581043e-04 -3.321455063799865e-19
-6.769698705058821e-03  3.842374942321797e-04 -3.334093455017545e-19
-6.941470251973871e-03  1.333453054216452e-04 -3.328369023770321e-19
-7.036308822681263e-03  1.853812650435879e-04 -3.341127825040297e-19
-6.650381007232786e-03 -3.702685283246632e-04 -3.244917115071564e-19
-6.682139101245200e-03  8.357624669977036e-04 -3.279457148613230e-19
-6.936453044285627e-03 -2.245392145196982e-04 -3.326406722786165e-19
-6.844190239820284e-03 -5.799441726793003e-05 -3.329315568396779e-19
-6.843591005866380e-03  1.839080220816785e-04 -3.351484888313512e-19
-6.849915557068875e-03  2.169716879230103e-04 -3.340903240025478e-19
-6.653555334019107e-03  4.104040012363380e-04 -3.288216748269716e-19
-7.145711405775662e-03  6.423057508499926e-04 -3.361138461174609e-19
-6.895592642101754e-03 -7.251849865465232e-04 -3.341809359613072e-19
-6.538599850159079e-03  1.409735355473290e-04 -3.311416358388082e-19
2.845704344302253e-03 7.677505137335512e-03 2.973755400748378e-20
-6.482766579466910e-03 -1.874516225605068e-03 -2.915038319288277e-19
-6.185612396692979e-03  7.190107332616960e-04 -3.207981698329846e-19
-7.061544063103044e-03 -3.392992454837899e-04 -3.393423735245003e-19
-6.994948397995921e-03  8.379467099733459e-04 -3.343967935735422e-19
-6.744658557723225e-03 -1.666087037731740e-03 -3.072576389121657e-19
-6.599480013706128e-03  3.861355801365157e-04 -3.316513500536816e-19
-6.546409815070355e-03 -1.035701788137111e-03 -3.173575854817806e-19
-7.008403870269594e-03  5.619685265253816e-04 -3.396785628442967e-19
-6.698616248180665e-03 -1.848134019008603e-03 -3.029536373867301e-19
-7.169066623905946e-03  5.236183192161832e-04 -3.526159197991952e-19
-6.863274338341643e-03 -2.030363407320645e-03 -3.344101961213769e-19
-6.969193666558107e-03  1.935126751263005e-03 -3.580731637056056e-19
-8.030110227510502e-03 -1.142314484331544e-03 -3.624850307336240e-19
-8.376037579056276e-03  1.185792897288736e-03 -3.937474450501202e-19
-7.925023407103295e-03  1.121942968652353e-03 -3.777936501879432e-19
-6.165782006487956e-03  1.741135828371010e-03 -3.021905656300431e-19
-5.433205277428530e-03  4.692953697212124e-03 -3.461687502007891e-19
-6.003320079686200e-03 -3.421870628683487e-03 -2.394227997722311e-19
-5.440267278956833e-03  1.795286653148944e-04 -3.085944522907413e-19
-6.199522198733274e-03  5.511016888702263e-05 -3.221959102051776e-19
-6.898405270525766e-03  3.079803672482509e-04 -3.251380643061361e-19
-4.196688155287978e-03 -5.456575585243120e-03 -2.002212688166191e-19
-6.246124997835618e-03 -2.576969515005930e-04 -3.226953424160593e-19
-6.789398719891984e-03 -4.344682268634026e-04 -3.335456593215190e-19
-6.527581839274780e-03  6.262955514825134e-04 -3.468140011563606e-19
-6.875443474671753e-03  5.102179906211567e-04 -3.302393275635501e-19
-6.997400328554089e-03 -4.570614935359317e-04 -3.353987406000750e-19
-6.628400678764384e-03 -2.351698829662090e-04 -3.290584865460267e-19
-6.661444054027118e-03 -3.735781877510823e-04 -3.398501124564561e-19
-6.559142151941982e-03 -6.038741999316378e-06 -3.352040012227426e-19
-6.815068360779381e-03  2.481835754143557e-04 -3.396832819709887e-19
-6.766181259313834e-03 -1.258584786653692e-04 -3.347408758314291e-19
-6.815854286343849e-03  6.424047931088945e-05 -3.387457915301577e-19
-6.746242961820968e-03 -2.777146775852933e-04 -3.412279434686343e-19
-6.760998733860227e-03  1.756966819602638e-04 -3.375220427167685e-19
-6.780953464782777e-03 -6.226873686841105e-04 -3.318539725017317e-19
-6.683202939764403e-03  1.187724336167203e-05 -3.364029244014654e-19
-6.486467145501416e-03 -1.450496396010814e-04 -3.321373600773999e-19
-5.277204123686415e-03  4.321118534208033e-03 -2.288141394624823e-19
-6.828048604040782e-03 -4.139382912877969e-04 -3.309140108860072e-19
-6.617691308682382e-03 -1.880894563022560e-05 -3.357773642623567e-19
-6.518440313786001e-03 -3.164691417650819e-04 -3.340450786952040e-19
-6.662028859739402e-03  3.700653958099693e-04 -3.365680799329527e-19
-6.733433737957919e-03 -3.040040500048931e-04 -3.347805763904500e-19
-6.367415142059225e-03 -8.701983700637711e-05 -3.334428227768743e-19
-6.521275371086948e-03  1.070013708631230e-03 -3.343801869801320e-19
-6.563200830271688e-03 -4.679344592365831e-05 -3.342666917487520e-19
-6.998309854487430e-03 -4.989562900811106e-05 -3.429369132452233e-19
 6.978356364509854e-04 -5.578067542492604e-03  1.413830476720656e-19
-6.222405833577943e-03  1.256623818682074e-03 -3.427743776375364e-19
-6.601235559708239e-03 -3.279456894264425e-04 -3.368746369131150e-19
-6.447522735153779e-03  8.302082841286671e-04 -3.394951619280374e-19
-6.075682371024612e-03 -1.666351198530304e-03 -3.432899266091677e-19
-5.534827475631207e-03  3.489933916256223e-03 -2.797629957335544e-19
-7.551669998010086e-03 -1.603669343358865e-03 -3.617965856675990e-19
-6.608756638807200e-03 -2.454596269047045e-04 -3.516429996466821e-19
-6.832605760124624e-03 -6.623825750343791e-05 -3.570335635463712e-19
-6.926084653104646e-03  3.597050360773082e-06 -3.586954879383408e-19
-6.004647912656404e-03 -2.780351534608652e-03 -2.983446508642580e-19
-6.901303551407059e-03  9.945888755269491e-04 -3.746316195298195e-19
-7.277260395218159e-03 -1.132213544255130e-03 -3.683761905817011e-19
-7.062078488820503e-03  1.210459818828488e-03 -3.829822279256645e-19
-5.016539006267136e-03 -1.262008990944011e-03 -3.283185184060301e-19
-5.431229854615695e-03  4.208755675362530e-03 -2.741837615883994e-19
-5.583802446332408e-03 -3.807744018064749e-03 -2.571816977280904e-19
-5.716183697827398e-03  1.902129407524363e-03 -3.693331364265356e-19
-7.063193297906470e-03 -2.423435691379532e-03 -3.500176678403402e-19
-7.171430976619175e-03  2.016451246920853e-03 -4.083807648979172e-19
-6.401662400961405e-03 -1.927303142109240e-03 -3.382075981850465e-19
-5.591340096178729e-03  3.144290411541059e-03 -3.350879999470412e-19
-6.979398655447432e-03 -7.710298206040203e-04 -3.694071858958566e-19
-6.672693495035818e-03  3.578815848772431e-05 -3.766479191571574e-19
-7.423695499996842e-03 -9.432600132336168e-04 -3.902441376963280e-19
-7.233882061554197e-03  1.875178861019603e-03 -4.044272309803912e-19
-7.360379715669123e-03 -8.361571297806314e-04 -3.749110111502303e-19
-6.436886409767348e-03  6.568401650448269e-04 -3.900128872522724e-19
-6.460130311549173e-03 -1.860763190755256e-03 -3.856678861391475e-19
-6.963030463735032e-03  6.973418796898983e-04 -4.171362101708157e-19
-5.925746727558941e-03 -2.887649517165807e-03 -2.985492315039145e-19
-6.533019533487104e-03  1.079897841778843e-03 -4.225930606925556e-19
-6.534495758963491e-03 -1.893430920220831e-03 -3.784407046443330e-19
-5.871104458087546e-03  7.191384023889913e-04 -4.149257415808753e-19
-6.273567492246258e-03  1.484136594489372e-03 -4.403769687350397e-19
-6.255254746188653e-03 -1.440112203921567e-03 -3.842441984330772e-19
-6.304403957297854e-03 -1.199261169808338e-03 -4.100788832309044e-19
-7.205778478945823e-03  8.184219155320951e-05 -4.698506676458993e-19
-7.195483137771743e-03  8.172525855465329e-05 -4.825620065885263e-19
-6.915428390331746e-03 -1.291442117513633e-04 -4.878726992664478e-19
-7.212364598524242e-03  9.313712961320610e-04 -5.377091734092135e-19
-6.865536140393967e-03 -1.386691974973712e-03 -4.525914679454394e-19
-6.809954632240613e-03  8.533612617134906e-04 -5.468957412745733e-19
-7.549394130021819e-03 -6.670592513109884e-04 -5.343573516499184e-19
-7.831512034904104e-03 -5.574858490700827e-05 -5.694448453821385e-19
-5.653602540740126e-03 -1.531191283023328e-03 -4.723480222735903e-19
-5.503684077707468e-03  3.883130363851859e-03 -7.030929485741450e-19
-7.300416247362411e-03 -1.585440091193209e-03 -4.903114504598107e-19
-5.759564578060103e-03 -1.159117563128180e-03 -5.255167083629930e-19
-6.411152212507737e-03 -3.855689111465697e-05 -6.269618958340245e-19
-6.990091764270948e-03 -1.932292026751168e-04 -6.711885765472848e-19
-6.515486457288073e-03  1.064829521145662e-03 -7.898279527843069e-19
-7.143101623733035e-03  4.022004282863505e-04 -7.711544389267929e-19
-6.745402598479489e-03 -1.884611236089445e-04 -7.664522620668037e-19
-6.580452459391880e-03  1.609217409464161e-04 -8.714667372751927e-19
-6.628835331188623e-03  1.408308721828304e-04 -9.528933541697250e-19
-6.985509757007590e-03 -1.620894217627902e-04 -9.917487569499008e-19
-7.176467295559962e-03 -9.446913803298959e-04 -1.021727953582675e-18
-1.920048353469380e-03  6.443757787830148e-03 -1.425578035310262e-18
-7.719281771442472e-03 -1.257455928345867e-05 -1.451619625318280e-18
-6.873129870490459e-03 -1.119619435827935e-05 -1.704161074410255e-18
-6.942715975362295e-03  6.102632634867575e-05 -2.059604232887737e-18
-6.929724455822450e-03  6.091213116713334e-05 -2.485692723492647e-18
-6.910418623123139e-03  8.693913148406614e-05 -2.928420555144385e-18
-6.874568158021367e-03  3.542561625288673e-05 -3.715651331913419e-18
-6.677615040758615e-03 -1.876024872640201e-04 -4.603321071062699e-18
-6.816194765788481e-03  3.359312345881738e-04 -5.801845352926950e-18
-6.854588740621140e-03 -1.341576536970053e-04 -7.252926260469760e-18
-6.886058937952682e-03  1.089483334356489e-04 -1.200876687203490e-17
-6.847542533421618e-03 -9.955577158850307e-05 -1.836955718845491e-17
-6.856203109994637e-03  2.335747199413903e-04 -2.481036819305066e-17
-6.862149676663450e-03 -4.451879565355165e-05 -3.586210942607876e-17
-6.849524143811735e-03  2.331389324688732e-04 -5.048827594067638e-17
-6.876523815562206e-03 -2.708583161125884e-05 -6.727042032415775e-17
-6.859087040914440e-03  2.334404729199868e-04 -9.039517675556655e-17
-6.896483125270019e-03 -1.324088317434920e-05 -1.236197905476270e-16
-6.892787632966704e-03  4.245686106637701e-05  3.338593795558801e-16
-6.879764434002471e-03  5.214159544994162e-05 -6.271788225960577e-15
-6.881211243421483e-03  1.968252768714745e-04  8.778562222566648e-16
-6.882536711289626e-03  5.216260648309217e-05 -6.603249873792864e-15
-6.857017292199999e-03 -4.607134886786670e-06 -1.420517094882039e-16
-6.805654208613998e-03 -7.722662160355248e-05 -8.670110445328018e-17
-6.823475475853101e-03  2.112407766847986e-04 -7.038242811261156e-17
-6.858404219872843e-03  5.237510059046241e-05 -4.683630563458410e-17
-6.852835960783373e-03 -1.724847035560234e-06 -2.437751161637142e-17
-6.855783570744623e-03  5.453133810636632e-05 -1.377140582699710e-17
-6.841039171249738e-03  5.441406021599330e-05 -9.197786298798766e-18
-6.874783576452101e-03 -5.853190903749496e-05 -5.792682004470360e-18
-6.911752166923415e-03  3.516941893085310e-05 -3.649443579246255e-18
-6.840710734527225e-03  2.972815623264580e-04 -2.857061924157160e-18
-6.850204401055300e-03  2.316784529053664e-05 -2.471475703325732e-18
-6.825552070521088e-03 -7.809458249219700e-05 -1.969260105127307e-18
-6.924448202755780e-03 -7.922610300177123e-05 -1.566388977790815e-18
-6.931366449661850e-03  4.147683066809089e-05 -1.147158329708612e-18
-6.865147512438511e-03 -1.454727124994487e-05 -1.055764180501338e-18
-6.822913075959463e-03 -1.445777633342107e-05 -9.306292396062074e-19
-6.798881853158579e-03 -5.715725695059856e-05 -8.334595219426493e-19
-6.793053598250811e-03 -9.265202856731654e-05 -7.527780262968815e-19
-6.809032015798975e-03 -9.286996189843503e-05 -6.928027050590749e-19
-6.849377738861918e-03 -9.342024654314316e-05 -6.446821351690036e-19
-6.716730126604677e-03 -1.396570784826434e-04 -6.114521386223393e-19
-6.701437702762885e-03  2.582162119696639e-04 -5.917599041798393e-19
-6.659200894927911e-03  3.430288018506780e-05 -5.568871504317909e-19
-6.791239488225705e-03 -4.677048775462160e-04 -5.301023663469549e-19
-6.819360855595305e-03 -3.959033986364094e-04 -5.185465809389651e-19
-6.882406757906252e-03  1.820792929839481e-04 -5.086678587781030e-19
-6.813222698704722e-03  1.802489762025834e-04 -4.850852847117644e-19
-6.977700229998578e-03 -9.593607834411595e-04 -4.580973630494429e-19
-7.299669425664833e-03 -3.159445616291884e-04 -4.698365540233738e-19
-6.990183947824172e-03  8.969046636000818e-04 -4.599516126450501e-19
-6.459848906476382e-03  8.288578174218159e-04 -4.293646957227251e-19
-6.548015019230421e-03 -1.438479577476940e-03 -3.937414350805723e-19
-6.632146902430891e-03 -3.273151936867051e-04 -4.148546999951935e-19
-6.965280252529750e-03  3.897868978752675e-04 -4.171331730496523e-19
-6.974980431632032e-03 -1.456310535426540e-03 -3.910109977045094e-19
-6.994803371737045e-03 -2.792156597410310e-05 -4.106143453857719e-19
-7.000017314331482e-03  7.446395985048702e-05 -4.070728231382571e-19
-6.397241683566058e-03  4.648903673997698e-04 -3.943804772877803e-19
-6.551450099253705e-03  5.951713337456055e-03 -3.737910948253148e-19
-6.847375514175981e-03 -5.276718329761360e-03 -2.783424869203113e-19
-6.198193212519645e-03  2.172961064572704e-04 -3.826503074459016e-19
-6.735556207091110e-03  1.441042757119813e-04 -3.881900126847935e-19
-6.722773878386652e-03  7.889990049752143e-05 -3.825251117947634e-19
-6.752440329350609e-03 -1.066118567812649e-04 -3.779599987352883e-19
-6.825737540155296e-03  3.890972900948877e-04 -3.802112946620741e-19
-6.823505855702705e-03 -1.132094869879152e-04 -3.755667021858404e-19
-6.864574020265214e-03  3.672195388342429e-04 -3.763843241382988e-19
-6.802965864868759e-03 -2.272117780590234e-04 -3.694342413411825e-19
-6.872490502896760e-03  8.292591070388561e-04 -3.757327940235949e-19
-6.936445735234188e-03 -3.717571631147117e-04 -3.684279288332096e-19
-6.860472663505806e-03  2.334265727908547e-04 -3.689657616955378e-19
-6.650744388565519e-03 -8.216317657985924e-04 -3.571692998154889e-19
-6.678888320666361e-03  6.417015034994313e-04 -3.644278986606959e-19
-6.713675147488316e-03 -2.952023426394409e-04 -3.551426560728996e-19
-6.951881201488153e-03  7.679735208135166e-04 -3.639728179973731e-19
-6.623589500554635e-03 -7.722805172205923e-04 -3.514426455061835e-19
-6.574113191959141e-03  2.193437499785901e-03 -3.549449706261482e-19
-6.875401118969698e-03 -9.707015557350664e-04 -3.496370331345923e-19
-6.398190725121758e-03  1.358074239804314e-03 -3.509795190883393e-19
-6.593915591272911e-03 -4.433167844984787e-04 -3.449622718795752e-19
-7.649644624068584e-03  1.850482163515152e-03 -3.725490607163000e-19
-3.695620854109136e-03 -6.213497019698321e-03 -1.301018131859898e-19
-6.264280958045018e-03  6.720438310246205e-04 -3.478510373380549e-19
-6.744290790144424e-03 -6.573969721081308e-04 -3.426701203378205e-19
-6.651259374356823e-03  3.181117888843164e-04 -3.475625613135401e-19
-6.749241306165899e-03 -8.385915967403140e-04 -3.415901223766261e-19
-6.624976284974262e-03 -2.918964974332597e-05 -3.457302278346094e-19
-6.762704717663049e-03 -4.941302283360339e-05 -3.462739915350688e-19
-6.739376782669004e-03 -7.414609768742152e-05 -3.445962551248413e-19
-6.731023452445456e-03 -1.172490296735071e-04 -3.428327476407923e-19
-6.617119103889321e-03 -5.873568556566877e-04 -3.380888326966178e-19
-6.708120726531282e-03  1.997019238091680e-04 -3.420110825993822e-19
-6.730254422614743e-03 -3.813785428273619e-04 -3.378324677672603e-19
-6.721086981545605e-03  1.400799130982254e-04 -3.408219421725709e-19
-6.686585406173105e-03 -3.612998856859986e-04 -3.382048523836919e-19
-6.817220131849674e-03  5.962514211705606e-04 -3.419431005979298e-19
-6.758714450615314e-03 -8.639060045693807e-04 -3.318546143737185e-19
-6.540807055671237e-03  2.738544846605374e-04 -3.344938190822778e-19
-6.582465745099009e-03 -2.598854820112528e-04 -3.302574914330257e-19
-7.038942456043302e-03  5.818820336346949e-04 -3.413156542977324e-19
-6.648918623342850e-03 -1.147590184389633e-03 -3.270776562321166e-19
-6.628622189399948e-03  4.699998355062042e-04 -3.353917699748755e-19
-6.694765098176500e-03 -1.788258602304888e-04 -3.291479740565735e-19
-6.504892869204286e-03 -4.907629046130281e-05 -3.267877678529874e-19
-6.484692518089578e-03 -2.347516986033957e-04 -3.280093098183813e-19
-6.519048208573677e-03  5.391670140979175e-04 -3.300917098148492e-19
-6.629393215190695e-03 -9.678819054365327e-05 -3.292660316943038e-19
-6.582858239520616e-03  2.462915350635859e-04 -3.281798349061061e-19
-6.984417329163657e-03 -9.080352204268643e-05 -3.337710796607961e-19
-6.613360535217850e-03 -6.212794435232593e-04 -3.251889390386776e-19
-6.610134743624331e-03  7.883586944171918e-05 -3.321877496123988e-19
-6.472110056860368e-03  6.097140071964284e-04 -3.316525813327654e-19
-6.453985121588358e-03  3.087578420603965e-04 -3.259814855934514e-19
-6.704743111312072e-03  1.677770311552014e-04 -3.246443631657712e-19
-3.327973754679554e-03 -5.213216100818350e-03 -1.633444938410968e-19
-6.298085199321490e-03  6.233360037747073e-04 -3.286009114137511e-19
-6.770520226371544e-03 -3.309175975498461e-04 -3.269932320493846e-19
-7.417153199327307e-03  5.422758233865027e-04 -3.423969818878120e-19
-6.657794614995808e-03 -1.487730483749209e-03 -3.257085122540877e-19
-6.404871407030961e-03  1.959964838178461e-03 -3.298660329789618e-19
-7.305127439591236e-03 -1.949052488962365e-04 -3.370319418449993e-19
-6.500016088985028e-03  5.486179678262567e-04 -3.217853141208596e-19
-6.521188223410932e-03  5.761622791852089e-05 -3.206741191275436e-19
-6.746587142209997e-03 -4.074725448135885e-04 -3.223990474136798e-19
-6.442973906807302e-03 -4.411288757244795e-04 -3.209364487697863e-19
-6.635915489224479e-03  1.172550668599079e-04 -3.263538589453185e-19
-6.567563243061587e-03  3.911028281902826e-04 -3.264045883546442e-19
-6.504100747425443e-03  4.091048676146433e-05 -3.204503965401691e-19
-6.666987099743016e-03 -2.693900187655587e-05 -3.223551082230499e-19
-6.256127641558325e-03 -7.594779467256676e-04 -3.128947996993948e-19
-6.549402760051775e-03  5.712295685455923e-04 -3.251293639279204e-19
-6.447532654674993e-03 -7.062419538429833e-04 -3.123444051394492e-19
-6.514347708760658e-03  9.147454989759092e-04 -3.227497801790933e-19
-6.619585210558429e-03 -7.682175000093257e-04 -3.183523091321359e-19
-6.643047460887536e-03  4.920696113304010e-04 -3.253044896281846e-19
-6.227804917894488e-03 -1.672294320437313e-03 -2.629143278583124e-19
-6.211513969767332e-03  7.243225251972483e-04 -2.568584298816022e-19
-6.629686053338888e-03 -2.641760458666701e-04 -6.600714185183479e-19
-6.526168710441266e-03  3.610747104067187e-04 -5.540387457763556e-19
-6.624555342974559e-03 -1.778474546266500e-05 -2.947411317455057e-19
-6.663664888745345e-03  1.010434758948776e-04 -3.207108040621080e-19
-6.590613915669953e-03 -3.838116655788282e-04 -3.189531262839554e-19
-6.511923850263409e-03  1.028613927705374e-04 -3.201644369034472e-19
-6.800719227378843e-03  3.025879128268713e-04 -3.244802937152577e-19
-6.623683786618350e-03 -8.282251652970807e-04 -3.162724686361796e-19
-6.298309418008707e-03  9.946477175383306e-05 -3.190748277736549e-19
-6.520326987848581e-03  2.668553769155499e-04 -3.182034872705224e-19
-6.912477574842658e-03  6.032838980484263e-05 -3.224921126269407e-19
-6.792554063783292e-03 -5.695727215901849e-04 -3.217965178286094e-19
-6.838575377120419e-03 -4.941475355400764e-04 -3.270401005812715e-19
-6.432491860412797e-03  2.193246855706945e-03 -3.102408566753903e-19
-6.737945092594234e-03 -1.593200987715361e-04 -3.208370322791483e-19
-6.692288220353966e-03  7.794904899146601e-04 -3.267856591805714e-19
-6.436835890003124e-03 -2.016948099150556e-03 -3.022169453858368e-19
-6.710452105073301e-03  3.625203450210142e-04 -3.235695250517720e-19
-6.018251264053761e-03 -1.568838128594519e-03 -3.148776034820433e-19
-5.918330351283444e-03  2.000428436654936e-03 -3.078935159366795e-19
-7.187147264112776e-03 -3.533562092435464e-06 -3.294320835357863e-19
-6.620038619715011e-03  1.700524976839250e-05 -3.210688553241706e-19
-6.512340991626485e-03 -7.646583296475085e-04 -3.202662148401590e-19
-6.552586811756346e-03  3.022214149192934e-04 -3.281069916188055e-19
-6.814579646036793e-03  2.816514547909660e-05 -3.287718273582968e-19
-6.805678630081242e-03  4.868828823726545e-04 -3.332890001356443e-19
-6.788103593860938e-03 -1.176991708939109e-04 -3.267629613883905e-19
-6.786276901485489e-03  1.476067937957703e-04 -3.292569266337909e-19
-6.727891653337168e-03 -2.183929324174692e-04 -3.268605844710272e-19
-6.788249772379682e-03  2.590258971446187e-04 -3.271711980943274e-19
-6.762327943750810e-03 -3.765210397810689e-04 -3.248271739909740e-19
-6.779103267198699e-03  2.949058304439109e-04 -3.292009254047492e-19
-6.845656918505669e-03 -3.027973785674687e-04 -3.269368096306644e-19
-6.863548093249893e-03  2.339241979193255e-04 -3.312259465707150e-19
-6.850794746509189e-03 -4.788945103465893e-04 -3.296123031069944e-19
-6.880815609745179e-03  2.172279867785125e-04 -3.365300963148610e-19
-6.842716101632844e-03 -4.185725745088234e-04 -3.331241940832094e-19
-6.862266097476007e-03  3.898346244918353e-04 -3.388609067348035e-19
-7.008487036507591e-03 -1.646596930899164e-04 -3.371222421972277e-19
-7.295828917549505e-03  5.514501275730822e-04 -3.406466460757785e-19
-7.184537611965206e-03 -6.454885913164094e-04 -3.363530773909569e-19
-7.225735280539952e-03  7.406483752985588e-04 -3.503104074881357e-19
-6.770622465589571e-03 -2.053156572411616e-03 -3.020525130895770e-19
-6.869316993263576e-03  8.666427417777193e-04 -3.331982026753981e-19
-7.037097895342082e-03 -1.003602978299967e-04 -3.370530011650479e-19
-6.883966940126235e-03 -1.871540510725672e-04 -3.321605157855058e-19
-7.163382060065377e-03 -5.551179364120622e-04 -3.356395974836493e-19
-7.640755978521599e-03 -5.921114713496555e-04 -3.506783255003814e-19
-7.465125374660602e-03  4.489446337077638e-04 -3.436008930072717e-19
-6.873602818334507e-03  1.379727427048635e-03 -3.513854149435586e-19
-4.716238798661843e-03  1.921592120452416e-03 -2.714412343205763e-19
-6.631123493843327e-03  3.297477028416814e-03 -3.468780668285891e-19
-3.917308194178275e-03 -4.718978280937498e-03 -2.388532321453198e-19
-6.915735785038529e-03  1.232143267011722e-03 -3.476973717818659e-19
-6.325907696247145e-03  1.127056443152582e-03 -3.247841892167796e-19
-6.454875907414334e-03 -4.119438654354763e-03 -2.258264926918521e-19
-8.107922352095722e-03 -1.935682945231169e-03 -3.578832066748176e-19
-8.193046156559089e-03  2.754906151472989e-03 -3.743001725825745e-19
-6.576543507636921e-03  4.808058807478767e-03 -3.120124943553313e-19
-6.942945429062035e-03 -5.662767604658897e-04 -3.215670358644467e-19
-6.081664469513451e-03  1.097601834329088e-03 -3.017234909720305e-19
-6.608367966861469e-03 -8.302558210428392e-05 -3.218985255708784e-19
-6.657018950103148e-03  3.826742152200981e-04 -3.217065640674576e-19
-6.599891594508574e-03 -1.434784503053650e-04 -3.223219523422408e-19
-6.597953083310986e-03  5.179209357429549e-04 -3.115026426358039e-19
-6.821204433128419e-03 -3.513727322979187e-05 -3.237270244698992e-19
-6.666078953493076e-03 -5.028585361661094e-04 -3.232547220854028e-19
-6.608426507708116e-03  1.057844499760771e-03 -3.135134643780257e-19
-6.559902456225943e-03  5.834691078353896e-04 -3.188843345725557e-19
-6.484331633005762e-03 -5.289453630348136e-04 -3.107594606326098e-19
-6.370316312826459e-03  4.485325473759596e-04 -3.138045471391008e-19
-6.135762818267901e-03  4.320176882631624e-04 -3.014004211600784e-19
-5.974174458027406e-03  8.715023466414910e-04 -3.055909107806469e-19
-6.820315923489890e-03 -2.024433760420677e-03 -2.770537944499719e-19
-5.898610470019126e-03 -5.865306675325525e-04 -2.838159022079330e-19
-6.222757711921212e-03 -2.323387628539928e-04 -3.089141052075998e-19
-6.457706109075501e-03 -3.846092062768914e-04 -3.174691234671108e-19
-6.532232584421163e-03 -1.789362242349209e-04 -3.081348238225330e-19
-6.622928454206459e-03 -2.405805532477239e-04 -3.228179050781765e-19
-6.647957824360170e-03 -9.481327774634457e-05 -3.212489072561710e-19
-6.697824036244235e-03 -1.050529738872218e-04 -3.194752025819501e-19
-6.708128309493125e-03 -1.052145927268158e-04 -3.203775978187746e-19
8.111181090507230e-03 4.635254974432649e-04 3.550742819633330e-19
 7.300368602355637e-03 -8.233899699529308e-04  3.456473877006392e-19
 8.344636591572835e-03 -1.740799475371417e-03  3.747481495868364e-19
 5.876577157988213e-03 -1.876303096287945e-04  3.450665592088826e-19
-4.003983335441994e-03  8.767825567381180e-04  1.405659550745354e-19
-2.464920580998761e-03  7.513712202402207e-03 -1.502353048613997e-19
 8.943970435636531e-03 -3.428219683872404e-03  3.449489148675175e-19
 5.053225636241831e-03 -7.698681966387884e-04  2.865053854087325e-19
 6.374834768486324e-03 -9.712177726413208e-04  3.196792927936879e-19
 6.865943816417262e-03 -5.035369780211652e-04  3.333754949596524e-19
 6.947712965325140e-03 -5.095337923321098e-04  3.362315716947572e-19
 6.812147735200511e-03 -1.684226673081007e-04  3.331997414742940e-19
 7.228950074951393e-03 -1.787276349232863e-04  3.364660318834849e-19
 2.629701242614290e-03 -6.491971364335065e-03  1.550651369958736e-19
7.318904827626779e-03 1.756034275696373e-04 3.522246457750368e-19
 7.304017038444278e-03 -3.862269972063872e-05  3.463766965263833e-19
 7.185723029258619e-03 -3.799717626259087e-05  3.418661360120132e-19
 7.466199776502398e-03 -9.574902753311174e-04  3.539837192279769e-19
 5.834683377818540e-03 -5.424496354470236e-04  3.366591175375412e-19
-1.549655599122491e-03  7.971600342398676e-03 -1.149885215906458e-19
 8.083439516092208e-03 -1.964267260534198e-03  3.510593222118541e-19
6.832400062234695e-03 1.265477312097835e-05 3.373992811882899e-19
 7.130892600090720e-03 -3.891951051116793e-04  3.457579396289624e-19
7.015718938739267e-03 1.328175108592259e-03 3.290175404483384e-19
 7.103808060491526e-03 -8.632312477510227e-04  3.404182945277508e-19
6.903931072928120e-03 2.079191347503047e-04 3.370396324438473e-19
 7.060503311061861e-03 -4.590568113046934e-04  3.432283774401314e-19
7.087261095691453e-03 3.506025766878564e-04 3.408960334681802e-19
 7.132662170984217e-03 -2.517926387397421e-04  3.432257867243631e-19
7.079523503157134e-03 1.671350448860448e-04 3.417866778865281e-19
 7.159771458672203e-03 -1.371706436104577e-04  3.447327405510770e-19
7.092635664725766e-03 1.494237507440426e-04 3.429622807780687e-19
7.047824695576020e-03 1.913166642552246e-04 3.417110818249783e-19
7.002038598514937e-03 2.802700360306424e-04 3.377742492940608e-19
 7.048419762298181e-03 -1.905301316911422e-04  3.405416642461996e-19
 6.854616176893352e-03 -1.517496657581880e-04  3.397508521422599e-19
6.990079794321192e-03 2.754579175753326e-04 3.390842793767585e-19
6.900907571094812e-03 9.820336824337096e-05 3.367004283304615e-19
6.930494473065667e-03 2.547681821057765e-05 3.371180358351279e-19
 7.035027030686663e-03 -3.419454322594711e-04  3.416298106475570e-19
 7.061484967703061e-03 -7.928639945010126e-05  3.434734153117556e-19
6.954517600679701e-03 6.520476596577917e-04 3.371647889053706e-19
6.926664127532468e-03 1.205105117416401e-04 3.367101693085886e-19
 6.989624811023023e-03 -1.093040784693873e-04  3.388832458970636e-19
 6.896268566670975e-03 -3.441845718776379e-04  3.404505781160116e-19
7.002743333672566e-03 2.407657798226141e-04 3.398668442855241e-19
 6.994612410740513e-03 -1.331509453644645e-04  3.407330767307472e-19
7.077916829686978e-03 7.671034245333973e-04 3.369842006394979e-19
 7.135374414355605e-03 -2.397391273022224e-04  3.444339881058599e-19
7.056713488740910e-03 3.456273257266190e-04 3.398363860416687e-19
 7.097567979700181e-03 -1.233172159645295e-05  3.401256789995782e-19
 6.820459748119363e-03 -2.037572449788977e-04  3.381101939934226e-19
6.669264728921230e-03 2.651316111158959e-04 3.322906526068249e-19
6.578785863865001e-03 1.073224244924315e-03 3.147673531582625e-19
 7.167631739432139e-03 -9.691604024645448e-04  3.342094923338249e-19
 6.754942751678995e-03 -1.906538887864010e-03  3.373995293471691e-19
7.384597755978220e-03 1.251005883790513e-03 3.408156299237213e-19
7.178617309331503e-03 1.895741901690090e-04 3.366988471196281e-19
6.936121787683184e-03 8.481567930422430e-04 3.261782873475732e-19
 1.063168929907771e-03 -1.514255798673987e-04  2.279472112911550e-19
 6.066975768483682e-04  7.248412400071008e-03 -2.514676792729810e-20
 5.206247693419425e-03 -3.400028322041474e-03  2.610758255179670e-19
6.029927148367964e-03 1.056902424976320e-04 3.127456176584968e-19
 6.246598614528489e-03 -5.207381321445929e-04  3.149413125591715e-19
 6.417637747483849e-03 -5.349965476623840e-04  3.222625798551461e-19
 6.702451325416140e-03 -5.587395956368335e-04  3.310214406445266e-19
 6.937989320894043e-03 -5.783748601036387e-04  3.392686156414100e-19
 7.187598930117514e-03 -1.939646595715035e-04  3.440155558618510e-19
 7.448930425617404e-03 -7.215846758755295e-04  3.555703399954460e-19
6.733134846354793e-03 1.001955835775445e-03 3.371935594766236e-19
7.061544926143578e-03 1.642887408875006e-03 3.214771443049211e-19
 6.649575503379505e-03 -6.003600260358229e-04  3.306032987853126e-19
6.497384087911976e-03 1.161359788433504e-04 3.290802453894722e-19
 6.885240771092115e-03 -8.139614337427857e-04  3.412737148047793e-19
 6.183185115781979e-03 -7.406653371246556e-04  3.359709324758683e-19
6.766393279079608e-03 2.099169153591112e-03 3.215767765180065e-19
 7.567726928665132e-03 -9.080583132085304e-04  3.547415182420294e-19
7.151535898863606e-03 2.439533106515730e-04 3.437845141523474e-19
 6.776410365589603e-03 -1.508881066286870e-03  3.442271465252043e-19
6.903797788847502e-03 5.994723453722294e-04 3.419427425922009e-19
 6.994366103612803e-03 -3.116602679690795e-05  3.443125922386560e-19
6.920670774333016e-03 4.972249947472316e-04 3.388590275110491e-19
 6.892146309627371e-03 -3.267157296857450e-04  3.438380735535647e-19
6.830063909862558e-03 2.638736955805769e-04 3.406332133168724e-19
 6.846595694399289e-03 -3.480247566980465e-04  3.438694199006886e-19
6.975596448515425e-03 7.633320352121685e-05 3.455775269740990e-19
 6.739089073432814e-03 -3.679963267007232e-04  3.460866665587518e-19
6.494546031945062e-03 1.385328473167518e-03 3.221914546861499e-19
 6.414863731857672e-03 -7.613545517404498e-04  3.341068128559433e-19
 6.844898205180176e-03 -7.732187903762248e-05  3.449968032438589e-19
 7.283032331109103e-03 -8.268287505742075e-04  3.607072684549545e-19
7.204637309254730e-03 8.780297675028811e-04 3.506425693902723e-19
6.833657158170091e-03 2.945462897415750e-05 3.457184087674216e-19
6.668339548725932e-03 2.874207217823298e-05 3.445404217737930e-19
6.707574913940977e-03 2.891118559705486e-05 3.440802348010628e-19
 6.876267166285257e-03 -8.134842035700300e-04  3.543977626367905e-19
 7.205478275300175e-03 -5.549170615109471e-05  3.618519544816716e-19
 7.195720150229649e-03 -5.541655569080455e-05  3.612143161864519e-19
 7.283219362812960e-03 -2.224894710325399e-04  3.659942832645351e-19
7.102316264567821e-03 1.505827148807913e-04 3.631383538133239e-19
6.953917507512911e-03 2.567988262097489e-03 3.230384717585922e-19
 7.386682379238113e-03 -7.834678846366187e-04  3.647535814305400e-19
6.893184772368052e-03 5.548994260979017e-05 3.557385700769255e-19
 6.723277102569838e-03 -6.331924817956655e-04  3.592577769483116e-19
6.701166338388823e-03 1.158583470961968e-03 3.441448166488596e-19
 6.895084223460457e-03 -1.203556810486662e-04  3.554220416732434e-19
6.668984692764659e-03 1.728415997607728e-04 3.514824754735063e-19
6.635901541061561e-03 1.719841761604914e-04 3.483884658334718e-19
 6.790751907870196e-03 -8.201889291606732e-04  3.596924588348440e-19
 7.077048432213359e-03 -1.626393411574803e-04  3.681710068858886e-19
7.062173049661852e-03 3.733711553350341e-04 3.636357614074025e-19
6.886596756310646e-03 1.091007330186027e-04 3.625790810845688e-19
6.988001867916723e-03 1.107072409062497e-04 3.657697245518786e-19
 7.193115884854220e-03 -6.728285135532574e-04  3.825680825979692e-19
6.853564745825633e-03 1.487033026136483e-03 3.591508908797028e-19
6.819214156438624e-03 3.090467874001645e-04 3.633506733346587e-19
 6.473051514492813e-03 -2.336030902069984e-03  3.693709515849612e-19
6.706170791647956e-03 1.611680154041541e-04 3.839473663935868e-19
7.014789251492909e-03 1.685849790091139e-04 3.882447264433836e-19
6.828852815835096e-03 3.431175963834997e-04 4.508747725076825e-19
6.862685109284622e-03 1.140974924465354e-04 1.853935811112769e-20
 6.543901180593143e-03 -1.518071078701386e-03  4.363439528869371e-19
6.671412063235036e-03 5.598066863852706e-04 3.627268624708115e-19
6.754127453780429e-03 3.206183882495275e-04 3.791041001178418e-19
6.836182874448449e-03 2.668261725871506e-04 3.819124355848617e-19
 6.900485857798082e-03 -1.369963441544764e-03  3.960506034560911e-19
 7.021320479453461e-03 -3.692449303220563e-04  4.031267633974287e-19
6.983089077188060e-03 7.293099726733294e-04 3.949898441044706e-19
6.766225465468053e-03 1.034954716692551e-04 3.991559940506920e-19
6.591134697218713e-03 1.008173017298436e-04 4.017997677585431e-19
6.383284352823432e-03 1.356558621858283e-04 4.030191736763996e-19
 6.631803938400314e-03 -4.840280610457501e-04  4.177383949993951e-19
8.262543764436425e-03 1.575247927892501e-04 4.445027139678489e-19
 5.018616685844243e-03 -5.519448938689911e-03  3.563929170779930e-19
 5.583643210332725e-03 -6.429508874089319e-04  4.252665381218171e-19
7.314031229861085e-03 6.737194154701516e-04 4.462306330762031e-19
7.094805408545820e-03 6.535258057423884e-04 4.415415897213038e-19
7.026413977033094e-03 1.053996893081307e-03 4.337315659183790e-19
6.526659450373543e-03 1.067276960029355e-04 4.482076908063890e-19
 6.546512777720140e-03 -3.595320363358873e-04  4.680176866567829e-19
6.899428472919060e-03 3.697094279500701e-04 4.727380025946399e-19
 6.247998659866491e-03 -1.143462115029911e-03  4.832011028532353e-19
6.138545863462481e-03 1.870095819077245e-03 4.357066670117006e-19
 6.927677379649196e-03 -4.860724438366946e-04  5.018385864199765e-19
6.733138395651907e-03 1.872696518087347e-04 5.009730930729924e-19
 6.862548686571968e-03 -2.801551934397624e-04  5.262966369245243e-19
 6.882788163524283e-03 -1.008028102947722e-05  5.550834043609247e-19
 6.851744112757288e-03 -1.283708531570541e-04  5.900210715360382e-19
 6.853979431964545e-03 -1.284127329804965e-04  6.213526612774658e-19
 6.861995998478122e-03 -4.864930860176638e-05  6.567253020671408e-19
 6.830900362229757e-03 -8.045398770842562e-05  7.081061989941668e-19
 6.927438596114183e-03 -1.226244048116433e-05  7.488307648950092e-19
 6.873372799599519e-03 -2.646744149904395e-04  7.977629219241820e-19
6.798665407645118e-03 4.787236517211169e-05 8.913770394288872e-19
6.970731632873162e-03 4.830358540091749e-04 9.687974515969721e-19
 6.932162449762691e-03 -7.412904137924808e-04  1.070349810146162e-18
 7.083928370284340e-03 -7.575194942328767e-04  1.207223496111646e-18
7.203185784508315e-03 5.531396621398498e-04 1.369341224449701e-18
6.743399984287649e-03 3.278248448030896e-04 1.683059358535515e-18
 6.635792399891658e-03 -2.344748830789029e-04  2.149555265863356e-18
6.686435321994645e-03 1.144388426311255e-04 2.583518661845334e-18
 6.777947527956467e-03 -1.141046412163829e-04  3.205227875337342e-18
6.820439752274161e-03 2.784116235563555e-04 4.175653918775223e-18
 6.891635156523897e-03 -2.027520733908812e-05  5.969074201792487e-18
6.805078447733722e-03 1.232406791641697e-04 8.110815739473377e-18
6.403301812146141e-03 2.286401972634240e-04 9.803709439948362e-18
6.817113620808338e-03 1.497948809362730e-03 1.082029842539232e-17
 6.788594719916588e-03 -4.194139982928715e-04  1.436637407992025e-17
 6.600580810210897e-03 -1.455132632684788e-05  1.996062076176164e-17
 6.830375912273469e-03 -1.336060424895931e-04  3.234815053963023e-17
 6.932234479236599e-03 -2.392573814386859e-04  5.299026718274842e-17
6.971511548704865e-03 2.506823728682109e-04 7.560905381514272e-17
6.860053743279622e-03 2.466745609405560e-04 1.284055544906542e-16
 6.810017206546139e-03 -7.373010959927887e-06 -1.461523382755394e-16
 6.517789071028615e-03 -8.245155799085723e-05 -1.668608718968394e-15
6.605028676404109e-03 3.245504382506917e-04 6.226609918877384e-15
 6.763378899972342e-03 -1.097298498877617e-03 -1.875680652193506e-15
7.080650764850341e-03 3.479210191828630e-04 6.558202887525099e-15
 6.678825801824667e-03 -7.234558511797524e-05  1.160711984525874e-16
6.741802968928848e-03 1.331547859138417e-03 1.349920860485419e-16
 6.964041473038010e-03 -1.554849361053538e-05  1.018520219627191e-16
 6.847511072939342e-03 -1.528831822410465e-05  6.495236296764665e-17
 6.923338810210526e-03 -2.032536462045132e-04  4.109730655723025e-17
7.024618348668031e-03 7.297072630346864e-04 2.643813994290461e-17
 6.963894705311612e-03 -3.750704643782011e-04  2.357498247180091e-17
6.637960975566589e-03 5.287369190027971e-04 1.452073422660167e-17
 6.708799247126276e-03 -3.987425771841471e-04  1.167277599581522e-17
 6.835425298172692e-03 -1.027859133116348e-04  9.341526938028739e-18
 6.915186463845098e-03 -1.459941789308404e-03  7.651917073458653e-18
7.206524003597498e-03 8.622669942098504e-04 4.366423749188237e-18
 6.150239990028087e-03 -4.061588691748640e-04  3.952559742111826e-18
 3.284117762166959e-03  9.634012924428640e-03 -2.087479034680327e-18
 5.951643209173591e-03 -5.296963923463865e-03  4.425219305059949e-18
 1.299560655580829e-03  3.535345478471555e-03 -1.933965773916958e-18
7.608973157149663e-03 9.682257098902737e-05 2.526233518874846e-18
7.296468980532042e-03 1.947958687048032e-04 2.107562375719980e-18
7.332450346622859e-03 7.568597489964953e-04 1.585985994226467e-18
7.192723618612955e-03 2.993124407372456e-04 1.691908779613570e-18
7.094013276757692e-03 2.952047848737212e-04 1.445040305234000e-18
6.829654013930224e-03 5.481194970178844e-05 1.230707651380688e-18
6.649758285693828e-03 1.450103078072641e-03 1.069322970686256e-18
6.745974264791954e-03 1.335145922254948e-04 1.027185198191620e-18
6.226034099911816e-03 2.836544120924210e-04 9.135952142794598e-19
5.569319569439043e-03 2.537348885137686e-04 8.082877936356296e-19
5.728600837620977e-03 2.609916483962950e-04 7.281536350284212e-19
 1.391749930724883e-02 -3.072561938278507e-04  8.849652578841932e-19
-1.062596471247099e-03 -5.922513529534940e-03  5.942178168228314e-19
3.466948603044940e-03 2.106129317115608e-03 4.804517208810799e-19
9.161030986128825e-03 2.097339981076996e-03 5.487156876988905e-19
1.274044299848429e-02 6.127144230515844e-03 6.056467481315357e-19
 1.224500180624109e-03 -9.545857115075660e-03  5.715669923220917e-19
4.017317946738387e-03 2.763166413533986e-03 3.647426226780044e-19
6.386635567162821e-03 4.238309203256912e-03 3.177481562182453e-19
 4.462443486377324e-03  1.208607541506209e-02 -4.278536369808412e-19
 1.027971542127439e-02 -3.001705554106166e-03  5.857424606106786e-19
7.093988720271741e-03 1.052423565630091e-03 4.584190424993816e-19
 7.972210587435741e-03 -1.757533468565582e-03  6.434644380501486e-19
 6.607383075216388e-03  4.837076774095408e-03 -3.331299524855243e-19
 7.530562268765079e-03 -2.530529875854213e-03  4.084737520705194e-19
6.811001315957725e-03 2.306640205867858e-03 4.479117703064077e-19
6.524800082850660e-03 1.312348466679515e-04 4.314453297578068e-19
6.474019418516202e-03 1.302134831605629e-04 4.172730453086427e-19
 6.766715934039755e-03 -4.742193794193301e-04  4.375431836946900e-19
 7.105867487180688e-03 -2.623623950428672e-04  4.155878704721924e-19
 6.950810493021231e-03 -2.566373903999838e-04  4.092707241432104e-19
6.206609889187098e-03 2.886321606362689e-03 6.039260834210418e-19
 6.746812036188024e-03 -1.863316642542234e-05  4.022544112681974e-19
 6.316464244286969e-03 -1.744464331490806e-05  3.908761771823445e-19
6.303354132166519e-03 2.050085631228039e-03 8.615768245169661e-20
 6.493459155951542e-03 -3.453823149099427e-04  3.910966511901258e-19
 6.689780584112753e-03 -3.558245072293630e-04  3.922029761292503e-19
6.516197843528964e-03 5.395298849377111e-05 3.812591549724836e-19
6.137508222857089e-03 3.801839187408927e-04 3.479017543118851e-19
 6.281205282323493e-03 -4.353728063742962e-04  3.519376780739124e-19
 6.648762799410574e-03 -2.553925408700966e-03  2.862810316706942e-19
 7.474541886605223e-03 -2.871123999835436e-03  3.190042316552027e-19
7.164087727771366e-03 3.096982061378559e-03 7.127576109890190e-19
6.405538206818020e-03 2.746789444018998e-04 3.116353408038250e-19
 5.552838500743643e-03 -3.429429473756405e-03 -9.018938516691293e-20
6.593187836184951e-03 2.837237066459162e-05 3.665869560213261e-19
 6.746746098738673e-03 -3.554959797052037e-04  4.115345081462946e-19
7.286462174219786e-03 5.481394115561424e-04 3.528498939473368e-19
 6.589391619608890e-03 -2.001723882872752e-03  5.108576506098563e-19
6.401253025862407e-03 1.307690745012973e-03 2.268070894709145e-19
7.584696527017823e-03 2.912220408977996e-04 3.536024260064237e-19
7.031960261594999e-03 7.703273587001988e-05 3.473054178448659e-19
 6.509414519614733e-03 -7.351082946270946e-04  3.650395521347680e-19
6.375395031958198e-03 1.852255760598537e-03 1.716053105836576e-19
 6.985745907889244e-03 -4.657986960488908e-04  3.813706619151211e-19
6.877672268872782e-03 6.278094021442546e-04 3.958932763142297e-19
 6.961704160047072e-03 -3.360633807047572e-04  3.584296310306057e-19
6.941141034341527e-03 5.767025451919938e-04 3.413119583680195e-19
 6.858447367745152e-03 -3.231172901909149e-04  3.765012601749925e-19
6.828924602863515e-03 7.140810293999107e-04 3.642522814006367e-19
 6.937799150304487e-03 -4.273716833374998e-04  3.571127386517965e-19
6.977212607674557e-03 2.688856653868329e-04 3.672031002545288e-19
 6.936284348993712e-03 -2.744219276430266e-04  3.768708649313741e-19
6.981947952756024e-03 2.686033780086679e-04 3.606730409728763e-19
 6.736143992352478e-03 -1.257002187771731e-03  4.500225070079783e-19
7.074376090402752e-03 8.598260983372045e-04 5.024636835327790e-19
 6.996130623481369e-03 -1.174341506081476e-03  2.971848204574951e-19
6.867012093898227e-03 1.263952830723054e-03 4.036869400103667e-19
 7.338300991866811e-03 -4.393812881194236e-04  3.515965641961666e-19
6.932559886233734e-03 6.922430574032063e-04 3.765294864005637e-19
7.768886961846047e-03 1.843097052579562e-03 3.121363221510570e-19
 6.341794139602655e-03 -3.443917813604383e-03  4.227465914859816e-19
6.572004880792629e-03 6.283464181600247e-04 2.975082696450703e-19
7.165557409659209e-03 6.850957073446912e-04 2.922559410384316e-19
 6.175003398559296e-03 -4.005782638936893e-03  4.932637612209148e-19
7.677503438044893e-03 4.193119469096050e-04 3.867376571505689e-19
7.754725371679874e-03 4.235294740781573e-04 3.821934523031372e-19
7.013600588598463e-03 1.419173468569227e-03 3.473025120536757e-19
 4.261161572521825e-03 -2.796627134209651e-04  3.208748454228703e-19
-1.783851894750970e-03  6.389074480708063e-03 -3.213397477265027e-19
 6.020373596481568e-03 -9.990571632401300e-04  3.249491104776709e-19
 6.644965586756018e-03 -7.246348062921658e-05  3.367814477097569e-19
 1.436627260681709e-03 -7.691227075413677e-03  7.595946996466953e-19
 6.814705705586710e-03 -1.063124218795368e-03  2.645089083236628e-19
6.652548001417454e-03 1.971999273472397e-03 4.347785378030700e-19
6.156995775032603e-03 1.331115568796283e-04 3.309833064804138e-19
 6.362083949430198e-03 -2.334585218424995e-03  4.261775138109524e-19
7.485994329959467e-03 1.952944315427816e-04 3.782591314911093e-19
7.286257247045303e-03 1.900836955541603e-04 3.591450016920134e-19
 7.833783550069163e-03 -1.855651503908811e-03  4.538509690150265e-19
 6.849193064651153e-03 -1.622423613027895e-03  4.532669769472597e-19
5.181986046672734e-03 5.863471420045774e-03 2.120111166137812e-19
 6.044679724307295e-03 -2.478386720423892e-03  3.142810893309138e-19
4.740660798856659e-03 3.221924801684881e-03 1.648927708259945e-19
 2.139883600205967e-03 -9.557388026189892e-03  5.919913593779291e-19
 1.382846047830533e-03 -6.176222042323922e-03  5.768677389750762e-19
4.839806990934283e-03 5.022814824648923e-03 2.451595946087868e-19
 6.910951345853305e-03 -3.815768686669385e-03  4.092848533078281e-19
 1.313311046216644e-03  8.256784158692755e-03 -2.424608172422641e-19
 9.668373776114054e-03 -1.179073512234783e-03  3.702814796467143e-19
5.169565982734414e-03 1.692600517290647e-03 3.175914554669508e-19
 5.568310391174397e-03 -2.048120063775003e-03  2.951042478718846e-19
 6.708364004624913e-03 -2.467451335822633e-03  3.384704067079406e-19
7.896008705327525e-03 4.558813101561163e-04 3.450910932578972e-19
 8.698602078698154e-03 -1.319409193359170e-04  3.969913964166520e-19
 7.734553587523100e-03 -9.529193144878424e-04  3.323838603278423e-19
7.834363419751867e-03 1.298482404606448e-03 4.695909717431226e-19
7.889731619230239e-03 1.980096095350387e-04 3.820348830701429e-19
7.558628462902691e-03 1.068471955202227e-03 3.260521923165302e-19
7.372343445180071e-03 9.455358855247901e-05 3.540671078166360e-19
7.257294753951201e-03 2.685621910811555e-04 3.770126376618253e-19
 7.226272304149657e-03 -9.463295128040795e-05  4.040821709824187e-19
7.115384704065963e-03 1.991431523063285e-04 6.179014676347982e-19
7.041254539213746e-03 3.261026324516564e-05 3.832781548702637e-19
7.001495532098801e-03 3.242612678465792e-05 3.762787695785237e-19
 7.044575024302732e-03 -1.062748081582386e-04  3.523213068981222e-19
 6.916929216477252e-03 -3.029130917527087e-04  3.495764907895731e-19
7.025228039370016e-03 2.693565512532837e-04 3.556815135849527e-19
 7.103093893757906e-03 -2.866919285311318e-04  3.480822587526131e-19
 6.996869095417165e-03 -8.376491089875401e-05  3.494142709341268e-19
 7.011247320243243e-03 -6.198423981455610e-04  3.363421990151642e-19
 7.117130102298945e-03 -5.047715875282046e-05  3.515544312574502e-19
 7.228408011000071e-03 -5.910147863530678e-04  3.366513075685584e-19
 7.378356833744061e-03 -2.689154878438963e-04  3.557622660581387e-19
 7.595945274376900e-03 -1.630008785518392e-03  3.734403618712995e-19
 8.464379227034512e-03 -2.047182040702505e-04  3.866990363001130e-19
 8.121992138688444e-03 -2.317519362670878e-03  5.035439653094091e-19
5.279939141154408e-03 2.463223285367146e-03 1.910286636961118e-19
7.787436960331660e-03 2.256770565618957e-03 3.532774988041754e-19
8.600090529968197e-03 1.704782894226446e-03 4.014982070926382e-19
8.217390018047938e-03 1.353457728216813e-03 3.749513384650539e-19
7.547389562455618e-03 8.934181008559025e-04 3.655019988134827e-19
7.028260450507967e-03 1.044901034419068e-03 3.302272904343873e-19
6.982312853980948e-03 1.276306829186965e-03 3.231207967166737e-19
 2.701928537030300e-03 -7.573023673591893e-03  1.738842989068948e-19
 6.948979159368888e-03 -1.842220871560892e-04  3.461796491363498e-19
6.749417214343839e-03 1.562425603727759e-03 3.260273253733685e-19
6.362313616017050e-03 7.955432281196623e-04 3.164542081940704e-19
 6.647891912238493e-03 -7.217730574673472e-04  3.400021273504238e-19
7.107580044633532e-03 2.991819850752006e-05 6.072640432223106e-19
7.032594494246158e-03 1.002158562953043e-03 5.096491144401274e-19
6.621787274991993e-03 9.107487908677301e-04 4.105239600981617e-19
5.795815187170684e-03 1.035718377924752e-03 3.049507834048393e-19
6.599803208340816e-03 1.179391897915607e-03 2.984943953767091e-19
-9.966709311001159e-04 -6.748213806429563e-03 -2.455883527820917e-20
5.745442985274974e-03 4.028358850221069e-04 3.272508291394013e-19
7.556045249917336e-03 5.297844192899704e-04 3.524102274612884e-19
6.828256748492628e-03 1.229987960954561e-03 3.307192157971321e-19
6.271507886085242e-03 7.259233657499198e-04 3.159614752510470e-19
 6.672011362412362e-03 -1.455688434049515e-03  3.385541164198343e-19
 5.855537949150324e-03 -1.774018818679323e-03  3.922292392032478e-19
4.935525485888716e-03 3.204102974047379e-03 2.078378676626994e-19
8.025343162192042e-03 1.084239984869070e-03 6.219061202474780e-19
 5.934885796875960e-03 -4.174285267818388e-03 -1.642801106495422e-19
 6.245986206024292e-03 -2.572814930441467e-04  3.916760639138291e-19
6.488250692373728e-03 3.455874554728385e-03 2.882216106651831e-19
 6.498602254356999e-03 -2.346579125474237e-03  3.191628188863887e-19
 5.738609866947825e-03 -5.968091227289467e-04  3.250941743955234e-19
 7.747736195447079e-03 -4.390323277906493e-04  3.614939629665932e-19
7.450109867435656e-03 1.254564066965783e-03 3.423128550943404e-19
 6.750509481610691e-03 -1.832397174110862e-03  3.353397478261486e-19
6.932020946277899e-03 1.793279569784439e-03 3.153376209372113e-19
 7.135727831533106e-03 -9.264202931455666e-04  3.393397733785567e-19
6.956573890232407e-03 5.340346015062507e-04 3.336686698222233e-19
 6.774632833667123e-03 -5.359759085875615e-04  3.331110876312472e-19
6.743461875867338e-03 8.727147313641379e-04 3.244449066951230e-19
 6.814091773720343e-03 -3.411845012955443e-04  3.309120266383236e-19
6.660122152002208e-03 6.093056076227207e-04 3.242038254033650e-19
 6.754272315427990e-03 -4.045096729155410e-05  3.285828069121324e-19
6.650800565565207e-03 3.168820932150142e-04 2.936928881603581e-19
6.250501665490182e-03 2.978095692208051e-04 2.846652839073309e-19
3.135021101107898e-03 6.220997497317760e-03 2.271689005262369e-19
 6.377122625172742e-03 -5.606304966562363e-04  3.062295203463420e-19
 6.394159958465916e-03 -6.251132315996368e-04  3.497873362369305e-19
6.085589370339996e-03 3.503036499919699e-04 3.058174701071743e-19
7.104166614950638e-03 8.007869999132319e-04 3.253738500805581e-19
 6.694664324491032e-03 -2.153043540854766e-03  3.270841396441377e-19
 6.931134644274534e-03 -2.214912452376080e-04  3.418532576256862e-19
 7.107810105538931e-03 -2.271370838955984e-04  3.437906256120284e-19
7.323104810548241e-03 5.071195244067821e-04 3.406506741817658e-19
 7.010543413809673e-03 -8.820143321494507e-04  3.411523088300482e-19
7.072436022118413e-03 4.058799782307378e-04 3.376286847978161e-19

VECTORS velocity double
0.000000000000000e+00 0.000000000000000e+00 0.000000000000000e+00
0.000000000000000e+00 0.000000000000000e+00 0.000000000000000e+00
0.000000000000000e+00 0.000000000000000e+00 0.000000000000000e+00
0.000000000000000e+00 0.000000000000000e+00 0.000000000000000e+00
0.000000000000000e+00 0.000000000000000e+00 0.000000000000000e+00
0.000000000000000e+00 0.000000000000000e+00 0.000000000000000e+00
0.000000000000000e+00 0.000000000000000e+00 0.000000000000000e+00
0.000000000000000e+00 0.000000000000000e+00 0.000000000000000e+00
0.000000000000000e+00 0.000000000000000e+00 0.000000000000000e+00
0.000000000000000e+00 0.000000000000000e+00 0.000000000000000e+00
0.000000000000000e+00 0.000000000000000e+00 0.000000000000000e+00
0.000000000000000e+00 0.000000000000000e+00 0.000000000000000e+00
0.000000000000000e+00 0.000000000000000e+00 0.000000000000000e+00
0.000000000000000e+00 0.000000000000000e+00 0.000000000000000e+00
0.000000000000000e+00 0.000000000000000e+00 0.000000000000000e+00
0.000000000000000e+00 0.000000000000000e+00 0.000000000000000e+00
0.000000000000000e+00 0.000000000000000e+00 0.000000000000000e+00
0.000000000000000e+00 0.000000000000000e+00 0.000000000000000e+00
0.000000000000000e+00 0.000000000000000e+00 0.000000000000000e+00
0.000000000000000e+00 0.000000000000000e+00 0.000000000000000e+00
0.000000000000000e+00 0.000000000000000e+00 0.000000000000000e+00
0.000000000000000e+00 0.000000000000000e+00 0.000000000000000e+00
0.000000000000000e+00 0.000000000000000e+00 0.000000000000000e+00
0.000000000000000e+00 0.000000000000000e+00 0.000000000000000e+00
0.000000000000000e+00 0.000000000000000e+00 0.000000000000000e+00
0.000000000000000e+00 0.000000000000000e+00 0.000000000000000e+00
0.000000000000000e+00 0.000000000000000e+00 0.000000000000000e+00
0.000000000000000e+00 0.000000000000000e+00 0.000000000000000e+00
0.000000000000000e+00 0.000000000000000e+00 0.000000000000000e+00
0.000000000000000e+00 0.000000000000000e+00 0.000000000000000e+00
0.000000000000000e+00 0.000000000000000e+00 0.000000000000000e+00
0.000000000000000e+00 0.000000000000000e+00 0.000000000000000e+00
0.000000000000000e+00 0.000000000000000e+00 0.000000000000000e+00
0.000000000000000e+00 0.000000000000000e+00 0.000000000000000e+00
0.000000000000000e+00 0.000000000000000e+00 0.000000000000000e+00
0.000000000000000e+00 0.000000000000000e+00 0.000000000000000e+00
0.000000000000000e+00 0.000000000000000e+00 0.000000000000000e+00
0.000000000000000e+00 0.000000000000000e+00 0.000000000000000e+00
0.000000000000000e+00 0.000000000000000e+00 0.000000000000000e+00
0.000000000000000e+00 0.000000000000000e+00 0.000000000000000e+00
0.000000000000000e+00 0.000000000000000e+00 0.000000000000000e+00
0.000000000000000e+00 0.000000000000000e+00 0.000000000000000e+00
0.000000000000000e+00 0.000000000000000e+00 0.000000000000000e+00
0.000000000000000e+00 0.000000000000000e+00 0.000000000000000e+00
0.000000000000000e+00 0.000000000000000e+00 0.000000000000000e+00
0.000000000000000e+00 0.000000000000000e+00 0.000000000000000e+00
0.000000000000000e+00 0.000000000000000e+00 0.000000000000000e+00
0.000000000000000e+00 0.000000000000000e+00 0.000000000000000e+00
0.000000000000000e+00 0.000000000000000e+00 0.000000000000000e+00
0.000000000000000e+00 0.000000000000000e+00 0.000000000000000e+00
0.000000000000000e+00 0.000000000000000e+00 0.000000000000000e+00
0.000000000000000e+00 0.000000000000000e+00 0.000000000000000e+00
0.000000000000000e+00 0.000000000000000e+00 0.000000000000000e+00
0.000000000000000e+00 0.000000000000000e+00 0.000000000000000e+00
0.000000000000000e+00 0.000000000000000e+00 0.000000000000000e+00
0.000000000000000e+00 0.000000000000000e+00 0.000000000000000e+00
0.000000000000000e+00 0.000000000000000e+00 0.000000000000000e+00
0.000000000000000e+00 0.000000000000000e+00 0.000000000000000e+00
0.000000000000000e+00 0.000000000000000e+00 0.000000000000000e+00
0.000000000000000e+00 0.000000000000000e+00 0.000000000000000e+00
0.000000000000000e+00 0.000000000000000e+00 0.000000000000000e+00
0.000000000000000e+00 0.000000000000000e+00 0.000000000000000e+00
0.000000000000000e+00 0.000000000000000e+00 0.000000000000000e+00
0.000000000000000e+00 0.000000000000000e+00 0.000000000000000e+00
0.000000000000000e+00 0.000000000000000e+00 0.000000000000000e+00
0.000000000000000e+00 0.000000000000000e+00 0.000000000000000e+00
0.000000000000000e+00 0.000000000000000e+00 0.000000000000000e+00
0.000000000000000e+00 0.000000000000000e+00 0.000000000000000e+00
0.000000000000000e+00 0.000000000000000e+00 0.000000000000000e+00
0.000000000000000e+00 0.000000000000000e+00 0.000000000000000e+00
0.000000000000000e+00 0.000000000000000e+00 0.000000000000000e+00
0.000000000000000e+00 0.000000000000000e+00 0.000000000000000e+00
0.000000000000000e+00 0.000000000000000e+00 0.000000000000000e+00
0.000000000000000e+00 0.000000000000000e+00 0.000000000000000e+00
0.000000000000000e+00 0.000000000000000e+00 0.000000000000000e+00
0.000000000000000e+00 0.000000000000000e+00 0.000000000000000e+00
0.000000000000000e+00 0.000000000000000e+00 0.000000000000000e+00
0.000000000000000e+00 0.000000000000000e+00 0.000000000000000e+00
0.000000000000000e+00 0.000000000000000e+00 0.000000000000000e+00
0.000000000000000e+00 0.000000000000000e+00 0.000000000000000e+00
0.000000000000000e+00 0.000000000000000e+00 0.000000000000000e+00
0.000000000000000e+00 0.000000000000000e+00 0.000000000000000e+00
0.000000000000000e+00 0.000000000000000e+00 0.000000000000000e+00
0.000000000000000e+00 0.000000000000000e+00 0.000000000000000e+00
0.000000000000000e+00 0.000000000000000e+00 0.000000000000000e+00
0.000000000000000e+00 0.000000000000000e+00 0.000000000000000e+00
0.000000000000000e+00 0.000000000000000e+00 0.000000000000000e+00
0.000000000000000e+00 0.000000000000000e+00 0.000000000000000e+00
0.000000000000000e+00 0.000000000000000e+00 0.000000000000000e+00
0.000000000000000e+00 0.000000000000000e+00 0.000000000000000e+00
0.000000000000000e+00 0.000000000000000e+00 0.000000000000000e+00
0.000000000000000e+00 0.000000000000000e+00 0.000000000000000e+00
0.000000000000000e+00 0.000000000000000e+00 0.000000000000000e+00
0.000000000000000e+00 0.000000000000000e+00 0.000000000000000e+00
0.000000000000000e+00 0.000000000000000e+00 0.000000000000000e+00
0.000000000000000e+00 0.000000000000000e+00 0.000000000000000e+00
0.000000000000000e+00 0.000000000000000e+00 0.000000000000000e+00
0.000000000000000e+00 0.000000000000000e+00 0.000000000000000e+00
0.000000000000000e+00 0.000000000000000e+00 0.000000000000000e+00
0.000000000000000e+00 0.000000000000000e+00 0.000000000000000e+00
0.000000000000000e+00 0.000000000000000e+00 0.000000000000000e+00
0.000000000000000e+00 0.000000000000000e+00 0.000000000000000e+00
0.000000000000000e+00 0.000000000000000e+00 0.000000000000000e+00
0.000000000000000e+00 0.000000000000000e+00 0.000000000000000e+00
0.000000000000000e+00 0.000000000000000e+00 0.000000000000000e+00
0.000000000000000e+00 0.000000000000000e+00 0.000000000000000e+00
0.000000000000000e+00 0.000000000000000e+00 0.000000000000000e+00
0.000000000000000e+00 0.000000000000000e+00 0.000000000000000e+00
0.000000000000000e+00 0.000000000000000e+00 0.000000000000000e+00
0.000000000000000e+00 0.000000000000000e+00 0.000000000000000e+00
0.000000000000000e+00 0.000000000000000e+00 0.000000000000000e+00
0.000000000000000e+00 0.000000000000000e+00 0.000000000000000e+00
0.000000000000000e+00 0.000000000000000e+00 0.000000000000000e+00
0.000000000000000e+00 0.000000000000000e+00 0.000000000000000e+00
0.000000000000000e+00 0.000000000000000e+00 0.000000000000000e+00
0.000000000000000e+00 0.000000000000000e+00 0.000000000000000e+00
0.000000000000000e+00 0.000000000000000e+00 0.000000000000000e+00
0.000000000000000e+00 0.000000000000000e+00 0.000000000000000e+00
0.000000000000000e+00 0.000000000000000e+00 0.000000000000000e+00
0.000000000000000e+00 0.000000000000000e+00 0.000000000000000e+00
0.000000000000000e+00 0.000000000000000e+00 0.000000000000000e+00
0.000000000000000e+00 0.000000000000000e+00 0.000000000000000e+00
0.000000000000000e+00 0.000000000000000e+00 0.000000000000000e+00
0.000000000000000e+00 0.000000000000000e+00 0.000000000000000e+00
0.000000000000000e+00 0.000000000000000e+00 0.000000000000000e+00
0.000000000000000e+00 0.000000000000000e+00 0.000000000000000e+00
0.000000000000000e+00 0.000000000000000e+00 0.000000000000000e+00
0.000000000000000e+00 0.000000000000000e+00 0.000000000000000e+00
0.000000000000000e+00 0.000000000000000e+00 0.000000000000000e+00
0.000000000000000e+00 0.000000000000000e+00 0.000000000000000e+00
0.000000000000000e+00 0.000000000000000e+00 0.000000000000000e+00
0.000000000000000e+00 0.000000000000000e+00 0.000000000000000e+00
0.000000000000000e+00 0.000000000000000e+00 0.000000000000000e+00
0.000000000000000e+00 0.000000000000000e+00 0.000000000000000e+00
0.000000000000000e+00 0.000000000000000e+00 0.000000000000000e+00
0.000000000000000e+00 0.000000000000000e+00 0.000000000000000e+00
0.000000000000000e+00 0.000000000000000e+00 0.000000000000000e+00
0.000000000000000e+00 0.000000000000000e+00 0.000000000000000e+00
0.000000000000000e+00 0.000000000000000e+00 0.000000000000000e+00
0.000000000000000e+00 0.000000000000000e+00 0.000000000000000e+00
0.000000000000000e+00 0.000000000000000e+00 0.000000000000000e+00
0.000000000000000e+00 0.000000000000000e+00 0.000000000000000e+00
0.000000000000000e+00 0.000000000000000e+00 0.000000000000000e+00
0.000000000000000e+00 0.000000000000000e+00 0.000000000000000e+00
0.000000000000000e+00 0.000000000000000e+00 0.000000000000000e+00
0.000000000000000e+00 0.000000000000000e+00 0.000000000000000e+00
0.000000000000000e+00 0.000000000000000e+00 0.000000000000000e+00
0.000000000000000e+00 0.000000000000000e+00 0.000000000000000e+00
0.000000000000000e+00 0.000000000000000e+00 0.000000000000000e+00
0.000000000000000e+00 0.000000000000000e+00 0.000000000000000e+00
0.000000000000000e+00 0.000000000000000e+00 0.000000000000000e+00
0.000000000000000e+00 0.000000000000000e+00 0.000000000000000e+00
0.000000000000000e+00 0.000000000000000e+00 0.000000000000000e+00
0.000000000000000e+00 0.000000000000000e+00 0.000000000000000e+00
0.000000000000000e+00 0.000000000000000e+00 0.000000000000000e+00
0.000000000000000e+00 0.000000000000000e+00 0.000000000000000e+00
0.000000000000000e+00 0.000000000000000e+00 0.000000000000000e+00
0.000000000000000e+00 0.000000000000000e+00 0.000000000000000e+00
0.000000000000000e+00 0.000000000000000e+00 0.000000000000000e+00
0.000000000000000e+00 0.000000000000000e+00 0.000000000000000e+00
0.000000000000000e+00 0.000000000000000e+00 0.000000000000000e+00
0.000000000000000e+00 0.000000000000000e+00 0.000000000000000e+00
0.000000000000000e+00 0.000000000000000e+00 0.000000000000000e+00
0.000000000000000e+00 0.000000000000000e+00 0.000000000000000e+00
0.000000000000000e+00 0.000000000000000e+00 0.000000000000000e+00
0.000000000000000e+00 0.000000000000000e+00 0.000000000000000e+00
0.000000000000000e+00 0.000000000000000e+00 0.000000000000000e+00
0.000000000000000e+00 0.000000000000000e+00 0.000000000000000e+00
0.000000000000000e+00 0.000000000000000e+00 0.000000000000000e+00
0.000000000000000e+00 0.000000000000000e+00 0.000000000000000e+00
0.000000000000000e+00 0.000000000000000e+00 0.000000000000000e+00
0.000000000000000e+00 0.000000000000000e+00 0.000000000000000e+00
0.000000000000000e+00 0.000000000000000e+00 0.000000000000000e+00
0.000000000000000e+00 0.000000000000000e+00 0.000000000000000e+00
0.000000000000000e+00 0.000000000000000e+00 0.000000000000000e+00
0.000000000000000e+00 0.000000000000000e+00 0.000000000000000e+00
0.000000000000000e+00 0.000000000000000e+00 0.000000000000000e+00
0.000000000000000e+00 0.000000000000000e+00 0.000000000000000e+00
0.000000000000000e+00 0.000000000000000e+00 0.000000000000000e+00
0.000000000000000e+00 0.000000000000000e+00 0.000000000000000e+00
0.000000000000000e+00 0.000000000000000e+00 0.000000000000000e+00
0.000000000000000e+00 0.000000000000000e+00 0.000000000000000e+00
0.000000000000000e+00 0.000000000000000e+00 0.000000000000000e+00
0.000000000000000e+00 0.000000000000000e+00 0.000000000000000e+00
0.000000000000000e+00 0.000000000000000e+00 0.000000000000000e+00
0.000000000000000e+00 0.000000000000000e+00 0.000000000000000e+00
0.000000000000000e+00 0.000000000000000e+00 0.000000000000000e+00
0.000000000000000e+00 0.000000000000000e+00 0.000000000000000e+00
0.000000000000000e+00 0.000000000000000e+00 0.000000000000000e+00
0.000000000000000e+00 0.000000000000000e+00 0.000000000000000e+00
0.000000000000000e+00 0.000000000000000e+00 0.000000000000000e+00
0.000000000000000e+00 0.000000000000000e+00 0.000000000000000e+00
0.000000000000000e+00 0.000000000000000e+00 0.000000000000000e+00
0.000000000000000e+00 0.000000000000000e+00 0.000000000000000e+00
0.000000000000000e+00 0.000000000000000e+00 0.000000000000000e+00
0.000000000000000e+00 0.000000000000000e+00 0.000000000000000e+00
0.000000000000000e+00 0.000000000000000e+00 0.000000000000000e+00
0.000000000000000e+00 0.000000000000000e+00 0.000000000000000e+00
0.000000000000000e+00 0.000000000000000e+00 0.000000000000000e+00
0.000000000000000e+00 0.000000000000000e+00 0.000000000000000e+00
0.000000000000000e+00 0.000000000000000e+00 0.000000000000000e+00
0.000000000000000e+00 0.000000000000000e+00 0.000000000000000e+00
0.000000000000000e+00 0.000000000000000e+00 0.000000000000000e+00
0.000000000000000e+00 0.000000000000000e+00 0.000000000000000e+00
0.000000000000000e+00 0.000000000000000e+00 0.000000000000000e+00
0.000000000000000e+00 0.000000000000000e+00 0.000000000000000e+00
0.000000000000000e+00 0.000000000000000e+00 0.000000000000000e+00
0.000000000000000e+00 0.000000000000000e+00 0.000000000000000e+00
0.000000000000000e+00 0.000000000000000e+00 0.000000000000000e+00
0.000000000000000e+00 0.000000000000000e+00 0.000000000000000e+00
0.000000000000000e+00 0.000000000000000e+00 0.000000000000000e+00
0.000000000000000e+00 0.000000000000000e+00 0.000000000000000e+00
0.000000000000000e+00 0.000000000000000e+00 0.000000000000000e+00
0.000000000000000e+00 0.000000000000000e+00 0.000000000000000e+00
0.000000000000000e+00 0.000000000000000e+00 0.000000000000000e+00
0.000000000000000e+00 0.000000000000000e+00 0.000000000000000e+00
0.000000000000000e+00 0.000000000000000e+00 0.000000000000000e+00
0.000000000000000e+00 0.000000000000000e+00 0.000000000000000e+00
0.000000000000000e+00 0.000000000000000e+00 0.000000000000000e+00
0.000000000000000e+00 0.000000000000000e+00 0.000000000000000e+00
0.000000000000000e+00 0.000000000000000e+00 0.000000000000000e+00
0.000000000000000e+00 0.000000000000000e+00 0.000000000000000e+00
0.000000000000000e+00 0.000000000000000e+00 0.000000000000000e+00
0.000000000000000e+00 0.000000000000000e+00 0.000000000000000e+00
0.000000000000000e+00 0.000000000000000e+00 0.000000000000000e+00
0.000000000000000e+00 0.000000000000000e+00 0.000000000000000e+00
0.000000000000000e+00 0.000000000000000e+00 0.000000000000000e+00
0.000000000000000e+00 0.000000000000000e+00 0.000000000000000e+00
0.000000000000000e+00 0.000000000000000e+00 0.000000000000000e+00
0.000000000000000e+00 0.000000000000000e+00 0.000000000000000e+00
0.000000000000000e+00 0.000000000000000e+00 0.000000000000000e+00
0.000000000000000e+00 0.000000000000000e+00 0.000000000000000e+00
0.000000000000000e+00 0.000000000000000e+00 0.000000000000000e+00
0.000000000000000e+00 0.000000000000000e+00 0.000000000000000e+00
0.000000000000000e+00 0.000000000000000e+00 0.000000000000000e+00
0.000000000000000e+00 0.000000000000000e+00 0.000000000000000e+00
0.000000000000000e+00 0.000000000000000e+00 0.000000000000000e+00
0.000000000000000e+00 0.000000000000000e+00 0.000000000000000e+00
0.000000000000000e+00 0.000000000000000e+00 0.000000000000000e+00
0.000000000000000e+00 0.000000000000000e+00 0.000000000000000e+00
0.000000000000000e+00 0.000000000000000e+00 0.000000000000000e+00
0.000000000000000e+00 0.000000000000000e+00 0.000000000000000e+00
0.000000000000000e+00 0.000000000000000e+00 0.000000000000000e+00
0.000000000000000e+00 0.000000000000000e+00 0.000000000000000e+00
0.000000000000000e+00 0.000000000000000e+00 0.000000000000000e+00
0.000000000000000e+00 0.000000000000000e+00 0.000000000000000e+00
0.000000000000000e+00 0.000000000000000e+00 0.000000000000000e+00
0.000000000000000e+00 0.000000000000000e+00 0.000000000000000e+00
0.000000000000000e+00 0.000000000000000e+00 0.000000000000000e+00
0.000000000000000e+00 0.000000000000000e+00 0.000000000000000e+00
0.000000000000000e+00 0.000000000000000e+00 0.000000000000000e+00
0.000000000000000e+00 0.000000000000000e+00 0.000000000000000e+00
0.000000000000000e+00 0.000000000000000e+00 0.000000000000000e+00
0.000000000000000e+00 0.000000000000000e+00 0.000000000000000e+00
0.000000000000000e+00 0.000000000000000e+00 0.000000000000000e+00
0.000000000000000e+00 0.000000000000000e+00 0.000000000000000e+00
0.000000000000000e+00 0.000000000000000e+00 0.000000000000000e+00
0.000000000000000e+00 0.000000000000000e+00 0.000000000000000e+00
0.000000000000000e+00 0.000000000000000e+00 0.000000000000000e+00
0.000000000000000e+00 0.000000000000000e+00 0.000000000000000e+00
0.000000000000000e+00 0.000000000000000e+00 0.000000000000000e+00
0.000000000000000e+00 0.000000000000000e+00 0.000000000000000e+00
0.000000000000000e+00 0.000000000000000e+00 0.000000000000000e+00
0.000000000000000e+00 0.000000000000000e+00 0.000000000000000e+00
0.000000000000000e+00 0.000000000000000e+00 0.000000000000000e+00
0.000000000000000e+00 0.000000000000000e+00 0.000000000000000e+00
0.000000000000000e+00 0.000000000000000e+00 0.000000000000000e+00
0.000000000000000e+00 0.000000000000000e+00 0.000000000000000e+00
0.000000000000000e+00 0.000000000000000e+00 0.000000000000000e+00
0.000000000000000e+00 0.000000000000000e+00 0.000000000000000e+00
0.000000000000000e+00 0.000000000000000e+00 0.000000000000000e+00
0.000000000000000e+00 0.000000000000000e+00 0.000000000000000e+00
0.000000000000000e+00 0.000000000000000e+00 0.000000000000000e+00
0.000000000000000e+00 0.000000000000000e+00 0.000000000000000e+00
0.000000000000000e+00 0.000000000000000e+00 0.000000000000000e+00
0.000000000000000e+00 0.000000000000000e+00 0.000000000000000e+00
0.000000000000000e+00 0.000000000000000e+00 0.000000000000000e+00
0.000000000000000e+00 0.000000000000000e+00 0.000000000000000e+00
0.000000000000000e+00 0.000000000000000e+00 0.000000000000000e+00
0.000000000000000e+00 0.000000000000000e+00 0.000000000000000e+00
0.000000000000000e+00 0.000000000000000e+00 0.000000000000000e+00
0.000000000000000e+00 0.000000000000000e+00 0.000000000000000e+00
0.000000000000000e+00 0.000000000000000e+00 0.000000000000000e+00
0.000000000000000e+00 0.000000000000000e+00 0.000000000000000e+00
0.000000000000000e+00 0.000000000000000e+00 0.000000000000000e+00
0.000000000000000e+00 0.000000000000000e+00 0.000000000000000e+00
0.000000000000000e+00 0.000000000000000e+00 0.000000000000000e+00
0.000000000000000e+00 0.000000000000000e+00 0.000000000000000e+00
0.000000000000000e+00 0.000000000000000e+00 0.000000000000000e+00
0.000000000000000e+00 0.000000000000000e+00 0.000000000000000e+00
0.000000000000000e+00 0.000000000000000e+00 0.000000000000000e+00
0.000000000000000e+00 0.000000000000000e+00 0.000000000000000e+00
0.000000000000000e+00 0.000000000000000e+00 0.000000000000000e+00
0.000000000000000e+00 0.000000000000000e+00 0.000000000000000e+00
0.000000000000000e+00 0.000000000000000e+00 0.000000000000000e+00
0.000000000000000e+00 0.000000000000000e+00 0.000000000000000e+00
0.000000000000000e+00 0.000000000000000e+00 0.000000000000000e+00
0.000000000000000e+00 0.000000000000000e+00 0.000000000000000e+00
0.000000000000000e+00 0.000000000000000e+00 0.000000000000000e+00
0.000000000000000e+00 0.000000000000000e+00 0.000000000000000e+00
0.000000000000000e+00 0.000000000000000e+00 0.000000000000000e+00
0.000000000000000e+00 0.000000000000000e+00 0.000000000000000e+00
0.000000000000000e+00 0.000000000000000e+00 0.000000000000000e+00
0.000000000000000e+00 0.000000000000000e+00 0.000000000000000e+00
0.000000000000000e+00 0.000000000000000e+00 0.000000000000000e+00
0.000000000000000e+00 0.000000000000000e+00 0.000000000000000e+00
0.000000000000000e+00 0.000000000000000e+00 0.000000000000000e+00
0.000000000000000e+00 0.000000000000000e+00 0.000000000000000e+00
0.000000000000000e+00 0.000000000000000e+00 0.000000000000000e+00
0.000000000000000e+00 0.000000000000000e+00 0.000000000000000e+00
0.000000000000000e+00 0.000000000000000e+00 0.000000000000000e+00
0.000000000000000e+00 0.000000000000000e+00 0.000000000000000e+00
0.000000000000000e+00 0.000000000000000e+00 0.000000000000000e+00
0.000000000000000e+00 0.000000000000000e+00 0.000000000000000e+00
0.000000000000000e+00 0.000000000000000e+00 0.000000000000000e+00
0.000000000000000e+00 0.000000000000000e+00 0.000000000000000e+00
0.000000000000000e+00 0.000000000000000e+00 0.000000000000000e+00
0.000000000000000e+00 0.000000000000000e+00 0.000000000000000e+00
0.000000000000000e+00 0.000000000000000e+00 0.000000000000000e+00
0.000000000000000e+00 0.000000000000000e+00 0.000000000000000e+00
0.000000000000000e+00 0.000000000000000e+00 0.000000000000000e+00
0.000000000000000e+00 0.000000000000000e+00 0.000000000000000e+00
0.000000000000000e+00 0.000000000000000e+00 0.000000000000000e+00
0.000000000000000e+00 0.000000000000000e+00 0.000000000000000e+00
0.000000000000000e+00 0.000000000000000e+00 0.000000000000000e+00
0.000000000000000e+00 0.000000000000000e+00 0.000000000000000e+00
0.000000000000000e+00 0.000000000000000e+00 0.000000000000000e+00
0.000000000000000e+00 0.000000000000000e+00 0.000000000000000e+00
0.000000000000000e+00 0.000000000000000e+00 0.000000000000000e+00
0.000000000000000e+00 0.000000000000000e+00 0.000000000000000e+00
0.000000000000000e+00 0.000000000000000e+00 0.000000000000000e+00
0.000000000000000e+00 0.000000000000000e+00 0.000000000000000e+00
0.000000000000000e+00 0.000000000000000e+00 0.000000000000000e+00
0.000000000000000e+00 0.000000000000000e+00 0.000000000000000e+00
0.000000000000000e+00 0.000000000000000e+00 0.000000000000000e+00
0.000000000000000e+00 0.000000000000000e+00 0.000000000000000e+00
0.000000000000000e+00 0.000000000000000e+00 0.000000000000000e+00
0.000000000000000e+00 0.000000000000000e+00 0.000000000000000e+00
0.000000000000000e+00 0.000000000000000e+00 0.000000000000000e+00
0.000000000000000e+00 0.000000000000000e+00 0.000000000000000e+00
0.000000000000000e+00 0.000000000000000e+00 0.000000000000000e+00
0.000000000000000e+00 0.000000000000000e+00 0.000000000000000e+00
0.000000000000000e+00 0.000000000000000e+00 0.000000000000000e+00
0.000000000000000e+00 0.000000000000000e+00 0.000000000000000e+00
0.000000000000000e+00 0.000000000000000e+00 0.000000000000000e+00
0.000000000000000e+00 0.000000000000000e+00 0.000000000000000e+00
0.000000000000000e+00 0.000000000000000e+00 0.000000000000000e+00
0.000000000000000e+00 0.000000000000000e+00 0.000000000000000e+00
0.000000000000000e+00 0.000000000000000e+00 0.000000000000000e+00
0.000000000000000e+00 0.000000000000000e+00 0.000000000000000e+00
0.000000000000000e+00 0.000000000000000e+00 0.000000000000000e+00
0.000000000000000e+00 0.000000000000000e+00 0.000000000000000e+00
0.000000000000000e+00 0.000000000000000e+00 0.000000000000000e+00
0.000000000000000e+00 0.000000000000000e+00 0.000000000000000e+00
0.000000000000000e+00 0.000000000000000e+00 0.000000000000000e+00
0.000000000000000e+00 0.000000000000000e+00 0.000000000000000e+00
0.000000000000000e+00 0.000000000000000e+00 0.000000000000000e+00
0.000000000000000e+00 0.000000000000000e+00 0.000000000000000e+00
0.000000000000000e+00 0.000000000000000e+00 0.000000000000000e+00
0.000000000000000e+00 0.000000000000000e+00 0.000000000000000e+00
0.000000000000000e+00 0.000000000000000e+00 0.000000000000000e+00
0.000000000000000e+00 0.000000000000000e+00 0.000000000000000e+00
0.000000000000000e+00 0.000000000000000e+00 0.000000000000000e+00
0.000000000000000e+00 0.000000000000000e+00 0.000000000000000e+00
0.000000000000000e+00 0.000000000000000e+00 0.000000000000000e+00
0.000000000000000e+00 0.000000000000000e+00 0.000000000000000e+00
0.000000000000000e+00 0.000000000000000e+00 0.000000000000000e+00
0.000000000000000e+00 0.000000000000000e+00 0.000000000000000e+00
0.000000000000000e+00 0.000000000000000e+00 0.000000000000000e+00
0.000000000000000e+00 0.000000000000000e+00 0.000000000000000e+00
0.000000000000000e+00 0.000000000000000e+00 0.000000000000000e+00
0.000000000000000e+00 0.000000000000000e+00 0.000000000000000e+00
0.000000000000000e+00 0.000000000000000e+00 0.000000000000000e+00
0.000000000000000e+00 0.000000000000000e+00 0.000000000000000e+00
0.000000000000000e+00 0.000000000000000e+00 0.000000000000000e+00
0.000000000000000e+00 0.000000000000000e+00 0.000000000000000e+00
0.000000000000000e+00 0.000000000000000e+00 0.000000000000000e+00
0.000000000000000e+00 0.000000000000000e+00 0.000000000000000e+00
0.000000000000000e+00 0.000000000000000e+00 0.000000000000000e+00
0.000000000000000e+00 0.000000000000000e+00 0.000000000000000e+00
0.000000000000000e+00 0.000000000000000e+00 0.000000000000000e+00
0.000000000000000e+00 0.000000000000000e+00 0.000000000000000e+00
0.000000000000000e+00 0.000000000000000e+00 0.000000000000000e+00
0.000000000000000e+00 0.000000000000000e+00 0.000000000000000e+00
0.000000000000000e+00 0.000000000000000e+00 0.000000000000000e+00
0.000000000000000e+00 0.000000000000000e+00 0.000000000000000e+00
0.000000000000000e+00 0.000000000000000e+00 0.000000000000000e+00
0.000000000000000e+00 0.000000000000000e+00 0.000000000000000e+00
0.000000000000000e+00 0.000000000000000e+00 0.000000000000000e+00
0.000000000000000e+00 0.000000000000000e+00 0.000000000000000e+00
0.000000000000000e+00 0.000000000000000e+00 0.000000000000000e+00
0.000000000000000e+00 0.000000000000000e+00 0.000000000000000e+00
0.000000000000000e+00 0.000000000000000e+00 0.000000000000000e+00
0.000000000000000e+00 0.000000000000000e+00 0.000000000000000e+00
0.000000000000000e+00 0.000000000000000e+00 0.000000000000000e+00
0.000000000000000e+00 0.000000000000000e+00 0.000000000000000e+00
0.000000000000000e+00 0.000000000000000e+00 0.000000000000000e+00
0.000000000000000e+00 0.000000000000000e+00 0.000000000000000e+00
0.000000000000000e+00 0.000000000000000e+00 0.000000000000000e+00
0.000000000000000e+00 0.000000000000000e+00 0.000000000000000e+00
0.000000000000000e+00 0.000000000000000e+00 0.000000000000000e+00
0.000000000000000e+00 0.000000000000000e+00 0.000000000000000e+00
0.000000000000000e+00 0.000000000000000e+00 0.000000000000000e+00
0.000000000000000e+00 0.000000000000000e+00 0.000000000000000e+00
0.000000000000000e+00 0.000000000000000e+00 0.000000000000000e+00
0.000000000000000e+00 0.000000000000000e+00 0.000000000000000e+00
0.000000000000000e+00 0.000000000000000e+00 0.000000000000000e+00
0.000000000000000e+00 0.000000000000000e+00 0.000000000000000e+00
0.000000000000000e+00 0.000000000000000e+00 0.000000000000000e+00
0.000000000000000e+00 0.000000000000000e+00 0.000000000000000e+00
0.000000000000000e+00 0.000000000000000e+00 0.000000000000000e+00
0.000000000000000e+00 0.000000000000000e+00 0.000000000000000e+00
0.000000000000000e+00 0.000000000000000e+00 0.000000000000000e+00
0.000000000000000e+00 0.000000000000000e+00 0.000000000000000e+00
0.000000000000000e+00 0.000000000000000e+00 0.000000000000000e+00
0.000000000000000e+00 0.000000000000000e+00 0.000000000000000e+00
0.000000000000000e+00 0.000000000000000e+00 0.000000000000000e+00
0.000000000000000e+00 0.000000000000000e+00 0.000000000000000e+00
0.000000000000000e+00 0.000000000000000e+00 0.000000000000000e+00
0.000000000000000e+00 0.000000000000000e+00 0.000000000000000e+00
0.000000000000000e+00 0.000000000000000e+00 0.000000000000000e+00
0.000000000000000e+00 0.000000000000000e+00 0.000000000000000e+00
0.000000000000000e+00 0.000000000000000e+00 0.000000000000000e+00
0.000000000000000e+00 0.000000000000000e+00 0.000000000000000e+00
0.000000000000000e+00 0.000000000000000e+00 0.000000000000000e+00
0.000000000000000e+00 0.000000000000000e+00 0.000000000000000e+00
0.000000000000000e+00 0.000000000000000e+00 0.000000000000000e+00
0.000000000000000e+00 0.000000000000000e+00 0.000000000000000e+00
0.000000000000000e+00 0.000000000000000e+00 0.000000000000000e+00
0.000000000000000e+00 0.000000000000000e+00 0.000000000000000e+00
0.000000000000000e+00 0.000000000000000e+00 0.000000000000000e+00
0.000000000000000e+00 0.000000000000000e+00 0.000000000000000e+00
0.000000000000000e+00 0.000000000000000e+00 0.000000000000000e+00
0.000000000000000e+00 0.000000000000000e+00 0.000000000000000e+00
0.000000000000000e+00 0.000000000000000e+00 0.000000000000000e+00
0.000000000000000e+00 0.000000000000000e+00 0.000000000000000e+00
0.000000000000000e+00 0.000000000000000e+00 0.000000000000000e+00
0.000000000000000e+00 0.000000000000000e+00 0.000000000000000e+00
0.000000000000000e+00 0.000000000000000e+00 0.000000000000000e+00
0.000000000000000e+00 0.000000000000000e+00 0.000000000000000e+00
0.000000000000000e+00 0.000000000000000e+00 0.000000000000000e+00
0.000000000000000e+00 0.000000000000000e+00 0.000000000000000e+00
0.000000000000000e+00 0.000000000000000e+00 0.000000000000000e+00
0.000000000000000e+00 0.000000000000000e+00 0.000000000000000e+00
0.000000000000000e+00 0.000000000000000e+00 0.000000000000000e+00
0.000000000000000e+00 0.000000000000000e+00 0.000000000000000e+00
0.000000000000000e+00 0.000000000000000e+00 0.000000000000000e+00
0.000000000000000e+00 0.000000000000000e+00 0.000000000000000e+00
0.000000000000000e+00 0.000000000000000e+00 0.000000000000000e+00
0.000000000000000e+00 0.000000000000000e+00 0.000000000000000e+00
0.000000000000000e+00 0.000000000000000e+00 0.000000000000000e+00
0.000000000000000e+00 0.000000000000000e+00 0.000000000000000e+00
0.000000000000000e+00 0.000000000000000e+00 0.000000000000000e+00
0.000000000000000e+00 0.000000000000000e+00 0.000000000000000e+00
0.000000000000000e+00 0.000000000000000e+00 0.000000000000000e+00
0.000000000000000e+00 0.000000000000000e+00 0.000000000000000e+00
0.000000000000000e+00 0.000000000000000e+00 0.000000000000000e+00
0.000000000000000e+00 0.000000000000000e+00 0.000000000000000e+00
0.000000000000000e+00 0.000000000000000e+00 0.000000000000000e+00
0.000000000000000e+00 0.000000000000000e+00 0.000000000000000e+00
0.000000000000000e+00 0.000000000000000e+00 0.000000000000000e+00
0.000000000000000e+00 0.000000000000000e+00 0.000000000000000e+00
0.000000000000000e+00 0.000000000000000e+00 0.000000000000000e+00
0.000000000000000e+00 0.000000000000000e+00 0.000000000000000e+00
0.000000000000000e+00 0.000000000000000e+00 0.000000000000000e+00
0.000000000000000e+00 0.000000000000000e+00 0.000000000000000e+00
0.000000000000000e+00 0.000000000000000e+00 0.000000000000000e+00
0.000000000000000e+00 0.000000000000000e+00 0.000000000000000e+00
0.000000000000000e+00 0.000000000000000e+00 0.000000000000000e+00
0.000000000000000e+00 0.000000000000000e+00 0.000000000000000e+00
0.000000000000000e+00 0.000000000000000e+00 0.000000000000000e+00
0.000000000000000e+00 0.000000000000000e+00 0.000000000000000e+00
0.000000000000000e+00 0.000000000000000e+00 0.000000000000000e+00
0.000000000000000e+00 0.000000000000000e+00 0.000000000000000e+00
0.000000000000000e+00 0.000000000000000e+00 0.000000000000000e+00
0.000000000000000e+00 0.000000000000000e+00 0.000000000000000e+00
0.000000000000000e+00 0.000000000000000e+00 0.000000000000000e+00
0.000000000000000e+00 0.000000000000000e+00 0.000000000000000e+00
0.000000000000000e+00 0.000000000000000e+00 0.000000000000000e+00
0.000000000000000e+00 0.000000000000000e+00 0.000000000000000e+00
0.000000000000000e+00 0.000000000000000e+00 0.000000000000000e+00
0.000000000000000e+00 0.000000000000000e+00 0.000000000000000e+00
0.000000000000000e+00 0.000000000000000e+00 0.000000000000000e+00
0.000000000000000e+00 0.000000000000000e+00 0.000000000000000e+00
0.000000000000000e+00 0.000000000000000e+00 0.000000000000000e+00
0.000000000000000e+00 0.000000000000000e+00 0.000000000000000e+00
0.000000000000000e+00 0.000000000000000e+00 0.000000000000000e+00
0.000000000000000e+00 0.000000000000000e+00 0.000000000000000e+00
0.000000000000000e+00 0.000000000000000e+00 0.000000000000000e+00
0.000000000000000e+00 0.000000000000000e+00 0.000000000000000e+00
0.000000000000000e+00 0.000000000000000e+00 0.000000000000000e+00
0.000000000000000e+00 0.000000000000000e+00 0.000000000000000e+00
0.000000000000000e+00 0.000000000000000e+00 0.000000000000000e+00
0.000000000000000e+00 0.000000000000000e+00 0.000000000000000e+00
0.000000000000000e+00 0.000000000000000e+00 0.000000000000000e+00
0.000000000000000e+00 0.000000000000000e+00 0.000000000000000e+00
0.000000000000000e+00 0.000000000000000e+00 0.000000000000000e+00
0.000000000000000e+00 0.000000000000000e+00 0.000000000000000e+00
0.000000000000000e+00 0.000000000000000e+00 0.000000000000000e+00
0.000000000000000e+00 0.000000000000000e+00 0.000000000000000e+00
0.000000000000000e+00 0.000000000000000e+00 0.000000000000000e+00
0.000000000000000e+00 0.000000000000000e+00 0.000000000000000e+00
0.000000000000000e+00 0.000000000000000e+00 0.000000000000000e+00
0.000000000000000e+00 0.000000000000000e+00 0.000000000000000e+00
0.000000000000000e+00 0.000000000000000e+00 0.000000000000000e+00
0.000000000000000e+00 0.000000000000000e+00 0.000000000000000e+00
0.000000000000000e+00 0.000000000000000e+00 0.000000000000000e+00
0.000000000000000e+00 0.000000000000000e+00 0.000000000000000e+00
0.000000000000000e+00 0.000000000000000e+00 0.000000000000000e+00
0.000000000000000e+00 0.000000000000000e+00 0.000000000000000e+00
0.000000000000000e+00 0.000000000000000e+00 0.000000000000000e+00
0.000000000000000e+00 0.000000000000000e+00 0.000000000000000e+00
0.000000000000000e+00 0.000000000000000e+00 0.000000000000000e+00
0.000000000000000e+00 0.000000000000000e+00 0.000000000000000e+00
0.000000000000000e+00 0.000000000000000e+00 0.000000000000000e+00
0.000000000000000e+00 0.000000000000000e+00 0.000000000000000e+00
0.000000000000000e+00 0.000000000000000e+00 0.000000000000000e+00
0.000000000000000e+00 0.000000000000000e+00 0.000000000000000e+00
0.000000000000000e+00 0.000000000000000e+00 0.000000000000000e+00
0.000000000000000e+00 0.000000000000000e+00 0.000000000000000e+00
0.000000000000000e+00 0.000000000000000e+00 0.000000000000000e+00
0.000000000000000e+00 0.000000000000000e+00 0.000000000000000e+00
0.000000000000000e+00 0.000000000000000e+00 0.000000000000000e+00
0.000000000000000e+00 0.000000000000000e+00 0.000000000000000e+00
0.000000000000000e+00 0.000000000000000e+00 0.000000000000000e+00
0.000000000000000e+00 0.000000000000000e+00 0.000000000000000e+00
0.000000000000000e+00 0.000000000000000e+00 0.000000000000000e+00
0.000000000000000e+00 0.000000000000000e+00 0.000000000000000e+00
0.000000000000000e+00 0.000000000000000e+00 0.000000000000000e+00
0.000000000000000e+00 0.000000000000000e+00 0.000000000000000e+00
0.000000000000000e+00 0.000000000000000e+00 0.000000000000000e+00
0.000000000000000e+00 0.000000000000000e+00 0.000000000000000e+00
0.000000000000000e+00 0.000000000000000e+00 0.000000000000000e+00
0.000000000000000e+00 0.000000000000000e+00 0.000000000000000e+00
0.000000000000000e+00 0.000000000000000e+00 0.000000000000000e+00
0.000000000000000e+00 0.000000000000000e+00 0.000000000000000e+00
0.000000000000000e+00 0.000000000000000e+00 0.000000000000000e+00
0.000000000000000e+00 0.000000000000000e+00 0.000000000000000e+00
0.000000000000000e+00 0.000000000000000e+00 0.000000000000000e+00
0.000000000000000e+00 0.000000000000000e+00 0.000000000000000e+00
0.000000000000000e+00 0.000000000000000e+00 0.000000000000000e+00
0.000000000000000e+00 0.000000000000000e+00 0.000000000000000e+00
0.000000000000000e+00 0.000000000000000e+00 0.000000000000000e+00
0.000000000000000e+00 0.000000000000000e+00 0.000000000000000e+00
0.000000000000000e+00 0.000000000000000e+00 0.000000000000000e+00
0.000000000000000e+00 0.000000000000000e+00 0.000000000000000e+00
0.000000000000000e+00 0.000000000000000e+00 0.000000000000000e+00
0.000000000000000e+00 0.000000000000000e+00 0.000000000000000e+00
0.000000000000000e+00 0.000000000000000e+00 0.000000000000000e+00
0.000000000000000e+00 0.000000000000000e+00 0.000000000000000e+00
0.000000000000000e+00 0.000000000000000e+00 0.000000000000000e+00
0.000000000000000e+00 0.000000000000000e+00 0.000000000000000e+00
0.000000000000000e+00 0.000000000000000e+00 0.000000000000000e+00
0.000000000000000e+00 0.000000000000000e+00 0.000000000000000e+00
0.000000000000000e+00 0.000000000000000e+00 0.000000000000000e+00
0.000000000000000e+00 0.000000000000000e+00 0.000000000000000e+00
0.000000000000000e+00 0.000000000000000e+00 0.000000000000000e+00
0.000000000000000e+00 0.000000000000000e+00 0.000000000000000e+00
0.000000000000000e+00 0.000000000000000e+00 0.000000000000000e+00
0.000000000000000e+00 0.000000000000000e+00 0.000000000000000e+00
0.000000000000000e+00 0.000000000000000e+00 0.000000000000000e+00
0.000000000000000e+00 0.000000000000000e+00 0.000000000000000e+00
0.000000000000000e+00 0.000000000000000e+00 0.000000000000000e+00
0.000000000000000e+00 0.000000000000000e+00 0.000000000000000e+00
0.000000000000000e+00 0.000000000000000e+00 0.000000000000000e+00
0.000000000000000e+00 0.000000000000000e+00 0.000000000000000e+00
0.000000000000000e+00 0.000000000000000e+00 0.000000000000000e+00
0.000000000000000e+00 0.000000000000000e+00 0.000000000000000e+00
0.000000000000000e+00 0.000000000000000e+00 0.000000000000000e+00
0.000000000000000e+00 0.000000000000000e+00 0.000000000000000e+00
0.000000000000000e+00 0.000000000000000e+00 0.000000000000000e+00
0.000000000000000e+00 0.000000000000000e+00 0.000000000000000e+00
0.000000000000000e+00 0.000000000000000e+00 0.000000000000000e+00
0.000000000000000e+00 0.000000000000000e+00 0.000000000000000e+00
0.000000000000000e+00 0.000000000000000e+00 0.000000000000000e+00
0.000000000000000e+00 0.000000000000000e+00 0.000000000000000e+00
0.000000000000000e+00 0.000000000000000e+00 0.000000000000000e+00
0.000000000000000e+00 0.000000000000000e+00 0.000000000000000e+00
0.000000000000000e+00 0.000000000000000e+00 0.000000000000000e+00
0.000000000000000e+00 0.000000000000000e+00 0.000000000000000e+00
0.000000000000000e+00 0.000000000000000e+00 0.000000000000000e+00
0.000000000000000e+00 0.000000000000000e+00 0.000000000000000e+00
0.000000000000000e+00 0.000000000000000e+00 0.000000000000000e+00
0.000000000000000e+00 0.000000000000000e+00 0.000000000000000e+00
0.000000000000000e+00 0.000000000000000e+00 0.000000000000000e+00
0.000000000000000e+00 0.000000000000000e+00 0.000000000000000e+00
0.000000000000000e+00 0.000000000000000e+00 0.000000000000000e+00
0.000000000000000e+00 0.000000000000000e+00 0.000000000000000e+00
0.000000000000000e+00 0.000000000000000e+00 0.000000000000000e+00
0.000000000000000e+00 0.000000000000000e+00 0.000000000000000e+00
0.000000000000000e+00 0.000000000000000e+00 0.000000000000000e+00
0.000000000000000e+00 0.000000000000000e+00 0.000000000000000e+00
0.000000000000000e+00 0.000000000000000e+00 0.000000000000000e+00
0.000000000000000e+00 0.000000000000000e+00 0.000000000000000e+00
0.000000000000000e+00 0.000000000000000e+00 0.000000000000000e+00
0.000000000000000e+00 0.000000000000000e+00 0.000000000000000e+00
0.000000000000000e+00 0.000000000000000e+00 0.000000000000000e+00
0.000000000000000e+00 0.000000000000000e+00 0.000000000000000e+00
0.000000000000000e+00 0.000000000000000e+00 0.000000000000000e+00
0.000000000000000e+00 0.000000000000000e+00 0.000000000000000e+00
0.000000000000000e+00 0.000000000000000e+00 0.000000000000000e+00
0.000000000000000e+00 0.000000000000000e+00 0.000000000000000e+00
0.000000000000000e+00 0.000000000000000e+00 0.000000000000000e+00
0.000000000000000e+00 0.000000000000000e+00 0.000000000000000e+00
0.000000000000000e+00 0.000000000000000e+00 0.000000000000000e+00
0.000000000000000e+00 0.000000000000000e+00 0.000000000000000e+00
0.000000000000000e+00 0.000000000000000e+00 0.000000000000000e+00
0.000000000000000e+00 0.000000000000000e+00 0.000000000000000e+00
0.000000000000000e+00 0.000000000000000e+00 0.000000000000000e+00
0.000000000000000e+00 0.000000000000000e+00 0.000000000000000e+00
0.000000000000000e+00 0.000000000000000e+00 0.000000000000000e+00
0.000000000000000e+00 0.000000000000000e+00 0.000000000000000e+00
0.000000000000000e+00 0.000000000000000e+00 0.000000000000000e+00
0.000000000000000e+00 0.000000000000000e+00 0.000000000000000e+00
0.000000000000000e+00 0.000000000000000e+00 0.000000000000000e+00
0.000000000000000e+00 0.000000000000000e+00 0.000000000000000e+00
0.000000000000000e+00 0.000000000000000e+00 0.000000000000000e+00
0.000000000000000e+00 0.000000000000000e+00 0.000000000000000e+00
0.000000000000000e+00 0.000000000000000e+00 0.000000000000000e+00
0.000000000000000e+00 0.000000000000000e+00 0.000000000000000e+00
0.000000000000000e+00 0.000000000000000e+00 0.000000000000000e+00
0.000000000000000e+00 0.000000000000000e+00 0.000000000000000e+00
0.000000000000000e+00 0.000000000000000e+00 0.000000000000000e+00
0.000000000000000e+00 0.000000000000000e+00 0.000000000000000e+00
0.000000000000000e+00 0.000000000000000e+00 0.000000000000000e+00
0.000000000000000e+00 0.000000000000000e+00 0.000000000000000e+00
0.000000000000000e+00 0.000000000000000e+00 0.000000000000000e+00
0.000000000000000e+00 0.000000000000000e+00 0.000000000000000e+00
0.000000000000000e+00 0.000000000000000e+00 0.000000000000000e+00
0.000000000000000e+00 0.000000000000000e+00 0.000000000000000e+00
0.000000000000000e+00 0.000000000000000e+00 0.000000000000000e+00
0.000000000000000e+00 0.000000000000000e+00 0.000000000000000e+00
0.000000000000000e+00 0.000000000000000e+00 0.000000000000000e+00
0.000000000000000e+00 0.000000000000000e+00 0.000000000000000e+00
0.000000000000000e+00 0.000000000000000e+00 0.000000000000000e+00
0.000000000000000e+00 0.000000000000000e+00 0.000000000000000e+00
0.000000000000000e+00 0.000000000000000e+00 0.000000000000000e+00
0.000000000000000e+00 0.000000000000000e+00 0.000000000000000e+00
0.000000000000000e+00 0.000000000000000e+00 0.000000000000000e+00
0.000000000000000e+00 0.000000000000000e+00 0.000000000000000e+00
0.000000000000000e+00 0.000000000000000e+00 0.000000000000000e+00
0.000000000000000e+00 0.000000000000000e+00 0.000000000000000e+00
0.000000000000000e+00 0.000000000000000e+00 0.000000000000000e+00
0.000000000000000e+00 0.000000000000000e+00 0.000000000000000e+00
0.000000000000000e+00 0.000000000000000e+00 0.000000000000000e+00
0.000000000000000e+00 0.000000000000000e+00 0.000000000000000e+00
0.000000000000000e+00 0.000000000000000e+00 0.000000000000000e+00
0.000000000000000e+00 0.000000000000000e+00 0.000000000000000e+00
0.000000000000000e+00 0.000000000000000e+00 0.000000000000000e+00
0.000000000000000e+00 0.000000000000000e+00 0.000000000000000e+00
0.000000000000000e+00 0.000000000000000e+00 0.000000000000000e+00
0.000000000000000e+00 0.000000000000000e+00 0.000000000000000e+00
0.000000000000000e+00 0.000000000000000e+00 0.000000000000000e+00
0.000000000000000e+00 0.000000000000000e+00 0.000000000000000e+00
0.000000000000000e+00 0.000000000000000e+00 0.000000000000000e+00
0.000000000000000e+00 0.000000000000000e+00 0.000000000000000e+00
0.000000000000000e+00 0.000000000000000e+00 0.000000000000000e+00
0.000000000000000e+00 0.000000000000000e+00 0.000000000000000e+00
0.000000000000000e+00 0.000000000000000e+00 0.000000000000000e+00
0.000000000000000e+00 0.000000000000000e+00 0.000000000000000e+00
0.000000000000000e+00 0.000000000000000e+00 0.000000000000000e+00
0.000000000000000e+00 0.000000000000000e+00 0.000000000000000e+00
0.000000000000000e+00 0.000000000000000e+00 0.000000000000000e+00
0.000000000000000e+00 0.000000000000000e+00 0.000000000000000e+00
0.000000000000000e+00 0.000000000000000e+00 0.000000000000000e+00
0.000000000000000e+00 0.000000000000000e+00 0.000000000000000e+00
0.000000000000000e+00 0.000000000000000e+00 0.000000000000000e+00
0.000000000000000e+00 0.000000000000000e+00 0.000000000000000e+00
0.000000000000000e+00 0.000000000000000e+00 0.000000000000000e+00
0.000000000000000e+00 0.000000000000000e+00 0.000000000000000e+00
0.000000000000000e+00 0.000000000000000e+00 0.000000000000000e+00
0.000000000000000e+00 0.000000000000000e+00 0.000000000000000e+00
0.000000000000000e+00 0.000000000000000e+00 0.000000000000000e+00
0.000000000000000e+00 0.000000000000000e+00 0.000000000000000e+00
0.000000000000000e+00 0.000000000000000e+00 0.000000000000000e+00
0.000000000000000e+00 0.000000000000000e+00 0.000000000000000e+00
0.000000000000000e+00 0.000000000000000e+00 0.000000000000000e+00
0.000000000000000e+00 0.000000000000000e+00 0.000000000000000e+00
0.000000000000000e+00 0.000000000000000e+00 0.000000000000000e+00
0.000000000000000e+00 0.000000000000000e+00 0.000000000000000e+00
0.000000000000000e+00 0.000000000000000e+00 0.000000000000000e+00
0.000000000000000e+00 0.000000000000000e+00 0.000000000000000e+00
0.000000000000000e+00 0.000000000000000e+00 0.000000000000000e+00
0.000000000000000e+00 0.000000000000000e+00 0.000000000000000e+00
0.000000000000000e+00 0.000000000000000e+00 0.000000000000000e+00
0.000000000000000e+00 0.000000000000000e+00 0.000000000000000e+00
0.000000000000000e+00 0.000000000000000e+00 0.000000000000000e+00
0.000000000000000e+00 0.000000000000000e+00 0.000000000000000e+00
0.000000000000000e+00 0.000000000000000e+00 0.000000000000000e+00
0.000000000000000e+00 0.000000000000000e+00 0.000000000000000e+00
0.000000000000000e+00 0.000000000000000e+00 0.000000000000000e+00
0.000000000000000e+00 0.000000000000000e+00 0.000000000000000e+00
0.000000000000000e+00 0.000000000000000e+00 0.000000000000000e+00
0.000000000000000e+00 0.000000000000000e+00 0.000000000000000e+00
0.000000000000000e+00 0.000000000000000e+00 0.000000000000000e+00
0.000000000000000e+00 0.000000000000000e+00 0.000000000000000e+00
0.000000000000000e+00 0.000000000000000e+00 0.000000000000000e+00
0.000000000000000e+00 0.000000000000000e+00 0.000000000000000e+00
0.000000000000000e+00 0.000000000000000e+00 0.000000000000000e+00
0.000000000000000e+00 0.000000000000000e+00 0.000000000000000e+00
0.000000000000000e+00 0.000000000000000e+00 0.000000000000000e+00
0.000000000000000e+00 0.000000000000000e+00 0.000000000000000e+00
0.000000000000000e+00 0.000000000000000e+00 0.000000000000000e+00
0.000000000000000e+00 0.000000000000000e+00 0.000000000000000e+00
0.000000000000000e+00 0.000000000000000e+00 0.000000000000000e+00
0.000000000000000e+00 0.000000000000000e+00 0.000000000000000e+00
0.000000000000000e+00 0.000000000000000e+00 0.000000000000000e+00
0.000000000000000e+00 0.000000000000000e+00 0.000000000000000e+00
0.000000000000000e+00 0.000000000000000e+00 0.000000000000000e+00
0.000000000000000e+00 0.000000000000000e+00 0.000000000000000e+00
0.000000000000000e+00 0.000000000000000e+00 0.000000000000000e+00
0.000000000000000e+00 0.000000000000000e+00 0.000000000000000e+00
0.000000000000000e+00 0.000000000000000e+00 0.000000000000000e+00
0.000000000000000e+00 0.000000000000000e+00 0.000000000000000e+00
0.000000000000000e+00 0.000000000000000e+00 0.000000000000000e+00
0.000000000000000e+00 0.000000000000000e+00 0.000000000000000e+00
0.000000000000000e+00 0.000000000000000e+00 0.000000000000000e+00
0.000000000000000e+00 0.000000000000000e+00 0.000000000000000e+00
0.000000000000000e+00 0.000000000000000e+00 0.000000000000000e+00
0.000000000000000e+00 0.000000000000000e+00 0.000000000000000e+00
0.000000000000000e+00 0.000000000000000e+00 0.000000000000000e+00
0.000000000000000e+00 0.000000000000000e+00 0.000000000000000e+00
0.000000000000000e+00 0.000000000000000e+00 0.000000000000000e+00
0.000000000000000e+00 0.000000000000000e+00 0.000000000000000e+00
0.000000000000000e+00 0.000000000000000e+00 0.000000000000000e+00
0.000000000000000e+00 0.000000000000000e+00 0.000000000000000e+00
0.000000000000000e+00 0.000000000000000e+00 0.000000000000000e+00
0.000000000000000e+00 0.000000000000000e+00 0.000000000000000e+00
0.000000000000000e+00 0.000000000000000e+00 0.000000000000000e+00
0.000000000000000e+00 0.000000000000000e+00 0.000000000000000e+00
0.000000000000000e+00 0.000000000000000e+00 0.000000000000000e+00
0.000000000000000e+00 0.000000000000000e+00 0.000000000000000e+00
0.000000000000000e+00 0.000000000000000e+00 0.000000000000000e+00
0.000000000000000e+00 0.000000000000000e+00 0.000000000000000e+00
0.000000000000000e+00 0.000000000000000e+00 0.000000000000000e+00
0.000000000000000e+00 0.000000000000000e+00 0.000000000000000e+00
0.000000000000000e+00 0.000000000000000e+00 0.000000000000000e+00
0.000000000000000e+00 0.000000000000000e+00 0.000000000000000e+00
0.000000000000000e+00 0.000000000000000e+00 0.000000000000000e+00
0.000000000000000e+00 0.000000000000000e+00 0.000000000000000e+00
0.000000000000000e+00 0.000000000000000e+00 0.000000000000000e+00
0.000000000000000e+00 0.000000000000000e+00 0.000000000000000e+00
0.000000000000000e+00 0.000000000000000e+00 0.000000000000000e+00
0.000000000000000e+00 0.000000000000000e+00 0.000000000000000e+00
0.000000000000000e+00 0.000000000000000e+00 0.000000000000000e+00
0.000000000000000e+00 0.000000000000000e+00 0.000000000000000e+00
0.000000000000000e+00 0.000000000000000e+00 0.000000000000000e+00
0.000000000000000e+00 0.000000000000000e+00 0.000000000000000e+00
0.000000000000000e+00 0.000000000000000e+00 0.000000000000000e+00
0.000000000000000e+00 0.000000000000000e+00 0.000000000000000e+00
0.000000000000000e+00 0.000000000000000e+00 0.000000000000000e+00
0.000000000000000e+00 0.000000000000000e+00 0.000000000000000e+00
0.000000000000000e+00 0.000000000000000e+00 0.000000000000000e+00
0.000000000000000e+00 0.000000000000000e+00 0.000000000000000e+00
0.000000000000000e+00 0.000000000000000e+00 0.000000000000000e+00
0.000000000000000e+00 0.000000000000000e+00 0.000000000000000e+00
0.000000000000000e+00 0.000000000000000e+00 0.000000000000000e+00
0.000000000000000e+00 0.000000000000000e+00 0.000000000000000e+00
0.000000000000000e+00 0.000000000000000e+00 0.000000000000000e+00
0.000000000000000e+00 0.000000000000000e+00 0.000000000000000e+00
0.000000000000000e+00 0.000000000000000e+00 0.000000000000000e+00
0.000000000000000e+00 0.000000000000000e+00 0.000000000000000e+00
0.000000000000000e+00 0.000000000000000e+00 0.000000000000000e+00
0.000000000000000e+00 0.000000000000000e+00 0.000000000000000e+00
0.000000000000000e+00 0.000000000000000e+00 0.000000000000000e+00
0.000000000000000e+00 0.000000000000000e+00 0.000000000000000e+00
0.000000000000000e+00 0.000000000000000e+00 0.000000000000000e+00
0.000000000000000e+00 0.000000000000000e+00 0.000000000000000e+00
0.000000000000000e+00 0.000000000000000e+00 0.000000000000000e+00
0.000000000000000e+00 0.000000000000000e+00 0.000000000000000e+00
0.000000000000000e+00 0.000000000000000e+00 0.000000000000000e+00
0.000000000000000e+00 0.000000000000000e+00 0.000000000000000e+00
0.000000000000000e+00 0.000000000000000e+00 0.000000000000000e+00
0.000000000000000e+00 0.000000000000000e+00 0.000000000000000e+00
0.000000000000000e+00 0.000000000000000e+00 0.000000000000000e+00
0.000000000000000e+00 0.000000000000000e+00 0.000000000000000e+00
0.000000000000000e+00 0.000000000000000e+00 0.000000000000000e+00
0.000000000000000e+00 0.000000000000000e+00 0.000000000000000e+00
0.000000000000000e+00 0.000000000000000e+00 0.000000000000000e+00
0.000000000000000e+00 0.000000000000000e+00 0.000000000000000e+00
0.000000000000000e+00 0.000000000000000e+00 0.000000000000000e+00
0.000000000000000e+00 0.000000000000000e+00 0.000000000000000e+00
0.000000000000000e+00 0.000000000000000e+00 0.000000000000000e+00
0.000000000000000e+00 0.000000000000000e+00 0.000000000000000e+00
0.000000000000000e+00 0.000000000000000e+00 0.000000000000000e+00
0.000000000000000e+00 0.000000000000000e+00 0.000000000000000e+00
0.000000000000000e+00 0.000000000000000e+00 0.000000000000000e+00
0.000000000000000e+00 0.000000000000000e+00 0.000000000000000e+00
0.000000000000000e+00 0.000000000000000e+00 0.000000000000000e+00
0.000000000000000e+00 0.000000000000000e+00 0.000000000000000e+00
0.000000000000000e+00 0.000000000000000e+00 0.000000000000000e+00
0.000000000000000e+00 0.000000000000000e+00 0.000000000000000e+00
0.000000000000000e+00 0.000000000000000e+00 0.000000000000000e+00
0.000000000000000e+00 0.000000000000000e+00 0.000000000000000e+00
0.000000000000000e+00 0.000000000000000e+00 0.000000000000000e+00
0.000000000000000e+00 0.000000000000000e+00 0.000000000000000e+00
0.000000000000000e+00 0.000000000000000e+00 0.000000000000000e+00
0.000000000000000e+00 0.000000000000000e+00 0.000000000000000e+00
0.000000000000000e+00 0.000000000000000e+00 0.000000000000000e+00
0.000000000000000e+00 0.000000000000000e+00 0.000000000000000e+00
0.000000000000000e+00 0.000000000000000e+00 0.000000000000000e+00
0.000000000000000e+00 0.000000000000000e+00 0.000000000000000e+00
0.000000000000000e+00 0.000000000000000e+00 0.000000000000000e+00
0.000000000000000e+00 0.000000000000000e+00 0.000000000000000e+00
0.000000000000000e+00 0.000000000000000e+00 0.000000000000000e+00
0.000000000000000e+00 0.000000000000000e+00 0.000000000000000e+00
0.000000000000000e+00 0.000000000000000e+00 0.000000000000000e+00
0.000000000000000e+00 0.000000000000000e+00 0.000000000000000e+00
0.000000000000000e+00 0.000000000000000e+00 0.000000000000000e+00
0.000000000000000e+00 0.000000000000000e+00 0.000000000000000e+00
0.000000000000000e+00 0.000000000000000e+00 0.000000000000000e+00
0.000000000000000e+00 0.000000000000000e+00 0.000000000000000e+00
0.000000000000000e+00 0.000000000000000e+00 0.000000000000000e+00
0.000000000000000e+00 0.000000000000000e+00 0.000000000000000e+00
0.000000000000000e+00 0.000000000000000e+00 0.000000000000000e+00
0.000000000000000e+00 0.000000000000000e+00 0.000000000000000e+00
0.000000000000000e+00 0.000000000000000e+00 0.000000000000000e+00
0.000000000000000e+00 0.000000000000000e+00 0.000000000000000e+00
0.000000000000000e+00 0.000000000000000e+00 0.000000000000000e+00
0.000000000000000e+00 0.000000000000000e+00 0.000000000000000e+00
0.000000000000000e+00 0.000000000000000e+00 0.000000000000000e+00
0.000000000000000e+00 0.000000000000000e+00 0.000000000000000e+00
0.000000000000000e+00 0.000000000000000e+00 0.000000000000000e+00
0.000000000000000e+00 0.000000000000000e+00 0.000000000000000e+00
0.000000000000000e+00 0.000000000000000e+00 0.000000000000000e+00
0.000000000000000e+00 0.000000000000000e+00 0.000000000000000e+00
0.000000000000000e+00 0.000000000000000e+00 0.000000000000000e+00
0.000000000000000e+00 0.000000000000000e+00 0.000000000000000e+00
0.000000000000000e+00 0.000000000000000e+00 0.000000000000000e+00
0.000000000000000e+00 0.000000000000000e+00 0.000000000000000e+00
0.000000000000000e+00 0.000000000000000e+00 0.000000000000000e+00
0.000000000000000e+00 0.000000000000000e+00 0.000000000000000e+00
0.000000000000000e+00 0.000000000000000e+00 0.000000000000000e+00
0.000000000000000e+00 0.000000000000000e+00 0.000000000000000e+00
0.000000000000000e+00 0.000000000000000e+00 0.000000000000000e+00
0.000000000000000e+00 0.000000000000000e+00 0.000000000000000e+00
0.000000000000000e+00 0.000000000000000e+00 0.000000000000000e+00
0.000000000000000e+00 0.000000000000000e+00 0.000000000000000e+00
0.000000000000000e+00 0.000000000000000e+00 0.000000000000000e+00
0.000000000000000e+00 0.000000000000000e+00 0.000000000000000e+00
0.000000000000000e+00 0.000000000000000e+00 0.000000000000000e+00
0.000000000000000e+00 0.000000000000000e+00 0.000000000000000e+00
0.000000000000000e+00 0.000000000000000e+00 0.000000000000000e+00
0.000000000000000e+00 0.000000000000000e+00 0.000000000000000e+00
0.000000000000000e+00 0.000000000000000e+00 0.000000000000000e+00
0.000000000000000e+00 0.000000000000000e+00 0.000000000000000e+00
0.000000000000000e+00 0.000000000000000e+00 0.000000000000000e+00
0.000000000000000e+00 0.000000000000000e+00 0.000000000000000e+00
0.000000000000000e+00 0.000000000000000e+00 0.000000000000000e+00
0.000000000000000e+00 0.000000000000000e+00 0.000000000000000e+00
0.000000000000000e+00 0.000000000000000e+00 0.000000000000000e+00
0.000000000000000e+00 0.000000000000000e+00 0.000000000000000e+00
0.000000000000000e+00 0.000000000000000e+00 0.000000000000000e+00
0.000000000000000e+00 0.000000000000000e+00 0.000000000000000e+00
0.000000000000000e+00 0.000000000000000e+00 0.000000000000000e+00
0.000000000000000e+00 0.000000000000000e+00 0.000000000000000e+00
0.000000000000000e+00 0.000000000000000e+00 0.000000000000000e+00
0.000000000000000e+00 0.000000000000000e+00 0.000000000000000e+00
0.000000000000000e+00 0.000000000000000e+00 0.000000000000000e+00
0.000000000000000e+00 0.000000000000000e+00 0.000000000000000e+00
0.000000000000000e+00 0.000000000000000e+00 0.000000000000000e+00
0.000000000000000e+00 0.000000000000000e+00 0.000000000000000e+00
0.000000000000000e+00 0.000000000000000e+00 0.000000000000000e+00
0.000000000000000e+00 0.000000000000000e+00 0.000000000000000e+00
0.000000000000000e+00 0.000000000000000e+00 0.000000000000000e+00
0.000000000000000e+00 0.000000000000000e+00 0.000000000000000e+00
0.000000000000000e+00 0.000000000000000e+00 0.000000000000000e+00
0.000000000000000e+00 0.000000000000000e+00 0.000000000000000e+00
0.000000000000000e+00 0.000000000000000e+00 0.000000000000000e+00
0.000000000000000e+00 0.000000000000000e+00 0.000000000000000e+00
0.000000000000000e+00 0.000000000000000e+00 0.000000000000000e+00
0.000000000000000e+00 0.000000000000000e+00 0.000000000000000e+00
0.000000000000000e+00 0.000000000000000e+00 0.000000000000000e+00
0.000000000000000e+00 0.000000000000000e+00 0.000000000000000e+00
0.000000000000000e+00 0.000000000000000e+00 0.000000000000000e+00
0.000000000000000e+00 0.000000000000000e+00 0.000000000000000e+00
0.000000000000000e+00 0.000000000000000e+00 0.000000000000000e+00
0.000000000000000e+00 0.000000000000000e+00 0.000000000000000e+00
0.000000000000000e+00 0.000000000000000e+00 0.000000000000000e+00
0.000000000000000e+00 0.000000000000000e+00 0.000000000000000e+00
0.000000000000000e+00 0.000000000000000e+00 0.000000000000000e+00
0.000000000000000e+00 0.000000000000000e+00 0.000000000000000e+00
0.000000000000000e+00 0.000000000000000e+00 0.000000000000000e+00
0.000000000000000e+00 0.000000000000000e+00 0.000000000000000e+00
0.000000000000000e+00 0.000000000000000e+00 0.000000000000000e+00
0.000000000000000e+00 0.000000000000000e+00 0.000000000000000e+00
0.000000000000000e+00 0.000000000000000e+00 0.000000000000000e+00
0.000000000000000e+00 0.000000000000000e+00 0.000000000000000e+00
0.000000000000000e+00 0.000000000000000e+00 0.000000000000000e+00
0.000000000000000e+00 0.000000000000000e+00 0.000000000000000e+00
0.000000000000000e+00 0.000000000000000e+00 0.000000000000000e+00
0.000000000000000e+00 0.000000000000000e+00 0.000000000000000e+00
0.000000000000000e+00 0.000000000000000e+00 0.000000000000000e+00
0.000000000000000e+00 0.000000000000000e+00 0.000000000000000e+00
0.000000000000000e+00 0.000000000000000e+00 0.000000000000000e+00
0.000000000000000e+00 0.000000000000000e+00 0.000000000000000e+00
0.000000000000000e+00 0.000000000000000e+00 0.000000000000000e+00
0.000000000000000e+00 0.000000000000000e+00 0.000000000000000e+00
0.000000000000000e+00 0.000000000000000e+00 0.000000000000000e+00
0.000000000000000e+00 0.000000000000000e+00 0.000000000000000e+00
0.000000000000000e+00 0.000000000000000e+00 0.000000000000000e+00
0.000000000000000e+00 0.000000000000000e+00 0.000000000000000e+00
0.000000000000000e+00 0.000000000000000e+00 0.000000000000000e+00
0.000000000000000e+00 0.000000000000000e+00 0.000000000000000e+00
0.000000000000000e+00 0.000000000000000e+00 0.000000000000000e+00
0.000000000000000e+00 0.000000000000000e+00 0.000000000000000e+00
0.000000000000000e+00 0.000000000000000e+00 0.000000000000000e+00
0.000000000000000e+00 0.000000000000000e+00 0.000000000000000e+00
0.000000000000000e+00 0.000000000000000e+00 0.000000000000000e+00
0.000000000000000e+00 0.000000000000000e+00 0.000000000000000e+00
0.000000000000000e+00 0.000000000000000e+00 0.000000000000000e+00
0.000000000000000e+00 0.000000000000000e+00 0.000000000000000e+00
0.000000000000000e+00 0.000000000000000e+00 0.000000000000000e+00
0.000000000000000e+00 0.000000000000000e+00 0.000000000000000e+00
0.000000000000000e+00 0.000000000000000e+00 0.000000000000000e+00
0.000000000000000e+00 0.000000000000000e+00 0.000000000000000e+00
0.000000000000000e+00 0.000000000000000e+00 0.000000000000000e+00
0.000000000000000e+00 0.000000000000000e+00 0.000000000000000e+00
0.000000000000000e+00 0.000000000000000e+00 0.000000000000000e+00
0.000000000000000e+00 0.000000000000000e+00 0.000000000000000e+00
0.000000000000000e+00 0.000000000000000e+00 0.000000000000000e+00
0.000000000000000e+00 0.000000000000000e+00 0.000000000000000e+00
0.000000000000000e+00 0.000000000000000e+00 0.000000000000000e+00
0.000000000000000e+00 0.000000000000000e+00 0.000000000000000e+00
0.000000000000000e+00 0.000000000000000e+00 0.000000000000000e+00
0.000000000000000e+00 0.000000000000000e+00 0.000000000000000e+00
0.000000000000000e+00 0.000000000000000e+00 0.000000000000000e+00
0.000000000000000e+00 0.000000000000000e+00 0.000000000000000e+00
0.000000000000000e+00 0.000000000000000e+00 0.000000000000000e+00
0.000000000000000e+00 0.000000000000000e+00 0.000000000000000e+00
0.000000000000000e+00 0.000000000000000e+00 0.000000000000000e+00
0.000000000000000e+00 0.000000000000000e+00 0.000000000000000e+00
0.000000000000000e+00 0.000000000000000e+00 0.000000000000000e+00
0.000000000000000e+00 0.000000000000000e+00 0.000000000000000e+00
0.000000000000000e+00 0.000000000000000e+00 0.000000000000000e+00
0.000000000000000e+00 0.000000000000000e+00 0.000000000000000e+00
0.000000000000000e+00 0.000000000000000e+00 0.000000000000000e+00
0.000000000000000e+00 0.000000000000000e+00 0.000000000000000e+00
0.000000000000000e+00 0.000000000000000e+00 0.000000000000000e+00
0.000000000000000e+00 0.000000000000000e+00 0.000000000000000e+00
0.000000000000000e+00 0.000000000000000e+00 0.000000000000000e+00
0.000000000000000e+00 0.000000000000000e+00 0.000000000000000e+00
0.000000000000000e+00 0.000000000000000e+00 0.000000000000000e+00
0.000000000000000e+00 0.000000000000000e+00 0.000000000000000e+00
0.000000000000000e+00 0.000000000000000e+00 0.000000000000000e+00
0.000000000000000e+00 0.000000000000000e+00 0.000000000000000e+00
0.000000000000000e+00 0.000000000000000e+00 0.000000000000000e+00
0.000000000000000e+00 0.000000000000000e+00 0.000000000000000e+00
0.000000000000000e+00 0.000000000000000e+00 0.000000000000000e+00
0.000000000000000e+00 0.000000000000000e+00 0.000000000000000e+00
0.000000000000000e+00 0.000000000000000e+00 0.000000000000000e+00
0.000000000000000e+00 0.000000000000000e+00 0.000000000000000e+00
0.000000000000000e+00 0.000000000000000e+00 0.000000000000000e+00
0.000000000000000e+00 0.000000000000000e+00 0.000000000000000e+00
0.000000000000000e+00 0.000000000000000e+00 0.000000000000000e+00
0.000000000000000e+00 0.000000000000000e+00 0.000000000000000e+00
0.000000000000000e+00 0.000000000000000e+00 0.000000000000000e+00
0.000000000000000e+00 0.000000000000000e+00 0.000000000000000e+00
0.000000000000000e+00 0.000000000000000e+00 0.000000000000000e+00
0.000000000000000e+00 0.000000000000000e+00 0.000000000000000e+00
0.000000000000000e+00 0.000000000000000e+00 0.000000000000000e+00
0.000000000000000e+00 0.000000000000000e+00 0.000000000000000e+00
0.000000000000000e+00 0.000000000000000e+00 0.000000000000000e+00
0.000000000000000e+00 0.000000000000000e+00 0.000000000000000e+00
0.000000000000000e+00 0.000000000000000e+00 0.000000000000000e+00
0.000000000000000e+00 0.000000000000000e+00 0.000000000000000e+00
0.000000000000000e+00 0.000000000000000e+00 0.000000000000000e+00
0.000000000000000e+00 0.000000000000000e+00 0.000000000000000e+00
0.000000000000000e+00 0.000000000000000e+00 0.000000000000000e+00
0.000000000000000e+00 0.000000000000000e+00 0.000000000000000e+00
0.000000000000000e+00 0.000000000000000e+00 0.000000000000000e+00
0.000000000000000e+00 0.000000000000000e+00 0.000000000000000e+00
0.000000000000000e+00 0.000000000000000e+00 0.000000000000000e+00
0.000000000000000e+00 0.000000000000000e+00 0.000000000000000e+00
0.000000000000000e+00 0.000000000000000e+00 0.000000000000000e+00
0.000000000000000e+00 0.000000000000000e+00 0.000000000000000e+00
0.000000000000000e+00 0.000000000000000e+00 0.000000000000000e+00
0.000000000000000e+00 0.000000000000000e+00 0.000000000000000e+00
0.000000000000000e+00 0.000000000000000e+00 0.000000000000000e+00
0.000000000000000e+00 0.000000000000000e+00 0.000000000000000e+00
0.000000000000000e+00 0.000000000000000e+00 0.000000000000000e+00
0.000000000000000e+00 0.000000000000000e+00 0.000000000000000e+00
0.000000000000000e+00 0.000000000000000e+00 0.000000000000000e+00
0.000000000000000e+00 0.000000000000000e+00 0.000000000000000e+00
0.000000000000000e+00 0.000000000000000e+00 0.000000000000000e+00
0.000000000000000e+00 0.000000000000000e+00 0.000000000000000e+00
0.000000000000000e+00 0.000000000000000e+00 0.000000000000000e+00
0.000000000000000e+00 0.000000000000000e+00 0.000000000000000e+00
0.000000000000000e+00 0.000000000000000e+00 0.000000000000000e+00
0.000000000000000e+00 0.000000000000000e+00 0.000000000000000e+00
0.000000000000000e+00 0.000000000000000e+00 0.000000000000000e+00
0.000000000000000e+00 0.000000000000000e+00 0.000000000000000e+00
0.000000000000000e+00 0.000000000000000e+00 0.000000000000000e+00
0.000000000000000e+00 0.000000000000000e+00 0.000000000000000e+00
0.000000000000000e+00 0.000000000000000e+00 0.000000000000000e+00
0.000000000000000e+00 0.000000000000000e+00 0.000000000000000e+00
0.000000000000000e+00 0.000000000000000e+00 0.000000000000000e+00
0.000000000000000e+00 0.000000000000000e+00 0.000000000000000e+00
0.000000000000000e+00 0.000000000000000e+00 0.000000000000000e+00
0.000000000000000e+00 0.000000000000000e+00 0.000000000000000e+00
0.000000000000000e+00 0.000000000000000e+00 0.000000000000000e+00
0.000000000000000e+00 0.000000000000000e+00 0.000000000000000e+00
0.000000000000000e+00 0.000000000000000e+00 0.000000000000000e+00
0.000000000000000e+00 0.000000000000000e+00 0.000000000000000e+00
0.000000000000000e+00 0.000000000000000e+00 0.000000000000000e+00
0.000000000000000e+00 0.000000000000000e+00 0.000000000000000e+00
0.000000000000000e+00 0.000000000000000e+00 0.000000000000000e+00
0.000000000000000e+00 0.000000000000000e+00 0.000000000000000e+00
0.000000000000000e+00 0.000000000000000e+00 0.000000000000000e+00
0.000000000000000e+00 0.000000000000000e+00 0.000000000000000e+00
0.000000000000000e+00 0.000000000000000e+00 0.000000000000000e+00
0.000000000000000e+00 0.000000000000000e+00 0.000000000000000e+00
0.000000000000000e+00 0.000000000000000e+00 0.000000000000000e+00
0.000000000000000e+00 0.000000000000000e+00 0.000000000000000e+00
0.000000000000000e+00 0.000000000000000e+00 0.000000000000000e+00
0.000000000000000e+00 0.000000000000000e+00 0.000000000000000e+00
0.000000000000000e+00 0.000000000000000e+00 0.000000000000000e+00
0.000000000000000e+00 0.000000000000000e+00 0.000000000000000e+00
0.000000000000000e+00 0.000000000000000e+00 0.000000000000000e+00
0.000000000000000e+00 0.000000000000000e+00 0.000000000000000e+00
0.000000000000000e+00 0.000000000000000e+00 0.000000000000000e+00
0.000000000000000e+00 0.000000000000000e+00 0.000000000000000e+00
0.000000000000000e+00 0.000000000000000e+00 0.000000000000000e+00
0.000000000000000e+00 0.000000000000000e+00 0.000000000000000e+00
0.000000000000000e+00 0.000000000000000e+00 0.000000000000000e+00
0.000000000000000e+00 0.000000000000000e+00 0.000000000000000e+00
0.000000000000000e+00 0.000000000000000e+00 0.000000000000000e+00
0.000000000000000e+00 0.000000000000000e+00 0.000000000000000e+00
0.000000000000000e+00 0.000000000000000e+00 0.000000000000000e+00
0.000000000000000e+00 0.000000000000000e+00 0.000000000000000e+00
0.000000000000000e+00 0.000000000000000e+00 0.000000000000000e+00
0.000000000000000e+00 0.000000000000000e+00 0.000000000000000e+00
0.000000000000000e+00 0.000000000000000e+00 0.000000000000000e+00
0.000000000000000e+00 0.000000000000000e+00 0.000000000000000e+00
0.000000000000000e+00 0.000000000000000e+00 0.000000000000000e+00
0.000000000000000e+00 0.000000000000000e+00 0.000000000000000e+00
0.000000000000000e+00 0.000000000000000e+00 0.000000000000000e+00
0.000000000000000e+00 0.000000000000000e+00 0.000000000000000e+00
0.000000000000000e+00 0.000000000000000e+00 0.000000000000000e+00
0.000000000000000e+00 0.000000000000000e+00 0.000000000000000e+00
0.000000000000000e+00 0.000000000000000e+00 0.000000000000000e+00
0.000000000000000e+00 0.000000000000000e+00 0.000000000000000e+00
0.000000000000000e+00 0.000000000000000e+00 0.000000000000000e+00
0.000000000000000e+00 0.000000000000000e+00 0.000000000000000e+00
0.000000000000000e+00 0.000000000000000e+00 0.000000000000000e+00
0.000000000000000e+00 0.000000000000000e+00 0.000000000000000e+00
0.000000000000000e+00 0.000000000000000e+00 0.000000000000000e+00
0.000000000000000e+00 0.000000000000000e+00 0.000000000000000e+00
0.000000000000000e+00 0.000000000000000e+00 0.000000000000000e+00
0.000000000000000e+00 0.000000000000000e+00 0.000000000000000e+00
0.000000000000000e+00 0.000000000000000e+00 0.000000000000000e+00
0.000000000000000e+00 0.000000000000000e+00 0.000000000000000e+00
0.000000000000000e+00 0.000000000000000e+00 0.000000000000000e+00
0.000000000000000e+00 0.000000000000000e+00 0.000000000000000e+00
0.000000000000000e+00 0.000000000000000e+00 0.000000000000000e+00
0.000000000000000e+00 0.000000000000000e+00 0.000000000000000e+00
0.000000000000000e+00 0.000000000000000e+00 0.000000000000000e+00
0.000000000000000e+00 0.000000000000000e+00 0.000000000000000e+00
0.000000000000000e+00 0.000000000000000e+00 0.000000000000000e+00
0.000000000000000e+00 0.000000000000000e+00 0.000000000000000e+00
0.000000000000000e+00 0.000000000000000e+00 0.000000000000000e+00
0.000000000000000e+00 0.000000000000000e+00 0.000000000000000e+00
0.000000000000000e+00 0.000000000000000e+00 0.000000000000000e+00
0.000000000000000e+00 0.000000000000000e+00 0.000000000000000e+00
0.000000000000000e+00 0.000000000000000e+00 0.000000000000000e+00
0.000000000000000e+00 0.000000000000000e+00 0.000000000000000e+00
0.000000000000000e+00 0.000000000000000e+00 0.000000000000000e+00
0.000000000000000e+00 0.000000000000000e+00 0.000000000000000e+00
0.000000000000000e+00 0.000000000000000e+00 0.000000000000000e+00
0.000000000000000e+00 0.000000000000000e+00 0.000000000000000e+00
0.000000000000000e+00 0.000000000000000e+00 0.000000000000000e+00
0.000000000000000e+00 0.000000000000000e+00 0.000000000000000e+00
0.000000000000000e+00 0.000000000000000e+00 0.000000000000000e+00
0.000000000000000e+00 0.000000000000000e+00 0.000000000000000e+00
0.000000000000000e+00 0.000000000000000e+00 0.000000000000000e+00
0.000000000000000e+00 0.000000000000000e+00 0.000000000000000e+00
0.000000000000000e+00 0.000000000000000e+00 0.000000000000000e+00
0.000000000000000e+00 0.000000000000000e+00 0.000000000000000e+00
0.000000000000000e+00 0.000000000000000e+00 0.000000000000000e+00
0.000000000000000e+00 0.000000000000000e+00 0.000000000000000e+00
0.000000000000000e+00 0.000000000000000e+00 0.000000000000000e+00
0.000000000000000e+00 0.000000000000000e+00 0.000000000000000e+00
0.000000000000000e+00 0.000000000000000e+00 0.000000000000000e+00
0.000000000000000e+00 0.000000000000000e+00 0.000000000000000e+00
0.000000000000000e+00 0.000000000000000e+00 0.000000000000000e+00
0.000000000000000e+00 0.000000000000000e+00 0.000000000000000e+00
0.000000000000000e+00 0.000000000000000e+00 0.000000000000000e+00
0.000000000000000e+00 0.000000000000000e+00 0.000000000000000e+00
0.000000000000000e+00 0.000000000000000e+00 0.000000000000000e+00
0.000000000000000e+00 0.000000000000000e+00 0.000000000000000e+00
0.000000000000000e+00 0.000000000000000e+00 0.000000000000000e+00
0.000000000000000e+00 0.000000000000000e+00 0.000000000000000e+00
0.000000000000000e+00 0.000000000000000e+00 0.000000000000000e+00
0.000000000000000e+00 0.000000000000000e+00 0.000000000000000e+00
0.000000000000000e+00 0.000000000000000e+00 0.000000000000000e+00
0.000000000000000e+00 0.000000000000000e+00 0.000000000000000e+00
0.000000000000000e+00 0.000000000000000e+00 0.000000000000000e+00
0.000000000000000e+00 0.000000000000000e+00 0.000000000000000e+00
0.000000000000000e+00 0.000000000000000e+00 0.000000000000000e+00
0.000000000000000e+00 0.000000000000000e+00 0.000000000000000e+00
0.000000000000000e+00 0.000000000000000e+00 0.000000000000000e+00
0.000000000000000e+00 0.000000000000000e+00 0.000000000000000e+00
0.000000000000000e+00 0.000000000000000e+00 0.000000000000000e+00
0.000000000000000e+00 0.000000000000000e+00 0.000000000000000e+00
0.000000000000000e+00 0.000000000000000e+00 0.000000000000000e+00
0.000000000000000e+00 0.000000000000000e+00 0.000000000000000e+00
0.000000000000000e+00 0.000000000000000e+00 0.000000000000000e+00
0.000000000000000e+00 0.000000000000000e+00 0.000000000000000e+00
0.000000000000000e+00 0.000000000000000e+00 0.000000000000000e+00
0.000000000000000e+00 0.000000000000000e+00 0.000000000000000e+00
0.000000000000000e+00 0.000000000000000e+00 0.000000000000000e+00
0.000000000000000e+00 0.000000000000000e+00 0.000000000000000e+00
0.000000000000000e+00 0.000000000000000e+00 0.000000000000000e+00
0.000000000000000e+00 0.000000000000000e+00 0.000000000000000e+00
0.000000000000000e+00 0.000000000000000e+00 0.000000000000000e+00
0.000000000000000e+00 0.000000000000000e+00 0.000000000000000e+00
0.000000000000000e+00 0.000000000000000e+00 0.000000000000000e+00
0.000000000000000e+00 0.000000000000000e+00 0.000000000000000e+00
0.000000000000000e+00 0.000000000000000e+00 0.000000000000000e+00
0.000000000000000e+00 0.000000000000000e+00 0.000000000000000e+00
0.000000000000000e+00 0.000000000000000e+00 0.000000000000000e+00
0.000000000000000e+00 0.000000000000000e+00 0.000000000000000e+00
0.000000000000000e+00 0.000000000000000e+00 0.000000000000000e+00
0.000000000000000e+00 0.000000000000000e+00 0.000000000000000e+00
0.000000000000000e+00 0.000000000000000e+00 0.000000000000000e+00
0.000000000000000e+00 0.000000000000000e+00 0.000000000000000e+00
0.000000000000000e+00 0.000000000000000e+00 0.000000000000000e+00
0.000000000000000e+00 0.000000000000000e+00 0.000000000000000e+00
0.000000000000000e+00 0.000000000000000e+00 0.000000000000000e+00
0.000000000000000e+00 0.000000000000000e+00 0.000000000000000e+00
0.000000000000000e+00 0.000000000000000e+00 0.000000000000000e+00
0.000000000000000e+00 0.000000000000000e+00 0.000000000000000e+00
0.000000000000000e+00 0.000000000000000e+00 0.000000000000000e+00
0.000000000000000e+00 0.000000000000000e+00 0.000000000000000e+00
0.000000000000000e+00 0.000000000000000e+00 0.000000000000000e+00
0.000000000000000e+00 0.000000000000000e+00 0.000000000000000e+00
0.000000000000000e+00 0.000000000000000e+00 0.000000000000000e+00
0.000000000000000e+00 0.000000000000000e+00 0.000000000000000e+00
0.000000000000000e+00 0.000000000000000e+00 0.000000000000000e+00
0.000000000000000e+00 0.000000000000000e+00 0.000000000000000e+00
0.000000000000000e+00 0.000000000000000e+00 0.000000000000000e+00
0.000000000000000e+00 0.000000000000000e+00 0.000000000000000e+00
0.000000000000000e+00 0.000000000000000e+00 0.000000000000000e+00
0.000000000000000e+00 0.000000000000000e+00 0.000000000000000e+00
0.000000000000000e+00 0.000000000000000e+00 0.000000000000000e+00
0.000000000000000e+00 0.000000000000000e+00 0.000000000000000e+00
0.000000000000000e+00 0.000000000000000e+00 0.000000000000000e+00
0.000000000000000e+00 0.000000000000000e+00 0.000000000000000e+00
0.000000000000000e+00 0.000000000000000e+00 0.000000000000000e+00
0.000000000000000e+00 0.000000000000000e+00 0.000000000000000e+00
0.000000000000000e+00 0.000000000000000e+00 0.000000000000000e+00
0.000000000000000e+00 0.000000000000000e+00 0.000000000000000e+00
0.000000000000000e+00 0.000000000000000e+00 0.000000000000000e+00
0.000000000000000e+00 0.000000000000000e+00 0.000000000000000e+00
0.000000000000000e+00 0.000000000000000e+00 0.000000000000000e+00
0.000000000000000e+00 0.000000000000000e+00 0.000000000000000e+00
0.000000000000000e+00 0.000000000000000e+00 0.000000000000000e+00
0.000000000000000e+00 0.000000000000000e+00 0.000000000000000e+00
0.000000000000000e+00 0.000000000000000e+00 0.000000000000000e+00
0.000000000000000e+00 0.000000000000000e+00 0.000000000000000e+00
0.000000000000000e+00 0.000000000000000e+00 0.000000000000000e+00
0.000000000000000e+00 0.000000000000000e+00 0.000000000000000e+00
0.000000000000000e+00 0.000000000000000e+00 0.000000000000000e+00
0.000000000000000e+00 0.000000000000000e+00 0.000000000000000e+00
0.000000000000000e+00 0.000000000000000e+00 0.000000000000000e+00
0.000000000000000e+00 0.000000000000000e+00 0.000000000000000e+00
0.000000000000000e+00 0.000000000000000e+00 0.000000000000000e+00
0.000000000000000e+00 0.000000000000000e+00 0.000000000000000e+00
0.000000000000000e+00 0.000000000000000e+00 0.000000000000000e+00
0.000000000000000e+00 0.000000000000000e+00 0.000000000000000e+00
0.000000000000000e+00 0.000000000000000e+00 0.000000000000000e+00
0.000000000000000e+00 0.000000000000000e+00 0.000000000000000e+00
0.000000000000000e+00 0.000000000000000e+00 0.000000000000000e+00
0.000000000000000e+00 0.000000000000000e+00 0.000000000000000e+00
0.000000000000000e+00 0.000000000000000e+00 0.000000000000000e+00
0.000000000000000e+00 0.000000000000000e+00 0.000000000000000e+00
0.000000000000000e+00 0.000000000000000e+00 0.000000000000000e+00
0.000000000000000e+00 0.000000000000000e+00 0.000000000000000e+00
0.000000000000000e+00 0.000000000000000e+00 0.000000000000000e+00
0.000000000000000e+00 0.000000000000000e+00 0.000000000000000e+00
0.000000000000000e+00 0.000000000000000e+00 0.000000000000000e+00
0.000000000000000e+00 0.000000000000000e+00 0.000000000000000e+00
0.000000000000000e+00 0.000000000000000e+00 0.000000000000000e+00
0.000000000000000e+00 0.000000000000000e+00 0.000000000000000e+00
0.000000000000000e+00 0.000000000000000e+00 0.000000000000000e+00
0.000000000000000e+00 0.000000000000000e+00 0.000000000000000e+00
0.000000000000000e+00 0.000000000000000e+00 0.000000000000000e+00
0.000000000000000e+00 0.000000000000000e+00 0.000000000000000e+00
0.000000000000000e+00 0.000000000000000e+00 0.000000000000000e+00
0.000000000000000e+00 0.000000000000000e+00 0.000000000000000e+00
0.000000000000000e+00 0.000000000000000e+00 0.000000000000000e+00
0.000000000000000e+00 0.000000000000000e+00 0.000000000000000e+00
0.000000000000000e+00 0.000000000000000e+00 0.000000000000000e+00
0.000000000000000e+00 0.000000000000000e+00 0.000000000000000e+00
0.000000000000000e+00 0.000000000000000e+00 0.000000000000000e+00
0.000000000000000e+00 0.000000000000000e+00 0.000000000000000e+00
0.000000000000000e+00 0.000000000000000e+00 0.000000000000000e+00
0.000000000000000e+00 0.000000000000000e+00 0.000000000000000e+00
0.000000000000000e+00 0.000000000000000e+00 0.000000000000000e+00
0.000000000000000e+00 0.000000000000000e+00 0.000000000000000e+00
0.000000000000000e+00 0.000000000000000e+00 0.000000000000000e+00
0.000000000000000e+00 0.000000000000000e+00 0.000000000000000e+00
0.000000000000000e+00 0.000000000000000e+00 0.000000000000000e+00
0.000000000000000e+00 0.000000000000000e+00 0.000000000000000e+00
0.000000000000000e+00 0.000000000000000e+00 0.000000000000000e+00
0.000000000000000e+00 0.000000000000000e+00 0.000000000000000e+00
0.000000000000000e+00 0.000000000000000e+00 0.000000000000000e+00
0.000000000000000e+00 0.000000000000000e+00 0.000000000000000e+00
0.000000000000000e+00 0.000000000000000e+00 0.000000000000000e+00
0.000000000000000e+00 0.000000000000000e+00 0.000000000000000e+00
0.000000000000000e+00 0.000000000000000e+00 0.000000000000000e+00
0.000000000000000e+00 0.000000000000000e+00 0.000000000000000e+00
0.000000000000000e+00 0.000000000000000e+00 0.000000000000000e+00
0.000000000000000e+00 0.000000000000000e+00 0.000000000000000e+00
0.000000000000000e+00 0.000000000000000e+00 0.000000000000000e+00
0.000000000000000e+00 0.000000000000000e+00 0.000000000000000e+00
0.000000000000000e+00 0.000000000000000e+00 0.000000000000000e+00
0.000000000000000e+00 0.000000000000000e+00 0.000000000000000e+00
0.000000000000000e+00 0.000000000000000e+00 0.000000000000000e+00
0.000000000000000e+00 0.000000000000000e+00 0.000000000000000e+00
0.000000000000000e+00 0.000000000000000e+00 0.000000000000000e+00
0.000000000000000e+00 0.000000000000000e+00 0.000000000000000e+00
0.000000000000000e+00 0.000000000000000e+00 0.000000000000000e+00
0.000000000000000e+00 0.000000000000000e+00 0.000000000000000e+00
0.000000000000000e+00 0.000000000000000e+00 0.000000000000000e+00
0.000000000000000e+00 0.000000000000000e+00 0.000000000000000e+00
0.000000000000000e+00 0.000000000000000e+00 0.000000000000000e+00
0.000000000000000e+00 0.000000000000000e+00 0.000000000000000e+00
0.000000000000000e+00 0.000000000000000e+00 0.000000000000000e+00
0.000000000000000e+00 0.000000000000000e+00 0.000000000000000e+00
0.000000000000000e+00 0.000000000000000e+00 0.000000000000000e+00
0.000000000000000e+00 0.000000000000000e+00 0.000000000000000e+00
0.000000000000000e+00 0.000000000000000e+00 0.000000000000000e+00
0.000000000000000e+00 0.000000000000000e+00 0.000000000000000e+00
0.000000000000000e+00 0.000000000000000e+00 0.000000000000000e+00
0.000000000000000e+00 0.000000000000000e+00 0.000000000000000e+00
0.000000000000000e+00 0.000000000000000e+00 0.000000000000000e+00
0.000000000000000e+00 0.000000000000000e+00 0.000000000000000e+00
0.000000000000000e+00 0.000000000000000e+00 0.000000000000000e+00
0.000000000000000e+00 0.000000000000000e+00 0.000000000000000e+00
0.000000000000000e+00 0.000000000000000e+00 0.000000000000000e+00
0.000000000000000e+00 0.000000000000000e+00 0.000000000000000e+00
0.000000000000000e+00 0.000000000000000e+00 0.000000000000000e+00
0.000000000000000e+00 0.000000000000000e+00 0.000000000000000e+00
0.000000000000000e+00 0.000000000000000e+00 0.000000000000000e+00
0.000000000000000e+00 0.000000000000000e+00 0.000000000000000e+00
0.000000000000000e+00 0.000000000000000e+00 0.000000000000000e+00
0.000000000000000e+00 0.000000000000000e+00 0.000000000000000e+00
0.000000000000000e+00 0.000000000000000e+00 0.000000000000000e+00
0.000000000000000e+00 0.000000000000000e+00 0.000000000000000e+00
0.000000000000000e+00 0.000000000000000e+00 0.000000000000000e+00
0.000000000000000e+00 0.000000000000000e+00 0.000000000000000e+00
0.000000000000000e+00 0.000000000000000e+00 0.000000000000000e+00
0.000000000000000e+00 0.000000000000000e+00 0.000000000000000e+00
0.000000000000000e+00 0.000000000000000e+00 0.000000000000000e+00
0.000000000000000e+00 0.000000000000000e+00 0.000000000000000e+00
0.000000000000000e+00 0.000000000000000e+00 0.000000000000000e+00
0.000000000000000e+00 0.000000000000000e+00 0.000000000000000e+00
0.000000000000000e+00 0.000000000000000e+00 0.000000000000000e+00
0.000000000000000e+00 0.000000000000000e+00 0.000000000000000e+00
0.000000000000000e+00 0.000000000000000e+00 0.000000000000000e+00
0.000000000000000e+00 0.000000000000000e+00 0.000000000000000e+00
0.000000000000000e+00 0.000000000000000e+00 0.000000000000000e+00
0.000000000000000e+00 0.000000000000000e+00 0.000000000000000e+00
0.000000000000000e+00 0.000000000000000e+00 0.000000000000000e+00
0.000000000000000e+00 0.000000000000000e+00 0.000000000000000e+00
0.000000000000000e+00 0.000000000000000e+00 0.000000000000000e+00
0.000000000000000e+00 0.000000000000000e+00 0.000000000000000e+00
0.000000000000000e+00 0.000000000000000e+00 0.000000000000000e+00
0.000000000000000e+00 0.000000000000000e+00 0.000000000000000e+00
0.000000000000000e+00 0.000000000000000e+00 0.000000000000000e+00
0.000000000000000e+00 0.000000000000000e+00 0.000000000000000e+00
0.000000000000000e+00 0.000000000000000e+00 0.000000000000000e+00
0.000000000000000e+00 0.000000000000000e+00 0.000000000000000e+00
0.000000000000000e+00 0.000000000000000e+00 0.000000000000000e+00
0.000000000000000e+00 0.000000000000000e+00 0.000000000000000e+00
0.000000000000000e+00 0.000000000000000e+00 0.000000000000000e+00
0.000000000000000e+00 0.000000000000000e+00 0.000000000000000e+00
0.000000000000000e+00 0.000000000000000e+00 0.000000000000000e+00
0.000000000000000e+00 0.000000000000000e+00 0.000000000000000e+00
0.000000000000000e+00 0.000000000000000e+00 0.000000000000000e+00
0.000000000000000e+00 0.000000000000000e+00 0.000000000000000e+00
0.000000000000000e+00 0.000000000000000e+00 0.000000000000000e+00
0.000000000000000e+00 0.000000000000000e+00 0.000000000000000e+00
0.000000000000000e+00 0.000000000000000e+00 0.000000000000000e+00
0.000000000000000e+00 0.000000000000000e+00 0.000000000000000e+00
0.000000000000000e+00 0.000000000000000e+00 0.000000000000000e+00
0.000000000000000e+00 0.000000000000000e+00 0.000000000000000e+00
0.000000000000000e+00 0.000000000000000e+00 0.000000000000000e+00
0.000000000000000e+00 0.000000000000000e+00 0.000000000000000e+00
0.000000000000000e+00 0.000000000000000e+00 0.000000000000000e+00
0.000000000000000e+00 0.000000000000000e+00 0.000000000000000e+00
0.000000000000000e+00 0.000000000000000e+00 0.000000000000000e+00
0.000000000000000e+00 0.000000000000000e+00 0.000000000000000e+00
0.000000000000000e+00 0.000000000000000e+00 0.000000000000000e+00
0.000000000000000e+00 0.000000000000000e+00 0.000000000000000e+00
0.000000000000000e+00 0.000000000000000e+00 0.000000000000000e+00
0.000000000000000e+00 0.000000000000000e+00 0.000000000000000e+00
0.000000000000000e+00 0.000000000000000e+00 0.000000000000000e+00
0.000000000000000e+00 0.000000000000000e+00 0.000000000000000e+00
0.000000000000000e+00 0.000000000000000e+00 0.000000000000000e+00
0.000000000000000e+00 0.000000000000000e+00 0.000000000000000e+00
0.000000000000000e+00 0.000000000000000e+00 0.000000000000000e+00
0.000000000000000e+00 0.000000000000000e+00 0.000000000000000e+00
0.000000000000000e+00 0.000000000000000e+00 0.000000000000000e+00
0.000000000000000e+00 0.000000000000000e+00 0.000000000000000e+00
0.000000000000000e+00 0.000000000000000e+00 0.000000000000000e+00
0.000000000000000e+00 0.000000000000000e+00 0.000000000000000e+00
0.000000000000000e+00 0.000000000000000e+00 0.000000000000000e+00
0.000000000000000e+00 0.000000000000000e+00 0.000000000000000e+00
0.000000000000000e+00 0.000000000000000e+00 0.000000000000000e+00
0.000000000000000e+00 0.000000000000000e+00 0.000000000000000e+00
0.000000000000000e+00 0.000000000000000e+00 0.000000000000000e+00
0.000000000000000e+00 0.000000000000000e+00 0.000000000000000e+00
0.000000000000000e+00 0.000000000000000e+00 0.000000000000000e+00
0.000000000000000e+00 0.000000000000000e+00 0.000000000000000e+00
0.000000000000000e+00 0.000000000000000e+00 0.000000000000000e+00
0.000000000000000e+00 0.000000000000000e+00 0.000000000000000e+00
0.000000000000000e+00 0.000000000000000e+00 0.000000000000000e+00
0.000000000000000e+00 0.000000000000000e+00 0.000000000000000e+00
0.000000000000000e+00 0.000000000000000e+00 0.000000000000000e+00
0.000000000000000e+00 0.000000000000000e+00 0.000000000000000e+00
0.000000000000000e+00 0.000000000000000e+00 0.000000000000000e+00
0.000000000000000e+00 0.000000000000000e+00 0.000000000000000e+00
0.000000000000000e+00 0.000000000000000e+00 0.000000000000000e+00
0.000000000000000e+00 0.000000000000000e+00 0.000000000000000e+00
0.000000000000000e+00 0.000000000000000e+00 0.000000000000000e+00
0.000000000000000e+00 0.000000000000000e+00 0.000000000000000e+00
0.000000000000000e+00 0.000000000000000e+00 0.000000000000000e+00
0.000000000000000e+00 0.000000000000000e+00 0.000000000000000e+00
0.000000000000000e+00 0.000000000000000e+00 0.000000000000000e+00
0.000000000000000e+00 0.000000000000000e+00 0.000000000000000e+00
0.000000000000000e+00 0.000000000000000e+00 0.000000000000000e+00
0.000000000000000e+00 0.000000000000000e+00 0.000000000000000e+00
0.000000000000000e+00 0.000000000000000e+00 0.000000000000000e+00
0.000000000000000e+00 0.000000000000000e+00 0.000000000000000e+00
0.000000000000000e+00 0.000000000000000e+00 0.000000000000000e+00
0.000000000000000e+00 0.000000000000000e+00 0.000000000000000e+00
0.000000000000000e+00 0.000000000000000e+00 0.000000000000000e+00
0.000000000000000e+00 0.000000000000000e+00 0.000000000000000e+00
0.000000000000000e+00 0.000000000000000e+00 0.000000000000000e+00
0.000000000000000e+00 0.000000000000000e+00 0.000000000000000e+00
0.000000000000000e+00 0.000000000000000e+00 0.000000000000000e+00
0.000000000000000e+00 0.000000000000000e+00 0.000000000000000e+00
0.000000000000000e+00 0.000000000000000e+00 0.000000000000000e+00
0.000000000000000e+00 0.000000000000000e+00 0.000000000000000e+00
0.000000000000000e+00 0.000000000000000e+00 0.000000000000000e+00
0.000000000000000e+00 0.000000000000000e+00 0.000000000000000e+00
0.000000000000000e+00 0.000000000000000e+00 0.000000000000000e+00
0.000000000000000e+00 0.000000000000000e+00 0.000000000000000e+00
0.000000000000000e+00 0.000000000000000e+00 0.000000000000000e+00
0.000000000000000e+00 0.000000000000000e+00 0.000000000000000e+00
0.000000000000000e+00 0.000000000000000e+00 0.000000000000000e+00
0.000000000000000e+00 0.000000000000000e+00 0.000000000000000e+00
0.000000000000000e+00 0.000000000000000e+00 0.000000000000000e+00
0.000000000000000e+00 0.000000000000000e+00 0.000000000000000e+00
0.000000000000000e+00 0.000000000000000e+00 0.000000000000000e+00
0.000000000000000e+00 0.000000000000000e+00 0.000000000000000e+00
0.000000000000000e+00 0.000000000000000e+00 0.000000000000000e+00
0.000000000000000e+00 0.000000000000000e+00 0.000000000000000e+00
0.000000000000000e+00 0.000000000000000e+00 0.000000000000000e+00
0.000000000000000e+00 0.000000000000000e+00 0.000000000000000e+00
0.000000000000000e+00 0.000000000000000e+00 0.000000000000000e+00
0.000000000000000e+00 0.000000000000000e+00 0.000000000000000e+00
0.000000000000000e+00 0.000000000000000e+00 0.000000000000000e+00
0.000000000000000e+00 0.000000000000000e+00 0.000000000000000e+00
0.000000000000000e+00 0.000000000000000e+00 0.000000000000000e+00
0.000000000000000e+00 0.000000000000000e+00 0.000000000000000e+00
0.000000000000000e+00 0.000000000000000e+00 0.000000000000000e+00
0.000000000000000e+00 0.000000000000000e+00 0.000000000000000e+00
0.000000000000000e+00 0.000000000000000e+00 0.000000000000000e+00
0.000000000000000e+00 0.000000000000000e+00 0.000000000000000e+00
0.000000000000000e+00 0.000000000000000e+00 0.000000000000000e+00
0.000000000000000e+00 0.000000000000000e+00 0.000000000000000e+00
0.000000000000000e+00 0.000000000000000e+00 0.000000000000000e+00
0.000000000000000e+00 0.000000000000000e+00 0.000000000000000e+00
0.000000000000000e+00 0.000000000000000e+00 0.000000000000000e+00
0.000000000000000e+00 0.000000000000000e+00 0.000000000000000e+00
0.000000000000000e+00 0.000000000000000e+00 0.000000000000000e+00
0.000000000000000e+00 0.000000000000000e+00 0.000000000000000e+00
0.000000000000000e+00 0.000000000000000e+00 0.000000000000000e+00
0.000000000000000e+00 0.000000000000000e+00 0.000000000000000e+00
0.000000000000000e+00 0.000000000000000e+00 0.000000000000000e+00
0.000000000000000e+00 0.000000000000000e+00 0.000000000000000e+00
0.000000000000000e+00 0.000000000000000e+00 0.000000000000000e+00
0.000000000000000e+00 0.000000000000000e+00 0.000000000000000e+00
0.000000000000000e+00 0.000000000000000e+00 0.000000000000000e+00
0.000000000000000e+00 0.000000000000000e+00 0.000000000000000e+00
0.000000000000000e+00 0.000000000000000e+00 0.000000000000000e+00
0.000000000000000e+00 0.000000000000000e+00 0.000000000000000e+00
0.000000000000000e+00 0.000000000000000e+00 0.000000000000000e+00
0.000000000000000e+00 0.000000000000000e+00 0.000000000000000e+00
0.000000000000000e+00 0.000000000000000e+00 0.000000000000000e+00
0.000000000000000e+00 0.000000000000000e+00 0.000000000000000e+00
0.000000000000000e+00 0.000000000000000e+00 0.000000000000000e+00
0.000000000000000e+00 0.000000000000000e+00 0.000000000000000e+00
0.000000000000000e+00 0.000000000000000e+00 0.000000000000000e+00
0.000000000000000e+00 0.000000000000000e+00 0.000000000000000e+00
0.000000000000000e+00 0.000000000000000e+00 0.000000000000000e+00
0.000000000000000e+00 0.000000000000000e+00 0.000000000000000e+00
0.000000000000000e+00 0.000000000000000e+00 0.000000000000000e+00
0.000000000000000e+00 0.000000000000000e+00 0.000000000000000e+00
0.000000000000000e+00 0.000000000000000e+00 0.000000000000000e+00
0.000000000000000e+00 0.000000000000000e+00 0.000000000000000e+00
0.000000000000000e+00 0.000000000000000e+00 0.000000000000000e+00
0.000000000000000e+00 0.000000000000000e+00 0.000000000000000e+00
0.000000000000000e+00 0.000000000000000e+00 0.000000000000000e+00
0.000000000000000e+00 0.000000000000000e+00 0.000000000000000e+00
0.000000000000000e+00 0.000000000000000e+00 0.000000000000000e+00
0.000000000000000e+00 0.000000000000000e+00 0.000000000000000e+00
0.000000000000000e+00 0.000000000000000e+00 0.000000000000000e+00
0.000000000000000e+00 0.000000000000000e+00 0.000000000000000e+00
0.000000000000000e+00 0.000000000000000e+00 0.000000000000000e+00
0.000000000000000e+00 0.000000000000000e+00 0.000000000000000e+00
0.000000000000000e+00 0.000000000000000e+00 0.000000000000000e+00
0.000000000000000e+00 0.000000000000000e+00 0.000000000000000e+00
0.000000000000000e+00 0.000000000000000e+00 0.000000000000000e+00
0.000000000000000e+00 0.000000000000000e+00 0.000000000000000e+00
0.000000000000000e+00 0.000000000000000e+00 0.000000000000000e+00
0.000000000000000e+00 0.000000000000000e+00 0.000000000000000e+00
0.000000000000000e+00 0.000000000000000e+00 0.000000000000000e+00
0.000000000000000e+00 0.000000000000000e+00 0.000000000000000e+00
0.000000000000000e+00 0.000000000000000e+00 0.000000000000000e+00
0.000000000000000e+00 0.000000000000000e+00 0.000000000000000e+00
0.000000000000000e+00 0.000000000000000e+00 0.000000000000000e+00
0.000000000000000e+00 0.000000000000000e+00 0.000000000000000e+00
0.000000000000000e+00 0.000000000000000e+00 0.000000000000000e+00
0.000000000000000e+00 0.000000000000000e+00 0.000000000000000e+00
0.000000000000000e+00 0.000000000000000e+00 0.000000000000000e+00
0.000000000000000e+00 0.000000000000000e+00 0.000000000000000e+00
0.000000000000000e+00 0.000000000000000e+00 0.000000000000000e+00
0.000000000000000e+00 0.000000000000000e+00 0.000000000000000e+00
0.000000000000000e+00 0.000000000000000e+00 0.000000000000000e+00
0.000000000000000e+00 0.000000000000000e+00 0.000000000000000e+00
0.000000000000000e+00 0.000000000000000e+00 0.000000000000000e+00
0.000000000000000e+00 0.000000000000000e+00 0.000000000000000e+00
0.000000000000000e+00 0.000000000000000e+00 0.000000000000000e+00
0.000000000000000e+00 0.000000000000000e+00 0.000000000000000e+00
0.000000000000000e+00 0.000000000000000e+00 0.000000000000000e+00
0.000000000000000e+00 0.000000000000000e+00 0.000000000000000e+00
0.000000000000000e+00 0.000000000000000e+00 0.000000000000000e+00
0.000000000000000e+00 0.000000000000000e+00 0.000000000000000e+00
0.000000000000000e+00 0.000000000000000e+00 0.000000000000000e+00
0.000000000000000e+00 0.000000000000000e+00 0.000000000000000e+00
0.000000000000000e+00 0.000000000000000e+00 0.000000000000000e+00
0.000000000000000e+00 0.000000000000000e+00 0.000000000000000e+00
0.000000000000000e+00 0.000000000000000e+00 0.000000000000000e+00
0.000000000000000e+00 0.000000000000000e+00 0.000000000000000e+00
0.000000000000000e+00 0.000000000000000e+00 0.000000000000000e+00
0.000000000000000e+00 0.000000000000000e+00 0.000000000000000e+00
0.000000000000000e+00 0.000000000000000e+00 0.000000000000000e+00
0.000000000000000e+00 0.000000000000000e+00 0.000000000000000e+00
0.000000000000000e+00 0.000000000000000e+00 0.000000000000000e+00
0.000000000000000e+00 0.000000000000000e+00 0.000000000000000e+00
0.000000000000000e+00 0.000000000000000e+00 0.000000000000000e+00
0.000000000000000e+00 0.000000000000000e+00 0.000000000000000e+00
0.000000000000000e+00 0.000000000000000e+00 0.000000000000000e+00
0.000000000000000e+00 0.000000000000000e+00 0.000000000000000e+00
0.000000000000000e+00 0.000000000000000e+00 0.000000000000000e+00
0.000000000000000e+00 0.000000000000000e+00 0.000000000000000e+00
0.000000000000000e+00 0.000000000000000e+00 0.000000000000000e+00
0.000000000000000e+00 0.000000000000000e+00 0.000000000000000e+00
0.000000000000000e+00 0.000000000000000e+00 0.000000000000000e+00
0.000000000000000e+00 0.000000000000000e+00 0.000000000000000e+00
0.000000000000000e+00 0.000000000000000e+00 0.000000000000000e+00
0.000000000000000e+00 0.000000000000000e+00 0.000000000000000e+00
0.000000000000000e+00 0.000000000000000e+00 0.000000000000000e+00
0.000000000000000e+00 0.000000000000000e+00 0.000000000000000e+00
0.000000000000000e+00 0.000000000000000e+00 0.000000000000000e+00
0.000000000000000e+00 0.000000000000000e+00 0.000000000000000e+00
0.000000000000000e+00 0.000000000000000e+00 0.000000000000000e+00
0.000000000000000e+00 0.000000000000000e+00 0.000000000000000e+00
0.000000000000000e+00 0.000000000000000e+00 0.000000000000000e+00
0.000000000000000e+00 0.000000000000000e+00 0.000000000000000e+00
0.000000000000000e+00 0.000000000000000e+00 0.000000000000000e+00
0.000000000000000e+00 0.000000000000000e+00 0.000000000000000e+00
0.000000000000000e+00 0.000000000000000e+00 0.000000000000000e+00
0.000000000000000e+00 0.000000000000000e+00 0.000000000000000e+00
0.000000000000000e+00 0.000000000000000e+00 0.000000000000000e+00
0.000000000000000e+00 0.000000000000000e+00 0.000000000000000e+00
0.000000000000000e+00 0.000000000000000e+00 0.000000000000000e+00
0.000000000000000e+00 0.000000000000000e+00 0.000000000000000e+00
0.000000000000000e+00 0.000000000000000e+00 0.000000000000000e+00
0.000000000000000e+00 0.000000000000000e+00 0.000000000000000e+00
0.000000000000000e+00 0.000000000000000e+00 0.000000000000000e+00
0.000000000000000e+00 0.000000000000000e+00 0.000000000000000e+00
0.000000000000000e+00 0.000000000000000e+00 0.000000000000000e+00
0.000000000000000e+00 0.000000000000000e+00 0.000000000000000e+00
0.000000000000000e+00 0.000000000000000e+00 0.000000000000000e+00
0.000000000000000e+00 0.000000000000000e+00 0.000000000000000e+00
0.000000000000000e+00 0.000000000000000e+00 0.000000000000000e+00
0.000000000000000e+00 0.000000000000000e+00 0.000000000000000e+00
0.000000000000000e+00 0.000000000000000e+00 0.000000000000000e+00
0.000000000000000e+00 0.000000000000000e+00 0.000000000000000e+00
0.000000000000000e+00 0.000000000000000e+00 0.000000000000000e+00
0.000000000000000e+00 0.000000000000000e+00 0.000000000000000e+00
0.000000000000000e+00 0.000000000000000e+00 0.000000000000000e+00
0.000000000000000e+00 0.000000000000000e+00 0.000000000000000e+00
 1.968740144389270e+01 -3.862442348075742e-01 -3.463922734579532e-16
-1.427209911666042e+00  5.017015715942924e-02  2.488342267278114e-17
-2.615844970931349e+01 -1.185315900263327e+01  5.873077183424272e-16
-1.832491913981334e+01  2.286003123464043e+00  3.026259431921467e-16
 2.412337385395658e+01 -3.409653487135898e+00 -3.942712621925445e-16
 2.297767978172949e+01  4.184956494195584e+00 -4.519141281538852e-16
-2.072052178317437e+01 -1.272217556938064e+00  3.818179746820561e-16
-9.409399884760303e+00  3.109801151249336e-01  1.642562871754620e-16
 1.031284489296739e+01 -3.395412080445891e-01 -1.800407139161249e-16
 2.507012712551956e+01  3.672889883393365e+00 -4.838904262241325e-16
-3.438120656271979e+00  2.324278203124668e-02  6.094664708545967e-17
-6.336264033283756e-01 -1.019277673883569e-02  1.138086474319208e-17
 3.343763094817003e+00 -5.089750755188490e-02 -5.898329946003292e-17
 8.088303752167274e+00  1.468470448751551e-01 -1.454498133856985e-16
 6.600708450387475e+00  1.060771487995584e+00 -1.283665221758614e-16
-1.099898192449016e+01  4.147782174450291e-01  1.914783078993673e-16
 3.153331506505684e+01  2.843783073649277e+00 -5.903917938995159e-16
-1.147742349365737e+01  2.627917137602747e+01 -6.575449757733716e-17
-6.921585929119348e+00  2.905133474056266e+00  9.332868688135561e-17
 3.114072207216639e+01  8.493957203910137e+00 -6.414586199247154e-16
-8.939081776146029e+00 -1.574062899958029e-01  1.606989155934306e-16
-2.893157680290069e+01 -3.041629629944171e+00  5.461235595451847e-16
 2.038370972038393e+01 -1.458698341745073e+01 -2.128764734303207e-16
 2.618480657000504e+01  8.694354892517588e+00 -5.553212053872881e-16
-2.844863750298106e+01 -7.728450476881294e+00  5.856844602485495e-16
-2.135957715409381e+01  2.151442418721085e-01  3.779086251532058e-16
-7.969676019099450e+00  3.149649044399313e-01  1.385937413554774e-16
 3.087429453342087e+01 -3.875572865434667e+00 -5.096247961104433e-16
-6.691977348571156e+00 -7.666648466889722e-01  1.269689221728994e-16
 7.450369585793031e+00 -8.041958925172802e-01 -1.243253932546361e-16
 1.510703872645698e+01  2.080708495499442e+01 -4.826330142556692e-16
-2.576715561412825e+01  1.820155238811430e+00  4.398558364604570e-16
-4.720467014387569e+00  2.508252193324997e-01  8.142920331765605e-17
 6.985811015676481e+00 -2.932913885913718e-01 -1.213073775273305e-16
 5.594041428203099e+00  1.485039692217347e-01 -1.010784643609839e-16
-1.078565879819162e+01  6.977118450227943e-03  1.918719765433822e-16
 4.149177281822375e+00 -5.558041739078033e-01 -6.812887301468611e-17
 1.389690805748504e+01  1.245770271693867e-01 -2.485920394075737e-16
-1.437495356516365e+01 -1.659464066601427e+00  2.728698361462496e-16
 2.377874120915322e+00 -2.315949079613217e-01 -3.993755285655524e-17
-2.436224728327901e+01 -7.704198162882610e+00  5.127130881365783e-16
-2.184315157153549e+01  4.200158966760315e+00  3.455698300671828e-16
 2.229111745689614e+01 -3.901457800390815e+00 -3.566109633349724e-16
 2.937920020521699e+01  1.052540422292342e+01 -6.309826172407443e-16
-3.149747587787181e+01 -4.339803102457331e+00  6.051250551327108e-16
-2.472352214834823e+01  1.058990537815155e+00  4.291038248386541e-16
 1.948506486518297e+01 -7.501242428070104e+00 -2.696874309366263e-16
 2.265846223289658e+01  1.517224236823416e+01 -5.591236420990823e-16
-2.474687987865908e+01  1.228722879082595e+00  4.277755653647548e-16
-9.321417843939942e+00 -1.031073664375801e-01  1.669451402579950e-16
 2.880187634232793e+00 -1.558101446400232e-01 -4.965548193194279e-17
 6.329726243039134e+00  3.186102806549179e-01 -1.159186337549080e-16
 2.413666413462369e+00 -1.143626210634389e-01 -4.177903848969409e-17
 1.081773250253691e+00  5.713879861166879e-02 -1.983852577398835e-17
 1.058530883128923e+00 -1.622909503628880e-02 -1.867107167608900e-17
-9.003160655760187e+00 -1.096924183405815e+00  1.714924807428826e-16
-3.254785691873842e+00  7.054471435148157e-02  5.719797252659639e-17
-1.925728594607493e-01 -1.059340453832424e-02  3.535907150861466e-18
 1.163698474688782e+01 -5.569206181831335e-01 -2.013718676188770e-16
 3.768261672619518e+00  2.136928673898792e-01 -6.925632798427339e-17
-7.325428733990264e+00  1.720094075861965e-01  1.285974081758501e-16
-5.007405279659007e+00 -1.885337744029520e-01  9.104986604381611e-17
 1.228821887964539e+01 -1.185471924951993e+00 -2.065032195005671e-16
 4.449586628394773e+00  3.076271303811204e-01 -8.234645872393358e-17
-9.577861523505240e+00  3.521273228390367e-01  1.668314902892580e-16
-1.137815378648059e+01 -7.215933386242281e-01  2.099019283925305e-16
 1.693747039862881e+01 -2.429192589930491e+00 -2.764634180872792e-16
 6.757534653808065e+00  2.555232809291013e+01 -3.827992784848603e-16
-2.133986955004132e+01  3.210799153807604e+00  3.467786388413500e-16
 8.797445213545073e+00  3.495982535986195e-01 -1.601530266059833e-16
-1.250835929264387e+01 -7.392703967374997e-01  2.301969088912619e-16
-2.433814094410326e+01  2.351835563618354e+00  4.089619936240688e-16
 1.960289287419936e+01 -2.892443319209496e+00 -3.191380575339553e-16
 8.279255971677809e+00  2.589152428966299e+00 -1.739418365360865e-16
-1.606856371793982e+01 -2.207751804557634e-01  2.882276434149139e-16
-3.738346119734107e+00  5.062619458609742e-02  6.600816270347935e-17
-5.176754391981595e+00  2.102057159672094e-01  8.996673209886597e-17
 7.656274746139718e-01  1.285669784042457e-02 -1.375735205326018e-17
 5.703736645224439e+00 -1.176449548332656e-01 -1.002960381035327e-16
 2.274382876757280e+01  4.886605335035216e+00 -4.549616573741576e-16
-1.729350653198622e+01  2.268076701072999e-01  3.054282107366855e-16
-4.747445728230338e+00  1.013550941219211e-01  8.344507291282127e-17
 5.706094254143213e+00 -3.002400870449930e-01 -9.846189591672919e-17
-4.621379635431407e+00 -2.477465557368546e-01  8.478846909900491e-17
-3.289163277887673e+00  1.786827297049943e-01  5.669868386212666e-17
-7.810528876745496e+00 -3.873072093136307e-01  1.429771189743510e-16
 3.029924405730829e+00 -2.693995436099440e-01 -5.115313660000529e-17
 4.673200736965281e+00  5.255610043877753e-01 -8.856512989232501e-17
-2.573790414115031e+00  1.359728750727489e-01  4.440659865384777e-17
-8.655383094426488e-01 -7.779690424076775e-02  1.620262157691832e-17
-3.119681154480103e-01  3.145187836469547e-02  5.228688100380400e-18
-2.432666336482233e+00 -6.533193085189223e-02  4.396346103476512e-17
-1.998731486805229e+01  1.384024111115657e+01  2.134946651764495e-16
 6.129083648031168e+00  1.486679635273297e-01 -1.106018638865878e-16
 8.619472324801312e-01 -1.431199320323837e-02 -1.519232864607743e-17
 9.577893405088950e+00  2.592934069967945e-01 -1.731141835683410e-16
-1.281709858063934e+00  7.111317391368228e-03  2.273648960106621e-17
 3.003236884088052e+00 -2.693476171896003e-02 -5.316943785217058e-17
-6.711429889419299e-02  8.530519188301361e-02  3.178991489987419e-19
 3.027182018182570e+01  1.240895781218686e+00 -5.514729030384965e-16
-1.887712395039476e+01  2.111285857134047e+01  1.190139860200625e-16
-9.944148032717411e+00  1.737082288129526e+00  1.591200865726879e-16
 9.948863873173476e+00 -1.929442088907965e-01 -1.750694684023007e-16
 9.565032327333903e+00 -2.321506669914877e-01 -1.678358960784953e-16
 3.277440090806774e+00  6.209967343790792e-02 -5.896400746904074e-17
-2.143831185501097e+00  2.722691557781854e-01  3.535456651732379e-17
 5.868135360974817e+00  1.059544693110180e-01 -1.055191121959249e-16
-1.478065583034679e+00  5.047809810492965e-02  2.578529601161138e-17
 1.413357219318157e+00 -1.533299185095015e-02 -2.499483670835550e-17
 4.144451419479697e+00 -1.659967101710314e-02 -7.358490109296074e-17
 1.539826919141517e+01  9.539521659793930e-01 -2.838320799490604e-16
-5.208449419742183e+00  1.525263611679888e-02  9.253385498986859e-17
-3.304084298728156e+00  1.047923302264580e-02  5.869245106293406e-17
 2.440341229934961e+01 -1.078897894168928e+00 -4.232025473810235e-16
-4.531960539576334e+00 -1.502403633603676e-01  8.219530887451753e-17
-1.488774203076680e+00  1.418328799404139e-02  2.634878468561374e-17
-5.231365989959322e+00 -2.787192518174201e-01  9.596213701256926e-17
 2.610630680323286e+00 -1.412648410360524e-01 -4.500784212010038e-17
 8.296195169213606e+00  8.830703737364705e-01 -1.567139162921482e-16
-5.089548791899785e+00  1.082566406552525e-01  8.946229417754800e-17
-3.417590110108133e+00 -1.094598579166746e-01  6.194475290771294e-17
 2.148371327876570e+00 -5.893129613099738e-02 -3.762733278999939e-17
 8.954608659548368e+00  8.554993390886937e-01 -1.681478875203633e-16
-3.465194095364122e+00  4.284650696486077e-02  6.122703006012511e-17
 8.907729237145214e-02  3.840518231324510e-03 -1.624696602716885e-18
 2.976200797206084e-02 -2.460960549594695e-03 -5.043649605746893e-19
-4.606254033904940e-01 -1.123225704692817e-02  8.312785874161745e-18
 2.952441161437350e+00 -3.427882636403157e-02 -5.219000976779452e-17
 6.006191996634006e-01  3.446887309636951e-02 -1.104289025235410e-17
 5.187963571034572e-01 -3.241506745624299e-03 -9.199294715926564e-18
-6.569142685384748e-01 -3.449875654734129e-02  1.204503519549254e-17
 6.692324057066044e-02  2.174940474367297e-02 -1.414446124109987e-18
 2.787350966456242e+00  3.784414088525588e-01 -5.349258338844947e-17
-1.592863115447351e+00 -1.430441930774722e-01  2.981662630870274e-17
 7.648297050997415e+00  8.893564751520235e-01 -1.452483839471542e-16
-3.037579484533543e+01 -1.167908444356918e+01  6.605718528924212e-16
 3.499674702256117e+00 -9.527184435613028e-01 -5.249204997607263e-17
 2.067492112734778e+00  1.781624612356818e-01 -3.862404290641736e-17
-5.630556616747786e+00  4.568604471430365e-01  9.550839622712794e-17
-4.509446444385496e-01  4.043068113251937e-02  7.609687292705742e-18
 3.461767491257163e+00 -3.239626568125575e-01 -5.827768322875253e-17
 3.427420009560963e+00  1.951653048466234e-01 -6.300028002600342e-17
-2.389093889346106e+00  1.488107838851304e-01  4.098779883019922e-17
 3.204923428207639e+01  5.651239497535419e+00 -6.284187867358436e-16
 2.771483242626232e+00 -4.179796445376015e-02 -4.889239135049431e-17
 2.192346561800846e+00  8.618415767234427e-02 -3.990093311968684e-17
-2.789243119266958e+00  2.193769746022864e-01  4.738388978542681e-17
 4.893590277299518e+00  7.759587359529564e-02 -8.788454568304649e-17
 1.077303798731318e+01  6.764612285041854e-02 -1.924141008836916e-16
-1.062189951977124e+01 -8.612831874150498e-01  1.978787440883060e-16
-2.783822627458367e+01  1.057673492356485e+01  3.867423340121826e-16
 1.397620038749602e+01 -7.999468621944587e-02 -2.479012409694388e-16
 2.535846293954981e+01  2.824993882407879e+00 -4.803098825471975e-16
-9.601462982622499e+00 -6.022400763106019e-01  1.770572848269991e-16
-1.100202287005982e+01  1.468596819920227e-01  1.942851907930414e-16
-4.262729777862423e+00  1.113745441940242e-01  7.471602818472601e-17
-1.760748251392524e+00  5.349335968510022e-02  3.078499059304609e-17
-3.801233187947173e+00  1.238585839189398e-01  6.637487689662197e-17
 2.436507683250067e+01 -3.615394220768464e+00 -3.964587437190699e-16
-2.714099511571258e+00 -8.883130996318087e-01  5.742773269652715e-17
-1.294867439605976e+01  1.283174091245211e+00  2.172529589633627e-16
 6.070396852962154e-01 -1.481112107675885e-03 -1.078777741453561e-17
 4.503265247839550e+00 -4.918833187913584e-01 -7.508705437565855e-17
 9.033302694815541e+00  5.543535941306316e-01 -1.664541785666044e-16
-2.464513245009648e+00 -4.312021802086454e-02  4.430199754805376e-17
-2.028219844010423e+00 -6.457771150448400e-03  3.616094272482582e-17
-3.420820297151142e+00  1.046135158190301e-02  6.077009110356134e-17
-3.014209707431630e+00  9.578734961581412e-02  5.265727700362967e-17
 3.393645915672426e+00 -5.237091177152774e-02 -5.985588507803801e-17
 1.248290248402030e+01 -4.978113021415358e-01 -2.170333095577628e-16
 4.086294757081945e+00  1.918857590150356e+00 -9.243605471553520e-17
 4.093741652121500e+00 -3.303698532084950e-01 -6.945858566529916e-17
-2.029749505831141e+01 -5.370622244475468e+00  4.163993288611045e-16
-1.548237842947479e+01  5.602268971867393e+00  2.179661136626828e-16
 2.228373318222762e+01 -1.127829127917019e+00 -3.849775783968879e-16
 1.766794600084063e+01  7.981288740093997e-01 -3.226226584160902e-16
 1.790579817550019e+01  1.583971180585861e+00 -3.349297658110059e-16
-2.238739286708666e+01 -7.968575649721705e+00  4.802845807665214e-16
 9.527970991000847e+00 -8.746208937949524e+00 -7.969748958645276e-17
 2.996870084541581e+01  3.652360980617214e+00 -5.708554617832430e-16
-1.859839011794961e+01 -1.346683965909602e+01  4.693474224900723e-16
-1.612921800183381e+01  1.685158787208784e+01  1.138947302922253e-16
 2.749183965073873e+01 -1.133310290821749e+00 -4.776057284996818e-16
 2.290893679407660e+01  3.345504169944592e+00 -4.420656970402269e-16
-2.429886663880367e+01 -3.712375370093681e+00  4.705706249031036e-16
-7.726769387973154e+00  1.182862868723032e-01  1.362917294445587e-16
-1.895568127717421e+01 -1.747745516043205e+01  5.169134622232044e-16
 3.989339312062028e-01 -1.200209888763762e+01  1.162177008747402e-16
 9.573078629102655e+00  8.363106443847265e+00 -2.562922340185993e-16
 1.082532536664304e+01 -9.256126701672835e-01 -1.831392438761206e-16
-1.776721318252927e+01 -2.171509194941487e+01  5.393034333918587e-16
-5.835958601530430e+00  3.984630098551237e+00  6.291721793822627e-17
 7.860927919883208e-01 -1.060615436798063e+01  9.498492429846089e-17
-2.123815079520769e+01  1.310407625640939e+01  2.433186039764905e-16
 2.854721916150794e+01 -1.277785007225548e+01 -3.767440497012123e-16
 8.652185283467862e+00 -6.110591056991101e-01 -1.476975474858068e-16
 5.620287624302692e+00 -2.480791811919021e-01 -9.747079893121737e-17
 3.023079196069807e+00 -7.572401576796427e-02 -5.302126359958112e-17
 2.100310267395685e+00 -5.184329225405576e-02 -3.684485555462302e-17
 7.848218426568466e+00 -3.913463224819109e-02 -1.392663144636722e-16
-7.702385231375849e+00 -1.962321098811266e-01  1.390893465857251e-16
 2.606219664671238e+01 -9.851927030883699e+00 -3.625829060610078e-16
 4.006517809897377e+00  2.918484472814952e-01 -7.429940033922706e-17
 5.066388710778933e-01 -1.433310722227172e-02 -8.868975624178301e-18
 4.571230593803445e+00  2.928725257708721e-01 -8.435965997421803e-17
-2.752577985539080e+01  4.063243025509421e+00  4.481057402519653e-16
-1.050231729599552e+00 -1.741007744680343e-02  1.886900860560180e-17
 1.514978113344790e+00 -5.674545854682732e-02 -2.637780368572724e-17
 3.192122189959944e+01  1.070850272631159e+00 -5.790788182508015e-16
-3.568478487583748e+00  1.804698006464632e-02  6.331990515832772e-17
 1.029202630018176e+00 -1.125659028524705e-02 -1.820023109350044e-17
-2.075362628217992e+00 -5.238808430080517e-02  3.747182207927032e-17
 3.144440636827405e-01  6.861585604002699e-04 -5.602957259408776e-18
-1.369563392118739e+00  2.106108004550648e-02  2.415661931637708e-17
 5.476049937814548e-01 -2.192893582438041e-03 -9.722752887581781e-18
 3.851264874814908e-01 -5.946363362535562e-04 -6.847675567913400e-18
-1.529203523710714e+00  6.609647591383342e-03  2.714608907652500e-17
-2.284131233507112e+00  4.207343494628828e-02  4.021655064967936e-17
 2.284030428491583e+00 -3.883920744025927e-02 -4.024798721786878e-17
 8.956560465498891e+00 -3.003664527213648e-02 -1.590840616369800e-16
 2.590548762011760e+00  2.415880923291887e-01 -4.858413523812952e-17
-5.522651741931220e+00  2.604892264804943e-01  9.560574323902611e-17
 3.886235994789599e+00  1.138114291589105e-01 -7.032957627134039e-17
-8.107554402492637e+00  1.057551325973930e-01  1.431970060635218e-16
-1.277127175171407e+01  1.610247380413344e-01  2.256255442556967e-16
 1.954861841165783e+01 -4.106549948305789e+00 -3.056976741450439e-16
 1.570435171419394e+01  7.617601453839990e+00 -3.577457592640479e-16
-1.625401092823772e+01  1.312794248125368e+00  2.757710289660858e-16
 2.385040632636291e+01  1.251433028878267e-01 -4.257322323280796e-16
 5.056990198333984e+00  1.492441316760209e-01 -9.152860201067681e-17
 1.442347537294062e+00  4.863531674687810e-02 -2.616800513312597e-17
-3.904695770786931e-01 -1.326883795080107e-02  7.085204382838409e-18
-1.983723015192145e+00 -6.756909582358195e-02  3.599696524011817e-17
-1.200120046482586e+01 -5.472375337144552e-01  2.191983446695631e-16
 9.735480758166554e-01 -1.367514625704642e-01 -1.592037766873834e-17
 1.931829574693988e+01  1.572219598787357e-01 -3.454075150176273e-16
-4.680559717949186e+00  2.599918836109224e+01 -1.838360719976085e-16
-1.925907031361216e+01  1.946572384221151e+00  3.227378051775893e-16
-1.917162288216957e+01  5.368479359393061e-01  3.356659804075283e-16
 1.429297219494222e+01 -1.848795452433070e+00 -2.353647878256889e-16
-3.045030786823104e-02 -5.754074754406260e-02  1.133109828546130e-18
-7.811787620677536e+00  2.600815066341117e+00  1.122976489421964e-16
 7.851123970568549e+00  1.651243554187445e+00 -1.566860438864023e-16
-1.955856547632888e+00  1.960521352289237e-01  3.279243582420024e-17
-1.998145411224528e-01  2.939427502997813e-03  3.525736545572753e-18
-1.717563485743946e+01  2.589776347675242e+00  2.790518989472500e-16
 1.331501214919398e+01  1.328097190071444e-01 -2.383210955307048e-16
 2.926954720407225e+00  1.199183726624801e-01 -5.332076836300302e-17
-1.369185627222339e+01 -3.437359071398989e-01  2.471946761692867e-16
-3.128641007242618e+01  8.840115770662571e+00  4.659500088515987e-16
 8.160549287309633e+00 -9.018982352788266e-02 -1.443000411298238e-16
 1.397083974257927e+00 -8.685533596282836e-03 -2.477353511833436e-17
 3.895517138277304e+00  2.470382603733610e-02 -6.957919706715255e-17
-4.117420743924415e+00 -2.951034555211471e-01  7.630649433631991e-17
-3.563306082557795e+00  6.744176206891171e-02  6.272034259043294e-17
-1.260623945333037e-02  7.585081830359671e-04  2.165496718007490e-19
 3.939706109555028e+00 -3.440036018744916e-02 -6.975831845368458e-17
-4.131672356771209e+00 -6.117667679804582e-02  7.415660615629004e-17
-2.744910696194342e+00  8.880007944900419e-02  4.793657152694646e-17
-5.184583218504650e-01  9.423459395067811e-04  9.216902019645320e-18
 2.734819703309024e+01 -2.032314640883554e+00 -4.658124936821733e-16
 5.821534508624217e+00  3.891516861485767e-01 -1.075995429953678e-16
-1.153193809459475e+01 -4.668911988795285e-01  2.100217316456318e-16
-2.511223772096928e+01  4.440811173889308e+00  4.012745035507936e-16
 1.835018644836628e+01 -9.991065395187212e-01 -3.162979999913544e-16
 5.040561895189231e+00  2.892306922609069e-01 -9.267455180640645e-17
-9.999392035199914e+00  3.305519573094384e-01  1.745548076653792e-16
-1.401821460751355e+00 -2.284489371557135e-02  2.518180803581765e-17
 4.459545500093584e-01 -1.889892599112790e-02 -7.742113600985561e-18
 2.783582801337181e+00  1.454940705100756e-01 -5.103207506844251e-17
-1.382565993459630e+00  2.891530271129207e-02  2.430731680545332e-17
 2.918728939506473e+00  7.759067395187610e-02 -5.273947905643204e-17
-1.750459516915404e+00 -2.264338366652322e-03  3.117478037951683e-17
 3.828329548844444e+00  2.491583548894714e-02 -6.838569206628219e-17
-8.228534856769873e+00 -6.950875413389043e-01  1.535783651041539e-16
-3.362078217718566e+00  4.526229909745715e-01  5.518165550911150e-17
 4.733744916771868e+00  1.349104428620103e-01 -8.562879317928638e-17
 1.198172496631618e+01 -3.540452615009994e-01 -2.095914016735239e-16
-9.568187914798541e+00 -9.900550420735127e-01  1.804497731887928e-16
 1.113359068725806e+01 -5.378917947283031e+00 -1.428690989010573e-16
 3.645002981798770e-01  6.722995405201970e-02 -7.177480939762318e-18
-1.043472244986216e+01  2.699373465326640e+00  1.579632512759146e-16
 6.307145834554677e+00  9.163117655252532e-01 -1.216579540864694e-16
 5.922672416677675e+00 -4.309474728780985e-01 -1.009731917473160e-16
-4.164145065917214e-01 -2.226840905784287e-01  9.698591070895677e-18
-3.776280324474712e+00  6.250078660099110e-01  6.078168410850857e-17
-1.084934247588149e+01 -1.781150364019786e+00  2.113776638700531e-16
 1.339131814564807e+01 -4.573065831616279e+00 -1.913278899892033e-16
 1.098956810190271e+01  6.684984346203775e+00 -2.642582588380860e-16
-1.665796393683795e+01  1.478389134263108e+00  2.812584272902850e-16
 1.293207979117420e+01  1.989828160810325e+00 -2.505865473333327e-16
 1.113477035463343e+01 -5.801306972956157e-01 -1.921958883238350e-16
-2.096940363949680e+01 -7.172391326055902e+00  4.468692662623207e-16
-1.200110581227233e+01  8.592374572826185e-01  2.047456406262142e-16
 1.898804779637534e+01 -4.357778960858627e-01 -3.334375007231887e-16
 8.535686220553725e+00  2.277592896200225e+01 -3.859171142854815e-16
-2.578191692472456e+01  8.559545840302041e+00  3.708737413871449e-16
-1.330692647776400e+01 -3.431660469718736e-01  2.403385362232514e-16
 7.176769179111416e+00 -3.518768506766913e+00 -9.156510016352005e-17
 7.302541854887911e+00  1.421864101138433e+00 -1.445665802171877e-16
-2.551860545693206e+00  3.677801351755602e-01  4.163459506680669e-17
-8.089075661221580e+00 -7.803192756434737e-01  1.519722474886889e-16
-1.555286140501940e+00  3.194188539248240e-01  2.439625939015887e-17
 1.126244454389173e+01  1.535839589789779e+00 -2.162088288417694e-16
 2.240663154874134e+01 -5.139155306760200e+00 -3.459497821427787e-16
-1.516805879906659e+01 -4.175775662989010e+00  3.128382774301140e-16
-2.808451272863654e+00 -1.064123673271277e+01  1.593145822137791e-16
 2.217487356812259e+01  4.404616244256956e+00 -4.398841581297131e-16
-1.733014067108694e+01 -1.221461144283304e+00  3.209605949182474e-16
-1.162358182150513e+01  3.967728089401758e-01  2.027788071528150e-16
 9.077573204986001e+00 -1.361628181745767e+00 -1.475560083578327e-16
 1.987172346552780e+01  3.419514235797891e+00 -3.887752894872044e-16
 3.035925361250869e+00 -1.289328635328030e-01 -5.270317491272309e-17
-8.907172974785027e+00 -1.804893854422721e+00  1.770583966567545e-16
-2.119280636916779e+00  1.722865198056082e-01  3.594494549022457e-17
 9.108904576899274e+00  1.588230835467733e+00 -1.784223172148146e-16
 1.008825447748093e+01 -4.882130200650497e-01 -1.745163107071900e-16
-1.327385586688436e+01 -5.420603387796951e+00  2.919188294388423e-16
-2.554334851895123e+01  1.664802329423019e+01  2.835219644996728e-16
 2.521190604872837e+01 -2.614685650311274e-01 -4.459894474685293e-16
-1.461321774312698e+01 -2.891185485425986e+01  5.571184467907117e-16
-1.788098945327117e+01  1.712185142891494e+00  3.006214561845054e-16
-5.678043329613125e+00  1.064499011391738e-01  9.995382002425670e-17
-2.125240126582776e+00  1.471386255914250e-01  3.630938718922764e-17
 1.741265128292804e+01  1.727841033353966e-01 -3.116541940394749e-16
 1.146578868844783e+00  2.111646153704222e-03 -2.042643505701935e-17
-8.461263693605630e+00 -2.343035928016593e-01  1.529856646642022e-16
-7.368068879169270e+00  1.269929208979567e-01  1.298187685257061e-16
 1.091057982056715e+01 -5.399376000869130e-01 -1.886191198820496e-16
 4.897358814313370e+00  6.022122095656558e-02 -8.777309306645023e-17
-1.906817182940550e+01 -2.358787048601317e+00  3.635765432355552e-16
-9.266784276937363e+00  1.625423903612861e-01  1.632434159888834e-16
 1.795468244065452e+01 -1.240815713988467e+00 -3.067760604305017e-16
 1.335420138883022e+01 -2.682644223167392e+01  3.797800527872807e-17
-1.668131625890989e+01  8.127451572302240e-01  2.885132597782944e-16
-9.898056831005150e+00  3.650272407580573e-01  1.723972058322969e-16
 1.527859498833219e+01 -1.298902474571969e+00 -2.585550717288216e-16
-4.559267947612478e+00 -9.567483608857176e-01  9.096785335701668e-17
-1.195465574938019e+01  1.180857843842943e+00  2.006144737162263e-16
-1.204634957804741e-01  8.860956998318990e-02  1.233360438068555e-18
-1.278855349797079e+00 -1.749736351427852e-03  2.277673432792123e-17
 8.107264504984698e-01  2.631491738328825e-01 -1.713160642668993e-17
-8.579993527835468e+00  2.774149134041705e-01  1.498408819612028e-16
 3.209269363856970e+01  1.676388464912292e+00 -5.883520471120311e-16
-1.499843778064503e+00 -2.745924364307011e-02  2.697364284757710e-17
-6.111544479095914e+00 -3.140082290208158e-01  1.119885446043217e-16
-3.019485456965456e+01  1.697739359290537e+00  5.199097995424922e-16
-5.967324288274238e+00  2.143480183919649e-01  1.039933057745534e-16
-1.044039863938255e+01  4.395871781668029e-01  1.812827489654924e-16
 2.646928056917285e-01 -4.889965981705718e-02 -4.208097970733421e-18
-3.989928145458329e+00 -9.484054878269288e-02  7.197998285141484e-17
-3.483190442477712e+00  2.849564231791683e-01  5.905970511022693e-17
 7.976795497768587e+00 -2.029442208108793e-03 -1.419357391681884e-16
-1.537993980683562e+00  3.128803766956548e-02  2.704896425364061e-17
-1.328023400195209e+01  2.226883221531759e-01  2.340495636923754e-16
-2.975944783726613e+01  5.137777782325476e+00  4.768160723163832e-16
 1.890034791560641e+01 -3.259665010311628e+00 -3.028623624609611e-16
 1.134495151752677e+01  1.149594435842253e+00 -2.137086102149635e-16
-4.315216405900054e+00  2.638774730070514e-01  7.408317814619592e-17
 1.433325596082981e+01  2.144804455350589e+00 -2.771144737616073e-16
-2.021344067754314e+01  1.019339494876280e-01  3.586749540237699e-16
-1.416145504347575e+01  1.825494862414552e+00  2.332636882575655e-16
 1.553701932873312e+01 -1.212474535782562e+00 -2.640420567946893e-16
 1.710379276674200e+01  3.848948165361587e+00 -3.439289385409978e-16
-1.343535136003401e+01  7.896706546894618e-01  2.309845246348197e-16
-1.537553300064242e+01 -1.370575272929981e+00  2.877081133562826e-16
 1.604722237144237e+00 -2.564553944753671e-01 -2.592296040932443e-17
-1.540279208871473e+01 -3.241639216925094e+00  3.074177236138909e-16
 1.338621543113815e+00 -5.085917704730659e-01 -1.859677146610741e-17
-1.080058038832859e+01 -1.898536225261627e+00  2.117159814988485e-16
-4.970442483957061e+00  1.295477946630554e+00  7.514438767747487e-17
-2.251212972636274e+00 -1.135682116892158e-01  4.122989230702003e-17
-3.028018729450427e+00  1.277126028048969e+00  4.076519924134846e-17
 2.884236751696620e+01 -4.643648577054616e+00 -4.655725321599409e-16
 1.787642984974822e+01  1.679884703276879e+01 -4.907344436753444e-16
 2.161576476928803e-01  2.153903434716473e+01 -2.251525365978306e-16
-1.665511630548659e+01 -2.754236498221292e+01  5.793854564275441e-16
 1.223697204788294e+01 -7.297713269889491e+00 -1.427901615842189e-16
 1.678359714034119e+01  1.064465727903941e+01 -4.080541179537346e-16
-2.466961257743852e+01  6.046704740557951e-01  4.328124133354761e-16
-1.393000057605223e+01 -6.246263011278043e-01  2.543187848929850e-16
-2.224038092133976e+00  9.419615477167213e-02  3.861157949742618e-17
 1.719880766220942e+01  2.590059130029982e+00 -3.326852145226347e-16
-2.176120634336160e+00 -3.602579596401293e-02  3.909681442727462e-17
-1.384060975250925e+01 -2.616122871706646e+00  2.731898723733145e-16
-1.403662854134344e+01  6.745055964301971e-01  2.428682484047740e-16
-3.690395508850009e+00  3.908166280254861e-02  6.527344025427256e-17
-2.845497610223134e+00  5.275881272235666e-02  5.009694657324695e-17
-4.243703767430651e+00  9.363976436365201e-02  7.455965604991019e-17
-1.516155317578759e+01  7.849031623493510e-01  2.617533292463734e-16
 1.582279136255263e+01 -3.083584634956727e+00 -2.499027344562887e-16
 1.190238612334219e+01  1.182044600862193e+00 -2.239622376458763e-16
 2.346071502590078e+01 -4.191869016245228e+00 -3.744414774921531e-16
-1.594864889505152e+01 -5.961836906769612e+00  3.450809397831491e-16
-1.815047758052242e+01  8.819615914584567e+00  2.323910496215713e-16
 1.410255486607358e+01  4.904961712701646e+00 -3.013684857436525e-16
 1.427158021211128e+01 -7.980625030519242e+00 -1.719817705743517e-16
 9.189748193843041e+00  2.134497324858175e+00 -1.854737156361799e-16
-3.294143306717144e+00  8.731969895205003e-01  4.965142768711985e-17
 3.613206260079385e+00  3.849237085445059e-01 -6.825626666297334e-17
-3.538860143418676e+00  3.438575345780101e-01  5.944522630695250e-17
 7.827438166248275e+00  5.487981950366515e-01 -1.449373011658413e-16
-2.431104382273605e+01 -6.957429489576121e-01  4.397925301434255e-16
-2.067316227153611e+01  2.513383977403643e+01  1.096625091918654e-16
 2.917971734416221e+01 -7.768486318786517e+00 -4.394695021159932e-16
 2.199667503330193e+01  1.325739029958843e+01 -5.276719400841887e-16
-2.822611324641232e+01 -3.641526865398743e-01  5.060588911240815e-16
-1.058057774013642e+01  2.218364051708105e+00  1.655011170879154e-16
 1.335150520989415e+01 -3.582793429697824e-01 -2.339247713658052e-16
 5.276593816191284e+00  8.871467326134438e-02 -9.481479214854167e-17
-3.987603178576439e+00 -8.562229575183619e-02  7.184389313089324e-17
-2.364915418737562e+00  2.138877751717599e-02  4.186672892080398e-17
-1.656778173245829e+01 -1.030523354415722e+00  3.054316918014344e-16
-1.232929814278741e+01  3.254329926589619e+00  1.859775095905438e-16
 9.410387786730501e+00  1.321920252045717e+00 -1.810513261536793e-16
 1.312813146190242e+01  1.238980997889814e+00 -2.463608388335196e-16
-1.650002733859039e+01  2.027357911491075e+00  2.728073023719062e-16
 7.066383205535916e+00 -1.266197900974010e-01 -1.244537458841929e-16
 1.600399150240679e+00 -2.162175304744510e-02 -2.825885624398905e-17
 4.818188179760634e+00 -3.854753705159138e-02 -8.534934393799824e-17
-6.280868208194562e+00 -2.261827594395482e-02  1.120079364246033e-16
 4.345165522833808e-01  2.865933041456286e-04 -7.735684997505897e-18
 7.443414800750158e+00 -2.018452840603396e-01 -1.303905582367611e-16
 6.884890782512957e+00  1.139846810584638e-01 -1.236959952602593e-16
-1.394394684769794e+01 -5.614923251498631e-02  2.487260800633863e-16
-1.369905118439930e+01  1.511507025694632e+00  2.282607710428720e-16
 1.137411007001735e+01 -1.150473561305480e+00 -1.905951583161020e-16
 1.077626726694547e+01  5.965986866341663e-01 -1.979063652057982e-16
-1.290718172154662e+01  3.125213946758824e-01  2.264876511896622e-16
-1.712020943556227e+01  4.442882273819332e+00  2.590255474455879e-16
 1.359018581454012e+01 -3.334402537540050e-01 -2.384275900654442e-16
-4.810783921116209e-01  5.821255741907969e-03  8.501552605442723e-18
-3.467300852920321e+00  6.339196023552172e-02  6.105342526288441e-17
-5.332640560152655e+00  1.269366058620022e-01  9.359647226417350e-17
-2.401444188892586e+01  1.289693390470849e+00  4.141145077983141e-16
 1.359396107407907e+01 -1.906604065584991e+00 -2.223310886147337e-16
 1.402207799083585e+01  1.016173599376137e+00 -2.599804185780609e-16
 1.779278023632848e+01  9.434974870873366e-01 -3.263378423424738e-16
-1.991861700294873e+01 -2.084868588035585e+00  3.758968167241467e-16
-2.376962834775630e+00  2.678019431347992e-01  3.954932130795324e-17
 1.161133559741048e+01  2.049265103840670e+00 -2.276930219771591e-16
 9.555241515058821e+00 -7.260536285254525e-01 -1.625869833831846e-16
-1.155641326929885e+01 -5.857124875116437e+00  2.658399894767229e-16
-1.212435791235039e+01  5.494154499815854e+00  1.593169698785923e-16
 1.146934732231075e+01  1.763279423484807e+00 -2.222277722567531e-16
 4.456076861980650e+00 -7.583286808305382e-01 -7.150965144345141e-17
-7.355977100708566e+00 -1.367364077732809e+00  1.449575562095918e-16
-2.330105630351810e+01  6.015817590529338e+00  3.528597510635770e-16
 2.917434537809944e+01 -7.020541575199334e-01 -5.119789249849627e-16
 2.484665004618603e+01  7.665858749850422e+00 -5.209396896113192e-16
-2.561943224049987e+01 -1.726145623235455e+00  4.736638759047087e-16
-8.144182321799217e+00  8.108017527375081e-01  1.366047456602258e-16
 1.044085058834299e+01  3.171055624906357e-01 -1.890655349730986e-16
-1.977892550418306e+00 -1.056491582979611e-02  3.530750792555262e-17
 5.666695772634739e-01  3.264335355843953e-03 -1.011810093232023e-17
-5.570080789199825e+00 -1.362787089831031e-01  1.005264460966137e-16
 7.762204414705195e+00 -8.770927924265922e-01 -1.291258768214400e-16
 1.634930423403344e+01  2.631736229466469e+00 -3.179955047368504e-16
-1.072191048715747e+01 -2.414201464623756e-01  1.932896910115724e-16
-2.902838060144008e+01 -3.070290390915201e+00  5.481407775229533e-16
 2.061993161709206e+00 -5.013147154418652e+00  1.481263778667775e-17
 2.393612640671186e+01  2.756317343480150e+00 -4.542920808640026e-16
-8.325025273559623e+00  6.048159205664537e-01  1.419394913053178e-16
-1.133122387889695e+00  3.201308054354837e-03  2.013237230069296e-17
-3.498881337772321e+00  1.625426025877063e-01  6.059670083478845e-17
 3.125165288427253e+00 -2.567012360706291e-02 -5.535229294263657e-17
 4.424631445718349e-02  4.191400258401930e-03 -8.304810606152199e-19
-2.399346675492580e-01 -5.941897191202066e-04  4.276028701153936e-18
 1.008568858225338e+00 -5.683725709273514e-03 -1.789028768867979e-17
-2.480599063124384e+00 -4.713926194771217e-02  4.462955807590284e-17
-4.513915923553248e+00  5.434224591362995e-02  7.977217138741411e-17
 2.106314260123544e+01 -1.510370851049748e-01 -3.732918964384832e-16
-2.457500802389898e+01 -2.124151598551612e+01  6.555904427553765e-16
 9.014726311271753e+00 -1.237799921863066e+00 -1.477098633272814e-16
-2.261061863538088e+01 -1.220456917759898e+01  5.277804445278469e-16
-3.040505242048526e+01  5.283576429526464e+00  4.868073478409403e-16
 2.173454334023068e+01 -5.478407956379417e+00 -3.305034730397847e-16
-2.404531424722218e+01 -2.074598836929542e+01  6.410725433878235e-16
-2.623760798930417e+01  1.009426196452904e+01  3.632146567943682e-16
 2.930625716369348e+01 -9.227682952773774e+00 -4.267287138125095e-16
 2.974762766954893e+01  1.149675285145285e+01 -6.475194777417301e-16
-2.675187927651422e+01 -1.284463244331097e+01  6.080555347898134e-16
-3.251241878666844e+01 -9.505046809020552e-01  5.883633648331983e-16
 9.660902835521339e+00 -9.407370648675332e+00 -7.526997391188971e-17
 1.264476411802821e+01  2.338870637865030e+01 -4.653391222915454e-16
-3.117728592260770e+01 -8.778284135170507e+00  6.450306731922093e-16
-1.843102212603609e+01  3.579684973518250e+00  2.912220613455107e-16
 1.959170324882394e+01  1.847960828605241e+00 -3.676448552995703e-16
-4.894957116405971e+00 -3.626301546904207e-02  8.748419010937579e-17
-3.528086819518078e-01  1.354356442787518e-02  6.139496141044821e-18
-2.950903834096149e+00  5.524125737635309e-02  5.194726984840645e-17
 1.022698749930125e+01 -7.883662867295247e-01 -1.739012645371508e-16
 3.537472282213849e+00  3.460557244707832e-02 -6.330909859735373e-17
-1.040816416045909e+01  1.459734055255688e-01  1.837258728350838e-16
 8.773056215860636e+00 -7.314417418509261e-01 -1.486117020589316e-16
 1.250887964635624e+01  7.897170605980768e-01 -2.307244903708267e-16
-1.046800294307666e+01 -1.382676967087686e-01  1.877112494327166e-16
-2.832433652178265e+00  2.752583938338827e-02  5.012371748961616e-17
 3.158970007662848e+00 -3.070480916250777e-02 -5.590215868228441e-17
 5.147107755333835e-01  2.231190966602743e-03 -9.182816894409305e-18
-1.406214003824098e-01  9.086969835429216e-03  2.409160262909184e-18
 7.175215460040741e+00  1.067467447112598e-01 -1.287883020397299e-16
 5.418822711300471e+00  1.006832103338172e-01 -9.746889736414347e-17
-2.066937972097411e+01 -1.844355961274011e+00  3.867863549635802e-16
-2.872051501394470e+01  9.134428102385483e+00  4.172628932662926e-16
 2.136114774555534e+01 -1.021300513940566e+00 -3.696536128475369e-16
 1.162370319565506e+01  9.192506636112988e-01 -2.163026302551547e-16
-4.495459377325404e+00 -7.342895947487254e-03  8.007750757254124e-17
 7.764823591997392e-01  1.320271972645939e-02 -1.395408295069826e-17
 3.466365942333641e+00  1.091226486452427e-01 -6.280931235296858e-17
-1.418377179346063e+01 -1.262693598733727e+00  2.653908561063930e-16
-2.031123805469311e+01  4.765101731571059e+00  3.125030200359833e-16
 3.211652058697159e+01 -2.104798763454361e+00 -5.499257511333928e-16
-2.541435994102528e+01 -1.102364341940073e+01  5.655427820585322e-16
-1.997101884281522e+01  1.033244269305196e+01  2.492460074419950e-16
 2.191715169494328e+01 -7.414945578904181e-01 -3.824232709100012e-16
 1.542133428952841e+01  2.395324095780214e+00 -2.990521238274671e-16
-2.530229288998818e+01 -1.285335027058815e+00  4.634908341182494e-16
-7.448649980217839e+00  1.562350573541133e+00  1.165050268481105e-16
 1.062798234249318e+01 -8.026083910142977e-01 -1.808911136480982e-16
 1.647593352335784e+01 -5.017003139684991e-01 -2.880541017788082e-16
 6.999478494628128e+00  8.461424083655217e-01 -1.332578749656579e-16
-1.118412637318198e+01 -9.850433933811115e-02  2.000469660198764e-16
-8.566059704970604e+00  1.631914764101581e-01  1.507665172786870e-16
 2.925687291357897e+00 -3.804215137295611e-01 -4.815740236665791e-17
 1.383753574629726e+01  5.963637693329917e-01 -2.523828757009360e-16
-3.938180396022173e+00  2.868002804237608e-02  6.978994090912092e-17
 1.360360043910805e+01  3.815736299510572e-01 -2.460128272065634e-16
-2.144203592166475e+01 -5.483687478063577e+00  4.379295029836679e-16
-2.885396330998164e+01  1.153912869880654e+01  3.949303398094017e-16
 1.872991896494439e+01 -1.045954783650581e+01 -2.258531954720871e-16
-8.950729964964781e-01 -1.388433119764995e+01  1.585853509321009e-16
-3.024248082492557e+01 -1.199030359516121e+01  6.613970345211874e-16
-6.534555158321954e+00  6.204003366562007e+00  5.254632288552857e-17
 2.167775355747335e+01  1.069318377047614e+00 -3.967683405870306e-16
 1.164563936734196e+01 -4.250895713550988e-01 -2.028804030462017e-16
-4.319681848438128e-01 -4.573747419053068e-02  8.157325034726775e-18
 1.403883156767131e+01 -1.569059018495914e+00 -2.337162424410227e-16
-2.812188350218635e+00 -3.012996619337888e-01  5.314199076686839e-17
 2.602239883869323e+00 -3.120811756101697e-01 -4.310344210286545e-17
-2.224805332247714e+00 -2.893446886592477e-01  4.256597630107225e-17
 5.339869232700505e+00 -5.530419347312348e-01 -8.934703765446010e-17
-2.692215282208674e+00 -7.230648776816341e-01  5.534041128823674e-17
-4.331562082276010e-01  9.289343544084012e-01 -1.835931644335830e-18
 1.953241966418446e+01  1.185439600995220e+00 -3.597826683019962e-16
 3.156554568826234e+01  3.796426722104547e+00 -6.007534437023878e-16
-1.693918872388344e+01 -1.907098237842086e+01  4.974004851290822e-16
-1.866146149131243e+01  2.163536822924594e+01  1.098074183889805e-16
 9.282797277993602e+00 -3.116101421585743e+01  1.549696506608470e-16
 1.891314589281352e+01  5.432902203645027e+00 -3.924030881004694e-16
-8.749184979841671e+00 -2.449980658980609e-01  1.582194492473822e-16
 5.364807211937323e+00  2.484202122918153e-02 -9.572838645072328e-17
 7.972980683691402e+00  6.478188841294336e-04 -1.418953578902766e-16
 1.468887567251472e+01  2.564936133185110e+00 -2.877598510277529e-16
-8.317836343035269e+00 -2.305578749670708e-01  1.503947180171863e-16
-8.657475970999414e+00  3.225524133021581e-01  1.507560030423634e-16
-5.263187283715801e-01 -6.779896108175316e-03  9.436130522857040e-18
-2.739173244163579e+00 -1.760785023916496e-02  4.892776955184611e-17
-2.072181598428022e-01  3.076279720229527e-03  3.656086674665421e-18
-5.385763662339007e+00 -4.060207215551534e-02  9.626326028393564e-17
 5.528159560302791e+00 -2.274073200164198e-01 -9.604366599681494e-17
 1.556706288812621e+01  2.126129439535295e+00 -2.988796607880004e-16
-1.978087774469201e+01 -1.723903494166972e+00  3.697367971094701e-16
-2.844977425063192e+01  8.802626743085790e-01  4.972532897016564e-16
 1.935606793175150e+01 -1.226038497421687e+01 -2.184933158367429e-16
 2.763990283586506e+01  5.694472331823696e+00 -5.503936756015154e-16
-9.057053438386395e+00 -2.401629269846741e+01  4.079397526254083e-16
-2.191574633285409e+01  2.249707387122160e+00  3.669019218910181e-16
 1.606186306697436e+01 -2.453781053423899e+00 -2.606283036212162e-16
 6.684866875519623e+00 -2.175132004163849e-01 -1.167303109312696e-16
-8.559397297153680e-02  7.249465741530609e-03  1.448761230324230e-18
-5.126675765563525e+00  1.425966010928125e-03  9.122065928276298e-17
 6.735958572346932e+00 -5.317424036449834e-01 -1.144109577075127e-16
-7.429445615403396e+00 -9.288300463239816e-01  1.417592382216149e-16
 1.105547617728481e+01 -1.859897259695070e+00 -1.776356173283153e-16
-8.077182221532812e+00 -9.409724822857380e-01  1.534112428705473e-16
-8.602408453653060e-01  4.469952785700860e-01  1.071629789732262e-17
 1.673119203801768e+01  2.234231275160558e+00 -3.207074347352221e-16
-1.316124926139086e+01  3.699269143530264e-01  2.304192652635464e-16
-1.180942294527869e+01 -2.054280041944628e-01  2.122734662155296e-16
 2.430260689289767e+01 -1.756769655664821e+01 -2.519921786581008e-16
 2.689550588132853e+00  2.938563761392385e-01 -5.088302844541722e-17
-6.458660579208383e-01  7.472888340992359e-02  1.072614478965996e-17
 1.876581555902520e+00  1.344185568830057e-01 -3.477710909985225e-17
-4.413551821663976e-01  3.820506345277554e-02  7.461898785403537e-18
 7.507086282815062e+00  9.333394832101751e-01 -1.431872793579712e-16
 1.378209930776758e+01 -1.746982178981717e+00 -2.273192897979003e-16
-1.424349974667919e+01 -2.802042623025732e+00  2.822700383097183e-16
-4.377592267249148e+00  1.575939598504525e+00  6.171226927846149e-17
 9.750822334251358e+00  7.512344491311711e-01 -1.812461757036207e-16
-1.492804922366044e+00  1.473033162167302e-01  2.505275621845193e-17
-2.442975045055544e+01 -3.479343292761457e+00  4.705055385179157e-16
 2.035536752493815e+01 -7.094625984019583e+00 -2.893533411567707e-16
 3.011483074738193e+01  1.138637219903248e+01 -6.529201734210037e-16
-6.225166887568776e-01 -3.624229031799241e+00  4.831606378616947e-17
-3.209785836191048e+01 -4.457436264479710e+00  6.170182156201026e-16
-2.806964736331514e+01  8.445991962755629e+00  4.127533582880153e-16
 1.979683468495451e+01 -6.814778156549618e+00 -2.822889177953559e-16
 3.086068190786259e+01  1.773111739551734e+00 -5.674207255187081e-16
 1.766577340419562e+01  6.286295358473750e-01 -3.208424503427726e-16
-2.595896734087429e+01 -1.808391545252235e+01  6.477764505534452e-16
-1.135665276163028e+01  2.011133849719479e-02  2.018985458915034e-16
 4.230605294928020e+00 -1.794776015897497e-01 -7.344460051778615e-17
 7.333459751505242e+00  2.210054231602851e-01 -1.327784143827917e-16
-3.604680403436171e-01 -1.798006291988404e-02  6.599697373726682e-18
-2.770548176318743e+01 -1.080251048870067e+00  5.041512833716522e-16
-1.233625008316928e+00  2.386833890883251e-02  2.170859003116381e-17
-2.138625129398089e+00 -2.137250540137124e-01  4.025533251717116e-17
 2.091578828412246e+01 -6.853532640567440e-01 -3.651796459637603e-16
-2.511886466085003e+01  7.787626711401682e-01  4.390186559626388e-16
 1.870751362325974e+01 -1.143200608057381e+01 -2.154628105599544e-16
 2.138427892991672e+01  6.547509866953638e+00 -4.478320370016203e-16
-1.587199531889030e+01  2.066045717410552e-01  2.803383025817366e-16
 6.636953870717608e+00 -1.012519802007345e+00 -1.077092378718994e-16
 1.531219101316849e+01  8.083648496600531e-01 -2.808043592979877e-16
-3.865166672380470e+00 -1.464340891018567e-01  7.028980853993343e-17
-4.853744286881427e+00  2.583055684193717e-01  8.372417346167323e-17
 6.521011661887933e+00  1.220264809766272e-01 -1.173029588311025e-16
-6.323815813498292e+00 -3.035182738727097e-01  1.156583857314585e-16
-3.833262342639116e+00  2.869724836808253e-01  6.526893784293120e-17
 1.407879389791238e+01  1.025766924978164e+00 -2.610883137383382e-16
 1.302916950661643e+01 -3.865893906034993e-01 -2.278975475350158e-16
-8.101768220537643e+00 -1.461243859154433e+00  1.591943794718658e-16
-1.395586963358843e+01  9.509385007220318e-01  2.385907996474599e-16
 1.630618323811391e+01  3.673822305945768e-01 -2.939627003765268e-16
 1.826974109037614e+01  2.771009154344899e-01 -3.279789468870792e-16
-2.149857774097744e+01 -9.573993387450841e+00  4.809621394292040e-16
-2.527144413243138e+01  3.569983948425907e+00  4.130552050228409e-16
 2.851567802211057e+01 -6.295882849286872e+00 -4.427825959895361e-16
 1.756640845066087e+01  2.969895018731370e+00 -3.431297847919090e-16
-2.617632401542523e+01 -3.817995436858853e+00  5.050674262475684e-16
-3.041703498034444e+00  3.328008625019793e-01  5.071133405341108e-17
-6.786346299038589e+00 -5.363338051491111e-01  1.262817624495712e-16
 1.298272752782518e+01 -2.718482494051577e+00 -2.031117026462199e-16
 2.587466447535567e+01  1.014475954419523e+01 -5.647042377703403e-16
-1.266957508277685e+01 -2.997618710155457e+01  5.334646343805213e-16
-7.094892563321897e+00 -8.573133935241355e-02  1.271429346249042e-16
-3.462546332823320e+00 -1.727686940214064e+01  2.391336991803974e-16
-2.722485168683583e+01  1.750252099585197e+01  3.046666656796534e-16
-1.619588831872652e+01  8.677444628466338e+00  1.990675605064326e-16
 2.212658345895608e+01 -8.929887627780685e+00 -3.020175947969206e-16
 2.152764641263804e+01  3.151804863591014e+00 -4.154937970315890e-16
-2.408109142488474e+01  2.654312605456890e+00  4.012796491150254e-16
-1.088249939809444e+01 -1.495275640046911e-01  1.952033993056546e-16
 6.276215567807021e+00 -1.108994829112368e+00 -1.002982235799723e-16
 1.238232119500212e+01  3.067002126748990e+00 -2.518705085304987e-16
-3.088338894472970e+01  8.249119476129712e+00  4.648500394020885e-16
 6.068159613639192e+00  3.434030218309312e-01 -1.115184800138982e-16
-1.236793382629409e+01  1.535635383275006e-01  2.185243258748488e-16
-2.540726236520859e+00  1.162952888111546e-01  4.402036222107046e-17
-1.010180640985516e+00 -7.763007928036494e-03  1.805713157895917e-17
 2.027529399528620e+01  7.605247479038924e-02 -3.616044534437677e-16
 2.442617344910184e+01  1.290916344397613e+01 -5.673298580090225e-16
-2.256316342728244e+01  6.417905443893069e-01  3.949442428107465e-16
 1.240459430712424e+01 -3.534437159164339e+00 -1.844394945820948e-16
 2.182931706595249e+01  2.354379070930123e+00 -4.126691258208614e-16
-2.615128503683106e+01 -4.592375798179588e+00  5.125783046588027e-16
-8.820875902373386e+00  1.976876599694301e+00  1.366663196855561e-16
 1.305199979985579e+01 -5.703602070979946e-01 -2.264156614940810e-16
 9.933851960388358e+00  7.155169742397674e-03 -1.768582619455572e-16
 8.636734923180891e+00  9.209050954036135e-01 -1.631629655518426e-16
-2.092630639352559e+01 -4.535833107985293e-01  3.770689878309404e-16
-1.941178593566623e+01  2.259470653523845e+00  3.222406457867719e-16
 1.790922531121631e+01 -3.753082989040498e+00 -2.801544629882514e-16
 1.779067409789871e+01  6.389994441835611e+00 -3.822611386309253e-16
-1.893677342501187e+01  5.647594935581253e-01  3.311997730616930e-16
-1.404302993270315e+01  1.494966346678241e+00  2.345522326546859e-16
 1.421104968591493e+01 -1.484364020150977e+00 -2.376512796347121e-16
 1.181814264999248e+01  9.314546921684972e-01 -2.198883042386012e-16
-1.068963489031123e+01  8.535333799725818e-01  1.814650585175483e-16
 1.965853129324946e+01 -3.389860641701292e+00 -3.150174272555690e-16
-6.401613474852296e+00 -8.167497011201542e+00  1.978424126660399e-16
-2.873548069762105e+01  8.720633534995281e-01  5.024220217743145e-16
-4.792882680999644e+00  8.114389253633941e-01  7.695782428155125e-17
-3.520173560558275e+00  1.097938871347776e+00  5.136476448652504e-17
 2.148079343001242e+01 -1.818313983391116e+00 -3.635938266494992e-16
 2.726405425508058e+01 -3.736637070021130e+00 -4.468037787388486e-16
 7.798576188576784e+00 -7.731417357157470e+00 -5.934746103021072e-17
-2.722624098633738e+01  1.678531755801062e+00  4.672771309604283e-16
 2.217707880362954e+01 -5.334732573476239e+00 -3.398551318522324e-16
 8.971204331840203e+00  3.925150760941398e+00 -1.999827804838506e-16
-2.962613424060629e+01  3.766251979604860e+00  4.885355272193733e-16
 2.894831532071293e+01 -1.191073665370402e+01 -3.927913096433988e-16
 1.836231373271444e+01  4.256986409899403e+00 -3.705182651525181e-16
-9.441042027096664e+00 -7.214163243987780e-01  1.754268952247774e-16
-8.951353256893045e+00 -3.707587850793699e-01  1.631094205847820e-16
-1.519252377203881e+01  6.175644262460548e-01  2.640238326872209e-16
 7.659217587985069e+00 -5.084197282613127e-02 -1.357825304379273e-16
 1.676440200401078e+01  6.161082915349160e-01 -3.046728198448591e-16
-1.712556878803503e+01 -6.871074282472469e+00  3.753677169081000e-16
-2.677718829320090e+01  6.643197425870828e+00  4.082755664297691e-16
 2.582209101246101e+00  2.139930052618807e-01 -4.815219151600398e-17
-4.848706752885083e+00  1.661483394150232e-01  8.458140658379935e-17
 4.992146884080496e+00  5.471633663118917e-02 -8.940339914208993e-17
-2.136260337388908e+00 -7.131572817150549e-03  3.809057524696051e-17
 2.549249607574832e+00  2.188240910114299e-02 -4.559177142290028e-17
-1.956935842113094e+00 -6.377020164654146e-02  3.548122328287997e-17
-5.639736765906128e+00  5.698586324166218e-02  9.978033403046571e-17
-8.546019724680427e+00 -3.189991833038177e-01  1.553642157695704e-16
 1.328930955739401e+01 -2.136256395447005e+00 -2.145498571764457e-16
-1.586434659673224e+01 -2.811347441956845e+00  3.112105450616724e-16
 1.721807471124827e+01 -1.738670337423730e+01 -1.277741170180954e-16
 9.503436358355373e+00  2.492801919300229e+00 -1.947376202628127e-16
-2.806008675380231e+01  4.979675690376460e+00  4.481983562930721e-16
-2.397762581800156e+01 -2.620176756011748e+00  4.536318172984787e-16
 1.561510827733428e+01 -6.802629174980617e+00 -2.079949346067538e-16
 6.833090559873166e+00  3.445650050638205e+00 -1.570057998541074e-16
-2.095416064663511e+01 -2.482069482889651e-01  3.754545199606586e-16
-1.354298961973795e+01  6.612448472099648e-01  2.342196043488136e-16
 3.648884776711065e+00 -6.443425511806744e-01 -5.831587150766609e-17
 1.961190717102341e+01 -1.079072934535513e-03 -3.490061949574748e-16
 1.294457113845327e+01  3.917827587657936e+00 -2.706183394854470e-16
-1.444796709877957e+01 -9.959339589387918e-02  2.581420946303566e-16
-1.936327103624324e+01 -2.015950635423305e+00  3.653056658773992e-16
-2.390743664658362e+01  3.356137317038116e+00  3.909782612228602e-16
-4.248915912480424e+00  3.838240790402324e-01  7.167087397203902e-17
 1.240318069492506e+01 -1.011336835079006e+00 -2.103382769272163e-16
 1.897599110345724e+01  5.565315081478720e-01 -3.434185561427515e-16
-6.927188363843385e+00 -1.373031607538685e+00  1.373849809651361e-16
-1.029148450617345e+01  9.272080644225432e-02  1.821965702960650e-16
 3.169393342827550e+01  7.384456502251767e+00 -6.399039592589013e-16
-3.067336628616815e+01 -8.638848650578117e+00  6.346301732337438e-16
-6.572832659530262e+00  2.672837481010542e+00  8.950896338320381e-17
 2.793110873881576e+01  1.090428412797704e+01 -6.091049556281695e-16
-3.250100401595945e+01  6.889857861777976e-01  5.713150564014456e-16
-3.164538493492244e+01 -5.101500117087148e+00  6.155834333877377e-16
-8.232550668473456e+00  4.314893169338712e+00  1.021740994477224e-16
-8.554426144932997e+00 -2.627390487544029e+01  4.221910453806698e-16
-1.657111690176790e+01  2.760965380022261e+00  2.665348757168326e-16
-1.860364932631293e+00 -1.418927609025795e-01  3.456530967247960e-17
-1.815274487225946e+00 -1.281795462838255e-02  3.243667466721806e-17
-5.797948188233904e+00 -6.305247843940229e-01  1.096598171599172e-16
-2.530487011718652e+01  3.791155359794430e+00  4.113776043814408e-16
 3.175925644101273e+01  2.919969409032976e+00 -5.951954771171305e-16
-6.939538501676147e+00 -3.179512547166996e+01  4.501807293788696e-16
-2.358022740916330e+01  5.215435776278242e+00  3.660515662789253e-16
 1.324920212486751e+00 -3.202776840919921e-02 -2.324946192508352e-17
 1.314231917500094e+01 -1.057181239586875e+00 -2.230210932496611e-16
 3.769132328547085e+00 -9.644778799422367e-02 -6.608523978445033e-17
-1.943249066729978e+00  3.414835477255077e-02  3.423157319561781e-17
-6.387817340401031e+00 -3.412654844407247e-02  1.140294671246334e-16
 6.677139771827008e+00 -7.980329914727857e-01 -1.106281679440038e-16
 8.487628943844019e+00  6.165484305810980e-01 -1.573822926112699e-16
-9.188643525580387e+00 -3.602993482466455e-01  1.672248169862602e-16
-2.318454830912679e+01 -1.266009237367400e+00  4.256044776832989e-16
 2.588268921092295e+01 -1.569119251489936e+01 -2.993920255691546e-16
 2.216246192833043e+01  2.040069262653643e+00 -4.153684169247656e-16
-2.882428842688941e+01 -1.510795560654768e+01  6.681913509530660e-16
-1.894711208578968e+01  1.692923047584139e+00  3.197922911808966e-16
-5.109826651065551e+00  5.441545216257603e-01  8.534447044326266e-17
 1.800300750840781e+01 -1.624456149163451e+00 -3.036942965626851e-16
 7.437005263112995e+00  2.747473897003441e-03 -1.323786091363794e-16
-1.001835992613240e+01 -1.887334843462466e-02  1.784825820195102e-16
-1.389433888991236e+01  5.371739538406659e-01  2.417470670846194e-16
 1.274351902732853e+01 -3.240139317054743e+00 -1.934948676666110e-16
-2.235196698527725e+01 -6.742286942073347e+00  4.670544639606807e-16
-5.940611008016104e+00  1.853061932387885e+01 -8.467512280311775e-17
 2.376355112384173e+00  5.942731995927752e+00 -1.033494862741301e-16
 6.428055464885102e+00  1.142001438635985e-02 -1.145122511456826e-16
-7.760174348626939e+00 -1.496886096827130e+01  2.919011678934327e-16
 8.611158150426613e+00 -6.692462513567864e+00 -8.448320989473850e-17
 1.774352577298867e+01  9.828465718092385e+00 -4.167511212250157e-16
-3.249682428178218e+01  1.701029654436473e+00  5.608422899471992e-16
-1.274691912451864e+01  5.583311352241631e-01  2.211099813073667e-16
 7.658827929678870e+00 -2.469178927332082e-01 -1.337609871418050e-16
 7.648631127557195e+00  9.994756640578690e-01 -1.463857638984717e-16
-7.281564900371322e+00  3.662273093428408e-01  1.258212806030088e-16
 2.909872506969639e+01  7.125734623063770e-01 -5.251679562957647e-16
 1.838190209299387e+00 -1.223564879257088e+00 -2.014110275582877e-17
-2.912023458416994e+01 -9.459390932346300e-01  5.279484908504712e-16
 8.512795172936174e+00 -2.725462602941285e-01 -1.486950307136218e-16
 2.426565554516501e+01  1.310976468957729e-01 -4.331832662459573e-16
 6.821238637497388e+00  1.230507104882641e+01 -2.478222132007866e-16
-2.741818782103321e+01  6.142965476251608e+00  4.248226191668389e-16
-1.266181561778584e+01 -2.118933473971759e-01  2.275092396453303e-16
-1.244150070370615e+01  2.146702835375104e+00  1.993547539838137e-16
 2.841305345983931e+01 -2.752730374602555e+00 -4.773608740261127e-16
 2.143313717129735e+01  1.201557003016638e+01 -5.048838594830598e-16
 2.156711848615079e+01 -5.685627768247265e+00 -3.253948397600861e-16
 2.953673039805442e+00  4.394173153588168e+00 -9.771266788751850e-17
 6.894146124218484e+00 -2.546743627095067e+01  1.389791021793804e-16
-1.481312756328352e+01 -1.397118054175313e+00  2.779721551997310e-16
-1.803316868926477e+01  6.909752433945131e+00  2.499265514260943e-16
 3.693861293390780e+00  2.015231678807511e+00 -8.644244134282563e-17
 8.215050527888033e+00 -7.083627003998871e+00 -7.341492921002475e-17
-4.320156024403693e+00 -1.776928626066018e+00  9.513962584337284e-17
-1.245870767071492e+01  6.961056963180794e+00  1.501952327389478e-16
 3.235202462745405e+01  1.815500029383487e+00 -5.943964724195231e-16
 9.298116766534200e+00  1.052131382465094e-01 -1.665521057009090e-16
 1.528375402112897e+01  4.172269055447399e-02 -2.724213194171806e-16
 1.115646383001934e-01 -6.011236757443219e-02 -1.367793082543557e-18
 1.990616408588430e+01 -2.437063437787689e+00 -3.292139933345355e-16
-1.167653028506515e+01 -8.760734383898857e+00  2.978111480442293e-16
-1.851800682635577e+01  4.056930582371550e+00  2.878665325863209e-16
 1.909145079215818e+01  3.231598857830085e-01 -3.430754903949164e-16
 8.027219659922681e+00  5.738967577494967e-01 -1.487505297711508e-16
-1.312949351484827e+01 -9.442873187046376e-01  2.433572076918956e-16
-1.018073043533180e+01  1.976725880879175e-01  1.791472280792681e-16
 7.825739735819042e+00 -1.876606827173644e-01 -1.373402281357305e-16
-2.198099683956275e+00 -1.803474632108866e-01  4.097081053362440e-17
 8.831167645585662e+00 -4.943369086830290e-01 -1.520820302914731e-16
 1.132478871958392e+01  1.656256771209893e+00 -2.185555606186582e-16
-1.433090371769033e+01 -6.723089283742429e-01  2.619432561885886e-16
-1.270121617735959e+01  4.728209098775136e-01  2.211752293486246e-16
 3.674323011733833e+00 -1.956619692594440e-01 -6.337860522933923e-17
 2.761444422544307e+01 -3.072171539454182e+00 -4.598665281604101e-16
-1.306654737882112e+01 -1.249432027249050e+01  3.609093989182886e-16
-2.985850818583790e+01  2.294087165488884e+00  5.077968574353743e-16
-1.716086485097071e+01  4.091777533060508e+00  2.633565325305823e-16
 2.679206742664921e+01 -9.003757116365822e+00 -3.842864650228640e-16
-1.931401034130143e+01 -3.194442320069839e+00  3.765375869859514e-16
 5.048535274350805e+00  1.770008094025510e-01 -9.166332633444566e-17
 1.467984393062846e+00  3.784637583573885e-02 -2.651339111463415e-17
 4.763446896039398e-01 -9.291866350583426e-01  1.069933165806486e-18
 2.332706158082010e+01  3.058498003718880e+00 -4.465578422796316e-16
 8.915501059317554e+00  1.085266522870807e+00 -1.698126954212275e-16
-2.939962993216690e+01 -1.716572398577401e+00  5.408386416048735e-16
-9.572272734080936e+00  3.091987784847509e+01 -1.473405010621092e-16
 1.352849536373415e+01  3.588931750261783e-01 -2.444432093746063e-16
-8.522293401816317e+00  1.056914218488565e+00  1.408049671774159e-16
 2.685504216673887e+01 -1.885658089131147e+00 -4.585430573518967e-16
 1.887386607719852e+01  3.388944128643848e+00 -3.707031302242556e-16
-1.889164448246828e+01 -3.593642923860355e+00  3.731227239055774e-16
-3.228841750171309e+01 -3.724318524133236e-01  5.784375064556114e-16
-1.595075714690205e+01  3.700933199033475e+00  2.458370060045212e-16
 2.906272934622455e+01 -9.488948163251305e+00 -4.197104406812016e-16
 2.819341952570062e+01  9.213763863563097e+00 -5.964036073890963e-16
-2.515729007733623e+01 -9.025287922493144e+00  5.404355404014507e-16
-3.077627070314004e+01  9.308491864036695e+00  4.520590760403531e-16
 2.963077527922599e+01 -8.795478921286485e+00 -4.369446401821482e-16
 2.012854380642606e+01  7.625679555557836e+00 -4.365625344376199e-16
-1.394691420193678e+01 -9.109116119336947e-01  2.575612606123213e-16
-2.069755192437999e-01 -8.101598807449795e-02  4.515786154549791e-18
-4.486784119160157e+00 -5.515620241624821e-01  8.551477486021719e-17
 1.550701567821470e+01 -3.053693556975079e+00 -2.445902494506358e-16
 6.484369668035275e+00  6.485540590092019e+00 -1.820336665382249e-16
-2.167153276133192e+01  3.232154201856167e+00  3.524615659569734e-16
 6.089259319730606e+00  2.779742444907015e-01 -1.112217175163350e-16
 2.295651141910245e+01 -1.920171006058896e+00 -3.888094446773842e-16
-6.034860168954812e+00 -7.382463330658079e-01  1.149827482466131e-16
-8.815357492555941e+00  2.588530281044946e-01  1.542201810879337e-16
-1.745782101960184e+00  6.369758147745742e-02  3.041380545152184e-17
 7.832782691697466e+00 -2.298826624939230e-01 -1.370317504395503e-16
 1.341376418637749e+01  5.039545424392864e-01 -2.438918840494855e-16
-2.017769080008785e+01 -2.203320631387233e+00  3.817243956877284e-16
-1.503737350784281e+01  5.084958400227693e-01  2.623833887717477e-16
 2.273168607027968e+01 -4.728142053549480e+00 -3.559575269427981e-16
 2.001677598556771e+01  5.682609365152469e+00 -4.146091524331341e-16
-1.945946530904550e+01  6.967906321049669e-01  3.391451266489846e-16
 4.651318743098663e+00 -7.357886835417070e-02 -8.201976917992222e-17
-1.094406267374702e+01 -1.131684659853802e+00  2.063902985923921e-16
 1.954470578792210e+00 -8.958544621851364e-02 -3.386167735655279e-17
 3.297297805058771e+00  1.603862127868950e-01 -6.032725767249028e-17
 7.899238158412039e+00 -3.447926148067270e-01 -1.370337467136478e-16
-4.277786737132792e+00 -8.910683793860069e-01  8.528372168330240e-17
-1.405260313874049e+01  2.815459042058959e+00  2.211550169568217e-16
 3.871429702003963e+00  2.577740164539857e-01 -7.154524394309367e-17
-2.648540401872814e+00  1.564227757233329e-01  4.552674853711116e-17
 1.027921629196115e+01  7.483042426464881e-01 -1.906194696620135e-16
 1.039758981682834e+00 -1.524607253012004e-02 -1.834710349216468e-17
 3.356273098199257e+00  1.659679466784772e-01 -6.143414375199025e-17
-7.770498133468375e+00  1.880766638015009e-01  1.363528638730809e-16
 5.949405670903410e+00  6.310611218933256e-02 -1.065251630319512e-16
-1.230257692075632e+00 -2.604880730188759e-02  2.216154514892633e-17
 2.941965365751309e+00 -7.642678745699684e-02 -5.157052550578538e-17
-4.914359653662938e+00 -1.943018897385938e-01  8.945327340859444e-17
 4.588798633925598e+00 -1.376741049116767e-01 -8.024859399494662e-17
-8.935155683949855e-01 -1.794203826701683e-01  1.774465475764328e-17
-1.050637329361491e+00  8.368531207475209e-02  1.783750834272101e-17
-5.441074763514511e+00 -5.341609712345285e-01  1.023187256991986e-16
 2.441219632873315e+01 -1.621799831196891e+01 -2.678101125349072e-16
-5.262754823845418e-01 -3.263937024824543e-04  9.369053557685296e-18
-5.877364649190549e+00  6.718083715376956e-01  9.769212775837929e-17
 9.039179389011938e+00  1.307269431610460e+00 -1.742946980557391e-16
-2.372868141950965e+01  3.901957397230008e+00  3.821889957037680e-16
 7.519439782475688e-02  3.290281041292129e-02 -1.676238428165422e-18
-9.176400042507350e+00  4.029184956354024e-01  1.591651436476139e-16
 1.710770878540945e+00  2.608915094082566e-02 -3.071326502213700e-17
-1.372241371235800e+01 -1.021252248023813e-03  2.442172136714160e-16
-2.008515579302226e+00  2.218677415889370e-02  3.551596953955065e-17
 9.499187842685106e-01 -9.829687849838321e-03 -1.680394140095393e-17
 3.172565360685870e+00  5.824882419799468e-03 -5.651943349958343e-17
-4.810665287802663e+00 -1.271067321470012e-01  8.691750263620838e-17
-6.756391724951372e+00  1.682781697317288e-02  1.200651503494697e-16
-5.519094227340047e-01  3.811386510387345e-02  9.430280400148715e-18
 1.200126938792878e+01  2.168406707617789e-01 -2.158048634919210e-16
 5.819846709041392e+00 -6.068802319574181e-02 -1.029475669658196e-16
-4.862654738188273e+00 -2.042699793620175e-01  8.863554128331860e-17
-9.890526014256384e+00  7.272594462336163e-01  1.685413816400262e-16
 1.093459057207922e+01 -1.344523036059288e-01 -1.932126338953882e-16
 2.275650700788411e+01 -9.332445958871575e-01 -3.953904379926057e-16
-9.077406561296568e+00 -7.909415066787192e-01  1.696699143384783e-16
-2.893153628879076e+00  5.962844851905118e-01  4.536051342981206e-17
 9.646059797838264e+00  4.966113398901079e-01 -1.767656414518142e-16
-7.663060158925870e+00 -6.921445394183386e-02  1.370844497340826e-16
-1.424200690312911e+01  4.526972326128231e-01  2.488022016844674e-16
-3.660433491508269e+00  1.059065360024400e-01  6.405362911841043e-17
-1.018868285879263e+01  6.393827344628147e-01  1.747503395682360e-16
 2.769608681327377e+01 -3.457464907183135e+00 -4.573607060063714e-16
-2.458169420098350e+00 -3.272425363465692e-01  4.710835524040154e-17
-1.967650661556241e+01 -7.479990669501815e-01  3.578523248973088e-16
 1.225175223847350e+01  2.220220647760473e+01 -4.461541516378857e-16
 7.457089816004880e+00  2.708004788637175e+00 -1.605315738714306e-16
-3.047223373097741e+01  6.762744956442082e+00  4.728050001343968e-16
-5.256879092791228e+00 -3.555383406372932e-01  9.720546137711853e-17
 5.321307266251676e+00 -1.024851000578281e+00 -8.416903853802415e-17
 1.683799665477890e+01  6.392668307265515e+00 -3.653345800856322e-16
 1.633258774463203e+00 -3.588042177213899e-02 -2.869712980688388e-17
 5.923939110753215e+00  1.155351093572039e+00 -1.172943755845964e-16
 1.750231226824247e+01 -2.759995361101935e+00 -2.831165746193385e-16
-1.027003967025467e+01 -3.781932296392733e+00  2.216255869796120e-16
 1.853184309167193e+00 -5.456557071405265e-01 -2.737321115941778e-17
-9.541869596005213e+00 -3.603831560950352e+00  2.068370115384579e-16
-5.236315551790548e+00  1.678465527356703e+00  7.594085776184507e-17
-1.356326513415383e+01 -2.083791901525681e+00  2.627846867167037e-16
-2.657900007600971e+01  3.052273491736244e+00  4.416440096076917e-16
-1.802450070130336e+01  3.028703645896474e+00  2.896486606623741e-16
-2.821433651113712e+01  7.056101342443462e+00  4.296088954814909e-16
 1.743975704417392e+01 -2.136383681671435e+01 -9.085561707950492e-17
 1.413255317234316e+01  1.179337001820143e+01 -3.726782343654176e-16
-2.041531783175348e+01  2.458480661612015e+00  3.380549373864120e-16
 5.952005389395908e+00 -6.272363158920459e-02 -1.052785731828441e-16
 2.616379447256211e+01 -2.606132474075110e+00 -4.388388675044113e-16
 5.452532382078024e+00  1.498168188844956e+01 -2.509656567846642e-16
-2.260264051423614e+01  3.809017184363142e-01  3.983273225675434e-16
-1.020100465254994e+01 -8.515463656659468e-01  1.902883755557379e-16
-2.490376017063065e+01  3.144258753286532e+00  4.108860020394845e-16
 1.357813783920231e+01 -1.137556927959984e+00 -2.299511752583470e-16
 3.065617215733401e+01  2.999277377716967e+00 -5.763796369504157e-16
 2.588285258065083e+00  9.218638687424456e-02 -4.700880522066556e-17
-3.742302093215784e+00 -2.672523388613822e-01  6.934465042612297e-17
-1.948778106724769e+01  2.886274243160638e-02  3.465117557649062e-16
 6.014934864013181e+00 -2.827428346265589e-01 -1.041378608869579e-16
 4.152910046707166e+00  1.037713540586386e-01 -7.497220102258557e-17
 5.105376927950825e+00 -9.908962239356038e-02 -8.983816253447362e-17
-6.178165382362685e+00 -3.757243763581002e-01  1.138082540348540e-16
 1.874834272078234e+00 -5.823360670681126e-02 -3.276658310059427e-17
 2.074226021187342e+01  2.831716840321779e+00 -3.982281245792874e-16
-7.601473569717524e-01  2.859669926811385e-02  1.323390825995475e-17
-1.502323894387367e+01 -1.009881308557456e+00  2.777326209607317e-16
 1.331375200233274e+01 -1.970268319617875e+01 -3.449618551987769e-17
 1.678582554386005e+01  1.694241681284179e+00 -3.161315062202680e-16
-2.390895997429887e+00  6.145380759871349e-02  4.191743065325064e-17
-1.194772982054935e+01 -8.995661072953665e-01  2.218668188792656e-16
 8.187822511215588e+00 -6.220654099833803e-01 -1.393205722755409e-16
 7.041675145416448e+00  3.937970772410115e-01 -1.293611307444698e-16
-1.966975530631729e+01 -5.827248387363847e-01  3.560340446614649e-16
 2.752950609779675e+01 -6.399642275900785e+00 -4.241663998516255e-16
 9.719988906987645e+00 -3.350952639718045e-01 -1.695358149160151e-16
 2.665197057527993e+01  1.572253272151125e+00 -4.904579392315982e-16
-1.254333103011109e+01  2.985586386117096e+01 -8.353461753234907e-17
-5.375227358446359e+00  2.013759984784957e+00  7.496793034482798e-17
 8.442093796028953e+00  7.179543172904762e-01 -1.576138490040778e-16
 1.807942031759798e+01 -3.403121797390566e+00 -2.867790102544720e-16
-4.668861909953984e+00 -2.606980229231567e+00  1.098737417259328e-16
-1.571075757661687e+01  1.541678154229349e+01  1.211898416710609e-16
 2.565416644442384e+01  8.834017022303406e+00 -5.473128090374689e-16
-1.236170537789201e+01 -2.429119465244567e-01  2.224871247831103e-16
-6.408139791031947e+00 -4.628139948300729e-02  1.145160160236938e-16
 1.261772790724164e+01 -4.149117590198197e-01 -2.202844514825547e-16
-3.331875624326297e+00 -2.825918411702955e+00  8.832998625277274e-17
-1.389997305396098e+01  3.117296620438791e+00  2.153375106548993e-16
-6.238906526999293e+00 -1.045283704275120e+00  1.217686940568213e-16
-3.893189933722427e+00  7.155123209261700e-01  6.193232966262677e-17
-2.824323844338909e+01 -1.387102523577836e+01  6.451418632141246e-16
 1.630420119586591e+01 -1.791100590538104e+01 -1.061236295135101e-16
 9.411326194380651e+00  8.789767239310606e+00 -2.577974411755359e-16
-2.236112206902025e+01  1.343917128534274e+01  2.598602376269852e-16
-1.160523217131877e+01 -5.005664962268727e+00  2.579603387791449e-16
-1.195211181088833e+01  4.242171454177785e+00  1.691153160654633e-16
-7.278006710228499e+00 -3.810667282099083e+00  1.686740329704829e-16
 2.732617585824385e+00 -1.113720278610583e+00 -3.718711831430048e-17
 2.311113145265690e+01  4.355240867794762e+00 -4.560386699407256e-16
 8.788833191653774e+00 -2.854338936399038e-01 -1.534750407748853e-16
-1.487486700107764e+01 -2.368043935485608e+00  2.890467928621437e-16
-2.015505286837688e+01  6.659220159838934e+00  2.902621395740357e-16
 2.445253741561349e+01  5.799226584585869e+00 -4.947470178165181e-16
 1.202679074599566e+01 -1.619071262524375e+00 -1.973957183457820e-16
 2.251522179099709e+00  7.417330294895575e-01 -4.768956030058682e-17
-3.051834582468627e+00  4.037922427108051e-01  5.016221814901010e-17
 1.949862381464845e+01  1.480698376802339e+01 -4.991376488075682e-16
-8.318689175481374e+00  2.244255518967668e+00  1.249820865244796e-16
 1.435785299788374e+01  6.515959703150901e+00 -3.224642396123652e-16
-2.264369082950094e+01  3.359889015424804e+00  3.684498496014655e-16
 2.888285069973084e+01 -9.078378771768579e+00 -4.207277369402163e-16
 2.363600087245673e+01  6.602071848539879e+00 -4.884647194673127e-16
-2.505707546936253e+01 -5.593282758434071e+00  5.033894956001654e-16
-1.729752137906672e+01  5.511693733458643e-02  3.072637196614710e-16
 1.109500180105846e+00 -1.108521240425323e-01 -1.860591385993898e-17
-1.276287602213053e+01 -5.263459106406428e-01  2.325386159549105e-16
 1.809170495034046e+01 -3.628465727859203e+00 -2.846823029481348e-16
 1.920225185386376e+00  6.743219582800875e-01 -4.110111085055201e-17
-1.650097152780327e+01  3.248847011248707e+00  2.602737485914565e-16
 1.069552232247795e+01  1.488482475015465e+00 -2.056331945252255e-16
 3.046792255913148e+01 -1.642727552954286e+00 -5.253345965464810e-16
-2.837613827530391e+01 -1.195700648544502e+01  6.278411269031028e-16
 7.411420354083630e+00 -7.075755408482074e+00 -5.919424945513136e-17
 2.818267820350751e+01  8.854186338432399e+00 -5.925179243000945e-16
-2.747473375700596e+01 -6.398801122029242e+00  5.546910172818119e-16
-1.787759085935600e+01  4.490483374018749e-01  3.135392460089779e-16
-6.555658770992729e+00 -2.523375002289848e-01  1.192584438478173e-16
-3.113268245961072e+01  6.934754160695050e+00  4.827911409725504e-16
 2.642296323258712e+01 -1.509181671482574e+00 -4.547218557520647e-16
 2.301615235080379e+00  7.923802464236376e-02 -4.177413049737518e-17
-1.200529626092573e+00  5.605466944599041e-02  2.078891537227188e-17
 1.154419061081920e+01 -2.939304056190235e-01 -2.024226141873355e-16
 2.546510177162491e+01  2.661472253792043e-01 -4.559164279525755e-16
-1.609127102633799e+01 -2.924943554585620e+00  3.164160947518819e-16
-2.483851378123233e-01 -1.557000605876479e+01  1.643964659227103e-16
 3.141252353790313e+01 -1.663283958309158e+00 -5.419336881241407e-16
-8.468686822246754e+00 -5.372622401030820e-01  1.562305581618740e-16
-2.407424153407768e+00  1.923076261887571e-02  4.264539538324003e-17
-1.123277574418672e+00  1.062937115065184e-02  1.988085137430946e-17
 1.136828084524762e+00 -1.786451039407760e-02 -2.004766046711144e-17
 1.468344495654133e+00 -9.964913490967651e-03 -2.602855594004585e-17
-1.940098853873335e+01 -9.968504821325362e-01  3.555060099170121e-16
 4.592053557556896e+00 -2.912743442917132e-01 -7.872833257876659e-17
 2.540221122812212e+00  8.121243935734919e-02 -4.604069327788820e-17
-9.400610070509747e-01  1.921008969245135e-02  1.653213026807713e-17
-1.586598293267631e+00 -4.398909181602228e-02  2.868738113312519e-17
 3.672647430485981e-01 -1.609652214250361e-02 -6.370528273984063e-18
 9.321811956088550e-01  1.262511054338808e-02 -1.671899473869060e-17
-2.732991059100465e+00  1.340260766919552e-01  4.725976661130673e-17
 6.448450007950578e-01  6.858675142296703e-03 -1.154625638702245e-17
-3.447596626325349e+00  1.729361748381806e-01  5.957723789465235e-17
 7.962359318856728e-01  5.752496057541926e-03 -1.422907300139170e-17
-1.000752020280241e+00  6.630477676484281e-03  1.774145019177601e-17
-5.267330625489532e+00  4.192225925405664e-02  9.330769370036056e-17
 4.435652476385166e+00 -1.714038762129203e-01 -7.717661428983171e-17
-1.325880271454928e+00  8.263684476434986e-03  2.351071465443877e-17
 1.928483269108156e+00  3.829161498885685e-03 -3.435900339517742e-17
-6.171619649038291e+00 -1.200991945833055e-01  1.110653090333571e-16
-2.898936277600113e+00  1.225897779390398e-01  5.033046361599635e-17
 2.499169240981342e+00 -1.660023411979238e-02 -4.430513637704575e-17
-1.188989622489131e-03 -2.955738466049737e-04  2.419639397400415e-20
-1.457612853097759e+00  1.422551804584316e-02  2.579379739414308e-17
 2.760737305260991e+00 -2.136774237860710e-02 -4.891106768523703e-17
 2.699851391175768e-01  3.782095057029073e-03 -4.843567250356080e-18
-3.325140905552711e+00  1.273864802563017e-02  5.904396380507697e-17
-2.545577440521840e+00  1.483662774366225e-01  4.377717737993464e-17
 7.516838127176875e+00 -1.148736681035989e-02 -1.336530723612534e-16
 2.136938240321830e+00  2.677344989289373e-02 -3.830445249051688e-17
-2.597896623572305e+00 -3.020146649581200e-02  4.654297839665936e-17
-1.795509614707711e+00  1.459924570748592e-02  3.180323342514910e-17
 9.448903572509866e-01  6.307926680590499e-04 -1.682193217825183e-17
 1.160742498269150e+00  3.552148180353943e-03 -2.069329437107510e-17
 2.753007825645526e+00  2.335317691152038e-02 -4.923300357386585e-17
 1.277578881806741e+00  1.684942902953937e-02 -2.290916191964122e-17
 8.973820247961254e-01  1.223323476687091e-02 -1.609567561081191e-17
 8.607133770772977e-01  1.276237706867817e-02 -1.544855003362782e-17
-1.204891523801102e+01 -4.011072476064531e-01  2.185460504135953e-16
-4.147846711373581e-02  2.037534505747698e-02  5.288095279976461e-19
 1.125781740571294e+01 -9.371029292090800e-02 -1.993834503284404e-16
 1.366408147050422e+01  1.109251426423224e+00 -2.545657843409438e-16
-1.200284734124384e+01 -8.396249724783788e-01  2.222318275299223e-16
-1.057345653440961e+01  4.111932529382285e-01  1.839424102067483e-16
 1.569400799800912e+01 -3.997087070729887e-01 -2.751867310516221e-16
 1.283480662864296e+01  2.367462120983191e+00 -2.527355071302304e-16
-2.230649080640129e+01 -1.232974719292186e+00  4.096389793839894e-16
-1.819937126389193e+01  2.679053924261962e+00  2.963532147894913e-16
 2.449674116791727e+01 -3.175745557563455e+00 -4.033190979066022e-16
 2.777988313592778e+01  8.803874941386162e+00 -5.848327742811992e-16
-1.227406832001734e+01 -5.520497080151489e-01  2.241037969992796e-16
 7.558812819410414e+00 -7.702757022054091e-01 -1.266037875863316e-16
 1.224362692902660e+01  3.702816347494820e+00 -2.559350388299599e-16
-1.570150271400276e+01  1.927271562570369e-01  2.774467687009166e-16
-1.280716612694022e+01  7.436279589715061e-02  2.271547474696405e-16
-3.140192440503409e+01  6.182829646766531e-01  5.524820695120269e-16
 8.284524028003938e-01 -6.621336954919894e+00  5.328853324111457e-17
-1.111640150195585e+01 -7.866809549782336e+00  2.786582352634823e-16
-3.036666872465566e+01  3.162073279201883e+00  5.079219383703381e-16
 4.294759559463152e+00 -9.110214421865612e-02 -7.549432789241809e-17
 6.838340661894700e+00 -9.508936679540499e-02 -1.207194204464640e-16
 1.190838657085209e+00  1.805039060412557e-02 -2.137785559197362e-17
-1.779016904827850e+01  1.693158018523566e+00  2.992006955571161e-16
-2.302896900545425e+00 -6.800514526788241e-02  4.168152550368577e-17
 4.688026094152457e+00 -3.656865047793940e-01 -7.967172043224140e-17
-1.462006308607970e+00 -9.166206113472723e-02  2.695994058760905e-17
 4.418199787517423e-01 -1.216502509092122e-01 -6.612801539565273e-18
-7.485820928435759e-01 -3.418817161721070e-02  1.367318233083470e-17
 3.315031028515131e+00 -1.831770446740850e-01 -5.711285387351947e-17
-7.316875102162949e+00 -1.460806012187346e+00  1.452217714419998e-16
-4.075893622419082e+00  6.200067209534738e-01  6.616504509332484e-17
 6.661727842774275e+00  4.527630266327107e-01 -1.232053689713674e-16
 2.570996577125123e+01 -4.634889201511300e+00 -4.099177061021894e-16
-1.174793369108079e+01 -2.133939466902305e+00  2.309939462996915e-16
-9.843059408099153e+00  4.746519307414094e+00  1.264002218839360e-16
 7.489015602955216e+00  1.750436005717094e+00 -1.512610599521421e-16
-4.542522432300101e+00  1.753770370771007e+00  6.282025168924891e-17
-1.047221488409463e+00 -2.903242206899482e-01  2.161953144219828e-17
 2.062141394453199e+01 -8.702637005052930e+00 -2.775662254449981e-16
-7.334888665789013e+00 -2.559516769246095e+01  3.935141432519397e-16
-1.715602864375558e+01  3.597234431614807e+00  2.683517171539612e-16
 1.708438298175517e+01  2.517519693216319e+00 -3.299035744085252e-16
 5.105082118894898e+00 -3.435181149216246e-01 -8.732150202722227e-17
 1.066048788997792e+01  1.763603880197908e+00 -2.078364875617383e-16
-8.081344266799052e+00  8.829583351687628e-02  1.429099533899422e-16
 4.620225722308719e+00  3.343510436283508e-02 -8.256596148452895e-17
 3.613724276057698e+00  3.853021225965686e-02 -6.470641803234400e-17
 5.818126818738733e+00  7.723392242218902e-02 -1.043340573567252e-16
-9.959239581865328e+00 -1.272201150047321e+00  1.903079528566932e-16
 3.001546418243999e-01  2.302179262139676e-02 -5.578150435769156e-18
 7.645323078206427e+00  5.475476097287163e-01 -1.416834966301769e-16
 3.468028372605624e+00 -1.243864029808921e-01 -6.043967672792321e-17
-5.827155911283992e+00 -4.648044024335188e-01  1.084768867031684e-16
 2.203832824496911e+00 -2.794645989772337e-01 -3.634843670545809e-17
 1.107371064496937e+01  2.037046438621438e+00 -2.179998022953656e-16
-2.797814713580898e+00  3.009212363729849e-01  4.669859382207162e-17
 1.768709470378191e+00  4.238081411972264e-02 -3.191174228102378e-17
 2.354497780469998e+01 -3.410874635728530e+00 -3.839654677049178e-16
-1.448477632216067e+01 -3.549324565648034e+00  2.942418932714273e-16
-6.879682887164201e+00  7.678303339808534e-01  1.145429856090668e-16
 2.109749253294874e+01  9.521613207629731e-01 -3.852381572096450e-16
 5.467677727684851e+00  3.321349247939987e-02 -9.764510384553931e-17
-3.850245064371021e+00 -2.597593724026964e-01  7.118863684523666e-17
-6.219929969916157e+00  8.699092731040026e-01  1.017530713708140e-16
 5.239443249556476e+00  1.152439772224235e-01 -9.442623246420735e-17
 2.375517935586970e-01  2.758568526686324e-02 -4.510950433361959e-18
 2.579067123384213e+01  2.442105543896982e-01 -4.614849336295322e-16
-1.242920572200015e+01 -1.556454545405801e+00  2.371845469491510e-16
-1.053303126546985e+01  1.570910526989626e-01  1.858338021273204e-16
-1.299426987443064e+01  1.575826075542330e+00  2.150574921021240e-16
 1.275040410843676e+01 -5.949067505649954e-01 -2.207961995931771e-16
 2.390139549966138e+01 -1.842923462187792e+00 -4.064184744509966e-16
 2.138311713046912e+00  7.905214218771572e-01 -4.617612803848557e-17
-1.667196070497412e+01  3.233292447943914e+00  2.634765224387587e-16
 1.130197306710657e+01  8.798203053565062e-01 -2.101719262345856e-16
 3.073295583280861e+01 -4.589917272417806e+00 -4.997698760721802e-16
-1.671769130778230e+01 -5.105016613323461e+00  3.499634496027892e-16
-2.470842612878035e+01  1.059687219742592e+01  3.308369039721361e-16
 2.562904099925195e+01  2.280535605194125e+00 -4.795310308982573e-16
 4.254900493950651e-01  5.226165452829377e-02 -8.109072554175320e-18
 1.308639005127029e+01 -9.462922631179140e-02 -2.319156400545033e-16
 2.919746849859854e+01  2.105873483608176e+00 -5.412408650182732e-16
-1.255756117234312e+01 -1.079882132733570e+00  2.345721768736011e-16
-4.658449467679481e+00  1.145555862385615e-01  8.172564804047585e-17
 6.155610079997096e+00 -4.188002726796476e-01 -1.052434034740995e-16
 8.708847200644353e+00 -3.599859053648537e-02 -1.546144517768302e-16
 1.529487830743286e+01 -8.467788388007499e-02 -2.713205693711197e-16
-2.062007108619525e+01 -3.798747946584537e+00  4.059895166261479e-16
 4.756731063932352e+00 -4.772955344406127e-01 -7.974766508718401e-17
 3.539517044350798e+00  3.460027672444064e-01 -6.654498063349657e-17
 5.641780273064776e+00 -9.658266832586675e-01 -9.047869138830571e-17
 3.367547843191121e+00  4.551840806102843e-01 -6.460638191229878e-17
 8.899316783346476e+00 -9.788299144172495e-01 -1.483168358490226e-16
 9.339233790707686e+00  3.173735281356081e+00 -1.988117826355085e-16
-1.102232664987446e+01  2.354317652207317e+00  1.719656920317707e-16
 7.126287475915790e+00  3.927968471465430e-01 -1.308566310842714e-16
-1.063110010600548e+01  9.495396168165627e-01  1.794369329994418e-16
 5.433345757381670e+00  3.488330443056318e-02 -9.705128216046316e-17
 7.551862652670820e+00 -1.674630285138120e-01 -1.326737822902428e-16
-6.651389935040233e-01 -1.328509621197667e-01  1.320193715269787e-17
-5.265893262604290e+00  1.147032490048591e-01  9.253431777212328e-17
 1.592482357015262e+01 -1.042972547052277e+00 -2.726850672046466e-16
 1.337517087307251e+01  2.222544930733798e+00 -2.608629619578115e-16
-1.884158037979705e+01  5.767939736221335e-01  3.293820493731664e-16
 3.942355497032167e+00 -1.620405653294292e-01 -6.849401071952169e-17
 2.832396831235393e+01 -5.071655875798493e-01 -4.988478599937720e-16
 1.017385821069965e+01  9.658410725836885e-01 -1.909796088316749e-16
-1.764011392805055e+01 -1.867504444851637e+00  3.331147989990835e-16
-1.657758341965575e+01  8.019502237116436e+00  2.126203992203980e-16
 1.389126012327121e+01  9.583658877729873e-01 -2.570584053393864e-16
 1.632857229768333e+01 -2.758176938309983e+00 -2.622471553814574e-16
 1.347063220861248e+01  6.074291048458963e+00 -3.021371023314738e-16
 2.988428585442111e+00 -2.393149857628618e-01 -5.072377687286230e-17
-1.810061425888231e+01 -7.628348549322733e+00  4.005005321216554e-16
-2.061780372014884e+01  9.964475080646494e+00  2.645370493607599e-16
 2.804188381256433e+01  1.215858035868566e+00 -5.115312716504517e-16
 1.109287244442242e+01 -1.258928691053510e-01 -1.961173937382170e-16
-3.666187868492979e+00 -7.424355741081067e-01  7.287244208997762e-17
-1.300341297507658e+01  1.003846330638458e+00  2.210970885586143e-16
-7.175790684529877e-01 -9.619806136841654e-03  1.286901549819690e-17
 5.917154502224212e+00 -5.673997864289132e-01 -9.947299601778735e-17
 4.799720741015342e+00  1.336258934372493e-01 -8.678971341090801e-17
 8.090436493710194e-01 -1.639005383052307e-02 -1.422949500029600e-17
-7.718201615281772e+00 -4.328237632345032e-01  1.418017112837660e-16
 4.241455300434559e+00 -2.167943225594451e-01 -7.325427358869363e-17
 3.802512565988933e+00  2.850817602874218e-01 -7.059935845032129e-17
-1.024854270153881e+00  9.067912208916382e-02  1.730680918948212e-17
-1.079350179055499e+00 -7.511099537868703e-02  1.998006213067861e-17
 2.373464298710846e-01 -1.246777769737530e-02 -4.095760935832748e-18
 2.534605964156999e+00  2.713061152479050e-01 -4.789390821994836e-17
 1.048536104709619e+00 -5.604927700897167e-02 -1.808406476980782e-17
-5.021003416703016e+00 -4.633101957967546e-01  9.411508903528705e-17
 3.757195611669873e-01 -3.365186727893409e-02 -6.340617055528629e-18
-1.930408885674137e+00 -4.916088308653558e-02  3.485903900995851e-17
 6.268904289389974e+00 -9.477057100874218e-01 -1.018252977986400e-16
-7.115522804130612e+00 -7.725959621573576e-01  1.345673588525427e-16
 2.518052241247727e-01 -2.519909067978237e-01 -1.892059300464893e-18
-1.678213217940931e+01 -7.609515315389700e+00  3.768430660500918e-16
-1.396093102085427e+01  2.497767620395848e+00  2.227877656695730e-16
 1.137732987605715e+01  3.302648806369213e-01 -2.058665081875139e-16
 5.622722976743258e+00  1.202278116517065e-01 -1.012983594867142e-16
 3.148146896814032e+00  3.126686372779621e-01 -5.923758593873963e-17
-1.730377539461173e+01 -1.318302669855812e+00  3.214864048678573e-16
-3.019058492519866e+01  1.933436686518557e+00  5.174121117949292e-16
-2.502850442887238e+01  4.833225705024057e+00  3.957524530462418e-16
-1.165876501849023e+01  5.203793696170842e+00  1.540145407294243e-16
 2.654831495263269e+01 -1.848095131364640e+01 -2.825738714009985e-16
-2.763062281969157e+00 -8.063307831097033e+00  1.320195480027971e-16
-3.054282866776625e+01  5.764808770709034e+00  4.843147530190034e-16
 2.860951867904026e+01 -6.796212096999832e+00 -4.393119011353493e-16
 1.919175183483594e+01  1.792510298653428e+01 -5.257140381541476e-16
-2.980322566892441e+01 -7.827503392918105e+00  6.108087052055975e-16
-2.911868473031870e+01  1.067081498989509e+01  4.085629811817669e-16
 2.096371977399235e+01 -2.169577101621530e+01 -1.501582340715917e-16
 2.238392927490518e+01  3.955520154296452e+00 -4.389902546244206e-16
-7.314874972193585e+00  2.328379220769063e+00  1.062536749566392e-16
 1.067438898400599e+01  3.533741168434925e-01 -1.935942755151824e-16
-1.592140877001036e+00  1.485612187579322e-01  2.680763352419113e-17
-1.807702416084395e+01 -1.134865064020846e+00  3.333625342670038e-16
 5.664174973965768e+00 -4.941692263407550e-01 -9.572334085849633e-17
 1.466406595034006e+01  1.127177647031033e-01 -2.621226795960114e-16
-1.822537995707786e+01 -2.164452787426839e+00  3.465813424627286e-16
-1.755259245547180e+01  3.595759216447265e+00  2.754242005212410e-16
 1.403485392359187e+01 -1.335944540458248e+00 -2.360406221062813e-16
 2.139847157939597e+00  5.007120316734011e-02 -3.859559604488604e-17
-8.402785306033987e+00  3.557768261034164e-01  1.458821100822285e-16
 1.652558785359260e+00  1.076307992467629e-02 -2.951984156702141e-17
 5.800419133939942e+00 -7.729600275823996e-01 -9.528349398991737e-17
 2.871970501709632e+01  1.530583123051141e+01 -6.683632646055914e-16
 3.329250364792400e+00  3.211427670377438e-01 -6.254760678614443e-17
-6.851027574696377e-01  6.244392056415498e-02  1.155063220140596e-17
 3.087530487928021e+00  1.735145262318351e-01 -5.672908669651985e-17
-2.054590420474153e+00 -2.544265990641089e-02  3.682530145994582e-17
-1.553253838900346e-04 -1.486027115995253e-03  1.803258927659604e-20
-2.841372290012395e+00 -2.287352940323746e-02  5.080062640560339e-17
 1.889427843650569e+00  2.974212722415003e-02 -3.393021183013261e-17
 3.448128427997617e+00  5.605600478000197e-02 -6.193951353720908e-17
-2.582300696427058e+01 -4.218087304503006e+00  5.028905265232858e-16
 1.964044545540486e+00 -1.163107804582314e-01 -3.375746446870860e-17
 1.437872605707726e+01 -2.990719226954628e+00 -2.251580281435181e-16
-3.440640916556010e+00  4.309043823449099e-01  5.680292326198816e-17
 1.547582492285224e+01 -1.643558676364473e+01 -1.065410813133956e-16
-6.627657205621453e-01  4.670847160555448e+00 -3.619655121558475e-17
 7.748613131800414e+00 -6.252666669808797e-01 -1.314714256996061e-16
-5.984845473873796e-01 -3.423994162318029e-01  1.416877603678704e-17
-1.551175680981980e-01  1.495401178715160e-01  1.224031766941307e-18
 1.049808726454668e+01 -9.346196008866073e-01 -1.772231085654274e-16
 6.161504588314686e+00 -3.569415407749393e-01 -1.059838791920942e-16
 9.358494741930318e+00  3.211628890742167e-01 -1.698454091677294e-16
-3.047797015671989e+01  2.028655524511272e+00  5.215481358186663e-16
-1.280230881286101e+00  2.524248280396558e+01 -2.365741052614689e-16
 2.228559687598760e+01  1.790849774680624e+00 -4.149991105007018e-16
 3.533720572155672e+00 -4.639090532047024e-02 -6.241012305620763e-17
-1.252837653079018e+01  2.928146742511888e-01  2.199488403473194e-16
-3.559215357908876e+00  6.931783794017139e-01  5.621832684130327e-17
 2.458996878820907e+01 -4.723825429377550e+00 -3.890722363072246e-16
-4.983402677691300e+00  1.714066703772791e+01 -8.742853203033501e-17
-7.044631674046200e+00  3.976684204897338e+00  8.450863819143850e-17
 1.549772582254873e+01  6.266979471502827e-01 -2.822396111129819e-16
 1.348130084731780e+01 -1.079460850689150e+00 -2.288247615504956e-16
 2.247019058001201e+00  3.591262991714719e-01 -4.367827672387214e-17
-1.695733999830410e+01  3.225809858851524e+00  2.686320682601075e-16
 6.166424284536292e+00  3.505850488519451e-01 -1.133410097392113e-16
 5.660243387388260e+00 -4.601853384143844e-01 -9.600254567059764e-17
 6.391275776903482e+00  4.061841931363714e-01 -1.179137712633092e-16
-4.747721539161537e+00  3.074897325024750e-01  8.133202280859653e-17
 6.765398512299935e+00  2.250013709856216e-01 -1.227101439292309e-16
 3.941591475276431e+00 -8.154797168971965e-02 -6.930744622343495e-17
 8.995097783815279e+00  2.176066214152901e-01 -1.623143237643124e-16
 9.401276723900496e+00  2.456714182702295e-01 -1.698311181896084e-16
-3.164789618726938e+00 -1.651043183425007e-01  5.801759325610166e-17
-8.942939467439604e+00  3.466662378392756e-01  1.555884056931339e-16
 1.880759817768938e+01 -5.908450730259756e-01 -3.286329256743146e-16
 3.393582954503267e+00  1.519773497551140e-01 -6.195436874702527e-17
-2.060283329638348e+00 -2.551870662539795e-02  3.692739487218671e-17
-4.804739983474489e+00 -3.784253054990983e-02  8.589489756381247e-17
-3.444097162967842e+00  2.510853083118348e-01  5.871200695203726e-17
 1.012377311408278e+01 -1.626280872278161e-01 -1.784936741206761e-16
 1.007616955082429e+01  1.221697112519560e+00 -1.918699504734991e-16
-6.410218829985564e+00 -8.655159018803188e-02  1.149667766156913e-16
-1.034407343767668e+01  1.676813941730881e-01  1.823622602684909e-16
 1.097236322603433e+01 -7.214579886153739e-01 -1.878535731679664e-16
 3.645860835434159e+00  1.585920946709354e-01 -6.651191866618140e-17
 2.897077666677401e+00 -7.564610143307718e-02 -5.077971662253082e-17
-1.061089708758536e+01 -1.914924988659256e+00  2.085087295229817e-16
 4.773674606893967e+00 -1.955029040980405e-01 -8.294451256178823e-17
 5.371446270707708e+00  3.082180495525569e-01 -9.875812218145903e-17
-1.252470919180352e+01  8.777555908477416e-02  2.219902780983852e-16
 1.844100382928687e+01 -8.674903649559549e-01 -3.192665119976056e-16
 1.017569751574413e+01  3.281044766655045e-01 -1.844598296108738e-16
-1.754352939040984e+01 -3.752159120093109e+00  3.507601040786518e-16
-3.052910562199960e+01  4.731217696751601e+00  4.946903078702132e-16
 2.457173359628239e+01 -8.807322258818076e+00 -3.467912728145056e-16
 1.897171531206829e+01  4.203296498648644e+00 -3.808116488424218e-16
 1.098824382698843e+00  1.046685885873542e-01 -2.063032234602013e-17
-4.242917604042592e+00 -7.134006472413950e-01  8.283771239161818e-17
 1.450284926314009e+01 -1.330712016289691e+01 -1.213696766976047e-16
 3.817333483259291e-01  4.479749464720824e+00 -5.282119866157553e-17
-7.672891657397131e+00  5.490121546266229e+00  8.013925511680819e-17
 1.803424623904798e+01  2.566709854985222e+00 -3.473129351982130e-16
-1.473640063061853e+01  1.060581918211011e+00  2.513547335061578e-16
-7.034761469646938e+00  6.066261897627944e-01  1.189591079903176e-16
-7.871147517813097e-01  5.508906699162330e-02  1.344162576099262e-17
 9.047293300526407e+00 -7.295058666217241e-01 -1.535119685123958e-16
 5.482785583779799e+00 -1.078083025697208e-01 -9.646501842119124e-17
 1.508504542590449e+01 -1.777373156249838e+00 -2.501945139375908e-16
 2.752114073255580e+01  4.815644822424055e+00 -5.392505288994132e-16
-2.251494706182127e+01 -6.651714091284836e+00  4.690242856686741e-16
-1.776206749739387e+01  2.458625471013881e+00  2.908356949109435e-16
-6.290464616519834e+00 -1.732250847303901e-01  1.137261462066592e-16
-1.420835460660278e+01  1.945208293616071e+00  2.328683099792642e-16
 3.051571567728482e+01 -5.339977652009136e+00 -4.881972304275433e-16
 3.294459773380518e+00  1.133965092525921e+00 -7.027992085805783e-17
-2.445500088422025e+01  5.060305788445915e+00  3.832131080346673e-16
-5.418270773833024e+00 -5.238306287619716e-01  1.018067609777202e-16
 1.985180227405862e+01 -6.283072727147973e+00 -2.887302117221322e-16
 1.332676090569487e+01  1.643073235756623e+00 -2.540475876712684e-16
-2.955692906342093e+00  1.070537699298553e-01  5.150014234420677e-17
-8.604556878145907e+00 -8.693609454521614e-01  1.620607214305031e-16
 2.065593450285182e-01 -4.564290763266210e-03 -3.629073509896799e-18
-9.946425504386409e-01 -5.029211754568506e-02  1.821758387162370e-17
-4.139846714899178e+00  2.954946892181793e-01  7.063740989083494e-17
 1.291452665363386e+00  1.411032983804293e-02 -2.312791919385135e-17
 1.732120956628599e+01 -1.714540976959982e+00 -2.906353000294184e-16
-1.303451197421870e+01 -3.712727088264990e+00  2.701116108126195e-16
-1.546280117552224e+01  2.403733926772900e+00  2.504814987291391e-16
 2.151564795296301e-01  1.012415686882148e-02 -3.932988220268026e-18
 1.396160742442339e+01 -1.984945818179019e+00 -2.280688609185833e-16
 9.873800659184729e+00  1.505942061360611e+00 -1.911890682401127e-16
-9.084883541087690e+00 -3.053627108640057e-01  1.648138303803319e-16
-7.141641301645233e+00 -2.795130272660946e-02  1.273812153013698e-16
-1.078412657292900e+01  2.446126867382005e-01  1.894030896382397e-16
-3.207878701657916e+00  5.476058043473940e-01  5.146157727350559e-17
 1.137586336522942e+01 -1.264112891006292e-01 -2.011482281304711e-16
 9.106409745838571e-01 -3.898172157898374e-02 -1.580541936593803e-17
 7.158010766435309e+00 -2.484323393689200e-01 -1.248327879499007e-16
 1.822890836147586e+01  5.575891264675645e-02 -3.249780710903016e-16
-4.621570217724718e+00 -3.240471672641385e+00  1.155410241067877e-16
-2.167154290294436e+01  3.961507098847637e+00  3.449679103618331e-16
 9.660730577854325e-01  2.108185708216380e-02 -1.740903085235516e-17
 1.645622565991138e+01 -2.385085378261069e+00 -2.683522794894428e-16
 6.745917577998999e+00  1.660238981720669e+00 -1.371100025139020e-16
-8.968343004499365e+00  3.987088632021845e-01  1.555057728638781e-16
 4.466103652002070e+00  2.052623886443262e-01 -8.158863832608635e-17
-1.519973474777163e+01 -3.305902544751518e-01  2.738941055073012e-16
-1.306951844151631e+01  2.078498595753619e+00  2.112318525115876e-16
 1.608024174586365e+01 -3.478351933839063e-01 -2.825932028209665e-16
 4.946188043374163e+00  3.009493186993558e-01 -9.111546118263005e-17
-2.501504046759609e+00 -8.672093115240034e-02  4.540827447781633e-17
-1.049127106435999e+01 -6.819279260950470e-03  1.867747486447695e-16
 1.419239808221200e+01 -1.881606139424616e+00 -2.332378336308464e-16
 1.640117134555764e+01  4.680757820772252e+00 -3.399714943437469e-16
-1.850655777094694e+01 -1.037941521043087e+00  3.400107430355434e-16
 5.252892369791217e+00 -2.849238206613112e+00 -6.420659807118320e-17
 2.411276703750226e+01 -3.531464963828423e-02 -4.287526069861891e-16
 9.107974966589986e-01 -5.412210686621150e-03 -1.615311938062828e-17
-7.163302921228183e-01 -3.912778072031721e-02  1.314997575523052e-17
-1.398477401094644e+01 -4.570762491990678e-01  2.535720275863275e-16
 1.228304286311321e+01 -4.256701951579111e+00 -1.748553332796252e-16
 1.690881582419263e+01  2.060238111278359e+00 -3.220807453293072e-16
-4.483404073074066e+00 -2.030336404620672e-01  8.187362037708924e-17
-1.770842210042841e+01 -1.044306608168210e+00  3.258723656806861e-16
-2.402735364601347e+01  6.642011772824313e+00  3.593511608746377e-16
 1.576328698449740e+01 -9.201622633983710e-01 -2.710721620310290e-16
 7.447892171191674e+00  9.870583517869632e-01 -1.426857913482278e-16
-1.067196889056424e+01 -2.222720504637525e-01  1.922041809664486e-16
-7.754550437141445e-01 -3.789891832338675e-02  1.418954511715320e-17
-8.900028964648460e+00 -2.265590018655655e-01  1.607144432021928e-16
-1.206938604372528e+01  1.141341726643647e+00  2.030622499084907e-16
-3.162665552156624e+01 -3.882720383606523e+00  6.027276021011025e-16
-1.131498701229225e+01  1.996858579523670e+01 -3.806274118151805e-18
 3.245341822642705e+01 -2.376280364609693e+00 -5.531318716668185e-16
 1.804721338650289e+01  1.442052488759905e+00 -3.359882551745302e-16
 6.889358925103391e+00  7.276058157518233e-01 -1.300802454453652e-16
-2.979300342139939e+01 -5.870897117633943e+00  5.905233694281470e-16
-1.085451772437326e+01 -1.661230677339069e-01  1.948759448153414e-16
-5.929694990536304e+00  3.761546924014801e-01  1.016611427541851e-16
-2.689105592702230e+01 -2.928978918226398e+00  5.086526115093795e-16
 2.184874455091720e+01 -5.792810495166865e+00 -3.293054479517063e-16
 8.569278253124681e+00  4.618875969116897e+00 -1.999578010012118e-16
-1.526759987182808e+01  1.676857454497620e+00  2.544760503871564e-16
 4.004220244037698e+00  2.593766474973712e-01 -7.392487644911467e-17
-2.977037554322288e-01  1.574547606993936e-02  5.136214391019971e-18
 1.727194937208138e+00  8.185829134222014e-03 -3.082160059893840e-17
-2.954402576807051e+00  5.536634046590107e-02  5.200824896612755e-17
 2.040599340529578e+00 -4.179612003287209e-02 -3.588545944645630e-17
 1.247409027035101e+00 -5.730039925464737e-03 -2.214025753788489e-17
-2.464822267539496e-01  2.690835497575023e-03  4.358797882441595e-18
-1.296160020285388e+01 -9.494408307392399e-02  2.316426527893474e-16
 3.536490447554895e+00 -1.674895877354260e-01 -6.121517132564763e-17
 4.828345609026912e+00  3.261756163550879e-02 -8.626130315764061e-17
-2.770472005254765e+01 -3.261896110403512e+00  5.265533383144460e-16
-1.760529591604076e+01  2.157919732371193e+00  2.911353998424399e-16
 2.029090662100455e+01 -2.218833821131599e+00 -3.383031757147291e-16
 1.784006402111896e+01  1.832611512597251e+00 -3.363146372052743e-16
-7.429436688860724e+00 -3.955209944055113e-01  1.362795225673359e-16
-8.925422186768142e+00  4.413647833080760e-01  1.543036716169766e-16
 6.228541301014385e-01  4.088192581318692e-02 -1.150447914270684e-17
 3.054191971590213e+00 -9.945383036655316e-02 -5.333113732580431e-17
 4.178083836224905e-01  2.781085367171386e-02 -7.721144976313033e-18
-2.378662497408937e+00  2.654947793814558e-02  4.205835027367149e-17
 7.515727336864631e+00  1.444613783137611e-01 -1.352356212589310e-16
 2.293399432474870e+01  3.480220186875052e-01 -4.117135854642804e-16
-2.570082165921195e+01 -7.629336386123439e+00  5.357654383324441e-16
-1.544985245731726e+01  1.440605240963264e+00  2.601468582030906e-16
 3.133572841254289e+00  5.651239667364599e-02 -5.634631091759918e-17
-2.548957916960671e+00  5.047579216032611e-02  4.484312621692161e-17
 1.368413807951648e+01 -6.669574637417535e-01 -2.366728145053087e-16
 7.965791235834587e+00  2.825269991567986e-01 -1.446636192647061e-16
-4.320064039343239e+00 -1.783069523325740e-01  7.871273190087577e-17
-9.332400319767958e+00  5.238343633644586e-02  1.655429749959160e-16
 3.044929841232890e+01 -9.240319056247006e-01 -5.323874945301057e-16
 1.213539909843986e-01  1.824387582108351e-02 -2.347088230382893e-18
-2.154546402643502e+01  4.875545085418699e+00  3.333327781047844e-16
-2.611722185815636e+01 -2.032903771492912e+00  4.856744644675150e-16
 1.630906268773381e+01 -1.756239580395750e-01 -2.884347523077273e-16
-2.122330436771482e+01 -6.307500582526520e+00  4.425012942263812e-16
-1.486966586217819e+01 -1.809394418975685e-01  2.664825282290047e-16
-1.744215824777691e+00  2.652787822243951e-02  3.076783686621913e-17
 5.453542710015349e+00 -2.324282995592346e-01 -9.466418140263129e-17
 6.901787974036153e+00  9.433736301121094e-01 -1.325183710973723e-16
 8.821126953433486e+00 -7.767751661216007e-01 -1.490013937322874e-16
-1.663068129784759e+00 -1.154354146052477e-01  3.078233809787278e-17
-2.640651030909192e+01  2.376300436997364e+00  4.455197260212853e-16
-2.109447030828937e+01 -3.199266351214533e-01  3.786883914680405e-16
 1.866721631857746e+01 -5.111809735063158e+00 -2.796833933943957e-16
 1.282156440177066e+01  2.036814804257953e+00 -2.491025648409548e-16
 2.520212860279018e+01 -4.916913109760651e+00 -3.979824446400193e-16
 5.940792476938817e+00  2.974424107341146e+01 -4.113347603528888e-16
 1.780481035398541e-01  1.003481890959373e+00 -1.347899028237198e-17
-3.820295843847944e+00 -3.227995435029202e+01  3.996515261136415e-16
-1.881270807342271e+01  1.073805204505433e+00  3.237616223745760e-16
 2.470047747573108e+01  4.477037611988778e-01 -4.441744539850225e-16
 7.916782809190762e-01 -1.358783726264686e-02 -1.394924926625959e-17
-2.322412085083993e+00 -1.465902041109324e-01  4.283625442283381e-17
-2.491771435430351e-01  1.698073077886124e-02  4.259933658743637e-18
 1.331909869807855e+01 -2.657984197901391e-01 -2.342982667340712e-16
 1.449351597248199e+00  4.573581127611601e-01 -3.049212898585364e-17
-1.329452314026801e+01  4.004476813937281e-02  2.361804521228673e-16
-3.543230194815152e+00 -1.601685152282132e-01  6.470168114330311e-17
-1.251700773515225e+01 -5.719588596628797e-01  2.286317529787986e-16
-1.586627046447103e+01 -6.899440025595968e-01  2.894481328732668e-16
-3.209207507684009e+01 -5.398113194089675e+00  6.265804088874589e-16
 1.556433544185672e+00  8.631249545264851e+00 -1.163815450873289e-16
-9.137560655143048e+00 -3.082369437855419e+00  1.942840177719467e-16
 1.055660245869405e+01  3.294556957353848e+00 -2.217177090618096e-16
 4.101510764141249e-01 -9.480410352958301e-01  2.441649591220944e-18
 2.679197729622302e+00 -2.018648411394014e+01  1.597292716362382e-16
 2.075975037395289e+01  1.939326741175736e+01 -5.687032986657735e-16
 2.831267307841591e+01  1.567296219591334e+01 -6.648917830306771e-16
 1.048921807801712e+01  1.129147657045924e+01 -3.026839675810561e-16
 6.184279618814892e-01  1.128132160858260e+00 -2.259681140397531e-17
-6.741010196493552e-02 -1.905885847225281e-01  3.157871641331111e-18
 2.120399202552523e+01 -6.094338046775399e+00 -3.147332215976060e-16
 1.200586218865801e+01  9.735022545852713e+00 -3.136824589644899e-16
 1.737659262581402e+00  7.633234266518771e-01 -3.876659024091268e-17
 1.212479598048563e+01  5.383264767878943e+00 -2.710862973624565e-16
-1.986419890508018e+01 -9.394661415091541e-01  3.631597877131778e-16
-8.550103021296025e+00  2.460137835934172e-02  1.519065119667970e-16
-1.337661971724224e+01  1.220591621024451e+00  2.255117686031559e-16
 2.194549464501728e+00 -5.373204396620668e-02 -3.850254824216224e-17
 2.559558969625862e+01 -1.727162293172232e-01 -4.537294536573832e-16
 4.736326449822243e+00  3.391290805467229e+00 -1.191328599982702e-16
-2.065035200678983e+01 -7.770943243404428e-02  3.682960827805123e-16
 7.685283063645970e+00 -4.226142911036543e-01 -1.324265711437083e-16
-2.827359843872168e+01 -1.592429341945223e+01  6.667787402899963e-16
-1.668825074921361e+01  8.319191645046065e-01  2.884396613420308e-16
 3.524044619134025e+00 -2.522577035726571e-01 -6.012272136598399e-17
 1.678794881034069e+01  1.924610993428143e-01 -3.007390423529274e-16
-1.230423616276271e+01 -8.721681606788666e-01  2.279297705574099e-16
-3.104910101074293e+01  1.336760785653412e+00  5.388210577283934e-16
-2.379193675827731e+01  1.125378106954898e+01  3.077773823505352e-16
 3.014012053047638e+01 -1.094528845582342e+01 -4.239205345052876e-16
 2.119846555055203e+01  1.209195032940134e+01 -5.014923778903174e-16
-2.500625928720676e+01 -1.105620102642523e+00  4.563760574773454e-16
-1.884523239902638e+01  1.749520098439974e+01  1.556165553410158e-16
 1.379983957226970e+01  7.961337952772318e-01 -2.537645917674690e-16
 3.476080552275799e+00 -2.800951727234286e-01 -5.898312370111910e-17
-2.178273884060237e+01 -3.310063781953847e+00  4.216595239645086e-16
 1.481044883033198e+01 -6.151766568042832e+00 -2.003624368009250e-16
 2.495651161912678e+01  7.130234996921636e+00 -5.173914678466425e-16
-3.155789874158959e+01 -4.453175993352445e-01  5.661859282997241e-16
-1.601426998629139e+01 -3.869103163743075e-01  2.889683998558842e-16
 1.108085004945714e+01 -1.892271128996590e+00 -1.777545459176139e-16
 2.029468955526063e+01  9.265973996814379e+00 -4.563727258385083e-16
-1.016731749100187e+01  1.157786844189689e+00  1.690437035084201e-16
 3.363857959836625e+00  4.480613531441006e-01 -6.446753252213881e-17
 3.758597430644520e+00 -2.519236979796653e-01 -6.430030021639287e-17
 3.547140459970511e+00  3.779179560525900e-01 -6.700856538629801e-17
 3.521138872408902e+00 -2.891567874880948e-01 -5.969188543687517e-17
-6.685380937961781e+00 -9.894798676376454e-01  1.291408745940159e-16
-3.450705339267861e+00  3.477237571876287e-01  5.783668239154351e-17
 7.046424067035862e+00  3.599478669353449e-01 -1.290978551248541e-16
 2.716828245073220e+00 -1.795185684397195e-01 -4.650471112871855e-17
-9.149714760893982e+00 -5.924314037988068e-01  1.689171058071329e-16
 1.024227241785534e+01 -2.765179915504716e+00 -1.538622359776188e-16
 4.582238641591566e+00  6.686255760320294e-01 -8.841628743188362e-17
 4.230790363740239e+00 -8.531047222998425e-01 -6.652662008867919e-17
 6.071167253044642e+00  1.549745489593886e+00 -1.239667351455462e-16
 4.626242968139644e+00 -2.466155571028852e-01 -7.979562673689524e-17
 1.810114718121412e+01  1.913180370352038e+00 -3.417887392126672e-16
-2.668118044202860e+01 -9.792046691243938e+00  5.754331550134890e-16
 2.099661940198325e+01 -1.667509642885145e+01 -2.023293297127081e-16
 2.574936690728752e+01  3.266790275559227e+00 -4.918057824217529e-16
-2.699861586176688e+01 -3.071299817459807e+00  5.120290642856445e-16
 1.851732307762765e+00 -2.516412801054063e-01 -3.036826250874030e-17
 2.848150964928423e+01  2.183169657289130e-01 -5.091055656983469e-16
 1.449471457659356e+01  1.202038983546320e+00 -2.703012497017635e-16
-3.824645787042525e-01 -2.674284700784466e-01  9.554143792159259e-18
 4.457699993370896e+00 -3.382985317838186e+00 -4.457114352022585e-17
 7.624580827634304e+00 -1.499917427061046e+01  1.842255613708900e-17
-1.824873332952350e+01  3.972610718036564e+00  2.839408454840219e-16
-1.345691838922432e+01 -6.240365529195968e-01  2.458936636167836e-16
 4.919036410021031e+00  1.633038663199676e+01 -2.553289108688400e-16
 3.028020405639103e+01 -4.462996191702315e+00 -4.930166861297985e-16
 1.148036572052554e+01  4.468534670704407e+00 -2.502193727241887e-16
-2.789818288412699e+01 -8.796513865788841e-01  5.055195410255870e-16
 9.751437028317248e+00 -4.947055934685234e+00 -1.227092512614179e-16
 2.621362899474292e+01  9.098595156834184e-01 -4.758512727077364e-16
-1.924289406155685e+01 -9.944869546926453e-01  3.526682457733234e-16
-2.403003954625375e+01  8.346684221718107e+00  3.418840695281822e-16
 3.177953636396329e+01 -6.574418602033152e+00 -4.980049947625166e-16
 9.850412796715615e+00  1.415689093868818e+01 -3.207567573166553e-16
 8.093718990794107e-01 -1.325371663046763e+00 -7.860260278920180e-19
-1.151733207635591e+01 -8.708746181651716e+00  2.944438660473599e-16
-6.373228934081412e+00  2.961558956064071e+01 -1.908702130930111e-16
 3.879004530358324e+00 -2.838825016237414e+01  2.226474451158111e-16
-8.475322101294275e+00 -1.430780471344151e+01  2.978359623279197e-16
 1.539598970544062e+01 -1.066583442378467e+01 -1.644024276979786e-16
 2.339568195326593e+00  1.038686270694545e+01 -1.483566478349968e-16
-1.945917379941032e+01  9.091901071537746e+00  2.528832288209920e-16
-2.654364493709162e+01 -1.246886479762324e+01  6.004888802599641e-16
-2.932681684760697e+01  1.088432539243747e+01  4.100731986539425e-16
 2.609629594370918e+01 -1.080480168489740e+01 -3.533993028718688e-16
 3.105948602230956e+01  3.875242309444745e+00 -5.925573098433692e-16
-2.813563793831887e+00 -2.669687776954955e-03  5.009815391890546e-17
 3.088950854190231e+01 -5.601964621783542e+00 -4.921574993866412e-16
 1.765395131432469e+01  3.309185307918084e+00 -3.481737989517136e-16
-8.249592860042180e-01  3.636746550830113e-01  1.094450955859713e-17
-9.490302851539846e+00 -2.024133632730096e+00  1.896884974022975e-16
 7.727814075923815e-01  7.694370244404578e-02 -1.454313554470463e-17
 4.681023499899400e+00  1.751609597273532e-01 -8.510411207767227e-17
-7.021825559498860e+00  3.103859024054493e-01  1.217726596856602e-16
 1.603782126060420e+00  3.662685421478867e-02 -2.891754361538077e-17
-7.587678764792562e-02 -8.850864405256903e-03  1.441257362938319e-18
-1.312814942148390e-01  6.751517941423524e-03  2.266941388082683e-18
-4.630747050491715e+00  7.041745585751827e-02  8.168615374024500e-17
 1.046978604012161e+01 -6.022208537062357e-01 -1.801347308679596e-16
 1.671559502399758e+00  5.870646616798141e-02 -3.035058284791572e-17
-4.816617060264814e+00  2.982500762653199e-01  8.265303484939466e-17
-2.384870699081162e+00 -1.123632648832337e-02  4.255706803952368e-17
-2.289439211638469e+00  2.878577568199074e-01  3.778566782884041e-17
 2.750323319768488e+00 -2.260608040355663e-02 -4.871301491618622e-17
 3.683479823417454e+00 -2.922223338064844e-01 -6.254943894788826e-17
-1.762975195766645e+00 -9.944890410252036e-02  3.239604792720993e-17
-9.829405078304106e-01  7.663547026720519e-01  9.618582673293427e-18
-9.599574181862697e-01 -8.423360589012703e-01  2.573828434385970e-17
 2.779522620499948e+00 -1.633126080004280e-01 -4.778694285056903e-17
 2.509612331476207e+01  2.071894110460720e+01 -6.594950433320406e-16
-4.963536022854171e-01 -2.124248765117965e-01  1.101579285644094e-17
-4.330172114752255e+00 -6.622936747057843e-01  8.386540479591889e-17
-1.130806869929379e+01 -1.943732667995311e+00  2.212117183110130e-16
 7.371940294204616e+00  8.748273646753681e-01 -1.401810044835996e-16
 1.102305012564068e+01  1.635364484433642e+00 -2.129711017476917e-16
-1.395750463661434e+01 -3.285988515897469e+00  2.821527824174089e-16
 1.097793550342181e+00 -2.792686861399675e+01  2.674018839658895e-16
 2.407803578305649e+01 -3.233092073298518e-01 -4.251754834159428e-16
 1.475696755194537e+01  4.173974213499489e+00 -3.055039090865549e-16
-1.744291411587560e+01 -2.341494309717090e+00  3.344754667860204e-16
-2.060253702149416e+01  3.294559576117287e+00  3.327963190680307e-16
 1.652250901662162e+01  1.484526516089268e-02 -2.941902864183508e-16
 1.498299111120904e+01  2.380075225725188e+00 -2.910946075148351e-16
 8.125001945708068e+00  1.035458208798197e+00 -1.552330584200271e-16
-4.703921162196250e+00 -3.582984785146631e-01  8.739327482703474e-17
-3.091530326021797e+01 -3.802482467568388e+00  5.892438246455799e-16
-1.300643064473765e+00 -2.779186666861155e+00  5.170162820339946e-17
 3.163699583283983e+01 -5.033793152973849e-01 -5.578460392186062e-16
 9.506261118680976e+00  8.902938556247613e-01 -1.783227020338739e-16
 1.335935162522095e+01  2.808203025713250e+00 -2.665988637500383e-16
-2.089509049048554e+01 -2.925015331042199e+00  4.019065297968522e-16
-2.494566093205157e+01  6.318119634598688e+00  3.790214084907632e-16
 2.842334437025850e+01 -1.190125049925800e+01 -3.835462921875100e-16
 1.727922333382370e+01  1.719096306281885e+01 -4.841352911133935e-16
-3.030665227788938e+01 -5.007278025397796e+00  5.907909910778873e-16
-1.128153680617189e+01  1.223846663045861e+01  7.502260581383656e-17
 3.021244369277670e+01 -1.232292282063644e+00 -5.250051186752248e-16
-1.655942354374542e+01 -1.383786977498719e+01  4.368737797911223e-16
-2.286179049083164e+01  1.011412058501303e+01  3.029339174716917e-16
 3.251765495130000e+01 -1.300785299009986e+00 -5.653253619081420e-16
 1.711564367969966e+01 -1.142797600035837e+00 -2.928514653569074e-16
 1.039044706537562e+01  1.993876294732047e+00 -2.053967543094656e-16
 1.013819429983180e+01 -4.367314589417949e+00 -1.355486899376188e-16
-1.025844903705903e+01 -3.995182438215055e+00  2.236103855392713e-16
-6.885301899125963e+00  1.652286514083211e+00  1.055555166924454e-16
 5.148337247860963e+00  5.302993213525954e-01 -9.706943537634467e-17
 4.253019935409101e+00 -6.146400074089038e-01 -6.937236007943310e-17
-4.757492796638655e-01 -4.765125144052509e-02  8.956125234967983e-18
-6.022064298988884e+00  5.168643751605195e-01  1.018592238861254e-16
 3.447807639168615e+00  4.939596218275837e-01 -6.643310530349003e-17
-2.691300379568939e+00  4.348840366914429e-02  4.744807300819883e-17
-7.600141375267299e-01 -9.488621836936074e-02  1.450027957802255e-17
 2.229926474789469e+01  1.931580274662275e+00 -4.166883013553332e-16
 2.307603644133540e+00  3.228340117996859e+01 -3.727667787304327e-16
-1.719867159087269e+01  1.951628733144887e+00  2.860186000130586e-16
 1.483204681504096e+01 -1.810621286291952e+00 -2.453504894007385e-16
 2.912258212977511e+01  2.153439620487861e+00 -5.403968974957285e-16
-2.527671439880144e+01 -4.279834726499855e+00  4.938030309581346e-16
-2.646664019831342e+00  1.380924116151153e+00  3.291204962932886e-17
 2.027395643178135e+01 -1.180089494821614e+00 -3.486742474855753e-16
 9.842911102331440e+00 -5.005290964887820e-02 -1.746520686552287e-16
-1.438506314813909e+01 -1.971091936857900e+00  2.762516114575032e-16
 3.293740983620407e+00 -4.551267062078019e-01 -5.393978814787246e-17
 1.894723779028813e+00  7.540920017631499e-02 -3.449367191124999e-17
VECTORS SF_force double
0.000000000000000e+00 0.000000000000000e+00 0.000000000000000e+00
0.000000000000000e+00 0.000000000000000e+00 0.000000000000000e+00
0.000000000000000e+00 0.000000000000000e+00 0.000000000000000e+00
0.000000000000000e+00 0.000000000000000e+00 0.000000000000000e+00
0.000000000000000e+00 0.000000000000000e+00 0.000000000000000e+00
0.000000000000000e+00 0.000000000000000e+00 0.000000000000000e+00
0.000000000000000e+00 0.000000000000000e+00 0.000000000000000e+00
0.000000000000000e+00 0.000000000000000e+00 0.000000000000000e+00
0.000000000000000e+00 0.000000000000000e+00 0.000000000000000e+00
0.000000000000000e+00 0.000000000000000e+00 0.000000000000000e+00
0.000000000000000e+00 0.000000000000000e+00 0.000000000000000e+00
0.000000000000000e+00 0.000000000000000e+00 0.000000000000000e+00
0.000000000000000e+00 0.000000000000000e+00 0.000000000000000e+00
0.000000000000000e+00 0.000000000000000e+00 0.000000000000000e+00
0.000000000000000e+00 0.000000000000000e+00 0.000000000000000e+00
0.000000000000000e+00 0.000000000000000e+00 0.000000000000000e+00
0.000000000000000e+00 0.000000000000000e+00 0.000000000000000e+00
0.000000000000000e+00 0.000000000000000e+00 0.000000000000000e+00
0.000000000000000e+00 0.000000000000000e+00 0.000000000000000e+00
0.000000000000000e+00 0.000000000000000e+00 0.000000000000000e+00
0.000000000000000e+00 0.000000000000000e+00 0.000000000000000e+00
0.000000000000000e+00 0.000000000000000e+00 0.000000000000000e+00
0.000000000000000e+00 0.000000000000000e+00 0.000000000000000e+00
0.000000000000000e+00 0.000000000000000e+00 0.000000000000000e+00
0.000000000000000e+00 0.000000000000000e+00 0.000000000000000e+00
0.000000000000000e+00 0.000000000000000e+00 0.000000000000000e+00
0.000000000000000e+00 0.000000000000000e+00 0.000000000000000e+00
0.000000000000000e+00 0.000000000000000e+00 0.000000000000000e+00
0.000000000000000e+00 0.000000000000000e+00 0.000000000000000e+00
0.000000000000000e+00 0.000000000000000e+00 0.000000000000000e+00
0.000000000000000e+00 0.000000000000000e+00 0.000000000000000e+00
0.000000000000000e+00 0.000000000000000e+00 0.000000000000000e+00
0.000000000000000e+00 0.000000000000000e+00 0.000000000000000e+00
0.000000000000000e+00 0.000000000000000e+00 0.000000000000000e+00
0.000000000000000e+00 0.000000000000000e+00 0.000000000000000e+00
0.000000000000000e+00 0.000000000000000e+00 0.000000000000000e+00
0.000000000000000e+00 0.000000000000000e+00 0.000000000000000e+00
0.000000000000000e+00 0.000000000000000e+00 0.000000000000000e+00
0.000000000000000e+00 0.000000000000000e+00 0.000000000000000e+00
0.000000000000000e+00 0.000000000000000e+00 0.000000000000000e+00
0.000000000000000e+00 0.000000000000000e+00 0.000000000000000e+00
0.000000000000000e+00 0.000000000000000e+00 0.000000000000000e+00
0.000000000000000e+00 0.000000000000000e+00 0.000000000000000e+00
0.000000000000000e+00 0.000000000000000e+00 0.000000000000000e+00
0.000000000000000e+00 0.000000000000000e+00 0.000000000000000e+00
0.000000000000000e+00 0.000000000000000e+00 0.000000000000000e+00
0.000000000000000e+00 0.000000000000000e+00 0.000000000000000e+00
0.000000000000000e+00 0.000000000000000e+00 0.000000000000000e+00
0.000000000000000e+00 0.000000000000000e+00 0.000000000000000e+00
0.000000000000000e+00 0.000000000000000e+00 0.000000000000000e+00
0.000000000000000e+00 0.000000000000000e+00 0.000000000000000e+00
0.000000000000000e+00 0.000000000000000e+00 0.000000000000000e+00
0.000000000000000e+00 0.000000000000000e+00 0.000000000000000e+00
0.000000000000000e+00 0.000000000000000e+00 0.000000000000000e+00
0.000000000000000e+00 0.000000000000000e+00 0.000000000000000e+00
0.000000000000000e+00 0.000000000000000e+00 0.000000000000000e+00
0.000000000000000e+00 0.000000000000000e+00 0.000000000000000e+00
0.000000000000000e+00 0.000000000000000e+00 0.000000000000000e+00
0.000000000000000e+00 0.000000000000000e+00 0.000000000000000e+00
0.000000000000000e+00 0.000000000000000e+00 0.000000000000000e+00
0.000000000000000e+00 0.000000000000000e+00 0.000000000000000e+00
0.000000000000000e+00 0.000000000000000e+00 0.000000000000000e+00
0.000000000000000e+00 0.000000000000000e+00 0.000000000000000e+00
0.000000000000000e+00 0.000000000000000e+00 0.000000000000000e+00
0.000000000000000e+00 0.000000000000000e+00 0.000000000000000e+00
0.000000000000000e+00 0.000000000000000e+00 0.000000000000000e+00
0.000000000000000e+00 0.000000000000000e+00 0.000000000000000e+00
0.000000000000000e+00 0.000000000000000e+00 0.000000000000000e+00
0.000000000000000e+00 0.000000000000000e+00 0.000000000000000e+00
0.000000000000000e+00 0.000000000000000e+00 0.000000000000000e+00
0.000000000000000e+00 0.000000000000000e+00 0.000000000000000e+00
0.000000000000000e+00 0.000000000000000e+00 0.000000000000000e+00
0.000000000000000e+00 0.000000000000000e+00 0.000000000000000e+00
0.000000000000000e+00 0.000000000000000e+00 0.000000000000000e+00
0.000000000000000e+00 0.000000000000000e+00 0.000000000000000e+00
0.000000000000000e+00 0.000000000000000e+00 0.000000000000000e+00
0.000000000000000e+00 0.000000000000000e+00 0.000000000000000e+00
0.000000000000000e+00 0.000000000000000e+00 0.000000000000000e+00
0.000000000000000e+00 0.000000000000000e+00 0.000000000000000e+00
0.000000000000000e+00 0.000000000000000e+00 0.000000000000000e+00
0.000000000000000e+00 0.000000000000000e+00 0.000000000000000e+00
0.000000000000000e+00 0.000000000000000e+00 0.000000000000000e+00
0.000000000000000e+00 0.000000000000000e+00 0.000000000000000e+00
0.000000000000000e+00 0.000000000000000e+00 0.000000000000000e+00
0.000000000000000e+00 0.000000000000000e+00 0.000000000000000e+00
0.000000000000000e+00 0.000000000000000e+00 0.000000000000000e+00
0.000000000000000e+00 0.000000000000000e+00 0.000000000000000e+00
0.000000000000000e+00 0.000000000000000e+00 0.000000000000000e+00
0.000000000000000e+00 0.000000000000000e+00 0.000000000000000e+00
0.000000000000000e+00 0.000000000000000e+00 0.000000000000000e+00
0.000000000000000e+00 0.000000000000000e+00 0.000000000000000e+00
0.000000000000000e+00 0.000000000000000e+00 0.000000000000000e+00
0.000000000000000e+00 0.000000000000000e+00 0.000000000000000e+00
0.000000000000000e+00 0.000000000000000e+00 0.000000000000000e+00
0.000000000000000e+00 0.000000000000000e+00 0.000000000000000e+00
0.000000000000000e+00 0.000000000000000e+00 0.000000000000000e+00
0.000000000000000e+00 0.000000000000000e+00 0.000000000000000e+00
0.000000000000000e+00 0.000000000000000e+00 0.000000000000000e+00
0.000000000000000e+00 0.000000000000000e+00 0.000000000000000e+00
0.000000000000000e+00 0.000000000000000e+00 0.000000000000000e+00
0.000000000000000e+00 0.000000000000000e+00 0.000000000000000e+00
0.000000000000000e+00 0.000000000000000e+00 0.000000000000000e+00
0.000000000000000e+00 0.000000000000000e+00 0.000000000000000e+00
0.000000000000000e+00 0.000000000000000e+00 0.000000000000000e+00
0.000000000000000e+00 0.000000000000000e+00 0.000000000000000e+00
0.000000000000000e+00 0.000000000000000e+00 0.000000000000000e+00
0.000000000000000e+00 0.000000000000000e+00 0.000000000000000e+00
0.000000000000000e+00 0.000000000000000e+00 0.000000000000000e+00
0.000000000000000e+00 0.000000000000000e+00 0.000000000000000e+00
0.000000000000000e+00 0.000000000000000e+00 0.000000000000000e+00
0.000000000000000e+00 0.000000000000000e+00 0.000000000000000e+00
0.000000000000000e+00 0.000000000000000e+00 0.000000000000000e+00
0.000000000000000e+00 0.000000000000000e+00 0.000000000000000e+00
0.000000000000000e+00 0.000000000000000e+00 0.000000000000000e+00
0.000000000000000e+00 0.000000000000000e+00 0.000000000000000e+00
0.000000000000000e+00 0.000000000000000e+00 0.000000000000000e+00
0.000000000000000e+00 0.000000000000000e+00 0.000000000000000e+00
0.000000000000000e+00 0.000000000000000e+00 0.000000000000000e+00
0.000000000000000e+00 0.000000000000000e+00 0.000000000000000e+00
0.000000000000000e+00 0.000000000000000e+00 0.000000000000000e+00
0.000000000000000e+00 0.000000000000000e+00 0.000000000000000e+00
0.000000000000000e+00 0.000000000000000e+00 0.000000000000000e+00
0.000000000000000e+00 0.000000000000000e+00 0.000000000000000e+00
0.000000000000000e+00 0.000000000000000e+00 0.000000000000000e+00
0.000000000000000e+00 0.000000000000000e+00 0.000000000000000e+00
0.000000000000000e+00 0.000000000000000e+00 0.000000000000000e+00
0.000000000000000e+00 0.000000000000000e+00 0.000000000000000e+00
0.000000000000000e+00 0.000000000000000e+00 0.000000000000000e+00
0.000000000000000e+00 0.000000000000000e+00 0.000000000000000e+00
0.000000000000000e+00 0.000000000000000e+00 0.000000000000000e+00
0.000000000000000e+00 0.000000000000000e+00 0.000000000000000e+00
0.000000000000000e+00 0.000000000000000e+00 0.000000000000000e+00
0.000000000000000e+00 0.000000000000000e+00 0.000000000000000e+00
0.000000000000000e+00 0.000000000000000e+00 0.000000000000000e+00
0.000000000000000e+00 0.000000000000000e+00 0.000000000000000e+00
0.000000000000000e+00 0.000000000000000e+00 0.000000000000000e+00
0.000000000000000e+00 0.000000000000000e+00 0.000000000000000e+00
0.000000000000000e+00 0.000000000000000e+00 0.000000000000000e+00
0.000000000000000e+00 0.000000000000000e+00 0.000000000000000e+00
0.000000000000000e+00 0.000000000000000e+00 0.000000000000000e+00
0.000000000000000e+00 0.000000000000000e+00 0.000000000000000e+00
0.000000000000000e+00 0.000000000000000e+00 0.000000000000000e+00
0.000000000000000e+00 0.000000000000000e+00 0.000000000000000e+00
0.000000000000000e+00 0.000000000000000e+00 0.000000000000000e+00
0.000000000000000e+00 0.000000000000000e+00 0.000000000000000e+00
0.000000000000000e+00 0.000000000000000e+00 0.000000000000000e+00
0.000000000000000e+00 0.000000000000000e+00 0.000000000000000e+00
0.000000000000000e+00 0.000000000000000e+00 0.000000000000000e+00
0.000000000000000e+00 0.000000000000000e+00 0.000000000000000e+00
0.000000000000000e+00 0.000000000000000e+00 0.000000000000000e+00
0.000000000000000e+00 0.000000000000000e+00 0.000000000000000e+00
0.000000000000000e+00 0.000000000000000e+00 0.000000000000000e+00
0.000000000000000e+00 0.000000000000000e+00 0.000000000000000e+00
0.000000000000000e+00 0.000000000000000e+00 0.000000000000000e+00
0.000000000000000e+00 0.000000000000000e+00 0.000000000000000e+00
0.000000000000000e+00 0.000000000000000e+00 0.000000000000000e+00
0.000000000000000e+00 0.000000000000000e+00 0.000000000000000e+00
0.000000000000000e+00 0.000000000000000e+00 0.000000000000000e+00
0.000000000000000e+00 0.000000000000000e+00 0.000000000000000e+00
0.000000000000000e+00 0.000000000000000e+00 0.000000000000000e+00
0.000000000000000e+00 0.000000000000000e+00 0.000000000000000e+00
0.000000000000000e+00 0.000000000000000e+00 0.000000000000000e+00
0.000000000000000e+00 0.000000000000000e+00 0.000000000000000e+00
0.000000000000000e+00 0.000000000000000e+00 0.000000000000000e+00
0.000000000000000e+00 0.000000000000000e+00 0.000000000000000e+00
0.000000000000000e+00 0.000000000000000e+00 0.000000000000000e+00
0.000000000000000e+00 0.000000000000000e+00 0.000000000000000e+00
0.000000000000000e+00 0.000000000000000e+00 0.000000000000000e+00
0.000000000000000e+00 0.000000000000000e+00 0.000000000000000e+00
0.000000000000000e+00 0.000000000000000e+00 0.000000000000000e+00
0.000000000000000e+00 0.000000000000000e+00 0.000000000000000e+00
0.000000000000000e+00 0.000000000000000e+00 0.000000000000000e+00
0.000000000000000e+00 0.000000000000000e+00 0.000000000000000e+00
0.000000000000000e+00 0.000000000000000e+00 0.000000000000000e+00
0.000000000000000e+00 0.000000000000000e+00 0.000000000000000e+00
0.000000000000000e+00 0.000000000000000e+00 0.000000000000000e+00
0.000000000000000e+00 0.000000000000000e+00 0.000000000000000e+00
0.000000000000000e+00 0.000000000000000e+00 0.000000000000000e+00
0.000000000000000e+00 0.000000000000000e+00 0.000000000000000e+00
0.000000000000000e+00 0.000000000000000e+00 0.000000000000000e+00
0.000000000000000e+00 0.000000000000000e+00 0.000000000000000e+00
0.000000000000000e+00 0.000000000000000e+00 0.000000000000000e+00
0.000000000000000e+00 0.000000000000000e+00 0.000000000000000e+00
0.000000000000000e+00 0.000000000000000e+00 0.000000000000000e+00
0.000000000000000e+00 0.000000000000000e+00 0.000000000000000e+00
0.000000000000000e+00 0.000000000000000e+00 0.000000000000000e+00
0.000000000000000e+00 0.000000000000000e+00 0.000000000000000e+00
0.000000000000000e+00 0.000000000000000e+00 0.000000000000000e+00
0.000000000000000e+00 0.000000000000000e+00 0.000000000000000e+00
0.000000000000000e+00 0.000000000000000e+00 0.000000000000000e+00
0.000000000000000e+00 0.000000000000000e+00 0.000000000000000e+00
0.000000000000000e+00 0.000000000000000e+00 0.000000000000000e+00
0.000000000000000e+00 0.000000000000000e+00 0.000000000000000e+00
0.000000000000000e+00 0.000000000000000e+00 0.000000000000000e+00
0.000000000000000e+00 0.000000000000000e+00 0.000000000000000e+00
0.000000000000000e+00 0.000000000000000e+00 0.000000000000000e+00
0.000000000000000e+00 0.000000000000000e+00 0.000000000000000e+00
0.000000000000000e+00 0.000000000000000e+00 0.000000000000000e+00
0.000000000000000e+00 0.000000000000000e+00 0.000000000000000e+00
0.000000000000000e+00 0.000000000000000e+00 0.000000000000000e+00
0.000000000000000e+00 0.000000000000000e+00 0.000000000000000e+00
0.000000000000000e+00 0.000000000000000e+00 0.000000000000000e+00
0.000000000000000e+00 0.000000000000000e+00 0.000000000000000e+00
0.000000000000000e+00 0.000000000000000e+00 0.000000000000000e+00
0.000000000000000e+00 0.000000000000000e+00 0.000000000000000e+00
0.000000000000000e+00 0.000000000000000e+00 0.000000000000000e+00
0.000000000000000e+00 0.000000000000000e+00 0.000000000000000e+00
0.000000000000000e+00 0.000000000000000e+00 0.000000000000000e+00
0.000000000000000e+00 0.000000000000000e+00 0.000000000000000e+00
0.000000000000000e+00 0.000000000000000e+00 0.000000000000000e+00
0.000000000000000e+00 0.000000000000000e+00 0.000000000000000e+00
0.000000000000000e+00 0.000000000000000e+00 0.000000000000000e+00
0.000000000000000e+00 0.000000000000000e+00 0.000000000000000e+00
0.000000000000000e+00 0.000000000000000e+00 0.000000000000000e+00
0.000000000000000e+00 0.000000000000000e+00 0.000000000000000e+00
0.000000000000000e+00 0.000000000000000e+00 0.000000000000000e+00
0.000000000000000e+00 0.000000000000000e+00 0.000000000000000e+00
0.000000000000000e+00 0.000000000000000e+00 0.000000000000000e+00
0.000000000000000e+00 0.000000000000000e+00 0.000000000000000e+00
0.000000000000000e+00 0.000000000000000e+00 0.000000000000000e+00
0.000000000000000e+00 0.000000000000000e+00 0.000000000000000e+00
0.000000000000000e+00 0.000000000000000e+00 0.000000000000000e+00
0.000000000000000e+00 0.000000000000000e+00 0.000000000000000e+00
0.000000000000000e+00 0.000000000000000e+00 0.000000000000000e+00
0.000000000000000e+00 0.000000000000000e+00 0.000000000000000e+00
0.000000000000000e+00 0.000000000000000e+00 0.000000000000000e+00
0.000000000000000e+00 0.000000000000000e+00 0.000000000000000e+00
0.000000000000000e+00 0.000000000000000e+00 0.000000000000000e+00
0.000000000000000e+00 0.000000000000000e+00 0.000000000000000e+00
0.000000000000000e+00 0.000000000000000e+00 0.000000000000000e+00
0.000000000000000e+00 0.000000000000000e+00 0.000000000000000e+00
0.000000000000000e+00 0.000000000000000e+00 0.000000000000000e+00
0.000000000000000e+00 0.000000000000000e+00 0.000000000000000e+00
0.000000000000000e+00 0.000000000000000e+00 0.000000000000000e+00
0.000000000000000e+00 0.000000000000000e+00 0.000000000000000e+00
0.000000000000000e+00 0.000000000000000e+00 0.000000000000000e+00
0.000000000000000e+00 0.000000000000000e+00 0.000000000000000e+00
0.000000000000000e+00 0.000000000000000e+00 0.000000000000000e+00
0.000000000000000e+00 0.000000000000000e+00 0.000000000000000e+00
0.000000000000000e+00 0.000000000000000e+00 0.000000000000000e+00
0.000000000000000e+00 0.000000000000000e+00 0.000000000000000e+00
0.000000000000000e+00 0.000000000000000e+00 0.000000000000000e+00
0.000000000000000e+00 0.000000000000000e+00 0.000000000000000e+00
0.000000000000000e+00 0.000000000000000e+00 0.000000000000000e+00
0.000000000000000e+00 0.000000000000000e+00 0.000000000000000e+00
0.000000000000000e+00 0.000000000000000e+00 0.000000000000000e+00
0.000000000000000e+00 0.000000000000000e+00 0.000000000000000e+00
0.000000000000000e+00 0.000000000000000e+00 0.000000000000000e+00
0.000000000000000e+00 0.000000000000000e+00 0.000000000000000e+00
0.000000000000000e+00 0.000000000000000e+00 0.000000000000000e+00
0.000000000000000e+00 0.000000000000000e+00 0.000000000000000e+00
0.000000000000000e+00 0.000000000000000e+00 0.000000000000000e+00
0.000000000000000e+00 0.000000000000000e+00 0.000000000000000e+00
0.000000000000000e+00 0.000000000000000e+00 0.000000000000000e+00
0.000000000000000e+00 0.000000000000000e+00 0.000000000000000e+00
0.000000000000000e+00 0.000000000000000e+00 0.000000000000000e+00
0.000000000000000e+00 0.000000000000000e+00 0.000000000000000e+00
0.000000000000000e+00 0.000000000000000e+00 0.000000000000000e+00
0.000000000000000e+00 0.000000000000000e+00 0.000000000000000e+00
0.000000000000000e+00 0.000000000000000e+00 0.000000000000000e+00
0.000000000000000e+00 0.000000000000000e+00 0.000000000000000e+00
0.000000000000000e+00 0.000000000000000e+00 0.000000000000000e+00
0.000000000000000e+00 0.000000000000000e+00 0.000000000000000e+00
0.000000000000000e+00 0.000000000000000e+00 0.000000000000000e+00
0.000000000000000e+00 0.000000000000000e+00 0.000000000000000e+00
0.000000000000000e+00 0.000000000000000e+00 0.000000000000000e+00
0.000000000000000e+00 0.000000000000000e+00 0.000000000000000e+00
0.000000000000000e+00 0.000000000000000e+00 0.000000000000000e+00
0.000000000000000e+00 0.000000000000000e+00 0.000000000000000e+00
0.000000000000000e+00 0.000000000000000e+00 0.000000000000000e+00
0.000000000000000e+00 0.000000000000000e+00 0.000000000000000e+00
0.000000000000000e+00 0.000000000000000e+00 0.000000000000000e+00
0.000000000000000e+00 0.000000000000000e+00 0.000000000000000e+00
0.000000000000000e+00 0.000000000000000e+00 0.000000000000000e+00
0.000000000000000e+00 0.000000000000000e+00 0.000000000000000e+00
0.000000000000000e+00 0.000000000000000e+00 0.000000000000000e+00
0.000000000000000e+00 0.000000000000000e+00 0.000000000000000e+00
0.000000000000000e+00 0.000000000000000e+00 0.000000000000000e+00
0.000000000000000e+00 0.000000000000000e+00 0.000000000000000e+00
0.000000000000000e+00 0.000000000000000e+00 0.000000000000000e+00
0.000000000000000e+00 0.000000000000000e+00 0.000000000000000e+00
0.000000000000000e+00 0.000000000000000e+00 0.000000000000000e+00
0.000000000000000e+00 0.000000000000000e+00 0.000000000000000e+00
0.000000000000000e+00 0.000000000000000e+00 0.000000000000000e+00
0.000000000000000e+00 0.000000000000000e+00 0.000000000000000e+00
0.000000000000000e+00 0.000000000000000e+00 0.000000000000000e+00
0.000000000000000e+00 0.000000000000000e+00 0.000000000000000e+00
0.000000000000000e+00 0.000000000000000e+00 0.000000000000000e+00
0.000000000000000e+00 0.000000000000000e+00 0.000000000000000e+00
0.000000000000000e+00 0.000000000000000e+00 0.000000000000000e+00
0.000000000000000e+00 0.000000000000000e+00 0.000000000000000e+00
0.000000000000000e+00 0.000000000000000e+00 0.000000000000000e+00
0.000000000000000e+00 0.000000000000000e+00 0.000000000000000e+00
0.000000000000000e+00 0.000000000000000e+00 0.000000000000000e+00
0.000000000000000e+00 0.000000000000000e+00 0.000000000000000e+00
0.000000000000000e+00 0.000000000000000e+00 0.000000000000000e+00
0.000000000000000e+00 0.000000000000000e+00 0.000000000000000e+00
0.000000000000000e+00 0.000000000000000e+00 0.000000000000000e+00
0.000000000000000e+00 0.000000000000000e+00 0.000000000000000e+00
0.000000000000000e+00 0.000000000000000e+00 0.000000000000000e+00
0.000000000000000e+00 0.000000000000000e+00 0.000000000000000e+00
0.000000000000000e+00 0.000000000000000e+00 0.000000000000000e+00
0.000000000000000e+00 0.000000000000000e+00 0.000000000000000e+00
0.000000000000000e+00 0.000000000000000e+00 0.000000000000000e+00
0.000000000000000e+00 0.000000000000000e+00 0.000000000000000e+00
0.000000000000000e+00 0.000000000000000e+00 0.000000000000000e+00
0.000000000000000e+00 0.000000000000000e+00 0.000000000000000e+00
0.000000000000000e+00 0.000000000000000e+00 0.000000000000000e+00
0.000000000000000e+00 0.000000000000000e+00 0.000000000000000e+00
0.000000000000000e+00 0.000000000000000e+00 0.000000000000000e+00
0.000000000000000e+00 0.000000000000000e+00 0.000000000000000e+00
0.000000000000000e+00 0.000000000000000e+00 0.000000000000000e+00
0.000000000000000e+00 0.000000000000000e+00 0.000000000000000e+00
0.000000000000000e+00 0.000000000000000e+00 0.000000000000000e+00
0.000000000000000e+00 0.000000000000000e+00 0.000000000000000e+00
0.000000000000000e+00 0.000000000000000e+00 0.000000000000000e+00
0.000000000000000e+00 0.000000000000000e+00 0.000000000000000e+00
0.000000000000000e+00 0.000000000000000e+00 0.000000000000000e+00
0.000000000000000e+00 0.000000000000000e+00 0.000000000000000e+00
0.000000000000000e+00 0.000000000000000e+00 0.000000000000000e+00
0.000000000000000e+00 0.000000000000000e+00 0.000000000000000e+00
0.000000000000000e+00 0.000000000000000e+00 0.000000000000000e+00
0.000000000000000e+00 0.000000000000000e+00 0.000000000000000e+00
0.000000000000000e+00 0.000000000000000e+00 0.000000000000000e+00
0.000000000000000e+00 0.000000000000000e+00 0.000000000000000e+00
0.000000000000000e+00 0.000000000000000e+00 0.000000000000000e+00
0.000000000000000e+00 0.000000000000000e+00 0.000000000000000e+00
0.000000000000000e+00 0.000000000000000e+00 0.000000000000000e+00
0.000000000000000e+00 0.000000000000000e+00 0.000000000000000e+00
0.000000000000000e+00 0.000000000000000e+00 0.000000000000000e+00
0.000000000000000e+00 0.000000000000000e+00 0.000000000000000e+00
0.000000000000000e+00 0.000000000000000e+00 0.000000000000000e+00
0.000000000000000e+00 0.000000000000000e+00 0.000000000000000e+00
0.000000000000000e+00 0.000000000000000e+00 0.000000000000000e+00
0.000000000000000e+00 0.000000000000000e+00 0.000000000000000e+00
0.000000000000000e+00 0.000000000000000e+00 0.000000000000000e+00
0.000000000000000e+00 0.000000000000000e+00 0.000000000000000e+00
0.000000000000000e+00 0.000000000000000e+00 0.000000000000000e+00
0.000000000000000e+00 0.000000000000000e+00 0.000000000000000e+00
0.000000000000000e+00 0.000000000000000e+00 0.000000000000000e+00
0.000000000000000e+00 0.000000000000000e+00 0.000000000000000e+00
0.000000000000000e+00 0.000000000000000e+00 0.000000000000000e+00
0.000000000000000e+00 0.000000000000000e+00 0.000000000000000e+00
0.000000000000000e+00 0.000000000000000e+00 0.000000000000000e+00
0.000000000000000e+00 0.000000000000000e+00 0.000000000000000e+00
0.000000000000000e+00 0.000000000000000e+00 0.000000000000000e+00
0.000000000000000e+00 0.000000000000000e+00 0.000000000000000e+00
0.000000000000000e+00 0.000000000000000e+00 0.000000000000000e+00
0.000000000000000e+00 0.000000000000000e+00 0.000000000000000e+00
0.000000000000000e+00 0.000000000000000e+00 0.000000000000000e+00
0.000000000000000e+00 0.000000000000000e+00 0.000000000000000e+00
0.000000000000000e+00 0.000000000000000e+00 0.000000000000000e+00
0.000000000000000e+00 0.000000000000000e+00 0.000000000000000e+00
0.000000000000000e+00 0.000000000000000e+00 0.000000000000000e+00
0.000000000000000e+00 0.000000000000000e+00 0.000000000000000e+00
0.000000000000000e+00 0.000000000000000e+00 0.000000000000000e+00
0.000000000000000e+00 0.000000000000000e+00 0.000000000000000e+00
0.000000000000000e+00 0.000000000000000e+00 0.000000000000000e+00
0.000000000000000e+00 0.000000000000000e+00 0.000000000000000e+00
0.000000000000000e+00 0.000000000000000e+00 0.000000000000000e+00
0.000000000000000e+00 0.000000000000000e+00 0.000000000000000e+00
0.000000000000000e+00 0.000000000000000e+00 0.000000000000000e+00
0.000000000000000e+00 0.000000000000000e+00 0.000000000000000e+00
0.000000000000000e+00 0.000000000000000e+00 0.000000000000000e+00
0.000000000000000e+00 0.000000000000000e+00 0.000000000000000e+00
0.000000000000000e+00 0.000000000000000e+00 0.000000000000000e+00
0.000000000000000e+00 0.000000000000000e+00 0.000000000000000e+00
0.000000000000000e+00 0.000000000000000e+00 0.000000000000000e+00
0.000000000000000e+00 0.000000000000000e+00 0.000000000000000e+00
0.000000000000000e+00 0.000000000000000e+00 0.000000000000000e+00
0.000000000000000e+00 0.000000000000000e+00 0.000000000000000e+00
0.000000000000000e+00 0.000000000000000e+00 0.000000000000000e+00
0.000000000000000e+00 0.000000000000000e+00 0.000000000000000e+00
0.000000000000000e+00 0.000000000000000e+00 0.000000000000000e+00
0.000000000000000e+00 0.000000000000000e+00 0.000000000000000e+00
0.000000000000000e+00 0.000000000000000e+00 0.000000000000000e+00
0.000000000000000e+00 0.000000000000000e+00 0.000000000000000e+00
0.000000000000000e+00 0.000000000000000e+00 0.000000000000000e+00
0.000000000000000e+00 0.000000000000000e+00 0.000000000000000e+00
0.000000000000000e+00 0.000000000000000e+00 0.000000000000000e+00
0.000000000000000e+00 0.000000000000000e+00 0.000000000000000e+00
0.000000000000000e+00 0.000000000000000e+00 0.000000000000000e+00
0.000000000000000e+00 0.000000000000000e+00 0.000000000000000e+00
0.000000000000000e+00 0.000000000000000e+00 0.000000000000000e+00
0.000000000000000e+00 0.000000000000000e+00 0.000000000000000e+00
0.000000000000000e+00 0.000000000000000e+00 0.000000000000000e+00
0.000000000000000e+00 0.000000000000000e+00 0.000000000000000e+00
0.000000000000000e+00 0.000000000000000e+00 0.000000000000000e+00
0.000000000000000e+00 0.000000000000000e+00 0.000000000000000e+00
0.000000000000000e+00 0.000000000000000e+00 0.000000000000000e+00
0.000000000000000e+00 0.000000000000000e+00 0.000000000000000e+00
0.000000000000000e+00 0.000000000000000e+00 0.000000000000000e+00
0.000000000000000e+00 0.000000000000000e+00 0.000000000000000e+00
0.000000000000000e+00 0.000000000000000e+00 0.000000000000000e+00
0.000000000000000e+00 0.000000000000000e+00 0.000000000000000e+00
0.000000000000000e+00 0.000000000000000e+00 0.000000000000000e+00
0.000000000000000e+00 0.000000000000000e+00 0.000000000000000e+00
0.000000000000000e+00 0.000000000000000e+00 0.000000000000000e+00
0.000000000000000e+00 0.000000000000000e+00 0.000000000000000e+00
0.000000000000000e+00 0.000000000000000e+00 0.000000000000000e+00
0.000000000000000e+00 0.000000000000000e+00 0.000000000000000e+00
0.000000000000000e+00 0.000000000000000e+00 0.000000000000000e+00
0.000000000000000e+00 0.000000000000000e+00 0.000000000000000e+00
0.000000000000000e+00 0.000000000000000e+00 0.000000000000000e+00
0.000000000000000e+00 0.000000000000000e+00 0.000000000000000e+00
0.000000000000000e+00 0.000000000000000e+00 0.000000000000000e+00
0.000000000000000e+00 0.000000000000000e+00 0.000000000000000e+00
0.000000000000000e+00 0.000000000000000e+00 0.000000000000000e+00
0.000000000000000e+00 0.000000000000000e+00 0.000000000000000e+00
0.000000000000000e+00 0.000000000000000e+00 0.000000000000000e+00
0.000000000000000e+00 0.000000000000000e+00 0.000000000000000e+00
0.000000000000000e+00 0.000000000000000e+00 0.000000000000000e+00
0.000000000000000e+00 0.000000000000000e+00 0.000000000000000e+00
0.000000000000000e+00 0.000000000000000e+00 0.000000000000000e+00
0.000000000000000e+00 0.000000000000000e+00 0.000000000000000e+00
0.000000000000000e+00 0.000000000000000e+00 0.000000000000000e+00
0.000000000000000e+00 0.000000000000000e+00 0.000000000000000e+00
0.000000000000000e+00 0.000000000000000e+00 0.000000000000000e+00
0.000000000000000e+00 0.000000000000000e+00 0.000000000000000e+00
0.000000000000000e+00 0.000000000000000e+00 0.000000000000000e+00
0.000000000000000e+00 0.000000000000000e+00 0.000000000000000e+00
0.000000000000000e+00 0.000000000000000e+00 0.000000000000000e+00
0.000000000000000e+00 0.000000000000000e+00 0.000000000000000e+00
0.000000000000000e+00 0.000000000000000e+00 0.000000000000000e+00
0.000000000000000e+00 0.000000000000000e+00 0.000000000000000e+00
0.000000000000000e+00 0.000000000000000e+00 0.000000000000000e+00
0.000000000000000e+00 0.000000000000000e+00 0.000000000000000e+00
0.000000000000000e+00 0.000000000000000e+00 0.000000000000000e+00
0.000000000000000e+00 0.000000000000000e+00 0.000000000000000e+00
0.000000000000000e+00 0.000000000000000e+00 0.000000000000000e+00
0.000000000000000e+00 0.000000000000000e+00 0.000000000000000e+00
0.000000000000000e+00 0.000000000000000e+00 0.000000000000000e+00
0.000000000000000e+00 0.000000000000000e+00 0.000000000000000e+00
0.000000000000000e+00 0.000000000000000e+00 0.000000000000000e+00
0.000000000000000e+00 0.000000000000000e+00 0.000000000000000e+00
0.000000000000000e+00 0.000000000000000e+00 0.000000000000000e+00
0.000000000000000e+00 0.000000000000000e+00 0.000000000000000e+00
0.000000000000000e+00 0.000000000000000e+00 0.000000000000000e+00
0.000000000000000e+00 0.000000000000000e+00 0.000000000000000e+00
0.000000000000000e+00 0.000000000000000e+00 0.000000000000000e+00
0.000000000000000e+00 0.000000000000000e+00 0.000000000000000e+00
0.000000000000000e+00 0.000000000000000e+00 0.000000000000000e+00
0.000000000000000e+00 0.000000000000000e+00 0.000000000000000e+00
0.000000000000000e+00 0.000000000000000e+00 0.000000000000000e+00
0.000000000000000e+00 0.000000000000000e+00 0.000000000000000e+00
0.000000000000000e+00 0.000000000000000e+00 0.000000000000000e+00
0.000000000000000e+00 0.000000000000000e+00 0.000000000000000e+00
0.000000000000000e+00 0.000000000000000e+00 0.000000000000000e+00
0.000000000000000e+00 0.000000000000000e+00 0.000000000000000e+00
0.000000000000000e+00 0.000000000000000e+00 0.000000000000000e+00
0.000000000000000e+00 0.000000000000000e+00 0.000000000000000e+00
0.000000000000000e+00 0.000000000000000e+00 0.000000000000000e+00
0.000000000000000e+00 0.000000000000000e+00 0.000000000000000e+00
0.000000000000000e+00 0.000000000000000e+00 0.000000000000000e+00
0.000000000000000e+00 0.000000000000000e+00 0.000000000000000e+00
0.000000000000000e+00 0.000000000000000e+00 0.000000000000000e+00
0.000000000000000e+00 0.000000000000000e+00 0.000000000000000e+00
0.000000000000000e+00 0.000000000000000e+00 0.000000000000000e+00
0.000000000000000e+00 0.000000000000000e+00 0.000000000000000e+00
0.000000000000000e+00 0.000000000000000e+00 0.000000000000000e+00
0.000000000000000e+00 0.000000000000000e+00 0.000000000000000e+00
0.000000000000000e+00 0.000000000000000e+00 0.000000000000000e+00
0.000000000000000e+00 0.000000000000000e+00 0.000000000000000e+00
0.000000000000000e+00 0.000000000000000e+00 0.000000000000000e+00
0.000000000000000e+00 0.000000000000000e+00 0.000000000000000e+00
0.000000000000000e+00 0.000000000000000e+00 0.000000000000000e+00
0.000000000000000e+00 0.000000000000000e+00 0.000000000000000e+00
0.000000000000000e+00 0.000000000000000e+00 0.000000000000000e+00
0.000000000000000e+00 0.000000000000000e+00 0.000000000000000e+00
0.000000000000000e+00 0.000000000000000e+00 0.000000000000000e+00
0.000000000000000e+00 0.000000000000000e+00 0.000000000000000e+00
0.000000000000000e+00 0.000000000000000e+00 0.000000000000000e+00
0.000000000000000e+00 0.000000000000000e+00 0.000000000000000e+00
0.000000000000000e+00 0.000000000000000e+00 0.000000000000000e+00
0.000000000000000e+00 0.000000000000000e+00 0.000000000000000e+00
0.000000000000000e+00 0.000000000000000e+00 0.000000000000000e+00
0.000000000000000e+00 0.000000000000000e+00 0.000000000000000e+00
0.000000000000000e+00 0.000000000000000e+00 0.000000000000000e+00
0.000000000000000e+00 0.000000000000000e+00 0.000000000000000e+00
0.000000000000000e+00 0.000000000000000e+00 0.000000000000000e+00
0.000000000000000e+00 0.000000000000000e+00 0.000000000000000e+00
0.000000000000000e+00 0.000000000000000e+00 0.000000000000000e+00
0.000000000000000e+00 0.000000000000000e+00 0.000000000000000e+00
0.000000000000000e+00 0.000000000000000e+00 0.000000000000000e+00
0.000000000000000e+00 0.000000000000000e+00 0.000000000000000e+00
0.000000000000000e+00 0.000000000000000e+00 0.000000000000000e+00
0.000000000000000e+00 0.000000000000000e+00 0.000000000000000e+00
0.000000000000000e+00 0.000000000000000e+00 0.000000000000000e+00
0.000000000000000e+00 0.000000000000000e+00 0.000000000000000e+00
0.000000000000000e+00 0.000000000000000e+00 0.000000000000000e+00
0.000000000000000e+00 0.000000000000000e+00 0.000000000000000e+00
0.000000000000000e+00 0.000000000000000e+00 0.000000000000000e+00
0.000000000000000e+00 0.000000000000000e+00 0.000000000000000e+00
0.000000000000000e+00 0.000000000000000e+00 0.000000000000000e+00
0.000000000000000e+00 0.000000000000000e+00 0.000000000000000e+00
0.000000000000000e+00 0.000000000000000e+00 0.000000000000000e+00
0.000000000000000e+00 0.000000000000000e+00 0.000000000000000e+00
0.000000000000000e+00 0.000000000000000e+00 0.000000000000000e+00
0.000000000000000e+00 0.000000000000000e+00 0.000000000000000e+00
0.000000000000000e+00 0.000000000000000e+00 0.000000000000000e+00
0.000000000000000e+00 0.000000000000000e+00 0.000000000000000e+00
0.000000000000000e+00 0.000000000000000e+00 0.000000000000000e+00
0.000000000000000e+00 0.000000000000000e+00 0.000000000000000e+00
0.000000000000000e+00 0.000000000000000e+00 0.000000000000000e+00
0.000000000000000e+00 0.000000000000000e+00 0.000000000000000e+00
0.000000000000000e+00 0.000000000000000e+00 0.000000000000000e+00
0.000000000000000e+00 0.000000000000000e+00 0.000000000000000e+00
0.000000000000000e+00 0.000000000000000e+00 0.000000000000000e+00
0.000000000000000e+00 0.000000000000000e+00 0.000000000000000e+00
0.000000000000000e+00 0.000000000000000e+00 0.000000000000000e+00
0.000000000000000e+00 0.000000000000000e+00 0.000000000000000e+00
0.000000000000000e+00 0.000000000000000e+00 0.000000000000000e+00
0.000000000000000e+00 0.000000000000000e+00 0.000000000000000e+00
0.000000000000000e+00 0.000000000000000e+00 0.000000000000000e+00
0.000000000000000e+00 0.000000000000000e+00 0.000000000000000e+00
0.000000000000000e+00 0.000000000000000e+00 0.000000000000000e+00
0.000000000000000e+00 0.000000000000000e+00 0.000000000000000e+00
0.000000000000000e+00 0.000000000000000e+00 0.000000000000000e+00
0.000000000000000e+00 0.000000000000000e+00 0.000000000000000e+00
0.000000000000000e+00 0.000000000000000e+00 0.000000000000000e+00
0.000000000000000e+00 0.000000000000000e+00 0.000000000000000e+00
0.000000000000000e+00 0.000000000000000e+00 0.000000000000000e+00
0.000000000000000e+00 0.000000000000000e+00 0.000000000000000e+00
0.000000000000000e+00 0.000000000000000e+00 0.000000000000000e+00
0.000000000000000e+00 0.000000000000000e+00 0.000000000000000e+00
0.000000000000000e+00 0.000000000000000e+00 0.000000000000000e+00
0.000000000000000e+00 0.000000000000000e+00 0.000000000000000e+00
0.000000000000000e+00 0.000000000000000e+00 0.000000000000000e+00
0.000000000000000e+00 0.000000000000000e+00 0.000000000000000e+00
0.000000000000000e+00 0.000000000000000e+00 0.000000000000000e+00
0.000000000000000e+00 0.000000000000000e+00 0.000000000000000e+00
0.000000000000000e+00 0.000000000000000e+00 0.000000000000000e+00
0.000000000000000e+00 0.000000000000000e+00 0.000000000000000e+00
0.000000000000000e+00 0.000000000000000e+00 0.000000000000000e+00
0.000000000000000e+00 0.000000000000000e+00 0.000000000000000e+00
0.000000000000000e+00 0.000000000000000e+00 0.000000000000000e+00
0.000000000000000e+00 0.000000000000000e+00 0.000000000000000e+00
0.000000000000000e+00 0.000000000000000e+00 0.000000000000000e+00
0.000000000000000e+00 0.000000000000000e+00 0.000000000000000e+00
0.000000000000000e+00 0.000000000000000e+00 0.000000000000000e+00
0.000000000000000e+00 0.000000000000000e+00 0.000000000000000e+00
0.000000000000000e+00 0.000000000000000e+00 0.000000000000000e+00
0.000000000000000e+00 0.000000000000000e+00 0.000000000000000e+00
0.000000000000000e+00 0.000000000000000e+00 0.000000000000000e+00
0.000000000000000e+00 0.000000000000000e+00 0.000000000000000e+00
0.000000000000000e+00 0.000000000000000e+00 0.000000000000000e+00
0.000000000000000e+00 0.000000000000000e+00 0.000000000000000e+00
0.000000000000000e+00 0.000000000000000e+00 0.000000000000000e+00
0.000000000000000e+00 0.000000000000000e+00 0.000000000000000e+00
0.000000000000000e+00 0.000000000000000e+00 0.000000000000000e+00
0.000000000000000e+00 0.000000000000000e+00 0.000000000000000e+00
0.000000000000000e+00 0.000000000000000e+00 0.000000000000000e+00
0.000000000000000e+00 0.000000000000000e+00 0.000000000000000e+00
0.000000000000000e+00 0.000000000000000e+00 0.000000000000000e+00
0.000000000000000e+00 0.000000000000000e+00 0.000000000000000e+00
0.000000000000000e+00 0.000000000000000e+00 0.000000000000000e+00
0.000000000000000e+00 0.000000000000000e+00 0.000000000000000e+00
0.000000000000000e+00 0.000000000000000e+00 0.000000000000000e+00
0.000000000000000e+00 0.000000000000000e+00 0.000000000000000e+00
0.000000000000000e+00 0.000000000000000e+00 0.000000000000000e+00
0.000000000000000e+00 0.000000000000000e+00 0.000000000000000e+00
0.000000000000000e+00 0.000000000000000e+00 0.000000000000000e+00
0.000000000000000e+00 0.000000000000000e+00 0.000000000000000e+00
0.000000000000000e+00 0.000000000000000e+00 0.000000000000000e+00
0.000000000000000e+00 0.000000000000000e+00 0.000000000000000e+00
0.000000000000000e+00 0.000000000000000e+00 0.000000000000000e+00
0.000000000000000e+00 0.000000000000000e+00 0.000000000000000e+00
0.000000000000000e+00 0.000000000000000e+00 0.000000000000000e+00
0.000000000000000e+00 0.000000000000000e+00 0.000000000000000e+00
0.000000000000000e+00 0.000000000000000e+00 0.000000000000000e+00
0.000000000000000e+00 0.000000000000000e+00 0.000000000000000e+00
0.000000000000000e+00 0.000000000000000e+00 0.000000000000000e+00
0.000000000000000e+00 0.000000000000000e+00 0.000000000000000e+00
0.000000000000000e+00 0.000000000000000e+00 0.000000000000000e+00
0.000000000000000e+00 0.000000000000000e+00 0.000000000000000e+00
0.000000000000000e+00 0.000000000000000e+00 0.000000000000000e+00
0.000000000000000e+00 0.000000000000000e+00 0.000000000000000e+00
0.000000000000000e+00 0.000000000000000e+00 0.000000000000000e+00
0.000000000000000e+00 0.000000000000000e+00 0.000000000000000e+00
0.000000000000000e+00 0.000000000000000e+00 0.000000000000000e+00
0.000000000000000e+00 0.000000000000000e+00 0.000000000000000e+00
0.000000000000000e+00 0.000000000000000e+00 0.000000000000000e+00
0.000000000000000e+00 0.000000000000000e+00 0.000000000000000e+00
0.000000000000000e+00 0.000000000000000e+00 0.000000000000000e+00
0.000000000000000e+00 0.000000000000000e+00 0.000000000000000e+00
0.000000000000000e+00 0.000000000000000e+00 0.000000000000000e+00
0.000000000000000e+00 0.000000000000000e+00 0.000000000000000e+00
0.000000000000000e+00 0.000000000000000e+00 0.000000000000000e+00
0.000000000000000e+00 0.000000000000000e+00 0.000000000000000e+00
0.000000000000000e+00 0.000000000000000e+00 0.000000000000000e+00
0.000000000000000e+00 0.000000000000000e+00 0.000000000000000e+00
0.000000000000000e+00 0.000000000000000e+00 0.000000000000000e+00
0.000000000000000e+00 0.000000000000000e+00 0.000000000000000e+00
0.000000000000000e+00 0.000000000000000e+00 0.000000000000000e+00
0.000000000000000e+00 0.000000000000000e+00 0.000000000000000e+00
0.000000000000000e+00 0.000000000000000e+00 0.000000000000000e+00
0.000000000000000e+00 0.000000000000000e+00 0.000000000000000e+00
0.000000000000000e+00 0.000000000000000e+00 0.000000000000000e+00
0.000000000000000e+00 0.000000000000000e+00 0.000000000000000e+00
0.000000000000000e+00 0.000000000000000e+00 0.000000000000000e+00
0.000000000000000e+00 0.000000000000000e+00 0.000000000000000e+00
0.000000000000000e+00 0.000000000000000e+00 0.000000000000000e+00
0.000000000000000e+00 0.000000000000000e+00 0.000000000000000e+00
0.000000000000000e+00 0.000000000000000e+00 0.000000000000000e+00
0.000000000000000e+00 0.000000000000000e+00 0.000000000000000e+00
0.000000000000000e+00 0.000000000000000e+00 0.000000000000000e+00
0.000000000000000e+00 0.000000000000000e+00 0.000000000000000e+00
0.000000000000000e+00 0.000000000000000e+00 0.000000000000000e+00
0.000000000000000e+00 0.000000000000000e+00 0.000000000000000e+00
0.000000000000000e+00 0.000000000000000e+00 0.000000000000000e+00
0.000000000000000e+00 0.000000000000000e+00 0.000000000000000e+00
0.000000000000000e+00 0.000000000000000e+00 0.000000000000000e+00
0.000000000000000e+00 0.000000000000000e+00 0.000000000000000e+00
0.000000000000000e+00 0.000000000000000e+00 0.000000000000000e+00
0.000000000000000e+00 0.000000000000000e+00 0.000000000000000e+00
0.000000000000000e+00 0.000000000000000e+00 0.000000000000000e+00
0.000000000000000e+00 0.000000000000000e+00 0.000000000000000e+00
0.000000000000000e+00 0.000000000000000e+00 0.000000000000000e+00
0.000000000000000e+00 0.000000000000000e+00 0.000000000000000e+00
0.000000000000000e+00 0.000000000000000e+00 0.000000000000000e+00
0.000000000000000e+00 0.000000000000000e+00 0.000000000000000e+00
0.000000000000000e+00 0.000000000000000e+00 0.000000000000000e+00
0.000000000000000e+00 0.000000000000000e+00 0.000000000000000e+00
0.000000000000000e+00 0.000000000000000e+00 0.000000000000000e+00
0.000000000000000e+00 0.000000000000000e+00 0.000000000000000e+00
0.000000000000000e+00 0.000000000000000e+00 0.000000000000000e+00
0.000000000000000e+00 0.000000000000000e+00 0.000000000000000e+00
0.000000000000000e+00 0.000000000000000e+00 0.000000000000000e+00
0.000000000000000e+00 0.000000000000000e+00 0.000000000000000e+00
0.000000000000000e+00 0.000000000000000e+00 0.000000000000000e+00
0.000000000000000e+00 0.000000000000000e+00 0.000000000000000e+00
0.000000000000000e+00 0.000000000000000e+00 0.000000000000000e+00
0.000000000000000e+00 0.000000000000000e+00 0.000000000000000e+00
0.000000000000000e+00 0.000000000000000e+00 0.000000000000000e+00
0.000000000000000e+00 0.000000000000000e+00 0.000000000000000e+00
0.000000000000000e+00 0.000000000000000e+00 0.000000000000000e+00
0.000000000000000e+00 0.000000000000000e+00 0.000000000000000e+00
0.000000000000000e+00 0.000000000000000e+00 0.000000000000000e+00
0.000000000000000e+00 0.000000000000000e+00 0.000000000000000e+00
0.000000000000000e+00 0.000000000000000e+00 0.000000000000000e+00
0.000000000000000e+00 0.000000000000000e+00 0.000000000000000e+00
0.000000000000000e+00 0.000000000000000e+00 0.000000000000000e+00
0.000000000000000e+00 0.000000000000000e+00 0.000000000000000e+00
0.000000000000000e+00 0.000000000000000e+00 0.000000000000000e+00
0.000000000000000e+00 0.000000000000000e+00 0.000000000000000e+00
0.000000000000000e+00 0.000000000000000e+00 0.000000000000000e+00
0.000000000000000e+00 0.000000000000000e+00 0.000000000000000e+00
0.000000000000000e+00 0.000000000000000e+00 0.000000000000000e+00
0.000000000000000e+00 0.000000000000000e+00 0.000000000000000e+00
0.000000000000000e+00 0.000000000000000e+00 0.000000000000000e+00
0.000000000000000e+00 0.000000000000000e+00 0.000000000000000e+00
0.000000000000000e+00 0.000000000000000e+00 0.000000000000000e+00
0.000000000000000e+00 0.000000000000000e+00 0.000000000000000e+00
0.000000000000000e+00 0.000000000000000e+00 0.000000000000000e+00
0.000000000000000e+00 0.000000000000000e+00 0.000000000000000e+00
0.000000000000000e+00 0.000000000000000e+00 0.000000000000000e+00
0.000000000000000e+00 0.000000000000000e+00 0.000000000000000e+00
0.000000000000000e+00 0.000000000000000e+00 0.000000000000000e+00
0.000000000000000e+00 0.000000000000000e+00 0.000000000000000e+00
0.000000000000000e+00 0.000000000000000e+00 0.000000000000000e+00
0.000000000000000e+00 0.000000000000000e+00 0.000000000000000e+00
0.000000000000000e+00 0.000000000000000e+00 0.000000000000000e+00
0.000000000000000e+00 0.000000000000000e+00 0.000000000000000e+00
0.000000000000000e+00 0.000000000000000e+00 0.000000000000000e+00
0.000000000000000e+00 0.000000000000000e+00 0.000000000000000e+00
0.000000000000000e+00 0.000000000000000e+00 0.000000000000000e+00
0.000000000000000e+00 0.000000000000000e+00 0.000000000000000e+00
0.000000000000000e+00 0.000000000000000e+00 0.000000000000000e+00
0.000000000000000e+00 0.000000000000000e+00 0.000000000000000e+00
0.000000000000000e+00 0.000000000000000e+00 0.000000000000000e+00
0.000000000000000e+00 0.000000000000000e+00 0.000000000000000e+00
0.000000000000000e+00 0.000000000000000e+00 0.000000000000000e+00
0.000000000000000e+00 0.000000000000000e+00 0.000000000000000e+00
0.000000000000000e+00 0.000000000000000e+00 0.000000000000000e+00
0.000000000000000e+00 0.000000000000000e+00 0.000000000000000e+00
0.000000000000000e+00 0.000000000000000e+00 0.000000000000000e+00
0.000000000000000e+00 0.000000000000000e+00 0.000000000000000e+00
0.000000000000000e+00 0.000000000000000e+00 0.000000000000000e+00
0.000000000000000e+00 0.000000000000000e+00 0.000000000000000e+00
0.000000000000000e+00 0.000000000000000e+00 0.000000000000000e+00
0.000000000000000e+00 0.000000000000000e+00 0.000000000000000e+00
0.000000000000000e+00 0.000000000000000e+00 0.000000000000000e+00
0.000000000000000e+00 0.000000000000000e+00 0.000000000000000e+00
0.000000000000000e+00 0.000000000000000e+00 0.000000000000000e+00
0.000000000000000e+00 0.000000000000000e+00 0.000000000000000e+00
0.000000000000000e+00 0.000000000000000e+00 0.000000000000000e+00
0.000000000000000e+00 0.000000000000000e+00 0.000000000000000e+00
0.000000000000000e+00 0.000000000000000e+00 0.000000000000000e+00
0.000000000000000e+00 0.000000000000000e+00 0.000000000000000e+00
0.000000000000000e+00 0.000000000000000e+00 0.000000000000000e+00
0.000000000000000e+00 0.000000000000000e+00 0.000000000000000e+00
0.000000000000000e+00 0.000000000000000e+00 0.000000000000000e+00
0.000000000000000e+00 0.000000000000000e+00 0.000000000000000e+00
0.000000000000000e+00 0.000000000000000e+00 0.000000000000000e+00
0.000000000000000e+00 0.000000000000000e+00 0.000000000000000e+00
0.000000000000000e+00 0.000000000000000e+00 0.000000000000000e+00
0.000000000000000e+00 0.000000000000000e+00 0.000000000000000e+00
0.000000000000000e+00 0.000000000000000e+00 0.000000000000000e+00
0.000000000000000e+00 0.000000000000000e+00 0.000000000000000e+00
0.000000000000000e+00 0.000000000000000e+00 0.000000000000000e+00
0.000000000000000e+00 0.000000000000000e+00 0.000000000000000e+00
0.000000000000000e+00 0.000000000000000e+00 0.000000000000000e+00
0.000000000000000e+00 0.000000000000000e+00 0.000000000000000e+00
0.000000000000000e+00 0.000000000000000e+00 0.000000000000000e+00
0.000000000000000e+00 0.000000000000000e+00 0.000000000000000e+00
0.000000000000000e+00 0.000000000000000e+00 0.000000000000000e+00
0.000000000000000e+00 0.000000000000000e+00 0.000000000000000e+00
0.000000000000000e+00 0.000000000000000e+00 0.000000000000000e+00
0.000000000000000e+00 0.000000000000000e+00 0.000000000000000e+00
0.000000000000000e+00 0.000000000000000e+00 0.000000000000000e+00
0.000000000000000e+00 0.000000000000000e+00 0.000000000000000e+00
0.000000000000000e+00 0.000000000000000e+00 0.000000000000000e+00
0.000000000000000e+00 0.000000000000000e+00 0.000000000000000e+00
0.000000000000000e+00 0.000000000000000e+00 0.000000000000000e+00
0.000000000000000e+00 0.000000000000000e+00 0.000000000000000e+00
0.000000000000000e+00 0.000000000000000e+00 0.000000000000000e+00
0.000000000000000e+00 0.000000000000000e+00 0.000000000000000e+00
0.000000000000000e+00 0.000000000000000e+00 0.000000000000000e+00
0.000000000000000e+00 0.000000000000000e+00 0.000000000000000e+00
0.000000000000000e+00 0.000000000000000e+00 0.000000000000000e+00
0.000000000000000e+00 0.000000000000000e+00 0.000000000000000e+00
0.000000000000000e+00 0.000000000000000e+00 0.000000000000000e+00
0.000000000000000e+00 0.000000000000000e+00 0.000000000000000e+00
0.000000000000000e+00 0.000000000000000e+00 0.000000000000000e+00
0.000000000000000e+00 0.000000000000000e+00 0.000000000000000e+00
0.000000000000000e+00 0.000000000000000e+00 0.000000000000000e+00
0.000000000000000e+00 0.000000000000000e+00 0.000000000000000e+00
0.000000000000000e+00 0.000000000000000e+00 0.000000000000000e+00
0.000000000000000e+00 0.000000000000000e+00 0.000000000000000e+00
0.000000000000000e+00 0.000000000000000e+00 0.000000000000000e+00
0.000000000000000e+00 0.000000000000000e+00 0.000000000000000e+00
0.000000000000000e+00 0.000000000000000e+00 0.000000000000000e+00
0.000000000000000e+00 0.000000000000000e+00 0.000000000000000e+00
0.000000000000000e+00 0.000000000000000e+00 0.000000000000000e+00
0.000000000000000e+00 0.000000000000000e+00 0.000000000000000e+00
0.000000000000000e+00 0.000000000000000e+00 0.000000000000000e+00
0.000000000000000e+00 0.000000000000000e+00 0.000000000000000e+00
0.000000000000000e+00 0.000000000000000e+00 0.000000000000000e+00
0.000000000000000e+00 0.000000000000000e+00 0.000000000000000e+00
0.000000000000000e+00 0.000000000000000e+00 0.000000000000000e+00
0.000000000000000e+00 0.000000000000000e+00 0.000000000000000e+00
0.000000000000000e+00 0.000000000000000e+00 0.000000000000000e+00
0.000000000000000e+00 0.000000000000000e+00 0.000000000000000e+00
0.000000000000000e+00 0.000000000000000e+00 0.000000000000000e+00
0.000000000000000e+00 0.000000000000000e+00 0.000000000000000e+00
0.000000000000000e+00 0.000000000000000e+00 0.000000000000000e+00
0.000000000000000e+00 0.000000000000000e+00 0.000000000000000e+00
0.000000000000000e+00 0.000000000000000e+00 0.000000000000000e+00
0.000000000000000e+00 0.000000000000000e+00 0.000000000000000e+00
0.000000000000000e+00 0.000000000000000e+00 0.000000000000000e+00
0.000000000000000e+00 0.000000000000000e+00 0.000000000000000e+00
0.000000000000000e+00 0.000000000000000e+00 0.000000000000000e+00
0.000000000000000e+00 0.000000000000000e+00 0.000000000000000e+00
0.000000000000000e+00 0.000000000000000e+00 0.000000000000000e+00
0.000000000000000e+00 0.000000000000000e+00 0.000000000000000e+00
0.000000000000000e+00 0.000000000000000e+00 0.000000000000000e+00
0.000000000000000e+00 0.000000000000000e+00 0.000000000000000e+00
0.000000000000000e+00 0.000000000000000e+00 0.000000000000000e+00
0.000000000000000e+00 0.000000000000000e+00 0.000000000000000e+00
0.000000000000000e+00 0.000000000000000e+00 0.000000000000000e+00
0.000000000000000e+00 0.000000000000000e+00 0.000000000000000e+00
0.000000000000000e+00 0.000000000000000e+00 0.000000000000000e+00
0.000000000000000e+00 0.000000000000000e+00 0.000000000000000e+00
0.000000000000000e+00 0.000000000000000e+00 0.000000000000000e+00
0.000000000000000e+00 0.000000000000000e+00 0.000000000000000e+00
0.000000000000000e+00 0.000000000000000e+00 0.000000000000000e+00
0.000000000000000e+00 0.000000000000000e+00 0.000000000000000e+00
0.000000000000000e+00 0.000000000000000e+00 0.000000000000000e+00
0.000000000000000e+00 0.000000000000000e+00 0.000000000000000e+00
0.000000000000000e+00 0.000000000000000e+00 0.000000000000000e+00
0.000000000000000e+00 0.000000000000000e+00 0.000000000000000e+00
0.000000000000000e+00 0.000000000000000e+00 0.000000000000000e+00
0.000000000000000e+00 0.000000000000000e+00 0.000000000000000e+00
0.000000000000000e+00 0.000000000000000e+00 0.000000000000000e+00
0.000000000000000e+00 0.000000000000000e+00 0.000000000000000e+00
0.000000000000000e+00 0.000000000000000e+00 0.000000000000000e+00
0.000000000000000e+00 0.000000000000000e+00 0.000000000000000e+00
0.000000000000000e+00 0.000000000000000e+00 0.000000000000000e+00
0.000000000000000e+00 0.000000000000000e+00 0.000000000000000e+00
0.000000000000000e+00 0.000000000000000e+00 0.000000000000000e+00
0.000000000000000e+00 0.000000000000000e+00 0.000000000000000e+00
0.000000000000000e+00 0.000000000000000e+00 0.000000000000000e+00
0.000000000000000e+00 0.000000000000000e+00 0.000000000000000e+00
0.000000000000000e+00 0.000000000000000e+00 0.000000000000000e+00
0.000000000000000e+00 0.000000000000000e+00 0.000000000000000e+00
0.000000000000000e+00 0.000000000000000e+00 0.000000000000000e+00
0.000000000000000e+00 0.000000000000000e+00 0.000000000000000e+00
0.000000000000000e+00 0.000000000000000e+00 0.000000000000000e+00
0.000000000000000e+00 0.000000000000000e+00 0.000000000000000e+00
0.000000000000000e+00 0.000000000000000e+00 0.000000000000000e+00
0.000000000000000e+00 0.000000000000000e+00 0.000000000000000e+00
0.000000000000000e+00 0.000000000000000e+00 0.000000000000000e+00
0.000000000000000e+00 0.000000000000000e+00 0.000000000000000e+00
0.000000000000000e+00 0.000000000000000e+00 0.000000000000000e+00
0.000000000000000e+00 0.000000000000000e+00 0.000000000000000e+00
0.000000000000000e+00 0.000000000000000e+00 0.000000000000000e+00
0.000000000000000e+00 0.000000000000000e+00 0.000000000000000e+00
0.000000000000000e+00 0.000000000000000e+00 0.000000000000000e+00
0.000000000000000e+00 0.000000000000000e+00 0.000000000000000e+00
0.000000000000000e+00 0.000000000000000e+00 0.000000000000000e+00
0.000000000000000e+00 0.000000000000000e+00 0.000000000000000e+00
0.000000000000000e+00 0.000000000000000e+00 0.000000000000000e+00
0.000000000000000e+00 0.000000000000000e+00 0.000000000000000e+00
0.000000000000000e+00 0.000000000000000e+00 0.000000000000000e+00
0.000000000000000e+00 0.000000000000000e+00 0.000000000000000e+00
0.000000000000000e+00 0.000000000000000e+00 0.000000000000000e+00
0.000000000000000e+00 0.000000000000000e+00 0.000000000000000e+00
0.000000000000000e+00 0.000000000000000e+00 0.000000000000000e+00
0.000000000000000e+00 0.000000000000000e+00 0.000000000000000e+00
0.000000000000000e+00 0.000000000000000e+00 0.000000000000000e+00
0.000000000000000e+00 0.000000000000000e+00 0.000000000000000e+00
0.000000000000000e+00 0.000000000000000e+00 0.000000000000000e+00
0.000000000000000e+00 0.000000000000000e+00 0.000000000000000e+00
0.000000000000000e+00 0.000000000000000e+00 0.000000000000000e+00
0.000000000000000e+00 0.000000000000000e+00 0.000000000000000e+00
0.000000000000000e+00 0.000000000000000e+00 0.000000000000000e+00
0.000000000000000e+00 0.000000000000000e+00 0.000000000000000e+00
0.000000000000000e+00 0.000000000000000e+00 0.000000000000000e+00
0.000000000000000e+00 0.000000000000000e+00 0.000000000000000e+00
0.000000000000000e+00 0.000000000000000e+00 0.000000000000000e+00
0.000000000000000e+00 0.000000000000000e+00 0.000000000000000e+00
0.000000000000000e+00 0.000000000000000e+00 0.000000000000000e+00
0.000000000000000e+00 0.000000000000000e+00 0.000000000000000e+00
0.000000000000000e+00 0.000000000000000e+00 0.000000000000000e+00
0.000000000000000e+00 0.000000000000000e+00 0.000000000000000e+00
0.000000000000000e+00 0.000000000000000e+00 0.000000000000000e+00
0.000000000000000e+00 0.000000000000000e+00 0.000000000000000e+00
0.000000000000000e+00 0.000000000000000e+00 0.000000000000000e+00
0.000000000000000e+00 0.000000000000000e+00 0.000000000000000e+00
0.000000000000000e+00 0.000000000000000e+00 0.000000000000000e+00
0.000000000000000e+00 0.000000000000000e+00 0.000000000000000e+00
0.000000000000000e+00 0.000000000000000e+00 0.000000000000000e+00
0.000000000000000e+00 0.000000000000000e+00 0.000000000000000e+00
0.000000000000000e+00 0.000000000000000e+00 0.000000000000000e+00
0.000000000000000e+00 0.000000000000000e+00 0.000000000000000e+00
0.000000000000000e+00 0.000000000000000e+00 0.000000000000000e+00
0.000000000000000e+00 0.000000000000000e+00 0.000000000000000e+00
0.000000000000000e+00 0.000000000000000e+00 0.000000000000000e+00
0.000000000000000e+00 0.000000000000000e+00 0.000000000000000e+00
0.000000000000000e+00 0.000000000000000e+00 0.000000000000000e+00
0.000000000000000e+00 0.000000000000000e+00 0.000000000000000e+00
0.000000000000000e+00 0.000000000000000e+00 0.000000000000000e+00
0.000000000000000e+00 0.000000000000000e+00 0.000000000000000e+00
0.000000000000000e+00 0.000000000000000e+00 0.000000000000000e+00
0.000000000000000e+00 0.000000000000000e+00 0.000000000000000e+00
0.000000000000000e+00 0.000000000000000e+00 0.000000000000000e+00
0.000000000000000e+00 0.000000000000000e+00 0.000000000000000e+00
0.000000000000000e+00 0.000000000000000e+00 0.000000000000000e+00
0.000000000000000e+00 0.000000000000000e+00 0.000000000000000e+00
0.000000000000000e+00 0.000000000000000e+00 0.000000000000000e+00
0.000000000000000e+00 0.000000000000000e+00 0.000000000000000e+00
0.000000000000000e+00 0.000000000000000e+00 0.000000000000000e+00
0.000000000000000e+00 0.000000000000000e+00 0.000000000000000e+00
0.000000000000000e+00 0.000000000000000e+00 0.000000000000000e+00
0.000000000000000e+00 0.000000000000000e+00 0.000000000000000e+00
0.000000000000000e+00 0.000000000000000e+00 0.000000000000000e+00
0.000000000000000e+00 0.000000000000000e+00 0.000000000000000e+00
0.000000000000000e+00 0.000000000000000e+00 0.000000000000000e+00
0.000000000000000e+00 0.000000000000000e+00 0.000000000000000e+00
0.000000000000000e+00 0.000000000000000e+00 0.000000000000000e+00
0.000000000000000e+00 0.000000000000000e+00 0.000000000000000e+00
0.000000000000000e+00 0.000000000000000e+00 0.000000000000000e+00
0.000000000000000e+00 0.000000000000000e+00 0.000000000000000e+00
0.000000000000000e+00 0.000000000000000e+00 0.000000000000000e+00
0.000000000000000e+00 0.000000000000000e+00 0.000000000000000e+00
0.000000000000000e+00 0.000000000000000e+00 0.000000000000000e+00
0.000000000000000e+00 0.000000000000000e+00 0.000000000000000e+00
0.000000000000000e+00 0.000000000000000e+00 0.000000000000000e+00
0.000000000000000e+00 0.000000000000000e+00 0.000000000000000e+00
0.000000000000000e+00 0.000000000000000e+00 0.000000000000000e+00
0.000000000000000e+00 0.000000000000000e+00 0.000000000000000e+00
0.000000000000000e+00 0.000000000000000e+00 0.000000000000000e+00
0.000000000000000e+00 0.000000000000000e+00 0.000000000000000e+00
0.000000000000000e+00 0.000000000000000e+00 0.000000000000000e+00
0.000000000000000e+00 0.000000000000000e+00 0.000000000000000e+00
0.000000000000000e+00 0.000000000000000e+00 0.000000000000000e+00
0.000000000000000e+00 0.000000000000000e+00 0.000000000000000e+00
0.000000000000000e+00 0.000000000000000e+00 0.000000000000000e+00
0.000000000000000e+00 0.000000000000000e+00 0.000000000000000e+00
0.000000000000000e+00 0.000000000000000e+00 0.000000000000000e+00
0.000000000000000e+00 0.000000000000000e+00 0.000000000000000e+00
0.000000000000000e+00 0.000000000000000e+00 0.000000000000000e+00
0.000000000000000e+00 0.000000000000000e+00 0.000000000000000e+00
0.000000000000000e+00 0.000000000000000e+00 0.000000000000000e+00
0.000000000000000e+00 0.000000000000000e+00 0.000000000000000e+00
0.000000000000000e+00 0.000000000000000e+00 0.000000000000000e+00
0.000000000000000e+00 0.000000000000000e+00 0.000000000000000e+00
0.000000000000000e+00 0.000000000000000e+00 0.000000000000000e+00
0.000000000000000e+00 0.000000000000000e+00 0.000000000000000e+00
0.000000000000000e+00 0.000000000000000e+00 0.000000000000000e+00
0.000000000000000e+00 0.000000000000000e+00 0.000000000000000e+00
0.000000000000000e+00 0.000000000000000e+00 0.000000000000000e+00
0.000000000000000e+00 0.000000000000000e+00 0.000000000000000e+00
0.000000000000000e+00 0.000000000000000e+00 0.000000000000000e+00
0.000000000000000e+00 0.000000000000000e+00 0.000000000000000e+00
0.000000000000000e+00 0.000000000000000e+00 0.000000000000000e+00
0.000000000000000e+00 0.000000000000000e+00 0.000000000000000e+00
0.000000000000000e+00 0.000000000000000e+00 0.000000000000000e+00
0.000000000000000e+00 0.000000000000000e+00 0.000000000000000e+00
0.000000000000000e+00 0.000000000000000e+00 0.000000000000000e+00
0.000000000000000e+00 0.000000000000000e+00 0.000000000000000e+00
0.000000000000000e+00 0.000000000000000e+00 0.000000000000000e+00
0.000000000000000e+00 0.000000000000000e+00 0.000000000000000e+00
0.000000000000000e+00 0.000000000000000e+00 0.000000000000000e+00
0.000000000000000e+00 0.000000000000000e+00 0.000000000000000e+00
0.000000000000000e+00 0.000000000000000e+00 0.000000000000000e+00
0.000000000000000e+00 0.000000000000000e+00 0.000000000000000e+00
0.000000000000000e+00 0.000000000000000e+00 0.000000000000000e+00
0.000000000000000e+00 0.000000000000000e+00 0.000000000000000e+00
0.000000000000000e+00 0.000000000000000e+00 0.000000000000000e+00
0.000000000000000e+00 0.000000000000000e+00 0.000000000000000e+00
0.000000000000000e+00 0.000000000000000e+00 0.000000000000000e+00
0.000000000000000e+00 0.000000000000000e+00 0.000000000000000e+00
0.000000000000000e+00 0.000000000000000e+00 0.000000000000000e+00
0.000000000000000e+00 0.000000000000000e+00 0.000000000000000e+00
0.000000000000000e+00 0.000000000000000e+00 0.000000000000000e+00
0.000000000000000e+00 0.000000000000000e+00 0.000000000000000e+00
0.000000000000000e+00 0.000000000000000e+00 0.000000000000000e+00
0.000000000000000e+00 0.000000000000000e+00 0.000000000000000e+00
0.000000000000000e+00 0.000000000000000e+00 0.000000000000000e+00
0.000000000000000e+00 0.000000000000000e+00 0.000000000000000e+00
0.000000000000000e+00 0.000000000000000e+00 0.000000000000000e+00
0.000000000000000e+00 0.000000000000000e+00 0.000000000000000e+00
0.000000000000000e+00 0.000000000000000e+00 0.000000000000000e+00
0.000000000000000e+00 0.000000000000000e+00 0.000000000000000e+00
0.000000000000000e+00 0.000000000000000e+00 0.000000000000000e+00
0.000000000000000e+00 0.000000000000000e+00 0.000000000000000e+00
0.000000000000000e+00 0.000000000000000e+00 0.000000000000000e+00
0.000000000000000e+00 0.000000000000000e+00 0.000000000000000e+00
0.000000000000000e+00 0.000000000000000e+00 0.000000000000000e+00
0.000000000000000e+00 0.000000000000000e+00 0.000000000000000e+00
0.000000000000000e+00 0.000000000000000e+00 0.000000000000000e+00
0.000000000000000e+00 0.000000000000000e+00 0.000000000000000e+00
0.000000000000000e+00 0.000000000000000e+00 0.000000000000000e+00
0.000000000000000e+00 0.000000000000000e+00 0.000000000000000e+00
0.000000000000000e+00 0.000000000000000e+00 0.000000000000000e+00
0.000000000000000e+00 0.000000000000000e+00 0.000000000000000e+00
0.000000000000000e+00 0.000000000000000e+00 0.000000000000000e+00
0.000000000000000e+00 0.000000000000000e+00 0.000000000000000e+00
0.000000000000000e+00 0.000000000000000e+00 0.000000000000000e+00
0.000000000000000e+00 0.000000000000000e+00 0.000000000000000e+00
0.000000000000000e+00 0.000000000000000e+00 0.000000000000000e+00
0.000000000000000e+00 0.000000000000000e+00 0.000000000000000e+00
0.000000000000000e+00 0.000000000000000e+00 0.000000000000000e+00
0.000000000000000e+00 0.000000000000000e+00 0.000000000000000e+00
0.000000000000000e+00 0.000000000000000e+00 0.000000000000000e+00
0.000000000000000e+00 0.000000000000000e+00 0.000000000000000e+00
0.000000000000000e+00 0.000000000000000e+00 0.000000000000000e+00
0.000000000000000e+00 0.000000000000000e+00 0.000000000000000e+00
0.000000000000000e+00 0.000000000000000e+00 0.000000000000000e+00
0.000000000000000e+00 0.000000000000000e+00 0.000000000000000e+00
0.000000000000000e+00 0.000000000000000e+00 0.000000000000000e+00
0.000000000000000e+00 0.000000000000000e+00 0.000000000000000e+00
0.000000000000000e+00 0.000000000000000e+00 0.000000000000000e+00
0.000000000000000e+00 0.000000000000000e+00 0.000000000000000e+00
0.000000000000000e+00 0.000000000000000e+00 0.000000000000000e+00
0.000000000000000e+00 0.000000000000000e+00 0.000000000000000e+00
0.000000000000000e+00 0.000000000000000e+00 0.000000000000000e+00
0.000000000000000e+00 0.000000000000000e+00 0.000000000000000e+00
0.000000000000000e+00 0.000000000000000e+00 0.000000000000000e+00
0.000000000000000e+00 0.000000000000000e+00 0.000000000000000e+00
0.000000000000000e+00 0.000000000000000e+00 0.000000000000000e+00
0.000000000000000e+00 0.000000000000000e+00 0.000000000000000e+00
0.000000000000000e+00 0.000000000000000e+00 0.000000000000000e+00
0.000000000000000e+00 0.000000000000000e+00 0.000000000000000e+00
0.000000000000000e+00 0.000000000000000e+00 0.000000000000000e+00
0.000000000000000e+00 0.000000000000000e+00 0.000000000000000e+00
0.000000000000000e+00 0.000000000000000e+00 0.000000000000000e+00
0.000000000000000e+00 0.000000000000000e+00 0.000000000000000e+00
0.000000000000000e+00 0.000000000000000e+00 0.000000000000000e+00
0.000000000000000e+00 0.000000000000000e+00 0.000000000000000e+00
0.000000000000000e+00 0.000000000000000e+00 0.000000000000000e+00
0.000000000000000e+00 0.000000000000000e+00 0.000000000000000e+00
0.000000000000000e+00 0.000000000000000e+00 0.000000000000000e+00
0.000000000000000e+00 0.000000000000000e+00 0.000000000000000e+00
0.000000000000000e+00 0.000000000000000e+00 0.000000000000000e+00
0.000000000000000e+00 0.000000000000000e+00 0.000000000000000e+00
0.000000000000000e+00 0.000000000000000e+00 0.000000000000000e+00
0.000000000000000e+00 0.000000000000000e+00 0.000000000000000e+00
0.000000000000000e+00 0.000000000000000e+00 0.000000000000000e+00
0.000000000000000e+00 0.000000000000000e+00 0.000000000000000e+00
0.000000000000000e+00 0.000000000000000e+00 0.000000000000000e+00
0.000000000000000e+00 0.000000000000000e+00 0.000000000000000e+00
0.000000000000000e+00 0.000000000000000e+00 0.000000000000000e+00
0.000000000000000e+00 0.000000000000000e+00 0.000000000000000e+00
0.000000000000000e+00 0.000000000000000e+00 0.000000000000000e+00
0.000000000000000e+00 0.000000000000000e+00 0.000000000000000e+00
0.000000000000000e+00 0.000000000000000e+00 0.000000000000000e+00
0.000000000000000e+00 0.000000000000000e+00 0.000000000000000e+00
0.000000000000000e+00 0.000000000000000e+00 0.000000000000000e+00
0.000000000000000e+00 0.000000000000000e+00 0.000000000000000e+00
0.000000000000000e+00 0.000000000000000e+00 0.000000000000000e+00
0.000000000000000e+00 0.000000000000000e+00 0.000000000000000e+00
0.000000000000000e+00 0.000000000000000e+00 0.000000000000000e+00
0.000000000000000e+00 0.000000000000000e+00 0.000000000000000e+00
0.000000000000000e+00 0.000000000000000e+00 0.000000000000000e+00
0.000000000000000e+00 0.000000000000000e+00 0.000000000000000e+00
0.000000000000000e+00 0.000000000000000e+00 0.000000000000000e+00
0.000000000000000e+00 0.000000000000000e+00 0.000000000000000e+00
0.000000000000000e+00 0.000000000000000e+00 0.000000000000000e+00
0.000000000000000e+00 0.000000000000000e+00 0.000000000000000e+00
0.000000000000000e+00 0.000000000000000e+00 0.000000000000000e+00
0.000000000000000e+00 0.000000000000000e+00 0.000000000000000e+00
0.000000000000000e+00 0.000000000000000e+00 0.000000000000000e+00
0.000000000000000e+00 0.000000000000000e+00 0.000000000000000e+00
0.000000000000000e+00 0.000000000000000e+00 0.000000000000000e+00
0.000000000000000e+00 0.000000000000000e+00 0.000000000000000e+00
0.000000000000000e+00 0.000000000000000e+00 0.000000000000000e+00
0.000000000000000e+00 0.000000000000000e+00 0.000000000000000e+00
0.000000000000000e+00 0.000000000000000e+00 0.000000000000000e+00
0.000000000000000e+00 0.000000000000000e+00 0.000000000000000e+00
0.000000000000000e+00 0.000000000000000e+00 0.000000000000000e+00
0.000000000000000e+00 0.000000000000000e+00 0.000000000000000e+00
0.000000000000000e+00 0.000000000000000e+00 0.000000000000000e+00
0.000000000000000e+00 0.000000000000000e+00 0.000000000000000e+00
0.000000000000000e+00 0.000000000000000e+00 0.000000000000000e+00
0.000000000000000e+00 0.000000000000000e+00 0.000000000000000e+00
0.000000000000000e+00 0.000000000000000e+00 0.000000000000000e+00
0.000000000000000e+00 0.000000000000000e+00 0.000000000000000e+00
0.000000000000000e+00 0.000000000000000e+00 0.000000000000000e+00
0.000000000000000e+00 0.000000000000000e+00 0.000000000000000e+00
0.000000000000000e+00 0.000000000000000e+00 0.000000000000000e+00
0.000000000000000e+00 0.000000000000000e+00 0.000000000000000e+00
0.000000000000000e+00 0.000000000000000e+00 0.000000000000000e+00
0.000000000000000e+00 0.000000000000000e+00 0.000000000000000e+00
0.000000000000000e+00 0.000000000000000e+00 0.000000000000000e+00
0.000000000000000e+00 0.000000000000000e+00 0.000000000000000e+00
0.000000000000000e+00 0.000000000000000e+00 0.000000000000000e+00
0.000000000000000e+00 0.000000000000000e+00 0.000000000000000e+00
0.000000000000000e+00 0.000000000000000e+00 0.000000000000000e+00
0.000000000000000e+00 0.000000000000000e+00 0.000000000000000e+00
0.000000000000000e+00 0.000000000000000e+00 0.000000000000000e+00
0.000000000000000e+00 0.000000000000000e+00 0.000000000000000e+00
0.000000000000000e+00 0.000000000000000e+00 0.000000000000000e+00
0.000000000000000e+00 0.000000000000000e+00 0.000000000000000e+00
0.000000000000000e+00 0.000000000000000e+00 0.000000000000000e+00
0.000000000000000e+00 0.000000000000000e+00 0.000000000000000e+00
0.000000000000000e+00 0.000000000000000e+00 0.000000000000000e+00
0.000000000000000e+00 0.000000000000000e+00 0.000000000000000e+00
0.000000000000000e+00 0.000000000000000e+00 0.000000000000000e+00
0.000000000000000e+00 0.000000000000000e+00 0.000000000000000e+00
0.000000000000000e+00 0.000000000000000e+00 0.000000000000000e+00
0.000000000000000e+00 0.000000000000000e+00 0.000000000000000e+00
0.000000000000000e+00 0.000000000000000e+00 0.000000000000000e+00
0.000000000000000e+00 0.000000000000000e+00 0.000000000000000e+00
0.000000000000000e+00 0.000000000000000e+00 0.000000000000000e+00
0.000000000000000e+00 0.000000000000000e+00 0.000000000000000e+00
0.000000000000000e+00 0.000000000000000e+00 0.000000000000000e+00
0.000000000000000e+00 0.000000000000000e+00 0.000000000000000e+00
0.000000000000000e+00 0.000000000000000e+00 0.000000000000000e+00
0.000000000000000e+00 0.000000000000000e+00 0.000000000000000e+00
0.000000000000000e+00 0.000000000000000e+00 0.000000000000000e+00
0.000000000000000e+00 0.000000000000000e+00 0.000000000000000e+00
0.000000000000000e+00 0.000000000000000e+00 0.000000000000000e+00
0.000000000000000e+00 0.000000000000000e+00 0.000000000000000e+00
0.000000000000000e+00 0.000000000000000e+00 0.000000000000000e+00
0.000000000000000e+00 0.000000000000000e+00 0.000000000000000e+00
0.000000000000000e+00 0.000000000000000e+00 0.000000000000000e+00
0.000000000000000e+00 0.000000000000000e+00 0.000000000000000e+00
0.000000000000000e+00 0.000000000000000e+00 0.000000000000000e+00
0.000000000000000e+00 0.000000000000000e+00 0.000000000000000e+00
0.000000000000000e+00 0.000000000000000e+00 0.000000000000000e+00
0.000000000000000e+00 0.000000000000000e+00 0.000000000000000e+00
0.000000000000000e+00 0.000000000000000e+00 0.000000000000000e+00
0.000000000000000e+00 0.000000000000000e+00 0.000000000000000e+00
0.000000000000000e+00 0.000000000000000e+00 0.000000000000000e+00
0.000000000000000e+00 0.000000000000000e+00 0.000000000000000e+00
0.000000000000000e+00 0.000000000000000e+00 0.000000000000000e+00
0.000000000000000e+00 0.000000000000000e+00 0.000000000000000e+00
0.000000000000000e+00 0.000000000000000e+00 0.000000000000000e+00
0.000000000000000e+00 0.000000000000000e+00 0.000000000000000e+00
0.000000000000000e+00 0.000000000000000e+00 0.000000000000000e+00
0.000000000000000e+00 0.000000000000000e+00 0.000000000000000e+00
0.000000000000000e+00 0.000000000000000e+00 0.000000000000000e+00
0.000000000000000e+00 0.000000000000000e+00 0.000000000000000e+00
0.000000000000000e+00 0.000000000000000e+00 0.000000000000000e+00
0.000000000000000e+00 0.000000000000000e+00 0.000000000000000e+00
0.000000000000000e+00 0.000000000000000e+00 0.000000000000000e+00
0.000000000000000e+00 0.000000000000000e+00 0.000000000000000e+00
0.000000000000000e+00 0.000000000000000e+00 0.000000000000000e+00
0.000000000000000e+00 0.000000000000000e+00 0.000000000000000e+00
0.000000000000000e+00 0.000000000000000e+00 0.000000000000000e+00
0.000000000000000e+00 0.000000000000000e+00 0.000000000000000e+00
0.000000000000000e+00 0.000000000000000e+00 0.000000000000000e+00
0.000000000000000e+00 0.000000000000000e+00 0.000000000000000e+00
0.000000000000000e+00 0.000000000000000e+00 0.000000000000000e+00
0.000000000000000e+00 0.000000000000000e+00 0.000000000000000e+00
0.000000000000000e+00 0.000000000000000e+00 0.000000000000000e+00
0.000000000000000e+00 0.000000000000000e+00 0.000000000000000e+00
0.000000000000000e+00 0.000000000000000e+00 0.000000000000000e+00
0.000000000000000e+00 0.000000000000000e+00 0.000000000000000e+00
0.000000000000000e+00 0.000000000000000e+00 0.000000000000000e+00
0.000000000000000e+00 0.000000000000000e+00 0.000000000000000e+00
0.000000000000000e+00 0.000000000000000e+00 0.000000000000000e+00
0.000000000000000e+00 0.000000000000000e+00 0.000000000000000e+00
0.000000000000000e+00 0.000000000000000e+00 0.000000000000000e+00
0.000000000000000e+00 0.000000000000000e+00 0.000000000000000e+00
0.000000000000000e+00 0.000000000000000e+00 0.000000000000000e+00
0.000000000000000e+00 0.000000000000000e+00 0.000000000000000e+00
0.000000000000000e+00 0.000000000000000e+00 0.000000000000000e+00
0.000000000000000e+00 0.000000000000000e+00 0.000000000000000e+00
0.000000000000000e+00 0.000000000000000e+00 0.000000000000000e+00
0.000000000000000e+00 0.000000000000000e+00 0.000000000000000e+00
0.000000000000000e+00 0.000000000000000e+00 0.000000000000000e+00
0.000000000000000e+00 0.000000000000000e+00 0.000000000000000e+00
0.000000000000000e+00 0.000000000000000e+00 0.000000000000000e+00
0.000000000000000e+00 0.000000000000000e+00 0.000000000000000e+00
0.000000000000000e+00 0.000000000000000e+00 0.000000000000000e+00
0.000000000000000e+00 0.000000000000000e+00 0.000000000000000e+00
0.000000000000000e+00 0.000000000000000e+00 0.000000000000000e+00
0.000000000000000e+00 0.000000000000000e+00 0.000000000000000e+00
0.000000000000000e+00 0.000000000000000e+00 0.000000000000000e+00
0.000000000000000e+00 0.000000000000000e+00 0.000000000000000e+00
0.000000000000000e+00 0.000000000000000e+00 0.000000000000000e+00
0.000000000000000e+00 0.000000000000000e+00 0.000000000000000e+00
0.000000000000000e+00 0.000000000000000e+00 0.000000000000000e+00
0.000000000000000e+00 0.000000000000000e+00 0.000000000000000e+00
0.000000000000000e+00 0.000000000000000e+00 0.000000000000000e+00
0.000000000000000e+00 0.000000000000000e+00 0.000000000000000e+00
0.000000000000000e+00 0.000000000000000e+00 0.000000000000000e+00
0.000000000000000e+00 0.000000000000000e+00 0.000000000000000e+00
0.000000000000000e+00 0.000000000000000e+00 0.000000000000000e+00
0.000000000000000e+00 0.000000000000000e+00 0.000000000000000e+00
0.000000000000000e+00 0.000000000000000e+00 0.000000000000000e+00
0.000000000000000e+00 0.000000000000000e+00 0.000000000000000e+00
0.000000000000000e+00 0.000000000000000e+00 0.000000000000000e+00
0.000000000000000e+00 0.000000000000000e+00 0.000000000000000e+00
0.000000000000000e+00 0.000000000000000e+00 0.000000000000000e+00
0.000000000000000e+00 0.000000000000000e+00 0.000000000000000e+00
0.000000000000000e+00 0.000000000000000e+00 0.000000000000000e+00
0.000000000000000e+00 0.000000000000000e+00 0.000000000000000e+00
0.000000000000000e+00 0.000000000000000e+00 0.000000000000000e+00
0.000000000000000e+00 0.000000000000000e+00 0.000000000000000e+00
0.000000000000000e+00 0.000000000000000e+00 0.000000000000000e+00
0.000000000000000e+00 0.000000000000000e+00 0.000000000000000e+00
0.000000000000000e+00 0.000000000000000e+00 0.000000000000000e+00
0.000000000000000e+00 0.000000000000000e+00 0.000000000000000e+00
0.000000000000000e+00 0.000000000000000e+00 0.000000000000000e+00
0.000000000000000e+00 0.000000000000000e+00 0.000000000000000e+00
0.000000000000000e+00 0.000000000000000e+00 0.000000000000000e+00
0.000000000000000e+00 0.000000000000000e+00 0.000000000000000e+00
0.000000000000000e+00 0.000000000000000e+00 0.000000000000000e+00
0.000000000000000e+00 0.000000000000000e+00 0.000000000000000e+00
0.000000000000000e+00 0.000000000000000e+00 0.000000000000000e+00
0.000000000000000e+00 0.000000000000000e+00 0.000000000000000e+00
0.000000000000000e+00 0.000000000000000e+00 0.000000000000000e+00
0.000000000000000e+00 0.000000000000000e+00 0.000000000000000e+00
0.000000000000000e+00 0.000000000000000e+00 0.000000000000000e+00
0.000000000000000e+00 0.000000000000000e+00 0.000000000000000e+00
0.000000000000000e+00 0.000000000000000e+00 0.000000000000000e+00
0.000000000000000e+00 0.000000000000000e+00 0.000000000000000e+00
0.000000000000000e+00 0.000000000000000e+00 0.000000000000000e+00
0.000000000000000e+00 0.000000000000000e+00 0.000000000000000e+00
0.000000000000000e+00 0.000000000000000e+00 0.000000000000000e+00
0.000000000000000e+00 0.000000000000000e+00 0.000000000000000e+00
0.000000000000000e+00 0.000000000000000e+00 0.000000000000000e+00
0.000000000000000e+00 0.000000000000000e+00 0.000000000000000e+00
0.000000000000000e+00 0.000000000000000e+00 0.000000000000000e+00
0.000000000000000e+00 0.000000000000000e+00 0.000000000000000e+00
0.000000000000000e+00 0.000000000000000e+00 0.000000000000000e+00
0.000000000000000e+00 0.000000000000000e+00 0.000000000000000e+00
0.000000000000000e+00 0.000000000000000e+00 0.000000000000000e+00
0.000000000000000e+00 0.000000000000000e+00 0.000000000000000e+00
0.000000000000000e+00 0.000000000000000e+00 0.000000000000000e+00
0.000000000000000e+00 0.000000000000000e+00 0.000000000000000e+00
0.000000000000000e+00 0.000000000000000e+00 0.000000000000000e+00
0.000000000000000e+00 0.000000000000000e+00 0.000000000000000e+00
0.000000000000000e+00 0.000000000000000e+00 0.000000000000000e+00
0.000000000000000e+00 0.000000000000000e+00 0.000000000000000e+00
0.000000000000000e+00 0.000000000000000e+00 0.000000000000000e+00
0.000000000000000e+00 0.000000000000000e+00 0.000000000000000e+00
0.000000000000000e+00 0.000000000000000e+00 0.000000000000000e+00
0.000000000000000e+00 0.000000000000000e+00 0.000000000000000e+00
0.000000000000000e+00 0.000000000000000e+00 0.000000000000000e+00
0.000000000000000e+00 0.000000000000000e+00 0.000000000000000e+00
0.000000000000000e+00 0.000000000000000e+00 0.000000000000000e+00
0.000000000000000e+00 0.000000000000000e+00 0.000000000000000e+00
0.000000000000000e+00 0.000000000000000e+00 0.000000000000000e+00
0.000000000000000e+00 0.000000000000000e+00 0.000000000000000e+00
0.000000000000000e+00 0.000000000000000e+00 0.000000000000000e+00
0.000000000000000e+00 0.000000000000000e+00 0.000000000000000e+00
0.000000000000000e+00 0.000000000000000e+00 0.000000000000000e+00
0.000000000000000e+00 0.000000000000000e+00 0.000000000000000e+00
0.000000000000000e+00 0.000000000000000e+00 0.000000000000000e+00
0.000000000000000e+00 0.000000000000000e+00 0.000000000000000e+00
0.000000000000000e+00 0.000000000000000e+00 0.000000000000000e+00
0.000000000000000e+00 0.000000000000000e+00 0.000000000000000e+00
0.000000000000000e+00 0.000000000000000e+00 0.000000000000000e+00
0.000000000000000e+00 0.000000000000000e+00 0.000000000000000e+00
0.000000000000000e+00 0.000000000000000e+00 0.000000000000000e+00
0.000000000000000e+00 0.000000000000000e+00 0.000000000000000e+00
0.000000000000000e+00 0.000000000000000e+00 0.000000000000000e+00
0.000000000000000e+00 0.000000000000000e+00 0.000000000000000e+00
0.000000000000000e+00 0.000000000000000e+00 0.000000000000000e+00
0.000000000000000e+00 0.000000000000000e+00 0.000000000000000e+00
0.000000000000000e+00 0.000000000000000e+00 0.000000000000000e+00
0.000000000000000e+00 0.000000000000000e+00 0.000000000000000e+00
0.000000000000000e+00 0.000000000000000e+00 0.000000000000000e+00
0.000000000000000e+00 0.000000000000000e+00 0.000000000000000e+00
0.000000000000000e+00 0.000000000000000e+00 0.000000000000000e+00
0.000000000000000e+00 0.000000000000000e+00 0.000000000000000e+00
0.000000000000000e+00 0.000000000000000e+00 0.000000000000000e+00
0.000000000000000e+00 0.000000000000000e+00 0.000000000000000e+00
0.000000000000000e+00 0.000000000000000e+00 0.000000000000000e+00
0.000000000000000e+00 0.000000000000000e+00 0.000000000000000e+00
0.000000000000000e+00 0.000000000000000e+00 0.000000000000000e+00
0.000000000000000e+00 0.000000000000000e+00 0.000000000000000e+00
0.000000000000000e+00 0.000000000000000e+00 0.000000000000000e+00
0.000000000000000e+00 0.000000000000000e+00 0.000000000000000e+00
0.000000000000000e+00 0.000000000000000e+00 0.000000000000000e+00
0.000000000000000e+00 0.000000000000000e+00 0.000000000000000e+00
0.000000000000000e+00 0.000000000000000e+00 0.000000000000000e+00
0.000000000000000e+00 0.000000000000000e+00 0.000000000000000e+00
0.000000000000000e+00 0.000000000000000e+00 0.000000000000000e+00
0.000000000000000e+00 0.000000000000000e+00 0.000000000000000e+00
0.000000000000000e+00 0.000000000000000e+00 0.000000000000000e+00
0.000000000000000e+00 0.000000000000000e+00 0.000000000000000e+00
0.000000000000000e+00 0.000000000000000e+00 0.000000000000000e+00
0.000000000000000e+00 0.000000000000000e+00 0.000000000000000e+00
0.000000000000000e+00 0.000000000000000e+00 0.000000000000000e+00
0.000000000000000e+00 0.000000000000000e+00 0.000000000000000e+00
0.000000000000000e+00 0.000000000000000e+00 0.000000000000000e+00
0.000000000000000e+00 0.000000000000000e+00 0.000000000000000e+00
0.000000000000000e+00 0.000000000000000e+00 0.000000000000000e+00
0.000000000000000e+00 0.000000000000000e+00 0.000000000000000e+00
0.000000000000000e+00 0.000000000000000e+00 0.000000000000000e+00
0.000000000000000e+00 0.000000000000000e+00 0.000000000000000e+00
0.000000000000000e+00 0.000000000000000e+00 0.000000000000000e+00
0.000000000000000e+00 0.000000000000000e+00 0.000000000000000e+00
0.000000000000000e+00 0.000000000000000e+00 0.000000000000000e+00
0.000000000000000e+00 0.000000000000000e+00 0.000000000000000e+00
0.000000000000000e+00 0.000000000000000e+00 0.000000000000000e+00
0.000000000000000e+00 0.000000000000000e+00 0.000000000000000e+00
0.000000000000000e+00 0.000000000000000e+00 0.000000000000000e+00
0.000000000000000e+00 0.000000000000000e+00 0.000000000000000e+00
0.000000000000000e+00 0.000000000000000e+00 0.000000000000000e+00
0.000000000000000e+00 0.000000000000000e+00 0.000000000000000e+00
0.000000000000000e+00 0.000000000000000e+00 0.000000000000000e+00
0.000000000000000e+00 0.000000000000000e+00 0.000000000000000e+00
0.000000000000000e+00 0.000000000000000e+00 0.000000000000000e+00
0.000000000000000e+00 0.000000000000000e+00 0.000000000000000e+00
0.000000000000000e+00 0.000000000000000e+00 0.000000000000000e+00
0.000000000000000e+00 0.000000000000000e+00 0.000000000000000e+00
0.000000000000000e+00 0.000000000000000e+00 0.000000000000000e+00
0.000000000000000e+00 0.000000000000000e+00 0.000000000000000e+00
0.000000000000000e+00 0.000000000000000e+00 0.000000000000000e+00
0.000000000000000e+00 0.000000000000000e+00 0.000000000000000e+00
0.000000000000000e+00 0.000000000000000e+00 0.000000000000000e+00
0.000000000000000e+00 0.000000000000000e+00 0.000000000000000e+00
0.000000000000000e+00 0.000000000000000e+00 0.000000000000000e+00
0.000000000000000e+00 0.000000000000000e+00 0.000000000000000e+00
0.000000000000000e+00 0.000000000000000e+00 0.000000000000000e+00
0.000000000000000e+00 0.000000000000000e+00 0.000000000000000e+00
0.000000000000000e+00 0.000000000000000e+00 0.000000000000000e+00
0.000000000000000e+00 0.000000000000000e+00 0.000000000000000e+00
0.000000000000000e+00 0.000000000000000e+00 0.000000000000000e+00
0.000000000000000e+00 0.000000000000000e+00 0.000000000000000e+00
0.000000000000000e+00 0.000000000000000e+00 0.000000000000000e+00
0.000000000000000e+00 0.000000000000000e+00 0.000000000000000e+00
0.000000000000000e+00 0.000000000000000e+00 0.000000000000000e+00
0.000000000000000e+00 0.000000000000000e+00 0.000000000000000e+00
0.000000000000000e+00 0.000000000000000e+00 0.000000000000000e+00
0.000000000000000e+00 0.000000000000000e+00 0.000000000000000e+00
0.000000000000000e+00 0.000000000000000e+00 0.000000000000000e+00
0.000000000000000e+00 0.000000000000000e+00 0.000000000000000e+00
0.000000000000000e+00 0.000000000000000e+00 0.000000000000000e+00
0.000000000000000e+00 0.000000000000000e+00 0.000000000000000e+00
0.000000000000000e+00 0.000000000000000e+00 0.000000000000000e+00
0.000000000000000e+00 0.000000000000000e+00 0.000000000000000e+00
0.000000000000000e+00 0.000000000000000e+00 0.000000000000000e+00
0.000000000000000e+00 0.000000000000000e+00 0.000000000000000e+00
0.000000000000000e+00 0.000000000000000e+00 0.000000000000000e+00
0.000000000000000e+00 0.000000000000000e+00 0.000000000000000e+00
0.000000000000000e+00 0.000000000000000e+00 0.000000000000000e+00
0.000000000000000e+00 0.000000000000000e+00 0.000000000000000e+00
0.000000000000000e+00 0.000000000000000e+00 0.000000000000000e+00
0.000000000000000e+00 0.000000000000000e+00 0.000000000000000e+00
0.000000000000000e+00 0.000000000000000e+00 0.000000000000000e+00
0.000000000000000e+00 0.000000000000000e+00 0.000000000000000e+00
0.000000000000000e+00 0.000000000000000e+00 0.000000000000000e+00
0.000000000000000e+00 0.000000000000000e+00 0.000000000000000e+00
0.000000000000000e+00 0.000000000000000e+00 0.000000000000000e+00
0.000000000000000e+00 0.000000000000000e+00 0.000000000000000e+00
0.000000000000000e+00 0.000000000000000e+00 0.000000000000000e+00
0.000000000000000e+00 0.000000000000000e+00 0.000000000000000e+00
0.000000000000000e+00 0.000000000000000e+00 0.000000000000000e+00
0.000000000000000e+00 0.000000000000000e+00 0.000000000000000e+00
0.000000000000000e+00 0.000000000000000e+00 0.000000000000000e+00
0.000000000000000e+00 0.000000000000000e+00 0.000000000000000e+00
0.000000000000000e+00 0.000000000000000e+00 0.000000000000000e+00
0.000000000000000e+00 0.000000000000000e+00 0.000000000000000e+00
0.000000000000000e+00 0.000000000000000e+00 0.000000000000000e+00
0.000000000000000e+00 0.000000000000000e+00 0.000000000000000e+00
0.000000000000000e+00 0.000000000000000e+00 0.000000000000000e+00
0.000000000000000e+00 0.000000000000000e+00 0.000000000000000e+00
0.000000000000000e+00 0.000000000000000e+00 0.000000000000000e+00
0.000000000000000e+00 0.000000000000000e+00 0.000000000000000e+00
0.000000000000000e+00 0.000000000000000e+00 0.000000000000000e+00
0.000000000000000e+00 0.000000000000000e+00 0.000000000000000e+00
0.000000000000000e+00 0.000000000000000e+00 0.000000000000000e+00
0.000000000000000e+00 0.000000000000000e+00 0.000000000000000e+00
0.000000000000000e+00 0.000000000000000e+00 0.000000000000000e+00
0.000000000000000e+00 0.000000000000000e+00 0.000000000000000e+00
0.000000000000000e+00 0.000000000000000e+00 0.000000000000000e+00
0.000000000000000e+00 0.000000000000000e+00 0.000000000000000e+00
0.000000000000000e+00 0.000000000000000e+00 0.000000000000000e+00
0.000000000000000e+00 0.000000000000000e+00 0.000000000000000e+00
0.000000000000000e+00 0.000000000000000e+00 0.000000000000000e+00
0.000000000000000e+00 0.000000000000000e+00 0.000000000000000e+00
0.000000000000000e+00 0.000000000000000e+00 0.000000000000000e+00
0.000000000000000e+00 0.000000000000000e+00 0.000000000000000e+00
0.000000000000000e+00 0.000000000000000e+00 0.000000000000000e+00
0.000000000000000e+00 0.000000000000000e+00 0.000000000000000e+00
0.000000000000000e+00 0.000000000000000e+00 0.000000000000000e+00
0.000000000000000e+00 0.000000000000000e+00 0.000000000000000e+00
0.000000000000000e+00 0.000000000000000e+00 0.000000000000000e+00
0.000000000000000e+00 0.000000000000000e+00 0.000000000000000e+00
0.000000000000000e+00 0.000000000000000e+00 0.000000000000000e+00
0.000000000000000e+00 0.000000000000000e+00 0.000000000000000e+00
0.000000000000000e+00 0.000000000000000e+00 0.000000000000000e+00
0.000000000000000e+00 0.000000000000000e+00 0.000000000000000e+00
0.000000000000000e+00 0.000000000000000e+00 0.000000000000000e+00
0.000000000000000e+00 0.000000000000000e+00 0.000000000000000e+00
0.000000000000000e+00 0.000000000000000e+00 0.000000000000000e+00
0.000000000000000e+00 0.000000000000000e+00 0.000000000000000e+00
0.000000000000000e+00 0.000000000000000e+00 0.000000000000000e+00
0.000000000000000e+00 0.000000000000000e+00 0.000000000000000e+00
0.000000000000000e+00 0.000000000000000e+00 0.000000000000000e+00
0.000000000000000e+00 0.000000000000000e+00 0.000000000000000e+00
0.000000000000000e+00 0.000000000000000e+00 0.000000000000000e+00
0.000000000000000e+00 0.000000000000000e+00 0.000000000000000e+00
0.000000000000000e+00 0.000000000000000e+00 0.000000000000000e+00
0.000000000000000e+00 0.000000000000000e+00 0.000000000000000e+00
0.000000000000000e+00 0.000000000000000e+00 0.000000000000000e+00
0.000000000000000e+00 0.000000000000000e+00 0.000000000000000e+00
0.000000000000000e+00 0.000000000000000e+00 0.000000000000000e+00
0.000000000000000e+00 0.000000000000000e+00 0.000000000000000e+00
0.000000000000000e+00 0.000000000000000e+00 0.000000000000000e+00
0.000000000000000e+00 0.000000000000000e+00 0.000000000000000e+00
0.000000000000000e+00 0.000000000000000e+00 0.000000000000000e+00
0.000000000000000e+00 0.000000000000000e+00 0.000000000000000e+00
0.000000000000000e+00 0.000000000000000e+00 0.000000000000000e+00
0.000000000000000e+00 0.000000000000000e+00 0.000000000000000e+00
0.000000000000000e+00 0.000000000000000e+00 0.000000000000000e+00
0.000000000000000e+00 0.000000000000000e+00 0.000000000000000e+00
0.000000000000000e+00 0.000000000000000e+00 0.000000000000000e+00
0.000000000000000e+00 0.000000000000000e+00 0.000000000000000e+00
0.000000000000000e+00 0.000000000000000e+00 0.000000000000000e+00
0.000000000000000e+00 0.000000000000000e+00 0.000000000000000e+00
0.000000000000000e+00 0.000000000000000e+00 0.000000000000000e+00
0.000000000000000e+00 0.000000000000000e+00 0.000000000000000e+00
0.000000000000000e+00 0.000000000000000e+00 0.000000000000000e+00
0.000000000000000e+00 0.000000000000000e+00 0.000000000000000e+00
0.000000000000000e+00 0.000000000000000e+00 0.000000000000000e+00
0.000000000000000e+00 0.000000000000000e+00 0.000000000000000e+00
0.000000000000000e+00 0.000000000000000e+00 0.000000000000000e+00
0.000000000000000e+00 0.000000000000000e+00 0.000000000000000e+00
0.000000000000000e+00 0.000000000000000e+00 0.000000000000000e+00
0.000000000000000e+00 0.000000000000000e+00 0.000000000000000e+00
0.000000000000000e+00 0.000000000000000e+00 0.000000000000000e+00
0.000000000000000e+00 0.000000000000000e+00 0.000000000000000e+00
0.000000000000000e+00 0.000000000000000e+00 0.000000000000000e+00
0.000000000000000e+00 0.000000000000000e+00 0.000000000000000e+00
0.000000000000000e+00 0.000000000000000e+00 0.000000000000000e+00
0.000000000000000e+00 0.000000000000000e+00 0.000000000000000e+00
0.000000000000000e+00 0.000000000000000e+00 0.000000000000000e+00
0.000000000000000e+00 0.000000000000000e+00 0.000000000000000e+00
0.000000000000000e+00 0.000000000000000e+00 0.000000000000000e+00
0.000000000000000e+00 0.000000000000000e+00 0.000000000000000e+00
0.000000000000000e+00 0.000000000000000e+00 0.000000000000000e+00
0.000000000000000e+00 0.000000000000000e+00 0.000000000000000e+00
0.000000000000000e+00 0.000000000000000e+00 0.000000000000000e+00
0.000000000000000e+00 0.000000000000000e+00 0.000000000000000e+00
0.000000000000000e+00 0.000000000000000e+00 0.000000000000000e+00
0.000000000000000e+00 0.000000000000000e+00 0.000000000000000e+00
0.000000000000000e+00 0.000000000000000e+00 0.000000000000000e+00
0.000000000000000e+00 0.000000000000000e+00 0.000000000000000e+00
0.000000000000000e+00 0.000000000000000e+00 0.000000000000000e+00
0.000000000000000e+00 0.000000000000000e+00 0.000000000000000e+00
0.000000000000000e+00 0.000000000000000e+00 0.000000000000000e+00
0.000000000000000e+00 0.000000000000000e+00 0.000000000000000e+00
0.000000000000000e+00 0.000000000000000e+00 0.000000000000000e+00
0.000000000000000e+00 0.000000000000000e+00 0.000000000000000e+00
0.000000000000000e+00 0.000000000000000e+00 0.000000000000000e+00
0.000000000000000e+00 0.000000000000000e+00 0.000000000000000e+00
0.000000000000000e+00 0.000000000000000e+00 0.000000000000000e+00
0.000000000000000e+00 0.000000000000000e+00 0.000000000000000e+00
0.000000000000000e+00 0.000000000000000e+00 0.000000000000000e+00
0.000000000000000e+00 0.000000000000000e+00 0.000000000000000e+00
0.000000000000000e+00 0.000000000000000e+00 0.000000000000000e+00
0.000000000000000e+00 0.000000000000000e+00 0.000000000000000e+00
0.000000000000000e+00 0.000000000000000e+00 0.000000000000000e+00
0.000000000000000e+00 0.000000000000000e+00 0.000000000000000e+00
0.000000000000000e+00 0.000000000000000e+00 0.000000000000000e+00
0.000000000000000e+00 0.000000000000000e+00 0.000000000000000e+00
0.000000000000000e+00 0.000000000000000e+00 0.000000000000000e+00
0.000000000000000e+00 0.000000000000000e+00 0.000000000000000e+00
0.000000000000000e+00 0.000000000000000e+00 0.000000000000000e+00
0.000000000000000e+00 0.000000000000000e+00 0.000000000000000e+00
0.000000000000000e+00 0.000000000000000e+00 0.000000000000000e+00
0.000000000000000e+00 0.000000000000000e+00 0.000000000000000e+00
0.000000000000000e+00 0.000000000000000e+00 0.000000000000000e+00
0.000000000000000e+00 0.000000000000000e+00 0.000000000000000e+00
0.000000000000000e+00 0.000000000000000e+00 0.000000000000000e+00
0.000000000000000e+00 0.000000000000000e+00 0.000000000000000e+00
0.000000000000000e+00 0.000000000000000e+00 0.000000000000000e+00
0.000000000000000e+00 0.000000000000000e+00 0.000000000000000e+00
0.000000000000000e+00 0.000000000000000e+00 0.000000000000000e+00
0.000000000000000e+00 0.000000000000000e+00 0.000000000000000e+00
0.000000000000000e+00 0.000000000000000e+00 0.000000000000000e+00
0.000000000000000e+00 0.000000000000000e+00 0.000000000000000e+00
0.000000000000000e+00 0.000000000000000e+00 0.000000000000000e+00
0.000000000000000e+00 0.000000000000000e+00 0.000000000000000e+00
0.000000000000000e+00 0.000000000000000e+00 0.000000000000000e+00
0.000000000000000e+00 0.000000000000000e+00 0.000000000000000e+00
0.000000000000000e+00 0.000000000000000e+00 0.000000000000000e+00
0.000000000000000e+00 0.000000000000000e+00 0.000000000000000e+00
0.000000000000000e+00 0.000000000000000e+00 0.000000000000000e+00
0.000000000000000e+00 0.000000000000000e+00 0.000000000000000e+00
0.000000000000000e+00 0.000000000000000e+00 0.000000000000000e+00
0.000000000000000e+00 0.000000000000000e+00 0.000000000000000e+00
0.000000000000000e+00 0.000000000000000e+00 0.000000000000000e+00
0.000000000000000e+00 0.000000000000000e+00 0.000000000000000e+00
0.000000000000000e+00 0.000000000000000e+00 0.000000000000000e+00
0.000000000000000e+00 0.000000000000000e+00 0.000000000000000e+00
0.000000000000000e+00 0.000000000000000e+00 0.000000000000000e+00
0.000000000000000e+00 0.000000000000000e+00 0.000000000000000e+00
0.000000000000000e+00 0.000000000000000e+00 0.000000000000000e+00
0.000000000000000e+00 0.000000000000000e+00 0.000000000000000e+00
0.000000000000000e+00 0.000000000000000e+00 0.000000000000000e+00
0.000000000000000e+00 0.000000000000000e+00 0.000000000000000e+00
0.000000000000000e+00 0.000000000000000e+00 0.000000000000000e+00
0.000000000000000e+00 0.000000000000000e+00 0.000000000000000e+00
0.000000000000000e+00 0.000000000000000e+00 0.000000000000000e+00
0.000000000000000e+00 0.000000000000000e+00 0.000000000000000e+00
0.000000000000000e+00 0.000000000000000e+00 0.000000000000000e+00
0.000000000000000e+00 0.000000000000000e+00 0.000000000000000e+00
0.000000000000000e+00 0.000000000000000e+00 0.000000000000000e+00
0.000000000000000e+00 0.000000000000000e+00 0.000000000000000e+00
0.000000000000000e+00 0.000000000000000e+00 0.000000000000000e+00
0.000000000000000e+00 0.000000000000000e+00 0.000000000000000e+00
0.000000000000000e+00 0.000000000000000e+00 0.000000000000000e+00
0.000000000000000e+00 0.000000000000000e+00 0.000000000000000e+00
0.000000000000000e+00 0.000000000000000e+00 0.000000000000000e+00
0.000000000000000e+00 0.000000000000000e+00 0.000000000000000e+00
0.000000000000000e+00 0.000000000000000e+00 0.000000000000000e+00
0.000000000000000e+00 0.000000000000000e+00 0.000000000000000e+00
0.000000000000000e+00 0.000000000000000e+00 0.000000000000000e+00
0.000000000000000e+00 0.000000000000000e+00 0.000000000000000e+00
0.000000000000000e+00 0.000000000000000e+00 0.000000000000000e+00
0.000000000000000e+00 0.000000000000000e+00 0.000000000000000e+00
0.000000000000000e+00 0.000000000000000e+00 0.000000000000000e+00
0.000000000000000e+00 0.000000000000000e+00 0.000000000000000e+00
0.000000000000000e+00 0.000000000000000e+00 0.000000000000000e+00
0.000000000000000e+00 0.000000000000000e+00 0.000000000000000e+00
0.000000000000000e+00 0.000000000000000e+00 0.000000000000000e+00
0.000000000000000e+00 0.000000000000000e+00 0.000000000000000e+00
0.000000000000000e+00 0.000000000000000e+00 0.000000000000000e+00
0.000000000000000e+00 0.000000000000000e+00 0.000000000000000e+00
0.000000000000000e+00 0.000000000000000e+00 0.000000000000000e+00
0.000000000000000e+00 0.000000000000000e+00 0.000000000000000e+00
0.000000000000000e+00 0.000000000000000e+00 0.000000000000000e+00
0.000000000000000e+00 0.000000000000000e+00 0.000000000000000e+00
0.000000000000000e+00 0.000000000000000e+00 0.000000000000000e+00
0.000000000000000e+00 0.000000000000000e+00 0.000000000000000e+00
0.000000000000000e+00 0.000000000000000e+00 0.000000000000000e+00
0.000000000000000e+00 0.000000000000000e+00 0.000000000000000e+00
0.000000000000000e+00 0.000000000000000e+00 0.000000000000000e+00
0.000000000000000e+00 0.000000000000000e+00 0.000000000000000e+00
0.000000000000000e+00 0.000000000000000e+00 0.000000000000000e+00
0.000000000000000e+00 0.000000000000000e+00 0.000000000000000e+00
0.000000000000000e+00 0.000000000000000e+00 0.000000000000000e+00
0.000000000000000e+00 0.000000000000000e+00 0.000000000000000e+00
0.000000000000000e+00 0.000000000000000e+00 0.000000000000000e+00
0.000000000000000e+00 0.000000000000000e+00 0.000000000000000e+00
0.000000000000000e+00 0.000000000000000e+00 0.000000000000000e+00
0.000000000000000e+00 0.000000000000000e+00 0.000000000000000e+00
0.000000000000000e+00 0.000000000000000e+00 0.000000000000000e+00
0.000000000000000e+00 0.000000000000000e+00 0.000000000000000e+00
0.000000000000000e+00 0.000000000000000e+00 0.000000000000000e+00
0.000000000000000e+00 0.000000000000000e+00 0.000000000000000e+00
0.000000000000000e+00 0.000000000000000e+00 0.000000000000000e+00
0.000000000000000e+00 0.000000000000000e+00 0.000000000000000e+00
0.000000000000000e+00 0.000000000000000e+00 0.000000000000000e+00
0.000000000000000e+00 0.000000000000000e+00 0.000000000000000e+00
0.000000000000000e+00 0.000000000000000e+00 0.000000000000000e+00
0.000000000000000e+00 0.000000000000000e+00 0.000000000000000e+00
0.000000000000000e+00 0.000000000000000e+00 0.000000000000000e+00
0.000000000000000e+00 0.000000000000000e+00 0.000000000000000e+00
0.000000000000000e+00 0.000000000000000e+00 0.000000000000000e+00
0.000000000000000e+00 0.000000000000000e+00 0.000000000000000e+00
0.000000000000000e+00 0.000000000000000e+00 0.000000000000000e+00
0.000000000000000e+00 0.000000000000000e+00 0.000000000000000e+00
0.000000000000000e+00 0.000000000000000e+00 0.000000000000000e+00
0.000000000000000e+00 0.000000000000000e+00 0.000000000000000e+00
0.000000000000000e+00 0.000000000000000e+00 0.000000000000000e+00
0.000000000000000e+00 0.000000000000000e+00 0.000000000000000e+00
0.000000000000000e+00 0.000000000000000e+00 0.000000000000000e+00
-1.099991509346572e-01 -4.321963146820114e-04  1.962006762747829e-18
-1.099510448918537e-01  3.281421519632269e-03  1.922994584136896e-18
-1.050962694041746e-01 -3.247728679131107e-02  2.204005801125291e-18
-1.095421217455287e-01  1.002614399895034e-02  1.846417735656915e-18
-1.093915607755787e-01  1.155363280889659e-02  1.828043930971890e-18
-1.090094027635047e-01 -1.472922635931493e-02  2.091289803433721e-18
-1.098253168722544e-01 -6.196755111253536e-03  2.018141925785791e-18
-1.099536691579654e-01  3.192277979847856e-03  1.923957203570675e-18
-1.099536691579654e-01  3.192277979847856e-03  1.923957203570675e-18
-1.094840753008832e-01 -1.064129952169648e-02  2.057735204216811e-18
-1.099994526751084e-01 -3.470031361811604e-04  1.961136803618239e-18
-1.099945627188173e-01 -1.093696619771092e-03  1.968721785304557e-18
-1.099927117979499e-01  1.266235101811086e-03  1.944441404816403e-18
-1.099745024834760e-01 -2.368291264153753e-03  1.981460786435143e-18
-1.091355657464732e-01 -1.376329499782579e-02  2.083610430364274e-18
-1.099274334864599e-01 -3.994917656204599e-03  1.997336132758720e-18
-1.099274334864599e-01 -3.994917656204599e-03  1.997336132758720e-18
 2.317309245871949e-02 -1.075314269685824e-01  6.924535268376399e-19
-1.059565362464785e-01  2.955016796312028e-02  1.582005710948575e-18
-1.086185511661538e-01 -1.737844476832016e-02  2.111553889801340e-18
-1.099552877740649e-01 -3.136031014278015e-03  1.989007084795639e-18
-1.099203253291193e-01 -4.185938310641411e-03  1.999172302451918e-18
-9.859400938777249e-02  4.877726225244463e-02  1.253429353989393e-18
-1.064923423297724e-01 -2.755686892806354e-02  2.178295078034786e-18
-1.071717064605130e-01 -2.478356984660510e-02  2.161890532514550e-18
-1.099621687753947e-01  2.884690314666502e-03  1.927268815923465e-18
-1.099621687753947e-01  2.884690314666502e-03  1.927268815923465e-18
-1.096953349995936e-01  8.181288365951124e-03  1.868099569718090e-18
-1.094168794878263e-01 -1.131134311858765e-02  2.063423829119750e-18
-1.099751427030786e-01  2.338372818309101e-03  1.933112916255990e-18
-8.780031703650436e-02 -6.626540823302336e-02  2.243364370937850e-18
-1.099290827144653e-01  3.949275067170078e-03  1.915741788404006e-18
-1.098452660932178e-01  5.832453764076627e-03  1.894901194643145e-18
-1.099254136653584e-01  4.050114874886324e-03  1.914640400906485e-18
-1.099915413202331e-01 -1.364125360577037e-03  1.971446572985441e-18
-1.099970527072790e-01  8.052302229829056e-04  1.949255314135992e-18
-1.095017582194741e-01  1.045776968783391e-02  1.841264621407422e-18
-1.099977591416360e-01 -7.021280642148791e-04  1.964755444798781e-18
-1.096052095259335e-01 -9.311178484818456e-03  2.046224421786778e-18
-1.099603095202141e-01  2.954713221048785e-03  1.926516268333969e-18
-1.077461713109120e-01 -2.215316157661313e-02  2.145087330351911e-18
-1.087766841193100e-01  1.635949241290113e-02  1.767723005822559e-18
-1.090237032963802e-01  1.462299967663248e-02  1.789960838780606e-18
-1.061495591349623e-01 -2.884910909288316e-02  2.185472140456119e-18
-1.091093519487101e-01 -1.396958543881820e-02  2.085263483905902e-18
-1.098531327831710e-01  5.682360224669719e-03  1.896583348367300e-18
-1.061210349164528e-01  2.895385895283972e-02  1.591060019460484e-18
-9.989997381581117e-02 -4.604340595134306e-02  2.250918468950296e-18
-1.099999142922570e-01 -1.373160443365225e-04  1.958990559950664e-18
-1.099987877479906e-01 -5.164242175177092e-04  1.962865710511918e-18
-1.099125808542236e-01  4.384583214364052e-03  1.910975485039473e-18
-1.099287024931551e-01 -3.959844463021632e-03  1.996998351927722e-18
-1.099437120273472e-01  3.518548798537155e-03  1.920427690416866e-18
-1.099046089794589e-01 -4.580057321930328e-03  2.002942040931382e-18
-1.099998348552115e-01  1.906090924269759e-04  1.955619834619275e-18
-1.096087002500140e-01 -9.269996197546123e-03  2.045863410344301e-18
-1.099920503372645e-01  1.322445690609427e-03  1.943852089954285e-18
-1.099964163962161e-01 -8.879076473239916e-04  1.966640366770377e-18
-1.099489122797176e-01  3.352117018674119e-03  1.922230261189064e-18
-1.098836753251900e-01 -5.057459542909774e-03  2.007474635977071e-18
-1.099967609138957e-01  8.441495431454454e-04  1.948850239448279e-18
-1.099706856997528e-01 -2.539347696971641e-03  1.983150404923251e-18
-1.097797628557017e-01  6.957274419327009e-03  1.882178362778977e-18
-1.098438082983585e-01 -5.859844580991822e-03  2.015009369462220e-18
-1.099878079234514e-01  1.637714319986776e-03  1.940537320501184e-18
-1.098978749870363e-01 -4.738889462063288e-03  2.004454144044312e-18
-1.096835618947570e-01  8.337640558270808e-03  1.866283591296256e-18
-6.137610159389242e-02 -9.128512558536642e-02  2.030182444037997e-18
-1.096711869091428e-01  8.498868274058550e-03  1.864406807455538e-18
-1.099538986433830e-01 -3.184363848650306e-03  1.989478965873377e-18
-1.098975784068741e-01 -4.745762352340598e-03  2.004519482497425e-18
-1.096390331348809e-01  8.904067230676127e-03  1.859671320606102e-18
-1.093502362246562e-01  1.193841855573086e-02  1.823354977527467e-18
-1.075896164336567e-01 -2.290140684889361e-02  2.149989197922281e-18
-1.099997848379159e-01  2.175674886946484e-04  1.955341956773402e-18
-1.099997848379159e-01  2.175674886946484e-04  1.955341956773402e-18
-1.099426992334889e-01  3.550054260786909e-03  1.920085959362472e-18
-1.099996294617265e-01 -2.855140675935867e-04  1.960508171904473e-18
-1.099982875382279e-01  6.137904017350447e-04  1.951244264044389e-18
-1.088545483679178e-01 -1.583310770558260e-02  2.099875964571575e-18
-1.099990954763788e-01  4.460878595539853e-04  1.952981724966893e-18
-1.099750086777659e-01  2.344667636409069e-03  1.933045854146430e-18
-1.099249946953141e-01  4.061470329216338e-03  1.914516271666652e-18
-1.099244513850368e-01 -4.076148635488250e-03  1.998117681509962e-18
-1.098916367850315e-01  4.881410114571068e-03  1.905498044428606e-18
-1.099633738780858e-01 -2.838380761674569e-03  1.986092738444481e-18
-1.097974482113996e-01  6.672358373539677e-03  1.885420503648080e-18
-1.097676474683653e-01 -7.145877780972386e-03  2.026867520595232e-18
-1.099167341126150e-01  4.279201095603092e-03  1.912132160214690e-18
-1.098824615614533e-01 -5.083762503860473e-03  2.007723288972202e-18
-1.098534554520143e-01  5.676118854661905e-03  1.896653218453777e-18
-1.099960811132601e-01 -9.285147952726332e-04  1.967051623703991e-18
-1.024813556700523e-01  3.996963522510760e-02  1.413104486223589e-18
-1.099952138583355e-01 -1.026122925862307e-03  1.968039077951670e-18
-1.099855526828381e-01  1.782750978284846e-03  1.939006986827985e-18
-1.099818524713778e-01 -1.998030771536141e-03  1.977787296180656e-18
-1.099997593803566e-01  2.300788203819314e-04  1.955212954337689e-18
-1.099962874631244e-01  9.037390827120272e-04  1.948229552955183e-18
-1.099999858288317e-01  5.583598074804051e-05  1.957007266138214e-18
-1.099999858288317e-01  5.583598074804051e-05  1.957007266138214e-18
 5.433367854365294e-02 -9.564440065113541e-02  1.577885056910783e-20
-1.094009005231417e-01  1.146485781532395e-02  1.829122273730167e-18
-1.099652093299445e-01  2.766358079030615e-03  1.928538746953019e-18
-1.099741120413531e-01  2.386353015763148e-03  1.932601595302161e-18
-1.099574468387023e-01 -3.059392866874270e-03  1.988258078802166e-18
-1.098204688582517e-01  6.282087213155688e-03  1.889840077917414e-18
-1.099932263196116e-01 -1.220722655899885e-03  1.970003148862870e-18
-1.099793682050941e-01  2.130391796887874e-03  1.935325043546255e-18
-1.099963103010347e-01  9.009551367342720e-04  1.948258563416633e-18
-1.099963103010347e-01  9.009551367342720e-04  1.948258563416633e-18
-1.099036689555144e-01 -4.602559083447852e-03  2.003156509509334e-18
-1.099999997369827e-01 -7.606821234359440e-06  1.957659365393762e-18
-1.099991332798861e-01  4.366665475832453e-04  1.953079198283406e-18
-1.099596357189959e-01  2.979683296196749e-03  1.926247718786324e-18
-1.099605518412003e-01 -2.945681377649500e-03  1.987144991781750e-18
-1.099953478094891e-01  1.011662132058837e-03  1.947103960571207e-18
-1.099362509656938e-01 -3.744425671304399e-03  1.994919336171291e-18
-1.099440683292611e-01  3.507397783357980e-03  1.920548603864556e-18
-1.097171436449302e-01 -7.883425042307310e-03  2.033546774994422e-18
-1.099939033482012e-01  1.158113218347524e-03  1.945573522949452e-18
-1.099731478854699e-01 -2.430379427271340e-03  1.982074613068978e-18
-1.099881018815796e-01  1.617851812492736e-03  1.940746631885741e-18
-1.097568839546768e-01 -7.309338175206662e-03  2.028355467200224e-18
-1.099995891214923e-01  3.006544574704097e-04  1.954484785345137e-18
-1.099846548303916e-01 -1.837308313689508e-03  1.976185802633585e-18
-1.099969933502952e-01 -8.132981587582033e-04  1.965884048964914e-18
-1.099619954420690e-01 -2.891290092383848e-03  1.986611831683895e-18
-1.099999129115455e-01 -1.384176734470034e-04  1.959001854218176e-18
-1.099217949845888e-01 -4.147166184995032e-03  1.998800087217854e-18
-1.099806412706247e-01 -2.063624409164812e-03  1.978439692216820e-18
-1.099167266218568e-01 -4.279393500943239e-03  2.000068477294238e-18
-1.099167266218568e-01 -4.279393500943239e-03  2.000068477294238e-18
-1.096261684075555e-01 -9.061081628492560e-03  2.044027755740197e-18
-1.099300984603658e-01 -3.920899449641224e-03  1.996623048964534e-18
-1.093451195399008e-01 -1.198519223061234e-02  2.069070330083967e-18
-1.072764245032505e-01 -2.432629741243678e-02  2.159055806850202e-18
-1.084071764146635e-01  1.865165144966932e-02  1.737596074026752e-18
-1.099881313968843e-01  1.615843996693697e-03  1.940767786723748e-18
-1.096907473819526e-01  8.242568700870805e-03  1.867388294409956e-18
-1.099928651684421e-01  1.252841584899583e-03  1.944581747748041e-18
-1.097260730231413e-01  7.758150483213845e-03  1.872994177543978e-18
-1.099638935972831e-01 -2.818174040994089e-03  1.985894370753072e-18
-1.098660631280646e-01  5.426617062226587e-03  1.899441127368471e-18
-1.095575619457704e-01 -9.855994140552748e-03  2.050974259208386e-18
-1.099927074125239e-01  1.266615988699235e-03  1.944437413298106e-18
-1.099122712013648e-01 -4.392338711615659e-03  2.001149658781854e-18
-1.099089155830916e-01  4.475519561881134e-03  1.909975919231425e-18
-1.099918230775224e-01 -1.341214406032994e-03  1.971216185457450e-18
-1.099910642885100e-01 -1.402061582382951e-03  1.971827864534812e-18
-1.098376919322864e-01 -5.973393590586336e-03  2.016067196256573e-18
-1.067586573262155e-01  2.650639707511430e-02  1.627554052526380e-18
-1.099914826995590e-01  1.368843874416826e-03  1.943365263680729e-18
-1.095916933339919e-01 -9.468936169824504e-03  2.047604787933056e-18
-1.098187587304364e-01 -6.311911826548821e-03  2.019208409245818e-18
-1.099955420197646e-01  9.903210480002723e-04  1.947326688660818e-18
-1.099577555666433e-01  3.048276684661100e-03  1.925509487084029e-18
-1.099577555666433e-01  3.048276684661100e-03  1.925509487084029e-18
-1.099094776225158e-01  4.461695725352108e-03  1.910127956291934e-18
-1.094709075026896e-01  1.077591808327781e-02  1.837446736913216e-18
-1.076054039946482e-01 -2.282711175660389e-02  2.149506801318215e-18
-1.097924463619181e-01  6.754163298681723e-03  1.884490973881694e-18
-1.099998975909970e-01 -1.500998670593821e-04  1.959121611866300e-18
-1.096064738531638e-01  9.296283637865691e-03  1.855062008246973e-18
-1.099066687677390e-01 -4.530359850876358e-03  2.002468073859424e-18
-1.099994138814267e-01 -3.590901593194336e-04  1.961260303010274e-18
-1.099994138814267e-01 -3.590901593194336e-04  1.961260303010274e-18
-1.099994138814267e-01 -3.590901593194336e-04  1.961260303010274e-18
-1.099599457047178e-01  2.968221793506099e-03  1.926370998128517e-18
-1.099845855780117e-01  1.841449220845473e-03  1.938386672925080e-18
-1.099807274530129e-01  2.059026203333137e-03  1.936082488533032e-18
-1.036003731304690e-01 -3.697245849585245e-02  2.223570798861695e-18
-1.099564424851797e-01  3.095279632489247e-03  1.925003181018978e-18
-1.077732549616518e-01 -2.202102438513534e-02  2.144211654582607e-18
-1.055927824135536e-01  3.082473523266414e-02  1.562436561909724e-18
-1.098123447911644e-01  6.422533103562460e-03  1.888252469948908e-18
-1.097847780692967e-01 -6.877681606121217e-03  2.024416761804342e-18
-1.097847780692967e-01 -6.877681606121217e-03  2.024416761804342e-18
-1.073140008549875e-01 -2.415999214601832e-02  2.158015796653562e-18
-8.685347206404351e-02  6.750166213079750e-02  8.521060809834173e-19
-1.093141358055862e-01 -1.226457145919842e-02  2.071389457656330e-18
-9.341520848052309e-02 -5.808268954292947e-02  2.259213599876410e-18
-8.647120359728215e-02  6.799066809818317e-02  8.402787989580825e-19
-1.096745876589285e-01  8.454869711824686e-03  1.864919397098068e-18
-1.089475823590253e-01 -1.517973313742132e-02  2.094818429082759e-18
-1.089475823590253e-01 -1.517973313742132e-02  2.094818429082759e-18
-1.098650888478156e-01  5.446306313595032e-03  1.899221488984009e-18
-1.030185676480193e-01 -3.856390436341216e-02  2.229568404461146e-18
-2.570181440957777e-02  1.069552090178667e-01 -6.415314732333087e-19
-1.052632317900928e-01 -3.193199074760484e-02  2.201374377184045e-18
-1.096644713787311e-01  8.585086908319583e-03  1.863401431435021e-18
-9.772254281972163e-02 -5.050054083717910e-02  2.257963928843329e-18
-8.817400129591836e-02  6.576735889076978e-02  8.934258096173653e-19
 6.099452732060497e-03 -1.098307637976231e-01  1.019924162583207e-18
-1.030544387869431e-01  3.846794309952289e-02  1.438732524955468e-18
-1.029838685306913e-01  3.865647193489381e-02  1.435539577769923e-18
-1.094947009373985e-01  1.053140382995544e-02  1.840382464593539e-18
-1.099559852645687e-01  3.111479470906901e-03  1.924828596778010e-18
-1.099559852645687e-01  3.111479470906901e-03  1.924828596778010e-18
-1.099559852645687e-01  3.111479470906901e-03  1.924828596778010e-18
-1.099974858646852e-01  7.437092498348331e-04  1.949895128339008e-18
-1.099983978432961e-01 -5.936934460451086e-04  1.963652684946199e-18
-1.068861485066278e-01  2.598752118650505e-02  1.635154171421470e-18
-1.098685723694778e-01 -5.375574898813061e-03  2.010474380584398e-18
-1.096418621104985e-01  8.869164162555213e-03  1.860080281947395e-18
-1.098923861922480e-01 -4.864509941787375e-03  2.005647169188614e-18
-1.095508040949259e-01  9.930826861601228e-03  1.847551597381387e-18
-1.099927846147201e-01 -1.259893923992362e-03  1.970397758747289e-18
-1.099512727047579e-01  3.273779253993060e-03  1.923077159842498e-18
-1.099770006756060e-01 -2.249293755307007e-03  1.980282588569046e-18
-1.099976682866362e-01  7.162202894866274e-04  1.950180813836850e-18
-1.099976682866362e-01  7.162202894866274e-04  1.950180813836850e-18
-1.099770006756047e-01 -2.249293755374248e-03  1.980282588569712e-18
-1.099999949184171e-01 -3.343573148639701e-05  1.957924662311573e-18
-1.099924352462924e-01  1.290034336798206e-03  1.944191954755863e-18
-1.099989002718779e-01  4.918729280764805e-04  1.952507826123292e-18
-1.099993083352792e-01  3.900842987285141e-04  1.953560929287920e-18
-1.099993083352792e-01  3.900842987285141e-04  1.953560929287920e-18
-1.099904564616621e-01  1.448960784540397e-03  1.942523828405878e-18
-1.099904564616621e-01  1.448960784540397e-03  1.942523828405878e-18
-1.099904564616621e-01  1.448960784540397e-03  1.942523828405878e-18
-1.097584734946582e-01 -7.285430400624234e-03  2.028138111261442e-18
-1.099389734678814e-01  3.663620180695187e-03  1.918852806347430e-18
-1.099861123678660e-01 -1.747880488785641e-03  1.975292902837244e-18
-1.099924095828652e-01  1.292220629432750e-03  1.944169034681964e-18
-1.099555826620557e-01  3.125674558837101e-03  1.924675582614236e-18
-1.087175118105016e-01  1.674821261309329e-02  1.762676005158000e-18
-1.036147262680059e-01 -3.693221494043027e-02  2.223412742152577e-18
-1.099169608659019e-01  4.273372673160938e-03  1.912196080483204e-18
-1.099997650237069e-01 -2.273647492044105e-04  1.959913121269158e-18
-1.099559184569509e-01 -3.113839476962814e-03  1.988790298565540e-18
-1.099361640166013e-01 -3.746977624014749e-03  1.994944009195521e-18
-1.099361640166013e-01 -3.746977624014749e-03  1.994944009195521e-18
-1.099361640166013e-01 -3.746977624014749e-03  1.994944009195521e-18
-1.099299606995013e-01 -3.924759942472068e-03  1.996660262507052e-18
-1.098690139695831e-01  5.366541656549996e-03  1.900110894082830e-18
-1.098925518415233e-01 -4.860766375587487e-03  2.005611653332288e-18
-1.940885419125972e-02 -1.082741722618203e-01  1.457881499128472e-18
-1.097905353259550e-01  6.785156802916641e-03  1.884138517720204e-18
-1.099021278598682e-01  4.639212419487019e-03  1.908173238953014e-18
-1.094352505377362e-01  1.113220282526427e-02  1.833151482392864e-18
-1.094924051936467e-01 -1.055524537422989e-02  2.056999269490589e-18
-1.072372922943504e-01  2.449822731088870e-02  1.656705147537494e-18
-1.090121894072851e-01 -1.470858798899859e-02  2.091127343326153e-18
-1.097842992570150e-01  6.885320373526608e-03  1.882998395133312e-18
-1.092035962903242e-01 -1.321266654615251e-02  2.079163607728521e-18
-1.094227851140567e-01  1.125407028069804e-02  1.831677501475575e-18
-1.099999284201525e-01 -1.254892873636800e-04  1.958869295741845e-18
-1.099535455022590e-01 -3.196534292413503e-03  1.989597728194327e-18
-1.099535455022590e-01 -3.196534292413503e-03  1.989597728194327e-18
-1.082468274181759e-01  1.956078612682954e-02  1.725401443817891e-18
-1.099791020759159e-01  2.144086419711783e-03  1.935179600185427e-18
-1.099999951834968e-01 -3.255196766193837e-05  1.957915586676733e-18
-1.099999951834968e-01 -3.255196766193837e-05  1.957915586676733e-18
-1.098728136876416e-01 -5.288176657480328e-03  2.009651874719942e-18
-1.099895824308423e-01  1.513854910111837e-03  1.941841510418793e-18
-1.099985933310321e-01  5.562959591344338e-04  1.951840440503735e-18
-1.099982337167351e-01  6.233612102543651e-04  1.951144969645989e-18
-1.099951663775165e-01 -1.031200069043962e-03  1.968090398775670e-18
-1.099624880750553e-01  2.872493053647092e-03  1.927399820667857e-18
-1.099940534319772e-01  1.143769908360410e-03  1.945723566168876e-18
-1.098751260123061e-01  5.239912573677101e-03  1.901520732999586e-18
-1.098520384087760e-01 -5.703477661630871e-03  2.013549220801532e-18
-1.099521321855926e-01 -3.244784714258300e-03  1.990068332094838e-18
-1.090570182131264e-01  1.437243119523485e-02  1.793128217585562e-18
-1.098640026472695e-01  5.468173581798827e-03  1.898977480512583e-18
-1.098934522934458e-01 -4.840366001458801e-03  2.005418071515048e-18
-1.099845743433508e-01  1.842120113313852e-03  1.938379579814491e-18
-1.099916556636460e-01 -1.354874300383037e-03  1.971353556580020e-18
-1.099798591470425e-01  2.104894770916063e-03  1.935595753123360e-18
-1.099345307559546e-01 -3.794594506400306e-03  1.995404189542747e-18
-1.099918751145729e-01  1.336940080979090e-03  1.943700047061825e-18
-1.099816150498340e-01 -2.011057192139486e-03  1.977916912720650e-18
-1.099987367007869e-01 -5.271851960104983e-04  1.962975367210892e-18
-1.099987367007869e-01 -5.271851960104983e-04  1.962975367210892e-18
-1.098405090535598e-01 -5.921365624141028e-03  2.015582761835065e-18
-1.096087795338594e-01  9.269058695343644e-03  1.855382766979638e-18
-1.099846975678928e-01 -1.834748184107125e-03  1.976160258796961e-18
-1.099920958232864e-01  1.318657044462661e-03  1.943891826395154e-18
-1.097285571314107e-01 -7.722936608484457e-03  2.032100931244177e-18
-1.053576435811118e-01  3.161909136954016e-02  1.550090265163167e-18
-1.098126881055895e-01 -6.416660426143307e-03  2.020176629044024e-18
-1.082839477890379e-01  1.935424116881971e-02  1.728184219507828e-18
-1.095632436165169e-01 -9.792632344149812e-03  2.050424351876154e-18
-1.099417553900865e-01  3.579164950980632e-03  1.919770060776610e-18
-1.076979286502010e-01 -2.238651747048092e-02  2.146626441696590e-18
-1.095772678016604e-01  9.634437249945258e-03  1.851067846199663e-18
-1.093673558627003e-01 -1.178055480872607e-02  2.067363476801680e-18
-1.078974415169588e-01  2.140425457927400e-02  1.700242736273718e-18
-1.026125299048098e-01 -3.963166292920896e-02  2.233313309858750e-18
-1.099231144850936e-01  4.112043518365316e-03  1.913963189936274e-18
-1.094069252308167e-01 -1.140722190274278e-02  2.064231800919566e-18
-1.099995522761371e-01  3.138455819477983e-04  1.954348595626044e-18
-1.065743012053917e-01 -2.723817766632656e-02  2.176479197047602e-18
-1.098930514568729e-01  4.849457855987926e-03  1.905851518051104e-18
-1.099460021825017e-01 -3.446244925313518e-03  1.992029171861555e-18
-6.404774957129085e-02 -8.943089944115035e-02  2.058676106608449e-18
-1.075419684428639e-01  2.312412211163912e-02  1.676245654780270e-18
-1.099981707073276e-01 -6.343824095392241e-04  1.964066707109466e-18
-1.059817879577464e-01  2.945947421932717e-02  1.583386940542947e-18
-1.097214800009896e-01 -7.822840046451156e-03  2.033001456799469e-18
-1.083503600900531e-01  1.897892168580064e-02  1.733222376969025e-18
-1.098164542296771e-01 -6.351880069803656e-03  2.019578057086020e-18
-1.076420691638614e-01  2.265358572328921e-02  1.682861656972746e-18
-1.096951602843025e-01 -8.183630624674658e-03  2.036240058172060e-18
-1.089510803468210e-01  1.515460627203794e-02  1.783206362115112e-18
-1.086941516159381e-01 -1.689915395785801e-02  2.107974751019898e-18
 3.730342134101361e-03  1.099367297474437e-01 -1.195945849270312e-18
-1.093820671881940e-01 -1.164316871119447e-02  2.066213690143453e-18
-1.097822818571538e-01 -6.917412105430350e-03  2.024780555179114e-18
-1.099421212227332e-01  3.567909898772665e-03  1.919892212777738e-18
-1.093698977366122e-01  1.175693280932227e-02  1.825569577701584e-18
-1.092712178940590e-01 -1.264123965238345e-02  2.074495811078546e-18
-1.099744626607534e-01  2.370139759274367e-03  1.932774420313231e-18
-1.089272330470619e-01 -1.532507424813916e-02  2.095949615917185e-18
-1.098750142270822e-01  5.242256059980629e-03  1.901494665177737e-18
-1.092388692979625e-01 -1.291779526477273e-02  2.076761637676749e-18
-1.099999726027277e-01 -7.763632577800856e-05  1.958378410226794e-18
-1.053691219409016e-01 -3.158081920095390e-02  2.199650658656786e-18
-1.012985195657352e-01  4.287901507486264e-02  1.362161685747663e-18
-1.099996594525262e-01  2.737157799419961e-04  1.954762822095332e-18
-7.732608152812831e-02 -7.823475644178346e-02  2.179943560668567e-18
-1.097674390496538e-01  7.149078575624992e-03  1.879988327920998e-18
-1.099755385226720e-01  2.319682445552874e-03  1.933311997128196e-18
-1.096543098765110e-01  8.713915624220085e-03  1.861896927125853e-18
-1.099997538793779e-01  2.326939539527506e-04  1.955185986893776e-18
-1.099986598407253e-01 -5.429854918328438e-04  1.963136341694193e-18
-1.099754355278833e-01 -2.324560270742973e-03  1.981028071002272e-18
-1.099863382877829e-01  1.733606081356259e-03  1.939525913568085e-18
-1.099334981509015e-01  3.824393325177396e-03  1.917103480895315e-18
-1.099886845566387e-01 -1.577741899095605e-03  1.973590565802097e-18
-1.095563073911437e-01 -9.869929625745049e-03  2.051095114960304e-18
-1.099922554798752e-01  1.305271791541909e-03  1.944032196285878e-18
-1.099864189249315e-01  1.728482591582105e-03  1.939579990598544e-18
 1.589881687535291e-02 -1.088449705864443e-01  8.354041214143047e-19
-1.099741009861086e-01  2.386862437827012e-03  1.932596164434251e-18
-1.099254313400857e-01  4.049635131223458e-03  1.914645644641199e-18
-1.098417593007846e-01  5.898127983387440e-03  1.894164008342893e-18
-1.083821861881057e-01 -1.879632190314691e-02  2.121915665556699e-18
-1.097695971364692e-01  7.115865688528310e-03  1.880367983999763e-18
-1.097912118739569e-01 -6.774200709148298e-03  2.023468030408047e-18
-1.098777630308940e-01  5.184321684332031e-03  1.902138838084344e-18
-1.096019031575381e-01 -9.350017339319280e-03  2.046564636138152e-18
-1.099670896854042e-01  2.690573567512329e-03  1.929350868446896e-18
-1.099500305273792e-01 -3.315235591677273e-03  1.990754787752668e-18
-1.099984955103075e-01 -5.753133657446124e-04  1.963465574399038e-18
-1.098743077161745e-01 -5.257043265118266e-03  2.009358578443178e-18
-1.099134785883310e-01  4.362020702889587e-03  1.911223282897853e-18
-1.099288935770720e-01  3.954536245972681e-03  1.915684365777519e-18
-1.098991932960547e-01  4.708217590164722e-03  1.907412011828373e-18
-1.098237684902339e-01  6.224136454437000e-03  1.890494221798458e-18
-1.099917694318587e-01 -1.345606647110250e-03  1.971260359450368e-18
-1.097101658188535e-01  7.979944611310645e-03  1.870432235774156e-18
-1.099933141423899e-01  1.212783564146011e-03  1.945001319386306e-18
-1.099941564518751e-01  1.133819403761169e-03  1.945827637350870e-18
-1.099941564518751e-01  1.133819403761169e-03  1.945827637350870e-18
-1.088810350214394e-01  1.564992692187456e-02  1.776870582255634e-18
-1.088647212446735e-01  1.576300949436528e-02  1.775418376785635e-18
-1.097036366457437e-01 -8.069207315379107e-03  2.035215247198585e-18
-1.099269115085732e-01  4.009255066249706e-03  1.915086876503724e-18
-1.094099682782768e-01 -1.137799812561011e-02  2.063985691885122e-18
-1.099989605104065e-01  4.782119090538168e-04  1.952649260147562e-18
-1.094055958244941e-01  1.141996507382478e-02  1.829667088829144e-18
-1.097995999891228e-01  6.636854844619298e-03  1.885823582961636e-18
-1.086073027225215e-01 -1.744860439515178e-02  2.112074575007980e-18
-1.099617145401598e-01  2.901953719193107e-03  1.927083357055419e-18
-1.098048591039980e-01 -6.549268443961013e-03  2.021399801832302e-18
-1.097652707637502e-01  7.182293099040104e-03  1.879608473524716e-18
-1.090352796075993e-01 -1.453643012890660e-02  2.089769401511319e-18
-1.084485071911973e-01  1.840981499094330e-02  1.740816386257436e-18
-1.093100978812636e-01 -1.230050816789740e-02  2.071686834603500e-18
-1.081357612211595e-01  2.016574186883019e-02  1.717209187871516e-18
-1.099944341434481e-01  1.106552060487842e-03  1.946112741250341e-18
-1.073491870679660e-01  2.400316720449147e-02  1.663783011258933e-18
-1.092772163953959e-01  1.258928023652470e-02  1.815368135233878e-18
-8.618431912064285e-02 -6.835395480666147e-02  2.236064817727812e-18
-3.327291848559075e-02  1.048470929279929e-01 -4.851345180557225e-19
-7.513278894244695e-02 -8.034341308240302e-02  2.162576983819899e-18
-1.017185036446272e-01  4.187297477249378e-02  1.379972502047819e-18
-9.991770722486779e-02 -4.600491042188349e-02  2.250838528536766e-18
-1.099769078420252e-01 -2.253828189239181e-03  1.980327526146162e-18
-1.099342768405634e-01 -3.801943653223245e-03  1.995475180629351e-18
-1.096882261878937e-01  8.276051942405526e-03  1.866999398611024e-18
-1.094832447957559e-01 -1.064984079658045e-02  2.057808182884039e-18
-1.099997063778779e-01 -2.541589671569341e-04  1.960187378452561e-18
-1.089057475880989e-01 -1.547701981252247e-02  2.097128442022708e-18
-1.099432828727954e-01  3.531933061714202e-03  1.920282534657678e-18
-1.099943202904804e-01  1.117812075055796e-03  1.945995022541726e-18
-1.099796832843782e-01  2.114063543933260e-03  1.935498417625475e-18
-1.099796832843782e-01  2.114063543933260e-03  1.935498417625475e-18
-1.098115638880944e-01  6.435871071647434e-03  1.888101530070514e-18
-1.086434364890878e-01  1.722218650001978e-02  1.756487836946209e-18
-1.097265972837246e-01 -7.750732128984120e-03  2.032351642292625e-18
-1.093444861546868e-01  1.199096941733341e-02  1.822712707160691e-18
-1.059276947644284e-01 -2.965338904567250e-02  2.189787483676041e-18
-1.032215472639918e-01  3.801726161137126e-02  1.446337008209801e-18
-1.082342193678408e-01 -1.963042938486170e-02  2.127852570856066e-18
-1.021260103163804e-01  4.086903493916245e-02  1.397539686448033e-18
-1.088573887121181e-01 -1.581356768027849e-02  2.099725745223039e-18
-1.086648010257689e-01  1.708686682894130e-02  1.758258404823549e-18
-1.097800521720391e-01 -6.952707753407694e-03  2.025103525233900e-18
-1.096156744643389e-01  9.187160155783268e-03  1.856346948234674e-18
-1.099292539869221e-01 -3.944504769763142e-03  1.996850556641394e-18
-1.099292539869221e-01 -3.944504769763142e-03  1.996850556641394e-18
-8.833093676645869e-02  6.555643072925654e-02  8.983858737504073e-19
-1.072194374605965e-01  2.457625338885421e-02  1.655585709866375e-18
-1.019809066304924e-01 -4.122977907802455e-02  2.238492883143883e-18
-1.099592602813946e-01 -2.993506032805217e-03  1.987613387892773e-18
-1.084014755037617e-01  1.868475604890996e-02  1.737154481785719e-18
-1.099360501076894e-01  3.750318215769896e-03  1.917909990850231e-18
-1.099824143470701e-01 -1.966859016128873e-03  1.977477016965827e-18
-1.099824143470701e-01 -1.966859016128873e-03  1.977477016965827e-18
-1.099956542330300e-01  9.777780155192158e-04  1.947457560731945e-18
-1.099039499441298e-01 -4.595844501084139e-03  2.003092520142349e-18
 1.083318520006093e-01 -1.908428259374730e-02 -1.731810458385581e-18
 1.094250617763398e-01  1.123191235917323e-02 -2.062753320505978e-18
 1.098329838775428e-01  6.059344234762303e-03 -2.016866522451932e-18
 1.096506023024004e-01 -8.760446034349154e-03 -1.861352863361094e-18
 1.099891738107699e-01 -1.543257730963324e-03 -1.941532135234141e-18
 1.099891738107699e-01 -1.543257730963324e-03 -1.941532135234141e-18
 1.099959748239771e-01 -9.410220629266605e-04 -1.947840920090764e-18
 1.099976732211992e-01 -7.154620340771490e-04 -1.950188692452164e-18
 1.097362568057245e-01 -7.612748667071447e-03 -1.874669360943239e-18
 1.099599445116787e-01 -2.968265990181881e-03 -1.926370522792175e-18
 1.099974713525717e-01  7.458525592302991e-04 -1.965199576551516e-18
 1.099974713525717e-01  7.458525592302991e-04 -1.965199576551516e-18
 1.095076093293616e-01 -1.039632141518512e-02 -1.842000107566392e-18
 1.095784632832558e-01 -9.620830758311926e-03 -1.851228922979359e-18
 1.099505117950337e-01  3.299235670587416e-03 -1.990598959107775e-18
 1.099541857176644e-01 -3.174435881427688e-03 -1.924149717446435e-18
 1.080577504849778e-01 -2.057966375153410e-02 -1.711567996787803e-18
 1.099389417451005e-01 -3.664572003293817e-03 -1.918842462171273e-18
 1.099999974493679e-01  2.368837247848903e-05 -1.957824556779992e-18
 1.099758710738798e-01 -2.303862309535418e-03 -1.933480461424196e-18
 1.099758710738798e-01 -2.303862309535418e-03 -1.933480461424196e-18
 1.098208129040870e-01 -6.276069875761666e-03 -1.889908026579242e-18
 1.092639034021310e-01 -1.270430688112153e-02 -1.813949357651079e-18
 1.098179953783747e-01  6.325179133842425e-03 -2.019331141248129e-18
 1.098188223760375e-01  6.310804381395769e-03 -2.019198163298564e-18
 1.096553835429314e-01  8.700394246959016e-03 -2.040841742105455e-18
 1.094433749362600e-01 -1.105204427068311e-02 -1.834119665784735e-18
 1.093728543503648e-01  1.172939603107620e-02 -2.066935691092672e-18
 1.099318946945157e-01 -3.870210443093843e-03 -1.916604191233718e-18
 1.047720389151813e-01  3.350850431689943e-02 -2.208831118281071e-18
 1.056207041430038e-01 -3.072892540158196e-02 -1.563917873600928e-18
 1.096212283644569e-01  9.120651943118504e-03 -2.044551905123148e-18
 1.095372072050615e-01 -1.007969432648286e-02 -1.845780065384934e-18
 1.090705165174541e-01  1.426963302316144e-02 -2.087655241012531e-18
 1.081335492036677e-01 -2.017759987257907e-02 -1.717047985700813e-18
 1.099792837570256e-01 -2.134746891690131e-03 -1.935278793675130e-18
 1.072077080921683e-01  2.462736944182957e-02 -2.160926322078234e-18
 1.097679800584542e-01  7.140767037702746e-03 -2.026820928402081e-18
 1.096921068117941e-01 -8.224457622839649e-03 -1.867598571833103e-18
 1.099890563187892e-01  1.551608875373693e-03 -1.973328674427658e-18
 1.099980515834221e-01  6.547120364994443e-04 -1.964273466689314e-18
 1.099980515834221e-01  6.547120364994443e-04 -1.964273466689314e-18
 1.099860376171494e-01  1.752577895253985e-03 -1.975339836704104e-18
 1.097132126321178e-01 -7.937945196310116e-03 -1.870917986182507e-18
 1.092158200956632e-01  1.311124101035669e-02 -2.078339034390310e-18
 1.099348572545781e-01  3.785123566735338e-03 -1.995312689510680e-18
 1.098110459974003e-01  6.444701463742613e-03 -2.020435517244842e-18
 7.990259292796756e-02 -7.560142619942720e-02 -6.451847620559760e-19
 1.098358960617488e-01  6.006324692576405e-03 -2.016373591708182e-18
 1.098288621041474e-01 -6.133599995768532e-03 -1.891515097957442e-18
 1.099737829676155e-01  2.401470339549615e-03 -1.981788884738818e-18
 1.099220633236969e-01 -4.140047664108889e-03 -1.913656750840939e-18
 1.099997344708408e-01 -2.416947339824133e-04 -1.955093161750629e-18
 1.099997344708408e-01 -2.416947339824133e-04 -1.955093161750629e-18
 1.099959323154577e-01  9.459778291154644e-04 -1.967228401998519e-18
 1.099995448829864e-01  3.164261932724460e-04 -1.960824277586761e-18
 1.099828843797734e-01  1.940397769870957e-03 -1.977213502065775e-18
 1.099959149758183e-01 -9.479918947301626e-04 -1.947768242531548e-18
 1.099830917481061e-01  1.928608184057313e-03 -1.977096058721196e-18
 9.702270111558731e-02  5.183237857011137e-02 -2.259193559804123e-18
 1.099423079121696e-01 -3.562152571916907e-03 -1.919954689580921e-18
 1.027759146426962e-01  3.920601190324190e-02 -2.231847526496859e-18
 1.091174754193517e-01 -1.390599000816154e-02 -1.798996639438726e-18
 1.084666029722624e-01 -1.830289702909135e-02 -1.742236965484706e-18
 9.731160114913011e-02  5.128793505097030e-02 -2.258740921135058e-18
 1.051725489947335e-01 -3.222941107048507e-02 -1.540525472994258e-18
 1.051725489947335e-01 -3.222941107048507e-02 -1.540525472994258e-18
 1.021102921225612e-01  4.090829063460300e-02 -2.237492275343261e-18
 1.021102921225612e-01  4.090829063460300e-02 -2.237492275343261e-18
 1.099964675510629e-01 -8.815476662618078e-04 -1.948460766577383e-18
 8.543183040319421e-02 -6.929215218161280e-02 -8.084096369948208e-19
 6.861982673523984e-02  8.597278277935165e-02 -2.104510781047016e-18
 1.052540502954965e-01  3.196224172978186e-02 -2.201521799388172e-18
 1.090453178293452e-01 -1.446093563698467e-02 -1.792010644311611e-18
 1.098542788155833e-01  5.660161296995527e-03 -2.013144031602092e-18
 1.099998989454704e-01 -1.491039443433791e-04 -1.956047425500806e-18
 1.099998989454704e-01 -1.491039443433791e-04 -1.956047425500806e-18
 1.099765524219289e-01 -2.271104882353471e-03 -1.933829157489927e-18
 1.097981831973795e-01 -6.660252739544699e-03 -1.885557964591983e-18
 1.099983123757505e-01  6.093229740784009e-04 -1.963811751672056e-18
 1.099831552638968e-01 -1.924982648621403e-03 -1.937502943154175e-18
 1.097612945409094e-01 -7.242804753936703e-03 -1.878915976624348e-18
 1.098846220140088e-01  5.036848701155476e-03 -2.007279714522159e-18
 1.099893794950517e-01  1.528528146102477e-03 -1.973097279626056e-18
 1.099957339981954e-01 -9.687632312147811e-04 -1.947551603882125e-18
 1.099957339981954e-01 -9.687632312147811e-04 -1.947551603882125e-18
 1.099974768219836e-01  7.450455000275298e-04 -1.965191381646099e-18
 1.099775000119404e-01 -2.224745181716643e-03 -1.934322350067397e-18
 1.099922635713973e-01  1.304589759350201e-03 -1.970847719631416e-18
 1.099744961441367e-01  2.368585620826440e-03 -1.981463698026919e-18
 1.098299610940227e-01  6.113889603630750e-03 -2.017373162263834e-18
 1.073098592404964e-01 -2.417838104143414e-02 -1.661282867132778e-18
 1.098665476855095e-01 -5.416797916444203e-03 -1.899550638802102e-18
 1.098066301382055e-01  6.519507473057588e-03 -2.021125536333869e-18
 1.099907776950987e-01  1.424367237515468e-03 -1.972051946766677e-18
 1.099669018590325e-01  2.698239338131718e-03 -1.984715620856230e-18
 1.099669018590325e-01  2.698239338131718e-03 -1.984715620856230e-18
 1.097560883745430e-01  7.321274801523778e-03 -2.028463953401914e-18
 1.081309756928299e-01 -2.019138667146373e-02 -1.716860532655469e-18
 1.099012130422223e-01 -4.660833814671851e-03 -1.907934806700684e-18
 1.054262238985681e-01  3.138966891333734e-02 -2.198702856341321e-18
 1.043094240787010e-01 -3.492197085460166e-02 -1.497500061889064e-18
 1.099036870000107e-01 -4.602128182005555e-03 -1.908582012780138e-18
 1.092147662573606e-01  1.312001643863387e-02 -2.078410444418336e-18
 1.099227526043424e-01  4.121705943473436e-03 -1.998555534471004e-18
 1.086867046397849e-01 -1.694698305138945e-02 -1.760085460761105e-18
 1.098708067477405e-01 -5.329711493184334e-03 -1.900521215257881e-18
 1.098708067477405e-01 -5.329711493184334e-03 -1.900521215257881e-18
 1.094795959300375e-01  1.068728567016185e-02 -2.058127979439452e-18
 1.099909014535762e-01  1.414778226302118e-03 -1.971955625589605e-18
 1.099765135682107e-01 -2.272985565527492e-03 -1.933809142705251e-18
 1.095486017113097e-01 -9.955092319851569e-03 -1.847263084569264e-18
 1.099660157797092e-01  2.734112934148030e-03 -1.985068440184933e-18
 1.099903052664416e-01  1.460392890601354e-03 -1.972413689833557e-18
 1.099903052664416e-01  1.460392890601354e-03 -1.972413689833557e-18
 1.081711777346454e-01  1.997489192710880e-02 -2.130269897282757e-18
 1.042833124683203e-01 -3.499986772310135e-02 -1.496235012609158e-18
 9.959259740875318e-02 -4.670454518971300e-02 -1.292496833842308e-18
 3.395599234249666e-03  1.099475779898779e-01 -1.190100161821821e-18
 1.020642679356806e-01  4.102298393283361e-02 -2.237851652012604e-18
 7.998278347565156e-02 -7.551658326147290e-02 -6.474835788732242e-19
 1.099705359398326e-01 -2.545825034426345e-03 -1.930899437249741e-18
 1.099515019144177e-01 -3.266072069587136e-03 -1.923160427421774e-18
 1.099922442659245e-01  1.306216423540075e-03 -1.970864089451131e-18
 1.096863554909436e-01 -8.300808341015296e-03 -1.866711744324926e-18
 1.097819058667138e-01  6.923376652466715e-03 -2.024835147534785e-18
 1.095540740093886e-01 -9.894688875620601e-03 -1.847981094087799e-18
 1.096705831677491e-01  8.506655491186833e-03 -2.039121642224052e-18
 1.096549231480041e-01 -8.706194886702419e-03 -1.861987168796880e-18
 1.092790043109039e-01  1.257375110368289e-02 -2.073940959333038e-18
 1.044077868269493e-01 -3.462678226313035e-02 -1.502283499869260e-18
 1.098637757901493e-01  5.472729586937481e-03 -2.011387248860634e-18
 1.082596492365694e-01  1.948969848855754e-02 -2.126859166867927e-18
 8.206869917201715e-02  7.324430773932458e-02 -2.213069051310397e-18
 7.936794639557164e-02 -7.616251758542120e-02 -6.299050790999090e-19
 5.750047513205211e-02 -9.377470532925272e-02 -5.978851243859537e-20
 1.089451833823106e-01  1.519694106702539e-02 -2.094952541656050e-18
 1.099943066539306e-01  1.119153126704373e-03 -1.968978784685570e-18
 1.099943066539306e-01  1.119153126704373e-03 -1.968978784685570e-18
 1.099968624372775e-01  8.308152349172136e-04 -1.966061700805686e-18
 1.090431519867272e-01  1.447725819343690e-02 -2.089301529746938e-18
 1.099431399747582e-01  3.536378442794016e-03 -1.992904324609772e-18
 1.099780467744405e-01 -2.197550381426753e-03 -1.934611497052172e-18
 1.099685639978362e-01  2.629625877140547e-03 -1.984040222212540e-18
 1.099967314038694e-01  8.479861230795192e-04 -1.966235793548061e-18
 1.099947835437213e-01  1.071257751347554e-03 -1.968495163925482e-18
 1.099947835437213e-01  1.071257751347554e-03 -1.968495163925482e-18
 1.099686735190360e-01 -2.625041802257459e-03 -1.930052369737813e-18
 1.093669112647822e-01  1.178468159948263e-02 -2.067397965927270e-18
 1.096814568347114e-01  8.365287001368411e-03 -2.037862642220475e-18
 1.097966616297940e-01 -6.685289444177668e-03 -1.885273643436824e-18
 9.922794180558502e-02 -4.747436745263024e-02 -1.278097708309950e-18
 1.080201395499733e-01  2.077617509562858e-02 -2.135814886094899e-18
 6.879894353837142e-02  8.582951338557093e-02 -2.106226337241583e-18
 1.097546799527705e-01 -7.342358508329420e-03 -1.877775383476900e-18
 1.092833368704331e-01 -1.253603934515838e-02 -1.816024087205826e-18
 1.099719653282826e-01 -2.483312673615468e-03 -1.931567166720621e-18
 1.099719653282826e-01 -2.483312673615468e-03 -1.931567166720621e-18
 1.099946893368956e-01 -1.080887450083918e-03 -1.946380977270824e-18
 1.098090556631780e-01 -6.478525631731921e-03 -1.887618633106521e-18
 1.097474523057711e-01  7.449611559834159e-03 -2.029628877827203e-18
 1.092181542559866e-01 -1.309178295403031e-02 -1.809154021133737e-18
 1.097827446080843e-01  6.910064132557099e-03 -2.024713292631947e-18
 1.053074560336517e-01 -3.178584124607121e-02 -1.547483823484352e-18
 1.096012817349878e-01  9.357298864937674e-03 -2.046628392213169e-18
 1.099918803049895e-01 -1.336512990130068e-03 -1.943704527634804e-18
 1.099986835592941e-01 -5.381591049271631e-04 -1.952028395811663e-18
 1.006520124632180e-01 -4.437535788142037e-02 -1.335281941918009e-18
 1.098752254536621e-01  5.237826983286988e-03 -2.009177470361398e-18
 1.096164327662131e-01 -9.178108062678703e-03 -1.856453450089343e-18
 1.098993389369779e-01  4.704816809949413e-03 -2.004130112656936e-18
 1.098192160466631e-01 -6.303950102613920e-03 -1.889593149393768e-18
 1.096074910532804e-01  9.284282686614950e-03 -2.045988679731355e-18
 1.096365853779771e-01 -8.934156180493912e-03 -1.859318606823286e-18
 1.090519104859904e-01  1.441113525560965e-02 -2.088778008523241e-18
 1.068189912875512e-01 -2.626219907604851e-02 -1.631136813067544e-18
 1.098970314380870e-01  4.758411614819335e-03 -2.004639715112264e-18
 1.097364024322527e-01 -7.610649198761363e-03 -1.874693523815226e-18
 1.098024957132466e-01  6.588773417138637e-03 -2.021763641723097e-18
 1.053064729941807e-01 -3.178909790361823e-02 -1.547432868151109e-18
 1.030802050883123e-01  3.839884528148465e-02 -2.228969394129405e-18
 3.655501274682228e-02  1.037484026049538e-01 -1.716517204161536e-18
 1.085463921449954e-01  1.782360099151676e-02 -2.114843552426235e-18
 1.053760209023845e-01 -3.155779172851225e-02 -1.551047143059629e-18
 1.053760209023845e-01 -3.155779172851225e-02 -1.551047143059629e-18
 1.099906999207262e-01  1.430360426143338e-03 -1.972112140514943e-18
 1.098704554259572e-01  5.336948987265293e-03 -2.010111024611178e-18
 1.004075368268313e-01  4.492578934608094e-02 -2.248468053553601e-18
 1.099873949286558e-01  1.665219747606286e-03 -1.974466418449061e-18
 1.099538552819712e-01 -3.185860736324676e-03 -1.924026450715374e-18
 1.099379921417613e-01  3.692950559913210e-03 -1.994421434406256e-18
 1.099379921417613e-01  3.692950559913210e-03 -1.994421434406256e-18
 1.099527151298445e-01  3.224970631677970e-03 -1.989875123782539e-18
 1.099891289306486e-01 -1.546453063331880e-03 -1.941498505659533e-18
 1.094784474015468e-01  1.069904456232825e-02 -2.058228358350284e-18
 1.099891289306483e-01 -1.546453063350074e-03 -1.941498505659342e-18
 1.098922945924130e-01 -4.866578799756167e-03 -1.905662137267551e-18
 1.019524067971536e-01 -4.130020276303307e-02 -1.390020111982303e-18
 1.078690063445867e-01  2.154709888201756e-02 -2.141046252277382e-18
 1.099999662018416e-01 -8.622988821926389e-05 -1.956694630494485e-18
 1.093684071305299e-01 -1.177079104098745e-02 -1.825400662292229e-18
 1.099295869745309e-01  3.935213794570295e-03 -1.996761021158132e-18
 1.099438954808311e-01  3.512811765525509e-03 -1.992675630693707e-18
 1.099294983562468e-01 -3.937688553436829e-03 -1.915868232464861e-18
 1.099869387426926e-01  1.695082892106251e-03 -1.974765133036997e-18
 1.099277152118289e-01  3.987157923504626e-03 -1.997261417963113e-18
 1.098409479679340e-01 -5.913218202089793e-03 -1.893994523191702e-18
 1.098720256613414e-01  5.304524208021005e-03 -2.009805815995144e-18
 1.099988162181856e-01 -5.103240125087745e-04 -1.952316752097785e-18
 1.089299171231010e-01  1.530598430530574e-02 -2.095801240024199e-18
 1.099083565985377e-01 -4.489225969876505e-03 -1.909825143071501e-18
 1.099831262695885e-01  1.926638515052346e-03 -1.977076435438653e-18
 1.098925420311796e-01  4.860988163464619e-03 -2.005613757535389e-18
 1.043238088641611e-01  3.487897510068064e-02 -2.214935419305465e-18
 1.094088053619006e-01 -1.138917509223897e-02 -1.830040562251441e-18
 1.086547639904095e-01 -1.715057614741687e-02 -1.757425193703158e-18
 1.090595131365824e-01  1.435348718644825e-02 -2.088320993790561e-18
 1.092683030798249e-01  1.266640999081661e-02 -2.074702554566068e-18
 1.090914491328764e-01 -1.410871100026401e-02 -1.796450586074513e-18
 1.097873083117969e-01  6.837172928219291e-03 -2.024045578538018e-18
 1.091516375971431e-01 -1.363524880087860e-02 -1.802386363694928e-18
 1.036929585290357e-01  3.671199193037068e-02 -2.222542267128790e-18
 7.360612363970209e-02  8.174434881223787e-02 -2.149802259389375e-18
 9.932302687274083e-02 -4.727511325038498e-02 -1.281837125046270e-18
 1.417340577062017e-02  1.090830627038922e-01 -1.373021504859750e-18
 1.002892756470488e-01 -4.518917116069061e-02 -1.320464971776761e-18
 9.640835027071047e-02 -5.296631002892242e-02 -1.171491998710817e-18
 1.038246010198507e-01 -3.633802723138317e-02 -1.474322592380355e-18
 1.097436180066465e-01  7.505884812011486e-03 -2.030138829124219e-18
 1.097106435191363e-01 -7.973374355749610e-03 -1.870508244009613e-18
 1.099992042302863e-01  4.184121218222942e-04 -1.961866083632892e-18
 1.094378531292536e-01 -1.110658824571497e-02 -1.833460979113222e-18
 1.085248328552375e-01  1.795440485626570e-02 -2.115803841341127e-18
 1.084973205347513e-01 -1.811991823324165e-02 -1.744663661806815e-18
 1.099806375415502e-01  2.063823140215727e-03 -1.978441667742847e-18
 1.099911016532200e-01 -1.399127267603861e-03 -1.943047331642691e-18
 1.098593892106467e-01 -5.560090130885472e-03 -1.897950969753566e-18
 1.099783573284063e-01 -2.181953103369138e-03 -1.934777280096433e-18
 1.099783573284063e-01 -2.181953103369138e-03 -1.934777280096433e-18
 1.039347037705347e-01  3.602190100662536e-02 -2.219753978514268e-18
 1.099790174012540e-01 -2.148425343036129e-03 -1.935133512437864e-18
 1.078946355619895e-01 -2.141839435964790e-02 -1.700047519851210e-18
 1.096503955377439e-01  8.763033630897582e-03 -2.041396571518103e-18
 1.091171148428571e-01  1.390881908612918e-02 -2.084777281667963e-18
 1.084621206712948e-01 -1.832944023928183e-02 -1.741884475749989e-18
 1.099759980050647e-01 -2.297795201911537e-03 -1.933545057642868e-18
 1.099759980050647e-01 -2.297795201911537e-03 -1.933545057642868e-18
 1.096680172561035e-01  8.539671604629252e-03 -2.039415207337398e-18
 1.099884148483264e-01  1.596433259606825e-03 -1.973777812960176e-18
 1.093442793395345e-01 -1.199285519456390e-02 -1.822689650962363e-18
 1.084251323673421e-01 -1.854698549965114e-02 -1.738991026237589e-18
 1.065041102292546e-01  2.751135228000808e-02 -2.178036834819458e-18
 1.099839851548681e-01 -1.876968154678199e-03 -1.938011043536913e-18
 1.094482216215742e-01 -1.100394401452044e-02 -1.834700130989860e-18
 1.094482216215742e-01 -1.100394401452044e-02 -1.834700130989860e-18
 1.099270385965272e-01  4.005769014503438e-03 -1.997440598985857e-18
 1.097021472279436e-01 -8.089430979895978e-03 -1.869164602720049e-18
 1.091768396341906e-01 -1.343196513880849e-02 -1.804923529786887e-18
 8.818946778550728e-02  6.574661794882609e-02 -2.244959391003740e-18
 1.095996770036733e-01 -9.376075975076639e-03 -1.854121212924150e-18
 1.095996770036733e-01 -9.376075975076639e-03 -1.854121212924150e-18
 1.078226871343262e-01 -2.177769820557551e-02 -1.695075395265671e-18
 1.095415808926473e-01 -1.003205141232522e-02 -1.846347414008306e-18
 1.098253133284545e-01 -6.196817917827988e-03 -1.890802402076959e-18
-5.749428741611674e-02  9.377849921230820e-02  5.963941388236512e-20
 1.099916276461095e-01  1.357146918920081e-03 -1.971376408304426e-18
 1.086951945773766e-01 -1.689244434018277e-02 -1.760796914773005e-18
 1.050680550466825e-01  3.256844805493862e-02 -2.204440341845902e-18
 1.094747347306367e-01 -1.073696678101636e-02 -1.837915057480659e-18
 1.055341648997835e-01 -3.102482939365228e-02 -1.559337498515024e-18
 1.085017312538290e-01  1.809348819110871e-02 -2.116821751527984e-18
 1.098214944110933e-01  6.264133245240939e-03 -2.018766186380001e-18
 1.098214944110933e-01  6.264133245240939e-03 -2.018766186380001e-18
 1.099689345040271e-01 -2.614085700377242e-03 -1.930169584243826e-18
 1.099998072281356e-01 -2.059363322593126e-04 -1.955461861141175e-18
 1.098353473512763e-01  6.016350407381380e-03 -2.016466837328364e-18
 1.052881803823513e-01  3.184963220781960e-02 -2.200972163065255e-18
 1.086257853303359e-01 -1.733316939765242e-02 -1.755033404564895e-18
 1.099987831376917e-01  5.174052830993079e-04 -1.962875708558609e-18
 1.099425635767728e-01 -3.554252968934966e-03 -1.920040404988442e-18
 1.099994935876705e-01  3.337820485804576e-04 -1.961001689833832e-18
 1.099990309714708e-01  4.617199771875093e-04 -1.962307972766970e-18
 1.099990309714708e-01  4.617199771875093e-04 -1.962307972766970e-18
 1.099348807907390e-01  3.784439922358320e-03 -1.995306084167111e-18
 1.099986226384446e-01 -5.504703852061502e-04 -1.951900817719948e-18
 1.099599412966827e-01  2.968385087892224e-03 -1.987367398788910e-18
 1.095323271055242e-01 -1.013258697709423e-02 -1.845149765421830e-18
 1.091205223690867e-01  1.388206029008639e-02 -2.084562985753229e-18
 9.602768198008758e-02 -5.365337168837660e-02 -1.157658243440596e-18
 1.085504348639940e-01  1.779896319558286e-02 -2.114662353030131e-18
 1.093584571485398e-01 -1.186287697360575e-02 -1.824277440988485e-18
 1.098317604448209e-01  6.081479884979451e-03 -2.017072185772014e-18
 1.059910672481116e-01 -2.942607115478044e-02 -1.583895280937573e-18
 1.070073948126541e-01  2.548367036768227e-02 -2.166159689270416e-18
 1.099754059790654e-01 -2.325957811243213e-03 -1.933245161253805e-18
 1.099754059790654e-01 -2.325957811243213e-03 -1.933245161253805e-18
 1.086567155262052e-01 -1.713820793015550e-02 -1.757587002549860e-18
 1.099997413716845e-01  2.385333571305660e-04 -1.960027453742407e-18
 1.070798525415046e-01  2.517747365582128e-02 -2.164303101004165e-18
 1.099609887085993e-01  2.929327948049428e-03 -1.986984740809823e-18
 1.096422467714380e-01  8.864407645806484e-03 -2.042293135678393e-18
 1.093046961583341e-01 -1.234841681083834e-02 -1.818331954594535e-18
 1.095264144102124e-01 -1.019630062534137e-02 -1.844389907365448e-18
 1.095264144102124e-01 -1.019630062534137e-02 -1.844389907365448e-18
 1.099600526225567e-01  2.964258295842281e-03 -1.987326978676465e-18
 1.085777475313102e-01  1.763158362221007e-02 -2.113428650212564e-18
 1.099999796378006e-01  6.693043688357510e-05 -1.958268536305061e-18
 1.080472761696391e-01  2.063458534406911e-02 -2.134843031349822e-18
 1.077629882260963e-01  2.207121130754195e-02 -2.144544598173044e-18
 9.703006104431618e-02 -5.181859949609027e-02 -1.194348392324977e-18
 1.065319627965072e-01  2.740330094575344e-02 -2.177422316269959e-18
 1.099613514293344e-01  2.915680338162435e-03 -1.986850971624170e-18
 1.097661192314890e-01  7.169314392497313e-03 -2.027081126466636e-18
 8.965560130131230e-02 -6.373282635581183e-02 -9.406967317389383e-19
 4.828300927207203e-02  9.883699214177315e-02 -1.874767933654979e-18
 1.097138141073711e-01 -7.929627608730545e-03 -1.871014150342942e-18
 1.088306900369747e-01  1.599627788192852e-02 -2.101127891400083e-18
 1.095700607182040e-01 -9.716058573774802e-03 -1.850100958100984e-18
 1.091239294920691e-01  1.385525215251816e-02 -2.084348175695983e-18
 1.094075541915403e-01 -1.140118791289237e-02 -1.829894868814132e-18
 1.093645069225853e-01  1.180697359951881e-02 -2.067584219992197e-18
 5.898122167311861e-02  9.285050075226503e-02 -2.003646360315442e-18
 1.083981438331167e-01 -1.870407478425165e-02 -1.736896697744739e-18
 1.095941955968993e-01 -9.439930691933770e-03 -1.853367580733035e-18
 1.097321282950195e-01 -7.672028404881064e-03 -1.873986811399220e-18
 1.099889223984900e-01 -1.561073226621092e-03 -1.941344613306702e-18
 1.099889223984900e-01 -1.561073226621092e-03 -1.941344613306702e-18
 1.099999631259411e-01 -9.006826031733527e-05 -1.956655137876229e-18
 1.096733914599224e-01 -8.470372227861851e-03 -1.864738826589217e-18
 1.098487251030329e-01  5.766939677006038e-03 -2.014142305727622e-18
 1.099120293822718e-01  4.398385734626517e-03 -2.001207486287366e-18
 1.099304447013555e-01  3.911179842727066e-03 -1.996529345305768e-18
 1.034125753490284e-01 -3.749452306246125e-02 -1.455107529543641e-18
 1.096958605436436e-01  8.174238777367645e-03 -2.036156022303046e-18
 1.049410674815613e-01  3.297532950298325e-02 -2.206361005718570e-18
 1.096530871106318e-01 -8.729289037952833e-03 -1.861717210307083e-18
 1.093762391398884e-01 -1.169779088605547e-02 -1.826290092314177e-18
 1.096614484590373e-01 -8.623614199732024e-03 -1.862951781049805e-18
 1.099999336689932e-01 -1.208007327219245e-04 -1.956338848664976e-18
 1.099999336689932e-01 -1.208007327219245e-04 -1.956338848664976e-18
 1.098922157788085e-01 -4.868358165102880e-03 -1.905642452352900e-18
 1.081843179955837e-01 -1.990360117743385e-02 -1.720766713968883e-18
 1.095901983090332e-01  9.486223410119569e-03 -2.047755802294656e-18
 4.259769259332742e-02 -1.014171414787673e-01  2.839475346779750e-19
 8.499547411000768e-02  6.982670965193002e-02 -2.230039923683260e-18
 1.099637375105469e-01  2.824257904558352e-03 -1.985954102491446e-18
 7.722591133325184e-02  7.833363657298602e-02 -2.179176869991185e-18
 9.318594237618422e-02 -5.844980875471198e-02 -1.057804448991440e-18
 1.031151852468132e-01  3.830481133637545e-02 -2.228625743149622e-18
 1.099982504080236e-01  6.204088762085121e-04 -1.963924552499633e-18
 1.099133175553044e-01 -4.366076498039998e-03 -1.911178745301242e-18
 1.099133175553044e-01 -4.366076498039998e-03 -1.911178745301242e-18
 1.095869374302345e-01  9.523819856644305e-03 -2.048084060897042e-18
 1.099997656847624e-01 -2.270447032987149e-04 -1.955244240982933e-18
 1.099997656847624e-01 -2.270447032987149e-04 -1.955244240982933e-18
-7.488778199577219e-02  8.057183197466486e-02  5.048711059004462e-19
 1.099998855950658e-01  1.586476358882245e-04 -1.959209223603950e-18
 1.099998855950658e-01  1.586476358882245e-04 -1.959209223603950e-18
 1.098281698040667e-01  6.145983850371206e-03 -2.017671040848673e-18
 7.286938232733084e-02  8.240177861692800e-02 -2.143445921336599e-18
 1.091966000987758e-01 -1.327036272556156e-02 -1.806935596915886e-18
 1.099998485758151e-01  1.825193076681870e-04 -1.959453837557870e-18
 1.092725091844264e-01 -1.263007270522933e-02 -1.814865237002510e-18
 1.092725091844264e-01 -1.263007270522933e-02 -1.814865237002510e-18
 1.010363522267847e-01  4.349316645985930e-02 -2.244938893948984e-18
 1.095180622330831e-01 -1.028562320476878e-02 -1.843323513355319e-18
 7.824974304529586e-02  7.731091587444232e-02 -2.186889092925367e-18
 4.855599185808879e-02 -9.870316942569346e-02  1.500274150081164e-19
 1.089219160595393e-01  1.536281881422136e-02 -2.096242805486860e-18
 1.040594436243618e-01 -3.565995222358243e-02 -1.485468871037898e-18
 1.049301548448908e-01  3.301003793131981e-02 -2.206523418824531e-18
 9.640086112278563e-02 -5.297993936185020e-02 -1.171218683945431e-18
 1.039249365305656e-01  3.605007027895840e-02 -2.219869587868361e-18
 1.023189379962775e-01 -4.038359725574055e-02 -1.405960760495780e-18
 1.099990542451036e-01 -4.561416256919356e-04 -1.952877692412347e-18
 1.099934972069163e-01  1.196065295885837e-03 -1.969754624208753e-18
 1.099982882090871e-01  6.136701642833131e-04 -1.963855987397600e-18
 1.099502881272696e-01  3.306681225992496e-03 -1.990671479050141e-18
 1.097750450820453e-01 -7.031321158561912e-03 -1.881333601022625e-18
 9.989213546647602e-02  4.606040894246516e-02 -2.250953675731036e-18
 1.090784311219011e-01 -1.420900643903755e-02 -1.795188415841831e-18
 1.099961989257945e-01  9.144516810460649e-04 -1.966909226928623e-18
 1.097674252610080e-01  7.149290284283649e-03 -2.026898628382106e-18
 1.098001616620409e-01  6.627556034437082e-03 -2.022120581801860e-18
 1.099815681754581e-01 -2.013619047133197e-03 -1.936563992226626e-18
 1.099815681754581e-01 -2.013619047133197e-03 -1.936563992226626e-18
 1.099071948404217e-01  4.517579253260954e-03 -2.002346119952664e-18
 1.099108252726528e-01 -4.428373051620544e-03 -1.910494317701073e-18
 1.092275151500940e-01  1.301345204532257e-02 -2.077542415742485e-18
 1.098908296456399e-01  4.899546896691058e-03 -2.005979460568717e-18
 1.098987232571657e-01 -4.719176458326838e-03 -1.907291048536340e-18
 1.098987232571657e-01 -4.719176458326838e-03 -1.907291048536340e-18
 1.099289097957413e-01 -3.954085370816080e-03 -1.915689286986530e-18
 8.827451350961991e-02  6.563238731479949e-02 -2.245299202842640e-18
 1.098925039948773e-01 -4.861847975389301e-03 -1.905714471335984e-18
 1.072767175763414e-01 -2.432500495469237e-02 -1.659186564241885e-18
 1.063009949080550e-01 -2.828601211831718e-02 -1.601124505790132e-18
 1.095531482136281e-01  9.904933946413104e-03 -2.051398550306805e-18
 1.099601790859670e-01  2.959563376925024e-03 -1.987280990657356e-18
 1.099601790859670e-01  2.959563376925024e-03 -1.987280990657356e-18
 1.405428026796204e-02 -1.090984748112894e-01  8.708345144051728e-19
 1.097461359671279e-01  7.468978530203969e-03 -2.029804440595943e-18
 1.095519603098862e-01  9.918063937134125e-03 -2.051512316027644e-18
 1.095519603098862e-01  9.918063937134125e-03 -2.051512316027644e-18
 6.745545561999826e-02 -8.688936360164232e-02 -3.076936499553527e-19
 1.099844426422852e-01 -1.849966666140508e-03 -1.938296615557066e-18
 1.095514887877711e-01 -9.923270851026367e-03 -1.847641417571073e-18
 1.098944742735812e-01 -4.817107444634772e-03 -1.906209227496300e-18
 1.083084059237067e-01  1.921689897630562e-02 -2.124923934386501e-18
 1.083084059237067e-01  1.921689897630562e-02 -2.124923934386501e-18
 1.099984581171104e-01  5.824189714188449e-04 -1.963537916459531e-18
 1.074752074016190e-01 -2.343245172786984e-02 -1.671889587616437e-18
 1.066312450069459e-01 -2.701439594491505e-02 -1.620067094476340e-18
 1.049695637555220e-01  3.288450524145640e-02 -2.205934944611958e-18
 1.049695637555220e-01  3.288450524145640e-02 -2.205934944611958e-18
 1.075656305419897e-01 -2.301380294745142e-02 -1.677800239395616e-18
 1.072786355757240e-01 -2.431654475888713e-02 -1.659307622767322e-18
 1.062011669276379e-01  2.865854398269333e-02 -2.184432575406445e-18
 1.097381991497796e-01  7.584698238115484e-03 -2.030852173424978e-18
 1.091587260595421e-01 -1.357838447893599e-02 -1.803096771589517e-18
 1.095509441138411e-01  9.929282137497693e-03 -2.051609494540341e-18
 1.094179957136716e-01 -1.130054042968340e-02 -1.831114804483172e-18
 9.365459926873325e-02  5.769589271181232e-02 -2.259499647580792e-18
 1.096770864193795e-01 -8.422393635773566e-03 -1.865297545404717e-18
 1.099525458148966e-01  3.230738123558136e-03 -1.989931369504979e-18
 1.098922870554987e-01 -4.866748987963167e-03 -1.905660254517168e-18
 1.095118776271505e-01  1.035126362218516e-02 -2.055249966270833e-18
 1.099795342976379e-01 -2.121800102423540e-03 -1.935416275900697e-18
 1.099457010469403e-01 -3.455838725516642e-03 -1.921107410612622e-18
 1.099665658950526e-01 -2.711896983482370e-03 -1.929122456619885e-18
 1.099346618720688e-01  3.790793989902077e-03 -1.995367473984000e-18
 1.096495403236972e-01  8.773728215637164e-03 -2.041491234937168e-18
 1.099343021991383e-01 -3.801210332051733e-03 -1.917355986725440e-18
 1.088464451472507e-01 -1.588871860177908e-02 -1.773801516419327e-18
 1.078776656608278e-01  2.150370320597420e-02 -2.140754480332163e-18
 1.099953541797943e-01 -1.010969268357416e-03 -1.947111192861221e-18
 1.099933854190602e-01 -1.206301808847932e-03 -1.945069185520728e-18
 1.097805054181036e-01  6.945547505106752e-03 -2.025038022338089e-18
 1.099116258947595e-01 -4.408457005620633e-03 -1.910713195864197e-18
 1.099311632581425e-01  3.890931085433969e-03 -1.996334084255526e-18
 1.099682285154403e-01 -2.643618197826695e-03 -1.929853584651807e-18
 1.091362592412661e-01  1.375779483867646e-02 -2.083566259794138e-18
 1.091538305615741e-01 -1.361768239221071e-02 -1.802605878580529e-18
 1.099096397434288e-01  4.457700244482463e-03 -2.001774394855194e-18
 1.099128666284399e-01 -4.377413564966765e-03 -1.911054236275564e-18
 1.098777970899542e-01  5.183599778032468e-03 -2.008666070861979e-18
 1.099923946330069e-01 -1.293492519050362e-03 -1.944155700427622e-18
 1.099177814559459e-01  4.252213518024336e-03 -1.999807984874325e-18
 1.099912952955429e-01 -1.383820511710985e-03 -1.943208049095106e-18
 1.099954247392763e-01  1.003262889857409e-03 -1.967807952264009e-18
 1.099838776944341e-01  1.883254442636311e-03 -1.976644052356233e-18
 1.099913329520018e-01 -1.380824189338527e-03 -1.943239505360607e-18
 1.099561666246700e-01  3.105063800918115e-03 -1.988704548122720e-18
 1.099855434783942e-01 -1.783318749473386e-03 -1.939000989381219e-18
 1.093690001081378e-01  1.176528007937491e-02 -2.067235795815355e-18
 1.099355193179906e-01 -3.765845493867945e-03 -1.917741007672550e-18
 1.097884781439897e-01  6.818362473985404e-03 -2.023873126513363e-18
 1.025513703779989e-01 -3.978965234322187e-02 -1.416199740196800e-18
 1.095740416839801e-01  9.671059354452737e-03 -2.049367398061920e-18
 1.096210741396783e-01 -9.122505383014016e-03 -1.857107346201276e-18
 1.095022037438906e-01  1.045310361717698e-02 -2.056124176931776e-18
 1.094568371931904e-01 -1.091791150648228e-02 -1.835737408130734e-18
 1.099468362749087e-01  3.419531128443423e-03 -1.991769540972396e-18
 1.099470531957861e-01 -3.412549422783610e-03 -1.921576255574049e-18
 1.099982747558239e-01  6.160768963676340e-04 -1.963880476278602e-18
 1.099999641438914e-01 -8.881634183904601e-05 -1.956668018999446e-18
 1.099939452272464e-01 -1.154128825336984e-03 -1.945615206427785e-18
 1.099939452272464e-01 -1.154128825336984e-03 -1.945615206427785e-18
 1.099998483846153e-01  1.826345027923977e-04 -1.959455017743295e-18
 1.099793800656037e-01  2.129779421781179e-03 -1.979096966291460e-18
 1.099982814859808e-01 -6.148740772644353e-04 -1.951233021965037e-18
 1.098156941144002e-01 -6.365007947556209e-03 -1.888903125231825e-18
 1.099970902854189e-01  8.000804593102799e-04 -1.965749966980854e-18
 1.099989022482811e-01 -4.914307408460928e-04 -1.952512404608903e-18
 1.099552305188840e-01  3.138037848568668e-03 -1.989026685364710e-18
 1.098232433663118e-01 -6.233395262921946e-03 -1.890389745698152e-18
 1.099797093930199e-01 -2.112704860332119e-03 -1.935512842240327e-18
 1.099618426182978e-01 -2.897096475554650e-03 -1.927135542772549e-18
 1.098299036551958e-01  6.114921347847742e-03 -2.017382740868421e-18
 1.091495708390177e-01 -1.365178324096229e-02 -1.802179697903399e-18
 1.099424121273898e-01  3.558934617429888e-03 -1.993123128198013e-18
 1.099960511781959e-01  9.320542922284975e-04 -1.967087458019240e-18
 1.099603027156338e-01 -2.954966444166502e-03 -1.926513545462800e-18
 1.099448593679416e-01 -3.482513253890090e-03 -1.920818360841905e-18
 1.097913390331845e-01 -6.772139492089601e-03 -1.884286568788979e-18
 1.095582939474772e-01 -9.847853944801171e-03 -1.848537404820187e-18
 1.093967007711459e-01  1.150486246716237e-02 -2.065053065792931e-18
 1.099744425819981e-01 -2.371071230219694e-03 -1.932764492462244e-18
-3.823037850683832e-02 -1.031428046895364e-01  1.740110037725152e-18
 1.056710944747723e-01  3.055519256204585e-02 -2.194486678968980e-18
 1.092643113464208e-01 -1.270079784865377e-02 -1.813992671540205e-18
 1.098732412537204e-01  5.279285595771514e-03 -2.009568131339144e-18
 1.092191228704587e-01 -1.308369975991478e-02 -1.809254310666817e-18
 1.067900542421317e-01  2.637961931041704e-02 -2.171497404478689e-18
 1.098121939569951e-01 -6.425111543876863e-03 -1.888223293137386e-18
 1.086486588698288e-01  1.718920957425140e-02 -2.110145369426692e-18
 1.096480667359556e-01 -8.792124946074410e-03 -1.860982250621743e-18
 1.060382144940345e-01  2.925571853359751e-02 -2.187668394047858e-18
 1.097077639732247e-01 -8.012897353341616e-03 -1.870050914612586e-18
 1.054811759998033e-01  3.120451104725871e-02 -2.197778364720649e-18
 1.059899516620926e-01 -2.943008913794234e-02 -1.583834144436276e-18
 1.089036226417359e-01  1.549196486912967e-02 -2.097244181094978e-18
 1.089139888887087e-01 -1.541891774250687e-02 -1.779830571031452e-18
 1.089139888887087e-01 -1.541891774250687e-02 -1.779830571031452e-18
 1.058601778789001e-01 -2.989352336957960e-02 -1.576763046786940e-18
 8.324567958929428e-02 -7.190380260957359e-02 -7.426707161171012e-19
 9.556564913503504e-02  5.447207271069596e-02 -2.260385480144692e-18
 1.099401539780708e-01 -3.628021951153409e-03 -1.919239573811135e-18
 1.099956540572956e-01 -9.777977846703548e-04 -1.947457354483696e-18
 1.098905381677075e-01 -4.906080024988011e-03 -1.905225018855187e-18
 6.706138011177670e-02  8.719387190338414e-02 -2.089322611562695e-18
 1.099065012259861e-01  4.534422594143893e-03 -2.002506835465275e-18
 1.097754646234839e-01  7.024768088569416e-03 -2.025762278101459e-18
 1.094971588614816e-01 -1.050581749619841e-02 -1.840689096569085e-18
 1.096983637165697e-01 -8.140577246556318e-03 -1.868571761312058e-18
 1.097660885261719e-01  7.169784492198157e-03 -2.027085410132544e-18
 1.099308330192391e-01  3.900250209426315e-03 -1.996423957873969e-18
 1.098274297174479e-01  6.159194887240664e-03 -2.017793608729126e-18
 1.099999533811797e-01  1.012725937353109e-04 -1.958620922223300e-18
 1.099271320377159e-01 -4.003203962145771e-03 -1.915152973979350e-18
 1.099809748667435e-01  2.045768159079186e-03 -1.978262162474719e-18
 1.099951144810006e-01 -1.036720941976893e-03 -1.946842338043671e-18
 1.099069138960265e-01  4.524409116269179e-03 -2.002411294573343e-18
 1.099628765607130e-01 -2.857582631063802e-03 -1.927559933409051e-18
 1.095391228492044e-01  1.005885507534915e-02 -2.052730435901492e-18
 1.099998262904587e-01 -1.954893063055007e-04 -1.955569539774523e-18
 1.099725073431431e-01  2.459192685067878e-03 -1.982359259611033e-18
 8.510837465291203e-02 -6.968905627097791e-02 -7.985753107522579e-19
 1.097984208463070e-01  6.656333800014536e-03 -2.022385282996522e-18
 1.099995557003711e-01  3.126431206911640e-04 -1.960785600398535e-18
 1.098705890224565e-01  5.334197958309684e-03 -2.010085136297092e-18
 1.098306820552771e-01 -6.100924460488588e-03 -1.891883215413624e-18
 1.098880600978605e-01  4.961274829009010e-03 -2.006564405242919e-18
 1.099897290158591e-01  1.503166995993965e-03 -1.972842923161363e-18
 1.085485118360004e-01 -1.781068719026974e-02 -1.748751908707468e-18
 1.099972043371063e-01  7.842435979044857e-04 -1.965589278668811e-18
 1.099972043371063e-01  7.842435979044857e-04 -1.965589278668811e-18
-1.365494124761124e-02  1.091491758078101e-01 -8.784621629421686e-19
 1.078232210166211e-01 -2.177505475540441e-02 -1.695112056828162e-18
 1.098645081739715e-01  5.458007300409461e-03 -2.011249016358481e-18
 1.090992771868144e-01 -1.404805030296380e-02 -1.797213162260441e-18
 1.060824842394511e-01  2.909478540196803e-02 -2.186802697509326e-18
 9.304737051837521e-02 -5.867015288557009e-02 -1.053074441587397e-18
 1.076005449933546e-01  2.285000475126939e-02 -2.149655546797987e-18
 1.099242060985535e-01  4.082758087702364e-03 -1.998181226064878e-18
 1.099948313496760e-01  1.066337824656544e-03 -1.968445464229990e-18
 1.099999851652561e-01 -5.712830641571139e-05 -1.956993976152324e-18
 9.981868544974856e-02  4.621936861407906e-02 -2.251279797949342e-18
 1.088751719394898e-01 -1.569066394855544e-02 -1.776347683568055e-18
 1.086923686051308e-01  1.691061817339449e-02 -2.108060810865744e-18
 1.084189138428807e-01 -1.858330221273902e-02 -1.738507219142920e-18
 1.066761598614475e-01  2.683648481479752e-02 -2.174164645207599e-18
 8.694912407267130e-02 -6.737840769115265e-02 -8.550747171673280e-19
 9.088041684412237e-02  6.197378344298916e-02 -2.254083535397574e-18
 1.043730347609837e-01 -3.473139235306367e-02 -1.500590214729430e-18
 1.040460549250438e-01  3.569899794860821e-02 -2.218417893513555e-18
 1.058935802282667e-01 -2.977498390326358e-02 -1.578575431392078e-18
 1.053300274976959e-01  3.171096509623422e-02 -2.200292128202120e-18
 9.587945159072638e-02 -5.391781489138368e-02 -1.152303249000071e-18
 1.093348555711403e-01  1.207846667577674e-02 -2.069846031556692e-18
 1.099984179155161e-01 -5.899627813997607e-04 -1.951491404406803e-18
 1.091226655598486e-01  1.386520324818200e-02 -2.084427926407444e-18
 1.064806315247718e-01 -2.760208524886713e-02 -1.611348453795421e-18
 1.092969938716509e-01  1.241640570456123e-02 -2.072644438208372e-18
 1.094317298884006e-01 -1.116675842096084e-02 -1.832733782045632e-18
 1.057025082997056e-01  3.044634196665726e-02 -2.193927325130129e-18
 1.094524729458298e-01 -1.096157680456432e-02 -1.835211096067653e-18
 9.888397534424191e-02  4.818671414528414e-02 -2.254859277311965e-18
 1.085273151426070e-01 -1.793939430240723e-02 -1.747052269442605e-18
 1.056540054943773e-01  3.061423072680480e-02 -2.194789155874397e-18
 1.091839919328712e-01 -1.337370201562282e-02 -1.805649445898884e-18
 1.070453651382091e-01 -2.532370040944749e-02 -1.644808138638070e-18
 1.071958137228578e-01  2.467909075096438e-02 -2.161246065250721e-18
 1.080622097872424e-01  2.055623545053866e-02 -2.134303776194790e-18
 1.099929056377480e-01 -1.249283540841744e-03 -1.944619025557774e-18
 1.099929056377480e-01 -1.249283540841744e-03 -1.944619025557774e-18
 1.099808238760691e-01  2.053869407005615e-03 -1.978342712795052e-18
 1.090941372108085e-01 -1.408791064101639e-02 -1.796712139762862e-18
 1.078226509288854e-01  2.177787746011304e-02 -2.142592468414902e-18
 1.091463854383758e-01 -1.367722726788769e-02 -1.801861581765723e-18
 1.095730929300909e-01  9.681802814229878e-03 -2.049460899001165e-18
 1.099972130919422e-01  7.830146906829730e-04 -1.965576807896286e-18
 1.061748665008838e-01  2.875582938326538e-02 -2.184964100089943e-18
 8.988048978009112e-02 -6.341527857615148e-02 -9.479615785554675e-19
 1.074943092225680e-01  2.334466715896550e-02 -2.152847431076578e-18
 1.078378550850597e-01  2.170246554319645e-02 -2.142088214458875e-18
 1.099980107803029e-01  6.615318407525466e-04 -1.964342811560397e-18
 1.099579957102275e-01  3.039601847209398e-03 -1.988064501088129e-18
 1.085597627685663e-01 -1.774198150243015e-02 -1.749658058456813e-18
 1.098260425920818e-01 -6.183879733807516e-03 -1.890948315333841e-18
 1.099570921924467e-01  3.072112722824282e-03 -1.988382459348135e-18
 1.099671234764973e-01 -2.689192128643204e-03 -1.929365663582248e-18
 1.099751837029166e-01 -2.336443774139068e-03 -1.933133466125092e-18
 1.099703994009619e-01  2.551716205398415e-03 -1.983272391825716e-18
 1.090591480431711e-01  1.435626093722300e-02 -2.088342995799395e-18
 3.141190833346174e-02 -1.054195997661259e-01  5.241357133925558e-19
 1.099998540535340e-01  1.791876144598219e-04 -1.959419703103004e-18
 1.099998540535340e-01  1.791876144598219e-04 -1.959419703103004e-18
 1.099957507412162e-01 -9.668603188611313e-04 -1.947571453577313e-18
 1.099957507412162e-01 -9.668603188611313e-04 -1.947571453577313e-18
 1.099912957166720e-01 -1.383787038373776e-03 -1.943208400515980e-18
 1.099985395118971e-01 -5.668379394245512e-04 -1.951731167710149e-18
 1.099566149480156e-01  3.089146997763498e-03 -1.988548987201141e-18
 1.098666511724336e-01 -5.414698528520476e-03 -1.899574050923629e-18
 1.099789376879719e-01  2.152502038360139e-03 -1.979322560284686e-18
 1.099862348523173e-01 -1.740156030611104e-03 -1.939456774461408e-18
 1.099883759557773e-01  1.599110568587037e-03 -1.973804629198052e-18
 1.099362222518297e-01 -3.745268614702057e-03 -1.917964937177144e-18
 1.099976851896183e-01  7.136195944506637e-04 -1.964872200033041e-18
 1.099363359392285e-01 -3.741930017659285e-03 -1.918001263251815e-18
 1.099991466954102e-01  4.332739105812940e-04 -1.962017759211777e-18
 1.099363489915078e-01 -3.741546527488427e-03 -1.918005435754889e-18
 1.099997972597205e-01  2.111937980941597e-04 -1.959747544299258e-18
 1.099979133178512e-01 -6.775438867419911e-04 -1.950582560447773e-18
 1.099968408847087e-01 -8.336638315456637e-04 -1.948959399501818e-18
 1.099550294433897e-01 -3.145075532203178e-03 -1.924466399474656e-18
 1.099968408847088e-01 -8.336638315405736e-04 -1.948959399501872e-18
 1.099999751713040e-01  7.390745882088710e-05 -1.958340143184279e-18
 1.099929186662188e-01  1.248135924707277e-03 -1.970279335182301e-18
 1.099473261698798e-01 -3.403743247371834e-03 -1.921671593726984e-18
 1.099967926431742e-01 -8.400048895661761e-04 -1.948893388918531e-18
 1.099999965156386e-01  2.768681010130968e-05 -1.957865622657222e-18
 1.099965204731339e-01 -8.749193125116150e-04 -1.948529812315656e-18
 1.099965204731339e-01 -8.749193125116150e-04 -1.948529812315656e-18
 1.099960133657293e-01  9.365060844770010e-04 -1.967132525649436e-18
 1.099985760054487e-01 -5.597113304852355e-04 -1.951805040474391e-18
 1.098962754472381e-01 -4.775839489004733e-03 -1.906665294782670e-18
 1.099993708949204e-01 -3.720251627173748e-04 -1.953747593673508e-18
 1.099928007658455e-01  1.258483088870544e-03 -1.970383550357470e-18
 1.099928007658455e-01  1.258483088870544e-03 -1.970383550357470e-18
 1.099980306430774e-01 -6.582208174881547e-04 -1.950783185907187e-18
 1.099997530411728e-01  2.330898559743396e-04 -1.959971731417961e-18
 1.099997530411728e-01  2.330898559743396e-04 -1.959971731417961e-18
 1.099961130635717e-01  9.247220695592539e-04 -1.967013223418981e-18
 1.099897698527808e-01  1.500175900442846e-03 -1.972812917482889e-18
 1.099897698527808e-01  1.500175900442846e-03 -1.972812917482889e-18
 1.099897698527808e-01  1.500175900442846e-03 -1.972812917482889e-18
 1.099762298453339e-01  2.286672037320490e-03 -1.980652918994098e-18
 1.099184337546985e-01 -4.235318277759261e-03 -1.912613287384942e-18
 1.099985406112781e-01 -5.666245573091150e-04 -1.951733379698668e-18
 1.097400637336970e-01  7.557672374751176e-03 -2.030607674991601e-18
 1.098150911647078e-01  6.375402143149919e-03 -2.019795480477703e-18
 1.099615253008786e-01 -2.909115587976588e-03 -1.927006403716628e-18
 1.099615253008786e-01 -2.909115587976588e-03 -1.927006403716628e-18
 1.089748262261410e-01  1.498289855075877e-02 -2.093280862322171e-18
 1.098971111268021e-01  4.756570821850518e-03 -2.004622219788959e-18
 1.091055508249877e-01 -1.399924209291332e-02 -1.797826295762841e-18
 1.091055508249877e-01 -1.399924209291332e-02 -1.797826295762841e-18
 1.074380607771734e-01  2.360218414554797e-02 -2.154492316383775e-18
 1.098662806456044e-01  5.422211458550946e-03 -2.010912770333982e-18
 1.098281611408705e-01 -6.146138658942936e-03 -1.891373793270611e-18
 1.076780041297144e-01  2.248215796228605e-02 -2.147254532397540e-18
 1.099991236329872e-01  4.390899392571858e-04 -1.962077106370298e-18
 1.099937767125797e-01 -1.170078844827999e-03 -1.945448326852196e-18
 1.097106907709451e-01 -7.972724161916614e-03 -1.870515765417353e-18
 8.141907625370781e-02 -7.396576249855656e-02 -6.889782421008511e-19
 8.713014669678647e-02  6.714415489524340e-02 -2.240466693065196e-18
 1.099324638572354e-01 -3.854009636418080e-03 -1.916780777566538e-18
 1.099748336383021e-01 -2.352863410345941e-03 -1.932958530510465e-18
 1.099924251553384e-01 -1.290894436913581e-03 -1.944182937959065e-18
 1.099862920974931e-01  1.736534089761885e-03 -1.975179521212200e-18
 1.098217116058637e-01 -6.260324269434428e-03 -1.890085800434452e-18
 1.099848635667880e-01  1.824770175939072e-03 -1.976060692536112e-18
 1.098429434074506e-01 -5.876034682297945e-03 -1.894412081576296e-18
 1.099386994128605e-01  3.671834883089546e-03 -1.994217065230489e-18
 1.092078565174393e-01 -1.317740774455890e-02 -1.808090996975059e-18
 1.098423576053211e-01  5.886975089527922e-03 -2.015262308768639e-18
 1.099363822483350e-01 -3.740569227797272e-03 -1.918016068999100e-18
 1.091700730281243e-01  1.348685119047338e-02 -2.081384168906625e-18
 1.094957727694688e-01 -1.052025406617219e-02 -1.840516098896240e-18
 1.098938176202116e-01  4.832064657643516e-03 -2.005339279648561e-18
 1.093348836954500e-01 -1.207821209047082e-02 -1.821645433170627e-18
 1.092598404118262e-01  1.273920221922250e-02 -2.075299864997928e-18
 1.043453189760830e-01 -3.481457177360451e-02 -1.499242340947188e-18
 1.089198004285962e-01  1.537781111194790e-02 -2.096359195723476e-18
 1.076027409539244e-01 -2.283966153870483e-02 -1.680249903157167e-18
 1.097522378026611e-01  7.378773428428980e-03 -2.028986205385989e-18
 1.069162263707932e-01 -2.586349819009936e-02 -1.636963734126525e-18
 5.623076053963286e-02  9.454153356665221e-02 -1.972073371440165e-18
 1.093723952653241e-01 -1.173367606190298e-02 -1.825852978835394e-18
 1.094811233352852e-01  1.067162748806566e-02 -2.057994279304921e-18
 1.098744056337578e-01 -5.254996349038879e-03 -1.901352932691682e-18
 1.091606162728230e-01  1.356318011889042e-02 -2.082000126676977e-18
 1.099989323092554e-01  4.846553660168253e-04 -1.962541869743609e-18
 1.099970637887695e-01  8.037150299387957e-04 -1.965786839334243e-18
 1.099933432784799e-01  1.210138183201919e-03 -1.969896478673510e-18
 1.099833152318032e-01  1.915821135123117e-03 -1.976968653597537e-18
 1.095692038968934e-01  9.725716292435989e-03 -2.049842884052464e-18
 1.099512878958688e-01 -3.273269014264554e-03 -1.923082672714292e-18
 1.098238154345307e-01  6.223308075460559e-03 -2.018388027971812e-18
 1.099761167224527e-01 -2.292106160158452e-03 -1.933605623197744e-18
 1.098397714754706e-01  5.935031778884651e-03 -2.015710050528618e-18
 1.095816652554432e-01 -9.584291306296263e-03 -1.851661335489607e-18
 1.091122611635186e-01  1.394684422312360e-02 -2.085081599123628e-18
 1.099037126567916e-01 -4.601515430088883e-03 -1.908588765176508e-18
 1.099143668055350e-01  4.339581746929156e-03 -2.000644893910734e-18
 1.096260626697722e-01 -9.062360814000544e-03 -1.857814086642640e-18
 1.083972673560196e-01  1.870915363525461e-02 -2.121288430642345e-18
 1.097245277980543e-01 -7.779974260495582e-03 -1.872742447036730e-18
 1.099607788498763e-01  2.937195044348851e-03 -1.987061837680105e-18
 1.099968695461221e-01  8.298735164780450e-04 -1.966052151501193e-18
 1.099279929867591e-01  3.979492166469969e-03 -1.997187598430558e-18
 1.096256999855928e-01 -9.066747083092710e-03 -1.857762564923526e-18
 1.099882783041143e-01  1.605813095182462e-03 -1.973871757396159e-18
 1.099230910292823e-01 -4.112670491064349e-03 -1.913956330595411e-18
 1.099907049299893e-01  1.429975176010401e-03 -1.972108271355588e-18
 1.095177977453077e-01  1.028843899811010e-02 -2.054709821645234e-18
 1.099921775380414e-01 -1.311823326500746e-03 -1.943963494576256e-18
 1.095151088938128e-01 -1.031702108053946e-02 -1.842948353392542e-18
 1.098743397028991e-01 -5.256374687168328e-03 -1.901337597449836e-18
 1.099655761443192e-01 -2.751738222995785e-03 -1.928695488562152e-18
 5.918881554644660e-02  9.271830517329728e-02 -2.005982479367233e-18
 1.094651725575719e-01 -1.083402034985119e-02 -1.836747697041807e-18
 1.098688461404217e-01  5.369976515061198e-03 -2.010421731305593e-18
 1.097071859743487e-01 -8.020807041042608e-03 -1.869959359265362e-18
 1.073524326796990e-01  2.398864726804484e-02 -2.156939230440964e-18
 1.051852585326596e-01 -3.218790747186773e-02 -1.541178088780860e-18
 1.099608688712175e-01  2.933822947432429e-03 -1.987028792646421e-18
 1.096102724969461e-01 -9.251387093035138e-03 -1.855590905332768e-18
 1.099957068759555e-01 -9.718378768262256e-04 -1.947519530342787e-18
 1.097999194149794e-01  6.631568175326770e-03 -2.022157494016582e-18
 1.097430803550078e-01  7.513741690680676e-03 -2.030209987546120e-18
 1.099828318874560e-01 -1.943370786946653e-03 -1.937308256843268e-18
 1.098054716736739e-01 -6.538990023082309e-03 -1.886933602082019e-18
 1.099978240717170e-01 -6.918811224222111e-04 -1.950433662318052e-18
 1.099991020314156e-01  4.444685390433687e-04 -1.962131985103473e-18
 1.091982966718393e-01  1.325639483302023e-02 -2.079518586958297e-18
 1.095839826293218e-01 -9.557758685825623e-03 -1.851975188958831e-18
 1.093459727477688e-01  1.197740555563553e-02 -2.069005508679011e-18
 1.089312990324984e-01 -1.529614628239332e-02 -1.781400057841779e-18
 1.092666529804245e-01  1.268063667389925e-02 -2.074819363079456e-18
 1.096994626961717e-01 -8.125754375514750e-03 -1.868743618580211e-18
 1.062366479500395e-01  2.852673539575365e-02 -2.183709717174868e-18
 1.092596620446398e-01 -1.274073192132510e-02 -1.813499623579333e-18
 1.099127738257529e-01  4.379743135031498e-03 -2.001029188608603e-18
 1.098320250303674e-01 -6.076699575322797e-03 -1.892156017152182e-18
 1.099996035922062e-01  2.953126435808465e-04 -1.960608388334227e-18
 1.099873561870239e-01 -1.667776660317225e-03 -1.940220401686500e-18
 1.098139437180222e-01  6.395136049766518e-03 -2.019977819016930e-18
 1.099862795737777e-01 -1.737327119104879e-03 -1.939486636371206e-18
 1.098912793815078e-01 -4.889449447061065e-03 -1.905409082785701e-18
 1.091500295179747e-01  1.364811548255673e-02 -2.082684402753195e-18
 1.099862857500365e-01 -1.736936070003051e-03 -1.939490764172563e-18
 1.099079909192164e-01 -4.498169861333254e-03 -1.909726740136124e-18
 1.099958109660728e-01 -9.599843310901541e-04 -1.947643173626971e-18
 1.096153090495088e-01  9.191519024657389e-03 -2.045174697371657e-18
 1.097139459917236e-01  7.927802654273883e-03 -2.033945832783150e-18
 1.041143809963166e-01 -3.549923477701723e-02 -1.488097860482901e-18
 1.099692626214504e-01  2.600245852691688e-03 -1.983750785974814e-18
 1.092613420744657e-01 -1.272631635967613e-02 -1.813677636373278e-18
 1.049675249523101e-01  3.289101253209017e-02 -2.205965521724180e-18
 1.098398324448500e-01 -5.933903309562845e-03 -1.893762139162801e-18
 1.064428250043544e-01  2.774752250368214e-02 -2.179372754393050e-18
 1.042081781875328e-01 -3.522294137114845e-02 -1.492605907761732e-18
 1.099999867054090e-01  5.408151091205175e-05 -1.958136644034872e-18
 1.099996370844938e-01 -2.825619925363628e-04 -1.954671532408683e-18
 1.092494825696650e-01  1.282772615315872e-02 -2.076025086104365e-18
 1.098831858733139e-01 -5.068082707563756e-03 -1.903429657293802e-18
 1.099990604865979e-01 -4.546339909565495e-04 -1.952893293886411e-18
 1.097195821451662e-01 -7.849413601671055e-03 -1.871940969238948e-18
 1.099834684086343e-01  1.907007290731413e-03 -1.976880820512657e-18
 1.099739889330513e-01 -2.392019680745109e-03 -1.932541181518929e-18
 1.099420919657062e-01  3.568811315293986e-03 -1.993218910021583e-18
 1.099200056172643e-01 -4.194325345098823e-03 -1.913062448045811e-18
 1.098298858763570e-01  6.115240664631971e-03 -2.017385705336735e-18
 1.098960632734786e-01 -4.780719296458518e-03 -1.906611380648638e-18
 1.098925515987075e-01  4.860771865184638e-03 -2.005611705414709e-18
 1.099361681439902e-01 -3.746856524644844e-03 -1.917947659065779e-18
 1.097322235289428e-01  7.670666163646545e-03 -2.031629119329347e-18
 1.099452240503072e-01 -3.470980917223734e-03 -1.920943341369487e-18
 1.097947748998168e-01  6.716204634949935e-03 -2.022935550109284e-18
 1.098229325285414e-01 -6.238869355212408e-03 -1.890327969659545e-18
 1.099696534729059e-01  2.583663106706175e-03 -1.983587359951726e-18
 1.096871256895248e-01 -8.290624703262547e-03 -1.866830084105889e-18
 1.095587114548727e-01  9.843208031324205e-03 -2.050863343466549e-18
 1.094266538334588e-01 -1.121639116705266e-02 -1.832133489157072e-18
 1.052664134640791e-01  3.192150053505496e-02 -2.201323215744713e-18
 1.091348949996875e-01 -1.376861261736848e-02 -1.800718144434743e-18
 1.099888150732619e-01  1.568616836498393e-03 -1.973499131797783e-18
 1.099593703638396e-01  2.989459681600970e-03 -1.987573772152493e-18
 1.096711890336497e-01  8.498840858930979e-03 -2.039052131822859e-18
 1.096711890336497e-01  8.498840858930979e-03 -2.039052131822859e-18
 1.098016199644519e-01 -6.603351662757721e-03 -1.886203763855010e-18
 1.078487403610887e-01 -2.164830715151741e-02 -1.696868489589694e-18
 1.018689406737067e-01 -4.150564932652907e-02 -1.386423843946516e-18
 9.849420357519750e-02 -4.897848366464107e-02 -1.249585713589613e-18
 7.025954331001250e-02  8.463803266775786e-02 -2.119977420899796e-18
 1.082946384258194e-01 -1.929433305976119e-02 -1.728990006199279e-18
 1.082946384258194e-01 -1.929433305976119e-02 -1.728990006199279e-18
 9.272597005251511e-02  5.917680692484207e-02 -2.258189438534205e-18
 1.069931271147068e-01  2.554350700699007e-02 -2.166520578298263e-18
 1.042635948534659e-01 -3.505856226704504e-02 -1.495281049015832e-18
 8.879936481998579e-02 -6.492051145490943e-02 -9.132559492567371e-19
 1.096359404241737e-01  8.942067283743539e-03 -2.042978831274618e-18
 1.082511473598498e-01 -1.953686503193511e-02 -1.725724102893180e-18
 1.099913194607941e-01  1.381898430965824e-03 -1.971625236573875e-18
 1.098187045925146e-01 -6.312853682920217e-03 -1.889492566403880e-18
 1.099740158487693e-01  2.390781900261495e-03 -1.981683209305860e-18
 1.096626584842509e-01 -8.608213180825110e-03 -1.863131554766368e-18
 1.099985406212205e-01  5.666226272173972e-04 -1.963377083020275e-18
 1.096883517176362e-01  8.274388041908930e-03 -2.037051391099188e-18
 1.086171967411061e-01 -1.738690806623820e-02 -1.754328415076715e-18
 1.095674501932140e-01 -9.745453204316848e-03 -1.849752481544251e-18
 1.096358392998206e-01  8.943307051861662e-03 -2.042989769813171e-18
 1.097283451240627e-01 -7.725948248244401e-03 -1.873365478556294e-18
 1.097283451240627e-01 -7.725948248244401e-03 -1.873365478556294e-18
 1.088479290651340e-01 -1.587854962619434e-02 -1.773932407038178e-18
 1.054526211795758e-01  3.130087357178453e-02 -2.198260287567029e-18
 1.094601927964221e-01  1.088421760946000e-02 -2.059806081668408e-18
 1.099234074602497e-01  4.104204225898542e-03 -1.998387364622808e-18
 1.098054227895600e-01  6.539810853987162e-03 -2.021312659987958e-18
 1.099587530707081e-01  3.012079536631507e-03 -1.987795197478176e-18
 1.099274973199193e-01  3.993160775512651e-03 -1.997319217440389e-18
 1.099888144265860e-01  1.568662179685643e-03 -1.973499586174190e-18
 1.099864720557910e-01  1.725098466949831e-03 -1.975065226914615e-18
 1.099864720557910e-01  1.725098466949831e-03 -1.975065226914615e-18
-1.098208240866068e-01 -6.275874197155963e-03  2.018874891171946e-18
-1.093069497513211e-01  1.232845229792170e-02  1.818577188087602e-18
-1.076818298318523e-01  2.246382701286586e-02  1.685518947303567e-18
-1.099439742214616e-01  3.510346477277450e-03  1.920516632345164e-18
-1.074538944128462e-01  2.352999310481969e-02  1.670508095344009e-18
 3.428826282072867e-02 -1.045194481076924e-01  4.636988229607979e-19
-1.027132332167121e-01  3.936993424136347e-02  1.423392733513679e-18
-1.087451928212464e-01  1.656752963691007e-02  1.765025073706628e-18
-1.087451928212464e-01  1.656752963691007e-02  1.765025073706628e-18
-1.097053697412490e-01  8.045610600558105e-03  1.869672189667275e-18
-1.097053697412490e-01  8.045610600558105e-03  1.869672189667275e-18
-1.099663955642176e-01  2.718795066566196e-03  1.929048550081689e-18
-1.099663955642176e-01  2.718795066566196e-03  1.929048550081689e-18
-4.129816989269192e-02  1.019532302750350e-01 -3.125822088984739e-19
-1.099683518004183e-01 -2.638484849187315e-03  1.984127468625939e-18
-1.099984621453790e-01  5.816576756066708e-04  1.951577523474989e-18
-1.099984621453790e-01  5.816576756066708e-04  1.951577523474989e-18
-1.091064573981659e-01  1.399217474241116e-02  1.797915043772991e-18
-1.095276730742007e-01  1.018277128049994e-02  1.844551315895930e-18
 2.099073144577682e-02 -1.079786515630346e-01  7.358863145214762e-19
-1.068894305089816e-01  2.597401866222397e-02  1.635351312100177e-18
-1.099998113209316e-01 -2.037384583656130e-04  1.959671193627883e-18
-1.098365290110619e-01  5.994738926935797e-03  1.893078286749398e-18
-1.080802587057238e-01 -2.046112602238170e-02  2.133647763404922e-18
-1.091967382024878e-01  1.326922627500623e-02  1.806949731252793e-18
-1.099501502005134e-01 -3.311264242628224e-03  1.990716113310043e-18
-1.097682338617887e-01  7.136864498058314e-03  1.880127967760995e-18
-1.098656493372978e-01 -5.434988104298572e-03  2.011032810843279e-18
-1.099315237827072e-01  3.880731736676247e-03  1.916489487946172e-18
-1.099693586296063e-01 -2.596182311203898e-03  1.983710743141852e-18
-1.099798178612625e-01  2.107050830780013e-03  1.935572865661792e-18
-1.099755970620339e-01 -2.316905446737056e-03  1.980952295159286e-18
-1.099594941110289e-01 -2.984904495385536e-03  1.987529171497742e-18
-1.099119872572824e-01 -4.399438277208507e-03  2.001217551115603e-18
-1.099598330757508e-01  2.972391285309565e-03  1.926326153748078e-18
-1.099730541249786e-01  2.434618332406194e-03  1.932086859823253e-18
-1.099146893036101e-01 -4.331405694554353e-03  2.000566627180646e-18
-1.099888637984853e-01 -1.565196574942538e-03  1.973464856976250e-18
-1.099992567751511e-01 -4.043623552475808e-04  1.961722662483763e-18
-1.098702892231386e-01  5.340369465106689e-03  1.900402498500499e-18
-1.099930669083181e-01  1.235002875389729e-03  1.944768624209699e-18
-1.095196746593773e-01 -1.026844012029681e-02  2.054537742365455e-18
-1.099833556931914e-01 -1.913496920540153e-03  1.976945493195686e-18
-1.099865522988408e-01  1.719974829563174e-03  1.939669778310471e-18
-1.098632564830615e-01  5.483144621201898e-03  1.898810379639129e-18
-1.099350422508640e-01 -3.779746724414062e-03  1.995260736638660e-18
-1.099800746538231e-01  2.093604341667960e-03  1.935715593382622e-18
-1.093595959213441e-01 -1.185237444229218e-02  2.067963300033723e-18
-1.099379646139254e-01  3.693769964039839e-03  1.918525074516568e-18
-1.098682977029911e-01 -5.381185728711826e-03  2.010527141805588e-18
-1.099998339686849e-01  1.911200191442438e-04  1.955614569256062e-18
-1.099509463951800e-01  3.284720201813627e-03  1.922958938510001e-18
-1.099131808756556e-01 -4.369515968089205e-03  2.000931352122073e-18
-1.085648814035526e-01 -1.771063312907012e-02  2.114011887088404e-18
-1.090080336934092e-01  1.473935515199097e-02  1.788486469263671e-18
-1.058641453332605e-01  2.987947008998423e-02  1.576978044712522e-18
-1.084547432864831e-01 -1.837304162796708e-02  2.118857854609727e-18
-1.099616635033873e-01 -2.903886975726382e-03  1.986735352839357e-18
-1.091867122607376e-01 -1.335147428903872e-02  2.080289335415295e-18
-1.089009694988528e-01  1.551060418584300e-02  1.778656830560664e-18
-9.174999757365588e-03 -1.096166929780876e-01  1.289551764754088e-18
-9.209951392853209e-02  6.014714901080582e-02  1.021030604290585e-18
-1.099831069411548e-01 -1.927741572532894e-03  1.977087424981023e-18
-1.096197599644983e-01  9.138283499965254e-03  1.856921844466408e-18
-1.096197599644983e-01  9.138283499965254e-03  1.856921844466408e-18
-1.096197599644983e-01  9.138283499965254e-03  1.856921844466408e-18
-1.096197599644983e-01  9.138283499965254e-03  1.856921844466408e-18
-1.099599683850827e-01  2.967381463778635e-03  1.926380035835348e-18
-1.094874857214296e-01  1.060615247861926e-02  1.839486046007779e-18
-1.088019235136484e-01 -1.619078255459452e-02  2.102614421657193e-18
-1.071386476463683e-01 -2.492609436930112e-02  2.162766599178476e-18
-1.095543918267672e-01  9.891169368034001e-03  1.848022911689073e-18
-1.099824322910088e-01 -1.965855374542523e-03  1.977467024246918e-18
-1.092393079968610e-01  1.291408488306083e-02  1.811356260312268e-18
-1.092192015440599e-01  1.308304299763571e-02  1.809262458751229e-18
-1.050603334401309e-01 -3.259334805521653e-02  2.204558765104048e-18
-1.092165698892588e-01  1.310499376667590e-02  1.808990089137090e-18
-1.099360561679271e-01 -3.750140563008955e-03  1.994974587948879e-18
-1.073704603319154e-01  2.390782817640596e-02  1.665141168246213e-18
-1.095876391426570e-01 -9.515742069789239e-03  2.048013552381127e-18
-1.099989080006481e-01  4.901414743800766e-04  1.952525753723719e-18
-1.097171899489414e-01 -7.882780582247983e-03  2.033540977436539e-18
-1.098766149300168e-01  5.208597845944588e-03  1.901868977517997e-18
-1.099179989306957e-01 -4.246588168345302e-03  1.999754056672488e-18
-1.098581618769809e-01  5.584287690568152e-03  1.897680506751508e-18
-1.099934145118909e-01 -1.203646133760596e-03  1.969831042907395e-18
-1.098363645706820e-01  5.997751069876164e-03  1.893044411662199e-18
-1.075798023841594e-01 -2.294746432582858e-02  2.150287769048995e-18
-1.092333399168143e-01  1.296446877498902e-02  1.810732375022321e-18
-1.099929823462027e-01  1.242511403533218e-03  1.944689971926946e-18
-1.092979050393162e-01  1.240838240934653e-02  1.817594973789989e-18
-1.091921107341520e-01 -1.330725191091872e-02  2.079931038818780e-18
-1.099989782200461e-01 -4.741208134994424e-04  1.962434448080678e-18
-1.099989782200461e-01 -4.741208134994424e-04  1.962434448080678e-18
-1.099989782200461e-01 -4.741208134994424e-04  1.962434448080678e-18
-1.092382266659884e-01  1.292322850026644e-02  1.811243069394359e-18
-1.099967380755284e-01  8.471202651168718e-04  1.948819309923212e-18
-1.099967380755284e-01  8.471202651168718e-04  1.948819309923212e-18
-1.099487102001581e-01  3.358738650389242e-03  1.922158630081830e-18
-1.099752846632579e-01 -2.331686779001655e-03  1.981098608469806e-18
-1.031887414640267e-01 -3.810621517640157e-02  2.227894260376549e-18
-1.093864348099728e-01  1.160206359073885e-02  1.827455099609550e-18
-1.099964360607368e-01 -8.854682016879853e-04  1.966615652306252e-18
-1.095153872955771e-01  1.031406542056618e-02  1.842983676216546e-18
-1.083919074624020e-01 -1.874018134015934e-02  2.121511843338322e-18
-1.099832460390452e-01  1.919789237081858e-03  1.937557919023173e-18
-1.099630749507940e-01 -2.849938133720605e-03  1.986206166476060e-18
-1.099630749507940e-01 -2.849938133720605e-03  1.986206166476060e-18
-1.092063396782384e-01  1.318997248219942e-02  1.807934904897282e-18
-1.099709639468324e-01  2.527269001205929e-03  1.931097710645309e-18
-1.098465883882655e-01 -5.807496832451936e-03  2.014520990378520e-18
-1.099861984781335e-01 -1.742453536995308e-03  1.975238675313981e-18
-1.099861984781335e-01 -1.742453536995308e-03  1.975238675313981e-18
-1.095219218691335e-01  1.024444386442670e-02  1.843815302945513e-18
-1.074987436017428e-01 -2.332423898108402e-02  2.152716454036754e-18
-1.098872090831074e-01 -4.980088345141584e-03  2.006742562464108e-18
-1.034683817177902e-01  3.734024617891042e-02  1.457685809378101e-18
-1.099682471210545e-01 -2.642844135142976e-03  1.984170395811383e-18
-1.099682471210545e-01 -2.642844135142976e-03  1.984170395811383e-18
-1.098614100284291e-01 -5.520016899009259e-03  2.011831007262249e-18
-1.099848002402966e-01 -1.828583085893486e-03  1.976098741830318e-18
-1.071544738368123e-01  2.485797129203970e-02  1.651535055574559e-18
-1.096147725241544e-01 -9.197915224541912e-03  2.045230867893241e-18
-1.098762720501840e-01 -5.215825951267555e-03  2.008970043183277e-18
-1.099163056147012e-01 -4.290193470644467e-03  2.000171950735068e-18
-1.078942375779997e-01  2.142039909670517e-02  1.700019839306378e-18
-1.098482060364525e-01  5.776818378056720e-03  1.895525147820504e-18
-1.094049456464084e-01 -1.142619219628214e-02  2.064391484728438e-18
-1.099871342159913e-01 -1.682351614105762e-03  1.974637802460971e-18
-1.099871342159913e-01 -1.682351614105762e-03  1.974637802460971e-18
-1.099751684195305e-01 -2.337163044347894e-03  1.981152806411079e-18
-1.097081837044793e-01  8.007148572630903e-03  1.870117450864371e-18
-1.099800145188971e-01 -2.096760936095286e-03  1.978769004198870e-18
-7.400156225756155e-02  8.138653932586278e-02  4.807289464641731e-19
-1.092779119295344e-01  1.258324140755808e-02  1.815442559867434e-18
-1.095362817477670e-01 -1.008974632355802e-02  2.052997271465865e-18
-1.095362817477670e-01 -1.008974632355802e-02  2.052997271465865e-18
-1.087829197844496e-01 -1.631797668738227e-02  2.103583101136032e-18
-1.099852955778171e-01 -1.798542926971691e-03  1.975798905232167e-18
-1.098344852256332e-01  6.032068900479271e-03  1.892658363232533e-18
-1.098424118856701e-01 -5.885962210102545e-03  2.015252867784052e-18
-1.082028727737450e-01  1.980248276122752e-02  1.722135873372291e-18
-1.052253242562221e-01 -3.205668627872933e-02  2.201980968685052e-18
-1.097302325932727e-01  7.699094428973221e-03  1.873674981560125e-18
-1.099574783082943e-01 -3.058261610938873e-03  1.988247015597310e-18
-1.099084524467314e-01  4.486878732988650e-03  1.909850965810779e-18
-1.099998820281295e-01  1.611018235210537e-04  1.955923850586483e-18
-1.099806990378896e-01  2.060543408212828e-03  1.936066394123034e-18
-1.099806990378896e-01  2.060543408212828e-03  1.936066394123034e-18
-1.099972356136355e-01  7.798444449538862e-04  1.949519398820104e-18
-1.099923711907365e-01  1.295484403305143e-03  1.944134817357334e-18
-1.099998276663350e-01  1.947135757296192e-04  1.955577534609749e-18
-1.099185362945166e-01  4.232656242951301e-03  1.912642463643930e-18
-1.099972731014996e-01 -7.745387234279900e-04  1.965490788353473e-18
-1.097368495651126e-01 -7.604199334828280e-03  2.031028522640518e-18
-1.093764134639238e-01  1.169616081322288e-02  1.826309943024525e-18
-1.093764134639238e-01  1.169616081322288e-02  1.826309943024525e-18
-1.096771004047275e-01 -8.422211515469118e-03  2.038369993055708e-18
-1.098702463388292e-01 -5.341251673996429e-03  2.010151512199445e-18
-1.099313938076328e-01  3.884411861674032e-03  1.916449362937215e-18
-1.099838926198674e-01 -1.882382581056496e-03  1.976635359911109e-18
-1.099844159402478e-01  1.851553478172044e-03  1.938279836445278e-18
-1.099084685524309e-01 -4.486484198041911e-03  2.002049296780774e-18
-1.099995239572855e-01  3.236188661733926e-04  1.954247674713236e-18
-1.099819657630767e-01 -1.991784850175528e-03  1.977725137768561e-18
-1.099299440739913e-01 -3.925225584488020e-03  1.996664750938829e-18
-1.074368941985654e-01 -2.360749383069366e-02  2.154526110811914e-18
-1.097906622026595e-01  6.783103500720581e-03  1.884161872576663e-18
-1.099997326981513e-01  2.425001757240355e-04  1.955084854582203e-18
-1.099789621635910e-01  2.151251128856139e-03  1.935103495494986e-18
-1.099345425465876e-01  3.794252900437506e-03  1.917431749077398e-18
-1.099289546794570e-01 -3.952837345738565e-03  1.996930844299183e-18
-1.099289546794570e-01 -3.952837345738565e-03  1.996930844299183e-18
-1.099999355303000e-01  1.190937857655717e-04  1.956356420049042e-18
-1.099911994928897e-01  1.391414429746299e-03  1.943128319423454e-18
-1.098674462213759e-01 -5.398542469318155e-03  2.010690322879085e-18
-1.085802467541122e-01  1.761618615978114e-02  1.751315096861649e-18
-1.098674462213766e-01 -5.398542469304751e-03  2.010690322878959e-18
-1.099935471984667e-01  1.191459062924009e-03  1.945224568400668e-18
-1.079153177054289e-01 -2.131394389915495e-02  2.139474835435393e-18
-1.099997258331088e-01  2.455944642056558e-04  1.955052939720502e-18
-1.099997258331088e-01  2.455944642056558e-04  1.955052939720502e-18
-1.099526273599304e-01  3.227961686305568e-03  1.923572026410958e-18
-1.094112688022079e-01 -1.136548543138290e-02  2.063880272872117e-18
-1.098408009671250e-01  5.915948182701540e-03  1.893963857577893e-18
-1.096526942593326e-01 -8.734222442168925e-03  2.041141455512884e-18
-1.098062197400759e-01  6.526416045130836e-03  1.887076107871653e-18
-1.099875655906331e-01  1.653909140837040e-03  1.940366611998497e-18
-1.076275539283611e-01  2.272244783023365e-02  1.681895807909402e-18
-1.092209564566818e-01 -1.306838439469770e-02  2.077990105904198e-18
-1.097609147749816e-01  7.248557633017118e-03  1.878850109493967e-18
-3.549214893196184e-02 -1.041167967438079e-01  1.701387390695900e-18
-8.216966418254372e-02  7.313102138031406e-02  7.109125113805103e-19
-3.795210871249665e-02 -1.032455202140741e-01  1.736213259503627e-18
-1.099910954686000e-01 -1.399613381361800e-03  1.971803265045577e-18
-1.099608199836899e-01 -2.935654699467176e-03  1.987046743221286e-18
-1.094186446266126e-01 -1.129425553434222e-02  2.063279673149296e-18
-1.099048821796248e-01 -4.573496811276971e-03  2.002879495990502e-18
-1.099048821796248e-01 -4.573496811276971e-03  2.002879495990502e-18
-1.099964576227895e-01 -8.827856126090498e-04  1.966588473400422e-18
-1.074742686873297e-01 -2.343675681752120e-02  2.153436973634913e-18
-1.099784621062336e-01 -2.176665511212659e-03  1.979562367646018e-18
-1.098860161445622e-01 -5.006341566151322e-03  2.006991075008539e-18
-1.098860161445622e-01 -5.006341566151322e-03  2.006991075008539e-18
-1.098860161445622e-01 -5.006341566151322e-03  2.006991075008539e-18
-1.099732032054181e-01  2.427874943191434e-03  1.932158798762004e-18
 1.942563000662645e-02  1.082711637456881e-01 -1.458149133363490e-18
-9.401223366981032e-02 -5.711129415809920e-02  2.259857640578271e-18
-1.072258099296939e-01 -2.454843548825731e-02  2.160437448171150e-18
-9.913189785253572e-02 -4.767459310947908e-02  2.254009496475776e-18
-1.399563514431390e-02  1.091060135689469e-01 -8.719556323312424e-19
-9.063133578040458e-02 -6.233747648613568e-02  2.253387654653103e-18
-9.165414129629787e-02 -6.082366630875050e-02  2.256035849206378e-18
-3.810034186468245e-02 -1.031909102091569e-01  1.738290147303408e-18
-1.055904549228043e-01  3.083270713374337e-02  1.562313233047884e-18
-1.088091272411674e-01 -1.614229937200424e-02  2.102244473492751e-18
-1.074205687837059e-01  2.368166806171137e-02  1.668356620938326e-18
-8.875792937462353e-02 -6.497714962299678e-02  2.247169835545562e-18
-1.042703546262943e-01  3.503845239314658e-02  1.495607968885624e-18
-1.041873527163968e-01 -3.528449424250094e-02  2.216673581253895e-18
-1.099777569231076e-01 -2.212008626076336e-03  1.979912955737196e-18
-1.099777569231076e-01 -2.212008626076336e-03  1.979912955737196e-18
-1.097308655769874e-01  7.690067602113591e-03  1.873778993627175e-18
-1.099250989511278e-01  4.058647630028439e-03  1.914547129231968e-18
-1.099250989511278e-01  4.058647630028439e-03  1.914547129231968e-18
-9.974223302090068e-02 -4.638412392192306e-02  2.251612036719435e-18
-1.099995804958040e-01  3.037939220940578e-04  1.954452374982195e-18
-1.099995804958040e-01  3.037939220940578e-04  1.954452374982195e-18
-1.046064495724183e-01 -3.402191511148464e-02  2.211159367811370e-18
-1.098447289993748e-01  5.842560316666829e-03  1.894787795261095e-18
-1.098447289993748e-01  5.842560316666829e-03  1.894787795261095e-18
-1.099962296397530e-01 -9.107497124270549e-04  1.966871737137410e-18
-1.097895648083347e-01 -6.800842535777372e-03  2.023712454001007e-18
-1.097367078779682e-01  7.606243757955052e-03  1.874744223889997e-18
-1.026850370610678e-01  3.944341724251468e-02  1.422135938147844e-18
-1.026850370610678e-01  3.944341724251468e-02  1.422135938147844e-18
-1.009694170940953e-01 -4.364833114425565e-02  2.245341964184933e-18
-1.098990041011222e-01 -4.712631704418761e-03  2.004204449055222e-18
-9.358977574021074e-02  5.780098508587054e-02  1.071657572912403e-18
-1.099989815094347e-01 -4.733570396682527e-04  1.962426659120615e-18
-1.098476157212392e-01  5.788032511910188e-03  1.895399421305560e-18
-1.096900634530701e-01 -8.251665265957392e-03  2.036848385204699e-18
-1.052507664113895e-01  3.197305380809110e-02  1.544551422968589e-18
-1.077741146910726e-01 -2.201681635830898e-02  2.144183718546187e-18
-1.099190056203882e-01 -4.220450618716091e-03  1.999503418088974e-18
-1.099934003419666e-01 -1.204940335380421e-03  1.969844088188187e-18
-1.093052131578401e-01  1.234383961816993e-02  1.818388184209349e-18
-1.056321621261008e-01 -3.068951489621697e-02  2.195173944572324e-18
-1.097562815322703e-01  7.318378523211096e-03  1.878050271130377e-18
-1.095445595248621e-01 -9.999473911357363e-03  2.052217068141388e-18
-1.098720572359556e-01  5.303870166101992e-03  1.900808979435660e-18
-1.096222858118641e-01 -9.107933540708336e-03  2.044440046696596e-18
-1.098781265123756e-01  5.176612225225225e-03  1.902224518562582e-18
-1.094035016507043e-01 -1.144000990228112e-02  2.064507759011986e-18
-1.097918881121090e-01  6.763231829392914e-03  1.884387863301716e-18
-1.099184074212419e-01 -4.236001649886972e-03  1.999652553617642e-18
-1.099140121550865e-01  4.348555159067809e-03  1.911371131925852e-18
-1.099186887445457e-01 -4.228695387426077e-03  1.999582490908780e-18
-1.081334183072721e-01  2.017830134536773e-02  1.717038448865237e-18
-1.091964214962816e-01 -1.327183229273119e-02  2.079643830262999e-18
-1.084823390917096e-01  1.820939606882383e-02  1.743477696901512e-18
-1.081827212092450e-01 -1.991227841716609e-02  2.129831996113850e-18
-1.098033522597768e-01  6.574483440949494e-03  1.886531202608754e-18
-1.094556732236321e-01 -1.092957451877376e-02  2.060191676245798e-18
-1.070292539840988e-01 -2.539170714243571e-02  2.165603810569043e-18
-9.666601803553383e-02  5.249458026457413e-02  1.180924355905812e-18
-1.095006556385801e-01 -1.046930822552552e-02  2.056263123015240e-18
-1.095006556385801e-01 -1.046930822552552e-02  2.056263123015240e-18
-9.228318264569818e-02  5.986496638920522e-02  1.027198532128590e-18
-1.098363082221447e-01 -5.998782887386007e-03  2.016303437285461e-18
-1.098363082221447e-01 -5.998782887386007e-03  2.016303437285461e-18
-1.078149606705033e-01 -2.181591748283300e-02  2.142846458508315e-18
-1.097638567267528e-01  7.203870936437371e-03  1.879361604608977e-18
 2.958103023623599e-02 -1.059479242371594e-01  5.621467150978149e-19
-1.085159859304498e-01  1.800779824249450e-02  1.746147826963097e-18
-1.099934600132866e-01  1.199480848313077e-03  1.945140595905603e-18
-2.019733771923125e-02  1.081298642792789e-01 -7.515593580077979e-19
-1.086853916415959e-01  1.695540160871737e-02  1.759975596773806e-18
-1.054640178335906e-01 -3.126245259726162e-02  2.198068343063664e-18
-1.099743017060065e-01 -2.377596323226153e-03  1.981552819462284e-18
-1.032668374802872e-01  3.789406651205332e-02  1.448408786525134e-18
-1.099625870622120e-01 -2.868701201835480e-03  1.986390267625562e-18
-1.099625870622120e-01 -2.868701201835480e-03  1.986390267625562e-18
-1.070379683176717e-01  2.535494702075059e-02  1.644355455813221e-18
-1.070379683176717e-01  2.535494702075059e-02  1.644355455813221e-18
-7.284423306387972e-02 -8.242401172798580e-02  2.143226797333823e-18
-1.017773074960045e-01  4.172984158685149e-02  1.382489628213127e-18
-9.097730141817884e-02 -6.183146954962181e-02  2.254345488405234e-18
-2.403377466123417e-02  1.073423386904393e-01 -6.751938470174484e-19
-2.403377466123417e-02  1.073423386904393e-01 -6.751938470174484e-19
-7.632531252531426e-02 -7.921140491061293e-02  2.172168390731740e-18
-9.629686134156057e-02  5.316873607454130e-02  1.167428066144653e-18
-1.727921309131220e-02 -1.086343812747373e-01  1.423683012181123e-18
-1.091910417270816e-01  1.331602067265859e-02  1.806367560241131e-18
-1.045392444037869e-01 -3.422785969769748e-02  2.212079377479898e-18
-1.032379525476967e-01  3.797268957763581e-02  1.447086921257145e-18
-1.032379525476967e-01  3.797268957763581e-02  1.447086921257145e-18
-1.098171197009852e-01 -6.340364388539455e-03  2.019471580500078e-18
-1.099873483303975e-01  1.668294712499857e-03  1.940214939070480e-18
-1.091745430851628e-01  1.345061865290568e-02  1.804691001876455e-18
-1.085195612329649e-01 -1.798624001298627e-02  2.116037121205068e-18
-1.099653737338871e-01 -2.759815132665564e-03  1.985321094966562e-18
-1.089171875642310e-01 -1.539630647584321e-02  2.096502729830547e-18
-1.099909540531971e-01 -1.410682979079062e-03  1.971914484485071e-18
-1.099247585536405e-01 -4.067856551528345e-03  1.998037949791256e-18
-1.099905688868132e-01  1.440401317397489e-03  1.942613774561031e-18
-1.099569432124992e-01 -3.077440391493139e-03  1.988434547932442e-18
-1.099988203199796e-01 -5.094391159011785e-04  1.962794520787693e-18
-1.099988203199796e-01 -5.094391159011785e-04  1.962794520787693e-18
-1.099874847471357e-01  1.659276649192335e-03  1.940310024093539e-18
-1.098946709938574e-01  4.812617494855572e-03  1.906258860971181e-18
-1.099192358889670e-01 -4.214449143789413e-03  1.999445853018300e-18
-1.099105112814667e-01  4.436159357659249e-03  1.910408728387369e-18
-1.099921180663729e-01  1.316800392253964e-03  1.943911298664387e-18
-1.095726359485296e-01  9.686973278117201e-03  1.850445628243500e-18
-1.099972335278736e-01  7.801385866704956e-04  1.949516339502197e-18
-1.096341498688565e-01  8.963993670962943e-03  1.858968694657844e-18
-1.099270134890605e-01  4.006457958828873e-03  1.915117430630785e-18
-1.075515709212396e-01  2.307941923822057e-02  1.676875848122314e-18
-1.099678415647458e-01  2.659665691574148e-03  1.929681816233970e-18
-1.057781198980768e-01  3.018260013365402e-02  1.572332568398355e-18
-9.968555881897972e-02 -4.650579923996253e-02  2.251853621384504e-18
-1.056529599314872e-01 -3.061783888055316e-02  2.194807621304600e-18
-1.079004768882829e-01 -2.138894778340210e-02  2.139981363055383e-18
-1.085376340840904e-01 -1.787685619531754e-02  2.115234870158394e-18
-1.092373179293037e-01 -1.293090760976139e-02  2.076868753802345e-18
-1.088041140199500e-01 -1.617605552456142e-02  2.102502089446080e-18
-1.082071074565836e-01 -1.977933001593661e-02  2.128899981947935e-18
-3.696396633644856e-02  1.036034033836624e-01 -4.066694604373543e-19
-1.099613655067799e-01  2.915149375988684e-03  1.926941565010111e-18
-1.071660721146472e-01 -2.480792187020523e-02  2.162040470805073e-18
-1.091500299850140e-01 -1.364811174743626e-02  2.082684372687709e-18
-1.093573460595811e-01  1.187311512641015e-02  1.824152474534273e-18
-1.099990254945362e-01 -4.630229501057948e-04  1.962321262871789e-18
-1.088998526781846e-01 -1.551844343578438e-02  2.097449147750078e-18
-1.089741103446490e-01 -1.498810443625972e-02  2.093321610939458e-18
-1.082846030937378e-01 -1.935057448324550e-02  2.125873801907473e-18
-1.082846030937378e-01 -1.935057448324550e-02  2.125873801907473e-18
 1.607199611710116e-02  1.088195338200447e-01 -1.404101521246906e-18
-1.097306144381342e-01 -7.693650305902357e-03  2.031836637351211e-18
-1.097306144381342e-01 -7.693650305902357e-03  2.031836637351211e-18
-1.082576721222033e-01 -1.950067759544499e-02  2.126936788094268e-18
-1.092704368621642e-01 -1.264798908727198e-02  2.074551259675931e-18
-1.074718113696556e-01  2.344802253762853e-02  1.671669166762875e-18
-1.052746134797133e-01  3.189444711383062e-02  1.545783465223183e-18
-9.226285305701259e-02 -5.989629325576052e-02  2.257340179854640e-18
-1.090096465168387e-01 -1.472742225489045e-02  2.091275604797477e-18
-8.997380016452784e-02  6.328281981670521e-02  9.509831137859996e-19
-1.099067979405977e-01  4.527225026943704e-03  1.909406978386832e-18
-9.708692907809108e-02 -5.171197348956692e-02  2.259099454547897e-18
-1.034616326084293e-01  3.735894241006241e-02  1.457373603943117e-18
-1.094099149436631e-01  1.137851097553448e-02  1.830169878507633e-18
-1.098238179416873e-01  6.223263831069706e-03  1.890504067734159e-18
-1.084727698842222e-01 -1.826631308295517e-02  2.118082062390834e-18
-1.061584789073389e-01  2.881626894794041e-02  1.593140067260934e-18
-1.064942401670524e-01 -2.754953377540420e-02  2.178253486284080e-18
-1.090845090459709e-01  1.416226981099645e-02  1.795776781625704e-18
-1.096773019656671e-01 -8.419586304079213e-03  2.038346606979693e-18
-1.096573515470900e-01  8.675554834009039e-03  1.862345200466080e-18
-1.090902384980928e-01 -1.411806872164865e-02  2.086448949044165e-18
-1.098623710930099e-01  5.500856098985226e-03  1.898612644066880e-18
-1.095425402463752e-01 -1.002157055412095e-02  2.052408167649349e-18
-1.099980273424603e-01  6.587721664703695e-04  1.950777462258267e-18
-1.098753559417078e-01 -5.235088985200119e-03  2.009151660616117e-18
-1.098753559417078e-01 -5.235088985200119e-03  2.009151660616117e-18
-4.950302454589631e-02 -9.823161691028173e-02  1.890259550151538e-18
-1.095773721817484e-01  9.633250009344903e-03  1.851081902233719e-18
-1.094780684936567e-01  1.070292104512433e-02  1.838324193338704e-18
-1.098182103757606e-01 -6.321445235478593e-03  2.019296602933798e-18
-1.093077614988178e-01 -1.232125302546520e-02  2.071858401766435e-18
-1.047177305821567e-01  3.367783992067788e-02  1.517549356552516e-18
-1.099438778006242e-01  3.513365076586318e-03  1.920483901410018e-18
-1.099438778006242e-01  3.513365076586318e-03  1.920483901410018e-18
-1.097371945941917e-01 -7.599218551697172e-03  2.030983487107251e-18
-1.091396169021288e-01  1.373113332746154e-02  1.801187262409814e-18
-1.098193039134743e-01 -6.302419214866875e-03  2.019120578291658e-18

TENSORS stress double
0.000000000000000e+00 0.000000000000000e+00 0.000000000000000e+00
0.000000000000000e+00 0.000000000000000e+00 0.000000000000000e+00
0.000000000000000e+00 0.000000000000000e+00 0.000000000000000e+00

0.000000000000000e+00 0.000000000000000e+00 0.000000000000000e+00
0.000000000000000e+00 0.000000000000000e+00 0.000000000000000e+00
0.000000000000000e+00 0.000000000000000e+00 0.000000000000000e+00

0.000000000000000e+00 0.000000000000000e+00 0.000000000000000e+00
0.000000000000000e+00 0.000000000000000e+00 0.000000000000000e+00
0.000000000000000e+00 0.000000000000000e+00 0.000000000000000e+00

0.000000000000000e+00 0.000000000000000e+00 0.000000000000000e+00
0.000000000000000e+00 0.000000000000000e+00 0.000000000000000e+00
0.000000000000000e+00 0.000000000000000e+00 0.000000000000000e+00

0.000000000000000e+00 0.000000000000000e+00 0.000000000000000e+00
0.000000000000000e+00 0.000000000000000e+00 0.000000000000000e+00
0.000000000000000e+00 0.000000000000000e+00 0.000000000000000e+00

0.000000000000000e+00 0.000000000000000e+00 0.000000000000000e+00
0.000000000000000e+00 0.000000000000000e+00 0.000000000000000e+00
0.000000000000000e+00 0.000000000000000e+00 0.000000000000000e+00

0.000000000000000e+00 0.000000000000000e+00 0.000000000000000e+00
0.000000000000000e+00 0.000000000000000e+00 0.000000000000000e+00
0.000000000000000e+00 0.000000000000000e+00 0.000000000000000e+00

0.000000000000000e+00 0.000000000000000e+00 0.000000000000000e+00
0.000000000000000e+00 0.000000000000000e+00 0.000000000000000e+00
0.000000000000000e+00 0.000000000000000e+00 0.000000000000000e+00

0.000000000000000e+00 0.000000000000000e+00 0.000000000000000e+00
0.000000000000000e+00 0.000000000000000e+00 0.000000000000000e+00
0.000000000000000e+00 0.000000000000000e+00 0.000000000000000e+00

0.000000000000000e+00 0.000000000000000e+00 0.000000000000000e+00
0.000000000000000e+00 0.000000000000000e+00 0.000000000000000e+00
0.000000000000000e+00 0.000000000000000e+00 0.000000000000000e+00

0.000000000000000e+00 0.000000000000000e+00 0.000000000000000e+00
0.000000000000000e+00 0.000000000000000e+00 0.000000000000000e+00
0.000000000000000e+00 0.000000000000000e+00 0.000000000000000e+00

0.000000000000000e+00 0.000000000000000e+00 0.000000000000000e+00
0.000000000000000e+00 0.000000000000000e+00 0.000000000000000e+00
0.000000000000000e+00 0.000000000000000e+00 0.000000000000000e+00

0.000000000000000e+00 0.000000000000000e+00 0.000000000000000e+00
0.000000000000000e+00 0.000000000000000e+00 0.000000000000000e+00
0.000000000000000e+00 0.000000000000000e+00 0.000000000000000e+00

0.000000000000000e+00 0.000000000000000e+00 0.000000000000000e+00
0.000000000000000e+00 0.000000000000000e+00 0.000000000000000e+00
0.000000000000000e+00 0.000000000000000e+00 0.000000000000000e+00

0.000000000000000e+00 0.000000000000000e+00 0.000000000000000e+00
0.000000000000000e+00 0.000000000000000e+00 0.000000000000000e+00
0.000000000000000e+00 0.000000000000000e+00 0.000000000000000e+00

0.000000000000000e+00 0.000000000000000e+00 0.000000000000000e+00
0.000000000000000e+00 0.000000000000000e+00 0.000000000000000e+00
0.000000000000000e+00 0.000000000000000e+00 0.000000000000000e+00

0.000000000000000e+00 0.000000000000000e+00 0.000000000000000e+00
0.000000000000000e+00 0.000000000000000e+00 0.000000000000000e+00
0.000000000000000e+00 0.000000000000000e+00 0.000000000000000e+00

0.000000000000000e+00 0.000000000000000e+00 0.000000000000000e+00
0.000000000000000e+00 0.000000000000000e+00 0.000000000000000e+00
0.000000000000000e+00 0.000000000000000e+00 0.000000000000000e+00

0.000000000000000e+00 0.000000000000000e+00 0.000000000000000e+00
0.000000000000000e+00 0.000000000000000e+00 0.000000000000000e+00
0.000000000000000e+00 0.000000000000000e+00 0.000000000000000e+00

0.000000000000000e+00 0.000000000000000e+00 0.000000000000000e+00
0.000000000000000e+00 0.000000000000000e+00 0.000000000000000e+00
0.000000000000000e+00 0.000000000000000e+00 0.000000000000000e+00

0.000000000000000e+00 0.000000000000000e+00 0.000000000000000e+00
0.000000000000000e+00 0.000000000000000e+00 0.000000000000000e+00
0.000000000000000e+00 0.000000000000000e+00 0.000000000000000e+00

0.000000000000000e+00 0.000000000000000e+00 0.000000000000000e+00
0.000000000000000e+00 0.000000000000000e+00 0.000000000000000e+00
0.000000000000000e+00 0.000000000000000e+00 0.000000000000000e+00

0.000000000000000e+00 0.000000000000000e+00 0.000000000000000e+00
0.000000000000000e+00 0.000000000000000e+00 0.000000000000000e+00
0.000000000000000e+00 0.000000000000000e+00 0.000000000000000e+00

0.000000000000000e+00 0.000000000000000e+00 0.000000000000000e+00
0.000000000000000e+00 0.000000000000000e+00 0.000000000000000e+00
0.000000000000000e+00 0.000000000000000e+00 0.000000000000000e+00

0.000000000000000e+00 0.000000000000000e+00 0.000000000000000e+00
0.000000000000000e+00 0.000000000000000e+00 0.000000000000000e+00
0.000000000000000e+00 0.000000000000000e+00 0.000000000000000e+00

0.000000000000000e+00 0.000000000000000e+00 0.000000000000000e+00
0.000000000000000e+00 0.000000000000000e+00 0.000000000000000e+00
0.000000000000000e+00 0.000000000000000e+00 0.000000000000000e+00

0.000000000000000e+00 0.000000000000000e+00 0.000000000000000e+00
0.000000000000000e+00 0.000000000000000e+00 0.000000000000000e+00
0.000000000000000e+00 0.000000000000000e+00 0.000000000000000e+00

0.000000000000000e+00 0.000000000000000e+00 0.000000000000000e+00
0.000000000000000e+00 0.000000000000000e+00 0.000000000000000e+00
0.000000000000000e+00 0.000000000000000e+00 0.000000000000000e+00

0.000000000000000e+00 0.000000000000000e+00 0.000000000000000e+00
0.000000000000000e+00 0.000000000000000e+00 0.000000000000000e+00
0.000000000000000e+00 0.000000000000000e+00 0.000000000000000e+00

0.000000000000000e+00 0.000000000000000e+00 0.000000000000000e+00
0.000000000000000e+00 0.000000000000000e+00 0.000000000000000e+00
0.000000000000000e+00 0.000000000000000e+00 0.000000000000000e+00

0.000000000000000e+00 0.000000000000000e+00 0.000000000000000e+00
0.000000000000000e+00 0.000000000000000e+00 0.000000000000000e+00
0.000000000000000e+00 0.000000000000000e+00 0.000000000000000e+00

0.000000000000000e+00 0.000000000000000e+00 0.000000000000000e+00
0.000000000000000e+00 0.000000000000000e+00 0.000000000000000e+00
0.000000000000000e+00 0.000000000000000e+00 0.000000000000000e+00

0.000000000000000e+00 0.000000000000000e+00 0.000000000000000e+00
0.000000000000000e+00 0.000000000000000e+00 0.000000000000000e+00
0.000000000000000e+00 0.000000000000000e+00 0.000000000000000e+00

0.000000000000000e+00 0.000000000000000e+00 0.000000000000000e+00
0.000000000000000e+00 0.000000000000000e+00 0.000000000000000e+00
0.000000000000000e+00 0.000000000000000e+00 0.000000000000000e+00

0.000000000000000e+00 0.000000000000000e+00 0.000000000000000e+00
0.000000000000000e+00 0.000000000000000e+00 0.000000000000000e+00
0.000000000000000e+00 0.000000000000000e+00 0.000000000000000e+00

0.000000000000000e+00 0.000000000000000e+00 0.000000000000000e+00
0.000000000000000e+00 0.000000000000000e+00 0.000000000000000e+00
0.000000000000000e+00 0.000000000000000e+00 0.000000000000000e+00

0.000000000000000e+00 0.000000000000000e+00 0.000000000000000e+00
0.000000000000000e+00 0.000000000000000e+00 0.000000000000000e+00
0.000000000000000e+00 0.000000000000000e+00 0.000000000000000e+00

0.000000000000000e+00 0.000000000000000e+00 0.000000000000000e+00
0.000000000000000e+00 0.000000000000000e+00 0.000000000000000e+00
0.000000000000000e+00 0.000000000000000e+00 0.000000000000000e+00

0.000000000000000e+00 0.000000000000000e+00 0.000000000000000e+00
0.000000000000000e+00 0.000000000000000e+00 0.000000000000000e+00
0.000000000000000e+00 0.000000000000000e+00 0.000000000000000e+00

0.000000000000000e+00 0.000000000000000e+00 0.000000000000000e+00
0.000000000000000e+00 0.000000000000000e+00 0.000000000000000e+00
0.000000000000000e+00 0.000000000000000e+00 0.000000000000000e+00

0.000000000000000e+00 0.000000000000000e+00 0.000000000000000e+00
0.000000000000000e+00 0.000000000000000e+00 0.000000000000000e+00
0.000000000000000e+00 0.000000000000000e+00 0.000000000000000e+00

0.000000000000000e+00 0.000000000000000e+00 0.000000000000000e+00
0.000000000000000e+00 0.000000000000000e+00 0.000000000000000e+00
0.000000000000000e+00 0.000000000000000e+00 0.000000000000000e+00

0.000000000000000e+00 0.000000000000000e+00 0.000000000000000e+00
0.000000000000000e+00 0.000000000000000e+00 0.000000000000000e+00
0.000000000000000e+00 0.000000000000000e+00 0.000000000000000e+00

0.000000000000000e+00 0.000000000000000e+00 0.000000000000000e+00
0.000000000000000e+00 0.000000000000000e+00 0.000000000000000e+00
0.000000000000000e+00 0.000000000000000e+00 0.000000000000000e+00

0.000000000000000e+00 0.000000000000000e+00 0.000000000000000e+00
0.000000000000000e+00 0.000000000000000e+00 0.000000000000000e+00
0.000000000000000e+00 0.000000000000000e+00 0.000000000000000e+00

0.000000000000000e+00 0.000000000000000e+00 0.000000000000000e+00
0.000000000000000e+00 0.000000000000000e+00 0.000000000000000e+00
0.000000000000000e+00 0.000000000000000e+00 0.000000000000000e+00

0.000000000000000e+00 0.000000000000000e+00 0.000000000000000e+00
0.000000000000000e+00 0.000000000000000e+00 0.000000000000000e+00
0.000000000000000e+00 0.000000000000000e+00 0.000000000000000e+00

0.000000000000000e+00 0.000000000000000e+00 0.000000000000000e+00
0.000000000000000e+00 0.000000000000000e+00 0.000000000000000e+00
0.000000000000000e+00 0.000000000000000e+00 0.000000000000000e+00

0.000000000000000e+00 0.000000000000000e+00 0.000000000000000e+00
0.000000000000000e+00 0.000000000000000e+00 0.000000000000000e+00
0.000000000000000e+00 0.000000000000000e+00 0.000000000000000e+00

0.000000000000000e+00 0.000000000000000e+00 0.000000000000000e+00
0.000000000000000e+00 0.000000000000000e+00 0.000000000000000e+00
0.000000000000000e+00 0.000000000000000e+00 0.000000000000000e+00

0.000000000000000e+00 0.000000000000000e+00 0.000000000000000e+00
0.000000000000000e+00 0.000000000000000e+00 0.000000000000000e+00
0.000000000000000e+00 0.000000000000000e+00 0.000000000000000e+00

0.000000000000000e+00 0.000000000000000e+00 0.000000000000000e+00
0.000000000000000e+00 0.000000000000000e+00 0.000000000000000e+00
0.000000000000000e+00 0.000000000000000e+00 0.000000000000000e+00

0.000000000000000e+00 0.000000000000000e+00 0.000000000000000e+00
0.000000000000000e+00 0.000000000000000e+00 0.000000000000000e+00
0.000000000000000e+00 0.000000000000000e+00 0.000000000000000e+00

0.000000000000000e+00 0.000000000000000e+00 0.000000000000000e+00
0.000000000000000e+00 0.000000000000000e+00 0.000000000000000e+00
0.000000000000000e+00 0.000000000000000e+00 0.000000000000000e+00

0.000000000000000e+00 0.000000000000000e+00 0.000000000000000e+00
0.000000000000000e+00 0.000000000000000e+00 0.000000000000000e+00
0.000000000000000e+00 0.000000000000000e+00 0.000000000000000e+00

0.000000000000000e+00 0.000000000000000e+00 0.000000000000000e+00
0.000000000000000e+00 0.000000000000000e+00 0.000000000000000e+00
0.000000000000000e+00 0.000000000000000e+00 0.000000000000000e+00

0.000000000000000e+00 0.000000000000000e+00 0.000000000000000e+00
0.000000000000000e+00 0.000000000000000e+00 0.000000000000000e+00
0.000000000000000e+00 0.000000000000000e+00 0.000000000000000e+00

0.000000000000000e+00 0.000000000000000e+00 0.000000000000000e+00
0.000000000000000e+00 0.000000000000000e+00 0.000000000000000e+00
0.000000000000000e+00 0.000000000000000e+00 0.000000000000000e+00

0.000000000000000e+00 0.000000000000000e+00 0.000000000000000e+00
0.000000000000000e+00 0.000000000000000e+00 0.000000000000000e+00
0.000000000000000e+00 0.000000000000000e+00 0.000000000000000e+00

0.000000000000000e+00 0.000000000000000e+00 0.000000000000000e+00
0.000000000000000e+00 0.000000000000000e+00 0.000000000000000e+00
0.000000000000000e+00 0.000000000000000e+00 0.000000000000000e+00

0.000000000000000e+00 0.000000000000000e+00 0.000000000000000e+00
0.000000000000000e+00 0.000000000000000e+00 0.000000000000000e+00
0.000000000000000e+00 0.000000000000000e+00 0.000000000000000e+00

0.000000000000000e+00 0.000000000000000e+00 0.000000000000000e+00
0.000000000000000e+00 0.000000000000000e+00 0.000000000000000e+00
0.000000000000000e+00 0.000000000000000e+00 0.000000000000000e+00

0.000000000000000e+00 0.000000000000000e+00 0.000000000000000e+00
0.000000000000000e+00 0.000000000000000e+00 0.000000000000000e+00
0.000000000000000e+00 0.000000000000000e+00 0.000000000000000e+00

0.000000000000000e+00 0.000000000000000e+00 0.000000000000000e+00
0.000000000000000e+00 0.000000000000000e+00 0.000000000000000e+00
0.000000000000000e+00 0.000000000000000e+00 0.000000000000000e+00

0.000000000000000e+00 0.000000000000000e+00 0.000000000000000e+00
0.000000000000000e+00 0.000000000000000e+00 0.000000000000000e+00
0.000000000000000e+00 0.000000000000000e+00 0.000000000000000e+00

0.000000000000000e+00 0.000000000000000e+00 0.000000000000000e+00
0.000000000000000e+00 0.000000000000000e+00 0.000000000000000e+00
0.000000000000000e+00 0.000000000000000e+00 0.000000000000000e+00

0.000000000000000e+00 0.000000000000000e+00 0.000000000000000e+00
0.000000000000000e+00 0.000000000000000e+00 0.000000000000000e+00
0.000000000000000e+00 0.000000000000000e+00 0.000000000000000e+00

0.000000000000000e+00 0.000000000000000e+00 0.000000000000000e+00
0.000000000000000e+00 0.000000000000000e+00 0.000000000000000e+00
0.000000000000000e+00 0.000000000000000e+00 0.000000000000000e+00

0.000000000000000e+00 0.000000000000000e+00 0.000000000000000e+00
0.000000000000000e+00 0.000000000000000e+00 0.000000000000000e+00
0.000000000000000e+00 0.000000000000000e+00 0.000000000000000e+00

0.000000000000000e+00 0.000000000000000e+00 0.000000000000000e+00
0.000000000000000e+00 0.000000000000000e+00 0.000000000000000e+00
0.000000000000000e+00 0.000000000000000e+00 0.000000000000000e+00

0.000000000000000e+00 0.000000000000000e+00 0.000000000000000e+00
0.000000000000000e+00 0.000000000000000e+00 0.000000000000000e+00
0.000000000000000e+00 0.000000000000000e+00 0.000000000000000e+00

0.000000000000000e+00 0.000000000000000e+00 0.000000000000000e+00
0.000000000000000e+00 0.000000000000000e+00 0.000000000000000e+00
0.000000000000000e+00 0.000000000000000e+00 0.000000000000000e+00

0.000000000000000e+00 0.000000000000000e+00 0.000000000000000e+00
0.000000000000000e+00 0.000000000000000e+00 0.000000000000000e+00
0.000000000000000e+00 0.000000000000000e+00 0.000000000000000e+00

0.000000000000000e+00 0.000000000000000e+00 0.000000000000000e+00
0.000000000000000e+00 0.000000000000000e+00 0.000000000000000e+00
0.000000000000000e+00 0.000000000000000e+00 0.000000000000000e+00

0.000000000000000e+00 0.000000000000000e+00 0.000000000000000e+00
0.000000000000000e+00 0.000000000000000e+00 0.000000000000000e+00
0.000000000000000e+00 0.000000000000000e+00 0.000000000000000e+00

0.000000000000000e+00 0.000000000000000e+00 0.000000000000000e+00
0.000000000000000e+00 0.000000000000000e+00 0.000000000000000e+00
0.000000000000000e+00 0.000000000000000e+00 0.000000000000000e+00

0.000000000000000e+00 0.000000000000000e+00 0.000000000000000e+00
0.000000000000000e+00 0.000000000000000e+00 0.000000000000000e+00
0.000000000000000e+00 0.000000000000000e+00 0.000000000000000e+00

0.000000000000000e+00 0.000000000000000e+00 0.000000000000000e+00
0.000000000000000e+00 0.000000000000000e+00 0.000000000000000e+00
0.000000000000000e+00 0.000000000000000e+00 0.000000000000000e+00

0.000000000000000e+00 0.000000000000000e+00 0.000000000000000e+00
0.000000000000000e+00 0.000000000000000e+00 0.000000000000000e+00
0.000000000000000e+00 0.000000000000000e+00 0.000000000000000e+00

0.000000000000000e+00 0.000000000000000e+00 0.000000000000000e+00
0.000000000000000e+00 0.000000000000000e+00 0.000000000000000e+00
0.000000000000000e+00 0.000000000000000e+00 0.000000000000000e+00

0.000000000000000e+00 0.000000000000000e+00 0.000000000000000e+00
0.000000000000000e+00 0.000000000000000e+00 0.000000000000000e+00
0.000000000000000e+00 0.000000000000000e+00 0.000000000000000e+00

0.000000000000000e+00 0.000000000000000e+00 0.000000000000000e+00
0.000000000000000e+00 0.000000000000000e+00 0.000000000000000e+00
0.000000000000000e+00 0.000000000000000e+00 0.000000000000000e+00

0.000000000000000e+00 0.000000000000000e+00 0.000000000000000e+00
0.000000000000000e+00 0.000000000000000e+00 0.000000000000000e+00
0.000000000000000e+00 0.000000000000000e+00 0.000000000000000e+00

0.000000000000000e+00 0.000000000000000e+00 0.000000000000000e+00
0.000000000000000e+00 0.000000000000000e+00 0.000000000000000e+00
0.000000000000000e+00 0.000000000000000e+00 0.000000000000000e+00

0.000000000000000e+00 0.000000000000000e+00 0.000000000000000e+00
0.000000000000000e+00 0.000000000000000e+00 0.000000000000000e+00
0.000000000000000e+00 0.000000000000000e+00 0.000000000000000e+00

0.000000000000000e+00 0.000000000000000e+00 0.000000000000000e+00
0.000000000000000e+00 0.000000000000000e+00 0.000000000000000e+00
0.000000000000000e+00 0.000000000000000e+00 0.000000000000000e+00

0.000000000000000e+00 0.000000000000000e+00 0.000000000000000e+00
0.000000000000000e+00 0.000000000000000e+00 0.000000000000000e+00
0.000000000000000e+00 0.000000000000000e+00 0.000000000000000e+00

0.000000000000000e+00 0.000000000000000e+00 0.000000000000000e+00
0.000000000000000e+00 0.000000000000000e+00 0.000000000000000e+00
0.000000000000000e+00 0.000000000000000e+00 0.000000000000000e+00

0.000000000000000e+00 0.000000000000000e+00 0.000000000000000e+00
0.000000000000000e+00 0.000000000000000e+00 0.000000000000000e+00
0.000000000000000e+00 0.000000000000000e+00 0.000000000000000e+00

0.000000000000000e+00 0.000000000000000e+00 0.000000000000000e+00
0.000000000000000e+00 0.000000000000000e+00 0.000000000000000e+00
0.000000000000000e+00 0.000000000000000e+00 0.000000000000000e+00

0.000000000000000e+00 0.000000000000000e+00 0.000000000000000e+00
0.000000000000000e+00 0.000000000000000e+00 0.000000000000000e+00
0.000000000000000e+00 0.000000000000000e+00 0.000000000000000e+00

0.000000000000000e+00 0.000000000000000e+00 0.000000000000000e+00
0.000000000000000e+00 0.000000000000000e+00 0.000000000000000e+00
0.000000000000000e+00 0.000000000000000e+00 0.000000000000000e+00

0.000000000000000e+00 0.000000000000000e+00 0.000000000000000e+00
0.000000000000000e+00 0.000000000000000e+00 0.000000000000000e+00
0.000000000000000e+00 0.000000000000000e+00 0.000000000000000e+00

0.000000000000000e+00 0.000000000000000e+00 0.000000000000000e+00
0.000000000000000e+00 0.000000000000000e+00 0.000000000000000e+00
0.000000000000000e+00 0.000000000000000e+00 0.000000000000000e+00

0.000000000000000e+00 0.000000000000000e+00 0.000000000000000e+00
0.000000000000000e+00 0.000000000000000e+00 0.000000000000000e+00
0.000000000000000e+00 0.000000000000000e+00 0.000000000000000e+00

0.000000000000000e+00 0.000000000000000e+00 0.000000000000000e+00
0.000000000000000e+00 0.000000000000000e+00 0.000000000000000e+00
0.000000000000000e+00 0.000000000000000e+00 0.000000000000000e+00

0.000000000000000e+00 0.000000000000000e+00 0.000000000000000e+00
0.000000000000000e+00 0.000000000000000e+00 0.000000000000000e+00
0.000000000000000e+00 0.000000000000000e+00 0.000000000000000e+00

0.000000000000000e+00 0.000000000000000e+00 0.000000000000000e+00
0.000000000000000e+00 0.000000000000000e+00 0.000000000000000e+00
0.000000000000000e+00 0.000000000000000e+00 0.000000000000000e+00

0.000000000000000e+00 0.000000000000000e+00 0.000000000000000e+00
0.000000000000000e+00 0.000000000000000e+00 0.000000000000000e+00
0.000000000000000e+00 0.000000000000000e+00 0.000000000000000e+00

0.000000000000000e+00 0.000000000000000e+00 0.000000000000000e+00
0.000000000000000e+00 0.000000000000000e+00 0.000000000000000e+00
0.000000000000000e+00 0.000000000000000e+00 0.000000000000000e+00

0.000000000000000e+00 0.000000000000000e+00 0.000000000000000e+00
0.000000000000000e+00 0.000000000000000e+00 0.000000000000000e+00
0.000000000000000e+00 0.000000000000000e+00 0.000000000000000e+00

0.000000000000000e+00 0.000000000000000e+00 0.000000000000000e+00
0.000000000000000e+00 0.000000000000000e+00 0.000000000000000e+00
0.000000000000000e+00 0.000000000000000e+00 0.000000000000000e+00

0.000000000000000e+00 0.000000000000000e+00 0.000000000000000e+00
0.000000000000000e+00 0.000000000000000e+00 0.000000000000000e+00
0.000000000000000e+00 0.000000000000000e+00 0.000000000000000e+00

0.000000000000000e+00 0.000000000000000e+00 0.000000000000000e+00
0.000000000000000e+00 0.000000000000000e+00 0.000000000000000e+00
0.000000000000000e+00 0.000000000000000e+00 0.000000000000000e+00

0.000000000000000e+00 0.000000000000000e+00 0.000000000000000e+00
0.000000000000000e+00 0.000000000000000e+00 0.000000000000000e+00
0.000000000000000e+00 0.000000000000000e+00 0.000000000000000e+00

0.000000000000000e+00 0.000000000000000e+00 0.000000000000000e+00
0.000000000000000e+00 0.000000000000000e+00 0.000000000000000e+00
0.000000000000000e+00 0.000000000000000e+00 0.000000000000000e+00

0.000000000000000e+00 0.000000000000000e+00 0.000000000000000e+00
0.000000000000000e+00 0.000000000000000e+00 0.000000000000000e+00
0.000000000000000e+00 0.000000000000000e+00 0.000000000000000e+00

0.000000000000000e+00 0.000000000000000e+00 0.000000000000000e+00
0.000000000000000e+00 0.000000000000000e+00 0.000000000000000e+00
0.000000000000000e+00 0.000000000000000e+00 0.000000000000000e+00

0.000000000000000e+00 0.000000000000000e+00 0.000000000000000e+00
0.000000000000000e+00 0.000000000000000e+00 0.000000000000000e+00
0.000000000000000e+00 0.000000000000000e+00 0.000000000000000e+00

0.000000000000000e+00 0.000000000000000e+00 0.000000000000000e+00
0.000000000000000e+00 0.000000000000000e+00 0.000000000000000e+00
0.000000000000000e+00 0.000000000000000e+00 0.000000000000000e+00

0.000000000000000e+00 0.000000000000000e+00 0.000000000000000e+00
0.000000000000000e+00 0.000000000000000e+00 0.000000000000000e+00
0.000000000000000e+00 0.000000000000000e+00 0.000000000000000e+00

0.000000000000000e+00 0.000000000000000e+00 0.000000000000000e+00
0.000000000000000e+00 0.000000000000000e+00 0.000000000000000e+00
0.000000000000000e+00 0.000000000000000e+00 0.000000000000000e+00

0.000000000000000e+00 0.000000000000000e+00 0.000000000000000e+00
0.000000000000000e+00 0.000000000000000e+00 0.000000000000000e+00
0.000000000000000e+00 0.000000000000000e+00 0.000000000000000e+00

0.000000000000000e+00 0.000000000000000e+00 0.000000000000000e+00
0.000000000000000e+00 0.000000000000000e+00 0.000000000000000e+00
0.000000000000000e+00 0.000000000000000e+00 0.000000000000000e+00

0.000000000000000e+00 0.000000000000000e+00 0.000000000000000e+00
0.000000000000000e+00 0.000000000000000e+00 0.000000000000000e+00
0.000000000000000e+00 0.000000000000000e+00 0.000000000000000e+00

0.000000000000000e+00 0.000000000000000e+00 0.000000000000000e+00
0.000000000000000e+00 0.000000000000000e+00 0.000000000000000e+00
0.000000000000000e+00 0.000000000000000e+00 0.000000000000000e+00

0.000000000000000e+00 0.000000000000000e+00 0.000000000000000e+00
0.000000000000000e+00 0.000000000000000e+00 0.000000000000000e+00
0.000000000000000e+00 0.000000000000000e+00 0.000000000000000e+00

0.000000000000000e+00 0.000000000000000e+00 0.000000000000000e+00
0.000000000000000e+00 0.000000000000000e+00 0.000000000000000e+00
0.000000000000000e+00 0.000000000000000e+00 0.000000000000000e+00

0.000000000000000e+00 0.000000000000000e+00 0.000000000000000e+00
0.000000000000000e+00 0.000000000000000e+00 0.000000000000000e+00
0.000000000000000e+00 0.000000000000000e+00 0.000000000000000e+00

0.000000000000000e+00 0.000000000000000e+00 0.000000000000000e+00
0.000000000000000e+00 0.000000000000000e+00 0.000000000000000e+00
0.000000000000000e+00 0.000000000000000e+00 0.000000000000000e+00

0.000000000000000e+00 0.000000000000000e+00 0.000000000000000e+00
0.000000000000000e+00 0.000000000000000e+00 0.000000000000000e+00
0.000000000000000e+00 0.000000000000000e+00 0.000000000000000e+00

0.000000000000000e+00 0.000000000000000e+00 0.000000000000000e+00
0.000000000000000e+00 0.000000000000000e+00 0.000000000000000e+00
0.000000000000000e+00 0.000000000000000e+00 0.000000000000000e+00

0.000000000000000e+00 0.000000000000000e+00 0.000000000000000e+00
0.000000000000000e+00 0.000000000000000e+00 0.000000000000000e+00
0.000000000000000e+00 0.000000000000000e+00 0.000000000000000e+00

0.000000000000000e+00 0.000000000000000e+00 0.000000000000000e+00
0.000000000000000e+00 0.000000000000000e+00 0.000000000000000e+00
0.000000000000000e+00 0.000000000000000e+00 0.000000000000000e+00

0.000000000000000e+00 0.000000000000000e+00 0.000000000000000e+00
0.000000000000000e+00 0.000000000000000e+00 0.000000000000000e+00
0.000000000000000e+00 0.000000000000000e+00 0.000000000000000e+00

0.000000000000000e+00 0.000000000000000e+00 0.000000000000000e+00
0.000000000000000e+00 0.000000000000000e+00 0.000000000000000e+00
0.000000000000000e+00 0.000000000000000e+00 0.000000000000000e+00

0.000000000000000e+00 0.000000000000000e+00 0.000000000000000e+00
0.000000000000000e+00 0.000000000000000e+00 0.000000000000000e+00
0.000000000000000e+00 0.000000000000000e+00 0.000000000000000e+00

0.000000000000000e+00 0.000000000000000e+00 0.000000000000000e+00
0.000000000000000e+00 0.000000000000000e+00 0.000000000000000e+00
0.000000000000000e+00 0.000000000000000e+00 0.000000000000000e+00

0.000000000000000e+00 0.000000000000000e+00 0.000000000000000e+00
0.000000000000000e+00 0.000000000000000e+00 0.000000000000000e+00
0.000000000000000e+00 0.000000000000000e+00 0.000000000000000e+00

0.000000000000000e+00 0.000000000000000e+00 0.000000000000000e+00
0.000000000000000e+00 0.000000000000000e+00 0.000000000000000e+00
0.000000000000000e+00 0.000000000000000e+00 0.000000000000000e+00

0.000000000000000e+00 0.000000000000000e+00 0.000000000000000e+00
0.000000000000000e+00 0.000000000000000e+00 0.000000000000000e+00
0.000000000000000e+00 0.000000000000000e+00 0.000000000000000e+00

0.000000000000000e+00 0.000000000000000e+00 0.000000000000000e+00
0.000000000000000e+00 0.000000000000000e+00 0.000000000000000e+00
0.000000000000000e+00 0.000000000000000e+00 0.000000000000000e+00

0.000000000000000e+00 0.000000000000000e+00 0.000000000000000e+00
0.000000000000000e+00 0.000000000000000e+00 0.000000000000000e+00
0.000000000000000e+00 0.000000000000000e+00 0.000000000000000e+00

0.000000000000000e+00 0.000000000000000e+00 0.000000000000000e+00
0.000000000000000e+00 0.000000000000000e+00 0.000000000000000e+00
0.000000000000000e+00 0.000000000000000e+00 0.000000000000000e+00

0.000000000000000e+00 0.000000000000000e+00 0.000000000000000e+00
0.000000000000000e+00 0.000000000000000e+00 0.000000000000000e+00
0.000000000000000e+00 0.000000000000000e+00 0.000000000000000e+00

0.000000000000000e+00 0.000000000000000e+00 0.000000000000000e+00
0.000000000000000e+00 0.000000000000000e+00 0.000000000000000e+00
0.000000000000000e+00 0.000000000000000e+00 0.000000000000000e+00

0.000000000000000e+00 0.000000000000000e+00 0.000000000000000e+00
0.000000000000000e+00 0.000000000000000e+00 0.000000000000000e+00
0.000000000000000e+00 0.000000000000000e+00 0.000000000000000e+00

0.000000000000000e+00 0.000000000000000e+00 0.000000000000000e+00
0.000000000000000e+00 0.000000000000000e+00 0.000000000000000e+00
0.000000000000000e+00 0.000000000000000e+00 0.000000000000000e+00

0.000000000000000e+00 0.000000000000000e+00 0.000000000000000e+00
0.000000000000000e+00 0.000000000000000e+00 0.000000000000000e+00
0.000000000000000e+00 0.000000000000000e+00 0.000000000000000e+00

0.000000000000000e+00 0.000000000000000e+00 0.000000000000000e+00
0.000000000000000e+00 0.000000000000000e+00 0.000000000000000e+00
0.000000000000000e+00 0.000000000000000e+00 0.000000000000000e+00

0.000000000000000e+00 0.000000000000000e+00 0.000000000000000e+00
0.000000000000000e+00 0.000000000000000e+00 0.000000000000000e+00
0.000000000000000e+00 0.000000000000000e+00 0.000000000000000e+00

0.000000000000000e+00 0.000000000000000e+00 0.000000000000000e+00
0.000000000000000e+00 0.000000000000000e+00 0.000000000000000e+00
0.000000000000000e+00 0.000000000000000e+00 0.000000000000000e+00

0.000000000000000e+00 0.000000000000000e+00 0.000000000000000e+00
0.000000000000000e+00 0.000000000000000e+00 0.000000000000000e+00
0.000000000000000e+00 0.000000000000000e+00 0.000000000000000e+00

0.000000000000000e+00 0.000000000000000e+00 0.000000000000000e+00
0.000000000000000e+00 0.000000000000000e+00 0.000000000000000e+00
0.000000000000000e+00 0.000000000000000e+00 0.000000000000000e+00

0.000000000000000e+00 0.000000000000000e+00 0.000000000000000e+00
0.000000000000000e+00 0.000000000000000e+00 0.000000000000000e+00
0.000000000000000e+00 0.000000000000000e+00 0.000000000000000e+00

0.000000000000000e+00 0.000000000000000e+00 0.000000000000000e+00
0.000000000000000e+00 0.000000000000000e+00 0.000000000000000e+00
0.000000000000000e+00 0.000000000000000e+00 0.000000000000000e+00

0.000000000000000e+00 0.000000000000000e+00 0.000000000000000e+00
0.000000000000000e+00 0.000000000000000e+00 0.000000000000000e+00
0.000000000000000e+00 0.000000000000000e+00 0.000000000000000e+00

0.000000000000000e+00 0.000000000000000e+00 0.000000000000000e+00
0.000000000000000e+00 0.000000000000000e+00 0.000000000000000e+00
0.000000000000000e+00 0.000000000000000e+00 0.000000000000000e+00

0.000000000000000e+00 0.000000000000000e+00 0.000000000000000e+00
0.000000000000000e+00 0.000000000000000e+00 0.000000000000000e+00
0.000000000000000e+00 0.000000000000000e+00 0.000000000000000e+00

0.000000000000000e+00 0.000000000000000e+00 0.000000000000000e+00
0.000000000000000e+00 0.000000000000000e+00 0.000000000000000e+00
0.000000000000000e+00 0.000000000000000e+00 0.000000000000000e+00

0.000000000000000e+00 0.000000000000000e+00 0.000000000000000e+00
0.000000000000000e+00 0.000000000000000e+00 0.000000000000000e+00
0.000000000000000e+00 0.000000000000000e+00 0.000000000000000e+00

0.000000000000000e+00 0.000000000000000e+00 0.000000000000000e+00
0.000000000000000e+00 0.000000000000000e+00 0.000000000000000e+00
0.000000000000000e+00 0.000000000000000e+00 0.000000000000000e+00

0.000000000000000e+00 0.000000000000000e+00 0.000000000000000e+00
0.000000000000000e+00 0.000000000000000e+00 0.000000000000000e+00
0.000000000000000e+00 0.000000000000000e+00 0.000000000000000e+00

0.000000000000000e+00 0.000000000000000e+00 0.000000000000000e+00
0.000000000000000e+00 0.000000000000000e+00 0.000000000000000e+00
0.000000000000000e+00 0.000000000000000e+00 0.000000000000000e+00

0.000000000000000e+00 0.000000000000000e+00 0.000000000000000e+00
0.000000000000000e+00 0.000000000000000e+00 0.000000000000000e+00
0.000000000000000e+00 0.000000000000000e+00 0.000000000000000e+00

0.000000000000000e+00 0.000000000000000e+00 0.000000000000000e+00
0.000000000000000e+00 0.000000000000000e+00 0.000000000000000e+00
0.000000000000000e+00 0.000000000000000e+00 0.000000000000000e+00

0.000000000000000e+00 0.000000000000000e+00 0.000000000000000e+00
0.000000000000000e+00 0.000000000000000e+00 0.000000000000000e+00
0.000000000000000e+00 0.000000000000000e+00 0.000000000000000e+00

0.000000000000000e+00 0.000000000000000e+00 0.000000000000000e+00
0.000000000000000e+00 0.000000000000000e+00 0.000000000000000e+00
0.000000000000000e+00 0.000000000000000e+00 0.000000000000000e+00

0.000000000000000e+00 0.000000000000000e+00 0.000000000000000e+00
0.000000000000000e+00 0.000000000000000e+00 0.000000000000000e+00
0.000000000000000e+00 0.000000000000000e+00 0.000000000000000e+00

0.000000000000000e+00 0.000000000000000e+00 0.000000000000000e+00
0.000000000000000e+00 0.000000000000000e+00 0.000000000000000e+00
0.000000000000000e+00 0.000000000000000e+00 0.000000000000000e+00

0.000000000000000e+00 0.000000000000000e+00 0.000000000000000e+00
0.000000000000000e+00 0.000000000000000e+00 0.000000000000000e+00
0.000000000000000e+00 0.000000000000000e+00 0.000000000000000e+00

0.000000000000000e+00 0.000000000000000e+00 0.000000000000000e+00
0.000000000000000e+00 0.000000000000000e+00 0.000000000000000e+00
0.000000000000000e+00 0.000000000000000e+00 0.000000000000000e+00

0.000000000000000e+00 0.000000000000000e+00 0.000000000000000e+00
0.000000000000000e+00 0.000000000000000e+00 0.000000000000000e+00
0.000000000000000e+00 0.000000000000000e+00 0.000000000000000e+00

0.000000000000000e+00 0.000000000000000e+00 0.000000000000000e+00
0.000000000000000e+00 0.000000000000000e+00 0.000000000000000e+00
0.000000000000000e+00 0.000000000000000e+00 0.000000000000000e+00

0.000000000000000e+00 0.000000000000000e+00 0.000000000000000e+00
0.000000000000000e+00 0.000000000000000e+00 0.000000000000000e+00
0.000000000000000e+00 0.000000000000000e+00 0.000000000000000e+00

0.000000000000000e+00 0.000000000000000e+00 0.000000000000000e+00
0.000000000000000e+00 0.000000000000000e+00 0.000000000000000e+00
0.000000000000000e+00 0.000000000000000e+00 0.000000000000000e+00

0.000000000000000e+00 0.000000000000000e+00 0.000000000000000e+00
0.000000000000000e+00 0.000000000000000e+00 0.000000000000000e+00
0.000000000000000e+00 0.000000000000000e+00 0.000000000000000e+00

0.000000000000000e+00 0.000000000000000e+00 0.000000000000000e+00
0.000000000000000e+00 0.000000000000000e+00 0.000000000000000e+00
0.000000000000000e+00 0.000000000000000e+00 0.000000000000000e+00

0.000000000000000e+00 0.000000000000000e+00 0.000000000000000e+00
0.000000000000000e+00 0.000000000000000e+00 0.000000000000000e+00
0.000000000000000e+00 0.000000000000000e+00 0.000000000000000e+00

0.000000000000000e+00 0.000000000000000e+00 0.000000000000000e+00
0.000000000000000e+00 0.000000000000000e+00 0.000000000000000e+00
0.000000000000000e+00 0.000000000000000e+00 0.000000000000000e+00

0.000000000000000e+00 0.000000000000000e+00 0.000000000000000e+00
0.000000000000000e+00 0.000000000000000e+00 0.000000000000000e+00
0.000000000000000e+00 0.000000000000000e+00 0.000000000000000e+00

0.000000000000000e+00 0.000000000000000e+00 0.000000000000000e+00
0.000000000000000e+00 0.000000000000000e+00 0.000000000000000e+00
0.000000000000000e+00 0.000000000000000e+00 0.000000000000000e+00

0.000000000000000e+00 0.000000000000000e+00 0.000000000000000e+00
0.000000000000000e+00 0.000000000000000e+00 0.000000000000000e+00
0.000000000000000e+00 0.000000000000000e+00 0.000000000000000e+00

0.000000000000000e+00 0.000000000000000e+00 0.000000000000000e+00
0.000000000000000e+00 0.000000000000000e+00 0.000000000000000e+00
0.000000000000000e+00 0.000000000000000e+00 0.000000000000000e+00

0.000000000000000e+00 0.000000000000000e+00 0.000000000000000e+00
0.000000000000000e+00 0.000000000000000e+00 0.000000000000000e+00
0.000000000000000e+00 0.000000000000000e+00 0.000000000000000e+00

0.000000000000000e+00 0.000000000000000e+00 0.000000000000000e+00
0.000000000000000e+00 0.000000000000000e+00 0.000000000000000e+00
0.000000000000000e+00 0.000000000000000e+00 0.000000000000000e+00

0.000000000000000e+00 0.000000000000000e+00 0.000000000000000e+00
0.000000000000000e+00 0.000000000000000e+00 0.000000000000000e+00
0.000000000000000e+00 0.000000000000000e+00 0.000000000000000e+00

0.000000000000000e+00 0.000000000000000e+00 0.000000000000000e+00
0.000000000000000e+00 0.000000000000000e+00 0.000000000000000e+00
0.000000000000000e+00 0.000000000000000e+00 0.000000000000000e+00

0.000000000000000e+00 0.000000000000000e+00 0.000000000000000e+00
0.000000000000000e+00 0.000000000000000e+00 0.000000000000000e+00
0.000000000000000e+00 0.000000000000000e+00 0.000000000000000e+00

0.000000000000000e+00 0.000000000000000e+00 0.000000000000000e+00
0.000000000000000e+00 0.000000000000000e+00 0.000000000000000e+00
0.000000000000000e+00 0.000000000000000e+00 0.000000000000000e+00

0.000000000000000e+00 0.000000000000000e+00 0.000000000000000e+00
0.000000000000000e+00 0.000000000000000e+00 0.000000000000000e+00
0.000000000000000e+00 0.000000000000000e+00 0.000000000000000e+00

0.000000000000000e+00 0.000000000000000e+00 0.000000000000000e+00
0.000000000000000e+00 0.000000000000000e+00 0.000000000000000e+00
0.000000000000000e+00 0.000000000000000e+00 0.000000000000000e+00

0.000000000000000e+00 0.000000000000000e+00 0.000000000000000e+00
0.000000000000000e+00 0.000000000000000e+00 0.000000000000000e+00
0.000000000000000e+00 0.000000000000000e+00 0.000000000000000e+00

0.000000000000000e+00 0.000000000000000e+00 0.000000000000000e+00
0.000000000000000e+00 0.000000000000000e+00 0.000000000000000e+00
0.000000000000000e+00 0.000000000000000e+00 0.000000000000000e+00

0.000000000000000e+00 0.000000000000000e+00 0.000000000000000e+00
0.000000000000000e+00 0.000000000000000e+00 0.000000000000000e+00
0.000000000000000e+00 0.000000000000000e+00 0.000000000000000e+00

0.000000000000000e+00 0.000000000000000e+00 0.000000000000000e+00
0.000000000000000e+00 0.000000000000000e+00 0.000000000000000e+00
0.000000000000000e+00 0.000000000000000e+00 0.000000000000000e+00

0.000000000000000e+00 0.000000000000000e+00 0.000000000000000e+00
0.000000000000000e+00 0.000000000000000e+00 0.000000000000000e+00
0.000000000000000e+00 0.000000000000000e+00 0.000000000000000e+00

0.000000000000000e+00 0.000000000000000e+00 0.000000000000000e+00
0.000000000000000e+00 0.000000000000000e+00 0.000000000000000e+00
0.000000000000000e+00 0.000000000000000e+00 0.000000000000000e+00

0.000000000000000e+00 0.000000000000000e+00 0.000000000000000e+00
0.000000000000000e+00 0.000000000000000e+00 0.000000000000000e+00
0.000000000000000e+00 0.000000000000000e+00 0.000000000000000e+00

0.000000000000000e+00 0.000000000000000e+00 0.000000000000000e+00
0.000000000000000e+00 0.000000000000000e+00 0.000000000000000e+00
0.000000000000000e+00 0.000000000000000e+00 0.000000000000000e+00

0.000000000000000e+00 0.000000000000000e+00 0.000000000000000e+00
0.000000000000000e+00 0.000000000000000e+00 0.000000000000000e+00
0.000000000000000e+00 0.000000000000000e+00 0.000000000000000e+00

0.000000000000000e+00 0.000000000000000e+00 0.000000000000000e+00
0.000000000000000e+00 0.000000000000000e+00 0.000000000000000e+00
0.000000000000000e+00 0.000000000000000e+00 0.000000000000000e+00

0.000000000000000e+00 0.000000000000000e+00 0.000000000000000e+00
0.000000000000000e+00 0.000000000000000e+00 0.000000000000000e+00
0.000000000000000e+00 0.000000000000000e+00 0.000000000000000e+00

0.000000000000000e+00 0.000000000000000e+00 0.000000000000000e+00
0.000000000000000e+00 0.000000000000000e+00 0.000000000000000e+00
0.000000000000000e+00 0.000000000000000e+00 0.000000000000000e+00

0.000000000000000e+00 0.000000000000000e+00 0.000000000000000e+00
0.000000000000000e+00 0.000000000000000e+00 0.000000000000000e+00
0.000000000000000e+00 0.000000000000000e+00 0.000000000000000e+00

0.000000000000000e+00 0.000000000000000e+00 0.000000000000000e+00
0.000000000000000e+00 0.000000000000000e+00 0.000000000000000e+00
0.000000000000000e+00 0.000000000000000e+00 0.000000000000000e+00

0.000000000000000e+00 0.000000000000000e+00 0.000000000000000e+00
0.000000000000000e+00 0.000000000000000e+00 0.000000000000000e+00
0.000000000000000e+00 0.000000000000000e+00 0.000000000000000e+00

0.000000000000000e+00 0.000000000000000e+00 0.000000000000000e+00
0.000000000000000e+00 0.000000000000000e+00 0.000000000000000e+00
0.000000000000000e+00 0.000000000000000e+00 0.000000000000000e+00

0.000000000000000e+00 0.000000000000000e+00 0.000000000000000e+00
0.000000000000000e+00 0.000000000000000e+00 0.000000000000000e+00
0.000000000000000e+00 0.000000000000000e+00 0.000000000000000e+00

0.000000000000000e+00 0.000000000000000e+00 0.000000000000000e+00
0.000000000000000e+00 0.000000000000000e+00 0.000000000000000e+00
0.000000000000000e+00 0.000000000000000e+00 0.000000000000000e+00

0.000000000000000e+00 0.000000000000000e+00 0.000000000000000e+00
0.000000000000000e+00 0.000000000000000e+00 0.000000000000000e+00
0.000000000000000e+00 0.000000000000000e+00 0.000000000000000e+00

0.000000000000000e+00 0.000000000000000e+00 0.000000000000000e+00
0.000000000000000e+00 0.000000000000000e+00 0.000000000000000e+00
0.000000000000000e+00 0.000000000000000e+00 0.000000000000000e+00

0.000000000000000e+00 0.000000000000000e+00 0.000000000000000e+00
0.000000000000000e+00 0.000000000000000e+00 0.000000000000000e+00
0.000000000000000e+00 0.000000000000000e+00 0.000000000000000e+00

0.000000000000000e+00 0.000000000000000e+00 0.000000000000000e+00
0.000000000000000e+00 0.000000000000000e+00 0.000000000000000e+00
0.000000000000000e+00 0.000000000000000e+00 0.000000000000000e+00

0.000000000000000e+00 0.000000000000000e+00 0.000000000000000e+00
0.000000000000000e+00 0.000000000000000e+00 0.000000000000000e+00
0.000000000000000e+00 0.000000000000000e+00 0.000000000000000e+00

0.000000000000000e+00 0.000000000000000e+00 0.000000000000000e+00
0.000000000000000e+00 0.000000000000000e+00 0.000000000000000e+00
0.000000000000000e+00 0.000000000000000e+00 0.000000000000000e+00

0.000000000000000e+00 0.000000000000000e+00 0.000000000000000e+00
0.000000000000000e+00 0.000000000000000e+00 0.000000000000000e+00
0.000000000000000e+00 0.000000000000000e+00 0.000000000000000e+00

0.000000000000000e+00 0.000000000000000e+00 0.000000000000000e+00
0.000000000000000e+00 0.000000000000000e+00 0.000000000000000e+00
0.000000000000000e+00 0.000000000000000e+00 0.000000000000000e+00

0.000000000000000e+00 0.000000000000000e+00 0.000000000000000e+00
0.000000000000000e+00 0.000000000000000e+00 0.000000000000000e+00
0.000000000000000e+00 0.000000000000000e+00 0.000000000000000e+00

0.000000000000000e+00 0.000000000000000e+00 0.000000000000000e+00
0.000000000000000e+00 0.000000000000000e+00 0.000000000000000e+00
0.000000000000000e+00 0.000000000000000e+00 0.000000000000000e+00

0.000000000000000e+00 0.000000000000000e+00 0.000000000000000e+00
0.000000000000000e+00 0.000000000000000e+00 0.000000000000000e+00
0.000000000000000e+00 0.000000000000000e+00 0.000000000000000e+00

0.000000000000000e+00 0.000000000000000e+00 0.000000000000000e+00
0.000000000000000e+00 0.000000000000000e+00 0.000000000000000e+00
0.000000000000000e+00 0.000000000000000e+00 0.000000000000000e+00

0.000000000000000e+00 0.000000000000000e+00 0.000000000000000e+00
0.000000000000000e+00 0.000000000000000e+00 0.000000000000000e+00
0.000000000000000e+00 0.000000000000000e+00 0.000000000000000e+00

0.000000000000000e+00 0.000000000000000e+00 0.000000000000000e+00
0.000000000000000e+00 0.000000000000000e+00 0.000000000000000e+00
0.000000000000000e+00 0.000000000000000e+00 0.000000000000000e+00

0.000000000000000e+00 0.000000000000000e+00 0.000000000000000e+00
0.000000000000000e+00 0.000000000000000e+00 0.000000000000000e+00
0.000000000000000e+00 0.000000000000000e+00 0.000000000000000e+00

0.000000000000000e+00 0.000000000000000e+00 0.000000000000000e+00
0.000000000000000e+00 0.000000000000000e+00 0.000000000000000e+00
0.000000000000000e+00 0.000000000000000e+00 0.000000000000000e+00

0.000000000000000e+00 0.000000000000000e+00 0.000000000000000e+00
0.000000000000000e+00 0.000000000000000e+00 0.000000000000000e+00
0.000000000000000e+00 0.000000000000000e+00 0.000000000000000e+00

0.000000000000000e+00 0.000000000000000e+00 0.000000000000000e+00
0.000000000000000e+00 0.000000000000000e+00 0.000000000000000e+00
0.000000000000000e+00 0.000000000000000e+00 0.000000000000000e+00

0.000000000000000e+00 0.000000000000000e+00 0.000000000000000e+00
0.000000000000000e+00 0.000000000000000e+00 0.000000000000000e+00
0.000000000000000e+00 0.000000000000000e+00 0.000000000000000e+00

0.000000000000000e+00 0.000000000000000e+00 0.000000000000000e+00
0.000000000000000e+00 0.000000000000000e+00 0.000000000000000e+00
0.000000000000000e+00 0.000000000000000e+00 0.000000000000000e+00

0.000000000000000e+00 0.000000000000000e+00 0.000000000000000e+00
0.000000000000000e+00 0.000000000000000e+00 0.000000000000000e+00
0.000000000000000e+00 0.000000000000000e+00 0.000000000000000e+00

0.000000000000000e+00 0.000000000000000e+00 0.000000000000000e+00
0.000000000000000e+00 0.000000000000000e+00 0.000000000000000e+00
0.000000000000000e+00 0.000000000000000e+00 0.000000000000000e+00

0.000000000000000e+00 0.000000000000000e+00 0.000000000000000e+00
0.000000000000000e+00 0.000000000000000e+00 0.000000000000000e+00
0.000000000000000e+00 0.000000000000000e+00 0.000000000000000e+00

0.000000000000000e+00 0.000000000000000e+00 0.000000000000000e+00
0.000000000000000e+00 0.000000000000000e+00 0.000000000000000e+00
0.000000000000000e+00 0.000000000000000e+00 0.000000000000000e+00

0.000000000000000e+00 0.000000000000000e+00 0.000000000000000e+00
0.000000000000000e+00 0.000000000000000e+00 0.000000000000000e+00
0.000000000000000e+00 0.000000000000000e+00 0.000000000000000e+00

0.000000000000000e+00 0.000000000000000e+00 0.000000000000000e+00
0.000000000000000e+00 0.000000000000000e+00 0.000000000000000e+00
0.000000000000000e+00 0.000000000000000e+00 0.000000000000000e+00

0.000000000000000e+00 0.000000000000000e+00 0.000000000000000e+00
0.000000000000000e+00 0.000000000000000e+00 0.000000000000000e+00
0.000000000000000e+00 0.000000000000000e+00 0.000000000000000e+00

0.000000000000000e+00 0.000000000000000e+00 0.000000000000000e+00
0.000000000000000e+00 0.000000000000000e+00 0.000000000000000e+00
0.000000000000000e+00 0.000000000000000e+00 0.000000000000000e+00

0.000000000000000e+00 0.000000000000000e+00 0.000000000000000e+00
0.000000000000000e+00 0.000000000000000e+00 0.000000000000000e+00
0.000000000000000e+00 0.000000000000000e+00 0.000000000000000e+00

0.000000000000000e+00 0.000000000000000e+00 0.000000000000000e+00
0.000000000000000e+00 0.000000000000000e+00 0.000000000000000e+00
0.000000000000000e+00 0.000000000000000e+00 0.000000000000000e+00

0.000000000000000e+00 0.000000000000000e+00 0.000000000000000e+00
0.000000000000000e+00 0.000000000000000e+00 0.000000000000000e+00
0.000000000000000e+00 0.000000000000000e+00 0.000000000000000e+00

0.000000000000000e+00 0.000000000000000e+00 0.000000000000000e+00
0.000000000000000e+00 0.000000000000000e+00 0.000000000000000e+00
0.000000000000000e+00 0.000000000000000e+00 0.000000000000000e+00

0.000000000000000e+00 0.000000000000000e+00 0.000000000000000e+00
0.000000000000000e+00 0.000000000000000e+00 0.000000000000000e+00
0.000000000000000e+00 0.000000000000000e+00 0.000000000000000e+00

0.000000000000000e+00 0.000000000000000e+00 0.000000000000000e+00
0.000000000000000e+00 0.000000000000000e+00 0.000000000000000e+00
0.000000000000000e+00 0.000000000000000e+00 0.000000000000000e+00

0.000000000000000e+00 0.000000000000000e+00 0.000000000000000e+00
0.000000000000000e+00 0.000000000000000e+00 0.000000000000000e+00
0.000000000000000e+00 0.000000000000000e+00 0.000000000000000e+00

0.000000000000000e+00 0.000000000000000e+00 0.000000000000000e+00
0.000000000000000e+00 0.000000000000000e+00 0.000000000000000e+00
0.000000000000000e+00 0.000000000000000e+00 0.000000000000000e+00

0.000000000000000e+00 0.000000000000000e+00 0.000000000000000e+00
0.000000000000000e+00 0.000000000000000e+00 0.000000000000000e+00
0.000000000000000e+00 0.000000000000000e+00 0.000000000000000e+00

0.000000000000000e+00 0.000000000000000e+00 0.000000000000000e+00
0.000000000000000e+00 0.000000000000000e+00 0.000000000000000e+00
0.000000000000000e+00 0.000000000000000e+00 0.000000000000000e+00

0.000000000000000e+00 0.000000000000000e+00 0.000000000000000e+00
0.000000000000000e+00 0.000000000000000e+00 0.000000000000000e+00
0.000000000000000e+00 0.000000000000000e+00 0.000000000000000e+00

0.000000000000000e+00 0.000000000000000e+00 0.000000000000000e+00
0.000000000000000e+00 0.000000000000000e+00 0.000000000000000e+00
0.000000000000000e+00 0.000000000000000e+00 0.000000000000000e+00

0.000000000000000e+00 0.000000000000000e+00 0.000000000000000e+00
0.000000000000000e+00 0.000000000000000e+00 0.000000000000000e+00
0.000000000000000e+00 0.000000000000000e+00 0.000000000000000e+00

0.000000000000000e+00 0.000000000000000e+00 0.000000000000000e+00
0.000000000000000e+00 0.000000000000000e+00 0.000000000000000e+00
0.000000000000000e+00 0.000000000000000e+00 0.000000000000000e+00

0.000000000000000e+00 0.000000000000000e+00 0.000000000000000e+00
0.000000000000000e+00 0.000000000000000e+00 0.000000000000000e+00
0.000000000000000e+00 0.000000000000000e+00 0.000000000000000e+00

0.000000000000000e+00 0.000000000000000e+00 0.000000000000000e+00
0.000000000000000e+00 0.000000000000000e+00 0.000000000000000e+00
0.000000000000000e+00 0.000000000000000e+00 0.000000000000000e+00

0.000000000000000e+00 0.000000000000000e+00 0.000000000000000e+00
0.000000000000000e+00 0.000000000000000e+00 0.000000000000000e+00
0.000000000000000e+00 0.000000000000000e+00 0.000000000000000e+00

0.000000000000000e+00 0.000000000000000e+00 0.000000000000000e+00
0.000000000000000e+00 0.000000000000000e+00 0.000000000000000e+00
0.000000000000000e+00 0.000000000000000e+00 0.000000000000000e+00

0.000000000000000e+00 0.000000000000000e+00 0.000000000000000e+00
0.000000000000000e+00 0.000000000000000e+00 0.000000000000000e+00
0.000000000000000e+00 0.000000000000000e+00 0.000000000000000e+00

0.000000000000000e+00 0.000000000000000e+00 0.000000000000000e+00
0.000000000000000e+00 0.000000000000000e+00 0.000000000000000e+00
0.000000000000000e+00 0.000000000000000e+00 0.000000000000000e+00

0.000000000000000e+00 0.000000000000000e+00 0.000000000000000e+00
0.000000000000000e+00 0.000000000000000e+00 0.000000000000000e+00
0.000000000000000e+00 0.000000000000000e+00 0.000000000000000e+00

0.000000000000000e+00 0.000000000000000e+00 0.000000000000000e+00
0.000000000000000e+00 0.000000000000000e+00 0.000000000000000e+00
0.000000000000000e+00 0.000000000000000e+00 0.000000000000000e+00

0.000000000000000e+00 0.000000000000000e+00 0.000000000000000e+00
0.000000000000000e+00 0.000000000000000e+00 0.000000000000000e+00
0.000000000000000e+00 0.000000000000000e+00 0.000000000000000e+00

0.000000000000000e+00 0.000000000000000e+00 0.000000000000000e+00
0.000000000000000e+00 0.000000000000000e+00 0.000000000000000e+00
0.000000000000000e+00 0.000000000000000e+00 0.000000000000000e+00

0.000000000000000e+00 0.000000000000000e+00 0.000000000000000e+00
0.000000000000000e+00 0.000000000000000e+00 0.000000000000000e+00
0.000000000000000e+00 0.000000000000000e+00 0.000000000000000e+00

0.000000000000000e+00 0.000000000000000e+00 0.000000000000000e+00
0.000000000000000e+00 0.000000000000000e+00 0.000000000000000e+00
0.000000000000000e+00 0.000000000000000e+00 0.000000000000000e+00

0.000000000000000e+00 0.000000000000000e+00 0.000000000000000e+00
0.000000000000000e+00 0.000000000000000e+00 0.000000000000000e+00
0.000000000000000e+00 0.000000000000000e+00 0.000000000000000e+00

0.000000000000000e+00 0.000000000000000e+00 0.000000000000000e+00
0.000000000000000e+00 0.000000000000000e+00 0.000000000000000e+00
0.000000000000000e+00 0.000000000000000e+00 0.000000000000000e+00

0.000000000000000e+00 0.000000000000000e+00 0.000000000000000e+00
0.000000000000000e+00 0.000000000000000e+00 0.000000000000000e+00
0.000000000000000e+00 0.000000000000000e+00 0.000000000000000e+00

0.000000000000000e+00 0.000000000000000e+00 0.000000000000000e+00
0.000000000000000e+00 0.000000000000000e+00 0.000000000000000e+00
0.000000000000000e+00 0.000000000000000e+00 0.000000000000000e+00

0.000000000000000e+00 0.000000000000000e+00 0.000000000000000e+00
0.000000000000000e+00 0.000000000000000e+00 0.000000000000000e+00
0.000000000000000e+00 0.000000000000000e+00 0.000000000000000e+00

0.000000000000000e+00 0.000000000000000e+00 0.000000000000000e+00
0.000000000000000e+00 0.000000000000000e+00 0.000000000000000e+00
0.000000000000000e+00 0.000000000000000e+00 0.000000000000000e+00

0.000000000000000e+00 0.000000000000000e+00 0.000000000000000e+00
0.000000000000000e+00 0.000000000000000e+00 0.000000000000000e+00
0.000000000000000e+00 0.000000000000000e+00 0.000000000000000e+00

0.000000000000000e+00 0.000000000000000e+00 0.000000000000000e+00
0.000000000000000e+00 0.000000000000000e+00 0.000000000000000e+00
0.000000000000000e+00 0.000000000000000e+00 0.000000000000000e+00

0.000000000000000e+00 0.000000000000000e+00 0.000000000000000e+00
0.000000000000000e+00 0.000000000000000e+00 0.000000000000000e+00
0.000000000000000e+00 0.000000000000000e+00 0.000000000000000e+00

0.000000000000000e+00 0.000000000000000e+00 0.000000000000000e+00
0.000000000000000e+00 0.000000000000000e+00 0.000000000000000e+00
0.000000000000000e+00 0.000000000000000e+00 0.000000000000000e+00

0.000000000000000e+00 0.000000000000000e+00 0.000000000000000e+00
0.000000000000000e+00 0.000000000000000e+00 0.000000000000000e+00
0.000000000000000e+00 0.000000000000000e+00 0.000000000000000e+00

0.000000000000000e+00 0.000000000000000e+00 0.000000000000000e+00
0.000000000000000e+00 0.000000000000000e+00 0.000000000000000e+00
0.000000000000000e+00 0.000000000000000e+00 0.000000000000000e+00

0.000000000000000e+00 0.000000000000000e+00 0.000000000000000e+00
0.000000000000000e+00 0.000000000000000e+00 0.000000000000000e+00
0.000000000000000e+00 0.000000000000000e+00 0.000000000000000e+00

0.000000000000000e+00 0.000000000000000e+00 0.000000000000000e+00
0.000000000000000e+00 0.000000000000000e+00 0.000000000000000e+00
0.000000000000000e+00 0.000000000000000e+00 0.000000000000000e+00

0.000000000000000e+00 0.000000000000000e+00 0.000000000000000e+00
0.000000000000000e+00 0.000000000000000e+00 0.000000000000000e+00
0.000000000000000e+00 0.000000000000000e+00 0.000000000000000e+00

0.000000000000000e+00 0.000000000000000e+00 0.000000000000000e+00
0.000000000000000e+00 0.000000000000000e+00 0.000000000000000e+00
0.000000000000000e+00 0.000000000000000e+00 0.000000000000000e+00

0.000000000000000e+00 0.000000000000000e+00 0.000000000000000e+00
0.000000000000000e+00 0.000000000000000e+00 0.000000000000000e+00
0.000000000000000e+00 0.000000000000000e+00 0.000000000000000e+00

0.000000000000000e+00 0.000000000000000e+00 0.000000000000000e+00
0.000000000000000e+00 0.000000000000000e+00 0.000000000000000e+00
0.000000000000000e+00 0.000000000000000e+00 0.000000000000000e+00

0.000000000000000e+00 0.000000000000000e+00 0.000000000000000e+00
0.000000000000000e+00 0.000000000000000e+00 0.000000000000000e+00
0.000000000000000e+00 0.000000000000000e+00 0.000000000000000e+00

0.000000000000000e+00 0.000000000000000e+00 0.000000000000000e+00
0.000000000000000e+00 0.000000000000000e+00 0.000000000000000e+00
0.000000000000000e+00 0.000000000000000e+00 0.000000000000000e+00

0.000000000000000e+00 0.000000000000000e+00 0.000000000000000e+00
0.000000000000000e+00 0.000000000000000e+00 0.000000000000000e+00
0.000000000000000e+00 0.000000000000000e+00 0.000000000000000e+00

0.000000000000000e+00 0.000000000000000e+00 0.000000000000000e+00
0.000000000000000e+00 0.000000000000000e+00 0.000000000000000e+00
0.000000000000000e+00 0.000000000000000e+00 0.000000000000000e+00

0.000000000000000e+00 0.000000000000000e+00 0.000000000000000e+00
0.000000000000000e+00 0.000000000000000e+00 0.000000000000000e+00
0.000000000000000e+00 0.000000000000000e+00 0.000000000000000e+00

0.000000000000000e+00 0.000000000000000e+00 0.000000000000000e+00
0.000000000000000e+00 0.000000000000000e+00 0.000000000000000e+00
0.000000000000000e+00 0.000000000000000e+00 0.000000000000000e+00

0.000000000000000e+00 0.000000000000000e+00 0.000000000000000e+00
0.000000000000000e+00 0.000000000000000e+00 0.000000000000000e+00
0.000000000000000e+00 0.000000000000000e+00 0.000000000000000e+00

0.000000000000000e+00 0.000000000000000e+00 0.000000000000000e+00
0.000000000000000e+00 0.000000000000000e+00 0.000000000000000e+00
0.000000000000000e+00 0.000000000000000e+00 0.000000000000000e+00

0.000000000000000e+00 0.000000000000000e+00 0.000000000000000e+00
0.000000000000000e+00 0.000000000000000e+00 0.000000000000000e+00
0.000000000000000e+00 0.000000000000000e+00 0.000000000000000e+00

0.000000000000000e+00 0.000000000000000e+00 0.000000000000000e+00
0.000000000000000e+00 0.000000000000000e+00 0.000000000000000e+00
0.000000000000000e+00 0.000000000000000e+00 0.000000000000000e+00

0.000000000000000e+00 0.000000000000000e+00 0.000000000000000e+00
0.000000000000000e+00 0.000000000000000e+00 0.000000000000000e+00
0.000000000000000e+00 0.000000000000000e+00 0.000000000000000e+00

0.000000000000000e+00 0.000000000000000e+00 0.000000000000000e+00
0.000000000000000e+00 0.000000000000000e+00 0.000000000000000e+00
0.000000000000000e+00 0.000000000000000e+00 0.000000000000000e+00

0.000000000000000e+00 0.000000000000000e+00 0.000000000000000e+00
0.000000000000000e+00 0.000000000000000e+00 0.000000000000000e+00
0.000000000000000e+00 0.000000000000000e+00 0.000000000000000e+00

0.000000000000000e+00 0.000000000000000e+00 0.000000000000000e+00
0.000000000000000e+00 0.000000000000000e+00 0.000000000000000e+00
0.000000000000000e+00 0.000000000000000e+00 0.000000000000000e+00

0.000000000000000e+00 0.000000000000000e+00 0.000000000000000e+00
0.000000000000000e+00 0.000000000000000e+00 0.000000000000000e+00
0.000000000000000e+00 0.000000000000000e+00 0.000000000000000e+00

0.000000000000000e+00 0.000000000000000e+00 0.000000000000000e+00
0.000000000000000e+00 0.000000000000000e+00 0.000000000000000e+00
0.000000000000000e+00 0.000000000000000e+00 0.000000000000000e+00

0.000000000000000e+00 0.000000000000000e+00 0.000000000000000e+00
0.000000000000000e+00 0.000000000000000e+00 0.000000000000000e+00
0.000000000000000e+00 0.000000000000000e+00 0.000000000000000e+00

0.000000000000000e+00 0.000000000000000e+00 0.000000000000000e+00
0.000000000000000e+00 0.000000000000000e+00 0.000000000000000e+00
0.000000000000000e+00 0.000000000000000e+00 0.000000000000000e+00

0.000000000000000e+00 0.000000000000000e+00 0.000000000000000e+00
0.000000000000000e+00 0.000000000000000e+00 0.000000000000000e+00
0.000000000000000e+00 0.000000000000000e+00 0.000000000000000e+00

0.000000000000000e+00 0.000000000000000e+00 0.000000000000000e+00
0.000000000000000e+00 0.000000000000000e+00 0.000000000000000e+00
0.000000000000000e+00 0.000000000000000e+00 0.000000000000000e+00

0.000000000000000e+00 0.000000000000000e+00 0.000000000000000e+00
0.000000000000000e+00 0.000000000000000e+00 0.000000000000000e+00
0.000000000000000e+00 0.000000000000000e+00 0.000000000000000e+00

0.000000000000000e+00 0.000000000000000e+00 0.000000000000000e+00
0.000000000000000e+00 0.000000000000000e+00 0.000000000000000e+00
0.000000000000000e+00 0.000000000000000e+00 0.000000000000000e+00

0.000000000000000e+00 0.000000000000000e+00 0.000000000000000e+00
0.000000000000000e+00 0.000000000000000e+00 0.000000000000000e+00
0.000000000000000e+00 0.000000000000000e+00 0.000000000000000e+00

0.000000000000000e+00 0.000000000000000e+00 0.000000000000000e+00
0.000000000000000e+00 0.000000000000000e+00 0.000000000000000e+00
0.000000000000000e+00 0.000000000000000e+00 0.000000000000000e+00

0.000000000000000e+00 0.000000000000000e+00 0.000000000000000e+00
0.000000000000000e+00 0.000000000000000e+00 0.000000000000000e+00
0.000000000000000e+00 0.000000000000000e+00 0.000000000000000e+00

0.000000000000000e+00 0.000000000000000e+00 0.000000000000000e+00
0.000000000000000e+00 0.000000000000000e+00 0.000000000000000e+00
0.000000000000000e+00 0.000000000000000e+00 0.000000000000000e+00

0.000000000000000e+00 0.000000000000000e+00 0.000000000000000e+00
0.000000000000000e+00 0.000000000000000e+00 0.000000000000000e+00
0.000000000000000e+00 0.000000000000000e+00 0.000000000000000e+00

0.000000000000000e+00 0.000000000000000e+00 0.000000000000000e+00
0.000000000000000e+00 0.000000000000000e+00 0.000000000000000e+00
0.000000000000000e+00 0.000000000000000e+00 0.000000000000000e+00

0.000000000000000e+00 0.000000000000000e+00 0.000000000000000e+00
0.000000000000000e+00 0.000000000000000e+00 0.000000000000000e+00
0.000000000000000e+00 0.000000000000000e+00 0.000000000000000e+00

0.000000000000000e+00 0.000000000000000e+00 0.000000000000000e+00
0.000000000000000e+00 0.000000000000000e+00 0.000000000000000e+00
0.000000000000000e+00 0.000000000000000e+00 0.000000000000000e+00

0.000000000000000e+00 0.000000000000000e+00 0.000000000000000e+00
0.000000000000000e+00 0.000000000000000e+00 0.000000000000000e+00
0.000000000000000e+00 0.000000000000000e+00 0.000000000000000e+00

0.000000000000000e+00 0.000000000000000e+00 0.000000000000000e+00
0.000000000000000e+00 0.000000000000000e+00 0.000000000000000e+00
0.000000000000000e+00 0.000000000000000e+00 0.000000000000000e+00

0.000000000000000e+00 0.000000000000000e+00 0.000000000000000e+00
0.000000000000000e+00 0.000000000000000e+00 0.000000000000000e+00
0.000000000000000e+00 0.000000000000000e+00 0.000000000000000e+00

0.000000000000000e+00 0.000000000000000e+00 0.000000000000000e+00
0.000000000000000e+00 0.000000000000000e+00 0.000000000000000e+00
0.000000000000000e+00 0.000000000000000e+00 0.000000000000000e+00

0.000000000000000e+00 0.000000000000000e+00 0.000000000000000e+00
0.000000000000000e+00 0.000000000000000e+00 0.000000000000000e+00
0.000000000000000e+00 0.000000000000000e+00 0.000000000000000e+00

0.000000000000000e+00 0.000000000000000e+00 0.000000000000000e+00
0.000000000000000e+00 0.000000000000000e+00 0.000000000000000e+00
0.000000000000000e+00 0.000000000000000e+00 0.000000000000000e+00

0.000000000000000e+00 0.000000000000000e+00 0.000000000000000e+00
0.000000000000000e+00 0.000000000000000e+00 0.000000000000000e+00
0.000000000000000e+00 0.000000000000000e+00 0.000000000000000e+00

0.000000000000000e+00 0.000000000000000e+00 0.000000000000000e+00
0.000000000000000e+00 0.000000000000000e+00 0.000000000000000e+00
0.000000000000000e+00 0.000000000000000e+00 0.000000000000000e+00

0.000000000000000e+00 0.000000000000000e+00 0.000000000000000e+00
0.000000000000000e+00 0.000000000000000e+00 0.000000000000000e+00
0.000000000000000e+00 0.000000000000000e+00 0.000000000000000e+00

0.000000000000000e+00 0.000000000000000e+00 0.000000000000000e+00
0.000000000000000e+00 0.000000000000000e+00 0.000000000000000e+00
0.000000000000000e+00 0.000000000000000e+00 0.000000000000000e+00

0.000000000000000e+00 0.000000000000000e+00 0.000000000000000e+00
0.000000000000000e+00 0.000000000000000e+00 0.000000000000000e+00
0.000000000000000e+00 0.000000000000000e+00 0.000000000000000e+00

0.000000000000000e+00 0.000000000000000e+00 0.000000000000000e+00
0.000000000000000e+00 0.000000000000000e+00 0.000000000000000e+00
0.000000000000000e+00 0.000000000000000e+00 0.000000000000000e+00

0.000000000000000e+00 0.000000000000000e+00 0.000000000000000e+00
0.000000000000000e+00 0.000000000000000e+00 0.000000000000000e+00
0.000000000000000e+00 0.000000000000000e+00 0.000000000000000e+00

0.000000000000000e+00 0.000000000000000e+00 0.000000000000000e+00
0.000000000000000e+00 0.000000000000000e+00 0.000000000000000e+00
0.000000000000000e+00 0.000000000000000e+00 0.000000000000000e+00

0.000000000000000e+00 0.000000000000000e+00 0.000000000000000e+00
0.000000000000000e+00 0.000000000000000e+00 0.000000000000000e+00
0.000000000000000e+00 0.000000000000000e+00 0.000000000000000e+00

0.000000000000000e+00 0.000000000000000e+00 0.000000000000000e+00
0.000000000000000e+00 0.000000000000000e+00 0.000000000000000e+00
0.000000000000000e+00 0.000000000000000e+00 0.000000000000000e+00

0.000000000000000e+00 0.000000000000000e+00 0.000000000000000e+00
0.000000000000000e+00 0.000000000000000e+00 0.000000000000000e+00
0.000000000000000e+00 0.000000000000000e+00 0.000000000000000e+00

0.000000000000000e+00 0.000000000000000e+00 0.000000000000000e+00
0.000000000000000e+00 0.000000000000000e+00 0.000000000000000e+00
0.000000000000000e+00 0.000000000000000e+00 0.000000000000000e+00

0.000000000000000e+00 0.000000000000000e+00 0.000000000000000e+00
0.000000000000000e+00 0.000000000000000e+00 0.000000000000000e+00
0.000000000000000e+00 0.000000000000000e+00 0.000000000000000e+00

0.000000000000000e+00 0.000000000000000e+00 0.000000000000000e+00
0.000000000000000e+00 0.000000000000000e+00 0.000000000000000e+00
0.000000000000000e+00 0.000000000000000e+00 0.000000000000000e+00

0.000000000000000e+00 0.000000000000000e+00 0.000000000000000e+00
0.000000000000000e+00 0.000000000000000e+00 0.000000000000000e+00
0.000000000000000e+00 0.000000000000000e+00 0.000000000000000e+00

0.000000000000000e+00 0.000000000000000e+00 0.000000000000000e+00
0.000000000000000e+00 0.000000000000000e+00 0.000000000000000e+00
0.000000000000000e+00 0.000000000000000e+00 0.000000000000000e+00

0.000000000000000e+00 0.000000000000000e+00 0.000000000000000e+00
0.000000000000000e+00 0.000000000000000e+00 0.000000000000000e+00
0.000000000000000e+00 0.000000000000000e+00 0.000000000000000e+00

0.000000000000000e+00 0.000000000000000e+00 0.000000000000000e+00
0.000000000000000e+00 0.000000000000000e+00 0.000000000000000e+00
0.000000000000000e+00 0.000000000000000e+00 0.000000000000000e+00

0.000000000000000e+00 0.000000000000000e+00 0.000000000000000e+00
0.000000000000000e+00 0.000000000000000e+00 0.000000000000000e+00
0.000000000000000e+00 0.000000000000000e+00 0.000000000000000e+00

0.000000000000000e+00 0.000000000000000e+00 0.000000000000000e+00
0.000000000000000e+00 0.000000000000000e+00 0.000000000000000e+00
0.000000000000000e+00 0.000000000000000e+00 0.000000000000000e+00

0.000000000000000e+00 0.000000000000000e+00 0.000000000000000e+00
0.000000000000000e+00 0.000000000000000e+00 0.000000000000000e+00
0.000000000000000e+00 0.000000000000000e+00 0.000000000000000e+00

0.000000000000000e+00 0.000000000000000e+00 0.000000000000000e+00
0.000000000000000e+00 0.000000000000000e+00 0.000000000000000e+00
0.000000000000000e+00 0.000000000000000e+00 0.000000000000000e+00

0.000000000000000e+00 0.000000000000000e+00 0.000000000000000e+00
0.000000000000000e+00 0.000000000000000e+00 0.000000000000000e+00
0.000000000000000e+00 0.000000000000000e+00 0.000000000000000e+00

0.000000000000000e+00 0.000000000000000e+00 0.000000000000000e+00
0.000000000000000e+00 0.000000000000000e+00 0.000000000000000e+00
0.000000000000000e+00 0.000000000000000e+00 0.000000000000000e+00

0.000000000000000e+00 0.000000000000000e+00 0.000000000000000e+00
0.000000000000000e+00 0.000000000000000e+00 0.000000000000000e+00
0.000000000000000e+00 0.000000000000000e+00 0.000000000000000e+00

0.000000000000000e+00 0.000000000000000e+00 0.000000000000000e+00
0.000000000000000e+00 0.000000000000000e+00 0.000000000000000e+00
0.000000000000000e+00 0.000000000000000e+00 0.000000000000000e+00

0.000000000000000e+00 0.000000000000000e+00 0.000000000000000e+00
0.000000000000000e+00 0.000000000000000e+00 0.000000000000000e+00
0.000000000000000e+00 0.000000000000000e+00 0.000000000000000e+00

0.000000000000000e+00 0.000000000000000e+00 0.000000000000000e+00
0.000000000000000e+00 0.000000000000000e+00 0.000000000000000e+00
0.000000000000000e+00 0.000000000000000e+00 0.000000000000000e+00

0.000000000000000e+00 0.000000000000000e+00 0.000000000000000e+00
0.000000000000000e+00 0.000000000000000e+00 0.000000000000000e+00
0.000000000000000e+00 0.000000000000000e+00 0.000000000000000e+00

0.000000000000000e+00 0.000000000000000e+00 0.000000000000000e+00
0.000000000000000e+00 0.000000000000000e+00 0.000000000000000e+00
0.000000000000000e+00 0.000000000000000e+00 0.000000000000000e+00

0.000000000000000e+00 0.000000000000000e+00 0.000000000000000e+00
0.000000000000000e+00 0.000000000000000e+00 0.000000000000000e+00
0.000000000000000e+00 0.000000000000000e+00 0.000000000000000e+00

0.000000000000000e+00 0.000000000000000e+00 0.000000000000000e+00
0.000000000000000e+00 0.000000000000000e+00 0.000000000000000e+00
0.000000000000000e+00 0.000000000000000e+00 0.000000000000000e+00

0.000000000000000e+00 0.000000000000000e+00 0.000000000000000e+00
0.000000000000000e+00 0.000000000000000e+00 0.000000000000000e+00
0.000000000000000e+00 0.000000000000000e+00 0.000000000000000e+00

0.000000000000000e+00 0.000000000000000e+00 0.000000000000000e+00
0.000000000000000e+00 0.000000000000000e+00 0.000000000000000e+00
0.000000000000000e+00 0.000000000000000e+00 0.000000000000000e+00

0.000000000000000e+00 0.000000000000000e+00 0.000000000000000e+00
0.000000000000000e+00 0.000000000000000e+00 0.000000000000000e+00
0.000000000000000e+00 0.000000000000000e+00 0.000000000000000e+00

0.000000000000000e+00 0.000000000000000e+00 0.000000000000000e+00
0.000000000000000e+00 0.000000000000000e+00 0.000000000000000e+00
0.000000000000000e+00 0.000000000000000e+00 0.000000000000000e+00

0.000000000000000e+00 0.000000000000000e+00 0.000000000000000e+00
0.000000000000000e+00 0.000000000000000e+00 0.000000000000000e+00
0.000000000000000e+00 0.000000000000000e+00 0.000000000000000e+00

0.000000000000000e+00 0.000000000000000e+00 0.000000000000000e+00
0.000000000000000e+00 0.000000000000000e+00 0.000000000000000e+00
0.000000000000000e+00 0.000000000000000e+00 0.000000000000000e+00

0.000000000000000e+00 0.000000000000000e+00 0.000000000000000e+00
0.000000000000000e+00 0.000000000000000e+00 0.000000000000000e+00
0.000000000000000e+00 0.000000000000000e+00 0.000000000000000e+00

0.000000000000000e+00 0.000000000000000e+00 0.000000000000000e+00
0.000000000000000e+00 0.000000000000000e+00 0.000000000000000e+00
0.000000000000000e+00 0.000000000000000e+00 0.000000000000000e+00

0.000000000000000e+00 0.000000000000000e+00 0.000000000000000e+00
0.000000000000000e+00 0.000000000000000e+00 0.000000000000000e+00
0.000000000000000e+00 0.000000000000000e+00 0.000000000000000e+00

0.000000000000000e+00 0.000000000000000e+00 0.000000000000000e+00
0.000000000000000e+00 0.000000000000000e+00 0.000000000000000e+00
0.000000000000000e+00 0.000000000000000e+00 0.000000000000000e+00

0.000000000000000e+00 0.000000000000000e+00 0.000000000000000e+00
0.000000000000000e+00 0.000000000000000e+00 0.000000000000000e+00
0.000000000000000e+00 0.000000000000000e+00 0.000000000000000e+00

0.000000000000000e+00 0.000000000000000e+00 0.000000000000000e+00
0.000000000000000e+00 0.000000000000000e+00 0.000000000000000e+00
0.000000000000000e+00 0.000000000000000e+00 0.000000000000000e+00

0.000000000000000e+00 0.000000000000000e+00 0.000000000000000e+00
0.000000000000000e+00 0.000000000000000e+00 0.000000000000000e+00
0.000000000000000e+00 0.000000000000000e+00 0.000000000000000e+00

0.000000000000000e+00 0.000000000000000e+00 0.000000000000000e+00
0.000000000000000e+00 0.000000000000000e+00 0.000000000000000e+00
0.000000000000000e+00 0.000000000000000e+00 0.000000000000000e+00

0.000000000000000e+00 0.000000000000000e+00 0.000000000000000e+00
0.000000000000000e+00 0.000000000000000e+00 0.000000000000000e+00
0.000000000000000e+00 0.000000000000000e+00 0.000000000000000e+00

0.000000000000000e+00 0.000000000000000e+00 0.000000000000000e+00
0.000000000000000e+00 0.000000000000000e+00 0.000000000000000e+00
0.000000000000000e+00 0.000000000000000e+00 0.000000000000000e+00

0.000000000000000e+00 0.000000000000000e+00 0.000000000000000e+00
0.000000000000000e+00 0.000000000000000e+00 0.000000000000000e+00
0.000000000000000e+00 0.000000000000000e+00 0.000000000000000e+00

0.000000000000000e+00 0.000000000000000e+00 0.000000000000000e+00
0.000000000000000e+00 0.000000000000000e+00 0.000000000000000e+00
0.000000000000000e+00 0.000000000000000e+00 0.000000000000000e+00

0.000000000000000e+00 0.000000000000000e+00 0.000000000000000e+00
0.000000000000000e+00 0.000000000000000e+00 0.000000000000000e+00
0.000000000000000e+00 0.000000000000000e+00 0.000000000000000e+00

0.000000000000000e+00 0.000000000000000e+00 0.000000000000000e+00
0.000000000000000e+00 0.000000000000000e+00 0.000000000000000e+00
0.000000000000000e+00 0.000000000000000e+00 0.000000000000000e+00

0.000000000000000e+00 0.000000000000000e+00 0.000000000000000e+00
0.000000000000000e+00 0.000000000000000e+00 0.000000000000000e+00
0.000000000000000e+00 0.000000000000000e+00 0.000000000000000e+00

0.000000000000000e+00 0.000000000000000e+00 0.000000000000000e+00
0.000000000000000e+00 0.000000000000000e+00 0.000000000000000e+00
0.000000000000000e+00 0.000000000000000e+00 0.000000000000000e+00

0.000000000000000e+00 0.000000000000000e+00 0.000000000000000e+00
0.000000000000000e+00 0.000000000000000e+00 0.000000000000000e+00
0.000000000000000e+00 0.000000000000000e+00 0.000000000000000e+00

0.000000000000000e+00 0.000000000000000e+00 0.000000000000000e+00
0.000000000000000e+00 0.000000000000000e+00 0.000000000000000e+00
0.000000000000000e+00 0.000000000000000e+00 0.000000000000000e+00

0.000000000000000e+00 0.000000000000000e+00 0.000000000000000e+00
0.000000000000000e+00 0.000000000000000e+00 0.000000000000000e+00
0.000000000000000e+00 0.000000000000000e+00 0.000000000000000e+00

0.000000000000000e+00 0.000000000000000e+00 0.000000000000000e+00
0.000000000000000e+00 0.000000000000000e+00 0.000000000000000e+00
0.000000000000000e+00 0.000000000000000e+00 0.000000000000000e+00

0.000000000000000e+00 0.000000000000000e+00 0.000000000000000e+00
0.000000000000000e+00 0.000000000000000e+00 0.000000000000000e+00
0.000000000000000e+00 0.000000000000000e+00 0.000000000000000e+00

0.000000000000000e+00 0.000000000000000e+00 0.000000000000000e+00
0.000000000000000e+00 0.000000000000000e+00 0.000000000000000e+00
0.000000000000000e+00 0.000000000000000e+00 0.000000000000000e+00

0.000000000000000e+00 0.000000000000000e+00 0.000000000000000e+00
0.000000000000000e+00 0.000000000000000e+00 0.000000000000000e+00
0.000000000000000e+00 0.000000000000000e+00 0.000000000000000e+00

0.000000000000000e+00 0.000000000000000e+00 0.000000000000000e+00
0.000000000000000e+00 0.000000000000000e+00 0.000000000000000e+00
0.000000000000000e+00 0.000000000000000e+00 0.000000000000000e+00

0.000000000000000e+00 0.000000000000000e+00 0.000000000000000e+00
0.000000000000000e+00 0.000000000000000e+00 0.000000000000000e+00
0.000000000000000e+00 0.000000000000000e+00 0.000000000000000e+00

0.000000000000000e+00 0.000000000000000e+00 0.000000000000000e+00
0.000000000000000e+00 0.000000000000000e+00 0.000000000000000e+00
0.000000000000000e+00 0.000000000000000e+00 0.000000000000000e+00

0.000000000000000e+00 0.000000000000000e+00 0.000000000000000e+00
0.000000000000000e+00 0.000000000000000e+00 0.000000000000000e+00
0.000000000000000e+00 0.000000000000000e+00 0.000000000000000e+00

0.000000000000000e+00 0.000000000000000e+00 0.000000000000000e+00
0.000000000000000e+00 0.000000000000000e+00 0.000000000000000e+00
0.000000000000000e+00 0.000000000000000e+00 0.000000000000000e+00

0.000000000000000e+00 0.000000000000000e+00 0.000000000000000e+00
0.000000000000000e+00 0.000000000000000e+00 0.000000000000000e+00
0.000000000000000e+00 0.000000000000000e+00 0.000000000000000e+00

0.000000000000000e+00 0.000000000000000e+00 0.000000000000000e+00
0.000000000000000e+00 0.000000000000000e+00 0.000000000000000e+00
0.000000000000000e+00 0.000000000000000e+00 0.000000000000000e+00

0.000000000000000e+00 0.000000000000000e+00 0.000000000000000e+00
0.000000000000000e+00 0.000000000000000e+00 0.000000000000000e+00
0.000000000000000e+00 0.000000000000000e+00 0.000000000000000e+00

0.000000000000000e+00 0.000000000000000e+00 0.000000000000000e+00
0.000000000000000e+00 0.000000000000000e+00 0.000000000000000e+00
0.000000000000000e+00 0.000000000000000e+00 0.000000000000000e+00

0.000000000000000e+00 0.000000000000000e+00 0.000000000000000e+00
0.000000000000000e+00 0.000000000000000e+00 0.000000000000000e+00
0.000000000000000e+00 0.000000000000000e+00 0.000000000000000e+00

0.000000000000000e+00 0.000000000000000e+00 0.000000000000000e+00
0.000000000000000e+00 0.000000000000000e+00 0.000000000000000e+00
0.000000000000000e+00 0.000000000000000e+00 0.000000000000000e+00

0.000000000000000e+00 0.000000000000000e+00 0.000000000000000e+00
0.000000000000000e+00 0.000000000000000e+00 0.000000000000000e+00
0.000000000000000e+00 0.000000000000000e+00 0.000000000000000e+00

0.000000000000000e+00 0.000000000000000e+00 0.000000000000000e+00
0.000000000000000e+00 0.000000000000000e+00 0.000000000000000e+00
0.000000000000000e+00 0.000000000000000e+00 0.000000000000000e+00

0.000000000000000e+00 0.000000000000000e+00 0.000000000000000e+00
0.000000000000000e+00 0.000000000000000e+00 0.000000000000000e+00
0.000000000000000e+00 0.000000000000000e+00 0.000000000000000e+00

0.000000000000000e+00 0.000000000000000e+00 0.000000000000000e+00
0.000000000000000e+00 0.000000000000000e+00 0.000000000000000e+00
0.000000000000000e+00 0.000000000000000e+00 0.000000000000000e+00

0.000000000000000e+00 0.000000000000000e+00 0.000000000000000e+00
0.000000000000000e+00 0.000000000000000e+00 0.000000000000000e+00
0.000000000000000e+00 0.000000000000000e+00 0.000000000000000e+00

0.000000000000000e+00 0.000000000000000e+00 0.000000000000000e+00
0.000000000000000e+00 0.000000000000000e+00 0.000000000000000e+00
0.000000000000000e+00 0.000000000000000e+00 0.000000000000000e+00

0.000000000000000e+00 0.000000000000000e+00 0.000000000000000e+00
0.000000000000000e+00 0.000000000000000e+00 0.000000000000000e+00
0.000000000000000e+00 0.000000000000000e+00 0.000000000000000e+00

0.000000000000000e+00 0.000000000000000e+00 0.000000000000000e+00
0.000000000000000e+00 0.000000000000000e+00 0.000000000000000e+00
0.000000000000000e+00 0.000000000000000e+00 0.000000000000000e+00

0.000000000000000e+00 0.000000000000000e+00 0.000000000000000e+00
0.000000000000000e+00 0.000000000000000e+00 0.000000000000000e+00
0.000000000000000e+00 0.000000000000000e+00 0.000000000000000e+00

0.000000000000000e+00 0.000000000000000e+00 0.000000000000000e+00
0.000000000000000e+00 0.000000000000000e+00 0.000000000000000e+00
0.000000000000000e+00 0.000000000000000e+00 0.000000000000000e+00

0.000000000000000e+00 0.000000000000000e+00 0.000000000000000e+00
0.000000000000000e+00 0.000000000000000e+00 0.000000000000000e+00
0.000000000000000e+00 0.000000000000000e+00 0.000000000000000e+00

0.000000000000000e+00 0.000000000000000e+00 0.000000000000000e+00
0.000000000000000e+00 0.000000000000000e+00 0.000000000000000e+00
0.000000000000000e+00 0.000000000000000e+00 0.000000000000000e+00

0.000000000000000e+00 0.000000000000000e+00 0.000000000000000e+00
0.000000000000000e+00 0.000000000000000e+00 0.000000000000000e+00
0.000000000000000e+00 0.000000000000000e+00 0.000000000000000e+00

0.000000000000000e+00 0.000000000000000e+00 0.000000000000000e+00
0.000000000000000e+00 0.000000000000000e+00 0.000000000000000e+00
0.000000000000000e+00 0.000000000000000e+00 0.000000000000000e+00

0.000000000000000e+00 0.000000000000000e+00 0.000000000000000e+00
0.000000000000000e+00 0.000000000000000e+00 0.000000000000000e+00
0.000000000000000e+00 0.000000000000000e+00 0.000000000000000e+00

0.000000000000000e+00 0.000000000000000e+00 0.000000000000000e+00
0.000000000000000e+00 0.000000000000000e+00 0.000000000000000e+00
0.000000000000000e+00 0.000000000000000e+00 0.000000000000000e+00

0.000000000000000e+00 0.000000000000000e+00 0.000000000000000e+00
0.000000000000000e+00 0.000000000000000e+00 0.000000000000000e+00
0.000000000000000e+00 0.000000000000000e+00 0.000000000000000e+00

0.000000000000000e+00 0.000000000000000e+00 0.000000000000000e+00
0.000000000000000e+00 0.000000000000000e+00 0.000000000000000e+00
0.000000000000000e+00 0.000000000000000e+00 0.000000000000000e+00

0.000000000000000e+00 0.000000000000000e+00 0.000000000000000e+00
0.000000000000000e+00 0.000000000000000e+00 0.000000000000000e+00
0.000000000000000e+00 0.000000000000000e+00 0.000000000000000e+00

0.000000000000000e+00 0.000000000000000e+00 0.000000000000000e+00
0.000000000000000e+00 0.000000000000000e+00 0.000000000000000e+00
0.000000000000000e+00 0.000000000000000e+00 0.000000000000000e+00

0.000000000000000e+00 0.000000000000000e+00 0.000000000000000e+00
0.000000000000000e+00 0.000000000000000e+00 0.000000000000000e+00
0.000000000000000e+00 0.000000000000000e+00 0.000000000000000e+00

0.000000000000000e+00 0.000000000000000e+00 0.000000000000000e+00
0.000000000000000e+00 0.000000000000000e+00 0.000000000000000e+00
0.000000000000000e+00 0.000000000000000e+00 0.000000000000000e+00

0.000000000000000e+00 0.000000000000000e+00 0.000000000000000e+00
0.000000000000000e+00 0.000000000000000e+00 0.000000000000000e+00
0.000000000000000e+00 0.000000000000000e+00 0.000000000000000e+00

0.000000000000000e+00 0.000000000000000e+00 0.000000000000000e+00
0.000000000000000e+00 0.000000000000000e+00 0.000000000000000e+00
0.000000000000000e+00 0.000000000000000e+00 0.000000000000000e+00

0.000000000000000e+00 0.000000000000000e+00 0.000000000000000e+00
0.000000000000000e+00 0.000000000000000e+00 0.000000000000000e+00
0.000000000000000e+00 0.000000000000000e+00 0.000000000000000e+00

0.000000000000000e+00 0.000000000000000e+00 0.000000000000000e+00
0.000000000000000e+00 0.000000000000000e+00 0.000000000000000e+00
0.000000000000000e+00 0.000000000000000e+00 0.000000000000000e+00

0.000000000000000e+00 0.000000000000000e+00 0.000000000000000e+00
0.000000000000000e+00 0.000000000000000e+00 0.000000000000000e+00
0.000000000000000e+00 0.000000000000000e+00 0.000000000000000e+00

0.000000000000000e+00 0.000000000000000e+00 0.000000000000000e+00
0.000000000000000e+00 0.000000000000000e+00 0.000000000000000e+00
0.000000000000000e+00 0.000000000000000e+00 0.000000000000000e+00

0.000000000000000e+00 0.000000000000000e+00 0.000000000000000e+00
0.000000000000000e+00 0.000000000000000e+00 0.000000000000000e+00
0.000000000000000e+00 0.000000000000000e+00 0.000000000000000e+00

0.000000000000000e+00 0.000000000000000e+00 0.000000000000000e+00
0.000000000000000e+00 0.000000000000000e+00 0.000000000000000e+00
0.000000000000000e+00 0.000000000000000e+00 0.000000000000000e+00

0.000000000000000e+00 0.000000000000000e+00 0.000000000000000e+00
0.000000000000000e+00 0.000000000000000e+00 0.000000000000000e+00
0.000000000000000e+00 0.000000000000000e+00 0.000000000000000e+00

0.000000000000000e+00 0.000000000000000e+00 0.000000000000000e+00
0.000000000000000e+00 0.000000000000000e+00 0.000000000000000e+00
0.000000000000000e+00 0.000000000000000e+00 0.000000000000000e+00

0.000000000000000e+00 0.000000000000000e+00 0.000000000000000e+00
0.000000000000000e+00 0.000000000000000e+00 0.000000000000000e+00
0.000000000000000e+00 0.000000000000000e+00 0.000000000000000e+00

0.000000000000000e+00 0.000000000000000e+00 0.000000000000000e+00
0.000000000000000e+00 0.000000000000000e+00 0.000000000000000e+00
0.000000000000000e+00 0.000000000000000e+00 0.000000000000000e+00

0.000000000000000e+00 0.000000000000000e+00 0.000000000000000e+00
0.000000000000000e+00 0.000000000000000e+00 0.000000000000000e+00
0.000000000000000e+00 0.000000000000000e+00 0.000000000000000e+00

0.000000000000000e+00 0.000000000000000e+00 0.000000000000000e+00
0.000000000000000e+00 0.000000000000000e+00 0.000000000000000e+00
0.000000000000000e+00 0.000000000000000e+00 0.000000000000000e+00

0.000000000000000e+00 0.000000000000000e+00 0.000000000000000e+00
0.000000000000000e+00 0.000000000000000e+00 0.000000000000000e+00
0.000000000000000e+00 0.000000000000000e+00 0.000000000000000e+00

0.000000000000000e+00 0.000000000000000e+00 0.000000000000000e+00
0.000000000000000e+00 0.000000000000000e+00 0.000000000000000e+00
0.000000000000000e+00 0.000000000000000e+00 0.000000000000000e+00

0.000000000000000e+00 0.000000000000000e+00 0.000000000000000e+00
0.000000000000000e+00 0.000000000000000e+00 0.000000000000000e+00
0.000000000000000e+00 0.000000000000000e+00 0.000000000000000e+00

0.000000000000000e+00 0.000000000000000e+00 0.000000000000000e+00
0.000000000000000e+00 0.000000000000000e+00 0.000000000000000e+00
0.000000000000000e+00 0.000000000000000e+00 0.000000000000000e+00

0.000000000000000e+00 0.000000000000000e+00 0.000000000000000e+00
0.000000000000000e+00 0.000000000000000e+00 0.000000000000000e+00
0.000000000000000e+00 0.000000000000000e+00 0.000000000000000e+00

0.000000000000000e+00 0.000000000000000e+00 0.000000000000000e+00
0.000000000000000e+00 0.000000000000000e+00 0.000000000000000e+00
0.000000000000000e+00 0.000000000000000e+00 0.000000000000000e+00

0.000000000000000e+00 0.000000000000000e+00 0.000000000000000e+00
0.000000000000000e+00 0.000000000000000e+00 0.000000000000000e+00
0.000000000000000e+00 0.000000000000000e+00 0.000000000000000e+00

0.000000000000000e+00 0.000000000000000e+00 0.000000000000000e+00
0.000000000000000e+00 0.000000000000000e+00 0.000000000000000e+00
0.000000000000000e+00 0.000000000000000e+00 0.000000000000000e+00

0.000000000000000e+00 0.000000000000000e+00 0.000000000000000e+00
0.000000000000000e+00 0.000000000000000e+00 0.000000000000000e+00
0.000000000000000e+00 0.000000000000000e+00 0.000000000000000e+00

0.000000000000000e+00 0.000000000000000e+00 0.000000000000000e+00
0.000000000000000e+00 0.000000000000000e+00 0.000000000000000e+00
0.000000000000000e+00 0.000000000000000e+00 0.000000000000000e+00

0.000000000000000e+00 0.000000000000000e+00 0.000000000000000e+00
0.000000000000000e+00 0.000000000000000e+00 0.000000000000000e+00
0.000000000000000e+00 0.000000000000000e+00 0.000000000000000e+00

0.000000000000000e+00 0.000000000000000e+00 0.000000000000000e+00
0.000000000000000e+00 0.000000000000000e+00 0.000000000000000e+00
0.000000000000000e+00 0.000000000000000e+00 0.000000000000000e+00

0.000000000000000e+00 0.000000000000000e+00 0.000000000000000e+00
0.000000000000000e+00 0.000000000000000e+00 0.000000000000000e+00
0.000000000000000e+00 0.000000000000000e+00 0.000000000000000e+00

0.000000000000000e+00 0.000000000000000e+00 0.000000000000000e+00
0.000000000000000e+00 0.000000000000000e+00 0.000000000000000e+00
0.000000000000000e+00 0.000000000000000e+00 0.000000000000000e+00

0.000000000000000e+00 0.000000000000000e+00 0.000000000000000e+00
0.000000000000000e+00 0.000000000000000e+00 0.000000000000000e+00
0.000000000000000e+00 0.000000000000000e+00 0.000000000000000e+00

0.000000000000000e+00 0.000000000000000e+00 0.000000000000000e+00
0.000000000000000e+00 0.000000000000000e+00 0.000000000000000e+00
0.000000000000000e+00 0.000000000000000e+00 0.000000000000000e+00

0.000000000000000e+00 0.000000000000000e+00 0.000000000000000e+00
0.000000000000000e+00 0.000000000000000e+00 0.000000000000000e+00
0.000000000000000e+00 0.000000000000000e+00 0.000000000000000e+00

0.000000000000000e+00 0.000000000000000e+00 0.000000000000000e+00
0.000000000000000e+00 0.000000000000000e+00 0.000000000000000e+00
0.000000000000000e+00 0.000000000000000e+00 0.000000000000000e+00

0.000000000000000e+00 0.000000000000000e+00 0.000000000000000e+00
0.000000000000000e+00 0.000000000000000e+00 0.000000000000000e+00
0.000000000000000e+00 0.000000000000000e+00 0.000000000000000e+00

0.000000000000000e+00 0.000000000000000e+00 0.000000000000000e+00
0.000000000000000e+00 0.000000000000000e+00 0.000000000000000e+00
0.000000000000000e+00 0.000000000000000e+00 0.000000000000000e+00

0.000000000000000e+00 0.000000000000000e+00 0.000000000000000e+00
0.000000000000000e+00 0.000000000000000e+00 0.000000000000000e+00
0.000000000000000e+00 0.000000000000000e+00 0.000000000000000e+00

0.000000000000000e+00 0.000000000000000e+00 0.000000000000000e+00
0.000000000000000e+00 0.000000000000000e+00 0.000000000000000e+00
0.000000000000000e+00 0.000000000000000e+00 0.000000000000000e+00

0.000000000000000e+00 0.000000000000000e+00 0.000000000000000e+00
0.000000000000000e+00 0.000000000000000e+00 0.000000000000000e+00
0.000000000000000e+00 0.000000000000000e+00 0.000000000000000e+00

0.000000000000000e+00 0.000000000000000e+00 0.000000000000000e+00
0.000000000000000e+00 0.000000000000000e+00 0.000000000000000e+00
0.000000000000000e+00 0.000000000000000e+00 0.000000000000000e+00

0.000000000000000e+00 0.000000000000000e+00 0.000000000000000e+00
0.000000000000000e+00 0.000000000000000e+00 0.000000000000000e+00
0.000000000000000e+00 0.000000000000000e+00 0.000000000000000e+00

0.000000000000000e+00 0.000000000000000e+00 0.000000000000000e+00
0.000000000000000e+00 0.000000000000000e+00 0.000000000000000e+00
0.000000000000000e+00 0.000000000000000e+00 0.000000000000000e+00

0.000000000000000e+00 0.000000000000000e+00 0.000000000000000e+00
0.000000000000000e+00 0.000000000000000e+00 0.000000000000000e+00
0.000000000000000e+00 0.000000000000000e+00 0.000000000000000e+00

0.000000000000000e+00 0.000000000000000e+00 0.000000000000000e+00
0.000000000000000e+00 0.000000000000000e+00 0.000000000000000e+00
0.000000000000000e+00 0.000000000000000e+00 0.000000000000000e+00

0.000000000000000e+00 0.000000000000000e+00 0.000000000000000e+00
0.000000000000000e+00 0.000000000000000e+00 0.000000000000000e+00
0.000000000000000e+00 0.000000000000000e+00 0.000000000000000e+00

0.000000000000000e+00 0.000000000000000e+00 0.000000000000000e+00
0.000000000000000e+00 0.000000000000000e+00 0.000000000000000e+00
0.000000000000000e+00 0.000000000000000e+00 0.000000000000000e+00

0.000000000000000e+00 0.000000000000000e+00 0.000000000000000e+00
0.000000000000000e+00 0.000000000000000e+00 0.000000000000000e+00
0.000000000000000e+00 0.000000000000000e+00 0.000000000000000e+00

0.000000000000000e+00 0.000000000000000e+00 0.000000000000000e+00
0.000000000000000e+00 0.000000000000000e+00 0.000000000000000e+00
0.000000000000000e+00 0.000000000000000e+00 0.000000000000000e+00

0.000000000000000e+00 0.000000000000000e+00 0.000000000000000e+00
0.000000000000000e+00 0.000000000000000e+00 0.000000000000000e+00
0.000000000000000e+00 0.000000000000000e+00 0.000000000000000e+00

0.000000000000000e+00 0.000000000000000e+00 0.000000000000000e+00
0.000000000000000e+00 0.000000000000000e+00 0.000000000000000e+00
0.000000000000000e+00 0.000000000000000e+00 0.000000000000000e+00

0.000000000000000e+00 0.000000000000000e+00 0.000000000000000e+00
0.000000000000000e+00 0.000000000000000e+00 0.000000000000000e+00
0.000000000000000e+00 0.000000000000000e+00 0.000000000000000e+00

0.000000000000000e+00 0.000000000000000e+00 0.000000000000000e+00
0.000000000000000e+00 0.000000000000000e+00 0.000000000000000e+00
0.000000000000000e+00 0.000000000000000e+00 0.000000000000000e+00

0.000000000000000e+00 0.000000000000000e+00 0.000000000000000e+00
0.000000000000000e+00 0.000000000000000e+00 0.000000000000000e+00
0.000000000000000e+00 0.000000000000000e+00 0.000000000000000e+00

0.000000000000000e+00 0.000000000000000e+00 0.000000000000000e+00
0.000000000000000e+00 0.000000000000000e+00 0.000000000000000e+00
0.000000000000000e+00 0.000000000000000e+00 0.000000000000000e+00

0.000000000000000e+00 0.000000000000000e+00 0.000000000000000e+00
0.000000000000000e+00 0.000000000000000e+00 0.000000000000000e+00
0.000000000000000e+00 0.000000000000000e+00 0.000000000000000e+00

0.000000000000000e+00 0.000000000000000e+00 0.000000000000000e+00
0.000000000000000e+00 0.000000000000000e+00 0.000000000000000e+00
0.000000000000000e+00 0.000000000000000e+00 0.000000000000000e+00

0.000000000000000e+00 0.000000000000000e+00 0.000000000000000e+00
0.000000000000000e+00 0.000000000000000e+00 0.000000000000000e+00
0.000000000000000e+00 0.000000000000000e+00 0.000000000000000e+00

0.000000000000000e+00 0.000000000000000e+00 0.000000000000000e+00
0.000000000000000e+00 0.000000000000000e+00 0.000000000000000e+00
0.000000000000000e+00 0.000000000000000e+00 0.000000000000000e+00

0.000000000000000e+00 0.000000000000000e+00 0.000000000000000e+00
0.000000000000000e+00 0.000000000000000e+00 0.000000000000000e+00
0.000000000000000e+00 0.000000000000000e+00 0.000000000000000e+00

0.000000000000000e+00 0.000000000000000e+00 0.000000000000000e+00
0.000000000000000e+00 0.000000000000000e+00 0.000000000000000e+00
0.000000000000000e+00 0.000000000000000e+00 0.000000000000000e+00

0.000000000000000e+00 0.000000000000000e+00 0.000000000000000e+00
0.000000000000000e+00 0.000000000000000e+00 0.000000000000000e+00
0.000000000000000e+00 0.000000000000000e+00 0.000000000000000e+00

0.000000000000000e+00 0.000000000000000e+00 0.000000000000000e+00
0.000000000000000e+00 0.000000000000000e+00 0.000000000000000e+00
0.000000000000000e+00 0.000000000000000e+00 0.000000000000000e+00

0.000000000000000e+00 0.000000000000000e+00 0.000000000000000e+00
0.000000000000000e+00 0.000000000000000e+00 0.000000000000000e+00
0.000000000000000e+00 0.000000000000000e+00 0.000000000000000e+00

0.000000000000000e+00 0.000000000000000e+00 0.000000000000000e+00
0.000000000000000e+00 0.000000000000000e+00 0.000000000000000e+00
0.000000000000000e+00 0.000000000000000e+00 0.000000000000000e+00

0.000000000000000e+00 0.000000000000000e+00 0.000000000000000e+00
0.000000000000000e+00 0.000000000000000e+00 0.000000000000000e+00
0.000000000000000e+00 0.000000000000000e+00 0.000000000000000e+00

0.000000000000000e+00 0.000000000000000e+00 0.000000000000000e+00
0.000000000000000e+00 0.000000000000000e+00 0.000000000000000e+00
0.000000000000000e+00 0.000000000000000e+00 0.000000000000000e+00

0.000000000000000e+00 0.000000000000000e+00 0.000000000000000e+00
0.000000000000000e+00 0.000000000000000e+00 0.000000000000000e+00
0.000000000000000e+00 0.000000000000000e+00 0.000000000000000e+00

0.000000000000000e+00 0.000000000000000e+00 0.000000000000000e+00
0.000000000000000e+00 0.000000000000000e+00 0.000000000000000e+00
0.000000000000000e+00 0.000000000000000e+00 0.000000000000000e+00

0.000000000000000e+00 0.000000000000000e+00 0.000000000000000e+00
0.000000000000000e+00 0.000000000000000e+00 0.000000000000000e+00
0.000000000000000e+00 0.000000000000000e+00 0.000000000000000e+00

0.000000000000000e+00 0.000000000000000e+00 0.000000000000000e+00
0.000000000000000e+00 0.000000000000000e+00 0.000000000000000e+00
0.000000000000000e+00 0.000000000000000e+00 0.000000000000000e+00

0.000000000000000e+00 0.000000000000000e+00 0.000000000000000e+00
0.000000000000000e+00 0.000000000000000e+00 0.000000000000000e+00
0.000000000000000e+00 0.000000000000000e+00 0.000000000000000e+00

0.000000000000000e+00 0.000000000000000e+00 0.000000000000000e+00
0.000000000000000e+00 0.000000000000000e+00 0.000000000000000e+00
0.000000000000000e+00 0.000000000000000e+00 0.000000000000000e+00

0.000000000000000e+00 0.000000000000000e+00 0.000000000000000e+00
0.000000000000000e+00 0.000000000000000e+00 0.000000000000000e+00
0.000000000000000e+00 0.000000000000000e+00 0.000000000000000e+00

0.000000000000000e+00 0.000000000000000e+00 0.000000000000000e+00
0.000000000000000e+00 0.000000000000000e+00 0.000000000000000e+00
0.000000000000000e+00 0.000000000000000e+00 0.000000000000000e+00

0.000000000000000e+00 0.000000000000000e+00 0.000000000000000e+00
0.000000000000000e+00 0.000000000000000e+00 0.000000000000000e+00
0.000000000000000e+00 0.000000000000000e+00 0.000000000000000e+00

0.000000000000000e+00 0.000000000000000e+00 0.000000000000000e+00
0.000000000000000e+00 0.000000000000000e+00 0.000000000000000e+00
0.000000000000000e+00 0.000000000000000e+00 0.000000000000000e+00

0.000000000000000e+00 0.000000000000000e+00 0.000000000000000e+00
0.000000000000000e+00 0.000000000000000e+00 0.000000000000000e+00
0.000000000000000e+00 0.000000000000000e+00 0.000000000000000e+00

0.000000000000000e+00 0.000000000000000e+00 0.000000000000000e+00
0.000000000000000e+00 0.000000000000000e+00 0.000000000000000e+00
0.000000000000000e+00 0.000000000000000e+00 0.000000000000000e+00

0.000000000000000e+00 0.000000000000000e+00 0.000000000000000e+00
0.000000000000000e+00 0.000000000000000e+00 0.000000000000000e+00
0.000000000000000e+00 0.000000000000000e+00 0.000000000000000e+00

0.000000000000000e+00 0.000000000000000e+00 0.000000000000000e+00
0.000000000000000e+00 0.000000000000000e+00 0.000000000000000e+00
0.000000000000000e+00 0.000000000000000e+00 0.000000000000000e+00

0.000000000000000e+00 0.000000000000000e+00 0.000000000000000e+00
0.000000000000000e+00 0.000000000000000e+00 0.000000000000000e+00
0.000000000000000e+00 0.000000000000000e+00 0.000000000000000e+00

0.000000000000000e+00 0.000000000000000e+00 0.000000000000000e+00
0.000000000000000e+00 0.000000000000000e+00 0.000000000000000e+00
0.000000000000000e+00 0.000000000000000e+00 0.000000000000000e+00

0.000000000000000e+00 0.000000000000000e+00 0.000000000000000e+00
0.000000000000000e+00 0.000000000000000e+00 0.000000000000000e+00
0.000000000000000e+00 0.000000000000000e+00 0.000000000000000e+00

0.000000000000000e+00 0.000000000000000e+00 0.000000000000000e+00
0.000000000000000e+00 0.000000000000000e+00 0.000000000000000e+00
0.000000000000000e+00 0.000000000000000e+00 0.000000000000000e+00

0.000000000000000e+00 0.000000000000000e+00 0.000000000000000e+00
0.000000000000000e+00 0.000000000000000e+00 0.000000000000000e+00
0.000000000000000e+00 0.000000000000000e+00 0.000000000000000e+00

0.000000000000000e+00 0.000000000000000e+00 0.000000000000000e+00
0.000000000000000e+00 0.000000000000000e+00 0.000000000000000e+00
0.000000000000000e+00 0.000000000000000e+00 0.000000000000000e+00

0.000000000000000e+00 0.000000000000000e+00 0.000000000000000e+00
0.000000000000000e+00 0.000000000000000e+00 0.000000000000000e+00
0.000000000000000e+00 0.000000000000000e+00 0.000000000000000e+00

0.000000000000000e+00 0.000000000000000e+00 0.000000000000000e+00
0.000000000000000e+00 0.000000000000000e+00 0.000000000000000e+00
0.000000000000000e+00 0.000000000000000e+00 0.000000000000000e+00

0.000000000000000e+00 0.000000000000000e+00 0.000000000000000e+00
0.000000000000000e+00 0.000000000000000e+00 0.000000000000000e+00
0.000000000000000e+00 0.000000000000000e+00 0.000000000000000e+00

0.000000000000000e+00 0.000000000000000e+00 0.000000000000000e+00
0.000000000000000e+00 0.000000000000000e+00 0.000000000000000e+00
0.000000000000000e+00 0.000000000000000e+00 0.000000000000000e+00

0.000000000000000e+00 0.000000000000000e+00 0.000000000000000e+00
0.000000000000000e+00 0.000000000000000e+00 0.000000000000000e+00
0.000000000000000e+00 0.000000000000000e+00 0.000000000000000e+00

0.000000000000000e+00 0.000000000000000e+00 0.000000000000000e+00
0.000000000000000e+00 0.000000000000000e+00 0.000000000000000e+00
0.000000000000000e+00 0.000000000000000e+00 0.000000000000000e+00

0.000000000000000e+00 0.000000000000000e+00 0.000000000000000e+00
0.000000000000000e+00 0.000000000000000e+00 0.000000000000000e+00
0.000000000000000e+00 0.000000000000000e+00 0.000000000000000e+00

0.000000000000000e+00 0.000000000000000e+00 0.000000000000000e+00
0.000000000000000e+00 0.000000000000000e+00 0.000000000000000e+00
0.000000000000000e+00 0.000000000000000e+00 0.000000000000000e+00

0.000000000000000e+00 0.000000000000000e+00 0.000000000000000e+00
0.000000000000000e+00 0.000000000000000e+00 0.000000000000000e+00
0.000000000000000e+00 0.000000000000000e+00 0.000000000000000e+00

0.000000000000000e+00 0.000000000000000e+00 0.000000000000000e+00
0.000000000000000e+00 0.000000000000000e+00 0.000000000000000e+00
0.000000000000000e+00 0.000000000000000e+00 0.000000000000000e+00

0.000000000000000e+00 0.000000000000000e+00 0.000000000000000e+00
0.000000000000000e+00 0.000000000000000e+00 0.000000000000000e+00
0.000000000000000e+00 0.000000000000000e+00 0.000000000000000e+00

0.000000000000000e+00 0.000000000000000e+00 0.000000000000000e+00
0.000000000000000e+00 0.000000000000000e+00 0.000000000000000e+00
0.000000000000000e+00 0.000000000000000e+00 0.000000000000000e+00

0.000000000000000e+00 0.000000000000000e+00 0.000000000000000e+00
0.000000000000000e+00 0.000000000000000e+00 0.000000000000000e+00
0.000000000000000e+00 0.000000000000000e+00 0.000000000000000e+00

0.000000000000000e+00 0.000000000000000e+00 0.000000000000000e+00
0.000000000000000e+00 0.000000000000000e+00 0.000000000000000e+00
0.000000000000000e+00 0.000000000000000e+00 0.000000000000000e+00

0.000000000000000e+00 0.000000000000000e+00 0.000000000000000e+00
0.000000000000000e+00 0.000000000000000e+00 0.000000000000000e+00
0.000000000000000e+00 0.000000000000000e+00 0.000000000000000e+00

0.000000000000000e+00 0.000000000000000e+00 0.000000000000000e+00
0.000000000000000e+00 0.000000000000000e+00 0.000000000000000e+00
0.000000000000000e+00 0.000000000000000e+00 0.000000000000000e+00

0.000000000000000e+00 0.000000000000000e+00 0.000000000000000e+00
0.000000000000000e+00 0.000000000000000e+00 0.000000000000000e+00
0.000000000000000e+00 0.000000000000000e+00 0.000000000000000e+00

0.000000000000000e+00 0.000000000000000e+00 0.000000000000000e+00
0.000000000000000e+00 0.000000000000000e+00 0.000000000000000e+00
0.000000000000000e+00 0.000000000000000e+00 0.000000000000000e+00

0.000000000000000e+00 0.000000000000000e+00 0.000000000000000e+00
0.000000000000000e+00 0.000000000000000e+00 0.000000000000000e+00
0.000000000000000e+00 0.000000000000000e+00 0.000000000000000e+00

0.000000000000000e+00 0.000000000000000e+00 0.000000000000000e+00
0.000000000000000e+00 0.000000000000000e+00 0.000000000000000e+00
0.000000000000000e+00 0.000000000000000e+00 0.000000000000000e+00

0.000000000000000e+00 0.000000000000000e+00 0.000000000000000e+00
0.000000000000000e+00 0.000000000000000e+00 0.000000000000000e+00
0.000000000000000e+00 0.000000000000000e+00 0.000000000000000e+00

0.000000000000000e+00 0.000000000000000e+00 0.000000000000000e+00
0.000000000000000e+00 0.000000000000000e+00 0.000000000000000e+00
0.000000000000000e+00 0.000000000000000e+00 0.000000000000000e+00

0.000000000000000e+00 0.000000000000000e+00 0.000000000000000e+00
0.000000000000000e+00 0.000000000000000e+00 0.000000000000000e+00
0.000000000000000e+00 0.000000000000000e+00 0.000000000000000e+00

0.000000000000000e+00 0.000000000000000e+00 0.000000000000000e+00
0.000000000000000e+00 0.000000000000000e+00 0.000000000000000e+00
0.000000000000000e+00 0.000000000000000e+00 0.000000000000000e+00

0.000000000000000e+00 0.000000000000000e+00 0.000000000000000e+00
0.000000000000000e+00 0.000000000000000e+00 0.000000000000000e+00
0.000000000000000e+00 0.000000000000000e+00 0.000000000000000e+00

0.000000000000000e+00 0.000000000000000e+00 0.000000000000000e+00
0.000000000000000e+00 0.000000000000000e+00 0.000000000000000e+00
0.000000000000000e+00 0.000000000000000e+00 0.000000000000000e+00

0.000000000000000e+00 0.000000000000000e+00 0.000000000000000e+00
0.000000000000000e+00 0.000000000000000e+00 0.000000000000000e+00
0.000000000000000e+00 0.000000000000000e+00 0.000000000000000e+00

0.000000000000000e+00 0.000000000000000e+00 0.000000000000000e+00
0.000000000000000e+00 0.000000000000000e+00 0.000000000000000e+00
0.000000000000000e+00 0.000000000000000e+00 0.000000000000000e+00

0.000000000000000e+00 0.000000000000000e+00 0.000000000000000e+00
0.000000000000000e+00 0.000000000000000e+00 0.000000000000000e+00
0.000000000000000e+00 0.000000000000000e+00 0.000000000000000e+00

0.000000000000000e+00 0.000000000000000e+00 0.000000000000000e+00
0.000000000000000e+00 0.000000000000000e+00 0.000000000000000e+00
0.000000000000000e+00 0.000000000000000e+00 0.000000000000000e+00

0.000000000000000e+00 0.000000000000000e+00 0.000000000000000e+00
0.000000000000000e+00 0.000000000000000e+00 0.000000000000000e+00
0.000000000000000e+00 0.000000000000000e+00 0.000000000000000e+00

0.000000000000000e+00 0.000000000000000e+00 0.000000000000000e+00
0.000000000000000e+00 0.000000000000000e+00 0.000000000000000e+00
0.000000000000000e+00 0.000000000000000e+00 0.000000000000000e+00

0.000000000000000e+00 0.000000000000000e+00 0.000000000000000e+00
0.000000000000000e+00 0.000000000000000e+00 0.000000000000000e+00
0.000000000000000e+00 0.000000000000000e+00 0.000000000000000e+00

0.000000000000000e+00 0.000000000000000e+00 0.000000000000000e+00
0.000000000000000e+00 0.000000000000000e+00 0.000000000000000e+00
0.000000000000000e+00 0.000000000000000e+00 0.000000000000000e+00

0.000000000000000e+00 0.000000000000000e+00 0.000000000000000e+00
0.000000000000000e+00 0.000000000000000e+00 0.000000000000000e+00
0.000000000000000e+00 0.000000000000000e+00 0.000000000000000e+00

0.000000000000000e+00 0.000000000000000e+00 0.000000000000000e+00
0.000000000000000e+00 0.000000000000000e+00 0.000000000000000e+00
0.000000000000000e+00 0.000000000000000e+00 0.000000000000000e+00

0.000000000000000e+00 0.000000000000000e+00 0.000000000000000e+00
0.000000000000000e+00 0.000000000000000e+00 0.000000000000000e+00
0.000000000000000e+00 0.000000000000000e+00 0.000000000000000e+00

0.000000000000000e+00 0.000000000000000e+00 0.000000000000000e+00
0.000000000000000e+00 0.000000000000000e+00 0.000000000000000e+00
0.000000000000000e+00 0.000000000000000e+00 0.000000000000000e+00

0.000000000000000e+00 0.000000000000000e+00 0.000000000000000e+00
0.000000000000000e+00 0.000000000000000e+00 0.000000000000000e+00
0.000000000000000e+00 0.000000000000000e+00 0.000000000000000e+00

0.000000000000000e+00 0.000000000000000e+00 0.000000000000000e+00
0.000000000000000e+00 0.000000000000000e+00 0.000000000000000e+00
0.000000000000000e+00 0.000000000000000e+00 0.000000000000000e+00

0.000000000000000e+00 0.000000000000000e+00 0.000000000000000e+00
0.000000000000000e+00 0.000000000000000e+00 0.000000000000000e+00
0.000000000000000e+00 0.000000000000000e+00 0.000000000000000e+00

0.000000000000000e+00 0.000000000000000e+00 0.000000000000000e+00
0.000000000000000e+00 0.000000000000000e+00 0.000000000000000e+00
0.000000000000000e+00 0.000000000000000e+00 0.000000000000000e+00

0.000000000000000e+00 0.000000000000000e+00 0.000000000000000e+00
0.000000000000000e+00 0.000000000000000e+00 0.000000000000000e+00
0.000000000000000e+00 0.000000000000000e+00 0.000000000000000e+00

0.000000000000000e+00 0.000000000000000e+00 0.000000000000000e+00
0.000000000000000e+00 0.000000000000000e+00 0.000000000000000e+00
0.000000000000000e+00 0.000000000000000e+00 0.000000000000000e+00

0.000000000000000e+00 0.000000000000000e+00 0.000000000000000e+00
0.000000000000000e+00 0.000000000000000e+00 0.000000000000000e+00
0.000000000000000e+00 0.000000000000000e+00 0.000000000000000e+00

0.000000000000000e+00 0.000000000000000e+00 0.000000000000000e+00
0.000000000000000e+00 0.000000000000000e+00 0.000000000000000e+00
0.000000000000000e+00 0.000000000000000e+00 0.000000000000000e+00

0.000000000000000e+00 0.000000000000000e+00 0.000000000000000e+00
0.000000000000000e+00 0.000000000000000e+00 0.000000000000000e+00
0.000000000000000e+00 0.000000000000000e+00 0.000000000000000e+00

0.000000000000000e+00 0.000000000000000e+00 0.000000000000000e+00
0.000000000000000e+00 0.000000000000000e+00 0.000000000000000e+00
0.000000000000000e+00 0.000000000000000e+00 0.000000000000000e+00

0.000000000000000e+00 0.000000000000000e+00 0.000000000000000e+00
0.000000000000000e+00 0.000000000000000e+00 0.000000000000000e+00
0.000000000000000e+00 0.000000000000000e+00 0.000000000000000e+00

0.000000000000000e+00 0.000000000000000e+00 0.000000000000000e+00
0.000000000000000e+00 0.000000000000000e+00 0.000000000000000e+00
0.000000000000000e+00 0.000000000000000e+00 0.000000000000000e+00

0.000000000000000e+00 0.000000000000000e+00 0.000000000000000e+00
0.000000000000000e+00 0.000000000000000e+00 0.000000000000000e+00
0.000000000000000e+00 0.000000000000000e+00 0.000000000000000e+00

0.000000000000000e+00 0.000000000000000e+00 0.000000000000000e+00
0.000000000000000e+00 0.000000000000000e+00 0.000000000000000e+00
0.000000000000000e+00 0.000000000000000e+00 0.000000000000000e+00

0.000000000000000e+00 0.000000000000000e+00 0.000000000000000e+00
0.000000000000000e+00 0.000000000000000e+00 0.000000000000000e+00
0.000000000000000e+00 0.000000000000000e+00 0.000000000000000e+00

0.000000000000000e+00 0.000000000000000e+00 0.000000000000000e+00
0.000000000000000e+00 0.000000000000000e+00 0.000000000000000e+00
0.000000000000000e+00 0.000000000000000e+00 0.000000000000000e+00

0.000000000000000e+00 0.000000000000000e+00 0.000000000000000e+00
0.000000000000000e+00 0.000000000000000e+00 0.000000000000000e+00
0.000000000000000e+00 0.000000000000000e+00 0.000000000000000e+00

0.000000000000000e+00 0.000000000000000e+00 0.000000000000000e+00
0.000000000000000e+00 0.000000000000000e+00 0.000000000000000e+00
0.000000000000000e+00 0.000000000000000e+00 0.000000000000000e+00

0.000000000000000e+00 0.000000000000000e+00 0.000000000000000e+00
0.000000000000000e+00 0.000000000000000e+00 0.000000000000000e+00
0.000000000000000e+00 0.000000000000000e+00 0.000000000000000e+00

0.000000000000000e+00 0.000000000000000e+00 0.000000000000000e+00
0.000000000000000e+00 0.000000000000000e+00 0.000000000000000e+00
0.000000000000000e+00 0.000000000000000e+00 0.000000000000000e+00

0.000000000000000e+00 0.000000000000000e+00 0.000000000000000e+00
0.000000000000000e+00 0.000000000000000e+00 0.000000000000000e+00
0.000000000000000e+00 0.000000000000000e+00 0.000000000000000e+00

0.000000000000000e+00 0.000000000000000e+00 0.000000000000000e+00
0.000000000000000e+00 0.000000000000000e+00 0.000000000000000e+00
0.000000000000000e+00 0.000000000000000e+00 0.000000000000000e+00

0.000000000000000e+00 0.000000000000000e+00 0.000000000000000e+00
0.000000000000000e+00 0.000000000000000e+00 0.000000000000000e+00
0.000000000000000e+00 0.000000000000000e+00 0.000000000000000e+00

0.000000000000000e+00 0.000000000000000e+00 0.000000000000000e+00
0.000000000000000e+00 0.000000000000000e+00 0.000000000000000e+00
0.000000000000000e+00 0.000000000000000e+00 0.000000000000000e+00

0.000000000000000e+00 0.000000000000000e+00 0.000000000000000e+00
0.000000000000000e+00 0.000000000000000e+00 0.000000000000000e+00
0.000000000000000e+00 0.000000000000000e+00 0.000000000000000e+00

0.000000000000000e+00 0.000000000000000e+00 0.000000000000000e+00
0.000000000000000e+00 0.000000000000000e+00 0.000000000000000e+00
0.000000000000000e+00 0.000000000000000e+00 0.000000000000000e+00

0.000000000000000e+00 0.000000000000000e+00 0.000000000000000e+00
0.000000000000000e+00 0.000000000000000e+00 0.000000000000000e+00
0.000000000000000e+00 0.000000000000000e+00 0.000000000000000e+00

0.000000000000000e+00 0.000000000000000e+00 0.000000000000000e+00
0.000000000000000e+00 0.000000000000000e+00 0.000000000000000e+00
0.000000000000000e+00 0.000000000000000e+00 0.000000000000000e+00

0.000000000000000e+00 0.000000000000000e+00 0.000000000000000e+00
0.000000000000000e+00 0.000000000000000e+00 0.000000000000000e+00
0.000000000000000e+00 0.000000000000000e+00 0.000000000000000e+00

0.000000000000000e+00 0.000000000000000e+00 0.000000000000000e+00
0.000000000000000e+00 0.000000000000000e+00 0.000000000000000e+00
0.000000000000000e+00 0.000000000000000e+00 0.000000000000000e+00

0.000000000000000e+00 0.000000000000000e+00 0.000000000000000e+00
0.000000000000000e+00 0.000000000000000e+00 0.000000000000000e+00
0.000000000000000e+00 0.000000000000000e+00 0.000000000000000e+00

0.000000000000000e+00 0.000000000000000e+00 0.000000000000000e+00
0.000000000000000e+00 0.000000000000000e+00 0.000000000000000e+00
0.000000000000000e+00 0.000000000000000e+00 0.000000000000000e+00

0.000000000000000e+00 0.000000000000000e+00 0.000000000000000e+00
0.000000000000000e+00 0.000000000000000e+00 0.000000000000000e+00
0.000000000000000e+00 0.000000000000000e+00 0.000000000000000e+00

0.000000000000000e+00 0.000000000000000e+00 0.000000000000000e+00
0.000000000000000e+00 0.000000000000000e+00 0.000000000000000e+00
0.000000000000000e+00 0.000000000000000e+00 0.000000000000000e+00

0.000000000000000e+00 0.000000000000000e+00 0.000000000000000e+00
0.000000000000000e+00 0.000000000000000e+00 0.000000000000000e+00
0.000000000000000e+00 0.000000000000000e+00 0.000000000000000e+00

0.000000000000000e+00 0.000000000000000e+00 0.000000000000000e+00
0.000000000000000e+00 0.000000000000000e+00 0.000000000000000e+00
0.000000000000000e+00 0.000000000000000e+00 0.000000000000000e+00

0.000000000000000e+00 0.000000000000000e+00 0.000000000000000e+00
0.000000000000000e+00 0.000000000000000e+00 0.000000000000000e+00
0.000000000000000e+00 0.000000000000000e+00 0.000000000000000e+00

0.000000000000000e+00 0.000000000000000e+00 0.000000000000000e+00
0.000000000000000e+00 0.000000000000000e+00 0.000000000000000e+00
0.000000000000000e+00 0.000000000000000e+00 0.000000000000000e+00

0.000000000000000e+00 0.000000000000000e+00 0.000000000000000e+00
0.000000000000000e+00 0.000000000000000e+00 0.000000000000000e+00
0.000000000000000e+00 0.000000000000000e+00 0.000000000000000e+00

0.000000000000000e+00 0.000000000000000e+00 0.000000000000000e+00
0.000000000000000e+00 0.000000000000000e+00 0.000000000000000e+00
0.000000000000000e+00 0.000000000000000e+00 0.000000000000000e+00

0.000000000000000e+00 0.000000000000000e+00 0.000000000000000e+00
0.000000000000000e+00 0.000000000000000e+00 0.000000000000000e+00
0.000000000000000e+00 0.000000000000000e+00 0.000000000000000e+00

0.000000000000000e+00 0.000000000000000e+00 0.000000000000000e+00
0.000000000000000e+00 0.000000000000000e+00 0.000000000000000e+00
0.000000000000000e+00 0.000000000000000e+00 0.000000000000000e+00

0.000000000000000e+00 0.000000000000000e+00 0.000000000000000e+00
0.000000000000000e+00 0.000000000000000e+00 0.000000000000000e+00
0.000000000000000e+00 0.000000000000000e+00 0.000000000000000e+00

0.000000000000000e+00 0.000000000000000e+00 0.000000000000000e+00
0.000000000000000e+00 0.000000000000000e+00 0.000000000000000e+00
0.000000000000000e+00 0.000000000000000e+00 0.000000000000000e+00

0.000000000000000e+00 0.000000000000000e+00 0.000000000000000e+00
0.000000000000000e+00 0.000000000000000e+00 0.000000000000000e+00
0.000000000000000e+00 0.000000000000000e+00 0.000000000000000e+00

0.000000000000000e+00 0.000000000000000e+00 0.000000000000000e+00
0.000000000000000e+00 0.000000000000000e+00 0.000000000000000e+00
0.000000000000000e+00 0.000000000000000e+00 0.000000000000000e+00

0.000000000000000e+00 0.000000000000000e+00 0.000000000000000e+00
0.000000000000000e+00 0.000000000000000e+00 0.000000000000000e+00
0.000000000000000e+00 0.000000000000000e+00 0.000000000000000e+00

0.000000000000000e+00 0.000000000000000e+00 0.000000000000000e+00
0.000000000000000e+00 0.000000000000000e+00 0.000000000000000e+00
0.000000000000000e+00 0.000000000000000e+00 0.000000000000000e+00

0.000000000000000e+00 0.000000000000000e+00 0.000000000000000e+00
0.000000000000000e+00 0.000000000000000e+00 0.000000000000000e+00
0.000000000000000e+00 0.000000000000000e+00 0.000000000000000e+00

0.000000000000000e+00 0.000000000000000e+00 0.000000000000000e+00
0.000000000000000e+00 0.000000000000000e+00 0.000000000000000e+00
0.000000000000000e+00 0.000000000000000e+00 0.000000000000000e+00

0.000000000000000e+00 0.000000000000000e+00 0.000000000000000e+00
0.000000000000000e+00 0.000000000000000e+00 0.000000000000000e+00
0.000000000000000e+00 0.000000000000000e+00 0.000000000000000e+00

0.000000000000000e+00 0.000000000000000e+00 0.000000000000000e+00
0.000000000000000e+00 0.000000000000000e+00 0.000000000000000e+00
0.000000000000000e+00 0.000000000000000e+00 0.000000000000000e+00

0.000000000000000e+00 0.000000000000000e+00 0.000000000000000e+00
0.000000000000000e+00 0.000000000000000e+00 0.000000000000000e+00
0.000000000000000e+00 0.000000000000000e+00 0.000000000000000e+00

0.000000000000000e+00 0.000000000000000e+00 0.000000000000000e+00
0.000000000000000e+00 0.000000000000000e+00 0.000000000000000e+00
0.000000000000000e+00 0.000000000000000e+00 0.000000000000000e+00

0.000000000000000e+00 0.000000000000000e+00 0.000000000000000e+00
0.000000000000000e+00 0.000000000000000e+00 0.000000000000000e+00
0.000000000000000e+00 0.000000000000000e+00 0.000000000000000e+00

0.000000000000000e+00 0.000000000000000e+00 0.000000000000000e+00
0.000000000000000e+00 0.000000000000000e+00 0.000000000000000e+00
0.000000000000000e+00 0.000000000000000e+00 0.000000000000000e+00

0.000000000000000e+00 0.000000000000000e+00 0.000000000000000e+00
0.000000000000000e+00 0.000000000000000e+00 0.000000000000000e+00
0.000000000000000e+00 0.000000000000000e+00 0.000000000000000e+00

0.000000000000000e+00 0.000000000000000e+00 0.000000000000000e+00
0.000000000000000e+00 0.000000000000000e+00 0.000000000000000e+00
0.000000000000000e+00 0.000000000000000e+00 0.000000000000000e+00

0.000000000000000e+00 0.000000000000000e+00 0.000000000000000e+00
0.000000000000000e+00 0.000000000000000e+00 0.000000000000000e+00
0.000000000000000e+00 0.000000000000000e+00 0.000000000000000e+00

0.000000000000000e+00 0.000000000000000e+00 0.000000000000000e+00
0.000000000000000e+00 0.000000000000000e+00 0.000000000000000e+00
0.000000000000000e+00 0.000000000000000e+00 0.000000000000000e+00

0.000000000000000e+00 0.000000000000000e+00 0.000000000000000e+00
0.000000000000000e+00 0.000000000000000e+00 0.000000000000000e+00
0.000000000000000e+00 0.000000000000000e+00 0.000000000000000e+00

0.000000000000000e+00 0.000000000000000e+00 0.000000000000000e+00
0.000000000000000e+00 0.000000000000000e+00 0.000000000000000e+00
0.000000000000000e+00 0.000000000000000e+00 0.000000000000000e+00

0.000000000000000e+00 0.000000000000000e+00 0.000000000000000e+00
0.000000000000000e+00 0.000000000000000e+00 0.000000000000000e+00
0.000000000000000e+00 0.000000000000000e+00 0.000000000000000e+00

0.000000000000000e+00 0.000000000000000e+00 0.000000000000000e+00
0.000000000000000e+00 0.000000000000000e+00 0.000000000000000e+00
0.000000000000000e+00 0.000000000000000e+00 0.000000000000000e+00

0.000000000000000e+00 0.000000000000000e+00 0.000000000000000e+00
0.000000000000000e+00 0.000000000000000e+00 0.000000000000000e+00
0.000000000000000e+00 0.000000000000000e+00 0.000000000000000e+00

0.000000000000000e+00 0.000000000000000e+00 0.000000000000000e+00
0.000000000000000e+00 0.000000000000000e+00 0.000000000000000e+00
0.000000000000000e+00 0.000000000000000e+00 0.000000000000000e+00

0.000000000000000e+00 0.000000000000000e+00 0.000000000000000e+00
0.000000000000000e+00 0.000000000000000e+00 0.000000000000000e+00
0.000000000000000e+00 0.000000000000000e+00 0.000000000000000e+00

0.000000000000000e+00 0.000000000000000e+00 0.000000000000000e+00
0.000000000000000e+00 0.000000000000000e+00 0.000000000000000e+00
0.000000000000000e+00 0.000000000000000e+00 0.000000000000000e+00

0.000000000000000e+00 0.000000000000000e+00 0.000000000000000e+00
0.000000000000000e+00 0.000000000000000e+00 0.000000000000000e+00
0.000000000000000e+00 0.000000000000000e+00 0.000000000000000e+00

0.000000000000000e+00 0.000000000000000e+00 0.000000000000000e+00
0.000000000000000e+00 0.000000000000000e+00 0.000000000000000e+00
0.000000000000000e+00 0.000000000000000e+00 0.000000000000000e+00

0.000000000000000e+00 0.000000000000000e+00 0.000000000000000e+00
0.000000000000000e+00 0.000000000000000e+00 0.000000000000000e+00
0.000000000000000e+00 0.000000000000000e+00 0.000000000000000e+00

0.000000000000000e+00 0.000000000000000e+00 0.000000000000000e+00
0.000000000000000e+00 0.000000000000000e+00 0.000000000000000e+00
0.000000000000000e+00 0.000000000000000e+00 0.000000000000000e+00

0.000000000000000e+00 0.000000000000000e+00 0.000000000000000e+00
0.000000000000000e+00 0.000000000000000e+00 0.000000000000000e+00
0.000000000000000e+00 0.000000000000000e+00 0.000000000000000e+00

0.000000000000000e+00 0.000000000000000e+00 0.000000000000000e+00
0.000000000000000e+00 0.000000000000000e+00 0.000000000000000e+00
0.000000000000000e+00 0.000000000000000e+00 0.000000000000000e+00

0.000000000000000e+00 0.000000000000000e+00 0.000000000000000e+00
0.000000000000000e+00 0.000000000000000e+00 0.000000000000000e+00
0.000000000000000e+00 0.000000000000000e+00 0.000000000000000e+00

0.000000000000000e+00 0.000000000000000e+00 0.000000000000000e+00
0.000000000000000e+00 0.000000000000000e+00 0.000000000000000e+00
0.000000000000000e+00 0.000000000000000e+00 0.000000000000000e+00

0.000000000000000e+00 0.000000000000000e+00 0.000000000000000e+00
0.000000000000000e+00 0.000000000000000e+00 0.000000000000000e+00
0.000000000000000e+00 0.000000000000000e+00 0.000000000000000e+00

0.000000000000000e+00 0.000000000000000e+00 0.000000000000000e+00
0.000000000000000e+00 0.000000000000000e+00 0.000000000000000e+00
0.000000000000000e+00 0.000000000000000e+00 0.000000000000000e+00

0.000000000000000e+00 0.000000000000000e+00 0.000000000000000e+00
0.000000000000000e+00 0.000000000000000e+00 0.000000000000000e+00
0.000000000000000e+00 0.000000000000000e+00 0.000000000000000e+00

0.000000000000000e+00 0.000000000000000e+00 0.000000000000000e+00
0.000000000000000e+00 0.000000000000000e+00 0.000000000000000e+00
0.000000000000000e+00 0.000000000000000e+00 0.000000000000000e+00

0.000000000000000e+00 0.000000000000000e+00 0.000000000000000e+00
0.000000000000000e+00 0.000000000000000e+00 0.000000000000000e+00
0.000000000000000e+00 0.000000000000000e+00 0.000000000000000e+00

0.000000000000000e+00 0.000000000000000e+00 0.000000000000000e+00
0.000000000000000e+00 0.000000000000000e+00 0.000000000000000e+00
0.000000000000000e+00 0.000000000000000e+00 0.000000000000000e+00

0.000000000000000e+00 0.000000000000000e+00 0.000000000000000e+00
0.000000000000000e+00 0.000000000000000e+00 0.000000000000000e+00
0.000000000000000e+00 0.000000000000000e+00 0.000000000000000e+00

0.000000000000000e+00 0.000000000000000e+00 0.000000000000000e+00
0.000000000000000e+00 0.000000000000000e+00 0.000000000000000e+00
0.000000000000000e+00 0.000000000000000e+00 0.000000000000000e+00

0.000000000000000e+00 0.000000000000000e+00 0.000000000000000e+00
0.000000000000000e+00 0.000000000000000e+00 0.000000000000000e+00
0.000000000000000e+00 0.000000000000000e+00 0.000000000000000e+00

0.000000000000000e+00 0.000000000000000e+00 0.000000000000000e+00
0.000000000000000e+00 0.000000000000000e+00 0.000000000000000e+00
0.000000000000000e+00 0.000000000000000e+00 0.000000000000000e+00

0.000000000000000e+00 0.000000000000000e+00 0.000000000000000e+00
0.000000000000000e+00 0.000000000000000e+00 0.000000000000000e+00
0.000000000000000e+00 0.000000000000000e+00 0.000000000000000e+00

0.000000000000000e+00 0.000000000000000e+00 0.000000000000000e+00
0.000000000000000e+00 0.000000000000000e+00 0.000000000000000e+00
0.000000000000000e+00 0.000000000000000e+00 0.000000000000000e+00

0.000000000000000e+00 0.000000000000000e+00 0.000000000000000e+00
0.000000000000000e+00 0.000000000000000e+00 0.000000000000000e+00
0.000000000000000e+00 0.000000000000000e+00 0.000000000000000e+00

0.000000000000000e+00 0.000000000000000e+00 0.000000000000000e+00
0.000000000000000e+00 0.000000000000000e+00 0.000000000000000e+00
0.000000000000000e+00 0.000000000000000e+00 0.000000000000000e+00

0.000000000000000e+00 0.000000000000000e+00 0.000000000000000e+00
0.000000000000000e+00 0.000000000000000e+00 0.000000000000000e+00
0.000000000000000e+00 0.000000000000000e+00 0.000000000000000e+00

0.000000000000000e+00 0.000000000000000e+00 0.000000000000000e+00
0.000000000000000e+00 0.000000000000000e+00 0.000000000000000e+00
0.000000000000000e+00 0.000000000000000e+00 0.000000000000000e+00

0.000000000000000e+00 0.000000000000000e+00 0.000000000000000e+00
0.000000000000000e+00 0.000000000000000e+00 0.000000000000000e+00
0.000000000000000e+00 0.000000000000000e+00 0.000000000000000e+00

0.000000000000000e+00 0.000000000000000e+00 0.000000000000000e+00
0.000000000000000e+00 0.000000000000000e+00 0.000000000000000e+00
0.000000000000000e+00 0.000000000000000e+00 0.000000000000000e+00

0.000000000000000e+00 0.000000000000000e+00 0.000000000000000e+00
0.000000000000000e+00 0.000000000000000e+00 0.000000000000000e+00
0.000000000000000e+00 0.000000000000000e+00 0.000000000000000e+00

0.000000000000000e+00 0.000000000000000e+00 0.000000000000000e+00
0.000000000000000e+00 0.000000000000000e+00 0.000000000000000e+00
0.000000000000000e+00 0.000000000000000e+00 0.000000000000000e+00

0.000000000000000e+00 0.000000000000000e+00 0.000000000000000e+00
0.000000000000000e+00 0.000000000000000e+00 0.000000000000000e+00
0.000000000000000e+00 0.000000000000000e+00 0.000000000000000e+00

0.000000000000000e+00 0.000000000000000e+00 0.000000000000000e+00
0.000000000000000e+00 0.000000000000000e+00 0.000000000000000e+00
0.000000000000000e+00 0.000000000000000e+00 0.000000000000000e+00

0.000000000000000e+00 0.000000000000000e+00 0.000000000000000e+00
0.000000000000000e+00 0.000000000000000e+00 0.000000000000000e+00
0.000000000000000e+00 0.000000000000000e+00 0.000000000000000e+00

0.000000000000000e+00 0.000000000000000e+00 0.000000000000000e+00
0.000000000000000e+00 0.000000000000000e+00 0.000000000000000e+00
0.000000000000000e+00 0.000000000000000e+00 0.000000000000000e+00

0.000000000000000e+00 0.000000000000000e+00 0.000000000000000e+00
0.000000000000000e+00 0.000000000000000e+00 0.000000000000000e+00
0.000000000000000e+00 0.000000000000000e+00 0.000000000000000e+00

0.000000000000000e+00 0.000000000000000e+00 0.000000000000000e+00
0.000000000000000e+00 0.000000000000000e+00 0.000000000000000e+00
0.000000000000000e+00 0.000000000000000e+00 0.000000000000000e+00

0.000000000000000e+00 0.000000000000000e+00 0.000000000000000e+00
0.000000000000000e+00 0.000000000000000e+00 0.000000000000000e+00
0.000000000000000e+00 0.000000000000000e+00 0.000000000000000e+00

0.000000000000000e+00 0.000000000000000e+00 0.000000000000000e+00
0.000000000000000e+00 0.000000000000000e+00 0.000000000000000e+00
0.000000000000000e+00 0.000000000000000e+00 0.000000000000000e+00

0.000000000000000e+00 0.000000000000000e+00 0.000000000000000e+00
0.000000000000000e+00 0.000000000000000e+00 0.000000000000000e+00
0.000000000000000e+00 0.000000000000000e+00 0.000000000000000e+00

0.000000000000000e+00 0.000000000000000e+00 0.000000000000000e+00
0.000000000000000e+00 0.000000000000000e+00 0.000000000000000e+00
0.000000000000000e+00 0.000000000000000e+00 0.000000000000000e+00

0.000000000000000e+00 0.000000000000000e+00 0.000000000000000e+00
0.000000000000000e+00 0.000000000000000e+00 0.000000000000000e+00
0.000000000000000e+00 0.000000000000000e+00 0.000000000000000e+00

0.000000000000000e+00 0.000000000000000e+00 0.000000000000000e+00
0.000000000000000e+00 0.000000000000000e+00 0.000000000000000e+00
0.000000000000000e+00 0.000000000000000e+00 0.000000000000000e+00

0.000000000000000e+00 0.000000000000000e+00 0.000000000000000e+00
0.000000000000000e+00 0.000000000000000e+00 0.000000000000000e+00
0.000000000000000e+00 0.000000000000000e+00 0.000000000000000e+00

0.000000000000000e+00 0.000000000000000e+00 0.000000000000000e+00
0.000000000000000e+00 0.000000000000000e+00 0.000000000000000e+00
0.000000000000000e+00 0.000000000000000e+00 0.000000000000000e+00

0.000000000000000e+00 0.000000000000000e+00 0.000000000000000e+00
0.000000000000000e+00 0.000000000000000e+00 0.000000000000000e+00
0.000000000000000e+00 0.000000000000000e+00 0.000000000000000e+00

0.000000000000000e+00 0.000000000000000e+00 0.000000000000000e+00
0.000000000000000e+00 0.000000000000000e+00 0.000000000000000e+00
0.000000000000000e+00 0.000000000000000e+00 0.000000000000000e+00

0.000000000000000e+00 0.000000000000000e+00 0.000000000000000e+00
0.000000000000000e+00 0.000000000000000e+00 0.000000000000000e+00
0.000000000000000e+00 0.000000000000000e+00 0.000000000000000e+00

0.000000000000000e+00 0.000000000000000e+00 0.000000000000000e+00
0.000000000000000e+00 0.000000000000000e+00 0.000000000000000e+00
0.000000000000000e+00 0.000000000000000e+00 0.000000000000000e+00

0.000000000000000e+00 0.000000000000000e+00 0.000000000000000e+00
0.000000000000000e+00 0.000000000000000e+00 0.000000000000000e+00
0.000000000000000e+00 0.000000000000000e+00 0.000000000000000e+00

0.000000000000000e+00 0.000000000000000e+00 0.000000000000000e+00
0.000000000000000e+00 0.000000000000000e+00 0.000000000000000e+00
0.000000000000000e+00 0.000000000000000e+00 0.000000000000000e+00

0.000000000000000e+00 0.000000000000000e+00 0.000000000000000e+00
0.000000000000000e+00 0.000000000000000e+00 0.000000000000000e+00
0.000000000000000e+00 0.000000000000000e+00 0.000000000000000e+00

0.000000000000000e+00 0.000000000000000e+00 0.000000000000000e+00
0.000000000000000e+00 0.000000000000000e+00 0.000000000000000e+00
0.000000000000000e+00 0.000000000000000e+00 0.000000000000000e+00

0.000000000000000e+00 0.000000000000000e+00 0.000000000000000e+00
0.000000000000000e+00 0.000000000000000e+00 0.000000000000000e+00
0.000000000000000e+00 0.000000000000000e+00 0.000000000000000e+00

0.000000000000000e+00 0.000000000000000e+00 0.000000000000000e+00
0.000000000000000e+00 0.000000000000000e+00 0.000000000000000e+00
0.000000000000000e+00 0.000000000000000e+00 0.000000000000000e+00

0.000000000000000e+00 0.000000000000000e+00 0.000000000000000e+00
0.000000000000000e+00 0.000000000000000e+00 0.000000000000000e+00
0.000000000000000e+00 0.000000000000000e+00 0.000000000000000e+00

0.000000000000000e+00 0.000000000000000e+00 0.000000000000000e+00
0.000000000000000e+00 0.000000000000000e+00 0.000000000000000e+00
0.000000000000000e+00 0.000000000000000e+00 0.000000000000000e+00

0.000000000000000e+00 0.000000000000000e+00 0.000000000000000e+00
0.000000000000000e+00 0.000000000000000e+00 0.000000000000000e+00
0.000000000000000e+00 0.000000000000000e+00 0.000000000000000e+00

0.000000000000000e+00 0.000000000000000e+00 0.000000000000000e+00
0.000000000000000e+00 0.000000000000000e+00 0.000000000000000e+00
0.000000000000000e+00 0.000000000000000e+00 0.000000000000000e+00

0.000000000000000e+00 0.000000000000000e+00 0.000000000000000e+00
0.000000000000000e+00 0.000000000000000e+00 0.000000000000000e+00
0.000000000000000e+00 0.000000000000000e+00 0.000000000000000e+00

0.000000000000000e+00 0.000000000000000e+00 0.000000000000000e+00
0.000000000000000e+00 0.000000000000000e+00 0.000000000000000e+00
0.000000000000000e+00 0.000000000000000e+00 0.000000000000000e+00

0.000000000000000e+00 0.000000000000000e+00 0.000000000000000e+00
0.000000000000000e+00 0.000000000000000e+00 0.000000000000000e+00
0.000000000000000e+00 0.000000000000000e+00 0.000000000000000e+00

0.000000000000000e+00 0.000000000000000e+00 0.000000000000000e+00
0.000000000000000e+00 0.000000000000000e+00 0.000000000000000e+00
0.000000000000000e+00 0.000000000000000e+00 0.000000000000000e+00

0.000000000000000e+00 0.000000000000000e+00 0.000000000000000e+00
0.000000000000000e+00 0.000000000000000e+00 0.000000000000000e+00
0.000000000000000e+00 0.000000000000000e+00 0.000000000000000e+00

0.000000000000000e+00 0.000000000000000e+00 0.000000000000000e+00
0.000000000000000e+00 0.000000000000000e+00 0.000000000000000e+00
0.000000000000000e+00 0.000000000000000e+00 0.000000000000000e+00

0.000000000000000e+00 0.000000000000000e+00 0.000000000000000e+00
0.000000000000000e+00 0.000000000000000e+00 0.000000000000000e+00
0.000000000000000e+00 0.000000000000000e+00 0.000000000000000e+00

0.000000000000000e+00 0.000000000000000e+00 0.000000000000000e+00
0.000000000000000e+00 0.000000000000000e+00 0.000000000000000e+00
0.000000000000000e+00 0.000000000000000e+00 0.000000000000000e+00

0.000000000000000e+00 0.000000000000000e+00 0.000000000000000e+00
0.000000000000000e+00 0.000000000000000e+00 0.000000000000000e+00
0.000000000000000e+00 0.000000000000000e+00 0.000000000000000e+00

0.000000000000000e+00 0.000000000000000e+00 0.000000000000000e+00
0.000000000000000e+00 0.000000000000000e+00 0.000000000000000e+00
0.000000000000000e+00 0.000000000000000e+00 0.000000000000000e+00

0.000000000000000e+00 0.000000000000000e+00 0.000000000000000e+00
0.000000000000000e+00 0.000000000000000e+00 0.000000000000000e+00
0.000000000000000e+00 0.000000000000000e+00 0.000000000000000e+00

0.000000000000000e+00 0.000000000000000e+00 0.000000000000000e+00
0.000000000000000e+00 0.000000000000000e+00 0.000000000000000e+00
0.000000000000000e+00 0.000000000000000e+00 0.000000000000000e+00

0.000000000000000e+00 0.000000000000000e+00 0.000000000000000e+00
0.000000000000000e+00 0.000000000000000e+00 0.000000000000000e+00
0.000000000000000e+00 0.000000000000000e+00 0.000000000000000e+00

0.000000000000000e+00 0.000000000000000e+00 0.000000000000000e+00
0.000000000000000e+00 0.000000000000000e+00 0.000000000000000e+00
0.000000000000000e+00 0.000000000000000e+00 0.000000000000000e+00

0.000000000000000e+00 0.000000000000000e+00 0.000000000000000e+00
0.000000000000000e+00 0.000000000000000e+00 0.000000000000000e+00
0.000000000000000e+00 0.000000000000000e+00 0.000000000000000e+00

0.000000000000000e+00 0.000000000000000e+00 0.000000000000000e+00
0.000000000000000e+00 0.000000000000000e+00 0.000000000000000e+00
0.000000000000000e+00 0.000000000000000e+00 0.000000000000000e+00

0.000000000000000e+00 0.000000000000000e+00 0.000000000000000e+00
0.000000000000000e+00 0.000000000000000e+00 0.000000000000000e+00
0.000000000000000e+00 0.000000000000000e+00 0.000000000000000e+00

0.000000000000000e+00 0.000000000000000e+00 0.000000000000000e+00
0.000000000000000e+00 0.000000000000000e+00 0.000000000000000e+00
0.000000000000000e+00 0.000000000000000e+00 0.000000000000000e+00

0.000000000000000e+00 0.000000000000000e+00 0.000000000000000e+00
0.000000000000000e+00 0.000000000000000e+00 0.000000000000000e+00
0.000000000000000e+00 0.000000000000000e+00 0.000000000000000e+00

0.000000000000000e+00 0.000000000000000e+00 0.000000000000000e+00
0.000000000000000e+00 0.000000000000000e+00 0.000000000000000e+00
0.000000000000000e+00 0.000000000000000e+00 0.000000000000000e+00

0.000000000000000e+00 0.000000000000000e+00 0.000000000000000e+00
0.000000000000000e+00 0.000000000000000e+00 0.000000000000000e+00
0.000000000000000e+00 0.000000000000000e+00 0.000000000000000e+00

0.000000000000000e+00 0.000000000000000e+00 0.000000000000000e+00
0.000000000000000e+00 0.000000000000000e+00 0.000000000000000e+00
0.000000000000000e+00 0.000000000000000e+00 0.000000000000000e+00

0.000000000000000e+00 0.000000000000000e+00 0.000000000000000e+00
0.000000000000000e+00 0.000000000000000e+00 0.000000000000000e+00
0.000000000000000e+00 0.000000000000000e+00 0.000000000000000e+00

0.000000000000000e+00 0.000000000000000e+00 0.000000000000000e+00
0.000000000000000e+00 0.000000000000000e+00 0.000000000000000e+00
0.000000000000000e+00 0.000000000000000e+00 0.000000000000000e+00

0.000000000000000e+00 0.000000000000000e+00 0.000000000000000e+00
0.000000000000000e+00 0.000000000000000e+00 0.000000000000000e+00
0.000000000000000e+00 0.000000000000000e+00 0.000000000000000e+00

0.000000000000000e+00 0.000000000000000e+00 0.000000000000000e+00
0.000000000000000e+00 0.000000000000000e+00 0.000000000000000e+00
0.000000000000000e+00 0.000000000000000e+00 0.000000000000000e+00

0.000000000000000e+00 0.000000000000000e+00 0.000000000000000e+00
0.000000000000000e+00 0.000000000000000e+00 0.000000000000000e+00
0.000000000000000e+00 0.000000000000000e+00 0.000000000000000e+00

0.000000000000000e+00 0.000000000000000e+00 0.000000000000000e+00
0.000000000000000e+00 0.000000000000000e+00 0.000000000000000e+00
0.000000000000000e+00 0.000000000000000e+00 0.000000000000000e+00

0.000000000000000e+00 0.000000000000000e+00 0.000000000000000e+00
0.000000000000000e+00 0.000000000000000e+00 0.000000000000000e+00
0.000000000000000e+00 0.000000000000000e+00 0.000000000000000e+00

0.000000000000000e+00 0.000000000000000e+00 0.000000000000000e+00
0.000000000000000e+00 0.000000000000000e+00 0.000000000000000e+00
0.000000000000000e+00 0.000000000000000e+00 0.000000000000000e+00

0.000000000000000e+00 0.000000000000000e+00 0.000000000000000e+00
0.000000000000000e+00 0.000000000000000e+00 0.000000000000000e+00
0.000000000000000e+00 0.000000000000000e+00 0.000000000000000e+00

0.000000000000000e+00 0.000000000000000e+00 0.000000000000000e+00
0.000000000000000e+00 0.000000000000000e+00 0.000000000000000e+00
0.000000000000000e+00 0.000000000000000e+00 0.000000000000000e+00

0.000000000000000e+00 0.000000000000000e+00 0.000000000000000e+00
0.000000000000000e+00 0.000000000000000e+00 0.000000000000000e+00
0.000000000000000e+00 0.000000000000000e+00 0.000000000000000e+00

0.000000000000000e+00 0.000000000000000e+00 0.000000000000000e+00
0.000000000000000e+00 0.000000000000000e+00 0.000000000000000e+00
0.000000000000000e+00 0.000000000000000e+00 0.000000000000000e+00

0.000000000000000e+00 0.000000000000000e+00 0.000000000000000e+00
0.000000000000000e+00 0.000000000000000e+00 0.000000000000000e+00
0.000000000000000e+00 0.000000000000000e+00 0.000000000000000e+00

0.000000000000000e+00 0.000000000000000e+00 0.000000000000000e+00
0.000000000000000e+00 0.000000000000000e+00 0.000000000000000e+00
0.000000000000000e+00 0.000000000000000e+00 0.000000000000000e+00

0.000000000000000e+00 0.000000000000000e+00 0.000000000000000e+00
0.000000000000000e+00 0.000000000000000e+00 0.000000000000000e+00
0.000000000000000e+00 0.000000000000000e+00 0.000000000000000e+00

0.000000000000000e+00 0.000000000000000e+00 0.000000000000000e+00
0.000000000000000e+00 0.000000000000000e+00 0.000000000000000e+00
0.000000000000000e+00 0.000000000000000e+00 0.000000000000000e+00

0.000000000000000e+00 0.000000000000000e+00 0.000000000000000e+00
0.000000000000000e+00 0.000000000000000e+00 0.000000000000000e+00
0.000000000000000e+00 0.000000000000000e+00 0.000000000000000e+00

0.000000000000000e+00 0.000000000000000e+00 0.000000000000000e+00
0.000000000000000e+00 0.000000000000000e+00 0.000000000000000e+00
0.000000000000000e+00 0.000000000000000e+00 0.000000000000000e+00

0.000000000000000e+00 0.000000000000000e+00 0.000000000000000e+00
0.000000000000000e+00 0.000000000000000e+00 0.000000000000000e+00
0.000000000000000e+00 0.000000000000000e+00 0.000000000000000e+00

0.000000000000000e+00 0.000000000000000e+00 0.000000000000000e+00
0.000000000000000e+00 0.000000000000000e+00 0.000000000000000e+00
0.000000000000000e+00 0.000000000000000e+00 0.000000000000000e+00

0.000000000000000e+00 0.000000000000000e+00 0.000000000000000e+00
0.000000000000000e+00 0.000000000000000e+00 0.000000000000000e+00
0.000000000000000e+00 0.000000000000000e+00 0.000000000000000e+00

0.000000000000000e+00 0.000000000000000e+00 0.000000000000000e+00
0.000000000000000e+00 0.000000000000000e+00 0.000000000000000e+00
0.000000000000000e+00 0.000000000000000e+00 0.000000000000000e+00

0.000000000000000e+00 0.000000000000000e+00 0.000000000000000e+00
0.000000000000000e+00 0.000000000000000e+00 0.000000000000000e+00
0.000000000000000e+00 0.000000000000000e+00 0.000000000000000e+00

0.000000000000000e+00 0.000000000000000e+00 0.000000000000000e+00
0.000000000000000e+00 0.000000000000000e+00 0.000000000000000e+00
0.000000000000000e+00 0.000000000000000e+00 0.000000000000000e+00

0.000000000000000e+00 0.000000000000000e+00 0.000000000000000e+00
0.000000000000000e+00 0.000000000000000e+00 0.000000000000000e+00
0.000000000000000e+00 0.000000000000000e+00 0.000000000000000e+00

0.000000000000000e+00 0.000000000000000e+00 0.000000000000000e+00
0.000000000000000e+00 0.000000000000000e+00 0.000000000000000e+00
0.000000000000000e+00 0.000000000000000e+00 0.000000000000000e+00

0.000000000000000e+00 0.000000000000000e+00 0.000000000000000e+00
0.000000000000000e+00 0.000000000000000e+00 0.000000000000000e+00
0.000000000000000e+00 0.000000000000000e+00 0.000000000000000e+00

0.000000000000000e+00 0.000000000000000e+00 0.000000000000000e+00
0.000000000000000e+00 0.000000000000000e+00 0.000000000000000e+00
0.000000000000000e+00 0.000000000000000e+00 0.000000000000000e+00

0.000000000000000e+00 0.000000000000000e+00 0.000000000000000e+00
0.000000000000000e+00 0.000000000000000e+00 0.000000000000000e+00
0.000000000000000e+00 0.000000000000000e+00 0.000000000000000e+00

0.000000000000000e+00 0.000000000000000e+00 0.000000000000000e+00
0.000000000000000e+00 0.000000000000000e+00 0.000000000000000e+00
0.000000000000000e+00 0.000000000000000e+00 0.000000000000000e+00

0.000000000000000e+00 0.000000000000000e+00 0.000000000000000e+00
0.000000000000000e+00 0.000000000000000e+00 0.000000000000000e+00
0.000000000000000e+00 0.000000000000000e+00 0.000000000000000e+00

0.000000000000000e+00 0.000000000000000e+00 0.000000000000000e+00
0.000000000000000e+00 0.000000000000000e+00 0.000000000000000e+00
0.000000000000000e+00 0.000000000000000e+00 0.000000000000000e+00

0.000000000000000e+00 0.000000000000000e+00 0.000000000000000e+00
0.000000000000000e+00 0.000000000000000e+00 0.000000000000000e+00
0.000000000000000e+00 0.000000000000000e+00 0.000000000000000e+00

0.000000000000000e+00 0.000000000000000e+00 0.000000000000000e+00
0.000000000000000e+00 0.000000000000000e+00 0.000000000000000e+00
0.000000000000000e+00 0.000000000000000e+00 0.000000000000000e+00

0.000000000000000e+00 0.000000000000000e+00 0.000000000000000e+00
0.000000000000000e+00 0.000000000000000e+00 0.000000000000000e+00
0.000000000000000e+00 0.000000000000000e+00 0.000000000000000e+00

0.000000000000000e+00 0.000000000000000e+00 0.000000000000000e+00
0.000000000000000e+00 0.000000000000000e+00 0.000000000000000e+00
0.000000000000000e+00 0.000000000000000e+00 0.000000000000000e+00

0.000000000000000e+00 0.000000000000000e+00 0.000000000000000e+00
0.000000000000000e+00 0.000000000000000e+00 0.000000000000000e+00
0.000000000000000e+00 0.000000000000000e+00 0.000000000000000e+00

0.000000000000000e+00 0.000000000000000e+00 0.000000000000000e+00
0.000000000000000e+00 0.000000000000000e+00 0.000000000000000e+00
0.000000000000000e+00 0.000000000000000e+00 0.000000000000000e+00

0.000000000000000e+00 0.000000000000000e+00 0.000000000000000e+00
0.000000000000000e+00 0.000000000000000e+00 0.000000000000000e+00
0.000000000000000e+00 0.000000000000000e+00 0.000000000000000e+00

0.000000000000000e+00 0.000000000000000e+00 0.000000000000000e+00
0.000000000000000e+00 0.000000000000000e+00 0.000000000000000e+00
0.000000000000000e+00 0.000000000000000e+00 0.000000000000000e+00

0.000000000000000e+00 0.000000000000000e+00 0.000000000000000e+00
0.000000000000000e+00 0.000000000000000e+00 0.000000000000000e+00
0.000000000000000e+00 0.000000000000000e+00 0.000000000000000e+00

0.000000000000000e+00 0.000000000000000e+00 0.000000000000000e+00
0.000000000000000e+00 0.000000000000000e+00 0.000000000000000e+00
0.000000000000000e+00 0.000000000000000e+00 0.000000000000000e+00

0.000000000000000e+00 0.000000000000000e+00 0.000000000000000e+00
0.000000000000000e+00 0.000000000000000e+00 0.000000000000000e+00
0.000000000000000e+00 0.000000000000000e+00 0.000000000000000e+00

0.000000000000000e+00 0.000000000000000e+00 0.000000000000000e+00
0.000000000000000e+00 0.000000000000000e+00 0.000000000000000e+00
0.000000000000000e+00 0.000000000000000e+00 0.000000000000000e+00

0.000000000000000e+00 0.000000000000000e+00 0.000000000000000e+00
0.000000000000000e+00 0.000000000000000e+00 0.000000000000000e+00
0.000000000000000e+00 0.000000000000000e+00 0.000000000000000e+00

0.000000000000000e+00 0.000000000000000e+00 0.000000000000000e+00
0.000000000000000e+00 0.000000000000000e+00 0.000000000000000e+00
0.000000000000000e+00 0.000000000000000e+00 0.000000000000000e+00

0.000000000000000e+00 0.000000000000000e+00 0.000000000000000e+00
0.000000000000000e+00 0.000000000000000e+00 0.000000000000000e+00
0.000000000000000e+00 0.000000000000000e+00 0.000000000000000e+00

0.000000000000000e+00 0.000000000000000e+00 0.000000000000000e+00
0.000000000000000e+00 0.000000000000000e+00 0.000000000000000e+00
0.000000000000000e+00 0.000000000000000e+00 0.000000000000000e+00

0.000000000000000e+00 0.000000000000000e+00 0.000000000000000e+00
0.000000000000000e+00 0.000000000000000e+00 0.000000000000000e+00
0.000000000000000e+00 0.000000000000000e+00 0.000000000000000e+00

0.000000000000000e+00 0.000000000000000e+00 0.000000000000000e+00
0.000000000000000e+00 0.000000000000000e+00 0.000000000000000e+00
0.000000000000000e+00 0.000000000000000e+00 0.000000000000000e+00

0.000000000000000e+00 0.000000000000000e+00 0.000000000000000e+00
0.000000000000000e+00 0.000000000000000e+00 0.000000000000000e+00
0.000000000000000e+00 0.000000000000000e+00 0.000000000000000e+00

0.000000000000000e+00 0.000000000000000e+00 0.000000000000000e+00
0.000000000000000e+00 0.000000000000000e+00 0.000000000000000e+00
0.000000000000000e+00 0.000000000000000e+00 0.000000000000000e+00

0.000000000000000e+00 0.000000000000000e+00 0.000000000000000e+00
0.000000000000000e+00 0.000000000000000e+00 0.000000000000000e+00
0.000000000000000e+00 0.000000000000000e+00 0.000000000000000e+00

0.000000000000000e+00 0.000000000000000e+00 0.000000000000000e+00
0.000000000000000e+00 0.000000000000000e+00 0.000000000000000e+00
0.000000000000000e+00 0.000000000000000e+00 0.000000000000000e+00

0.000000000000000e+00 0.000000000000000e+00 0.000000000000000e+00
0.000000000000000e+00 0.000000000000000e+00 0.000000000000000e+00
0.000000000000000e+00 0.000000000000000e+00 0.000000000000000e+00

0.000000000000000e+00 0.000000000000000e+00 0.000000000000000e+00
0.000000000000000e+00 0.000000000000000e+00 0.000000000000000e+00
0.000000000000000e+00 0.000000000000000e+00 0.000000000000000e+00

0.000000000000000e+00 0.000000000000000e+00 0.000000000000000e+00
0.000000000000000e+00 0.000000000000000e+00 0.000000000000000e+00
0.000000000000000e+00 0.000000000000000e+00 0.000000000000000e+00

0.000000000000000e+00 0.000000000000000e+00 0.000000000000000e+00
0.000000000000000e+00 0.000000000000000e+00 0.000000000000000e+00
0.000000000000000e+00 0.000000000000000e+00 0.000000000000000e+00

0.000000000000000e+00 0.000000000000000e+00 0.000000000000000e+00
0.000000000000000e+00 0.000000000000000e+00 0.000000000000000e+00
0.000000000000000e+00 0.000000000000000e+00 0.000000000000000e+00

0.000000000000000e+00 0.000000000000000e+00 0.000000000000000e+00
0.000000000000000e+00 0.000000000000000e+00 0.000000000000000e+00
0.000000000000000e+00 0.000000000000000e+00 0.000000000000000e+00

0.000000000000000e+00 0.000000000000000e+00 0.000000000000000e+00
0.000000000000000e+00 0.000000000000000e+00 0.000000000000000e+00
0.000000000000000e+00 0.000000000000000e+00 0.000000000000000e+00

0.000000000000000e+00 0.000000000000000e+00 0.000000000000000e+00
0.000000000000000e+00 0.000000000000000e+00 0.000000000000000e+00
0.000000000000000e+00 0.000000000000000e+00 0.000000000000000e+00

0.000000000000000e+00 0.000000000000000e+00 0.000000000000000e+00
0.000000000000000e+00 0.000000000000000e+00 0.000000000000000e+00
0.000000000000000e+00 0.000000000000000e+00 0.000000000000000e+00

0.000000000000000e+00 0.000000000000000e+00 0.000000000000000e+00
0.000000000000000e+00 0.000000000000000e+00 0.000000000000000e+00
0.000000000000000e+00 0.000000000000000e+00 0.000000000000000e+00

0.000000000000000e+00 0.000000000000000e+00 0.000000000000000e+00
0.000000000000000e+00 0.000000000000000e+00 0.000000000000000e+00
0.000000000000000e+00 0.000000000000000e+00 0.000000000000000e+00

0.000000000000000e+00 0.000000000000000e+00 0.000000000000000e+00
0.000000000000000e+00 0.000000000000000e+00 0.000000000000000e+00
0.000000000000000e+00 0.000000000000000e+00 0.000000000000000e+00

0.000000000000000e+00 0.000000000000000e+00 0.000000000000000e+00
0.000000000000000e+00 0.000000000000000e+00 0.000000000000000e+00
0.000000000000000e+00 0.000000000000000e+00 0.000000000000000e+00

0.000000000000000e+00 0.000000000000000e+00 0.000000000000000e+00
0.000000000000000e+00 0.000000000000000e+00 0.000000000000000e+00
0.000000000000000e+00 0.000000000000000e+00 0.000000000000000e+00

0.000000000000000e+00 0.000000000000000e+00 0.000000000000000e+00
0.000000000000000e+00 0.000000000000000e+00 0.000000000000000e+00
0.000000000000000e+00 0.000000000000000e+00 0.000000000000000e+00

0.000000000000000e+00 0.000000000000000e+00 0.000000000000000e+00
0.000000000000000e+00 0.000000000000000e+00 0.000000000000000e+00
0.000000000000000e+00 0.000000000000000e+00 0.000000000000000e+00

0.000000000000000e+00 0.000000000000000e+00 0.000000000000000e+00
0.000000000000000e+00 0.000000000000000e+00 0.000000000000000e+00
0.000000000000000e+00 0.000000000000000e+00 0.000000000000000e+00

0.000000000000000e+00 0.000000000000000e+00 0.000000000000000e+00
0.000000000000000e+00 0.000000000000000e+00 0.000000000000000e+00
0.000000000000000e+00 0.000000000000000e+00 0.000000000000000e+00

0.000000000000000e+00 0.000000000000000e+00 0.000000000000000e+00
0.000000000000000e+00 0.000000000000000e+00 0.000000000000000e+00
0.000000000000000e+00 0.000000000000000e+00 0.000000000000000e+00

0.000000000000000e+00 0.000000000000000e+00 0.000000000000000e+00
0.000000000000000e+00 0.000000000000000e+00 0.000000000000000e+00
0.000000000000000e+00 0.000000000000000e+00 0.000000000000000e+00

0.000000000000000e+00 0.000000000000000e+00 0.000000000000000e+00
0.000000000000000e+00 0.000000000000000e+00 0.000000000000000e+00
0.000000000000000e+00 0.000000000000000e+00 0.000000000000000e+00

0.000000000000000e+00 0.000000000000000e+00 0.000000000000000e+00
0.000000000000000e+00 0.000000000000000e+00 0.000000000000000e+00
0.000000000000000e+00 0.000000000000000e+00 0.000000000000000e+00

0.000000000000000e+00 0.000000000000000e+00 0.000000000000000e+00
0.000000000000000e+00 0.000000000000000e+00 0.000000000000000e+00
0.000000000000000e+00 0.000000000000000e+00 0.000000000000000e+00

0.000000000000000e+00 0.000000000000000e+00 0.000000000000000e+00
0.000000000000000e+00 0.000000000000000e+00 0.000000000000000e+00
0.000000000000000e+00 0.000000000000000e+00 0.000000000000000e+00

0.000000000000000e+00 0.000000000000000e+00 0.000000000000000e+00
0.000000000000000e+00 0.000000000000000e+00 0.000000000000000e+00
0.000000000000000e+00 0.000000000000000e+00 0.000000000000000e+00

0.000000000000000e+00 0.000000000000000e+00 0.000000000000000e+00
0.000000000000000e+00 0.000000000000000e+00 0.000000000000000e+00
0.000000000000000e+00 0.000000000000000e+00 0.000000000000000e+00

0.000000000000000e+00 0.000000000000000e+00 0.000000000000000e+00
0.000000000000000e+00 0.000000000000000e+00 0.000000000000000e+00
0.000000000000000e+00 0.000000000000000e+00 0.000000000000000e+00

0.000000000000000e+00 0.000000000000000e+00 0.000000000000000e+00
0.000000000000000e+00 0.000000000000000e+00 0.000000000000000e+00
0.000000000000000e+00 0.000000000000000e+00 0.000000000000000e+00

0.000000000000000e+00 0.000000000000000e+00 0.000000000000000e+00
0.000000000000000e+00 0.000000000000000e+00 0.000000000000000e+00
0.000000000000000e+00 0.000000000000000e+00 0.000000000000000e+00

0.000000000000000e+00 0.000000000000000e+00 0.000000000000000e+00
0.000000000000000e+00 0.000000000000000e+00 0.000000000000000e+00
0.000000000000000e+00 0.000000000000000e+00 0.000000000000000e+00

0.000000000000000e+00 0.000000000000000e+00 0.000000000000000e+00
0.000000000000000e+00 0.000000000000000e+00 0.000000000000000e+00
0.000000000000000e+00 0.000000000000000e+00 0.000000000000000e+00

0.000000000000000e+00 0.000000000000000e+00 0.000000000000000e+00
0.000000000000000e+00 0.000000000000000e+00 0.000000000000000e+00
0.000000000000000e+00 0.000000000000000e+00 0.000000000000000e+00

0.000000000000000e+00 0.000000000000000e+00 0.000000000000000e+00
0.000000000000000e+00 0.000000000000000e+00 0.000000000000000e+00
0.000000000000000e+00 0.000000000000000e+00 0.000000000000000e+00

0.000000000000000e+00 0.000000000000000e+00 0.000000000000000e+00
0.000000000000000e+00 0.000000000000000e+00 0.000000000000000e+00
0.000000000000000e+00 0.000000000000000e+00 0.000000000000000e+00

0.000000000000000e+00 0.000000000000000e+00 0.000000000000000e+00
0.000000000000000e+00 0.000000000000000e+00 0.000000000000000e+00
0.000000000000000e+00 0.000000000000000e+00 0.000000000000000e+00

0.000000000000000e+00 0.000000000000000e+00 0.000000000000000e+00
0.000000000000000e+00 0.000000000000000e+00 0.000000000000000e+00
0.000000000000000e+00 0.000000000000000e+00 0.000000000000000e+00

0.000000000000000e+00 0.000000000000000e+00 0.000000000000000e+00
0.000000000000000e+00 0.000000000000000e+00 0.000000000000000e+00
0.000000000000000e+00 0.000000000000000e+00 0.000000000000000e+00

0.000000000000000e+00 0.000000000000000e+00 0.000000000000000e+00
0.000000000000000e+00 0.000000000000000e+00 0.000000000000000e+00
0.000000000000000e+00 0.000000000000000e+00 0.000000000000000e+00

0.000000000000000e+00 0.000000000000000e+00 0.000000000000000e+00
0.000000000000000e+00 0.000000000000000e+00 0.000000000000000e+00
0.000000000000000e+00 0.000000000000000e+00 0.000000000000000e+00

0.000000000000000e+00 0.000000000000000e+00 0.000000000000000e+00
0.000000000000000e+00 0.000000000000000e+00 0.000000000000000e+00
0.000000000000000e+00 0.000000000000000e+00 0.000000000000000e+00

0.000000000000000e+00 0.000000000000000e+00 0.000000000000000e+00
0.000000000000000e+00 0.000000000000000e+00 0.000000000000000e+00
0.000000000000000e+00 0.000000000000000e+00 0.000000000000000e+00

0.000000000000000e+00 0.000000000000000e+00 0.000000000000000e+00
0.000000000000000e+00 0.000000000000000e+00 0.000000000000000e+00
0.000000000000000e+00 0.000000000000000e+00 0.000000000000000e+00

0.000000000000000e+00 0.000000000000000e+00 0.000000000000000e+00
0.000000000000000e+00 0.000000000000000e+00 0.000000000000000e+00
0.000000000000000e+00 0.000000000000000e+00 0.000000000000000e+00

0.000000000000000e+00 0.000000000000000e+00 0.000000000000000e+00
0.000000000000000e+00 0.000000000000000e+00 0.000000000000000e+00
0.000000000000000e+00 0.000000000000000e+00 0.000000000000000e+00

0.000000000000000e+00 0.000000000000000e+00 0.000000000000000e+00
0.000000000000000e+00 0.000000000000000e+00 0.000000000000000e+00
0.000000000000000e+00 0.000000000000000e+00 0.000000000000000e+00

0.000000000000000e+00 0.000000000000000e+00 0.000000000000000e+00
0.000000000000000e+00 0.000000000000000e+00 0.000000000000000e+00
0.000000000000000e+00 0.000000000000000e+00 0.000000000000000e+00

0.000000000000000e+00 0.000000000000000e+00 0.000000000000000e+00
0.000000000000000e+00 0.000000000000000e+00 0.000000000000000e+00
0.000000000000000e+00 0.000000000000000e+00 0.000000000000000e+00

0.000000000000000e+00 0.000000000000000e+00 0.000000000000000e+00
0.000000000000000e+00 0.000000000000000e+00 0.000000000000000e+00
0.000000000000000e+00 0.000000000000000e+00 0.000000000000000e+00

0.000000000000000e+00 0.000000000000000e+00 0.000000000000000e+00
0.000000000000000e+00 0.000000000000000e+00 0.000000000000000e+00
0.000000000000000e+00 0.000000000000000e+00 0.000000000000000e+00

0.000000000000000e+00 0.000000000000000e+00 0.000000000000000e+00
0.000000000000000e+00 0.000000000000000e+00 0.000000000000000e+00
0.000000000000000e+00 0.000000000000000e+00 0.000000000000000e+00

0.000000000000000e+00 0.000000000000000e+00 0.000000000000000e+00
0.000000000000000e+00 0.000000000000000e+00 0.000000000000000e+00
0.000000000000000e+00 0.000000000000000e+00 0.000000000000000e+00

0.000000000000000e+00 0.000000000000000e+00 0.000000000000000e+00
0.000000000000000e+00 0.000000000000000e+00 0.000000000000000e+00
0.000000000000000e+00 0.000000000000000e+00 0.000000000000000e+00

0.000000000000000e+00 0.000000000000000e+00 0.000000000000000e+00
0.000000000000000e+00 0.000000000000000e+00 0.000000000000000e+00
0.000000000000000e+00 0.000000000000000e+00 0.000000000000000e+00

0.000000000000000e+00 0.000000000000000e+00 0.000000000000000e+00
0.000000000000000e+00 0.000000000000000e+00 0.000000000000000e+00
0.000000000000000e+00 0.000000000000000e+00 0.000000000000000e+00

0.000000000000000e+00 0.000000000000000e+00 0.000000000000000e+00
0.000000000000000e+00 0.000000000000000e+00 0.000000000000000e+00
0.000000000000000e+00 0.000000000000000e+00 0.000000000000000e+00

0.000000000000000e+00 0.000000000000000e+00 0.000000000000000e+00
0.000000000000000e+00 0.000000000000000e+00 0.000000000000000e+00
0.000000000000000e+00 0.000000000000000e+00 0.000000000000000e+00

0.000000000000000e+00 0.000000000000000e+00 0.000000000000000e+00
0.000000000000000e+00 0.000000000000000e+00 0.000000000000000e+00
0.000000000000000e+00 0.000000000000000e+00 0.000000000000000e+00

0.000000000000000e+00 0.000000000000000e+00 0.000000000000000e+00
0.000000000000000e+00 0.000000000000000e+00 0.000000000000000e+00
0.000000000000000e+00 0.000000000000000e+00 0.000000000000000e+00

0.000000000000000e+00 0.000000000000000e+00 0.000000000000000e+00
0.000000000000000e+00 0.000000000000000e+00 0.000000000000000e+00
0.000000000000000e+00 0.000000000000000e+00 0.000000000000000e+00

0.000000000000000e+00 0.000000000000000e+00 0.000000000000000e+00
0.000000000000000e+00 0.000000000000000e+00 0.000000000000000e+00
0.000000000000000e+00 0.000000000000000e+00 0.000000000000000e+00

0.000000000000000e+00 0.000000000000000e+00 0.000000000000000e+00
0.000000000000000e+00 0.000000000000000e+00 0.000000000000000e+00
0.000000000000000e+00 0.000000000000000e+00 0.000000000000000e+00

0.000000000000000e+00 0.000000000000000e+00 0.000000000000000e+00
0.000000000000000e+00 0.000000000000000e+00 0.000000000000000e+00
0.000000000000000e+00 0.000000000000000e+00 0.000000000000000e+00

0.000000000000000e+00 0.000000000000000e+00 0.000000000000000e+00
0.000000000000000e+00 0.000000000000000e+00 0.000000000000000e+00
0.000000000000000e+00 0.000000000000000e+00 0.000000000000000e+00

0.000000000000000e+00 0.000000000000000e+00 0.000000000000000e+00
0.000000000000000e+00 0.000000000000000e+00 0.000000000000000e+00
0.000000000000000e+00 0.000000000000000e+00 0.000000000000000e+00

0.000000000000000e+00 0.000000000000000e+00 0.000000000000000e+00
0.000000000000000e+00 0.000000000000000e+00 0.000000000000000e+00
0.000000000000000e+00 0.000000000000000e+00 0.000000000000000e+00

0.000000000000000e+00 0.000000000000000e+00 0.000000000000000e+00
0.000000000000000e+00 0.000000000000000e+00 0.000000000000000e+00
0.000000000000000e+00 0.000000000000000e+00 0.000000000000000e+00

0.000000000000000e+00 0.000000000000000e+00 0.000000000000000e+00
0.000000000000000e+00 0.000000000000000e+00 0.000000000000000e+00
0.000000000000000e+00 0.000000000000000e+00 0.000000000000000e+00

0.000000000000000e+00 0.000000000000000e+00 0.000000000000000e+00
0.000000000000000e+00 0.000000000000000e+00 0.000000000000000e+00
0.000000000000000e+00 0.000000000000000e+00 0.000000000000000e+00

0.000000000000000e+00 0.000000000000000e+00 0.000000000000000e+00
0.000000000000000e+00 0.000000000000000e+00 0.000000000000000e+00
0.000000000000000e+00 0.000000000000000e+00 0.000000000000000e+00

0.000000000000000e+00 0.000000000000000e+00 0.000000000000000e+00
0.000000000000000e+00 0.000000000000000e+00 0.000000000000000e+00
0.000000000000000e+00 0.000000000000000e+00 0.000000000000000e+00

0.000000000000000e+00 0.000000000000000e+00 0.000000000000000e+00
0.000000000000000e+00 0.000000000000000e+00 0.000000000000000e+00
0.000000000000000e+00 0.000000000000000e+00 0.000000000000000e+00

0.000000000000000e+00 0.000000000000000e+00 0.000000000000000e+00
0.000000000000000e+00 0.000000000000000e+00 0.000000000000000e+00
0.000000000000000e+00 0.000000000000000e+00 0.000000000000000e+00

0.000000000000000e+00 0.000000000000000e+00 0.000000000000000e+00
0.000000000000000e+00 0.000000000000000e+00 0.000000000000000e+00
0.000000000000000e+00 0.000000000000000e+00 0.000000000000000e+00

0.000000000000000e+00 0.000000000000000e+00 0.000000000000000e+00
0.000000000000000e+00 0.000000000000000e+00 0.000000000000000e+00
0.000000000000000e+00 0.000000000000000e+00 0.000000000000000e+00

0.000000000000000e+00 0.000000000000000e+00 0.000000000000000e+00
0.000000000000000e+00 0.000000000000000e+00 0.000000000000000e+00
0.000000000000000e+00 0.000000000000000e+00 0.000000000000000e+00

0.000000000000000e+00 0.000000000000000e+00 0.000000000000000e+00
0.000000000000000e+00 0.000000000000000e+00 0.000000000000000e+00
0.000000000000000e+00 0.000000000000000e+00 0.000000000000000e+00

0.000000000000000e+00 0.000000000000000e+00 0.000000000000000e+00
0.000000000000000e+00 0.000000000000000e+00 0.000000000000000e+00
0.000000000000000e+00 0.000000000000000e+00 0.000000000000000e+00

0.000000000000000e+00 0.000000000000000e+00 0.000000000000000e+00
0.000000000000000e+00 0.000000000000000e+00 0.000000000000000e+00
0.000000000000000e+00 0.000000000000000e+00 0.000000000000000e+00

0.000000000000000e+00 0.000000000000000e+00 0.000000000000000e+00
0.000000000000000e+00 0.000000000000000e+00 0.000000000000000e+00
0.000000000000000e+00 0.000000000000000e+00 0.000000000000000e+00

0.000000000000000e+00 0.000000000000000e+00 0.000000000000000e+00
0.000000000000000e+00 0.000000000000000e+00 0.000000000000000e+00
0.000000000000000e+00 0.000000000000000e+00 0.000000000000000e+00

0.000000000000000e+00 0.000000000000000e+00 0.000000000000000e+00
0.000000000000000e+00 0.000000000000000e+00 0.000000000000000e+00
0.000000000000000e+00 0.000000000000000e+00 0.000000000000000e+00

0.000000000000000e+00 0.000000000000000e+00 0.000000000000000e+00
0.000000000000000e+00 0.000000000000000e+00 0.000000000000000e+00
0.000000000000000e+00 0.000000000000000e+00 0.000000000000000e+00

0.000000000000000e+00 0.000000000000000e+00 0.000000000000000e+00
0.000000000000000e+00 0.000000000000000e+00 0.000000000000000e+00
0.000000000000000e+00 0.000000000000000e+00 0.000000000000000e+00

0.000000000000000e+00 0.000000000000000e+00 0.000000000000000e+00
0.000000000000000e+00 0.000000000000000e+00 0.000000000000000e+00
0.000000000000000e+00 0.000000000000000e+00 0.000000000000000e+00

0.000000000000000e+00 0.000000000000000e+00 0.000000000000000e+00
0.000000000000000e+00 0.000000000000000e+00 0.000000000000000e+00
0.000000000000000e+00 0.000000000000000e+00 0.000000000000000e+00

0.000000000000000e+00 0.000000000000000e+00 0.000000000000000e+00
0.000000000000000e+00 0.000000000000000e+00 0.000000000000000e+00
0.000000000000000e+00 0.000000000000000e+00 0.000000000000000e+00

0.000000000000000e+00 0.000000000000000e+00 0.000000000000000e+00
0.000000000000000e+00 0.000000000000000e+00 0.000000000000000e+00
0.000000000000000e+00 0.000000000000000e+00 0.000000000000000e+00

0.000000000000000e+00 0.000000000000000e+00 0.000000000000000e+00
0.000000000000000e+00 0.000000000000000e+00 0.000000000000000e+00
0.000000000000000e+00 0.000000000000000e+00 0.000000000000000e+00

0.000000000000000e+00 0.000000000000000e+00 0.000000000000000e+00
0.000000000000000e+00 0.000000000000000e+00 0.000000000000000e+00
0.000000000000000e+00 0.000000000000000e+00 0.000000000000000e+00

0.000000000000000e+00 0.000000000000000e+00 0.000000000000000e+00
0.000000000000000e+00 0.000000000000000e+00 0.000000000000000e+00
0.000000000000000e+00 0.000000000000000e+00 0.000000000000000e+00

0.000000000000000e+00 0.000000000000000e+00 0.000000000000000e+00
0.000000000000000e+00 0.000000000000000e+00 0.000000000000000e+00
0.000000000000000e+00 0.000000000000000e+00 0.000000000000000e+00

0.000000000000000e+00 0.000000000000000e+00 0.000000000000000e+00
0.000000000000000e+00 0.000000000000000e+00 0.000000000000000e+00
0.000000000000000e+00 0.000000000000000e+00 0.000000000000000e+00

0.000000000000000e+00 0.000000000000000e+00 0.000000000000000e+00
0.000000000000000e+00 0.000000000000000e+00 0.000000000000000e+00
0.000000000000000e+00 0.000000000000000e+00 0.000000000000000e+00

0.000000000000000e+00 0.000000000000000e+00 0.000000000000000e+00
0.000000000000000e+00 0.000000000000000e+00 0.000000000000000e+00
0.000000000000000e+00 0.000000000000000e+00 0.000000000000000e+00

0.000000000000000e+00 0.000000000000000e+00 0.000000000000000e+00
0.000000000000000e+00 0.000000000000000e+00 0.000000000000000e+00
0.000000000000000e+00 0.000000000000000e+00 0.000000000000000e+00

0.000000000000000e+00 0.000000000000000e+00 0.000000000000000e+00
0.000000000000000e+00 0.000000000000000e+00 0.000000000000000e+00
0.000000000000000e+00 0.000000000000000e+00 0.000000000000000e+00

0.000000000000000e+00 0.000000000000000e+00 0.000000000000000e+00
0.000000000000000e+00 0.000000000000000e+00 0.000000000000000e+00
0.000000000000000e+00 0.000000000000000e+00 0.000000000000000e+00

0.000000000000000e+00 0.000000000000000e+00 0.000000000000000e+00
0.000000000000000e+00 0.000000000000000e+00 0.000000000000000e+00
0.000000000000000e+00 0.000000000000000e+00 0.000000000000000e+00

0.000000000000000e+00 0.000000000000000e+00 0.000000000000000e+00
0.000000000000000e+00 0.000000000000000e+00 0.000000000000000e+00
0.000000000000000e+00 0.000000000000000e+00 0.000000000000000e+00

0.000000000000000e+00 0.000000000000000e+00 0.000000000000000e+00
0.000000000000000e+00 0.000000000000000e+00 0.000000000000000e+00
0.000000000000000e+00 0.000000000000000e+00 0.000000000000000e+00

0.000000000000000e+00 0.000000000000000e+00 0.000000000000000e+00
0.000000000000000e+00 0.000000000000000e+00 0.000000000000000e+00
0.000000000000000e+00 0.000000000000000e+00 0.000000000000000e+00

0.000000000000000e+00 0.000000000000000e+00 0.000000000000000e+00
0.000000000000000e+00 0.000000000000000e+00 0.000000000000000e+00
0.000000000000000e+00 0.000000000000000e+00 0.000000000000000e+00

0.000000000000000e+00 0.000000000000000e+00 0.000000000000000e+00
0.000000000000000e+00 0.000000000000000e+00 0.000000000000000e+00
0.000000000000000e+00 0.000000000000000e+00 0.000000000000000e+00

0.000000000000000e+00 0.000000000000000e+00 0.000000000000000e+00
0.000000000000000e+00 0.000000000000000e+00 0.000000000000000e+00
0.000000000000000e+00 0.000000000000000e+00 0.000000000000000e+00

0.000000000000000e+00 0.000000000000000e+00 0.000000000000000e+00
0.000000000000000e+00 0.000000000000000e+00 0.000000000000000e+00
0.000000000000000e+00 0.000000000000000e+00 0.000000000000000e+00

0.000000000000000e+00 0.000000000000000e+00 0.000000000000000e+00
0.000000000000000e+00 0.000000000000000e+00 0.000000000000000e+00
0.000000000000000e+00 0.000000000000000e+00 0.000000000000000e+00

0.000000000000000e+00 0.000000000000000e+00 0.000000000000000e+00
0.000000000000000e+00 0.000000000000000e+00 0.000000000000000e+00
0.000000000000000e+00 0.000000000000000e+00 0.000000000000000e+00

0.000000000000000e+00 0.000000000000000e+00 0.000000000000000e+00
0.000000000000000e+00 0.000000000000000e+00 0.000000000000000e+00
0.000000000000000e+00 0.000000000000000e+00 0.000000000000000e+00

0.000000000000000e+00 0.000000000000000e+00 0.000000000000000e+00
0.000000000000000e+00 0.000000000000000e+00 0.000000000000000e+00
0.000000000000000e+00 0.000000000000000e+00 0.000000000000000e+00

0.000000000000000e+00 0.000000000000000e+00 0.000000000000000e+00
0.000000000000000e+00 0.000000000000000e+00 0.000000000000000e+00
0.000000000000000e+00 0.000000000000000e+00 0.000000000000000e+00

0.000000000000000e+00 0.000000000000000e+00 0.000000000000000e+00
0.000000000000000e+00 0.000000000000000e+00 0.000000000000000e+00
0.000000000000000e+00 0.000000000000000e+00 0.000000000000000e+00

0.000000000000000e+00 0.000000000000000e+00 0.000000000000000e+00
0.000000000000000e+00 0.000000000000000e+00 0.000000000000000e+00
0.000000000000000e+00 0.000000000000000e+00 0.000000000000000e+00

0.000000000000000e+00 0.000000000000000e+00 0.000000000000000e+00
0.000000000000000e+00 0.000000000000000e+00 0.000000000000000e+00
0.000000000000000e+00 0.000000000000000e+00 0.000000000000000e+00

0.000000000000000e+00 0.000000000000000e+00 0.000000000000000e+00
0.000000000000000e+00 0.000000000000000e+00 0.000000000000000e+00
0.000000000000000e+00 0.000000000000000e+00 0.000000000000000e+00

0.000000000000000e+00 0.000000000000000e+00 0.000000000000000e+00
0.000000000000000e+00 0.000000000000000e+00 0.000000000000000e+00
0.000000000000000e+00 0.000000000000000e+00 0.000000000000000e+00

0.000000000000000e+00 0.000000000000000e+00 0.000000000000000e+00
0.000000000000000e+00 0.000000000000000e+00 0.000000000000000e+00
0.000000000000000e+00 0.000000000000000e+00 0.000000000000000e+00

0.000000000000000e+00 0.000000000000000e+00 0.000000000000000e+00
0.000000000000000e+00 0.000000000000000e+00 0.000000000000000e+00
0.000000000000000e+00 0.000000000000000e+00 0.000000000000000e+00

0.000000000000000e+00 0.000000000000000e+00 0.000000000000000e+00
0.000000000000000e+00 0.000000000000000e+00 0.000000000000000e+00
0.000000000000000e+00 0.000000000000000e+00 0.000000000000000e+00

0.000000000000000e+00 0.000000000000000e+00 0.000000000000000e+00
0.000000000000000e+00 0.000000000000000e+00 0.000000000000000e+00
0.000000000000000e+00 0.000000000000000e+00 0.000000000000000e+00

0.000000000000000e+00 0.000000000000000e+00 0.000000000000000e+00
0.000000000000000e+00 0.000000000000000e+00 0.000000000000000e+00
0.000000000000000e+00 0.000000000000000e+00 0.000000000000000e+00

0.000000000000000e+00 0.000000000000000e+00 0.000000000000000e+00
0.000000000000000e+00 0.000000000000000e+00 0.000000000000000e+00
0.000000000000000e+00 0.000000000000000e+00 0.000000000000000e+00

0.000000000000000e+00 0.000000000000000e+00 0.000000000000000e+00
0.000000000000000e+00 0.000000000000000e+00 0.000000000000000e+00
0.000000000000000e+00 0.000000000000000e+00 0.000000000000000e+00

0.000000000000000e+00 0.000000000000000e+00 0.000000000000000e+00
0.000000000000000e+00 0.000000000000000e+00 0.000000000000000e+00
0.000000000000000e+00 0.000000000000000e+00 0.000000000000000e+00

0.000000000000000e+00 0.000000000000000e+00 0.000000000000000e+00
0.000000000000000e+00 0.000000000000000e+00 0.000000000000000e+00
0.000000000000000e+00 0.000000000000000e+00 0.000000000000000e+00

0.000000000000000e+00 0.000000000000000e+00 0.000000000000000e+00
0.000000000000000e+00 0.000000000000000e+00 0.000000000000000e+00
0.000000000000000e+00 0.000000000000000e+00 0.000000000000000e+00

0.000000000000000e+00 0.000000000000000e+00 0.000000000000000e+00
0.000000000000000e+00 0.000000000000000e+00 0.000000000000000e+00
0.000000000000000e+00 0.000000000000000e+00 0.000000000000000e+00

0.000000000000000e+00 0.000000000000000e+00 0.000000000000000e+00
0.000000000000000e+00 0.000000000000000e+00 0.000000000000000e+00
0.000000000000000e+00 0.000000000000000e+00 0.000000000000000e+00

0.000000000000000e+00 0.000000000000000e+00 0.000000000000000e+00
0.000000000000000e+00 0.000000000000000e+00 0.000000000000000e+00
0.000000000000000e+00 0.000000000000000e+00 0.000000000000000e+00

0.000000000000000e+00 0.000000000000000e+00 0.000000000000000e+00
0.000000000000000e+00 0.000000000000000e+00 0.000000000000000e+00
0.000000000000000e+00 0.000000000000000e+00 0.000000000000000e+00

0.000000000000000e+00 0.000000000000000e+00 0.000000000000000e+00
0.000000000000000e+00 0.000000000000000e+00 0.000000000000000e+00
0.000000000000000e+00 0.000000000000000e+00 0.000000000000000e+00

0.000000000000000e+00 0.000000000000000e+00 0.000000000000000e+00
0.000000000000000e+00 0.000000000000000e+00 0.000000000000000e+00
0.000000000000000e+00 0.000000000000000e+00 0.000000000000000e+00

0.000000000000000e+00 0.000000000000000e+00 0.000000000000000e+00
0.000000000000000e+00 0.000000000000000e+00 0.000000000000000e+00
0.000000000000000e+00 0.000000000000000e+00 0.000000000000000e+00

0.000000000000000e+00 0.000000000000000e+00 0.000000000000000e+00
0.000000000000000e+00 0.000000000000000e+00 0.000000000000000e+00
0.000000000000000e+00 0.000000000000000e+00 0.000000000000000e+00

0.000000000000000e+00 0.000000000000000e+00 0.000000000000000e+00
0.000000000000000e+00 0.000000000000000e+00 0.000000000000000e+00
0.000000000000000e+00 0.000000000000000e+00 0.000000000000000e+00

0.000000000000000e+00 0.000000000000000e+00 0.000000000000000e+00
0.000000000000000e+00 0.000000000000000e+00 0.000000000000000e+00
0.000000000000000e+00 0.000000000000000e+00 0.000000000000000e+00

0.000000000000000e+00 0.000000000000000e+00 0.000000000000000e+00
0.000000000000000e+00 0.000000000000000e+00 0.000000000000000e+00
0.000000000000000e+00 0.000000000000000e+00 0.000000000000000e+00

0.000000000000000e+00 0.000000000000000e+00 0.000000000000000e+00
0.000000000000000e+00 0.000000000000000e+00 0.000000000000000e+00
0.000000000000000e+00 0.000000000000000e+00 0.000000000000000e+00

0.000000000000000e+00 0.000000000000000e+00 0.000000000000000e+00
0.000000000000000e+00 0.000000000000000e+00 0.000000000000000e+00
0.000000000000000e+00 0.000000000000000e+00 0.000000000000000e+00

0.000000000000000e+00 0.000000000000000e+00 0.000000000000000e+00
0.000000000000000e+00 0.000000000000000e+00 0.000000000000000e+00
0.000000000000000e+00 0.000000000000000e+00 0.000000000000000e+00

0.000000000000000e+00 0.000000000000000e+00 0.000000000000000e+00
0.000000000000000e+00 0.000000000000000e+00 0.000000000000000e+00
0.000000000000000e+00 0.000000000000000e+00 0.000000000000000e+00

0.000000000000000e+00 0.000000000000000e+00 0.000000000000000e+00
0.000000000000000e+00 0.000000000000000e+00 0.000000000000000e+00
0.000000000000000e+00 0.000000000000000e+00 0.000000000000000e+00

0.000000000000000e+00 0.000000000000000e+00 0.000000000000000e+00
0.000000000000000e+00 0.000000000000000e+00 0.000000000000000e+00
0.000000000000000e+00 0.000000000000000e+00 0.000000000000000e+00

0.000000000000000e+00 0.000000000000000e+00 0.000000000000000e+00
0.000000000000000e+00 0.000000000000000e+00 0.000000000000000e+00
0.000000000000000e+00 0.000000000000000e+00 0.000000000000000e+00

0.000000000000000e+00 0.000000000000000e+00 0.000000000000000e+00
0.000000000000000e+00 0.000000000000000e+00 0.000000000000000e+00
0.000000000000000e+00 0.000000000000000e+00 0.000000000000000e+00

0.000000000000000e+00 0.000000000000000e+00 0.000000000000000e+00
0.000000000000000e+00 0.000000000000000e+00 0.000000000000000e+00
0.000000000000000e+00 0.000000000000000e+00 0.000000000000000e+00

0.000000000000000e+00 0.000000000000000e+00 0.000000000000000e+00
0.000000000000000e+00 0.000000000000000e+00 0.000000000000000e+00
0.000000000000000e+00 0.000000000000000e+00 0.000000000000000e+00

0.000000000000000e+00 0.000000000000000e+00 0.000000000000000e+00
0.000000000000000e+00 0.000000000000000e+00 0.000000000000000e+00
0.000000000000000e+00 0.000000000000000e+00 0.000000000000000e+00

0.000000000000000e+00 0.000000000000000e+00 0.000000000000000e+00
0.000000000000000e+00 0.000000000000000e+00 0.000000000000000e+00
0.000000000000000e+00 0.000000000000000e+00 0.000000000000000e+00

0.000000000000000e+00 0.000000000000000e+00 0.000000000000000e+00
0.000000000000000e+00 0.000000000000000e+00 0.000000000000000e+00
0.000000000000000e+00 0.000000000000000e+00 0.000000000000000e+00

0.000000000000000e+00 0.000000000000000e+00 0.000000000000000e+00
0.000000000000000e+00 0.000000000000000e+00 0.000000000000000e+00
0.000000000000000e+00 0.000000000000000e+00 0.000000000000000e+00

0.000000000000000e+00 0.000000000000000e+00 0.000000000000000e+00
0.000000000000000e+00 0.000000000000000e+00 0.000000000000000e+00
0.000000000000000e+00 0.000000000000000e+00 0.000000000000000e+00

0.000000000000000e+00 0.000000000000000e+00 0.000000000000000e+00
0.000000000000000e+00 0.000000000000000e+00 0.000000000000000e+00
0.000000000000000e+00 0.000000000000000e+00 0.000000000000000e+00

0.000000000000000e+00 0.000000000000000e+00 0.000000000000000e+00
0.000000000000000e+00 0.000000000000000e+00 0.000000000000000e+00
0.000000000000000e+00 0.000000000000000e+00 0.000000000000000e+00

0.000000000000000e+00 0.000000000000000e+00 0.000000000000000e+00
0.000000000000000e+00 0.000000000000000e+00 0.000000000000000e+00
0.000000000000000e+00 0.000000000000000e+00 0.000000000000000e+00

0.000000000000000e+00 0.000000000000000e+00 0.000000000000000e+00
0.000000000000000e+00 0.000000000000000e+00 0.000000000000000e+00
0.000000000000000e+00 0.000000000000000e+00 0.000000000000000e+00

0.000000000000000e+00 0.000000000000000e+00 0.000000000000000e+00
0.000000000000000e+00 0.000000000000000e+00 0.000000000000000e+00
0.000000000000000e+00 0.000000000000000e+00 0.000000000000000e+00

0.000000000000000e+00 0.000000000000000e+00 0.000000000000000e+00
0.000000000000000e+00 0.000000000000000e+00 0.000000000000000e+00
0.000000000000000e+00 0.000000000000000e+00 0.000000000000000e+00

0.000000000000000e+00 0.000000000000000e+00 0.000000000000000e+00
0.000000000000000e+00 0.000000000000000e+00 0.000000000000000e+00
0.000000000000000e+00 0.000000000000000e+00 0.000000000000000e+00

0.000000000000000e+00 0.000000000000000e+00 0.000000000000000e+00
0.000000000000000e+00 0.000000000000000e+00 0.000000000000000e+00
0.000000000000000e+00 0.000000000000000e+00 0.000000000000000e+00

0.000000000000000e+00 0.000000000000000e+00 0.000000000000000e+00
0.000000000000000e+00 0.000000000000000e+00 0.000000000000000e+00
0.000000000000000e+00 0.000000000000000e+00 0.000000000000000e+00

0.000000000000000e+00 0.000000000000000e+00 0.000000000000000e+00
0.000000000000000e+00 0.000000000000000e+00 0.000000000000000e+00
0.000000000000000e+00 0.000000000000000e+00 0.000000000000000e+00

0.000000000000000e+00 0.000000000000000e+00 0.000000000000000e+00
0.000000000000000e+00 0.000000000000000e+00 0.000000000000000e+00
0.000000000000000e+00 0.000000000000000e+00 0.000000000000000e+00

0.000000000000000e+00 0.000000000000000e+00 0.000000000000000e+00
0.000000000000000e+00 0.000000000000000e+00 0.000000000000000e+00
0.000000000000000e+00 0.000000000000000e+00 0.000000000000000e+00

0.000000000000000e+00 0.000000000000000e+00 0.000000000000000e+00
0.000000000000000e+00 0.000000000000000e+00 0.000000000000000e+00
0.000000000000000e+00 0.000000000000000e+00 0.000000000000000e+00

0.000000000000000e+00 0.000000000000000e+00 0.000000000000000e+00
0.000000000000000e+00 0.000000000000000e+00 0.000000000000000e+00
0.000000000000000e+00 0.000000000000000e+00 0.000000000000000e+00

0.000000000000000e+00 0.000000000000000e+00 0.000000000000000e+00
0.000000000000000e+00 0.000000000000000e+00 0.000000000000000e+00
0.000000000000000e+00 0.000000000000000e+00 0.000000000000000e+00

0.000000000000000e+00 0.000000000000000e+00 0.000000000000000e+00
0.000000000000000e+00 0.000000000000000e+00 0.000000000000000e+00
0.000000000000000e+00 0.000000000000000e+00 0.000000000000000e+00

0.000000000000000e+00 0.000000000000000e+00 0.000000000000000e+00
0.000000000000000e+00 0.000000000000000e+00 0.000000000000000e+00
0.000000000000000e+00 0.000000000000000e+00 0.000000000000000e+00

0.000000000000000e+00 0.000000000000000e+00 0.000000000000000e+00
0.000000000000000e+00 0.000000000000000e+00 0.000000000000000e+00
0.000000000000000e+00 0.000000000000000e+00 0.000000000000000e+00

0.000000000000000e+00 0.000000000000000e+00 0.000000000000000e+00
0.000000000000000e+00 0.000000000000000e+00 0.000000000000000e+00
0.000000000000000e+00 0.000000000000000e+00 0.000000000000000e+00

0.000000000000000e+00 0.000000000000000e+00 0.000000000000000e+00
0.000000000000000e+00 0.000000000000000e+00 0.000000000000000e+00
0.000000000000000e+00 0.000000000000000e+00 0.000000000000000e+00

0.000000000000000e+00 0.000000000000000e+00 0.000000000000000e+00
0.000000000000000e+00 0.000000000000000e+00 0.000000000000000e+00
0.000000000000000e+00 0.000000000000000e+00 0.000000000000000e+00

0.000000000000000e+00 0.000000000000000e+00 0.000000000000000e+00
0.000000000000000e+00 0.000000000000000e+00 0.000000000000000e+00
0.000000000000000e+00 0.000000000000000e+00 0.000000000000000e+00

0.000000000000000e+00 0.000000000000000e+00 0.000000000000000e+00
0.000000000000000e+00 0.000000000000000e+00 0.000000000000000e+00
0.000000000000000e+00 0.000000000000000e+00 0.000000000000000e+00

0.000000000000000e+00 0.000000000000000e+00 0.000000000000000e+00
0.000000000000000e+00 0.000000000000000e+00 0.000000000000000e+00
0.000000000000000e+00 0.000000000000000e+00 0.000000000000000e+00

0.000000000000000e+00 0.000000000000000e+00 0.000000000000000e+00
0.000000000000000e+00 0.000000000000000e+00 0.000000000000000e+00
0.000000000000000e+00 0.000000000000000e+00 0.000000000000000e+00

0.000000000000000e+00 0.000000000000000e+00 0.000000000000000e+00
0.000000000000000e+00 0.000000000000000e+00 0.000000000000000e+00
0.000000000000000e+00 0.000000000000000e+00 0.000000000000000e+00

0.000000000000000e+00 0.000000000000000e+00 0.000000000000000e+00
0.000000000000000e+00 0.000000000000000e+00 0.000000000000000e+00
0.000000000000000e+00 0.000000000000000e+00 0.000000000000000e+00

0.000000000000000e+00 0.000000000000000e+00 0.000000000000000e+00
0.000000000000000e+00 0.000000000000000e+00 0.000000000000000e+00
0.000000000000000e+00 0.000000000000000e+00 0.000000000000000e+00

0.000000000000000e+00 0.000000000000000e+00 0.000000000000000e+00
0.000000000000000e+00 0.000000000000000e+00 0.000000000000000e+00
0.000000000000000e+00 0.000000000000000e+00 0.000000000000000e+00

0.000000000000000e+00 0.000000000000000e+00 0.000000000000000e+00
0.000000000000000e+00 0.000000000000000e+00 0.000000000000000e+00
0.000000000000000e+00 0.000000000000000e+00 0.000000000000000e+00

0.000000000000000e+00 0.000000000000000e+00 0.000000000000000e+00
0.000000000000000e+00 0.000000000000000e+00 0.000000000000000e+00
0.000000000000000e+00 0.000000000000000e+00 0.000000000000000e+00

0.000000000000000e+00 0.000000000000000e+00 0.000000000000000e+00
0.000000000000000e+00 0.000000000000000e+00 0.000000000000000e+00
0.000000000000000e+00 0.000000000000000e+00 0.000000000000000e+00

0.000000000000000e+00 0.000000000000000e+00 0.000000000000000e+00
0.000000000000000e+00 0.000000000000000e+00 0.000000000000000e+00
0.000000000000000e+00 0.000000000000000e+00 0.000000000000000e+00

0.000000000000000e+00 0.000000000000000e+00 0.000000000000000e+00
0.000000000000000e+00 0.000000000000000e+00 0.000000000000000e+00
0.000000000000000e+00 0.000000000000000e+00 0.000000000000000e+00

0.000000000000000e+00 0.000000000000000e+00 0.000000000000000e+00
0.000000000000000e+00 0.000000000000000e+00 0.000000000000000e+00
0.000000000000000e+00 0.000000000000000e+00 0.000000000000000e+00

0.000000000000000e+00 0.000000000000000e+00 0.000000000000000e+00
0.000000000000000e+00 0.000000000000000e+00 0.000000000000000e+00
0.000000000000000e+00 0.000000000000000e+00 0.000000000000000e+00

0.000000000000000e+00 0.000000000000000e+00 0.000000000000000e+00
0.000000000000000e+00 0.000000000000000e+00 0.000000000000000e+00
0.000000000000000e+00 0.000000000000000e+00 0.000000000000000e+00

0.000000000000000e+00 0.000000000000000e+00 0.000000000000000e+00
0.000000000000000e+00 0.000000000000000e+00 0.000000000000000e+00
0.000000000000000e+00 0.000000000000000e+00 0.000000000000000e+00

0.000000000000000e+00 0.000000000000000e+00 0.000000000000000e+00
0.000000000000000e+00 0.000000000000000e+00 0.000000000000000e+00
0.000000000000000e+00 0.000000000000000e+00 0.000000000000000e+00

0.000000000000000e+00 0.000000000000000e+00 0.000000000000000e+00
0.000000000000000e+00 0.000000000000000e+00 0.000000000000000e+00
0.000000000000000e+00 0.000000000000000e+00 0.000000000000000e+00

0.000000000000000e+00 0.000000000000000e+00 0.000000000000000e+00
0.000000000000000e+00 0.000000000000000e+00 0.000000000000000e+00
0.000000000000000e+00 0.000000000000000e+00 0.000000000000000e+00

0.000000000000000e+00 0.000000000000000e+00 0.000000000000000e+00
0.000000000000000e+00 0.000000000000000e+00 0.000000000000000e+00
0.000000000000000e+00 0.000000000000000e+00 0.000000000000000e+00

0.000000000000000e+00 0.000000000000000e+00 0.000000000000000e+00
0.000000000000000e+00 0.000000000000000e+00 0.000000000000000e+00
0.000000000000000e+00 0.000000000000000e+00 0.000000000000000e+00

0.000000000000000e+00 0.000000000000000e+00 0.000000000000000e+00
0.000000000000000e+00 0.000000000000000e+00 0.000000000000000e+00
0.000000000000000e+00 0.000000000000000e+00 0.000000000000000e+00

0.000000000000000e+00 0.000000000000000e+00 0.000000000000000e+00
0.000000000000000e+00 0.000000000000000e+00 0.000000000000000e+00
0.000000000000000e+00 0.000000000000000e+00 0.000000000000000e+00

0.000000000000000e+00 0.000000000000000e+00 0.000000000000000e+00
0.000000000000000e+00 0.000000000000000e+00 0.000000000000000e+00
0.000000000000000e+00 0.000000000000000e+00 0.000000000000000e+00

0.000000000000000e+00 0.000000000000000e+00 0.000000000000000e+00
0.000000000000000e+00 0.000000000000000e+00 0.000000000000000e+00
0.000000000000000e+00 0.000000000000000e+00 0.000000000000000e+00

0.000000000000000e+00 0.000000000000000e+00 0.000000000000000e+00
0.000000000000000e+00 0.000000000000000e+00 0.000000000000000e+00
0.000000000000000e+00 0.000000000000000e+00 0.000000000000000e+00

0.000000000000000e+00 0.000000000000000e+00 0.000000000000000e+00
0.000000000000000e+00 0.000000000000000e+00 0.000000000000000e+00
0.000000000000000e+00 0.000000000000000e+00 0.000000000000000e+00

0.000000000000000e+00 0.000000000000000e+00 0.000000000000000e+00
0.000000000000000e+00 0.000000000000000e+00 0.000000000000000e+00
0.000000000000000e+00 0.000000000000000e+00 0.000000000000000e+00

0.000000000000000e+00 0.000000000000000e+00 0.000000000000000e+00
0.000000000000000e+00 0.000000000000000e+00 0.000000000000000e+00
0.000000000000000e+00 0.000000000000000e+00 0.000000000000000e+00

0.000000000000000e+00 0.000000000000000e+00 0.000000000000000e+00
0.000000000000000e+00 0.000000000000000e+00 0.000000000000000e+00
0.000000000000000e+00 0.000000000000000e+00 0.000000000000000e+00

0.000000000000000e+00 0.000000000000000e+00 0.000000000000000e+00
0.000000000000000e+00 0.000000000000000e+00 0.000000000000000e+00
0.000000000000000e+00 0.000000000000000e+00 0.000000000000000e+00

0.000000000000000e+00 0.000000000000000e+00 0.000000000000000e+00
0.000000000000000e+00 0.000000000000000e+00 0.000000000000000e+00
0.000000000000000e+00 0.000000000000000e+00 0.000000000000000e+00

0.000000000000000e+00 0.000000000000000e+00 0.000000000000000e+00
0.000000000000000e+00 0.000000000000000e+00 0.000000000000000e+00
0.000000000000000e+00 0.000000000000000e+00 0.000000000000000e+00

0.000000000000000e+00 0.000000000000000e+00 0.000000000000000e+00
0.000000000000000e+00 0.000000000000000e+00 0.000000000000000e+00
0.000000000000000e+00 0.000000000000000e+00 0.000000000000000e+00

0.000000000000000e+00 0.000000000000000e+00 0.000000000000000e+00
0.000000000000000e+00 0.000000000000000e+00 0.000000000000000e+00
0.000000000000000e+00 0.000000000000000e+00 0.000000000000000e+00

0.000000000000000e+00 0.000000000000000e+00 0.000000000000000e+00
0.000000000000000e+00 0.000000000000000e+00 0.000000000000000e+00
0.000000000000000e+00 0.000000000000000e+00 0.000000000000000e+00

0.000000000000000e+00 0.000000000000000e+00 0.000000000000000e+00
0.000000000000000e+00 0.000000000000000e+00 0.000000000000000e+00
0.000000000000000e+00 0.000000000000000e+00 0.000000000000000e+00

0.000000000000000e+00 0.000000000000000e+00 0.000000000000000e+00
0.000000000000000e+00 0.000000000000000e+00 0.000000000000000e+00
0.000000000000000e+00 0.000000000000000e+00 0.000000000000000e+00

0.000000000000000e+00 0.000000000000000e+00 0.000000000000000e+00
0.000000000000000e+00 0.000000000000000e+00 0.000000000000000e+00
0.000000000000000e+00 0.000000000000000e+00 0.000000000000000e+00

0.000000000000000e+00 0.000000000000000e+00 0.000000000000000e+00
0.000000000000000e+00 0.000000000000000e+00 0.000000000000000e+00
0.000000000000000e+00 0.000000000000000e+00 0.000000000000000e+00

0.000000000000000e+00 0.000000000000000e+00 0.000000000000000e+00
0.000000000000000e+00 0.000000000000000e+00 0.000000000000000e+00
0.000000000000000e+00 0.000000000000000e+00 0.000000000000000e+00

0.000000000000000e+00 0.000000000000000e+00 0.000000000000000e+00
0.000000000000000e+00 0.000000000000000e+00 0.000000000000000e+00
0.000000000000000e+00 0.000000000000000e+00 0.000000000000000e+00

0.000000000000000e+00 0.000000000000000e+00 0.000000000000000e+00
0.000000000000000e+00 0.000000000000000e+00 0.000000000000000e+00
0.000000000000000e+00 0.000000000000000e+00 0.000000000000000e+00

0.000000000000000e+00 0.000000000000000e+00 0.000000000000000e+00
0.000000000000000e+00 0.000000000000000e+00 0.000000000000000e+00
0.000000000000000e+00 0.000000000000000e+00 0.000000000000000e+00

0.000000000000000e+00 0.000000000000000e+00 0.000000000000000e+00
0.000000000000000e+00 0.000000000000000e+00 0.000000000000000e+00
0.000000000000000e+00 0.000000000000000e+00 0.000000000000000e+00

0.000000000000000e+00 0.000000000000000e+00 0.000000000000000e+00
0.000000000000000e+00 0.000000000000000e+00 0.000000000000000e+00
0.000000000000000e+00 0.000000000000000e+00 0.000000000000000e+00

0.000000000000000e+00 0.000000000000000e+00 0.000000000000000e+00
0.000000000000000e+00 0.000000000000000e+00 0.000000000000000e+00
0.000000000000000e+00 0.000000000000000e+00 0.000000000000000e+00

0.000000000000000e+00 0.000000000000000e+00 0.000000000000000e+00
0.000000000000000e+00 0.000000000000000e+00 0.000000000000000e+00
0.000000000000000e+00 0.000000000000000e+00 0.000000000000000e+00

0.000000000000000e+00 0.000000000000000e+00 0.000000000000000e+00
0.000000000000000e+00 0.000000000000000e+00 0.000000000000000e+00
0.000000000000000e+00 0.000000000000000e+00 0.000000000000000e+00

0.000000000000000e+00 0.000000000000000e+00 0.000000000000000e+00
0.000000000000000e+00 0.000000000000000e+00 0.000000000000000e+00
0.000000000000000e+00 0.000000000000000e+00 0.000000000000000e+00

0.000000000000000e+00 0.000000000000000e+00 0.000000000000000e+00
0.000000000000000e+00 0.000000000000000e+00 0.000000000000000e+00
0.000000000000000e+00 0.000000000000000e+00 0.000000000000000e+00

0.000000000000000e+00 0.000000000000000e+00 0.000000000000000e+00
0.000000000000000e+00 0.000000000000000e+00 0.000000000000000e+00
0.000000000000000e+00 0.000000000000000e+00 0.000000000000000e+00

0.000000000000000e+00 0.000000000000000e+00 0.000000000000000e+00
0.000000000000000e+00 0.000000000000000e+00 0.000000000000000e+00
0.000000000000000e+00 0.000000000000000e+00 0.000000000000000e+00

0.000000000000000e+00 0.000000000000000e+00 0.000000000000000e+00
0.000000000000000e+00 0.000000000000000e+00 0.000000000000000e+00
0.000000000000000e+00 0.000000000000000e+00 0.000000000000000e+00

0.000000000000000e+00 0.000000000000000e+00 0.000000000000000e+00
0.000000000000000e+00 0.000000000000000e+00 0.000000000000000e+00
0.000000000000000e+00 0.000000000000000e+00 0.000000000000000e+00

0.000000000000000e+00 0.000000000000000e+00 0.000000000000000e+00
0.000000000000000e+00 0.000000000000000e+00 0.000000000000000e+00
0.000000000000000e+00 0.000000000000000e+00 0.000000000000000e+00

0.000000000000000e+00 0.000000000000000e+00 0.000000000000000e+00
0.000000000000000e+00 0.000000000000000e+00 0.000000000000000e+00
0.000000000000000e+00 0.000000000000000e+00 0.000000000000000e+00

0.000000000000000e+00 0.000000000000000e+00 0.000000000000000e+00
0.000000000000000e+00 0.000000000000000e+00 0.000000000000000e+00
0.000000000000000e+00 0.000000000000000e+00 0.000000000000000e+00

0.000000000000000e+00 0.000000000000000e+00 0.000000000000000e+00
0.000000000000000e+00 0.000000000000000e+00 0.000000000000000e+00
0.000000000000000e+00 0.000000000000000e+00 0.000000000000000e+00

0.000000000000000e+00 0.000000000000000e+00 0.000000000000000e+00
0.000000000000000e+00 0.000000000000000e+00 0.000000000000000e+00
0.000000000000000e+00 0.000000000000000e+00 0.000000000000000e+00

0.000000000000000e+00 0.000000000000000e+00 0.000000000000000e+00
0.000000000000000e+00 0.000000000000000e+00 0.000000000000000e+00
0.000000000000000e+00 0.000000000000000e+00 0.000000000000000e+00

0.000000000000000e+00 0.000000000000000e+00 0.000000000000000e+00
0.000000000000000e+00 0.000000000000000e+00 0.000000000000000e+00
0.000000000000000e+00 0.000000000000000e+00 0.000000000000000e+00

0.000000000000000e+00 0.000000000000000e+00 0.000000000000000e+00
0.000000000000000e+00 0.000000000000000e+00 0.000000000000000e+00
0.000000000000000e+00 0.000000000000000e+00 0.000000000000000e+00

0.000000000000000e+00 0.000000000000000e+00 0.000000000000000e+00
0.000000000000000e+00 0.000000000000000e+00 0.000000000000000e+00
0.000000000000000e+00 0.000000000000000e+00 0.000000000000000e+00

0.000000000000000e+00 0.000000000000000e+00 0.000000000000000e+00
0.000000000000000e+00 0.000000000000000e+00 0.000000000000000e+00
0.000000000000000e+00 0.000000000000000e+00 0.000000000000000e+00

0.000000000000000e+00 0.000000000000000e+00 0.000000000000000e+00
0.000000000000000e+00 0.000000000000000e+00 0.000000000000000e+00
0.000000000000000e+00 0.000000000000000e+00 0.000000000000000e+00

0.000000000000000e+00 0.000000000000000e+00 0.000000000000000e+00
0.000000000000000e+00 0.000000000000000e+00 0.000000000000000e+00
0.000000000000000e+00 0.000000000000000e+00 0.000000000000000e+00

0.000000000000000e+00 0.000000000000000e+00 0.000000000000000e+00
0.000000000000000e+00 0.000000000000000e+00 0.000000000000000e+00
0.000000000000000e+00 0.000000000000000e+00 0.000000000000000e+00

0.000000000000000e+00 0.000000000000000e+00 0.000000000000000e+00
0.000000000000000e+00 0.000000000000000e+00 0.000000000000000e+00
0.000000000000000e+00 0.000000000000000e+00 0.000000000000000e+00

0.000000000000000e+00 0.000000000000000e+00 0.000000000000000e+00
0.000000000000000e+00 0.000000000000000e+00 0.000000000000000e+00
0.000000000000000e+00 0.000000000000000e+00 0.000000000000000e+00

0.000000000000000e+00 0.000000000000000e+00 0.000000000000000e+00
0.000000000000000e+00 0.000000000000000e+00 0.000000000000000e+00
0.000000000000000e+00 0.000000000000000e+00 0.000000000000000e+00

0.000000000000000e+00 0.000000000000000e+00 0.000000000000000e+00
0.000000000000000e+00 0.000000000000000e+00 0.000000000000000e+00
0.000000000000000e+00 0.000000000000000e+00 0.000000000000000e+00

0.000000000000000e+00 0.000000000000000e+00 0.000000000000000e+00
0.000000000000000e+00 0.000000000000000e+00 0.000000000000000e+00
0.000000000000000e+00 0.000000000000000e+00 0.000000000000000e+00

0.000000000000000e+00 0.000000000000000e+00 0.000000000000000e+00
0.000000000000000e+00 0.000000000000000e+00 0.000000000000000e+00
0.000000000000000e+00 0.000000000000000e+00 0.000000000000000e+00

0.000000000000000e+00 0.000000000000000e+00 0.000000000000000e+00
0.000000000000000e+00 0.000000000000000e+00 0.000000000000000e+00
0.000000000000000e+00 0.000000000000000e+00 0.000000000000000e+00

0.000000000000000e+00 0.000000000000000e+00 0.000000000000000e+00
0.000000000000000e+00 0.000000000000000e+00 0.000000000000000e+00
0.000000000000000e+00 0.000000000000000e+00 0.000000000000000e+00

0.000000000000000e+00 0.000000000000000e+00 0.000000000000000e+00
0.000000000000000e+00 0.000000000000000e+00 0.000000000000000e+00
0.000000000000000e+00 0.000000000000000e+00 0.000000000000000e+00

0.000000000000000e+00 0.000000000000000e+00 0.000000000000000e+00
0.000000000000000e+00 0.000000000000000e+00 0.000000000000000e+00
0.000000000000000e+00 0.000000000000000e+00 0.000000000000000e+00

0.000000000000000e+00 0.000000000000000e+00 0.000000000000000e+00
0.000000000000000e+00 0.000000000000000e+00 0.000000000000000e+00
0.000000000000000e+00 0.000000000000000e+00 0.000000000000000e+00

0.000000000000000e+00 0.000000000000000e+00 0.000000000000000e+00
0.000000000000000e+00 0.000000000000000e+00 0.000000000000000e+00
0.000000000000000e+00 0.000000000000000e+00 0.000000000000000e+00

0.000000000000000e+00 0.000000000000000e+00 0.000000000000000e+00
0.000000000000000e+00 0.000000000000000e+00 0.000000000000000e+00
0.000000000000000e+00 0.000000000000000e+00 0.000000000000000e+00

0.000000000000000e+00 0.000000000000000e+00 0.000000000000000e+00
0.000000000000000e+00 0.000000000000000e+00 0.000000000000000e+00
0.000000000000000e+00 0.000000000000000e+00 0.000000000000000e+00

0.000000000000000e+00 0.000000000000000e+00 0.000000000000000e+00
0.000000000000000e+00 0.000000000000000e+00 0.000000000000000e+00
0.000000000000000e+00 0.000000000000000e+00 0.000000000000000e+00

0.000000000000000e+00 0.000000000000000e+00 0.000000000000000e+00
0.000000000000000e+00 0.000000000000000e+00 0.000000000000000e+00
0.000000000000000e+00 0.000000000000000e+00 0.000000000000000e+00

0.000000000000000e+00 0.000000000000000e+00 0.000000000000000e+00
0.000000000000000e+00 0.000000000000000e+00 0.000000000000000e+00
0.000000000000000e+00 0.000000000000000e+00 0.000000000000000e+00

0.000000000000000e+00 0.000000000000000e+00 0.000000000000000e+00
0.000000000000000e+00 0.000000000000000e+00 0.000000000000000e+00
0.000000000000000e+00 0.000000000000000e+00 0.000000000000000e+00

0.000000000000000e+00 0.000000000000000e+00 0.000000000000000e+00
0.000000000000000e+00 0.000000000000000e+00 0.000000000000000e+00
0.000000000000000e+00 0.000000000000000e+00 0.000000000000000e+00

0.000000000000000e+00 0.000000000000000e+00 0.000000000000000e+00
0.000000000000000e+00 0.000000000000000e+00 0.000000000000000e+00
0.000000000000000e+00 0.000000000000000e+00 0.000000000000000e+00

0.000000000000000e+00 0.000000000000000e+00 0.000000000000000e+00
0.000000000000000e+00 0.000000000000000e+00 0.000000000000000e+00
0.000000000000000e+00 0.000000000000000e+00 0.000000000000000e+00

0.000000000000000e+00 0.000000000000000e+00 0.000000000000000e+00
0.000000000000000e+00 0.000000000000000e+00 0.000000000000000e+00
0.000000000000000e+00 0.000000000000000e+00 0.000000000000000e+00

0.000000000000000e+00 0.000000000000000e+00 0.000000000000000e+00
0.000000000000000e+00 0.000000000000000e+00 0.000000000000000e+00
0.000000000000000e+00 0.000000000000000e+00 0.000000000000000e+00

0.000000000000000e+00 0.000000000000000e+00 0.000000000000000e+00
0.000000000000000e+00 0.000000000000000e+00 0.000000000000000e+00
0.000000000000000e+00 0.000000000000000e+00 0.000000000000000e+00

0.000000000000000e+00 0.000000000000000e+00 0.000000000000000e+00
0.000000000000000e+00 0.000000000000000e+00 0.000000000000000e+00
0.000000000000000e+00 0.000000000000000e+00 0.000000000000000e+00

0.000000000000000e+00 0.000000000000000e+00 0.000000000000000e+00
0.000000000000000e+00 0.000000000000000e+00 0.000000000000000e+00
0.000000000000000e+00 0.000000000000000e+00 0.000000000000000e+00

0.000000000000000e+00 0.000000000000000e+00 0.000000000000000e+00
0.000000000000000e+00 0.000000000000000e+00 0.000000000000000e+00
0.000000000000000e+00 0.000000000000000e+00 0.000000000000000e+00

0.000000000000000e+00 0.000000000000000e+00 0.000000000000000e+00
0.000000000000000e+00 0.000000000000000e+00 0.000000000000000e+00
0.000000000000000e+00 0.000000000000000e+00 0.000000000000000e+00

0.000000000000000e+00 0.000000000000000e+00 0.000000000000000e+00
0.000000000000000e+00 0.000000000000000e+00 0.000000000000000e+00
0.000000000000000e+00 0.000000000000000e+00 0.000000000000000e+00

0.000000000000000e+00 0.000000000000000e+00 0.000000000000000e+00
0.000000000000000e+00 0.000000000000000e+00 0.000000000000000e+00
0.000000000000000e+00 0.000000000000000e+00 0.000000000000000e+00

0.000000000000000e+00 0.000000000000000e+00 0.000000000000000e+00
0.000000000000000e+00 0.000000000000000e+00 0.000000000000000e+00
0.000000000000000e+00 0.000000000000000e+00 0.000000000000000e+00

0.000000000000000e+00 0.000000000000000e+00 0.000000000000000e+00
0.000000000000000e+00 0.000000000000000e+00 0.000000000000000e+00
0.000000000000000e+00 0.000000000000000e+00 0.000000000000000e+00

0.000000000000000e+00 0.000000000000000e+00 0.000000000000000e+00
0.000000000000000e+00 0.000000000000000e+00 0.000000000000000e+00
0.000000000000000e+00 0.000000000000000e+00 0.000000000000000e+00

0.000000000000000e+00 0.000000000000000e+00 0.000000000000000e+00
0.000000000000000e+00 0.000000000000000e+00 0.000000000000000e+00
0.000000000000000e+00 0.000000000000000e+00 0.000000000000000e+00

0.000000000000000e+00 0.000000000000000e+00 0.000000000000000e+00
0.000000000000000e+00 0.000000000000000e+00 0.000000000000000e+00
0.000000000000000e+00 0.000000000000000e+00 0.000000000000000e+00

0.000000000000000e+00 0.000000000000000e+00 0.000000000000000e+00
0.000000000000000e+00 0.000000000000000e+00 0.000000000000000e+00
0.000000000000000e+00 0.000000000000000e+00 0.000000000000000e+00

0.000000000000000e+00 0.000000000000000e+00 0.000000000000000e+00
0.000000000000000e+00 0.000000000000000e+00 0.000000000000000e+00
0.000000000000000e+00 0.000000000000000e+00 0.000000000000000e+00

0.000000000000000e+00 0.000000000000000e+00 0.000000000000000e+00
0.000000000000000e+00 0.000000000000000e+00 0.000000000000000e+00
0.000000000000000e+00 0.000000000000000e+00 0.000000000000000e+00

0.000000000000000e+00 0.000000000000000e+00 0.000000000000000e+00
0.000000000000000e+00 0.000000000000000e+00 0.000000000000000e+00
0.000000000000000e+00 0.000000000000000e+00 0.000000000000000e+00

0.000000000000000e+00 0.000000000000000e+00 0.000000000000000e+00
0.000000000000000e+00 0.000000000000000e+00 0.000000000000000e+00
0.000000000000000e+00 0.000000000000000e+00 0.000000000000000e+00

0.000000000000000e+00 0.000000000000000e+00 0.000000000000000e+00
0.000000000000000e+00 0.000000000000000e+00 0.000000000000000e+00
0.000000000000000e+00 0.000000000000000e+00 0.000000000000000e+00

0.000000000000000e+00 0.000000000000000e+00 0.000000000000000e+00
0.000000000000000e+00 0.000000000000000e+00 0.000000000000000e+00
0.000000000000000e+00 0.000000000000000e+00 0.000000000000000e+00

0.000000000000000e+00 0.000000000000000e+00 0.000000000000000e+00
0.000000000000000e+00 0.000000000000000e+00 0.000000000000000e+00
0.000000000000000e+00 0.000000000000000e+00 0.000000000000000e+00

0.000000000000000e+00 0.000000000000000e+00 0.000000000000000e+00
0.000000000000000e+00 0.000000000000000e+00 0.000000000000000e+00
0.000000000000000e+00 0.000000000000000e+00 0.000000000000000e+00

0.000000000000000e+00 0.000000000000000e+00 0.000000000000000e+00
0.000000000000000e+00 0.000000000000000e+00 0.000000000000000e+00
0.000000000000000e+00 0.000000000000000e+00 0.000000000000000e+00

0.000000000000000e+00 0.000000000000000e+00 0.000000000000000e+00
0.000000000000000e+00 0.000000000000000e+00 0.000000000000000e+00
0.000000000000000e+00 0.000000000000000e+00 0.000000000000000e+00

0.000000000000000e+00 0.000000000000000e+00 0.000000000000000e+00
0.000000000000000e+00 0.000000000000000e+00 0.000000000000000e+00
0.000000000000000e+00 0.000000000000000e+00 0.000000000000000e+00

0.000000000000000e+00 0.000000000000000e+00 0.000000000000000e+00
0.000000000000000e+00 0.000000000000000e+00 0.000000000000000e+00
0.000000000000000e+00 0.000000000000000e+00 0.000000000000000e+00

0.000000000000000e+00 0.000000000000000e+00 0.000000000000000e+00
0.000000000000000e+00 0.000000000000000e+00 0.000000000000000e+00
0.000000000000000e+00 0.000000000000000e+00 0.000000000000000e+00

0.000000000000000e+00 0.000000000000000e+00 0.000000000000000e+00
0.000000000000000e+00 0.000000000000000e+00 0.000000000000000e+00
0.000000000000000e+00 0.000000000000000e+00 0.000000000000000e+00

0.000000000000000e+00 0.000000000000000e+00 0.000000000000000e+00
0.000000000000000e+00 0.000000000000000e+00 0.000000000000000e+00
0.000000000000000e+00 0.000000000000000e+00 0.000000000000000e+00

0.000000000000000e+00 0.000000000000000e+00 0.000000000000000e+00
0.000000000000000e+00 0.000000000000000e+00 0.000000000000000e+00
0.000000000000000e+00 0.000000000000000e+00 0.000000000000000e+00

0.000000000000000e+00 0.000000000000000e+00 0.000000000000000e+00
0.000000000000000e+00 0.000000000000000e+00 0.000000000000000e+00
0.000000000000000e+00 0.000000000000000e+00 0.000000000000000e+00

0.000000000000000e+00 0.000000000000000e+00 0.000000000000000e+00
0.000000000000000e+00 0.000000000000000e+00 0.000000000000000e+00
0.000000000000000e+00 0.000000000000000e+00 0.000000000000000e+00

0.000000000000000e+00 0.000000000000000e+00 0.000000000000000e+00
0.000000000000000e+00 0.000000000000000e+00 0.000000000000000e+00
0.000000000000000e+00 0.000000000000000e+00 0.000000000000000e+00

0.000000000000000e+00 0.000000000000000e+00 0.000000000000000e+00
0.000000000000000e+00 0.000000000000000e+00 0.000000000000000e+00
0.000000000000000e+00 0.000000000000000e+00 0.000000000000000e+00

0.000000000000000e+00 0.000000000000000e+00 0.000000000000000e+00
0.000000000000000e+00 0.000000000000000e+00 0.000000000000000e+00
0.000000000000000e+00 0.000000000000000e+00 0.000000000000000e+00

0.000000000000000e+00 0.000000000000000e+00 0.000000000000000e+00
0.000000000000000e+00 0.000000000000000e+00 0.000000000000000e+00
0.000000000000000e+00 0.000000000000000e+00 0.000000000000000e+00

0.000000000000000e+00 0.000000000000000e+00 0.000000000000000e+00
0.000000000000000e+00 0.000000000000000e+00 0.000000000000000e+00
0.000000000000000e+00 0.000000000000000e+00 0.000000000000000e+00

0.000000000000000e+00 0.000000000000000e+00 0.000000000000000e+00
0.000000000000000e+00 0.000000000000000e+00 0.000000000000000e+00
0.000000000000000e+00 0.000000000000000e+00 0.000000000000000e+00

0.000000000000000e+00 0.000000000000000e+00 0.000000000000000e+00
0.000000000000000e+00 0.000000000000000e+00 0.000000000000000e+00
0.000000000000000e+00 0.000000000000000e+00 0.000000000000000e+00

0.000000000000000e+00 0.000000000000000e+00 0.000000000000000e+00
0.000000000000000e+00 0.000000000000000e+00 0.000000000000000e+00
0.000000000000000e+00 0.000000000000000e+00 0.000000000000000e+00

0.000000000000000e+00 0.000000000000000e+00 0.000000000000000e+00
0.000000000000000e+00 0.000000000000000e+00 0.000000000000000e+00
0.000000000000000e+00 0.000000000000000e+00 0.000000000000000e+00

0.000000000000000e+00 0.000000000000000e+00 0.000000000000000e+00
0.000000000000000e+00 0.000000000000000e+00 0.000000000000000e+00
0.000000000000000e+00 0.000000000000000e+00 0.000000000000000e+00

0.000000000000000e+00 0.000000000000000e+00 0.000000000000000e+00
0.000000000000000e+00 0.000000000000000e+00 0.000000000000000e+00
0.000000000000000e+00 0.000000000000000e+00 0.000000000000000e+00

0.000000000000000e+00 0.000000000000000e+00 0.000000000000000e+00
0.000000000000000e+00 0.000000000000000e+00 0.000000000000000e+00
0.000000000000000e+00 0.000000000000000e+00 0.000000000000000e+00

0.000000000000000e+00 0.000000000000000e+00 0.000000000000000e+00
0.000000000000000e+00 0.000000000000000e+00 0.000000000000000e+00
0.000000000000000e+00 0.000000000000000e+00 0.000000000000000e+00

0.000000000000000e+00 0.000000000000000e+00 0.000000000000000e+00
0.000000000000000e+00 0.000000000000000e+00 0.000000000000000e+00
0.000000000000000e+00 0.000000000000000e+00 0.000000000000000e+00

0.000000000000000e+00 0.000000000000000e+00 0.000000000000000e+00
0.000000000000000e+00 0.000000000000000e+00 0.000000000000000e+00
0.000000000000000e+00 0.000000000000000e+00 0.000000000000000e+00

0.000000000000000e+00 0.000000000000000e+00 0.000000000000000e+00
0.000000000000000e+00 0.000000000000000e+00 0.000000000000000e+00
0.000000000000000e+00 0.000000000000000e+00 0.000000000000000e+00

0.000000000000000e+00 0.000000000000000e+00 0.000000000000000e+00
0.000000000000000e+00 0.000000000000000e+00 0.000000000000000e+00
0.000000000000000e+00 0.000000000000000e+00 0.000000000000000e+00

0.000000000000000e+00 0.000000000000000e+00 0.000000000000000e+00
0.000000000000000e+00 0.000000000000000e+00 0.000000000000000e+00
0.000000000000000e+00 0.000000000000000e+00 0.000000000000000e+00

0.000000000000000e+00 0.000000000000000e+00 0.000000000000000e+00
0.000000000000000e+00 0.000000000000000e+00 0.000000000000000e+00
0.000000000000000e+00 0.000000000000000e+00 0.000000000000000e+00

0.000000000000000e+00 0.000000000000000e+00 0.000000000000000e+00
0.000000000000000e+00 0.000000000000000e+00 0.000000000000000e+00
0.000000000000000e+00 0.000000000000000e+00 0.000000000000000e+00

0.000000000000000e+00 0.000000000000000e+00 0.000000000000000e+00
0.000000000000000e+00 0.000000000000000e+00 0.000000000000000e+00
0.000000000000000e+00 0.000000000000000e+00 0.000000000000000e+00

0.000000000000000e+00 0.000000000000000e+00 0.000000000000000e+00
0.000000000000000e+00 0.000000000000000e+00 0.000000000000000e+00
0.000000000000000e+00 0.000000000000000e+00 0.000000000000000e+00

0.000000000000000e+00 0.000000000000000e+00 0.000000000000000e+00
0.000000000000000e+00 0.000000000000000e+00 0.000000000000000e+00
0.000000000000000e+00 0.000000000000000e+00 0.000000000000000e+00

0.000000000000000e+00 0.000000000000000e+00 0.000000000000000e+00
0.000000000000000e+00 0.000000000000000e+00 0.000000000000000e+00
0.000000000000000e+00 0.000000000000000e+00 0.000000000000000e+00

0.000000000000000e+00 0.000000000000000e+00 0.000000000000000e+00
0.000000000000000e+00 0.000000000000000e+00 0.000000000000000e+00
0.000000000000000e+00 0.000000000000000e+00 0.000000000000000e+00

0.000000000000000e+00 0.000000000000000e+00 0.000000000000000e+00
0.000000000000000e+00 0.000000000000000e+00 0.000000000000000e+00
0.000000000000000e+00 0.000000000000000e+00 0.000000000000000e+00

0.000000000000000e+00 0.000000000000000e+00 0.000000000000000e+00
0.000000000000000e+00 0.000000000000000e+00 0.000000000000000e+00
0.000000000000000e+00 0.000000000000000e+00 0.000000000000000e+00

0.000000000000000e+00 0.000000000000000e+00 0.000000000000000e+00
0.000000000000000e+00 0.000000000000000e+00 0.000000000000000e+00
0.000000000000000e+00 0.000000000000000e+00 0.000000000000000e+00

0.000000000000000e+00 0.000000000000000e+00 0.000000000000000e+00
0.000000000000000e+00 0.000000000000000e+00 0.000000000000000e+00
0.000000000000000e+00 0.000000000000000e+00 0.000000000000000e+00

0.000000000000000e+00 0.000000000000000e+00 0.000000000000000e+00
0.000000000000000e+00 0.000000000000000e+00 0.000000000000000e+00
0.000000000000000e+00 0.000000000000000e+00 0.000000000000000e+00

0.000000000000000e+00 0.000000000000000e+00 0.000000000000000e+00
0.000000000000000e+00 0.000000000000000e+00 0.000000000000000e+00
0.000000000000000e+00 0.000000000000000e+00 0.000000000000000e+00

0.000000000000000e+00 0.000000000000000e+00 0.000000000000000e+00
0.000000000000000e+00 0.000000000000000e+00 0.000000000000000e+00
0.000000000000000e+00 0.000000000000000e+00 0.000000000000000e+00

0.000000000000000e+00 0.000000000000000e+00 0.000000000000000e+00
0.000000000000000e+00 0.000000000000000e+00 0.000000000000000e+00
0.000000000000000e+00 0.000000000000000e+00 0.000000000000000e+00

0.000000000000000e+00 0.000000000000000e+00 0.000000000000000e+00
0.000000000000000e+00 0.000000000000000e+00 0.000000000000000e+00
0.000000000000000e+00 0.000000000000000e+00 0.000000000000000e+00

0.000000000000000e+00 0.000000000000000e+00 0.000000000000000e+00
0.000000000000000e+00 0.000000000000000e+00 0.000000000000000e+00
0.000000000000000e+00 0.000000000000000e+00 0.000000000000000e+00

0.000000000000000e+00 0.000000000000000e+00 0.000000000000000e+00
0.000000000000000e+00 0.000000000000000e+00 0.000000000000000e+00
0.000000000000000e+00 0.000000000000000e+00 0.000000000000000e+00

0.000000000000000e+00 0.000000000000000e+00 0.000000000000000e+00
0.000000000000000e+00 0.000000000000000e+00 0.000000000000000e+00
0.000000000000000e+00 0.000000000000000e+00 0.000000000000000e+00

0.000000000000000e+00 0.000000000000000e+00 0.000000000000000e+00
0.000000000000000e+00 0.000000000000000e+00 0.000000000000000e+00
0.000000000000000e+00 0.000000000000000e+00 0.000000000000000e+00

0.000000000000000e+00 0.000000000000000e+00 0.000000000000000e+00
0.000000000000000e+00 0.000000000000000e+00 0.000000000000000e+00
0.000000000000000e+00 0.000000000000000e+00 0.000000000000000e+00

0.000000000000000e+00 0.000000000000000e+00 0.000000000000000e+00
0.000000000000000e+00 0.000000000000000e+00 0.000000000000000e+00
0.000000000000000e+00 0.000000000000000e+00 0.000000000000000e+00

0.000000000000000e+00 0.000000000000000e+00 0.000000000000000e+00
0.000000000000000e+00 0.000000000000000e+00 0.000000000000000e+00
0.000000000000000e+00 0.000000000000000e+00 0.000000000000000e+00

0.000000000000000e+00 0.000000000000000e+00 0.000000000000000e+00
0.000000000000000e+00 0.000000000000000e+00 0.000000000000000e+00
0.000000000000000e+00 0.000000000000000e+00 0.000000000000000e+00

0.000000000000000e+00 0.000000000000000e+00 0.000000000000000e+00
0.000000000000000e+00 0.000000000000000e+00 0.000000000000000e+00
0.000000000000000e+00 0.000000000000000e+00 0.000000000000000e+00

0.000000000000000e+00 0.000000000000000e+00 0.000000000000000e+00
0.000000000000000e+00 0.000000000000000e+00 0.000000000000000e+00
0.000000000000000e+00 0.000000000000000e+00 0.000000000000000e+00

0.000000000000000e+00 0.000000000000000e+00 0.000000000000000e+00
0.000000000000000e+00 0.000000000000000e+00 0.000000000000000e+00
0.000000000000000e+00 0.000000000000000e+00 0.000000000000000e+00

0.000000000000000e+00 0.000000000000000e+00 0.000000000000000e+00
0.000000000000000e+00 0.000000000000000e+00 0.000000000000000e+00
0.000000000000000e+00 0.000000000000000e+00 0.000000000000000e+00

0.000000000000000e+00 0.000000000000000e+00 0.000000000000000e+00
0.000000000000000e+00 0.000000000000000e+00 0.000000000000000e+00
0.000000000000000e+00 0.000000000000000e+00 0.000000000000000e+00

0.000000000000000e+00 0.000000000000000e+00 0.000000000000000e+00
0.000000000000000e+00 0.000000000000000e+00 0.000000000000000e+00
0.000000000000000e+00 0.000000000000000e+00 0.000000000000000e+00

0.000000000000000e+00 0.000000000000000e+00 0.000000000000000e+00
0.000000000000000e+00 0.000000000000000e+00 0.000000000000000e+00
0.000000000000000e+00 0.000000000000000e+00 0.000000000000000e+00

0.000000000000000e+00 0.000000000000000e+00 0.000000000000000e+00
0.000000000000000e+00 0.000000000000000e+00 0.000000000000000e+00
0.000000000000000e+00 0.000000000000000e+00 0.000000000000000e+00

0.000000000000000e+00 0.000000000000000e+00 0.000000000000000e+00
0.000000000000000e+00 0.000000000000000e+00 0.000000000000000e+00
0.000000000000000e+00 0.000000000000000e+00 0.000000000000000e+00

0.000000000000000e+00 0.000000000000000e+00 0.000000000000000e+00
0.000000000000000e+00 0.000000000000000e+00 0.000000000000000e+00
0.000000000000000e+00 0.000000000000000e+00 0.000000000000000e+00

0.000000000000000e+00 0.000000000000000e+00 0.000000000000000e+00
0.000000000000000e+00 0.000000000000000e+00 0.000000000000000e+00
0.000000000000000e+00 0.000000000000000e+00 0.000000000000000e+00

0.000000000000000e+00 0.000000000000000e+00 0.000000000000000e+00
0.000000000000000e+00 0.000000000000000e+00 0.000000000000000e+00
0.000000000000000e+00 0.000000000000000e+00 0.000000000000000e+00

0.000000000000000e+00 0.000000000000000e+00 0.000000000000000e+00
0.000000000000000e+00 0.000000000000000e+00 0.000000000000000e+00
0.000000000000000e+00 0.000000000000000e+00 0.000000000000000e+00

0.000000000000000e+00 0.000000000000000e+00 0.000000000000000e+00
0.000000000000000e+00 0.000000000000000e+00 0.000000000000000e+00
0.000000000000000e+00 0.000000000000000e+00 0.000000000000000e+00

0.000000000000000e+00 0.000000000000000e+00 0.000000000000000e+00
0.000000000000000e+00 0.000000000000000e+00 0.000000000000000e+00
0.000000000000000e+00 0.000000000000000e+00 0.000000000000000e+00

0.000000000000000e+00 0.000000000000000e+00 0.000000000000000e+00
0.000000000000000e+00 0.000000000000000e+00 0.000000000000000e+00
0.000000000000000e+00 0.000000000000000e+00 0.000000000000000e+00

0.000000000000000e+00 0.000000000000000e+00 0.000000000000000e+00
0.000000000000000e+00 0.000000000000000e+00 0.000000000000000e+00
0.000000000000000e+00 0.000000000000000e+00 0.000000000000000e+00

0.000000000000000e+00 0.000000000000000e+00 0.000000000000000e+00
0.000000000000000e+00 0.000000000000000e+00 0.000000000000000e+00
0.000000000000000e+00 0.000000000000000e+00 0.000000000000000e+00

0.000000000000000e+00 0.000000000000000e+00 0.000000000000000e+00
0.000000000000000e+00 0.000000000000000e+00 0.000000000000000e+00
0.000000000000000e+00 0.000000000000000e+00 0.000000000000000e+00

0.000000000000000e+00 0.000000000000000e+00 0.000000000000000e+00
0.000000000000000e+00 0.000000000000000e+00 0.000000000000000e+00
0.000000000000000e+00 0.000000000000000e+00 0.000000000000000e+00

0.000000000000000e+00 0.000000000000000e+00 0.000000000000000e+00
0.000000000000000e+00 0.000000000000000e+00 0.000000000000000e+00
0.000000000000000e+00 0.000000000000000e+00 0.000000000000000e+00

0.000000000000000e+00 0.000000000000000e+00 0.000000000000000e+00
0.000000000000000e+00 0.000000000000000e+00 0.000000000000000e+00
0.000000000000000e+00 0.000000000000000e+00 0.000000000000000e+00

0.000000000000000e+00 0.000000000000000e+00 0.000000000000000e+00
0.000000000000000e+00 0.000000000000000e+00 0.000000000000000e+00
0.000000000000000e+00 0.000000000000000e+00 0.000000000000000e+00

0.000000000000000e+00 0.000000000000000e+00 0.000000000000000e+00
0.000000000000000e+00 0.000000000000000e+00 0.000000000000000e+00
0.000000000000000e+00 0.000000000000000e+00 0.000000000000000e+00

0.000000000000000e+00 0.000000000000000e+00 0.000000000000000e+00
0.000000000000000e+00 0.000000000000000e+00 0.000000000000000e+00
0.000000000000000e+00 0.000000000000000e+00 0.000000000000000e+00

0.000000000000000e+00 0.000000000000000e+00 0.000000000000000e+00
0.000000000000000e+00 0.000000000000000e+00 0.000000000000000e+00
0.000000000000000e+00 0.000000000000000e+00 0.000000000000000e+00

0.000000000000000e+00 0.000000000000000e+00 0.000000000000000e+00
0.000000000000000e+00 0.000000000000000e+00 0.000000000000000e+00
0.000000000000000e+00 0.000000000000000e+00 0.000000000000000e+00

0.000000000000000e+00 0.000000000000000e+00 0.000000000000000e+00
0.000000000000000e+00 0.000000000000000e+00 0.000000000000000e+00
0.000000000000000e+00 0.000000000000000e+00 0.000000000000000e+00

0.000000000000000e+00 0.000000000000000e+00 0.000000000000000e+00
0.000000000000000e+00 0.000000000000000e+00 0.000000000000000e+00
0.000000000000000e+00 0.000000000000000e+00 0.000000000000000e+00

0.000000000000000e+00 0.000000000000000e+00 0.000000000000000e+00
0.000000000000000e+00 0.000000000000000e+00 0.000000000000000e+00
0.000000000000000e+00 0.000000000000000e+00 0.000000000000000e+00

0.000000000000000e+00 0.000000000000000e+00 0.000000000000000e+00
0.000000000000000e+00 0.000000000000000e+00 0.000000000000000e+00
0.000000000000000e+00 0.000000000000000e+00 0.000000000000000e+00

0.000000000000000e+00 0.000000000000000e+00 0.000000000000000e+00
0.000000000000000e+00 0.000000000000000e+00 0.000000000000000e+00
0.000000000000000e+00 0.000000000000000e+00 0.000000000000000e+00

0.000000000000000e+00 0.000000000000000e+00 0.000000000000000e+00
0.000000000000000e+00 0.000000000000000e+00 0.000000000000000e+00
0.000000000000000e+00 0.000000000000000e+00 0.000000000000000e+00

0.000000000000000e+00 0.000000000000000e+00 0.000000000000000e+00
0.000000000000000e+00 0.000000000000000e+00 0.000000000000000e+00
0.000000000000000e+00 0.000000000000000e+00 0.000000000000000e+00

0.000000000000000e+00 0.000000000000000e+00 0.000000000000000e+00
0.000000000000000e+00 0.000000000000000e+00 0.000000000000000e+00
0.000000000000000e+00 0.000000000000000e+00 0.000000000000000e+00

0.000000000000000e+00 0.000000000000000e+00 0.000000000000000e+00
0.000000000000000e+00 0.000000000000000e+00 0.000000000000000e+00
0.000000000000000e+00 0.000000000000000e+00 0.000000000000000e+00

0.000000000000000e+00 0.000000000000000e+00 0.000000000000000e+00
0.000000000000000e+00 0.000000000000000e+00 0.000000000000000e+00
0.000000000000000e+00 0.000000000000000e+00 0.000000000000000e+00

0.000000000000000e+00 0.000000000000000e+00 0.000000000000000e+00
0.000000000000000e+00 0.000000000000000e+00 0.000000000000000e+00
0.000000000000000e+00 0.000000000000000e+00 0.000000000000000e+00

0.000000000000000e+00 0.000000000000000e+00 0.000000000000000e+00
0.000000000000000e+00 0.000000000000000e+00 0.000000000000000e+00
0.000000000000000e+00 0.000000000000000e+00 0.000000000000000e+00

0.000000000000000e+00 0.000000000000000e+00 0.000000000000000e+00
0.000000000000000e+00 0.000000000000000e+00 0.000000000000000e+00
0.000000000000000e+00 0.000000000000000e+00 0.000000000000000e+00

0.000000000000000e+00 0.000000000000000e+00 0.000000000000000e+00
0.000000000000000e+00 0.000000000000000e+00 0.000000000000000e+00
0.000000000000000e+00 0.000000000000000e+00 0.000000000000000e+00

0.000000000000000e+00 0.000000000000000e+00 0.000000000000000e+00
0.000000000000000e+00 0.000000000000000e+00 0.000000000000000e+00
0.000000000000000e+00 0.000000000000000e+00 0.000000000000000e+00

0.000000000000000e+00 0.000000000000000e+00 0.000000000000000e+00
0.000000000000000e+00 0.000000000000000e+00 0.000000000000000e+00
0.000000000000000e+00 0.000000000000000e+00 0.000000000000000e+00

0.000000000000000e+00 0.000000000000000e+00 0.000000000000000e+00
0.000000000000000e+00 0.000000000000000e+00 0.000000000000000e+00
0.000000000000000e+00 0.000000000000000e+00 0.000000000000000e+00

0.000000000000000e+00 0.000000000000000e+00 0.000000000000000e+00
0.000000000000000e+00 0.000000000000000e+00 0.000000000000000e+00
0.000000000000000e+00 0.000000000000000e+00 0.000000000000000e+00

0.000000000000000e+00 0.000000000000000e+00 0.000000000000000e+00
0.000000000000000e+00 0.000000000000000e+00 0.000000000000000e+00
0.000000000000000e+00 0.000000000000000e+00 0.000000000000000e+00

0.000000000000000e+00 0.000000000000000e+00 0.000000000000000e+00
0.000000000000000e+00 0.000000000000000e+00 0.000000000000000e+00
0.000000000000000e+00 0.000000000000000e+00 0.000000000000000e+00

0.000000000000000e+00 0.000000000000000e+00 0.000000000000000e+00
0.000000000000000e+00 0.000000000000000e+00 0.000000000000000e+00
0.000000000000000e+00 0.000000000000000e+00 0.000000000000000e+00

0.000000000000000e+00 0.000000000000000e+00 0.000000000000000e+00
0.000000000000000e+00 0.000000000000000e+00 0.000000000000000e+00
0.000000000000000e+00 0.000000000000000e+00 0.000000000000000e+00

0.000000000000000e+00 0.000000000000000e+00 0.000000000000000e+00
0.000000000000000e+00 0.000000000000000e+00 0.000000000000000e+00
0.000000000000000e+00 0.000000000000000e+00 0.000000000000000e+00

0.000000000000000e+00 0.000000000000000e+00 0.000000000000000e+00
0.000000000000000e+00 0.000000000000000e+00 0.000000000000000e+00
0.000000000000000e+00 0.000000000000000e+00 0.000000000000000e+00

0.000000000000000e+00 0.000000000000000e+00 0.000000000000000e+00
0.000000000000000e+00 0.000000000000000e+00 0.000000000000000e+00
0.000000000000000e+00 0.000000000000000e+00 0.000000000000000e+00

0.000000000000000e+00 0.000000000000000e+00 0.000000000000000e+00
0.000000000000000e+00 0.000000000000000e+00 0.000000000000000e+00
0.000000000000000e+00 0.000000000000000e+00 0.000000000000000e+00

0.000000000000000e+00 0.000000000000000e+00 0.000000000000000e+00
0.000000000000000e+00 0.000000000000000e+00 0.000000000000000e+00
0.000000000000000e+00 0.000000000000000e+00 0.000000000000000e+00

0.000000000000000e+00 0.000000000000000e+00 0.000000000000000e+00
0.000000000000000e+00 0.000000000000000e+00 0.000000000000000e+00
0.000000000000000e+00 0.000000000000000e+00 0.000000000000000e+00

0.000000000000000e+00 0.000000000000000e+00 0.000000000000000e+00
0.000000000000000e+00 0.000000000000000e+00 0.000000000000000e+00
0.000000000000000e+00 0.000000000000000e+00 0.000000000000000e+00

0.000000000000000e+00 0.000000000000000e+00 0.000000000000000e+00
0.000000000000000e+00 0.000000000000000e+00 0.000000000000000e+00
0.000000000000000e+00 0.000000000000000e+00 0.000000000000000e+00

0.000000000000000e+00 0.000000000000000e+00 0.000000000000000e+00
0.000000000000000e+00 0.000000000000000e+00 0.000000000000000e+00
0.000000000000000e+00 0.000000000000000e+00 0.000000000000000e+00

0.000000000000000e+00 0.000000000000000e+00 0.000000000000000e+00
0.000000000000000e+00 0.000000000000000e+00 0.000000000000000e+00
0.000000000000000e+00 0.000000000000000e+00 0.000000000000000e+00

0.000000000000000e+00 0.000000000000000e+00 0.000000000000000e+00
0.000000000000000e+00 0.000000000000000e+00 0.000000000000000e+00
0.000000000000000e+00 0.000000000000000e+00 0.000000000000000e+00

0.000000000000000e+00 0.000000000000000e+00 0.000000000000000e+00
0.000000000000000e+00 0.000000000000000e+00 0.000000000000000e+00
0.000000000000000e+00 0.000000000000000e+00 0.000000000000000e+00

0.000000000000000e+00 0.000000000000000e+00 0.000000000000000e+00
0.000000000000000e+00 0.000000000000000e+00 0.000000000000000e+00
0.000000000000000e+00 0.000000000000000e+00 0.000000000000000e+00

0.000000000000000e+00 0.000000000000000e+00 0.000000000000000e+00
0.000000000000000e+00 0.000000000000000e+00 0.000000000000000e+00
0.000000000000000e+00 0.000000000000000e+00 0.000000000000000e+00

0.000000000000000e+00 0.000000000000000e+00 0.000000000000000e+00
0.000000000000000e+00 0.000000000000000e+00 0.000000000000000e+00
0.000000000000000e+00 0.000000000000000e+00 0.000000000000000e+00

0.000000000000000e+00 0.000000000000000e+00 0.000000000000000e+00
0.000000000000000e+00 0.000000000000000e+00 0.000000000000000e+00
0.000000000000000e+00 0.000000000000000e+00 0.000000000000000e+00

0.000000000000000e+00 0.000000000000000e+00 0.000000000000000e+00
0.000000000000000e+00 0.000000000000000e+00 0.000000000000000e+00
0.000000000000000e+00 0.000000000000000e+00 0.000000000000000e+00

0.000000000000000e+00 0.000000000000000e+00 0.000000000000000e+00
0.000000000000000e+00 0.000000000000000e+00 0.000000000000000e+00
0.000000000000000e+00 0.000000000000000e+00 0.000000000000000e+00

0.000000000000000e+00 0.000000000000000e+00 0.000000000000000e+00
0.000000000000000e+00 0.000000000000000e+00 0.000000000000000e+00
0.000000000000000e+00 0.000000000000000e+00 0.000000000000000e+00

0.000000000000000e+00 0.000000000000000e+00 0.000000000000000e+00
0.000000000000000e+00 0.000000000000000e+00 0.000000000000000e+00
0.000000000000000e+00 0.000000000000000e+00 0.000000000000000e+00

0.000000000000000e+00 0.000000000000000e+00 0.000000000000000e+00
0.000000000000000e+00 0.000000000000000e+00 0.000000000000000e+00
0.000000000000000e+00 0.000000000000000e+00 0.000000000000000e+00

0.000000000000000e+00 0.000000000000000e+00 0.000000000000000e+00
0.000000000000000e+00 0.000000000000000e+00 0.000000000000000e+00
0.000000000000000e+00 0.000000000000000e+00 0.000000000000000e+00

0.000000000000000e+00 0.000000000000000e+00 0.000000000000000e+00
0.000000000000000e+00 0.000000000000000e+00 0.000000000000000e+00
0.000000000000000e+00 0.000000000000000e+00 0.000000000000000e+00

0.000000000000000e+00 0.000000000000000e+00 0.000000000000000e+00
0.000000000000000e+00 0.000000000000000e+00 0.000000000000000e+00
0.000000000000000e+00 0.000000000000000e+00 0.000000000000000e+00

0.000000000000000e+00 0.000000000000000e+00 0.000000000000000e+00
0.000000000000000e+00 0.000000000000000e+00 0.000000000000000e+00
0.000000000000000e+00 0.000000000000000e+00 0.000000000000000e+00

0.000000000000000e+00 0.000000000000000e+00 0.000000000000000e+00
0.000000000000000e+00 0.000000000000000e+00 0.000000000000000e+00
0.000000000000000e+00 0.000000000000000e+00 0.000000000000000e+00

0.000000000000000e+00 0.000000000000000e+00 0.000000000000000e+00
0.000000000000000e+00 0.000000000000000e+00 0.000000000000000e+00
0.000000000000000e+00 0.000000000000000e+00 0.000000000000000e+00

0.000000000000000e+00 0.000000000000000e+00 0.000000000000000e+00
0.000000000000000e+00 0.000000000000000e+00 0.000000000000000e+00
0.000000000000000e+00 0.000000000000000e+00 0.000000000000000e+00

0.000000000000000e+00 0.000000000000000e+00 0.000000000000000e+00
0.000000000000000e+00 0.000000000000000e+00 0.000000000000000e+00
0.000000000000000e+00 0.000000000000000e+00 0.000000000000000e+00

0.000000000000000e+00 0.000000000000000e+00 0.000000000000000e+00
0.000000000000000e+00 0.000000000000000e+00 0.000000000000000e+00
0.000000000000000e+00 0.000000000000000e+00 0.000000000000000e+00

0.000000000000000e+00 0.000000000000000e+00 0.000000000000000e+00
0.000000000000000e+00 0.000000000000000e+00 0.000000000000000e+00
0.000000000000000e+00 0.000000000000000e+00 0.000000000000000e+00

0.000000000000000e+00 0.000000000000000e+00 0.000000000000000e+00
0.000000000000000e+00 0.000000000000000e+00 0.000000000000000e+00
0.000000000000000e+00 0.000000000000000e+00 0.000000000000000e+00

0.000000000000000e+00 0.000000000000000e+00 0.000000000000000e+00
0.000000000000000e+00 0.000000000000000e+00 0.000000000000000e+00
0.000000000000000e+00 0.000000000000000e+00 0.000000000000000e+00

0.000000000000000e+00 0.000000000000000e+00 0.000000000000000e+00
0.000000000000000e+00 0.000000000000000e+00 0.000000000000000e+00
0.000000000000000e+00 0.000000000000000e+00 0.000000000000000e+00

0.000000000000000e+00 0.000000000000000e+00 0.000000000000000e+00
0.000000000000000e+00 0.000000000000000e+00 0.000000000000000e+00
0.000000000000000e+00 0.000000000000000e+00 0.000000000000000e+00

0.000000000000000e+00 0.000000000000000e+00 0.000000000000000e+00
0.000000000000000e+00 0.000000000000000e+00 0.000000000000000e+00
0.000000000000000e+00 0.000000000000000e+00 0.000000000000000e+00

0.000000000000000e+00 0.000000000000000e+00 0.000000000000000e+00
0.000000000000000e+00 0.000000000000000e+00 0.000000000000000e+00
0.000000000000000e+00 0.000000000000000e+00 0.000000000000000e+00

0.000000000000000e+00 0.000000000000000e+00 0.000000000000000e+00
0.000000000000000e+00 0.000000000000000e+00 0.000000000000000e+00
0.000000000000000e+00 0.000000000000000e+00 0.000000000000000e+00

0.000000000000000e+00 0.000000000000000e+00 0.000000000000000e+00
0.000000000000000e+00 0.000000000000000e+00 0.000000000000000e+00
0.000000000000000e+00 0.000000000000000e+00 0.000000000000000e+00

0.000000000000000e+00 0.000000000000000e+00 0.000000000000000e+00
0.000000000000000e+00 0.000000000000000e+00 0.000000000000000e+00
0.000000000000000e+00 0.000000000000000e+00 0.000000000000000e+00

0.000000000000000e+00 0.000000000000000e+00 0.000000000000000e+00
0.000000000000000e+00 0.000000000000000e+00 0.000000000000000e+00
0.000000000000000e+00 0.000000000000000e+00 0.000000000000000e+00

0.000000000000000e+00 0.000000000000000e+00 0.000000000000000e+00
0.000000000000000e+00 0.000000000000000e+00 0.000000000000000e+00
0.000000000000000e+00 0.000000000000000e+00 0.000000000000000e+00

0.000000000000000e+00 0.000000000000000e+00 0.000000000000000e+00
0.000000000000000e+00 0.000000000000000e+00 0.000000000000000e+00
0.000000000000000e+00 0.000000000000000e+00 0.000000000000000e+00

0.000000000000000e+00 0.000000000000000e+00 0.000000000000000e+00
0.000000000000000e+00 0.000000000000000e+00 0.000000000000000e+00
0.000000000000000e+00 0.000000000000000e+00 0.000000000000000e+00

0.000000000000000e+00 0.000000000000000e+00 0.000000000000000e+00
0.000000000000000e+00 0.000000000000000e+00 0.000000000000000e+00
0.000000000000000e+00 0.000000000000000e+00 0.000000000000000e+00

0.000000000000000e+00 0.000000000000000e+00 0.000000000000000e+00
0.000000000000000e+00 0.000000000000000e+00 0.000000000000000e+00
0.000000000000000e+00 0.000000000000000e+00 0.000000000000000e+00

0.000000000000000e+00 0.000000000000000e+00 0.000000000000000e+00
0.000000000000000e+00 0.000000000000000e+00 0.000000000000000e+00
0.000000000000000e+00 0.000000000000000e+00 0.000000000000000e+00

0.000000000000000e+00 0.000000000000000e+00 0.000000000000000e+00
0.000000000000000e+00 0.000000000000000e+00 0.000000000000000e+00
0.000000000000000e+00 0.000000000000000e+00 0.000000000000000e+00

0.000000000000000e+00 0.000000000000000e+00 0.000000000000000e+00
0.000000000000000e+00 0.000000000000000e+00 0.000000000000000e+00
0.000000000000000e+00 0.000000000000000e+00 0.000000000000000e+00

0.000000000000000e+00 0.000000000000000e+00 0.000000000000000e+00
0.000000000000000e+00 0.000000000000000e+00 0.000000000000000e+00
0.000000000000000e+00 0.000000000000000e+00 0.000000000000000e+00

0.000000000000000e+00 0.000000000000000e+00 0.000000000000000e+00
0.000000000000000e+00 0.000000000000000e+00 0.000000000000000e+00
0.000000000000000e+00 0.000000000000000e+00 0.000000000000000e+00

0.000000000000000e+00 0.000000000000000e+00 0.000000000000000e+00
0.000000000000000e+00 0.000000000000000e+00 0.000000000000000e+00
0.000000000000000e+00 0.000000000000000e+00 0.000000000000000e+00

0.000000000000000e+00 0.000000000000000e+00 0.000000000000000e+00
0.000000000000000e+00 0.000000000000000e+00 0.000000000000000e+00
0.000000000000000e+00 0.000000000000000e+00 0.000000000000000e+00

0.000000000000000e+00 0.000000000000000e+00 0.000000000000000e+00
0.000000000000000e+00 0.000000000000000e+00 0.000000000000000e+00
0.000000000000000e+00 0.000000000000000e+00 0.000000000000000e+00

0.000000000000000e+00 0.000000000000000e+00 0.000000000000000e+00
0.000000000000000e+00 0.000000000000000e+00 0.000000000000000e+00
0.000000000000000e+00 0.000000000000000e+00 0.000000000000000e+00

0.000000000000000e+00 0.000000000000000e+00 0.000000000000000e+00
0.000000000000000e+00 0.000000000000000e+00 0.000000000000000e+00
0.000000000000000e+00 0.000000000000000e+00 0.000000000000000e+00

0.000000000000000e+00 0.000000000000000e+00 0.000000000000000e+00
0.000000000000000e+00 0.000000000000000e+00 0.000000000000000e+00
0.000000000000000e+00 0.000000000000000e+00 0.000000000000000e+00

0.000000000000000e+00 0.000000000000000e+00 0.000000000000000e+00
0.000000000000000e+00 0.000000000000000e+00 0.000000000000000e+00
0.000000000000000e+00 0.000000000000000e+00 0.000000000000000e+00

0.000000000000000e+00 0.000000000000000e+00 0.000000000000000e+00
0.000000000000000e+00 0.000000000000000e+00 0.000000000000000e+00
0.000000000000000e+00 0.000000000000000e+00 0.000000000000000e+00

0.000000000000000e+00 0.000000000000000e+00 0.000000000000000e+00
0.000000000000000e+00 0.000000000000000e+00 0.000000000000000e+00
0.000000000000000e+00 0.000000000000000e+00 0.000000000000000e+00

0.000000000000000e+00 0.000000000000000e+00 0.000000000000000e+00
0.000000000000000e+00 0.000000000000000e+00 0.000000000000000e+00
0.000000000000000e+00 0.000000000000000e+00 0.000000000000000e+00

0.000000000000000e+00 0.000000000000000e+00 0.000000000000000e+00
0.000000000000000e+00 0.000000000000000e+00 0.000000000000000e+00
0.000000000000000e+00 0.000000000000000e+00 0.000000000000000e+00

0.000000000000000e+00 0.000000000000000e+00 0.000000000000000e+00
0.000000000000000e+00 0.000000000000000e+00 0.000000000000000e+00
0.000000000000000e+00 0.000000000000000e+00 0.000000000000000e+00

0.000000000000000e+00 0.000000000000000e+00 0.000000000000000e+00
0.000000000000000e+00 0.000000000000000e+00 0.000000000000000e+00
0.000000000000000e+00 0.000000000000000e+00 0.000000000000000e+00

0.000000000000000e+00 0.000000000000000e+00 0.000000000000000e+00
0.000000000000000e+00 0.000000000000000e+00 0.000000000000000e+00
0.000000000000000e+00 0.000000000000000e+00 0.000000000000000e+00

0.000000000000000e+00 0.000000000000000e+00 0.000000000000000e+00
0.000000000000000e+00 0.000000000000000e+00 0.000000000000000e+00
0.000000000000000e+00 0.000000000000000e+00 0.000000000000000e+00

0.000000000000000e+00 0.000000000000000e+00 0.000000000000000e+00
0.000000000000000e+00 0.000000000000000e+00 0.000000000000000e+00
0.000000000000000e+00 0.000000000000000e+00 0.000000000000000e+00

0.000000000000000e+00 0.000000000000000e+00 0.000000000000000e+00
0.000000000000000e+00 0.000000000000000e+00 0.000000000000000e+00
0.000000000000000e+00 0.000000000000000e+00 0.000000000000000e+00

0.000000000000000e+00 0.000000000000000e+00 0.000000000000000e+00
0.000000000000000e+00 0.000000000000000e+00 0.000000000000000e+00
0.000000000000000e+00 0.000000000000000e+00 0.000000000000000e+00

0.000000000000000e+00 0.000000000000000e+00 0.000000000000000e+00
0.000000000000000e+00 0.000000000000000e+00 0.000000000000000e+00
0.000000000000000e+00 0.000000000000000e+00 0.000000000000000e+00

0.000000000000000e+00 0.000000000000000e+00 0.000000000000000e+00
0.000000000000000e+00 0.000000000000000e+00 0.000000000000000e+00
0.000000000000000e+00 0.000000000000000e+00 0.000000000000000e+00

0.000000000000000e+00 0.000000000000000e+00 0.000000000000000e+00
0.000000000000000e+00 0.000000000000000e+00 0.000000000000000e+00
0.000000000000000e+00 0.000000000000000e+00 0.000000000000000e+00

0.000000000000000e+00 0.000000000000000e+00 0.000000000000000e+00
0.000000000000000e+00 0.000000000000000e+00 0.000000000000000e+00
0.000000000000000e+00 0.000000000000000e+00 0.000000000000000e+00

0.000000000000000e+00 0.000000000000000e+00 0.000000000000000e+00
0.000000000000000e+00 0.000000000000000e+00 0.000000000000000e+00
0.000000000000000e+00 0.000000000000000e+00 0.000000000000000e+00

0.000000000000000e+00 0.000000000000000e+00 0.000000000000000e+00
0.000000000000000e+00 0.000000000000000e+00 0.000000000000000e+00
0.000000000000000e+00 0.000000000000000e+00 0.000000000000000e+00

0.000000000000000e+00 0.000000000000000e+00 0.000000000000000e+00
0.000000000000000e+00 0.000000000000000e+00 0.000000000000000e+00
0.000000000000000e+00 0.000000000000000e+00 0.000000000000000e+00

0.000000000000000e+00 0.000000000000000e+00 0.000000000000000e+00
0.000000000000000e+00 0.000000000000000e+00 0.000000000000000e+00
0.000000000000000e+00 0.000000000000000e+00 0.000000000000000e+00

0.000000000000000e+00 0.000000000000000e+00 0.000000000000000e+00
0.000000000000000e+00 0.000000000000000e+00 0.000000000000000e+00
0.000000000000000e+00 0.000000000000000e+00 0.000000000000000e+00

0.000000000000000e+00 0.000000000000000e+00 0.000000000000000e+00
0.000000000000000e+00 0.000000000000000e+00 0.000000000000000e+00
0.000000000000000e+00 0.000000000000000e+00 0.000000000000000e+00

0.000000000000000e+00 0.000000000000000e+00 0.000000000000000e+00
0.000000000000000e+00 0.000000000000000e+00 0.000000000000000e+00
0.000000000000000e+00 0.000000000000000e+00 0.000000000000000e+00

0.000000000000000e+00 0.000000000000000e+00 0.000000000000000e+00
0.000000000000000e+00 0.000000000000000e+00 0.000000000000000e+00
0.000000000000000e+00 0.000000000000000e+00 0.000000000000000e+00

0.000000000000000e+00 0.000000000000000e+00 0.000000000000000e+00
0.000000000000000e+00 0.000000000000000e+00 0.000000000000000e+00
0.000000000000000e+00 0.000000000000000e+00 0.000000000000000e+00

0.000000000000000e+00 0.000000000000000e+00 0.000000000000000e+00
0.000000000000000e+00 0.000000000000000e+00 0.000000000000000e+00
0.000000000000000e+00 0.000000000000000e+00 0.000000000000000e+00

0.000000000000000e+00 0.000000000000000e+00 0.000000000000000e+00
0.000000000000000e+00 0.000000000000000e+00 0.000000000000000e+00
0.000000000000000e+00 0.000000000000000e+00 0.000000000000000e+00

0.000000000000000e+00 0.000000000000000e+00 0.000000000000000e+00
0.000000000000000e+00 0.000000000000000e+00 0.000000000000000e+00
0.000000000000000e+00 0.000000000000000e+00 0.000000000000000e+00

0.000000000000000e+00 0.000000000000000e+00 0.000000000000000e+00
0.000000000000000e+00 0.000000000000000e+00 0.000000000000000e+00
0.000000000000000e+00 0.000000000000000e+00 0.000000000000000e+00

0.000000000000000e+00 0.000000000000000e+00 0.000000000000000e+00
0.000000000000000e+00 0.000000000000000e+00 0.000000000000000e+00
0.000000000000000e+00 0.000000000000000e+00 0.000000000000000e+00

0.000000000000000e+00 0.000000000000000e+00 0.000000000000000e+00
0.000000000000000e+00 0.000000000000000e+00 0.000000000000000e+00
0.000000000000000e+00 0.000000000000000e+00 0.000000000000000e+00

0.000000000000000e+00 0.000000000000000e+00 0.000000000000000e+00
0.000000000000000e+00 0.000000000000000e+00 0.000000000000000e+00
0.000000000000000e+00 0.000000000000000e+00 0.000000000000000e+00

0.000000000000000e+00 0.000000000000000e+00 0.000000000000000e+00
0.000000000000000e+00 0.000000000000000e+00 0.000000000000000e+00
0.000000000000000e+00 0.000000000000000e+00 0.000000000000000e+00

0.000000000000000e+00 0.000000000000000e+00 0.000000000000000e+00
0.000000000000000e+00 0.000000000000000e+00 0.000000000000000e+00
0.000000000000000e+00 0.000000000000000e+00 0.000000000000000e+00

0.000000000000000e+00 0.000000000000000e+00 0.000000000000000e+00
0.000000000000000e+00 0.000000000000000e+00 0.000000000000000e+00
0.000000000000000e+00 0.000000000000000e+00 0.000000000000000e+00

0.000000000000000e+00 0.000000000000000e+00 0.000000000000000e+00
0.000000000000000e+00 0.000000000000000e+00 0.000000000000000e+00
0.000000000000000e+00 0.000000000000000e+00 0.000000000000000e+00

0.000000000000000e+00 0.000000000000000e+00 0.000000000000000e+00
0.000000000000000e+00 0.000000000000000e+00 0.000000000000000e+00
0.000000000000000e+00 0.000000000000000e+00 0.000000000000000e+00

0.000000000000000e+00 0.000000000000000e+00 0.000000000000000e+00
0.000000000000000e+00 0.000000000000000e+00 0.000000000000000e+00
0.000000000000000e+00 0.000000000000000e+00 0.000000000000000e+00

0.000000000000000e+00 0.000000000000000e+00 0.000000000000000e+00
0.000000000000000e+00 0.000000000000000e+00 0.000000000000000e+00
0.000000000000000e+00 0.000000000000000e+00 0.000000000000000e+00

0.000000000000000e+00 0.000000000000000e+00 0.000000000000000e+00
0.000000000000000e+00 0.000000000000000e+00 0.000000000000000e+00
0.000000000000000e+00 0.000000000000000e+00 0.000000000000000e+00

0.000000000000000e+00 0.000000000000000e+00 0.000000000000000e+00
0.000000000000000e+00 0.000000000000000e+00 0.000000000000000e+00
0.000000000000000e+00 0.000000000000000e+00 0.000000000000000e+00

0.000000000000000e+00 0.000000000000000e+00 0.000000000000000e+00
0.000000000000000e+00 0.000000000000000e+00 0.000000000000000e+00
0.000000000000000e+00 0.000000000000000e+00 0.000000000000000e+00

0.000000000000000e+00 0.000000000000000e+00 0.000000000000000e+00
0.000000000000000e+00 0.000000000000000e+00 0.000000000000000e+00
0.000000000000000e+00 0.000000000000000e+00 0.000000000000000e+00

0.000000000000000e+00 0.000000000000000e+00 0.000000000000000e+00
0.000000000000000e+00 0.000000000000000e+00 0.000000000000000e+00
0.000000000000000e+00 0.000000000000000e+00 0.000000000000000e+00

0.000000000000000e+00 0.000000000000000e+00 0.000000000000000e+00
0.000000000000000e+00 0.000000000000000e+00 0.000000000000000e+00
0.000000000000000e+00 0.000000000000000e+00 0.000000000000000e+00

0.000000000000000e+00 0.000000000000000e+00 0.000000000000000e+00
0.000000000000000e+00 0.000000000000000e+00 0.000000000000000e+00
0.000000000000000e+00 0.000000000000000e+00 0.000000000000000e+00

0.000000000000000e+00 0.000000000000000e+00 0.000000000000000e+00
0.000000000000000e+00 0.000000000000000e+00 0.000000000000000e+00
0.000000000000000e+00 0.000000000000000e+00 0.000000000000000e+00

0.000000000000000e+00 0.000000000000000e+00 0.000000000000000e+00
0.000000000000000e+00 0.000000000000000e+00 0.000000000000000e+00
0.000000000000000e+00 0.000000000000000e+00 0.000000000000000e+00

0.000000000000000e+00 0.000000000000000e+00 0.000000000000000e+00
0.000000000000000e+00 0.000000000000000e+00 0.000000000000000e+00
0.000000000000000e+00 0.000000000000000e+00 0.000000000000000e+00

0.000000000000000e+00 0.000000000000000e+00 0.000000000000000e+00
0.000000000000000e+00 0.000000000000000e+00 0.000000000000000e+00
0.000000000000000e+00 0.000000000000000e+00 0.000000000000000e+00

0.000000000000000e+00 0.000000000000000e+00 0.000000000000000e+00
0.000000000000000e+00 0.000000000000000e+00 0.000000000000000e+00
0.000000000000000e+00 0.000000000000000e+00 0.000000000000000e+00

0.000000000000000e+00 0.000000000000000e+00 0.000000000000000e+00
0.000000000000000e+00 0.000000000000000e+00 0.000000000000000e+00
0.000000000000000e+00 0.000000000000000e+00 0.000000000000000e+00

0.000000000000000e+00 0.000000000000000e+00 0.000000000000000e+00
0.000000000000000e+00 0.000000000000000e+00 0.000000000000000e+00
0.000000000000000e+00 0.000000000000000e+00 0.000000000000000e+00

0.000000000000000e+00 0.000000000000000e+00 0.000000000000000e+00
0.000000000000000e+00 0.000000000000000e+00 0.000000000000000e+00
0.000000000000000e+00 0.000000000000000e+00 0.000000000000000e+00

0.000000000000000e+00 0.000000000000000e+00 0.000000000000000e+00
0.000000000000000e+00 0.000000000000000e+00 0.000000000000000e+00
0.000000000000000e+00 0.000000000000000e+00 0.000000000000000e+00

0.000000000000000e+00 0.000000000000000e+00 0.000000000000000e+00
0.000000000000000e+00 0.000000000000000e+00 0.000000000000000e+00
0.000000000000000e+00 0.000000000000000e+00 0.000000000000000e+00

0.000000000000000e+00 0.000000000000000e+00 0.000000000000000e+00
0.000000000000000e+00 0.000000000000000e+00 0.000000000000000e+00
0.000000000000000e+00 0.000000000000000e+00 0.000000000000000e+00

0.000000000000000e+00 0.000000000000000e+00 0.000000000000000e+00
0.000000000000000e+00 0.000000000000000e+00 0.000000000000000e+00
0.000000000000000e+00 0.000000000000000e+00 0.000000000000000e+00

0.000000000000000e+00 0.000000000000000e+00 0.000000000000000e+00
0.000000000000000e+00 0.000000000000000e+00 0.000000000000000e+00
0.000000000000000e+00 0.000000000000000e+00 0.000000000000000e+00

0.000000000000000e+00 0.000000000000000e+00 0.000000000000000e+00
0.000000000000000e+00 0.000000000000000e+00 0.000000000000000e+00
0.000000000000000e+00 0.000000000000000e+00 0.000000000000000e+00

0.000000000000000e+00 0.000000000000000e+00 0.000000000000000e+00
0.000000000000000e+00 0.000000000000000e+00 0.000000000000000e+00
0.000000000000000e+00 0.000000000000000e+00 0.000000000000000e+00

0.000000000000000e+00 0.000000000000000e+00 0.000000000000000e+00
0.000000000000000e+00 0.000000000000000e+00 0.000000000000000e+00
0.000000000000000e+00 0.000000000000000e+00 0.000000000000000e+00

0.000000000000000e+00 0.000000000000000e+00 0.000000000000000e+00
0.000000000000000e+00 0.000000000000000e+00 0.000000000000000e+00
0.000000000000000e+00 0.000000000000000e+00 0.000000000000000e+00

0.000000000000000e+00 0.000000000000000e+00 0.000000000000000e+00
0.000000000000000e+00 0.000000000000000e+00 0.000000000000000e+00
0.000000000000000e+00 0.000000000000000e+00 0.000000000000000e+00

0.000000000000000e+00 0.000000000000000e+00 0.000000000000000e+00
0.000000000000000e+00 0.000000000000000e+00 0.000000000000000e+00
0.000000000000000e+00 0.000000000000000e+00 0.000000000000000e+00

0.000000000000000e+00 0.000000000000000e+00 0.000000000000000e+00
0.000000000000000e+00 0.000000000000000e+00 0.000000000000000e+00
0.000000000000000e+00 0.000000000000000e+00 0.000000000000000e+00

0.000000000000000e+00 0.000000000000000e+00 0.000000000000000e+00
0.000000000000000e+00 0.000000000000000e+00 0.000000000000000e+00
0.000000000000000e+00 0.000000000000000e+00 0.000000000000000e+00

0.000000000000000e+00 0.000000000000000e+00 0.000000000000000e+00
0.000000000000000e+00 0.000000000000000e+00 0.000000000000000e+00
0.000000000000000e+00 0.000000000000000e+00 0.000000000000000e+00

0.000000000000000e+00 0.000000000000000e+00 0.000000000000000e+00
0.000000000000000e+00 0.000000000000000e+00 0.000000000000000e+00
0.000000000000000e+00 0.000000000000000e+00 0.000000000000000e+00

0.000000000000000e+00 0.000000000000000e+00 0.000000000000000e+00
0.000000000000000e+00 0.000000000000000e+00 0.000000000000000e+00
0.000000000000000e+00 0.000000000000000e+00 0.000000000000000e+00

0.000000000000000e+00 0.000000000000000e+00 0.000000000000000e+00
0.000000000000000e+00 0.000000000000000e+00 0.000000000000000e+00
0.000000000000000e+00 0.000000000000000e+00 0.000000000000000e+00

0.000000000000000e+00 0.000000000000000e+00 0.000000000000000e+00
0.000000000000000e+00 0.000000000000000e+00 0.000000000000000e+00
0.000000000000000e+00 0.000000000000000e+00 0.000000000000000e+00

0.000000000000000e+00 0.000000000000000e+00 0.000000000000000e+00
0.000000000000000e+00 0.000000000000000e+00 0.000000000000000e+00
0.000000000000000e+00 0.000000000000000e+00 0.000000000000000e+00

0.000000000000000e+00 0.000000000000000e+00 0.000000000000000e+00
0.000000000000000e+00 0.000000000000000e+00 0.000000000000000e+00
0.000000000000000e+00 0.000000000000000e+00 0.000000000000000e+00

0.000000000000000e+00 0.000000000000000e+00 0.000000000000000e+00
0.000000000000000e+00 0.000000000000000e+00 0.000000000000000e+00
0.000000000000000e+00 0.000000000000000e+00 0.000000000000000e+00

0.000000000000000e+00 0.000000000000000e+00 0.000000000000000e+00
0.000000000000000e+00 0.000000000000000e+00 0.000000000000000e+00
0.000000000000000e+00 0.000000000000000e+00 0.000000000000000e+00

0.000000000000000e+00 0.000000000000000e+00 0.000000000000000e+00
0.000000000000000e+00 0.000000000000000e+00 0.000000000000000e+00
0.000000000000000e+00 0.000000000000000e+00 0.000000000000000e+00

0.000000000000000e+00 0.000000000000000e+00 0.000000000000000e+00
0.000000000000000e+00 0.000000000000000e+00 0.000000000000000e+00
0.000000000000000e+00 0.000000000000000e+00 0.000000000000000e+00

0.000000000000000e+00 0.000000000000000e+00 0.000000000000000e+00
0.000000000000000e+00 0.000000000000000e+00 0.000000000000000e+00
0.000000000000000e+00 0.000000000000000e+00 0.000000000000000e+00

0.000000000000000e+00 0.000000000000000e+00 0.000000000000000e+00
0.000000000000000e+00 0.000000000000000e+00 0.000000000000000e+00
0.000000000000000e+00 0.000000000000000e+00 0.000000000000000e+00

0.000000000000000e+00 0.000000000000000e+00 0.000000000000000e+00
0.000000000000000e+00 0.000000000000000e+00 0.000000000000000e+00
0.000000000000000e+00 0.000000000000000e+00 0.000000000000000e+00

0.000000000000000e+00 0.000000000000000e+00 0.000000000000000e+00
0.000000000000000e+00 0.000000000000000e+00 0.000000000000000e+00
0.000000000000000e+00 0.000000000000000e+00 0.000000000000000e+00

0.000000000000000e+00 0.000000000000000e+00 0.000000000000000e+00
0.000000000000000e+00 0.000000000000000e+00 0.000000000000000e+00
0.000000000000000e+00 0.000000000000000e+00 0.000000000000000e+00

0.000000000000000e+00 0.000000000000000e+00 0.000000000000000e+00
0.000000000000000e+00 0.000000000000000e+00 0.000000000000000e+00
0.000000000000000e+00 0.000000000000000e+00 0.000000000000000e+00

0.000000000000000e+00 0.000000000000000e+00 0.000000000000000e+00
0.000000000000000e+00 0.000000000000000e+00 0.000000000000000e+00
0.000000000000000e+00 0.000000000000000e+00 0.000000000000000e+00

0.000000000000000e+00 0.000000000000000e+00 0.000000000000000e+00
0.000000000000000e+00 0.000000000000000e+00 0.000000000000000e+00
0.000000000000000e+00 0.000000000000000e+00 0.000000000000000e+00

0.000000000000000e+00 0.000000000000000e+00 0.000000000000000e+00
0.000000000000000e+00 0.000000000000000e+00 0.000000000000000e+00
0.000000000000000e+00 0.000000000000000e+00 0.000000000000000e+00

0.000000000000000e+00 0.000000000000000e+00 0.000000000000000e+00
0.000000000000000e+00 0.000000000000000e+00 0.000000000000000e+00
0.000000000000000e+00 0.000000000000000e+00 0.000000000000000e+00

0.000000000000000e+00 0.000000000000000e+00 0.000000000000000e+00
0.000000000000000e+00 0.000000000000000e+00 0.000000000000000e+00
0.000000000000000e+00 0.000000000000000e+00 0.000000000000000e+00

0.000000000000000e+00 0.000000000000000e+00 0.000000000000000e+00
0.000000000000000e+00 0.000000000000000e+00 0.000000000000000e+00
0.000000000000000e+00 0.000000000000000e+00 0.000000000000000e+00

0.000000000000000e+00 0.000000000000000e+00 0.000000000000000e+00
0.000000000000000e+00 0.000000000000000e+00 0.000000000000000e+00
0.000000000000000e+00 0.000000000000000e+00 0.000000000000000e+00

0.000000000000000e+00 0.000000000000000e+00 0.000000000000000e+00
0.000000000000000e+00 0.000000000000000e+00 0.000000000000000e+00
0.000000000000000e+00 0.000000000000000e+00 0.000000000000000e+00

0.000000000000000e+00 0.000000000000000e+00 0.000000000000000e+00
0.000000000000000e+00 0.000000000000000e+00 0.000000000000000e+00
0.000000000000000e+00 0.000000000000000e+00 0.000000000000000e+00

0.000000000000000e+00 0.000000000000000e+00 0.000000000000000e+00
0.000000000000000e+00 0.000000000000000e+00 0.000000000000000e+00
0.000000000000000e+00 0.000000000000000e+00 0.000000000000000e+00

0.000000000000000e+00 0.000000000000000e+00 0.000000000000000e+00
0.000000000000000e+00 0.000000000000000e+00 0.000000000000000e+00
0.000000000000000e+00 0.000000000000000e+00 0.000000000000000e+00

0.000000000000000e+00 0.000000000000000e+00 0.000000000000000e+00
0.000000000000000e+00 0.000000000000000e+00 0.000000000000000e+00
0.000000000000000e+00 0.000000000000000e+00 0.000000000000000e+00

0.000000000000000e+00 0.000000000000000e+00 0.000000000000000e+00
0.000000000000000e+00 0.000000000000000e+00 0.000000000000000e+00
0.000000000000000e+00 0.000000000000000e+00 0.000000000000000e+00

0.000000000000000e+00 0.000000000000000e+00 0.000000000000000e+00
0.000000000000000e+00 0.000000000000000e+00 0.000000000000000e+00
0.000000000000000e+00 0.000000000000000e+00 0.000000000000000e+00

0.000000000000000e+00 0.000000000000000e+00 0.000000000000000e+00
0.000000000000000e+00 0.000000000000000e+00 0.000000000000000e+00
0.000000000000000e+00 0.000000000000000e+00 0.000000000000000e+00

0.000000000000000e+00 0.000000000000000e+00 0.000000000000000e+00
0.000000000000000e+00 0.000000000000000e+00 0.000000000000000e+00
0.000000000000000e+00 0.000000000000000e+00 0.000000000000000e+00

0.000000000000000e+00 0.000000000000000e+00 0.000000000000000e+00
0.000000000000000e+00 0.000000000000000e+00 0.000000000000000e+00
0.000000000000000e+00 0.000000000000000e+00 0.000000000000000e+00

0.000000000000000e+00 0.000000000000000e+00 0.000000000000000e+00
0.000000000000000e+00 0.000000000000000e+00 0.000000000000000e+00
0.000000000000000e+00 0.000000000000000e+00 0.000000000000000e+00

0.000000000000000e+00 0.000000000000000e+00 0.000000000000000e+00
0.000000000000000e+00 0.000000000000000e+00 0.000000000000000e+00
0.000000000000000e+00 0.000000000000000e+00 0.000000000000000e+00

0.000000000000000e+00 0.000000000000000e+00 0.000000000000000e+00
0.000000000000000e+00 0.000000000000000e+00 0.000000000000000e+00
0.000000000000000e+00 0.000000000000000e+00 0.000000000000000e+00

0.000000000000000e+00 0.000000000000000e+00 0.000000000000000e+00
0.000000000000000e+00 0.000000000000000e+00 0.000000000000000e+00
0.000000000000000e+00 0.000000000000000e+00 0.000000000000000e+00

0.000000000000000e+00 0.000000000000000e+00 0.000000000000000e+00
0.000000000000000e+00 0.000000000000000e+00 0.000000000000000e+00
0.000000000000000e+00 0.000000000000000e+00 0.000000000000000e+00

0.000000000000000e+00 0.000000000000000e+00 0.000000000000000e+00
0.000000000000000e+00 0.000000000000000e+00 0.000000000000000e+00
0.000000000000000e+00 0.000000000000000e+00 0.000000000000000e+00

0.000000000000000e+00 0.000000000000000e+00 0.000000000000000e+00
0.000000000000000e+00 0.000000000000000e+00 0.000000000000000e+00
0.000000000000000e+00 0.000000000000000e+00 0.000000000000000e+00

0.000000000000000e+00 0.000000000000000e+00 0.000000000000000e+00
0.000000000000000e+00 0.000000000000000e+00 0.000000000000000e+00
0.000000000000000e+00 0.000000000000000e+00 0.000000000000000e+00

0.000000000000000e+00 0.000000000000000e+00 0.000000000000000e+00
0.000000000000000e+00 0.000000000000000e+00 0.000000000000000e+00
0.000000000000000e+00 0.000000000000000e+00 0.000000000000000e+00

0.000000000000000e+00 0.000000000000000e+00 0.000000000000000e+00
0.000000000000000e+00 0.000000000000000e+00 0.000000000000000e+00
0.000000000000000e+00 0.000000000000000e+00 0.000000000000000e+00

0.000000000000000e+00 0.000000000000000e+00 0.000000000000000e+00
0.000000000000000e+00 0.000000000000000e+00 0.000000000000000e+00
0.000000000000000e+00 0.000000000000000e+00 0.000000000000000e+00

0.000000000000000e+00 0.000000000000000e+00 0.000000000000000e+00
0.000000000000000e+00 0.000000000000000e+00 0.000000000000000e+00
0.000000000000000e+00 0.000000000000000e+00 0.000000000000000e+00

0.000000000000000e+00 0.000000000000000e+00 0.000000000000000e+00
0.000000000000000e+00 0.000000000000000e+00 0.000000000000000e+00
0.000000000000000e+00 0.000000000000000e+00 0.000000000000000e+00

0.000000000000000e+00 0.000000000000000e+00 0.000000000000000e+00
0.000000000000000e+00 0.000000000000000e+00 0.000000000000000e+00
0.000000000000000e+00 0.000000000000000e+00 0.000000000000000e+00

0.000000000000000e+00 0.000000000000000e+00 0.000000000000000e+00
0.000000000000000e+00 0.000000000000000e+00 0.000000000000000e+00
0.000000000000000e+00 0.000000000000000e+00 0.000000000000000e+00

0.000000000000000e+00 0.000000000000000e+00 0.000000000000000e+00
0.000000000000000e+00 0.000000000000000e+00 0.000000000000000e+00
0.000000000000000e+00 0.000000000000000e+00 0.000000000000000e+00

0.000000000000000e+00 0.000000000000000e+00 0.000000000000000e+00
0.000000000000000e+00 0.000000000000000e+00 0.000000000000000e+00
0.000000000000000e+00 0.000000000000000e+00 0.000000000000000e+00

0.000000000000000e+00 0.000000000000000e+00 0.000000000000000e+00
0.000000000000000e+00 0.000000000000000e+00 0.000000000000000e+00
0.000000000000000e+00 0.000000000000000e+00 0.000000000000000e+00

0.000000000000000e+00 0.000000000000000e+00 0.000000000000000e+00
0.000000000000000e+00 0.000000000000000e+00 0.000000000000000e+00
0.000000000000000e+00 0.000000000000000e+00 0.000000000000000e+00

0.000000000000000e+00 0.000000000000000e+00 0.000000000000000e+00
0.000000000000000e+00 0.000000000000000e+00 0.000000000000000e+00
0.000000000000000e+00 0.000000000000000e+00 0.000000000000000e+00

0.000000000000000e+00 0.000000000000000e+00 0.000000000000000e+00
0.000000000000000e+00 0.000000000000000e+00 0.000000000000000e+00
0.000000000000000e+00 0.000000000000000e+00 0.000000000000000e+00

0.000000000000000e+00 0.000000000000000e+00 0.000000000000000e+00
0.000000000000000e+00 0.000000000000000e+00 0.000000000000000e+00
0.000000000000000e+00 0.000000000000000e+00 0.000000000000000e+00

0.000000000000000e+00 0.000000000000000e+00 0.000000000000000e+00
0.000000000000000e+00 0.000000000000000e+00 0.000000000000000e+00
0.000000000000000e+00 0.000000000000000e+00 0.000000000000000e+00

0.000000000000000e+00 0.000000000000000e+00 0.000000000000000e+00
0.000000000000000e+00 0.000000000000000e+00 0.000000000000000e+00
0.000000000000000e+00 0.000000000000000e+00 0.000000000000000e+00

0.000000000000000e+00 0.000000000000000e+00 0.000000000000000e+00
0.000000000000000e+00 0.000000000000000e+00 0.000000000000000e+00
0.000000000000000e+00 0.000000000000000e+00 0.000000000000000e+00

0.000000000000000e+00 0.000000000000000e+00 0.000000000000000e+00
0.000000000000000e+00 0.000000000000000e+00 0.000000000000000e+00
0.000000000000000e+00 0.000000000000000e+00 0.000000000000000e+00

0.000000000000000e+00 0.000000000000000e+00 0.000000000000000e+00
0.000000000000000e+00 0.000000000000000e+00 0.000000000000000e+00
0.000000000000000e+00 0.000000000000000e+00 0.000000000000000e+00

0.000000000000000e+00 0.000000000000000e+00 0.000000000000000e+00
0.000000000000000e+00 0.000000000000000e+00 0.000000000000000e+00
0.000000000000000e+00 0.000000000000000e+00 0.000000000000000e+00

0.000000000000000e+00 0.000000000000000e+00 0.000000000000000e+00
0.000000000000000e+00 0.000000000000000e+00 0.000000000000000e+00
0.000000000000000e+00 0.000000000000000e+00 0.000000000000000e+00

0.000000000000000e+00 0.000000000000000e+00 0.000000000000000e+00
0.000000000000000e+00 0.000000000000000e+00 0.000000000000000e+00
0.000000000000000e+00 0.000000000000000e+00 0.000000000000000e+00

0.000000000000000e+00 0.000000000000000e+00 0.000000000000000e+00
0.000000000000000e+00 0.000000000000000e+00 0.000000000000000e+00
0.000000000000000e+00 0.000000000000000e+00 0.000000000000000e+00

0.000000000000000e+00 0.000000000000000e+00 0.000000000000000e+00
0.000000000000000e+00 0.000000000000000e+00 0.000000000000000e+00
0.000000000000000e+00 0.000000000000000e+00 0.000000000000000e+00

0.000000000000000e+00 0.000000000000000e+00 0.000000000000000e+00
0.000000000000000e+00 0.000000000000000e+00 0.000000000000000e+00
0.000000000000000e+00 0.000000000000000e+00 0.000000000000000e+00

0.000000000000000e+00 0.000000000000000e+00 0.000000000000000e+00
0.000000000000000e+00 0.000000000000000e+00 0.000000000000000e+00
0.000000000000000e+00 0.000000000000000e+00 0.000000000000000e+00

0.000000000000000e+00 0.000000000000000e+00 0.000000000000000e+00
0.000000000000000e+00 0.000000000000000e+00 0.000000000000000e+00
0.000000000000000e+00 0.000000000000000e+00 0.000000000000000e+00

0.000000000000000e+00 0.000000000000000e+00 0.000000000000000e+00
0.000000000000000e+00 0.000000000000000e+00 0.000000000000000e+00
0.000000000000000e+00 0.000000000000000e+00 0.000000000000000e+00

0.000000000000000e+00 0.000000000000000e+00 0.000000000000000e+00
0.000000000000000e+00 0.000000000000000e+00 0.000000000000000e+00
0.000000000000000e+00 0.000000000000000e+00 0.000000000000000e+00

0.000000000000000e+00 0.000000000000000e+00 0.000000000000000e+00
0.000000000000000e+00 0.000000000000000e+00 0.000000000000000e+00
0.000000000000000e+00 0.000000000000000e+00 0.000000000000000e+00

0.000000000000000e+00 0.000000000000000e+00 0.000000000000000e+00
0.000000000000000e+00 0.000000000000000e+00 0.000000000000000e+00
0.000000000000000e+00 0.000000000000000e+00 0.000000000000000e+00

0.000000000000000e+00 0.000000000000000e+00 0.000000000000000e+00
0.000000000000000e+00 0.000000000000000e+00 0.000000000000000e+00
0.000000000000000e+00 0.000000000000000e+00 0.000000000000000e+00

0.000000000000000e+00 0.000000000000000e+00 0.000000000000000e+00
0.000000000000000e+00 0.000000000000000e+00 0.000000000000000e+00
0.000000000000000e+00 0.000000000000000e+00 0.000000000000000e+00

0.000000000000000e+00 0.000000000000000e+00 0.000000000000000e+00
0.000000000000000e+00 0.000000000000000e+00 0.000000000000000e+00
0.000000000000000e+00 0.000000000000000e+00 0.000000000000000e+00

0.000000000000000e+00 0.000000000000000e+00 0.000000000000000e+00
0.000000000000000e+00 0.000000000000000e+00 0.000000000000000e+00
0.000000000000000e+00 0.000000000000000e+00 0.000000000000000e+00

0.000000000000000e+00 0.000000000000000e+00 0.000000000000000e+00
0.000000000000000e+00 0.000000000000000e+00 0.000000000000000e+00
0.000000000000000e+00 0.000000000000000e+00 0.000000000000000e+00

0.000000000000000e+00 0.000000000000000e+00 0.000000000000000e+00
0.000000000000000e+00 0.000000000000000e+00 0.000000000000000e+00
0.000000000000000e+00 0.000000000000000e+00 0.000000000000000e+00

0.000000000000000e+00 0.000000000000000e+00 0.000000000000000e+00
0.000000000000000e+00 0.000000000000000e+00 0.000000000000000e+00
0.000000000000000e+00 0.000000000000000e+00 0.000000000000000e+00

0.000000000000000e+00 0.000000000000000e+00 0.000000000000000e+00
0.000000000000000e+00 0.000000000000000e+00 0.000000000000000e+00
0.000000000000000e+00 0.000000000000000e+00 0.000000000000000e+00

0.000000000000000e+00 0.000000000000000e+00 0.000000000000000e+00
0.000000000000000e+00 0.000000000000000e+00 0.000000000000000e+00
0.000000000000000e+00 0.000000000000000e+00 0.000000000000000e+00

0.000000000000000e+00 0.000000000000000e+00 0.000000000000000e+00
0.000000000000000e+00 0.000000000000000e+00 0.000000000000000e+00
0.000000000000000e+00 0.000000000000000e+00 0.000000000000000e+00

0.000000000000000e+00 0.000000000000000e+00 0.000000000000000e+00
0.000000000000000e+00 0.000000000000000e+00 0.000000000000000e+00
0.000000000000000e+00 0.000000000000000e+00 0.000000000000000e+00

0.000000000000000e+00 0.000000000000000e+00 0.000000000000000e+00
0.000000000000000e+00 0.000000000000000e+00 0.000000000000000e+00
0.000000000000000e+00 0.000000000000000e+00 0.000000000000000e+00

0.000000000000000e+00 0.000000000000000e+00 0.000000000000000e+00
0.000000000000000e+00 0.000000000000000e+00 0.000000000000000e+00
0.000000000000000e+00 0.000000000000000e+00 0.000000000000000e+00

0.000000000000000e+00 0.000000000000000e+00 0.000000000000000e+00
0.000000000000000e+00 0.000000000000000e+00 0.000000000000000e+00
0.000000000000000e+00 0.000000000000000e+00 0.000000000000000e+00

0.000000000000000e+00 0.000000000000000e+00 0.000000000000000e+00
0.000000000000000e+00 0.000000000000000e+00 0.000000000000000e+00
0.000000000000000e+00 0.000000000000000e+00 0.000000000000000e+00

0.000000000000000e+00 0.000000000000000e+00 0.000000000000000e+00
0.000000000000000e+00 0.000000000000000e+00 0.000000000000000e+00
0.000000000000000e+00 0.000000000000000e+00 0.000000000000000e+00

0.000000000000000e+00 0.000000000000000e+00 0.000000000000000e+00
0.000000000000000e+00 0.000000000000000e+00 0.000000000000000e+00
0.000000000000000e+00 0.000000000000000e+00 0.000000000000000e+00

0.000000000000000e+00 0.000000000000000e+00 0.000000000000000e+00
0.000000000000000e+00 0.000000000000000e+00 0.000000000000000e+00
0.000000000000000e+00 0.000000000000000e+00 0.000000000000000e+00

0.000000000000000e+00 0.000000000000000e+00 0.000000000000000e+00
0.000000000000000e+00 0.000000000000000e+00 0.000000000000000e+00
0.000000000000000e+00 0.000000000000000e+00 0.000000000000000e+00

0.000000000000000e+00 0.000000000000000e+00 0.000000000000000e+00
0.000000000000000e+00 0.000000000000000e+00 0.000000000000000e+00
0.000000000000000e+00 0.000000000000000e+00 0.000000000000000e+00

0.000000000000000e+00 0.000000000000000e+00 0.000000000000000e+00
0.000000000000000e+00 0.000000000000000e+00 0.000000000000000e+00
0.000000000000000e+00 0.000000000000000e+00 0.000000000000000e+00

0.000000000000000e+00 0.000000000000000e+00 0.000000000000000e+00
0.000000000000000e+00 0.000000000000000e+00 0.000000000000000e+00
0.000000000000000e+00 0.000000000000000e+00 0.000000000000000e+00

0.000000000000000e+00 0.000000000000000e+00 0.000000000000000e+00
0.000000000000000e+00 0.000000000000000e+00 0.000000000000000e+00
0.000000000000000e+00 0.000000000000000e+00 0.000000000000000e+00

0.000000000000000e+00 0.000000000000000e+00 0.000000000000000e+00
0.000000000000000e+00 0.000000000000000e+00 0.000000000000000e+00
0.000000000000000e+00 0.000000000000000e+00 0.000000000000000e+00

0.000000000000000e+00 0.000000000000000e+00 0.000000000000000e+00
0.000000000000000e+00 0.000000000000000e+00 0.000000000000000e+00
0.000000000000000e+00 0.000000000000000e+00 0.000000000000000e+00

0.000000000000000e+00 0.000000000000000e+00 0.000000000000000e+00
0.000000000000000e+00 0.000000000000000e+00 0.000000000000000e+00
0.000000000000000e+00 0.000000000000000e+00 0.000000000000000e+00

0.000000000000000e+00 0.000000000000000e+00 0.000000000000000e+00
0.000000000000000e+00 0.000000000000000e+00 0.000000000000000e+00
0.000000000000000e+00 0.000000000000000e+00 0.000000000000000e+00

0.000000000000000e+00 0.000000000000000e+00 0.000000000000000e+00
0.000000000000000e+00 0.000000000000000e+00 0.000000000000000e+00
0.000000000000000e+00 0.000000000000000e+00 0.000000000000000e+00

0.000000000000000e+00 0.000000000000000e+00 0.000000000000000e+00
0.000000000000000e+00 0.000000000000000e+00 0.000000000000000e+00
0.000000000000000e+00 0.000000000000000e+00 0.000000000000000e+00

0.000000000000000e+00 0.000000000000000e+00 0.000000000000000e+00
0.000000000000000e+00 0.000000000000000e+00 0.000000000000000e+00
0.000000000000000e+00 0.000000000000000e+00 0.000000000000000e+00

0.000000000000000e+00 0.000000000000000e+00 0.000000000000000e+00
0.000000000000000e+00 0.000000000000000e+00 0.000000000000000e+00
0.000000000000000e+00 0.000000000000000e+00 0.000000000000000e+00

0.000000000000000e+00 0.000000000000000e+00 0.000000000000000e+00
0.000000000000000e+00 0.000000000000000e+00 0.000000000000000e+00
0.000000000000000e+00 0.000000000000000e+00 0.000000000000000e+00

0.000000000000000e+00 0.000000000000000e+00 0.000000000000000e+00
0.000000000000000e+00 0.000000000000000e+00 0.000000000000000e+00
0.000000000000000e+00 0.000000000000000e+00 0.000000000000000e+00

0.000000000000000e+00 0.000000000000000e+00 0.000000000000000e+00
0.000000000000000e+00 0.000000000000000e+00 0.000000000000000e+00
0.000000000000000e+00 0.000000000000000e+00 0.000000000000000e+00

0.000000000000000e+00 0.000000000000000e+00 0.000000000000000e+00
0.000000000000000e+00 0.000000000000000e+00 0.000000000000000e+00
0.000000000000000e+00 0.000000000000000e+00 0.000000000000000e+00

0.000000000000000e+00 0.000000000000000e+00 0.000000000000000e+00
0.000000000000000e+00 0.000000000000000e+00 0.000000000000000e+00
0.000000000000000e+00 0.000000000000000e+00 0.000000000000000e+00

0.000000000000000e+00 0.000000000000000e+00 0.000000000000000e+00
0.000000000000000e+00 0.000000000000000e+00 0.000000000000000e+00
0.000000000000000e+00 0.000000000000000e+00 0.000000000000000e+00

0.000000000000000e+00 0.000000000000000e+00 0.000000000000000e+00
0.000000000000000e+00 0.000000000000000e+00 0.000000000000000e+00
0.000000000000000e+00 0.000000000000000e+00 0.000000000000000e+00

0.000000000000000e+00 0.000000000000000e+00 0.000000000000000e+00
0.000000000000000e+00 0.000000000000000e+00 0.000000000000000e+00
0.000000000000000e+00 0.000000000000000e+00 0.000000000000000e+00

0.000000000000000e+00 0.000000000000000e+00 0.000000000000000e+00
0.000000000000000e+00 0.000000000000000e+00 0.000000000000000e+00
0.000000000000000e+00 0.000000000000000e+00 0.000000000000000e+00

0.000000000000000e+00 0.000000000000000e+00 0.000000000000000e+00
0.000000000000000e+00 0.000000000000000e+00 0.000000000000000e+00
0.000000000000000e+00 0.000000000000000e+00 0.000000000000000e+00

0.000000000000000e+00 0.000000000000000e+00 0.000000000000000e+00
0.000000000000000e+00 0.000000000000000e+00 0.000000000000000e+00
0.000000000000000e+00 0.000000000000000e+00 0.000000000000000e+00

0.000000000000000e+00 0.000000000000000e+00 0.000000000000000e+00
0.000000000000000e+00 0.000000000000000e+00 0.000000000000000e+00
0.000000000000000e+00 0.000000000000000e+00 0.000000000000000e+00

0.000000000000000e+00 0.000000000000000e+00 0.000000000000000e+00
0.000000000000000e+00 0.000000000000000e+00 0.000000000000000e+00
0.000000000000000e+00 0.000000000000000e+00 0.000000000000000e+00

0.000000000000000e+00 0.000000000000000e+00 0.000000000000000e+00
0.000000000000000e+00 0.000000000000000e+00 0.000000000000000e+00
0.000000000000000e+00 0.000000000000000e+00 0.000000000000000e+00

0.000000000000000e+00 0.000000000000000e+00 0.000000000000000e+00
0.000000000000000e+00 0.000000000000000e+00 0.000000000000000e+00
0.000000000000000e+00 0.000000000000000e+00 0.000000000000000e+00

0.000000000000000e+00 0.000000000000000e+00 0.000000000000000e+00
0.000000000000000e+00 0.000000000000000e+00 0.000000000000000e+00
0.000000000000000e+00 0.000000000000000e+00 0.000000000000000e+00

0.000000000000000e+00 0.000000000000000e+00 0.000000000000000e+00
0.000000000000000e+00 0.000000000000000e+00 0.000000000000000e+00
0.000000000000000e+00 0.000000000000000e+00 0.000000000000000e+00

0.000000000000000e+00 0.000000000000000e+00 0.000000000000000e+00
0.000000000000000e+00 0.000000000000000e+00 0.000000000000000e+00
0.000000000000000e+00 0.000000000000000e+00 0.000000000000000e+00

0.000000000000000e+00 0.000000000000000e+00 0.000000000000000e+00
0.000000000000000e+00 0.000000000000000e+00 0.000000000000000e+00
0.000000000000000e+00 0.000000000000000e+00 0.000000000000000e+00

0.000000000000000e+00 0.000000000000000e+00 0.000000000000000e+00
0.000000000000000e+00 0.000000000000000e+00 0.000000000000000e+00
0.000000000000000e+00 0.000000000000000e+00 0.000000000000000e+00

0.000000000000000e+00 0.000000000000000e+00 0.000000000000000e+00
0.000000000000000e+00 0.000000000000000e+00 0.000000000000000e+00
0.000000000000000e+00 0.000000000000000e+00 0.000000000000000e+00

0.000000000000000e+00 0.000000000000000e+00 0.000000000000000e+00
0.000000000000000e+00 0.000000000000000e+00 0.000000000000000e+00
0.000000000000000e+00 0.000000000000000e+00 0.000000000000000e+00

0.000000000000000e+00 0.000000000000000e+00 0.000000000000000e+00
0.000000000000000e+00 0.000000000000000e+00 0.000000000000000e+00
0.000000000000000e+00 0.000000000000000e+00 0.000000000000000e+00

0.000000000000000e+00 0.000000000000000e+00 0.000000000000000e+00
0.000000000000000e+00 0.000000000000000e+00 0.000000000000000e+00
0.000000000000000e+00 0.000000000000000e+00 0.000000000000000e+00

0.000000000000000e+00 0.000000000000000e+00 0.000000000000000e+00
0.000000000000000e+00 0.000000000000000e+00 0.000000000000000e+00
0.000000000000000e+00 0.000000000000000e+00 0.000000000000000e+00

0.000000000000000e+00 0.000000000000000e+00 0.000000000000000e+00
0.000000000000000e+00 0.000000000000000e+00 0.000000000000000e+00
0.000000000000000e+00 0.000000000000000e+00 0.000000000000000e+00

0.000000000000000e+00 0.000000000000000e+00 0.000000000000000e+00
0.000000000000000e+00 0.000000000000000e+00 0.000000000000000e+00
0.000000000000000e+00 0.000000000000000e+00 0.000000000000000e+00

0.000000000000000e+00 0.000000000000000e+00 0.000000000000000e+00
0.000000000000000e+00 0.000000000000000e+00 0.000000000000000e+00
0.000000000000000e+00 0.000000000000000e+00 0.000000000000000e+00

0.000000000000000e+00 0.000000000000000e+00 0.000000000000000e+00
0.000000000000000e+00 0.000000000000000e+00 0.000000000000000e+00
0.000000000000000e+00 0.000000000000000e+00 0.000000000000000e+00

0.000000000000000e+00 0.000000000000000e+00 0.000000000000000e+00
0.000000000000000e+00 0.000000000000000e+00 0.000000000000000e+00
0.000000000000000e+00 0.000000000000000e+00 0.000000000000000e+00

0.000000000000000e+00 0.000000000000000e+00 0.000000000000000e+00
0.000000000000000e+00 0.000000000000000e+00 0.000000000000000e+00
0.000000000000000e+00 0.000000000000000e+00 0.000000000000000e+00

0.000000000000000e+00 0.000000000000000e+00 0.000000000000000e+00
0.000000000000000e+00 0.000000000000000e+00 0.000000000000000e+00
0.000000000000000e+00 0.000000000000000e+00 0.000000000000000e+00

0.000000000000000e+00 0.000000000000000e+00 0.000000000000000e+00
0.000000000000000e+00 0.000000000000000e+00 0.000000000000000e+00
0.000000000000000e+00 0.000000000000000e+00 0.000000000000000e+00

0.000000000000000e+00 0.000000000000000e+00 0.000000000000000e+00
0.000000000000000e+00 0.000000000000000e+00 0.000000000000000e+00
0.000000000000000e+00 0.000000000000000e+00 0.000000000000000e+00

0.000000000000000e+00 0.000000000000000e+00 0.000000000000000e+00
0.000000000000000e+00 0.000000000000000e+00 0.000000000000000e+00
0.000000000000000e+00 0.000000000000000e+00 0.000000000000000e+00

0.000000000000000e+00 0.000000000000000e+00 0.000000000000000e+00
0.000000000000000e+00 0.000000000000000e+00 0.000000000000000e+00
0.000000000000000e+00 0.000000000000000e+00 0.000000000000000e+00

0.000000000000000e+00 0.000000000000000e+00 0.000000000000000e+00
0.000000000000000e+00 0.000000000000000e+00 0.000000000000000e+00
0.000000000000000e+00 0.000000000000000e+00 0.000000000000000e+00

0.000000000000000e+00 0.000000000000000e+00 0.000000000000000e+00
0.000000000000000e+00 0.000000000000000e+00 0.000000000000000e+00
0.000000000000000e+00 0.000000000000000e+00 0.000000000000000e+00

0.000000000000000e+00 0.000000000000000e+00 0.000000000000000e+00
0.000000000000000e+00 0.000000000000000e+00 0.000000000000000e+00
0.000000000000000e+00 0.000000000000000e+00 0.000000000000000e+00

0.000000000000000e+00 0.000000000000000e+00 0.000000000000000e+00
0.000000000000000e+00 0.000000000000000e+00 0.000000000000000e+00
0.000000000000000e+00 0.000000000000000e+00 0.000000000000000e+00

0.000000000000000e+00 0.000000000000000e+00 0.000000000000000e+00
0.000000000000000e+00 0.000000000000000e+00 0.000000000000000e+00
0.000000000000000e+00 0.000000000000000e+00 0.000000000000000e+00

0.000000000000000e+00 0.000000000000000e+00 0.000000000000000e+00
0.000000000000000e+00 0.000000000000000e+00 0.000000000000000e+00
0.000000000000000e+00 0.000000000000000e+00 0.000000000000000e+00

0.000000000000000e+00 0.000000000000000e+00 0.000000000000000e+00
0.000000000000000e+00 0.000000000000000e+00 0.000000000000000e+00
0.000000000000000e+00 0.000000000000000e+00 0.000000000000000e+00

0.000000000000000e+00 0.000000000000000e+00 0.000000000000000e+00
0.000000000000000e+00 0.000000000000000e+00 0.000000000000000e+00
0.000000000000000e+00 0.000000000000000e+00 0.000000000000000e+00

0.000000000000000e+00 0.000000000000000e+00 0.000000000000000e+00
0.000000000000000e+00 0.000000000000000e+00 0.000000000000000e+00
0.000000000000000e+00 0.000000000000000e+00 0.000000000000000e+00

0.000000000000000e+00 0.000000000000000e+00 0.000000000000000e+00
0.000000000000000e+00 0.000000000000000e+00 0.000000000000000e+00
0.000000000000000e+00 0.000000000000000e+00 0.000000000000000e+00

0.000000000000000e+00 0.000000000000000e+00 0.000000000000000e+00
0.000000000000000e+00 0.000000000000000e+00 0.000000000000000e+00
0.000000000000000e+00 0.000000000000000e+00 0.000000000000000e+00

0.000000000000000e+00 0.000000000000000e+00 0.000000000000000e+00
0.000000000000000e+00 0.000000000000000e+00 0.000000000000000e+00
0.000000000000000e+00 0.000000000000000e+00 0.000000000000000e+00

0.000000000000000e+00 0.000000000000000e+00 0.000000000000000e+00
0.000000000000000e+00 0.000000000000000e+00 0.000000000000000e+00
0.000000000000000e+00 0.000000000000000e+00 0.000000000000000e+00

0.000000000000000e+00 0.000000000000000e+00 0.000000000000000e+00
0.000000000000000e+00 0.000000000000000e+00 0.000000000000000e+00
0.000000000000000e+00 0.000000000000000e+00 0.000000000000000e+00

0.000000000000000e+00 0.000000000000000e+00 0.000000000000000e+00
0.000000000000000e+00 0.000000000000000e+00 0.000000000000000e+00
0.000000000000000e+00 0.000000000000000e+00 0.000000000000000e+00

0.000000000000000e+00 0.000000000000000e+00 0.000000000000000e+00
0.000000000000000e+00 0.000000000000000e+00 0.000000000000000e+00
0.000000000000000e+00 0.000000000000000e+00 0.000000000000000e+00

0.000000000000000e+00 0.000000000000000e+00 0.000000000000000e+00
0.000000000000000e+00 0.000000000000000e+00 0.000000000000000e+00
0.000000000000000e+00 0.000000000000000e+00 0.000000000000000e+00

0.000000000000000e+00 0.000000000000000e+00 0.000000000000000e+00
0.000000000000000e+00 0.000000000000000e+00 0.000000000000000e+00
0.000000000000000e+00 0.000000000000000e+00 0.000000000000000e+00

0.000000000000000e+00 0.000000000000000e+00 0.000000000000000e+00
0.000000000000000e+00 0.000000000000000e+00 0.000000000000000e+00
0.000000000000000e+00 0.000000000000000e+00 0.000000000000000e+00

0.000000000000000e+00 0.000000000000000e+00 0.000000000000000e+00
0.000000000000000e+00 0.000000000000000e+00 0.000000000000000e+00
0.000000000000000e+00 0.000000000000000e+00 0.000000000000000e+00

0.000000000000000e+00 0.000000000000000e+00 0.000000000000000e+00
0.000000000000000e+00 0.000000000000000e+00 0.000000000000000e+00
0.000000000000000e+00 0.000000000000000e+00 0.000000000000000e+00

0.000000000000000e+00 0.000000000000000e+00 0.000000000000000e+00
0.000000000000000e+00 0.000000000000000e+00 0.000000000000000e+00
0.000000000000000e+00 0.000000000000000e+00 0.000000000000000e+00

0.000000000000000e+00 0.000000000000000e+00 0.000000000000000e+00
0.000000000000000e+00 0.000000000000000e+00 0.000000000000000e+00
0.000000000000000e+00 0.000000000000000e+00 0.000000000000000e+00

0.000000000000000e+00 0.000000000000000e+00 0.000000000000000e+00
0.000000000000000e+00 0.000000000000000e+00 0.000000000000000e+00
0.000000000000000e+00 0.000000000000000e+00 0.000000000000000e+00

0.000000000000000e+00 0.000000000000000e+00 0.000000000000000e+00
0.000000000000000e+00 0.000000000000000e+00 0.000000000000000e+00
0.000000000000000e+00 0.000000000000000e+00 0.000000000000000e+00

0.000000000000000e+00 0.000000000000000e+00 0.000000000000000e+00
0.000000000000000e+00 0.000000000000000e+00 0.000000000000000e+00
0.000000000000000e+00 0.000000000000000e+00 0.000000000000000e+00

0.000000000000000e+00 0.000000000000000e+00 0.000000000000000e+00
0.000000000000000e+00 0.000000000000000e+00 0.000000000000000e+00
0.000000000000000e+00 0.000000000000000e+00 0.000000000000000e+00

0.000000000000000e+00 0.000000000000000e+00 0.000000000000000e+00
0.000000000000000e+00 0.000000000000000e+00 0.000000000000000e+00
0.000000000000000e+00 0.000000000000000e+00 0.000000000000000e+00

0.000000000000000e+00 0.000000000000000e+00 0.000000000000000e+00
0.000000000000000e+00 0.000000000000000e+00 0.000000000000000e+00
0.000000000000000e+00 0.000000000000000e+00 0.000000000000000e+00

0.000000000000000e+00 0.000000000000000e+00 0.000000000000000e+00
0.000000000000000e+00 0.000000000000000e+00 0.000000000000000e+00
0.000000000000000e+00 0.000000000000000e+00 0.000000000000000e+00

0.000000000000000e+00 0.000000000000000e+00 0.000000000000000e+00
0.000000000000000e+00 0.000000000000000e+00 0.000000000000000e+00
0.000000000000000e+00 0.000000000000000e+00 0.000000000000000e+00

0.000000000000000e+00 0.000000000000000e+00 0.000000000000000e+00
0.000000000000000e+00 0.000000000000000e+00 0.000000000000000e+00
0.000000000000000e+00 0.000000000000000e+00 0.000000000000000e+00

0.000000000000000e+00 0.000000000000000e+00 0.000000000000000e+00
0.000000000000000e+00 0.000000000000000e+00 0.000000000000000e+00
0.000000000000000e+00 0.000000000000000e+00 0.000000000000000e+00

0.000000000000000e+00 0.000000000000000e+00 0.000000000000000e+00
0.000000000000000e+00 0.000000000000000e+00 0.000000000000000e+00
0.000000000000000e+00 0.000000000000000e+00 0.000000000000000e+00

0.000000000000000e+00 0.000000000000000e+00 0.000000000000000e+00
0.000000000000000e+00 0.000000000000000e+00 0.000000000000000e+00
0.000000000000000e+00 0.000000000000000e+00 0.000000000000000e+00

0.000000000000000e+00 0.000000000000000e+00 0.000000000000000e+00
0.000000000000000e+00 0.000000000000000e+00 0.000000000000000e+00
0.000000000000000e+00 0.000000000000000e+00 0.000000000000000e+00

0.000000000000000e+00 0.000000000000000e+00 0.000000000000000e+00
0.000000000000000e+00 0.000000000000000e+00 0.000000000000000e+00
0.000000000000000e+00 0.000000000000000e+00 0.000000000000000e+00

0.000000000000000e+00 0.000000000000000e+00 0.000000000000000e+00
0.000000000000000e+00 0.000000000000000e+00 0.000000000000000e+00
0.000000000000000e+00 0.000000000000000e+00 0.000000000000000e+00

0.000000000000000e+00 0.000000000000000e+00 0.000000000000000e+00
0.000000000000000e+00 0.000000000000000e+00 0.000000000000000e+00
0.000000000000000e+00 0.000000000000000e+00 0.000000000000000e+00

0.000000000000000e+00 0.000000000000000e+00 0.000000000000000e+00
0.000000000000000e+00 0.000000000000000e+00 0.000000000000000e+00
0.000000000000000e+00 0.000000000000000e+00 0.000000000000000e+00

0.000000000000000e+00 0.000000000000000e+00 0.000000000000000e+00
0.000000000000000e+00 0.000000000000000e+00 0.000000000000000e+00
0.000000000000000e+00 0.000000000000000e+00 0.000000000000000e+00

0.000000000000000e+00 0.000000000000000e+00 0.000000000000000e+00
0.000000000000000e+00 0.000000000000000e+00 0.000000000000000e+00
0.000000000000000e+00 0.000000000000000e+00 0.000000000000000e+00

0.000000000000000e+00 0.000000000000000e+00 0.000000000000000e+00
0.000000000000000e+00 0.000000000000000e+00 0.000000000000000e+00
0.000000000000000e+00 0.000000000000000e+00 0.000000000000000e+00

0.000000000000000e+00 0.000000000000000e+00 0.000000000000000e+00
0.000000000000000e+00 0.000000000000000e+00 0.000000000000000e+00
0.000000000000000e+00 0.000000000000000e+00 0.000000000000000e+00

0.000000000000000e+00 0.000000000000000e+00 0.000000000000000e+00
0.000000000000000e+00 0.000000000000000e+00 0.000000000000000e+00
0.000000000000000e+00 0.000000000000000e+00 0.000000000000000e+00

0.000000000000000e+00 0.000000000000000e+00 0.000000000000000e+00
0.000000000000000e+00 0.000000000000000e+00 0.000000000000000e+00
0.000000000000000e+00 0.000000000000000e+00 0.000000000000000e+00

0.000000000000000e+00 0.000000000000000e+00 0.000000000000000e+00
0.000000000000000e+00 0.000000000000000e+00 0.000000000000000e+00
0.000000000000000e+00 0.000000000000000e+00 0.000000000000000e+00

0.000000000000000e+00 0.000000000000000e+00 0.000000000000000e+00
0.000000000000000e+00 0.000000000000000e+00 0.000000000000000e+00
0.000000000000000e+00 0.000000000000000e+00 0.000000000000000e+00

0.000000000000000e+00 0.000000000000000e+00 0.000000000000000e+00
0.000000000000000e+00 0.000000000000000e+00 0.000000000000000e+00
0.000000000000000e+00 0.000000000000000e+00 0.000000000000000e+00

0.000000000000000e+00 0.000000000000000e+00 0.000000000000000e+00
0.000000000000000e+00 0.000000000000000e+00 0.000000000000000e+00
0.000000000000000e+00 0.000000000000000e+00 0.000000000000000e+00

0.000000000000000e+00 0.000000000000000e+00 0.000000000000000e+00
0.000000000000000e+00 0.000000000000000e+00 0.000000000000000e+00
0.000000000000000e+00 0.000000000000000e+00 0.000000000000000e+00

0.000000000000000e+00 0.000000000000000e+00 0.000000000000000e+00
0.000000000000000e+00 0.000000000000000e+00 0.000000000000000e+00
0.000000000000000e+00 0.000000000000000e+00 0.000000000000000e+00

0.000000000000000e+00 0.000000000000000e+00 0.000000000000000e+00
0.000000000000000e+00 0.000000000000000e+00 0.000000000000000e+00
0.000000000000000e+00 0.000000000000000e+00 0.000000000000000e+00

0.000000000000000e+00 0.000000000000000e+00 0.000000000000000e+00
0.000000000000000e+00 0.000000000000000e+00 0.000000000000000e+00
0.000000000000000e+00 0.000000000000000e+00 0.000000000000000e+00

0.000000000000000e+00 0.000000000000000e+00 0.000000000000000e+00
0.000000000000000e+00 0.000000000000000e+00 0.000000000000000e+00
0.000000000000000e+00 0.000000000000000e+00 0.000000000000000e+00

0.000000000000000e+00 0.000000000000000e+00 0.000000000000000e+00
0.000000000000000e+00 0.000000000000000e+00 0.000000000000000e+00
0.000000000000000e+00 0.000000000000000e+00 0.000000000000000e+00

0.000000000000000e+00 0.000000000000000e+00 0.000000000000000e+00
0.000000000000000e+00 0.000000000000000e+00 0.000000000000000e+00
0.000000000000000e+00 0.000000000000000e+00 0.000000000000000e+00

0.000000000000000e+00 0.000000000000000e+00 0.000000000000000e+00
0.000000000000000e+00 0.000000000000000e+00 0.000000000000000e+00
0.000000000000000e+00 0.000000000000000e+00 0.000000000000000e+00

0.000000000000000e+00 0.000000000000000e+00 0.000000000000000e+00
0.000000000000000e+00 0.000000000000000e+00 0.000000000000000e+00
0.000000000000000e+00 0.000000000000000e+00 0.000000000000000e+00

0.000000000000000e+00 0.000000000000000e+00 0.000000000000000e+00
0.000000000000000e+00 0.000000000000000e+00 0.000000000000000e+00
0.000000000000000e+00 0.000000000000000e+00 0.000000000000000e+00

0.000000000000000e+00 0.000000000000000e+00 0.000000000000000e+00
0.000000000000000e+00 0.000000000000000e+00 0.000000000000000e+00
0.000000000000000e+00 0.000000000000000e+00 0.000000000000000e+00

0.000000000000000e+00 0.000000000000000e+00 0.000000000000000e+00
0.000000000000000e+00 0.000000000000000e+00 0.000000000000000e+00
0.000000000000000e+00 0.000000000000000e+00 0.000000000000000e+00

0.000000000000000e+00 0.000000000000000e+00 0.000000000000000e+00
0.000000000000000e+00 0.000000000000000e+00 0.000000000000000e+00
0.000000000000000e+00 0.000000000000000e+00 0.000000000000000e+00

0.000000000000000e+00 0.000000000000000e+00 0.000000000000000e+00
0.000000000000000e+00 0.000000000000000e+00 0.000000000000000e+00
0.000000000000000e+00 0.000000000000000e+00 0.000000000000000e+00

0.000000000000000e+00 0.000000000000000e+00 0.000000000000000e+00
0.000000000000000e+00 0.000000000000000e+00 0.000000000000000e+00
0.000000000000000e+00 0.000000000000000e+00 0.000000000000000e+00

0.000000000000000e+00 0.000000000000000e+00 0.000000000000000e+00
0.000000000000000e+00 0.000000000000000e+00 0.000000000000000e+00
0.000000000000000e+00 0.000000000000000e+00 0.000000000000000e+00

0.000000000000000e+00 0.000000000000000e+00 0.000000000000000e+00
0.000000000000000e+00 0.000000000000000e+00 0.000000000000000e+00
0.000000000000000e+00 0.000000000000000e+00 0.000000000000000e+00

0.000000000000000e+00 0.000000000000000e+00 0.000000000000000e+00
0.000000000000000e+00 0.000000000000000e+00 0.000000000000000e+00
0.000000000000000e+00 0.000000000000000e+00 0.000000000000000e+00

0.000000000000000e+00 0.000000000000000e+00 0.000000000000000e+00
0.000000000000000e+00 0.000000000000000e+00 0.000000000000000e+00
0.000000000000000e+00 0.000000000000000e+00 0.000000000000000e+00

0.000000000000000e+00 0.000000000000000e+00 0.000000000000000e+00
0.000000000000000e+00 0.000000000000000e+00 0.000000000000000e+00
0.000000000000000e+00 0.000000000000000e+00 0.000000000000000e+00

0.000000000000000e+00 0.000000000000000e+00 0.000000000000000e+00
0.000000000000000e+00 0.000000000000000e+00 0.000000000000000e+00
0.000000000000000e+00 0.000000000000000e+00 0.000000000000000e+00

0.000000000000000e+00 0.000000000000000e+00 0.000000000000000e+00
0.000000000000000e+00 0.000000000000000e+00 0.000000000000000e+00
0.000000000000000e+00 0.000000000000000e+00 0.000000000000000e+00

0.000000000000000e+00 0.000000000000000e+00 0.000000000000000e+00
0.000000000000000e+00 0.000000000000000e+00 0.000000000000000e+00
0.000000000000000e+00 0.000000000000000e+00 0.000000000000000e+00

0.000000000000000e+00 0.000000000000000e+00 0.000000000000000e+00
0.000000000000000e+00 0.000000000000000e+00 0.000000000000000e+00
0.000000000000000e+00 0.000000000000000e+00 0.000000000000000e+00

0.000000000000000e+00 0.000000000000000e+00 0.000000000000000e+00
0.000000000000000e+00 0.000000000000000e+00 0.000000000000000e+00
0.000000000000000e+00 0.000000000000000e+00 0.000000000000000e+00

0.000000000000000e+00 0.000000000000000e+00 0.000000000000000e+00
0.000000000000000e+00 0.000000000000000e+00 0.000000000000000e+00
0.000000000000000e+00 0.000000000000000e+00 0.000000000000000e+00

0.000000000000000e+00 0.000000000000000e+00 0.000000000000000e+00
0.000000000000000e+00 0.000000000000000e+00 0.000000000000000e+00
0.000000000000000e+00 0.000000000000000e+00 0.000000000000000e+00

0.000000000000000e+00 0.000000000000000e+00 0.000000000000000e+00
0.000000000000000e+00 0.000000000000000e+00 0.000000000000000e+00
0.000000000000000e+00 0.000000000000000e+00 0.000000000000000e+00

0.000000000000000e+00 0.000000000000000e+00 0.000000000000000e+00
0.000000000000000e+00 0.000000000000000e+00 0.000000000000000e+00
0.000000000000000e+00 0.000000000000000e+00 0.000000000000000e+00

0.000000000000000e+00 0.000000000000000e+00 0.000000000000000e+00
0.000000000000000e+00 0.000000000000000e+00 0.000000000000000e+00
0.000000000000000e+00 0.000000000000000e+00 0.000000000000000e+00

0.000000000000000e+00 0.000000000000000e+00 0.000000000000000e+00
0.000000000000000e+00 0.000000000000000e+00 0.000000000000000e+00
0.000000000000000e+00 0.000000000000000e+00 0.000000000000000e+00

0.000000000000000e+00 0.000000000000000e+00 0.000000000000000e+00
0.000000000000000e+00 0.000000000000000e+00 0.000000000000000e+00
0.000000000000000e+00 0.000000000000000e+00 0.000000000000000e+00

0.000000000000000e+00 0.000000000000000e+00 0.000000000000000e+00
0.000000000000000e+00 0.000000000000000e+00 0.000000000000000e+00
0.000000000000000e+00 0.000000000000000e+00 0.000000000000000e+00

0.000000000000000e+00 0.000000000000000e+00 0.000000000000000e+00
0.000000000000000e+00 0.000000000000000e+00 0.000000000000000e+00
0.000000000000000e+00 0.000000000000000e+00 0.000000000000000e+00

0.000000000000000e+00 0.000000000000000e+00 0.000000000000000e+00
0.000000000000000e+00 0.000000000000000e+00 0.000000000000000e+00
0.000000000000000e+00 0.000000000000000e+00 0.000000000000000e+00

0.000000000000000e+00 0.000000000000000e+00 0.000000000000000e+00
0.000000000000000e+00 0.000000000000000e+00 0.000000000000000e+00
0.000000000000000e+00 0.000000000000000e+00 0.000000000000000e+00

0.000000000000000e+00 0.000000000000000e+00 0.000000000000000e+00
0.000000000000000e+00 0.000000000000000e+00 0.000000000000000e+00
0.000000000000000e+00 0.000000000000000e+00 0.000000000000000e+00

0.000000000000000e+00 0.000000000000000e+00 0.000000000000000e+00
0.000000000000000e+00 0.000000000000000e+00 0.000000000000000e+00
0.000000000000000e+00 0.000000000000000e+00 0.000000000000000e+00

0.000000000000000e+00 0.000000000000000e+00 0.000000000000000e+00
0.000000000000000e+00 0.000000000000000e+00 0.000000000000000e+00
0.000000000000000e+00 0.000000000000000e+00 0.000000000000000e+00

0.000000000000000e+00 0.000000000000000e+00 0.000000000000000e+00
0.000000000000000e+00 0.000000000000000e+00 0.000000000000000e+00
0.000000000000000e+00 0.000000000000000e+00 0.000000000000000e+00

0.000000000000000e+00 0.000000000000000e+00 0.000000000000000e+00
0.000000000000000e+00 0.000000000000000e+00 0.000000000000000e+00
0.000000000000000e+00 0.000000000000000e+00 0.000000000000000e+00

0.000000000000000e+00 0.000000000000000e+00 0.000000000000000e+00
0.000000000000000e+00 0.000000000000000e+00 0.000000000000000e+00
0.000000000000000e+00 0.000000000000000e+00 0.000000000000000e+00

0.000000000000000e+00 0.000000000000000e+00 0.000000000000000e+00
0.000000000000000e+00 0.000000000000000e+00 0.000000000000000e+00
0.000000000000000e+00 0.000000000000000e+00 0.000000000000000e+00

0.000000000000000e+00 0.000000000000000e+00 0.000000000000000e+00
0.000000000000000e+00 0.000000000000000e+00 0.000000000000000e+00
0.000000000000000e+00 0.000000000000000e+00 0.000000000000000e+00

0.000000000000000e+00 0.000000000000000e+00 0.000000000000000e+00
0.000000000000000e+00 0.000000000000000e+00 0.000000000000000e+00
0.000000000000000e+00 0.000000000000000e+00 0.000000000000000e+00

0.000000000000000e+00 0.000000000000000e+00 0.000000000000000e+00
0.000000000000000e+00 0.000000000000000e+00 0.000000000000000e+00
0.000000000000000e+00 0.000000000000000e+00 0.000000000000000e+00

0.000000000000000e+00 0.000000000000000e+00 0.000000000000000e+00
0.000000000000000e+00 0.000000000000000e+00 0.000000000000000e+00
0.000000000000000e+00 0.000000000000000e+00 0.000000000000000e+00

0.000000000000000e+00 0.000000000000000e+00 0.000000000000000e+00
0.000000000000000e+00 0.000000000000000e+00 0.000000000000000e+00
0.000000000000000e+00 0.000000000000000e+00 0.000000000000000e+00

0.000000000000000e+00 0.000000000000000e+00 0.000000000000000e+00
0.000000000000000e+00 0.000000000000000e+00 0.000000000000000e+00
0.000000000000000e+00 0.000000000000000e+00 0.000000000000000e+00

0.000000000000000e+00 0.000000000000000e+00 0.000000000000000e+00
0.000000000000000e+00 0.000000000000000e+00 0.000000000000000e+00
0.000000000000000e+00 0.000000000000000e+00 0.000000000000000e+00

0.000000000000000e+00 0.000000000000000e+00 0.000000000000000e+00
0.000000000000000e+00 0.000000000000000e+00 0.000000000000000e+00
0.000000000000000e+00 0.000000000000000e+00 0.000000000000000e+00

0.000000000000000e+00 0.000000000000000e+00 0.000000000000000e+00
0.000000000000000e+00 0.000000000000000e+00 0.000000000000000e+00
0.000000000000000e+00 0.000000000000000e+00 0.000000000000000e+00

0.000000000000000e+00 0.000000000000000e+00 0.000000000000000e+00
0.000000000000000e+00 0.000000000000000e+00 0.000000000000000e+00
0.000000000000000e+00 0.000000000000000e+00 0.000000000000000e+00

0.000000000000000e+00 0.000000000000000e+00 0.000000000000000e+00
0.000000000000000e+00 0.000000000000000e+00 0.000000000000000e+00
0.000000000000000e+00 0.000000000000000e+00 0.000000000000000e+00

0.000000000000000e+00 0.000000000000000e+00 0.000000000000000e+00
0.000000000000000e+00 0.000000000000000e+00 0.000000000000000e+00
0.000000000000000e+00 0.000000000000000e+00 0.000000000000000e+00

0.000000000000000e+00 0.000000000000000e+00 0.000000000000000e+00
0.000000000000000e+00 0.000000000000000e+00 0.000000000000000e+00
0.000000000000000e+00 0.000000000000000e+00 0.000000000000000e+00

0.000000000000000e+00 0.000000000000000e+00 0.000000000000000e+00
0.000000000000000e+00 0.000000000000000e+00 0.000000000000000e+00
0.000000000000000e+00 0.000000000000000e+00 0.000000000000000e+00

0.000000000000000e+00 0.000000000000000e+00 0.000000000000000e+00
0.000000000000000e+00 0.000000000000000e+00 0.000000000000000e+00
0.000000000000000e+00 0.000000000000000e+00 0.000000000000000e+00

0.000000000000000e+00 0.000000000000000e+00 0.000000000000000e+00
0.000000000000000e+00 0.000000000000000e+00 0.000000000000000e+00
0.000000000000000e+00 0.000000000000000e+00 0.000000000000000e+00

0.000000000000000e+00 0.000000000000000e+00 0.000000000000000e+00
0.000000000000000e+00 0.000000000000000e+00 0.000000000000000e+00
0.000000000000000e+00 0.000000000000000e+00 0.000000000000000e+00

0.000000000000000e+00 0.000000000000000e+00 0.000000000000000e+00
0.000000000000000e+00 0.000000000000000e+00 0.000000000000000e+00
0.000000000000000e+00 0.000000000000000e+00 0.000000000000000e+00

0.000000000000000e+00 0.000000000000000e+00 0.000000000000000e+00
0.000000000000000e+00 0.000000000000000e+00 0.000000000000000e+00
0.000000000000000e+00 0.000000000000000e+00 0.000000000000000e+00

0.000000000000000e+00 0.000000000000000e+00 0.000000000000000e+00
0.000000000000000e+00 0.000000000000000e+00 0.000000000000000e+00
0.000000000000000e+00 0.000000000000000e+00 0.000000000000000e+00

0.000000000000000e+00 0.000000000000000e+00 0.000000000000000e+00
0.000000000000000e+00 0.000000000000000e+00 0.000000000000000e+00
0.000000000000000e+00 0.000000000000000e+00 0.000000000000000e+00

0.000000000000000e+00 0.000000000000000e+00 0.000000000000000e+00
0.000000000000000e+00 0.000000000000000e+00 0.000000000000000e+00
0.000000000000000e+00 0.000000000000000e+00 0.000000000000000e+00

0.000000000000000e+00 0.000000000000000e+00 0.000000000000000e+00
0.000000000000000e+00 0.000000000000000e+00 0.000000000000000e+00
0.000000000000000e+00 0.000000000000000e+00 0.000000000000000e+00

0.000000000000000e+00 0.000000000000000e+00 0.000000000000000e+00
0.000000000000000e+00 0.000000000000000e+00 0.000000000000000e+00
0.000000000000000e+00 0.000000000000000e+00 0.000000000000000e+00

0.000000000000000e+00 0.000000000000000e+00 0.000000000000000e+00
0.000000000000000e+00 0.000000000000000e+00 0.000000000000000e+00
0.000000000000000e+00 0.000000000000000e+00 0.000000000000000e+00

0.000000000000000e+00 0.000000000000000e+00 0.000000000000000e+00
0.000000000000000e+00 0.000000000000000e+00 0.000000000000000e+00
0.000000000000000e+00 0.000000000000000e+00 0.000000000000000e+00

0.000000000000000e+00 0.000000000000000e+00 0.000000000000000e+00
0.000000000000000e+00 0.000000000000000e+00 0.000000000000000e+00
0.000000000000000e+00 0.000000000000000e+00 0.000000000000000e+00

0.000000000000000e+00 0.000000000000000e+00 0.000000000000000e+00
0.000000000000000e+00 0.000000000000000e+00 0.000000000000000e+00
0.000000000000000e+00 0.000000000000000e+00 0.000000000000000e+00

0.000000000000000e+00 0.000000000000000e+00 0.000000000000000e+00
0.000000000000000e+00 0.000000000000000e+00 0.000000000000000e+00
0.000000000000000e+00 0.000000000000000e+00 0.000000000000000e+00

0.000000000000000e+00 0.000000000000000e+00 0.000000000000000e+00
0.000000000000000e+00 0.000000000000000e+00 0.000000000000000e+00
0.000000000000000e+00 0.000000000000000e+00 0.000000000000000e+00

0.000000000000000e+00 0.000000000000000e+00 0.000000000000000e+00
0.000000000000000e+00 0.000000000000000e+00 0.000000000000000e+00
0.000000000000000e+00 0.000000000000000e+00 0.000000000000000e+00

 1.077839058866129e-17  1.948952497155172e-20 -9.895635036598671e-01
 1.948952497155172e-20  1.241864569046441e-17  4.345753431845994e-01
-9.895635036598671e-01  4.345753431845994e-01  7.142662689062619e-18

 1.107633561485354e-17  7.985489689512578e-21 -9.982508332292142e-01
 7.985489689512578e-21  1.333721760981241e-17  4.052143712996398e-01
-9.982508332292142e-01  4.052143712996398e-01  8.203316145842444e-18

 1.144650176219791e-17 -1.482959796285617e-20 -1.014203655395232e+00
-1.482959796285617e-20  1.478082781497503e-17  3.773906241429775e-01
-1.014203655395232e+00  3.773906241429775e-01  9.405139808704457e-18

 1.138801006469746e-17  1.127398212322588e-20 -1.013479215346913e+00
 1.127398212322588e-20  1.494199762132074e-17  3.725856211261030e-01
-1.013479215346913e+00  3.725856211261030e-01  9.271361682531571e-18

 1.069840894326947e-17 -3.118367613784143e-20 -9.864901659105335e-01
-3.118367613784143e-20  1.204487178608562e-17  4.576347339928577e-01
-9.864901659105335e-01  4.576347339928577e-01  6.722994218384946e-18

 1.087912441691077e-17  1.886045703784503e-20 -9.944473278672168e-01
 1.886045703784503e-20  1.212077250298432e-17  4.473199123792962e-01
-9.944473278672168e-01  4.473199123792962e-01  7.267802613738807e-18

 1.140526306555097e-17 -2.508337451521788e-20 -1.013408226882748e+00
-2.508337451521788e-20  1.439652308612431e-17  3.884809540165867e-01
-1.013408226882748e+00  3.884809540165867e-01  9.216289491644736e-18

 1.092228671572039e-17  3.653832208456364e-21 -9.935836337167626e-01
 3.653832208456364e-21  1.384326774628596e-17  4.003604211907815e-01
-9.935836337167626e-01  4.003604211907815e-01  7.807095077732794e-18

 1.115570763580105e-17  5.481396398700398e-21 -1.004700259426260e+00
 5.481396398700398e-21  1.323397865605528e-17  4.197629738403560e-01
-1.004700259426260e+00  4.197629738403560e-01  8.265648517032424e-18

 1.115155145341672e-17  1.166732330966323e-20 -1.005004098203883e+00
 1.166732330966323e-20  1.333228076005543e-17  4.183117054802311e-01
-1.005004098203883e+00  4.183117054802311e-01  8.227521289954023e-18

 1.128429045170815e-17  1.664904024394843e-20 -1.010664320638289e+00
 1.664904024394843e-20  1.401831929400428e-17  4.034064613233281e-01
-1.010664320638289e+00  4.034064613233281e-01  8.700068645691435e-18

 1.121028485056368e-17  1.312184211031148e-20 -1.008915539747289e+00
 1.312184211031148e-20  1.374970888130484e-17  4.059712270476496e-01
-1.008915539747289e+00  4.059712270476496e-01  8.450063258318052e-18

 1.143261228841200e-17 -1.874471110163961e-21 -1.019798056092396e+00
-1.874471110163961e-21  1.396152274892126e-17  4.046078602023648e-01
-1.019798056092396e+00  4.046078602023648e-01  9.046605685987561e-18

 1.168065359524334e-17 -7.500469531590164e-22 -1.027426135498787e+00
-7.500469531590164e-22  1.420296159378069e-17  4.032837554939935e-01
-1.027426135498787e+00  4.032837554939935e-01  9.801785642825821e-18

 1.137063186410642e-17  2.541038289936096e-20 -1.008734129528528e+00
 2.541038289936096e-20  1.381355587460476e-17  4.031363306196835e-01
-1.008734129528528e+00  4.031363306196835e-01  9.054553529403656e-18

 1.130712241310923e-17  6.852827839909038e-20 -1.002473086660755e+00
 6.852827839909038e-20  1.378837314481131e-17  3.959912014731652e-01
-1.002473086660755e+00  3.959912014731652e-01  9.111328241973415e-18

 8.195643843637393e-18  3.628225288424154e-19 -8.772866796073272e-01
 3.628225288424154e-19  9.377746236696517e-18  4.866505693667599e-01
-8.772866796073272e-01  4.866505693667599e-01  1.549823298709672e-19

 1.313068601412388e-17 -1.540969864544855e-19 -1.062621582868700e+00
-1.540969864544855e-19  1.860540022609282e-17  2.666493815050464e-01
-1.062621582868700e+00  2.666493815050464e-01  1.525582975409579e-17

 1.118933985979096e-17  1.177779465802242e-21 -9.876333329339040e-01
 1.177779465802242e-21  1.623695295716629e-17  3.183067564886812e-01
-9.876333329339040e-01  3.183067564886812e-01  9.534660617430109e-18

 9.085812274912254e-18 -4.294428413963671e-20 -9.052559838280295e-01
-4.294428413963671e-20  9.400172001228343e-18  4.965299346845109e-01
-9.052559838280295e-01  4.965299346845109e-01  2.358428048644917e-18

 1.095532045288787e-17  6.913568538875680e-20 -9.864243953798968e-01
 6.913568538875680e-20  1.343522247421216e-17  3.940379499677388e-01
-9.864243953798968e-01  3.940379499677388e-01  8.128443322559352e-18

 1.263997573542353e-17  2.022255554708052e-19 -1.061444261517309e+00
 2.022255554708052e-19  1.668145970925751e-17  3.091967695712537e-01
-1.061444261517309e+00  3.091967695712537e-01  1.312472460734071e-17

 1.140100750704976e-17  6.212821092175534e-20 -1.012160124247579e+00
 6.212821092175534e-20  1.201315279632250e-17  4.438245277340855e-01
-1.012160124247579e+00  4.438245277340855e-01  8.731701985301921e-18

 1.151762861144497e-17  3.119447344382148e-19 -1.023263093072202e+00
 3.119447344382148e-19  1.107957226528426e-17  4.561894802479446e-01
-1.023263093072202e+00  4.561894802479446e-01  9.073924893314638e-18

 1.098522631436106e-17 -1.716049454530821e-19 -9.827560019685768e-01
-1.716049454530821e-19  1.455504627256723e-17  3.659177191932085e-01
-9.827560019685768e-01  3.659177191932085e-01  8.443173462906067e-18

 9.741989846240779e-18 -1.965282736858098e-20 -9.317293566521581e-01
-1.965282736858098e-20  1.320468336163596e-17  3.862993545667755e-01
-9.317293566521581e-01  3.862993545667755e-01  5.138178086931955e-18

 1.033547669434430e-17  5.142805108646541e-20 -9.588903366264038e-01
 5.142805108646541e-20  1.206373145598361e-17  4.168517864189725e-01
-9.588903366264038e-01  4.168517864189725e-01  6.559505671555049e-18

 9.791911213636557e-18  5.885997633095249e-20 -9.383780033491422e-01
 5.885997633095249e-20  1.037222674696952e-17  4.543470816753788e-01
-9.383780033491422e-01  4.543470816753788e-01  4.752630037187326e-18

 1.047717791496304e-17  4.892415577213237e-20 -9.663407373331283e-01
 4.892415577213237e-20  1.189853715378938e-17  4.179759191124163e-01
-9.663407373331283e-01  4.179759191124163e-01  6.947853270583635e-18

 9.913973254579297e-18  2.531961625820912e-20 -9.426072762926433e-01
 2.531961625820912e-20  1.206143528693820e-17  4.192114112926792e-01
-9.426072762926433e-01  4.192114112926792e-01  5.443300660822361e-18

 1.008529129602558e-17  2.004742259151083e-20 -9.487544078829648e-01
 2.004742259151083e-20  1.256891363296324e-17  4.052059158795238e-01
-9.487544078829648e-01  4.052059158795238e-01  6.043330865356176e-18

 1.061523383439214e-17  2.068094874593361e-20 -9.713356402152025e-01
 2.068094874593361e-20  1.343566348113048e-17  3.798931303216245e-01
-9.713356402152025e-01  3.798931303216245e-01  7.704755537388953e-18

 1.027845837056721e-17  1.455136508572791e-20 -9.600895737503152e-01
 1.455136508572791e-20  1.242048066435395e-17  4.125741161059300e-01
-9.600895737503152e-01  4.125741161059300e-01  6.483436794894209e-18

 1.061152602663644e-17 -4.545565075007516e-21 -9.770383313734573e-01
-4.545565075007516e-21  1.213517662454806e-17  4.220925748863937e-01
-9.770383313734573e-01  4.220925748863937e-01  7.249875261729555e-18

 1.073734282344343e-17  3.491764790271140e-21 -9.836756088843940e-01
 3.491764790271140e-21  1.250141176674813e-17  4.148597528931698e-01
-9.836756088843940e-01  4.148597528931698e-01  7.564615971328333e-18

 1.103927224350957e-17  1.188130342751313e-20 -9.978089961369629e-01
 1.188130342751313e-20  1.338732893371384e-17  3.939736099206099e-01
-9.978089961369629e-01  3.939736099206099e-01  8.559718755377411e-18

 1.096553949944803e-17  1.695504364091611e-21 -9.954532330716748e-01
 1.695504364091611e-21  1.294092393231915e-17  4.119849591807633e-01
-9.954532330716748e-01  4.119849591807633e-01  8.140009133332500e-18

 1.073632015520098e-17  1.726820226939976e-21 -9.881230189649447e-01
 1.726820226939976e-21  1.244577854211613e-17  4.304414546504388e-01
-9.881230189649447e-01  4.304414546504388e-01  7.461504798415536e-18

 1.100425925303455e-17 -1.296064874145327e-21 -9.979743838620255e-01
-1.296064874145327e-21  1.314836205706334e-17  4.049359258309179e-01
-9.979743838620255e-01  4.049359258309179e-01  8.329048604420661e-18

 1.035679871947090e-17  8.930984384136543e-21 -9.726451524197626e-01
 8.930984384136543e-21  1.283890909915914e-17  4.164016119263894e-01
-9.726451524197626e-01  4.164016119263894e-01  6.573231725397042e-18

 1.110762515105492e-17  5.089324735785871e-20 -1.004532533404669e+00
 5.089324735785871e-20  1.433726827049961e-17  3.710636645533538e-01
-1.004532533404669e+00  3.710636645533538e-01  8.938324681048138e-18

 1.157597589854593e-17  8.868081863641032e-20 -1.026827349106658e+00
 8.868081863641032e-20  1.494656708686621e-17  3.603445355598107e-01
-1.026827349106658e+00  3.603445355598107e-01  1.022008565997869e-17

 1.096137121931683e-17 -4.720082174296229e-20 -1.004254781313246e+00
-4.720082174296229e-20  1.126241663152835e-17  4.643028302648162e-01
-1.004254781313246e+00  4.643028302648162e-01  7.789454911643226e-18

 1.033020317112261e-17  6.567710029809047e-20 -9.813385334296404e-01
 6.567710029809047e-20  1.097515847934482e-17  4.662613681458339e-01
-9.813385334296404e-01  4.662613681458339e-01  5.929905111705871e-18

 1.214187872838646e-17 -6.867152156316546e-20 -1.049442184912341e+00
-6.867152156316546e-20  1.611878233555532e-17  3.466694611255925e-01
-1.049442184912341e+00  3.466694611255925e-01  1.179317983603022e-17

 1.121133598113573e-17  1.013758295172602e-19 -1.016742214849977e+00
 1.013758295172602e-19  1.548734665135612e-17  3.475368751800231e-01
-1.016742214849977e+00  3.475368751800231e-01  9.214730129299025e-18

 1.097265139986369e-17 -6.264642706444963e-20 -1.009712470741207e+00
-6.264642706444963e-20  1.122254311559270e-17  4.761388819917846e-01
-1.009712470741207e+00  4.761388819917846e-01  7.675765592538782e-18

 1.083104434625200e-17  7.008707417718895e-20 -1.007362259772146e+00
 7.008707417718895e-20  1.110411708225963e-17  4.751831020734207e-01
-1.007362259772146e+00  4.751831020734207e-01  7.204628762490610e-18

 1.181205749384690e-17 -1.054685928366833e-19 -1.039981866630793e+00
-1.054685928366833e-19  1.552493684735417e-17  3.645468087182826e-01
-1.039981866630793e+00  3.645468087182826e-01  1.082360976330820e-17

 1.065320242037967e-17  6.479135972230043e-21 -9.946590418073078e-01
 6.479135972230043e-21  1.347535687052406e-17  4.055654168368913e-01
-9.946590418073078e-01  4.055654168368913e-01  7.422469690167084e-18

 1.094893419465203e-17  2.078222495095497e-20 -1.008390045599550e+00
 2.078222495095497e-20  1.309904308727206e-17  4.190675883241593e-01
-1.008390045599550e+00  4.190675883241593e-01  8.153554432596294e-18

 1.120287595645977e-17  2.633761975484815e-20 -1.020427352222165e+00
 2.633761975484815e-20  1.306938696826081e-17  4.185484545602705e-01
-1.020427352222165e+00  4.185484545602705e-01  8.842036279249852e-18

 1.112434728735971e-17  2.752690479871249e-20 -1.016923544964615e+00
 2.752690479871249e-20  1.324186090894123e-17  4.155864417610882e-01
-1.016923544964615e+00  4.155864417610882e-01  8.656379038751945e-18

 1.098588615212879e-17  2.851512017159285e-20 -1.011766217440024e+00
 2.851512017159285e-20  1.317466343563452e-17  4.168689822059914e-01
-1.011766217440024e+00  4.168689822059914e-01  8.292900733704316e-18

 1.089012276209761e-17  3.140353441371326e-20 -1.007746475214867e+00
 3.140353441371326e-20  1.281316040188502e-17  4.178132907985698e-01
-1.007746475214867e+00  4.178132907985698e-01  8.079320681678051e-18

 1.091582206178660e-17  3.198697061884658e-20 -1.008644591799622e+00
 3.198697061884658e-20  1.310685732986810e-17  4.135644678143932e-01
-1.008644591799622e+00  4.135644678143932e-01  8.198533835747076e-18

 1.091053387050354e-17  3.515024807173475e-20 -1.009567238622114e+00
 3.515024807173475e-20  1.294909002846934e-17  4.128819722609058e-01
-1.009567238622114e+00  4.128819722609058e-01  8.203290609051462e-18

 1.109891726276157e-17  3.585394782152213e-20 -1.019317537369104e+00
 3.585394782152213e-20  1.311713569808699e-17  4.150003652948834e-01
-1.019317537369104e+00  4.150003652948834e-01  8.699185911122872e-18

 1.098681072730233e-17  3.799255486581393e-20 -1.015582067395584e+00
 3.799255486581393e-20  1.279048083775637e-17  4.252345282939196e-01
-1.015582067395584e+00  4.252345282939196e-01  8.269129428434197e-18

 1.102521556512679e-17  3.674332960502997e-20 -1.018129454698962e+00
 3.674332960502997e-20  1.292286552646134e-17  4.194322322592930e-01
-1.018129454698962e+00  4.194322322592930e-01  8.484066155790996e-18

 1.110622077454169e-17  3.357069313746154e-20 -1.020583930745468e+00
 3.357069313746154e-20  1.333973235826816e-17  4.102753971806403e-01
-1.020583930745468e+00  4.102753971806403e-01  8.707074754150316e-18

 1.104582693237495e-17  2.990084841154413e-20 -1.019642759943915e+00
 2.990084841154413e-20  1.329399842197001e-17  4.100025780455276e-01
-1.019642759943915e+00  4.100025780455276e-01  8.662746314029282e-18

 1.091337213087095e-17  2.714308135074826e-20 -1.014814973589258e+00
 2.714308135074826e-20  1.261427151540405e-17  4.262876303762614e-01
-1.014814973589258e+00  4.262876303762614e-01  8.168647613611210e-18

 1.089734852843421e-17  2.694708357551279e-20 -1.014600208871321e+00
 2.694708357551279e-20  1.252573041783229e-17  4.249420314358950e-01
-1.014600208871321e+00  4.249420314358950e-01  8.235850732937657e-18

 1.075133353993242e-17  1.204957521709332e-20 -1.007406592362618e+00
 1.204957521709332e-20  1.279369673022581e-17  4.157238999331717e-01
-1.007406592362618e+00  4.157238999331717e-01  7.956873431167581e-18

 1.074207032490980e-17  1.152371341506451e-20 -1.007491160744813e+00
 1.152371341506451e-20  1.312104065406751e-17  4.099831654270666e-01
-1.007491160744813e+00  4.099831654270666e-01  8.021413276533569e-18

 1.025459892268951e-17  7.496992584390963e-21 -9.884780134883842e-01
 7.496992584390963e-21  1.197140216336073e-17  4.390633968182206e-01
-9.884780134883842e-01  4.390633968182206e-01  6.496924610191888e-18

 1.076344309073373e-17  2.839326556673670e-21 -1.008886409315087e+00
 2.839326556673670e-21  1.259976363772929e-17  4.239205299560939e-01
-1.008886409315087e+00  4.239205299560939e-01  8.032774874473022e-18

 1.144008229572836e-17 -1.528294510658462e-21 -1.037000089077374e+00
-1.528294510658462e-21  1.354914358347070e-17  4.003293868330743e-01
-1.037000089077374e+00  4.003293868330743e-01  1.010590796022359e-17

 1.062276545946224e-17  4.280461816414884e-21 -1.004018319219146e+00
 4.280461816414884e-21  1.221129493911220e-17  4.314792372171455e-01
-1.004018319219146e+00  4.314792372171455e-01  7.678969154826202e-18

 1.060146016099676e-17  3.401095216912352e-21 -1.002521692566683e+00
 3.401095216912352e-21  1.331135910589134e-17  4.015215838715786e-01
-1.002521692566683e+00  4.015215838715786e-01  7.889588367861260e-18

 1.122555344557990e-17  3.564811822136942e-20 -1.029313464772811e+00
 3.564811822136942e-20  1.404804832915916e-17  3.817387569448917e-01
-1.029313464772811e+00  3.817387569448917e-01  9.707202564219206e-18

 1.078788500522988e-17 -2.868202366434056e-20 -1.013225192238835e+00
-2.868202366434056e-20  1.162028333305376e-17  4.525366985522994e-01
-1.013225192238835e+00  4.525366985522994e-01  8.047164642415305e-18

 1.078422032650897e-17  1.518123073435161e-20 -1.013395283488078e+00
 1.518123073435161e-20  1.191721367455147e-17  4.397203291783478e-01
-1.013395283488078e+00  4.397203291783478e-01  8.147665477647519e-18

 1.066560273741781e-17 -4.103036608455689e-20 -1.004481461348721e+00
-4.103036608455689e-20  1.332476842300252e-17  3.986271161369598e-01
-1.004481461348721e+00  3.986271161369598e-01  8.270173323327950e-18

 1.036087796209356e-17 -1.116512115854943e-20 -9.917958963285881e-01
-1.116512115854943e-20  1.237426147788014e-17  4.193132227024016e-01
-9.917958963285881e-01  4.193132227024016e-01  7.373439362219839e-18

 1.041760601884283e-17 -1.143069271064163e-20 -9.944923009931502e-01
-1.143069271064163e-20  1.213394649593222e-17  4.225682537497374e-01
-9.944923009931502e-01  4.225682537497374e-01  7.556554034050860e-18

 1.045485455670552e-17 -1.396688451609153e-20 -9.968040183333721e-01
-1.396688451609153e-20  1.206398118425171e-17  4.241330166230330e-01
-9.968040183333721e-01  4.241330166230330e-01  7.688790099576543e-18

 1.029932231506445e-17 -1.135514288085919e-20 -9.907001559502340e-01
-1.135514288085919e-20  1.189327775855282e-17  4.281258807080197e-01
-9.907001559502340e-01  4.281258807080197e-01  7.288506747405673e-18

 1.031314795053811e-17 -1.544024716341157e-20 -9.905640434586253e-01
-1.544024716341157e-20  1.220643243131594e-17  4.204034695965435e-01
-9.905640434586253e-01  4.204034695965435e-01  7.413094420578630e-18

 1.056176728804282e-17 -1.516078457892394e-20 -1.001074522029565e+00
-1.516078457892394e-20  1.278866747743398e-17  4.068088043575219e-01
-1.001074522029565e+00  4.068088043575219e-01  8.208665430180124e-18

 1.027025460334447e-17 -1.461717995947404e-20 -9.902233757862072e-01
-1.461717995947404e-20  1.226912947105639e-17  4.182569864478223e-01
-9.902233757862072e-01  4.182569864478223e-01  7.391381250131251e-18

 1.025312207489741e-17 -2.301906412255078e-20 -9.913300752185927e-01
-2.301906412255078e-20  1.184471916034503e-17  4.302476448057369e-01
-9.913300752185927e-01  4.302476448057369e-01  7.283737393066697e-18

 1.043306072299992e-17 -2.351822499293571e-20 -9.993213153482364e-01
-2.351822499293571e-20  1.189802324118006e-17  4.196369871967432e-01
-9.993213153482364e-01  4.196369871967432e-01  7.847626552502411e-18

 1.038593751514252e-17 -2.016053373976322e-20 -9.985717530878839e-01
-2.016053373976322e-20  1.230918248577438e-17  4.170340883605967e-01
-9.985717530878839e-01  4.170340883605967e-01  7.795991448424098e-18

 1.051925635222619e-17 -1.712832138071658e-20 -1.004307898469275e+00
-1.712832138071658e-20  1.244260456587926e-17  4.155554083806827e-01
-1.004307898469275e+00  4.155554083806827e-01  8.128491089501477e-18

 1.043249464663780e-17 -2.471337192740239e-20 -1.002593922905357e+00
-2.471337192740239e-20  1.203276090775583e-17  4.246440902230976e-01
-1.002593922905357e+00  4.246440902230976e-01  7.918321521145209e-18

 1.044199928257834e-17 -3.012131859253873e-20 -1.002840231295843e+00
-3.012131859253873e-20  1.223941053487754e-17  4.248823574293015e-01
-1.002840231295843e+00  4.248823574293015e-01  7.878726980084806e-18

 1.049200104162732e-17 -1.448518337912967e-20 -1.006367614497817e+00
-1.448518337912967e-20  1.256013477209928e-17  4.151639844909490e-01
-1.006367614497817e+00  4.151639844909490e-01  8.205082805069891e-18

 1.059201327216281e-17 -4.944138708001965e-21 -1.010924227008065e+00
-4.944138708001965e-21  1.253318303334356e-17  4.141107276372741e-01
-1.010924227008065e+00  4.141107276372741e-01  8.501537774198723e-18

 1.065300667430787e-17 -2.859540202748258e-21 -1.014808168183833e+00
-2.859540202748258e-21  1.260321802636821e-17  4.154321128798673e-01
-1.014808168183833e+00  4.154321128798673e-01  8.678898104864789e-18

 1.060562000210425e-17  9.746293599558092e-21 -1.014105022857610e+00
 9.746293599558092e-21  1.234783172252622e-17  4.208358008071437e-01
-1.014105022857610e+00  4.208358008071437e-01  8.530972036700325e-18

 1.058793729412010e-17  1.760746986285954e-20 -1.013546428173264e+00
 1.760746986285954e-20  1.244562489531758e-17  4.174692144393462e-01
-1.013546428173264e+00  4.174692144393462e-01  8.505769570202145e-18

 1.050935152345418e-17  2.520956708515977e-20 -1.011658809367246e+00
 2.520956708515977e-20  1.242021031530626e-17  4.170626853188112e-01
-1.011658809367246e+00  4.170626853188112e-01  8.308861768842636e-18

 1.058287752483275e-17  3.789829363330061e-20 -1.017822655659684e+00
 3.789829363330061e-20  1.244137680506110e-17  4.175631485569949e-01
-1.017822655659684e+00  4.175631485569949e-01  8.520949548820385e-18

 1.062248490674570e-17  4.910385321922539e-20 -1.023096012404715e+00
 4.910385321922539e-20  1.232977616763124e-17  4.222703372431802e-01
-1.023096012404715e+00  4.222703372431802e-01  8.561821455277615e-18

 1.069840627998608e-17  5.281882293500240e-20 -1.028437471370505e+00
 5.281882293500240e-20  1.262123379140840e-17  4.159800562395620e-01
-1.028437471370505e+00  4.159800562395620e-01  8.859227370301882e-18

 1.070308858596281e-17  5.977314985510535e-20 -1.031315303216449e+00
 5.977314985510535e-20  1.243961884342981e-17  4.200718512032779e-01
-1.031315303216449e+00  4.200718512032779e-01  8.836711732060326e-18

 1.082344847322664e-17  7.112808311906338e-20 -1.039917103326891e+00
 7.112808311906338e-20  1.221776309040796e-17  4.243913524669837e-01
-1.039917103326891e+00  4.243913524669837e-01  9.160763313903107e-18

 9.653587707359728e-18  1.221646046716250e-19 -9.973245453286428e-01
 1.221646046716250e-19  1.031497638489613e-17  4.698928042542774e-01
-9.973245453286428e-01  4.698928042542774e-01  5.616059210454177e-18

 1.129910681587341e-17  1.360297820337086e-20 -1.062921328095376e+00
 1.360297820337086e-20  1.379762724443442e-17  3.798007808161847e-01
-1.062921328095376e+00  3.798007808161847e-01  1.090207333227171e-17

 1.053179224633497e-17  4.623766256928790e-20 -1.036173515265484e+00
 4.623766256928790e-20  1.332512621390426e-17  3.952019138004906e-01
-1.036173515265484e+00  3.952019138004906e-01  8.643186248562432e-18

 1.092738124817604e-17 -1.585854221068566e-20 -1.065220623149637e+00
-1.585854221068566e-20  1.207770792788543e-17  4.419190588156314e-01
-1.065220623149637e+00  4.419190588156314e-01  9.303064283291291e-18

 1.105425925540585e-17 -7.728733088787328e-20 -1.078720797427347e+00
-7.728733088787328e-20  1.239458873664243e-17  4.434748718263222e-01
-1.078720797427347e+00  4.434748718263222e-01  9.742905760066784e-18

 1.090483713772454e-17 -1.277687598690902e-19 -1.073368939816215e+00
-1.277687598690902e-19  1.243754378683614e-17  4.386857812756996e-01
-1.073368939816215e+00  4.386857812756996e-01  9.608892570691309e-18

 1.075896053258052e-17 -1.604127416131342e-19 -1.063864467138534e+00
-1.604127416131342e-19  1.238174232059696e-17  4.397531513261513e-01
-1.063864467138534e+00  4.397531513261513e-01  9.276547710833487e-18

 1.043016481157498e-17 -1.672461416473334e-19 -1.047693576033378e+00
-1.672461416473334e-19  1.200428148399194e-17  4.471947564071028e-01
-1.047693576033378e+00  4.471947564071028e-01  8.593231005882949e-18

 1.040324316890201e-17 -1.694968144390653e-19 -1.041096521182737e+00
-1.694968144390653e-19  1.214805381836285e-17  4.375138317410548e-01
-1.041096521182737e+00  4.375138317410548e-01  8.799749287520743e-18

 1.021314861939544e-17 -1.491022630370579e-19 -1.026621618911189e+00
-1.491022630370579e-19  1.186947388286161e-17  4.361341297015415e-01
-1.026621618911189e+00  4.361341297015415e-01  8.516217193390260e-18

 1.007595466721842e-17 -1.093326400852639e-19 -1.014020914774987e+00
-1.093326400852639e-19  1.167875075428171e-17  4.315107046373780e-01
-1.014020914774987e+00  4.315107046373780e-01  8.330190162538259e-18

 9.956638784264353e-18 -8.288703438564816e-20 -1.005996383030328e+00
-8.288703438564816e-20  1.166972276825611e-17  4.260498866356066e-01
-1.005996383030328e+00  4.260498866356066e-01  8.123626563699810e-18

 9.983125862839385e-18 -6.597350656230404e-20 -1.006245701260452e+00
-6.597350656230404e-20  1.181710058416758e-17  4.162649695107299e-01
-1.006245701260452e+00  4.162649695107299e-01  8.364009105871817e-18

 9.831836456472041e-18 -4.314488255908035e-20 -9.999251988289619e-01
-4.314488255908035e-20  1.147720889724764e-17  4.178691928265886e-01
-9.999251988289619e-01  4.178691928265886e-01  8.072696373041259e-18

 9.563555629115986e-18 -3.482198791109241e-20 -9.880525543707489e-01
-3.482198791109241e-20  1.104243430737867e-17  4.266767757083890e-01
-9.880525543707489e-01  4.266767757083890e-01  7.261828933418376e-18

 9.705471326594424e-18 -2.339234109947090e-20 -9.946643666543765e-01
-2.339234109947090e-20  1.130258551750291e-17  4.161516399305019e-01
-9.946643666543765e-01  4.161516399305019e-01  7.796872102053144e-18

 9.645902832606103e-18 -1.455921588453880e-20 -9.941990874038236e-01
-1.455921588453880e-20  1.110718107859076e-17  4.131058073597325e-01
-9.941990874038236e-01  4.131058073597325e-01  7.789380220854420e-18

 9.832199688736912e-18 -9.838043185997486e-21 -1.003641988165953e+00
-9.838043185997486e-21  1.142476610246439e-17  4.063723762955703e-01
-1.003641988165953e+00  4.063723762955703e-01  8.361635459831092e-18

 9.666032339416942e-18 -1.548758867644390e-20 -9.985093581772070e-01
-1.548758867644390e-20  1.098207287369455e-17  4.145760697040888e-01
-9.985093581772070e-01  4.145760697040888e-01  7.939140990319145e-18

 9.616125601205893e-18 -2.208017966868279e-20 -9.970612522681573e-01
-2.208017966868279e-20  1.090636994283687e-17  4.161793589564974e-01
-9.970612522681573e-01  4.161793589564974e-01  7.781352920201814e-18

 9.682911282014500e-18 -1.538360374244499e-20 -1.001886402670203e+00
-1.538360374244499e-20  1.127577448961335e-17  4.046384778731100e-01
-1.001886402670203e+00  4.046384778731100e-01  8.214164955967112e-18

 9.620473927601013e-18 -1.369612556462564e-20 -1.000172833320621e+00
-1.369612556462564e-20  1.113369319566217e-17  4.074935708120936e-01
-1.000172833320621e+00  4.074935708120936e-01  8.027983720109722e-18

 9.574418578861434e-18 -1.754864170825623e-20 -1.000576564014566e+00
-1.754864170825623e-20  1.083141249447863e-17  4.116450743885874e-01
-1.000576564014566e+00  4.116450743885874e-01  8.030716510273519e-18

 9.526632436253423e-18 -1.894541778579197e-20 -9.996839128290137e-01
-1.894541778579197e-20  1.072071779870876e-17  4.113843173071331e-01
-9.996839128290137e-01  4.113843173071331e-01  7.980837687945290e-18

 9.597522934391350e-18 -2.326789473119664e-20 -1.004035891150720e+00
-2.326789473119664e-20  1.100248839074132e-17  4.035552363536333e-01
-1.004035891150720e+00  4.035552363536333e-01  8.334723819397514e-18

 9.416179673517656e-18 -2.438038761465722e-20 -9.981449962033950e-01
-2.438038761465722e-20  1.075926387269760e-17  4.072222199257987e-01
-9.981449962033950e-01  4.072222199257987e-01  7.985065748313557e-18

 9.329853109155534e-18 -3.156351846138220e-20 -9.964615518897114e-01
-3.156351846138220e-20  1.064321735720792e-17  4.061239987360008e-01
-9.964615518897114e-01  4.061239987360008e-01  7.966002017552446e-18

 9.301208492218986e-18 -3.522657576565695e-20 -9.965778913494554e-01
-3.522657576565695e-20  1.042717811801473e-17  4.040666548058917e-01
-9.965778913494554e-01  4.040666548058917e-01  8.073030333520571e-18

 9.203438129437032e-18 -3.607062612252513e-20 -9.928129965933408e-01
-3.607062612252513e-20  1.027041091674639e-17  4.064727458184351e-01
-9.928129965933408e-01  4.064727458184351e-01  7.860646187766872e-18

 9.115314461033267e-18 -3.796551440725626e-20 -9.901397820913672e-01
-3.796551440725626e-20  1.008283703829465e-17  4.052216140776983e-01
-9.901397820913672e-01  4.052216140776983e-01  7.813297643483991e-18

 9.036435137227011e-18 -4.368692772804582e-20 -9.872742505676784e-01
-4.368692772804582e-20  1.019030884951862e-17  4.035639654742605e-01
-9.872742505676784e-01  4.035639654742605e-01  7.770885060726929e-18

 8.843784290789419e-18 -4.746681333701086e-20 -9.796751647505696e-01
-4.746681333701086e-20  9.669154668144441e-18  4.058970812279199e-01
-9.796751647505696e-01  4.058970812279199e-01  7.478154242251471e-18

 8.537227416639890e-18 -5.015801056249745e-20 -9.663945091195562e-01
-5.015801056249745e-20  9.147996894693734e-18  4.111785900589136e-01
-9.663945091195562e-01  4.111785900589136e-01  6.855930991085648e-18

 8.257057497072464e-18 -5.880404582679854e-20 -9.549620891825946e-01
-5.880404582679854e-20  8.870592477813927e-18  4.137969673348298e-01
-9.549620891825946e-01  4.137969673348298e-01  6.327967952857063e-18

 7.740722632347953e-18 -6.047838956299176e-20 -9.343030769678567e-01
-6.047838956299176e-20  8.069552934665739e-18  4.232495061913922e-01
-9.343030769678567e-01  4.232495061913922e-01  5.041442191447858e-18

 7.499732798137205e-18 -9.192084352418283e-20 -9.243644756544669e-01
-9.192084352418283e-20  8.953750523119417e-18  3.955747913367779e-01
-9.243644756544669e-01  3.955747913367779e-01  4.812689158335685e-18

 9.749975693792664e-18 -5.191294754363217e-20 -1.017393517966642e+00
-5.191294754363217e-20  1.255465544718608e-17  3.033513795015613e-01
-1.017393517966642e+00  3.033513795015613e-01  1.180316428004918e-17

 7.627963103865988e-18 -6.588752212664579e-20 -9.339789943596926e-01
-6.588752212664579e-20  8.853360391688326e-18  3.968825253616109e-01
-9.339789943596926e-01  3.968825253616109e-01  5.284887728451575e-18

 7.836194841433286e-18 -1.215903989760753e-19 -9.486262161962227e-01
-1.215903989760753e-19  8.010669602809777e-18  4.259798459357578e-01
-9.486262161962227e-01  4.259798459357578e-01  5.740318370543103e-18

 8.182629311863674e-18 -1.108992463457251e-19 -9.711184461215590e-01
-1.108992463457251e-19  8.745398879349046e-18  4.086262472588122e-01
-9.711184461215590e-01  4.086262472588122e-01  6.861049313267445e-18

 8.377876755777413e-18 -1.229697725855217e-19 -9.838191991598448e-01
-1.229697725855217e-19  8.935969240337877e-18  4.090508168160332e-01
-9.838191991598448e-01  4.090508168160332e-01  7.391472368879104e-18

 8.442103371551134e-18 -1.311638625702554e-19 -9.921211657268694e-01
-1.311638625702554e-19  8.814469133243234e-18  4.115341602280458e-01
-9.921211657268694e-01  4.115341602280458e-01  7.691938358857502e-18

 8.461137854304217e-18 -1.245301498720078e-19 -9.979773611177781e-01
-1.245301498720078e-19  9.089399161633935e-18  4.084485225463259e-01
-9.979773611177781e-01  4.084485225463259e-01  7.838603291890695e-18

 8.556664978840638e-18 -1.230585263099975e-19 -1.007733598995221e+00
-1.230585263099975e-19  9.337034061261983e-18  4.001083629869717e-01
-1.007733598995221e+00  4.001083629869717e-01  8.332578214259379e-18

 8.240645670334149e-18 -1.347624813164543e-19 -9.983912958385036e-01
-1.347624813164543e-19  8.542700852795305e-18  4.196773235275253e-01
-9.983912958385036e-01  4.196773235275253e-01  7.408130948553724e-18

 8.574581139040165e-18 -1.334733512639765e-19 -1.016574368479156e+00
-1.334733512639765e-19  9.038073802536335e-18  4.081283730884313e-01
-1.016574368479156e+00  4.081283730884313e-01  8.563662542564287e-18

 8.617591265052811e-18 -1.361115294157507e-19 -1.022621414666535e+00
-1.361115294157507e-19  8.990144366909034e-18  4.006947580030247e-01
-1.022621414666535e+00  4.006947580030247e-01  8.850823886200736e-18

 8.542492194774145e-18 -1.389129320146141e-19 -1.022197764079366e+00
-1.389129320146141e-19  9.130723046575844e-18  3.992906848523948e-01
-1.022197764079366e+00  3.992906848523948e-01  8.844449270674443e-18

 8.238924026977705e-18 -1.465957512931952e-19 -1.014575161881216e+00
-1.465957512931952e-19  8.549066043021542e-18  4.109100892286358e-01
-1.014575161881216e+00  4.109100892286358e-01  8.141089405893466e-18

 7.908232868741685e-18 -1.563663364781793e-19 -1.005635928689826e+00
-1.563663364781793e-19  7.974100293018716e-18  4.183998177889896e-01
-1.005635928689826e+00  4.183998177889896e-01  7.405645731788410e-18

 8.029311477116536e-18 -1.825550360481857e-19 -1.014546769009083e+00
-1.825550360481857e-19  8.880380993905012e-18  3.944979456723486e-01
-1.014546769009083e+00  3.944979456723486e-01  8.202776305187406e-18

 8.305943949106455e-18 -1.911785615540291e-19 -1.029363964463826e+00
-1.911785615540291e-19  9.050965736680031e-18  3.869272750658239e-01
-1.029363964463826e+00  3.869272750658239e-01  9.206207134619858e-18

 7.680049537566440e-18 -2.086722577295089e-19 -1.009323745302861e+00
-2.086722577295089e-19  7.040155990969740e-18  4.312168623772904e-01
-1.009323745302861e+00  4.312168623772904e-01  7.375591892342461e-18

 7.386000190868494e-18 -2.119376091903206e-19 -1.001944487879907e+00
-2.119376091903206e-19  6.681296658671405e-18  4.389754810460040e-01
-1.001944487879907e+00  4.389754810460040e-01  6.776394452589224e-18

 7.316074853015522e-18 -2.683199662301558e-19 -1.001980617265859e+00
-2.683199662301558e-19  7.248761245012723e-18  4.144612339831611e-01
-1.001980617265859e+00  4.144612339831611e-01  7.133299611574946e-18

 6.699952333802967e-18 -3.068221522204560e-19 -9.838423899452512e-01
-3.068221522204560e-19  6.714512381515817e-18  4.198171062547389e-01
-9.838423899452512e-01  4.198171062547389e-01  5.963989340787940e-18

 6.675835489637976e-18 -3.381890795343187e-19 -9.931965685778703e-01
-3.381890795343187e-19  6.249623492047799e-18  4.246588394912052e-01
-9.931965685778703e-01  4.246588394912052e-01  6.379684477740865e-18

 6.775973339022956e-18 -3.668906722164619e-19 -1.007979150830729e+00
-3.668906722164619e-19  6.308889616220854e-18  4.203358212548738e-01
-1.007979150830729e+00  4.203358212548738e-01  7.031949091098136e-18

 7.092127046969401e-18 -3.970714003598231e-19 -1.036023507954413e+00
-3.970714003598231e-19  6.561433735778009e-18  4.100592374558477e-01
-1.036023507954413e+00  4.100592374558477e-01  8.443513149078057e-18

 6.693609032631106e-18 -4.224560678989105e-19 -1.032606219209312e+00
-4.224560678989105e-19  4.474238077701626e-18  4.610441877496956e-01
-1.032606219209312e+00  4.610441877496956e-01  7.452107493941828e-18

 6.449307110483660e-18 -4.761617408363625e-19 -1.027874978243959e+00
-4.761617408363625e-19  5.317611183825055e-18  4.256934045741795e-01
-1.027874978243959e+00  4.256934045741795e-01  7.543638168909574e-18

 5.633528864666100e-18 -5.717989640498961e-19 -1.003464841459788e+00
-5.717989640498961e-19  5.269904052884578e-18  4.108320270928753e-01
-1.003464841459788e+00  4.108320270928753e-01  6.212654244802312e-18

 5.561080633578193e-18 -6.503201019468683e-19 -1.021867853061143e+00
-6.503201019468683e-19  4.132611860605348e-18  4.249504864196114e-01
-1.021867853061143e+00  4.249504864196114e-01  6.963010775622308e-18

 5.317244107315478e-18 -7.438406580420703e-19 -1.030441168683757e+00
-7.438406580420703e-19  3.401115294385527e-18  4.319479178441920e-01
-1.030441168683757e+00  4.319479178441920e-01  7.130333670079851e-18

 5.061663320572777e-18 -8.066293009763674e-19 -1.031251320758979e+00
-8.066293009763674e-19  2.824487060756233e-18  4.368683086134395e-01
-1.031251320758979e+00  4.368683086134395e-01  7.061668937302084e-18

 4.563901905693834e-18 -9.163969249718285e-19 -1.025341711139559e+00
-9.163969249718285e-19  2.696374719659105e-18  4.216058797555604e-01
-1.025341711139559e+00  4.216058797555604e-01  6.904191484145058e-18

 3.892082400874277e-18 -1.030759349285451e-18 -1.012869080242484e+00
-1.030759349285451e-18  1.657708329026216e-18  4.274002620399911e-01
-1.012869080242484e+00  4.274002620399911e-01  6.162521895667326e-18

 3.339155527804548e-18 -1.138920296265030e-18 -1.005451805276481e+00
-1.138920296265030e-18  1.004268414783093e-18  4.233949870189218e-01
-1.005451805276481e+00  4.233949870189218e-01  5.779544282850631e-18

 2.748143052715256e-18 -1.286923491560587e-18 -1.008533021059118e+00
-1.286923491560587e-18 -1.100580937937734e-19  4.209180785649229e-01
-1.008533021059118e+00  4.209180785649229e-01  5.862778665608824e-18

 2.421620511367828e-18 -1.431025739160916e-18 -1.021378538799995e+00
-1.431025739160916e-18 -1.002239562173466e-18  4.166009939970264e-01
-1.021378538799995e+00  4.166009939970264e-01  6.515053174019119e-18

 1.899068631947908e-18 -1.587937898461077e-18 -1.028164113488944e+00
-1.587937898461077e-18 -2.480517412548142e-18  4.231069029103207e-01
-1.028164113488944e+00  4.231069029103207e-01  6.792787081060717e-18

 1.199776389361264e-18 -1.776843508085647e-18 -1.020900092908357e+00
-1.776843508085647e-18 -2.936400363770025e-18  4.081733468843797e-01
-1.020900092908357e+00  4.081733468843797e-01  6.518587143760144e-18

 3.419921567363054e-19 -1.947368400394511e-18 -1.009952517532005e+00
-1.947368400394511e-18 -4.622926112042635e-18  4.161946800487781e-01
-1.009952517532005e+00  4.161946800487781e-01  5.783197543207324e-18

-3.026733954194544e-18 -2.525336317197251e-18 -9.173322376490601e-01
-2.525336317197251e-18 -7.917601213634891e-18  4.308126097667151e-01
-9.173322376490601e-01  4.308126097667151e-01 -1.522529425017421e-19

-4.001367944170289e-18 -2.773098625208436e-18 -9.531379960895588e-01
-2.773098625208436e-18 -9.683727604027480e-18  4.180010731184360e-01
-9.531379960895588e-01  4.180010731184360e-01  5.922104644216054e-19

-2.584720265812985e-18 -3.290491229572101e-18 -1.113383001820183e+00
-3.290491229572101e-18 -1.121666408785884e-17  4.121231603366777e-01
-1.113383001820183e+00  4.121231603366777e-01  8.626311126507438e-18

-5.027289922296384e-18 -3.886069671711600e-18 -1.109307042308146e+00
-3.886069671711600e-18 -1.500677024373750e-17  4.127253028727711e-01
-1.109307042308146e+00  4.127253028727711e-01  7.004672195772524e-18

-8.028066560812863e-18 -4.624535143450031e-18 -1.059636024657320e+00
-4.624535143450031e-18 -1.909285038745863e-17  4.289182698668669e-01
-1.059636024657320e+00  4.289182698668669e-01  3.364697580759360e-18

-1.070867961858365e-17 -5.842271483120873e-18 -1.033097403756187e+00
-5.842271483120873e-18 -1.910104663064242e-17  3.366213510063091e-01
-1.033097403756187e+00  3.366213510063091e-01  2.154818796776204e-18

-1.141335547429614e-17 -6.280703675790140e-18 -1.080332022133402e+00
-6.280703675790140e-18 -2.340882033806011e-17  3.729609577052044e-01
-1.080332022133402e+00  3.729609577052044e-01  4.189982382179268e-18

-1.256383409837934e-17 -7.013795908765431e-18 -1.164905759821220e+00
-7.013795908765431e-18 -3.113455126672891e-17  4.317382598458514e-01
-1.164905759821220e+00  4.317382598458514e-01  8.152984854928599e-18

-2.538927262788190e-17 -1.233016881973232e-17 -8.362013993094245e-01
-1.233016881973232e-17 -3.884403341866697e-17  4.352188402520560e-01
-8.362013993094245e-01  4.352188402520560e-01 -1.151659943423086e-17

-3.010514714625146e-17 -1.408826595835989e-17 -8.609240465714516e-01
-1.408826595835989e-17 -4.393191682874696e-17  3.416590568258778e-01
-8.609240465714516e-01  3.416590568258778e-01 -1.195573846290389e-17

-3.178480816622430e-17 -1.629422879761371e-17 -1.016770729788129e+00
-1.629422879761371e-17 -5.836160053113690e-17  4.831216726161655e-01
-1.016770729788129e+00  4.831216726161655e-01 -3.871105263341303e-18

-4.018819912519881e-17 -1.991347996455114e-17 -1.013318696703379e+00
-1.991347996455114e-17 -6.878070908963323e-17  4.383510114169358e-01
-1.013318696703379e+00  4.383510114169358e-01 -7.775454346082272e-18

-5.015002946789861e-17 -2.532542129029018e-17 -9.340639182826415e-01
-2.532542129029018e-17 -7.770215286188738e-17  4.170363722738961e-01
-9.340639182826415e-01  4.170363722738961e-01 -1.466779478232045e-17

-6.266760280710405e-17 -3.116134670049378e-17 -8.769214359927852e-01
-3.116134670049378e-17 -9.189798032141736e-17  4.084538413487070e-01
-8.769214359927852e-01  4.084538413487070e-01 -2.296875637500195e-17

-6.174582308414539e-17 -3.566494408555167e-17 -1.339630135609589e+00
-3.566494408555167e-17 -8.938726307463804e-17  3.422086515938216e-02
-1.339630135609589e+00  3.422086515938216e-02  2.780347725405736e-18

-7.159360141906580e-17 -3.568641596481280e-17 -1.007009438441443e+00
-3.568641596481280e-17 -1.129741487130952e-16  4.424631262697050e-01
-1.007009438441443e+00  4.424631262697050e-01 -1.907721662129602e-17

-8.052598058277710e-17 -3.760917354999202e-17 -8.800683315044603e-01
-3.760917354999202e-17 -1.358041615114307e-16  6.885332154587380e-01
-8.800683315044603e-01  6.885332154587380e-01 -2.973448133265096e-17

-9.943045093127152e-17 -4.954040966318408e-17 -1.105509493458235e+00
-4.954040966318408e-17 -1.572836039056125e-16  3.901601322851840e-01
-1.105509493458235e+00  3.901601322851840e-01 -2.418980935866731e-17

-1.223450224004740e-16 -6.417023262472648e-17 -1.320481620016033e+00
-6.417023262472648e-17 -1.856739089728933e-16  1.896217853540915e-01
-1.320481620016033e+00  1.896217853540915e-01 -1.912666215689731e-17

-1.509188582946537e-16 -6.557918314472604e-17 -1.025428051055375e+00
-6.557918314472604e-17 -2.527734474885292e-16  6.140579593135981e-01
-1.025428051055375e+00  6.140579593135981e-01 -4.699702353660246e-17

-1.772768743224837e-16 -8.948632976697795e-17 -9.577141918015738e-01
-8.948632976697795e-17 -2.577101796368719e-16  5.076170864056470e-01
-9.577141918015738e-01  5.076170864056470e-01 -5.667822322191717e-17

-1.976856595193769e-16 -1.221541859026223e-16 -1.226747132573258e+00
-1.221541859026223e-16 -2.100900459654456e-16  1.519276140930017e-01
-1.226747132573258e+00  1.519276140930017e-01 -4.363244274789138e-17

-2.371543258807988e-16 -1.333949328189267e-16 -7.862123419686035e-01
-1.333949328189267e-16 -2.721154128762916e-16  4.879825581315259e-01
-7.862123419686035e-01  4.879825581315259e-01 -8.095610015847854e-17

-2.962524242879932e-16 -1.644757931251597e-16 -9.379133176210512e-01
-1.644757931251597e-16 -3.437562314212934e-16  4.787618297438894e-01
-9.379133176210512e-01  4.787618297438894e-01 -9.043446047298247e-17

-4.278474963684208e-16 -2.331912273818176e-16 -1.009522712311315e+00
-2.331912273818176e-16 -4.610920604216130e-16  4.356318867277965e-01
-1.009522712311315e+00  4.356318867277965e-01 -1.256106538501266e-16

-6.107627506485548e-16 -3.226597378964617e-16 -1.019570286792952e+00
-3.226597378964617e-16 -5.882140150642300e-16  4.204496201690366e-01
-1.019570286792952e+00  4.204496201690366e-01 -1.784483834593890e-16

-9.045802869264409e-16 -4.493029684323794e-16 -1.025881794246876e+00
-4.493029684323794e-16 -7.537811711030028e-16  4.211486337134858e-01
-1.025881794246876e+00  4.211486337134858e-01 -2.641076768882555e-16

-1.351235661095050e-15 -6.072541622479204e-16 -1.027757181699261e+00
-6.072541622479204e-16 -9.382911326906110e-16  4.232944118809414e-01
-1.027757181699261e+00  4.232944118809414e-01 -3.976347376921363e-16

-2.056724715505348e-15 -7.869764713920234e-16 -1.032000396607122e+00
-7.869764713920234e-16 -1.117264083341085e-15  4.138403167732449e-01
-1.032000396607122e+00  4.138403167732449e-01 -6.203418269468198e-16

-2.673261625082697e-15 -8.836759169464156e-16 -1.010840035737638e+00
-8.836759169464156e-16 -1.247585497549430e-15  4.358582429314795e-01
-1.010840035737638e+00  4.358582429314795e-01 -8.306851932350218e-16

-3.395586282293959e-15 -9.431601773961408e-16 -1.021438808743226e+00
-9.431601773961408e-16 -1.325717792742329e-15  4.235577442516407e-01
-1.021438808743226e+00  4.235577442516407e-01 -1.094062513654022e-15

-4.787019409718469e-15 -8.904098211338549e-16 -1.024169736326779e+00
-8.904098211338549e-16 -1.438266266419318e-15  4.220730510827283e-01
-1.024169736326779e+00  4.220730510827283e-01 -1.671077281320033e-15

-7.053172550804879e-15 -6.288745329578419e-16 -1.016714189413718e+00
-6.288745329578419e-16 -1.626338459981692e-15  4.284323636760120e-01
-1.016714189413718e+00  4.284323636760120e-01 -2.725540234576220e-15

-9.659149395030217e-15 -9.205898372837886e-17 -1.023089772524521e+00
-9.205898372837886e-17 -1.621089901603499e-15  4.121836398161290e-01
-1.023089772524521e+00  4.121836398161290e-01 -4.106180788880059e-15

-1.414063775568596e-14  1.183926348772157e-15 -1.007460336805826e+00
 1.183926348772157e-15 -1.236499205203228e-15  4.223164775278612e-01
-1.007460336805826e+00  4.223164775278612e-01 -6.633139009645728e-15

 1.553400450042353e-14  2.606399986683995e-14 -1.017369161317637e+00
 2.606399986683995e-14  3.574948371830385e-14  4.232734635519904e-01
-1.017369161317637e+00  4.232734635519904e-01 -1.647236561022769e-15

-6.412784330543785e-13 -1.514143500908186e-13 -1.008946731716895e+00
-1.514143500908186e-13 -2.734856188147563e-13  4.417761778373460e-01
-1.008946731716895e+00  4.417761778373460e-01 -2.107416071675923e-13

 1.944329234176304e-14  3.534171796110758e-15 -1.009616373983573e+00
 3.534171796110758e-15  2.614191272711751e-14  4.168085878052835e-01
-1.009616373983573e+00  4.168085878052835e-01 -3.830669559510571e-15

-7.466110442031653e-15 -1.189869009247237e-14 -1.009711403637805e+00
-1.189869009247237e-14  6.701204164472285e-16  4.207909952588062e-01
-1.009711403637805e+00  4.207909952588062e-01 -8.360103171639656e-15

-6.483826790657521e-13 -1.493128266443676e-13 -1.018950166621640e+00
-1.493128266443676e-13 -3.219246628977825e-13  4.185075934104143e-01
-1.018950166621640e+00  4.185075934104143e-01 -1.613453749867718e-13

-4.092191072834644e-15 -9.127216933423662e-15 -1.012083254927018e+00
-9.127216933423662e-15  1.296146370686420e-15  4.193137214333460e-01
-1.012083254927018e+00  4.193137214333460e-01 -4.612658845161307e-15

-3.193282923514824e-15 -7.230955927592860e-15 -1.012058994150100e+00
-7.230955927592860e-15  1.783442125718907e-15  4.181521149920117e-01
-1.012058994150100e+00  4.181521149920117e-01 -3.396592777694993e-15

-2.650012662181273e-15 -4.541730979609693e-15 -1.011358927302659e+00
-4.541730979609693e-15  1.850590956582664e-15  4.195533780185862e-01
-1.011358927302659e+00  4.195533780185862e-01 -2.079766183001062e-15

-1.941684989547940e-15 -2.125528387623177e-15 -1.010725280443855e+00
-2.125528387623177e-15  1.342389489159598e-15  4.192584205970701e-01
-1.010725280443855e+00  4.192584205970701e-01 -1.102300955637399e-15

-1.394824979498253e-15 -1.031825668271185e-15 -1.009735559464211e+00
-1.031825668271185e-15  8.359914758568513e-16  4.183289015764921e-01
-1.009735559464211e+00  4.183289015764921e-01 -6.554893890878891e-16

-9.727039351906409e-16 -4.933463722433091e-16 -1.011994059260149e+00
-4.933463722433091e-16  4.875034268948368e-16  4.175017569026572e-01
-1.011994059260149e+00  4.175017569026572e-01 -4.050599328679897e-16

-6.714763862365506e-16 -2.341139861545028e-16 -1.019488002311529e+00
-2.341139861545028e-16  2.546182008825635e-16  4.159553112617699e-01
-1.019488002311529e+00  4.159553112617699e-01 -2.581397398085034e-16

-4.715675310352024e-16 -1.138597659438545e-16 -1.026312019917747e+00
-1.138597659438545e-16  1.201302292807399e-16  4.220413174416029e-01
-1.026312019917747e+00  4.220413174416029e-01 -1.717308582199406e-16

-3.524262323959462e-16 -6.311021893230574e-17 -1.011917880607269e+00
-6.311021893230574e-17  7.969615933057343e-17  4.169344250459663e-01
-1.011917880607269e+00  4.169344250459663e-01 -1.249618094878566e-16

-2.464983044910669e-16 -3.941157609993147e-17 -1.001749787313722e+00
-3.941157609993147e-17  4.725721032346582e-17  4.186245860294227e-01
-1.001749787313722e+00  4.186245860294227e-01 -9.193087147263024e-17

-2.058255183656334e-16 -1.817412823666617e-17 -1.004287633921060e+00
-1.817412823666617e-17 -1.716984361927941e-17  4.267270865318826e-01
-1.004287633921060e+00  4.267270865318826e-01 -6.942928757512068e-17

-1.719391304394982e-16 -1.068659261981700e-17 -1.006573025883945e+00
-1.068659261981700e-17  1.788296794263287e-17  4.134156552753407e-01
-1.006573025883945e+00  4.134156552753407e-01 -5.678476637465829e-17

-1.415976299559865e-16 -6.150770414390741e-18 -1.020123260592724e+00
-6.150770414390741e-18 -2.868000571608362e-17  3.973043414227037e-01
-1.020123260592724e+00  3.973043414227037e-01 -4.509394064628771e-17

-1.113828863668985e-16 -1.957788644187552e-18 -1.065202811215954e+00
-1.957788644187552e-18  4.441922834223698e-18  4.399949587301608e-01
-1.065202811215954e+00  4.399949587301608e-01 -3.221949209274363e-17

-9.224886074796774e-17 -3.275905230813800e-19 -1.047046367824391e+00
-3.275905230813800e-19 -2.520382565073078e-17  4.288052414373064e-01
-1.047046367824391e+00  4.288052414373064e-01 -2.635207714877572e-17

-7.711643317332861e-17  4.845814794711481e-19 -1.013586911890213e+00
 4.845814794711481e-19 -2.936106204319659e-17  3.908670865907267e-01
-1.013586911890213e+00  3.908670865907267e-01 -2.209919845179936e-17

-6.565095660456696e-17  1.408066679996494e-18 -1.005414124297496e+00
 1.408066679996494e-18 -9.887620321361568e-18  4.350666448295203e-01
-1.005414124297496e+00  4.350666448295203e-01 -1.880304132640172e-17

-5.800148820460412e-17  1.425220672977758e-18 -1.024052197671181e+00
 1.425220672977758e-18 -2.795941594651482e-17  4.188277593378666e-01
-1.024052197671181e+00  4.188277593378666e-01 -1.482734496018011e-17

-4.746099915069721e-17  1.946357067352058e-18 -1.015939422186985e+00
 1.946357067352058e-18 -4.696483316559537e-18  4.122256686176365e-01
-1.015939422186985e+00  4.122256686176365e-01 -1.129314696625182e-17

-3.821934446914362e-17  1.986888575677588e-18 -1.003017319101678e+00
 1.986888575677588e-18 -6.335131694456105e-18  4.134840687795579e-01
-1.003017319101678e+00  4.134840687795579e-01 -8.497232840657224e-18

-3.095949696358234e-17  1.910229890262643e-18 -9.895897358812865e-01
 1.910229890262643e-18 -7.912507330650894e-18  4.158686589111426e-01
-9.895897358812865e-01  4.158686589111426e-01 -6.456303538865676e-18

-2.586970252503471e-17  1.843490149977946e-18 -9.867048193267133e-01
 1.843490149977946e-18 -4.484838280601273e-18  4.050677565461805e-01
-9.867048193267133e-01  4.050677565461805e-01 -4.581955534355497e-18

-2.252375201562055e-17  1.673221742493104e-18 -9.864316686691014e-01
 1.673221742493104e-18 -1.007643075353736e-17  4.193033381216978e-01
-9.864316686691014e-01  4.193033381216978e-01 -3.509031710176999e-18

-1.965800334864139e-17  1.582688760914589e-18 -9.675867600017096e-01
 1.582688760914589e-18 -9.426110845292624e-18  4.379537905330951e-01
-9.675867600017096e-01  4.379537905330951e-01 -3.688557496798194e-18

-1.676092312056845e-17  1.490387642830191e-18 -1.004682074937894e+00
 1.490387642830191e-18 -7.094216654824857e-18  3.717452147883717e-01
-1.004682074937894e+00  3.717452147883717e-01  2.012033144725655e-19

-1.597404234111322e-17  1.493527872251710e-18 -9.777654112118586e-01
 1.493527872251710e-18 -4.204884322941346e-18  3.832854448741572e-01
-9.777654112118586e-01  3.832854448741572e-01 -1.343777630373165e-18

-1.384816491327262e-17  1.444813303930973e-18 -9.880803521915931e-01
 1.444813303930973e-18 -1.589986523639629e-19  3.978887198310056e-01
-9.880803521915931e-01  3.978887198310056e-01 -3.958502805227601e-19

-1.109243429720300e-17  1.226642382059477e-18 -1.024939857870631e+00
 1.226642382059477e-18 -7.161423056295774e-19  4.179013516502553e-01
-1.024939857870631e+00  4.179013516502553e-01  2.195237944962769e-18

-8.165539789929730e-18  1.148773096811483e-18 -1.020036879991460e+00
 1.148773096811483e-18  6.297150470956188e-18  4.015093792453152e-01
-1.020036879991460e+00  4.015093792453152e-01  2.826212963843897e-18

-6.532412631172845e-18  9.707081414008668e-19 -1.002160892808757e+00
 9.707081414008668e-19  1.244067665716453e-18  4.193422131240650e-01
-1.002160892808757e+00  4.193422131240650e-01  2.255115742030143e-18

-5.397272600476063e-18  8.691945785412901e-19 -1.001894227508694e+00
 8.691945785412901e-19 -8.399317383090050e-19  4.298079816801987e-01
-1.001894227508694e+00  4.298079816801987e-01  2.576897202281744e-18

-3.826694502607146e-18  7.696779383058179e-19 -1.005528934591651e+00
 7.696779383058179e-19  2.132446076519395e-19  4.136813033027220e-01
-1.005528934591651e+00  4.136813033027220e-01  3.560924856093382e-18

-2.660660774960697e-18  7.602982744247630e-19 -1.000073864019391e+00
 7.602982744247630e-19  6.577050831636724e-18  4.120332535453329e-01
-1.000073864019391e+00  4.120332535453329e-01  3.799789666770462e-18

-1.639193165990718e-18  6.633956788317121e-19 -1.005461886586223e+00
 6.633956788317121e-19  4.189573764758861e-18  3.927479617117469e-01
-1.005461886586223e+00  3.927479617117469e-01  4.707721117285153e-18

-1.043167651884138e-18  5.859310276673680e-19 -9.978574450430805e-01
 5.859310276673680e-19  2.413505651379821e-18  4.299458843814230e-01
-9.978574450430805e-01  4.299458843814230e-01  4.209925443413249e-18

-5.925255253282108e-20  5.430048293531090e-19 -1.000583421418425e+00
 5.430048293531090e-19  3.006537053294676e-18  4.164495947908721e-01
-1.000583421418425e+00  4.164495947908721e-01  4.862196600902429e-18

 5.555729865499430e-19  4.910536356663437e-19 -9.912071651968755e-01
 4.910536356663437e-19  3.850815789286013e-18  4.038477600912559e-01
-9.912071651968755e-01  4.038477600912559e-01  4.716129407432526e-18

 1.321752725228644e-18  4.394718624317978e-19 -1.003666764923475e+00
 4.394718624317978e-19  2.683955309505747e-18  3.949037742234520e-01
-1.003666764923475e+00  3.949037742234520e-01  5.741250864889499e-18

 1.368919982077540e-18  4.244469495198205e-19 -9.918374882919615e-01
 4.244469495198205e-19  3.737763149423506e-18  4.201195411173166e-01
-9.918374882919615e-01  4.201195411173166e-01  4.751933029833511e-18

 2.282628101936291e-18  3.569877284204666e-19 -1.004705257987093e+00
 3.569877284204666e-19  3.217989052505486e-18  4.162157107698829e-01
-1.004705257987093e+00  4.162157107698829e-01  5.723037611737298e-18

 2.757021488479027e-18  3.120018510117179e-19 -1.002116464854272e+00
 3.120018510117179e-19  3.558074944744266e-18  4.167101322728611e-01
-1.002116464854272e+00  4.167101322728611e-01  5.711731317238032e-18

 3.182762048182111e-18  2.450473824834819e-19 -1.004492216140431e+00
 2.450473824834819e-19  1.186148533637571e-18  4.097566283015467e-01
-1.004492216140431e+00  4.097566283015467e-01  6.074605892667005e-18

 3.418407669722898e-18  3.412795119195779e-19 -1.002237190307409e+00
 3.412795119195779e-19  1.012576602263550e-17  4.111552646757901e-01
-1.002237190307409e+00  4.111552646757901e-01  6.009373844222909e-18

 3.957330539125719e-18  2.261850163932021e-19 -1.002403245990066e+00
 2.261850163932021e-19  4.699873394656783e-18  4.155513662618047e-01
-1.002403245990066e+00  4.155513662618047e-01  6.191598259195312e-18

 4.304663347556200e-18  2.390684686694038e-19 -1.000429461854361e+00
 2.390684686694038e-19  7.636418316355509e-18  4.180014136353862e-01
-1.000429461854361e+00  4.180014136353862e-01  6.135711944663697e-18

 4.601816521687598e-18  2.376230339333646e-19 -1.002223280375129e+00
 2.376230339333646e-19  8.888843693338038e-18  4.105425387970453e-01
-1.002223280375129e+00  4.105425387970453e-01  6.424107684116299e-18

 5.001730794995940e-18  2.369029314248574e-19 -1.005991564421372e+00
 2.369029314248574e-19  1.064095731982457e-17  4.095133549373695e-01
-1.005991564421372e+00  4.095133549373695e-01  6.740631175523908e-18

 5.448742717604521e-18  1.604274454138570e-19 -1.013331685048758e+00
 1.604274454138570e-19  6.565182884664685e-18  4.164021547119217e-01
-1.013331685048758e+00  4.164021547119217e-01  7.201614588966448e-18

 5.187347829220378e-18  1.637569569709214e-19 -9.957317189680729e-01
 1.637569569709214e-19  6.758566762741195e-18  4.346461338951968e-01
-9.957317189680729e-01  4.346461338951968e-01  5.932766894440260e-18

 5.416655080067670e-18  1.818789387838401e-19 -9.999065750677311e-01
 1.818789387838401e-19  8.906144903212257e-18  4.252887798109055e-01
-9.999065750677311e-01  4.252887798109055e-01  6.333381676949717e-18

 5.657213510749716e-18  1.365265005413904e-19 -9.980591202006089e-01
 1.365265005413904e-19  8.099483320281566e-18  3.978180457541660e-01
-9.980591202006089e-01  3.978180457541660e-01  6.619358210867541e-18

 6.290308767060283e-18  1.221977251582762e-19 -1.016219246545338e+00
 1.221977251582762e-19  7.539340140698046e-18  3.899502521581850e-01
-1.016219246545338e+00  3.899502521581850e-01  7.907648637230918e-18

 5.996029322168902e-18  1.095237628455797e-19 -9.996437495142976e-01
 1.095237628455797e-19  8.431054432714784e-18  4.354385961545165e-01
-9.996437495142976e-01  4.354385961545165e-01  6.384746472895034e-18

 6.630978074876547e-18  6.593439056860902e-20 -1.016647134371547e+00
 6.593439056860902e-20  5.995043380660402e-18  4.149181750547948e-01
-1.016647134371547e+00  4.149181750547948e-01  7.719258082506083e-18

 6.750201584933871e-18  4.989534847445185e-20 -1.012664764681636e+00
 4.989534847445185e-20  6.255785540587496e-18  4.035086736104673e-01
-1.012664764681636e+00  4.035086736104673e-01  7.654200513642988e-18

 6.662932997959408e-18  8.523507176638973e-20 -1.001757714472148e+00
 8.523507176638973e-20  9.093551086573686e-18  4.110742461845377e-01
-1.001757714472148e+00  4.110742461845377e-01  7.017719010114282e-18

 6.883400393056342e-18  5.364181785717871e-20 -1.002081068037574e+00
 5.364181785717871e-20  7.687408490045046e-18  4.138234861591628e-01
-1.002081068037574e+00  4.138234861591628e-01  7.112277149199091e-18

 7.090076855022977e-18  4.379207585000822e-20 -1.004496381309118e+00
 4.379207585000822e-20  7.631624560281914e-18  4.132754458031555e-01
-1.004496381309118e+00  4.132754458031555e-01  7.307405413264880e-18

 7.261260989699093e-18  5.142680891125761e-20 -1.006881695177765e+00
 5.142680891125761e-20  8.756090090455368e-18  4.091265169695332e-01
-1.006881695177765e+00  4.091265169695332e-01  7.575562505550426e-18

 7.309525644742026e-18  4.745438733570573e-20 -1.003208824329773e+00
 4.745438733570573e-20  8.573648176169028e-18  4.132264822892256e-01
-1.003208824329773e+00  4.132264822892256e-01  7.348043892662288e-18

 7.492718406335050e-18  8.711799428642593e-20 -1.003240247190343e+00
 8.711799428642593e-20  1.228155235873681e-17  4.076735977069221e-01
-1.003240247190343e+00  4.076735977069221e-01  7.533315193474431e-18

 7.580488644179839e-18  8.540075310913922e-20 -9.993924972473192e-01
 8.540075310913922e-20  1.218709192210970e-17  4.106841337791683e-01
-9.993924972473192e-01  4.106841337791683e-01  7.383196389560806e-18

 8.056073533728419e-18  3.613637337289912e-20 -1.012259526501642e+00
 3.613637337289912e-20  9.929214906569909e-18  3.927181849402429e-01
-1.012259526501642e+00  3.927181849402429e-01  8.432422568768908e-18

 8.023618099836809e-18  5.228801748264323e-20 -1.008217211424677e+00
 5.228801748264323e-20  1.089347982520226e-17  3.964884428422753e-01
-1.008217211424677e+00  3.964884428422753e-01  8.204072812562743e-18

 7.974013957889836e-18  3.822319598326881e-20 -1.002913739692486e+00
 3.822319598326881e-20  9.549189406879512e-18  4.089232048021423e-01
-1.002913739692486e+00  4.089232048021423e-01  7.745119846909627e-18

 8.021974458691462e-18  5.552726829111285e-20 -1.000234436356981e+00
 5.552726829111285e-20  1.012867603345371e-17  4.142270563829508e-01
-1.000234436356981e+00  4.142270563829508e-01  7.543650618903488e-18

 8.341740247802173e-18  4.855888734430522e-20 -1.008019183782211e+00
 4.855888734430522e-20  1.101349601371898e-17  3.942107723367697e-01
-1.008019183782211e+00  3.942107723367697e-01  8.389176491171782e-18

 8.214199323006915e-18  5.016637645852551e-20 -9.990538845371619e-01
 5.016637645852551e-20  1.147932958288844e-17  3.979929968903427e-01
-9.990538845371619e-01  3.979929968903427e-01  7.852760143422320e-18

 8.126808701168424e-18  4.196762121566694e-20 -9.921594350554843e-01
 4.196762121566694e-20  1.012898846170464e-17  4.021404921662047e-01
-9.921594350554843e-01  4.021404921662047e-01  7.412758710631367e-18

 8.057383586140722e-18  2.403962236843998e-20 -9.854327917608482e-01
 2.403962236843998e-20  8.868226495637765e-18  4.081359229376767e-01
-9.854327917608482e-01  4.081359229376767e-01  6.966556275107657e-18

 8.075716751928572e-18  9.504577763971944e-21 -9.844015675269990e-01
 9.504577763971944e-21  7.548114961661666e-18  4.116162537036603e-01
-9.844015675269990e-01  4.116162537036603e-01  6.851500400630100e-18

 8.381970749373095e-18  5.962438459881604e-20 -9.931155959011259e-01
 5.962438459881604e-20  1.119805285229357e-17  4.078183703444984e-01
-9.931155959011259e-01  4.078183703444984e-01  7.518888595624296e-18

 8.838193306670765e-18  1.573316624960843e-20 -1.006869264080777e+00
 1.573316624960843e-20  9.916653691929217e-18  3.910383678926601e-01
-1.006869264080777e+00  3.910383678926601e-01  8.646180149540852e-18

 8.805716370699940e-18  3.910784206853741e-20 -1.003926648545980e+00
 3.910784206853741e-20  1.162888154893989e-17  3.882995040220900e-01
-1.003926648545980e+00  3.882995040220900e-01  8.531258886435660e-18

 8.772609620868818e-18  3.429625349754904e-20 -9.990330591420633e-01
 3.429625349754904e-20  1.088374498650201e-17  3.843888490998502e-01
-9.990330591420633e-01  3.843888490998502e-01  8.324336077097474e-18

 7.997562530943193e-18  6.458913243491891e-20 -9.649300107125631e-01
 6.458913243491891e-20  9.182548842427956e-18  4.363982708213644e-01
-9.649300107125631e-01  4.363982708213644e-01  5.619598972161781e-18

 8.055619784830278e-18  3.290295938193198e-20 -9.634587927307530e-01
 3.290295938193198e-20  8.067444368412580e-18  4.301692762284549e-01
-9.634587927307530e-01  4.301692762284549e-01  5.705878818745626e-18

 8.914086368131714e-18 -3.077208543000347e-20 -9.924743974407770e-01
-3.077208543000347e-20  1.093850397101616e-17  3.739608664912406e-01
-9.924743974407770e-01  3.739608664912406e-01  8.455614306242369e-18

 8.493642744137960e-18  2.175658964469592e-20 -9.721150284704467e-01
 2.175658964469592e-20  9.462114941049194e-18  4.087384139001007e-01
-9.721150284704467e-01  4.087384139001007e-01  6.869344184055772e-18

 8.292143843530765e-18  6.439285741404204e-20 -9.619249926214185e-01
 6.439285741404204e-20  9.974440418037304e-18  4.184542694629846e-01
-9.619249926214185e-01  4.184542694629846e-01  6.263321995953986e-18

 8.463917045189973e-18 -2.078760632667811e-20 -9.625433326211553e-01
-2.078760632667811e-20  1.010231193878057e-17  3.884744245463912e-01
-9.625433326211553e-01  3.884744245463912e-01  6.849412184794890e-18

 8.428575322551009e-18  5.018032257760556e-22 -9.569644386546619e-01
 5.018032257760556e-22  1.122097944483092e-17  3.840477227493087e-01
-9.569644386546619e-01  3.840477227493087e-01  6.708124794312695e-18

 8.836902168194291e-18  1.488197289003269e-19 -9.706176683460375e-01
 1.488197289003269e-19  9.182764191312125e-18  4.218312072800511e-01
-9.706176683460375e-01  4.218312072800511e-01  7.447833412494294e-18

 9.041275487216736e-18 -2.046817698216187e-19 -9.618824256255226e-01
-2.046817698216187e-19  1.228775138931726e-17  3.392072801122118e-01
-9.618824256255226e-01  3.392072801122118e-01  8.666468756595685e-18

 9.031461557632409e-18 -2.245804444205386e-19 -9.584487272291404e-01
-2.245804444205386e-19  1.311335109826286e-17  2.969618222411229e-01
-9.584487272291404e-01  2.969618222411229e-01  8.902022677512568e-18

 7.303561648333015e-18 -1.484459534261564e-20 -8.919350109591228e-01
-1.484459534261564e-20  9.465421130173350e-18  4.000900588533786e-01
-8.919350109591228e-01  4.000900588533786e-01  3.285187694396617e-18

 7.733397592994264e-18 -7.779350435057589e-20 -9.091819426049735e-01
-7.779350435057589e-20  7.971995850388341e-18  4.334503447843597e-01
-9.091819426049735e-01  4.334503447843597e-01  4.044895564453460e-18

 8.431240521633746e-18 -8.599777314990071e-20 -9.398315347307766e-01
-8.599777314990071e-20  8.636953668943619e-18  4.257806832298618e-01
-9.398315347307766e-01  4.257806832298618e-01  5.842539301742360e-18

 8.992490817010557e-18 -3.594999147978083e-20 -9.640069062966921e-01
-3.594999147978083e-20  1.051724263856687e-17  3.998689515656658e-01
-9.640069062966921e-01  3.998689515656658e-01  7.316219548941129e-18

 9.108994101468939e-18 -4.018425294272213e-21 -9.704529422584238e-01
-4.018425294272213e-21  1.148060730511319e-17  3.857417690499087e-01
-9.704529422584238e-01  3.857417690499087e-01  7.567694361030869e-18

 9.335340939690086e-18 -3.654859320904567e-20 -9.802049718413183e-01
-3.654859320904567e-20  1.082450757720149e-17  3.935726482844466e-01
-9.802049718413183e-01  3.935726482844466e-01  7.917780714639952e-18

 9.442285688057674e-18 -4.178488253656605e-20 -9.850158880705119e-01
-4.178488253656605e-20  1.076832725238620e-17  4.108522374779888e-01
-9.850158880705119e-01  4.108522374779888e-01  7.972101347144969e-18

 9.206678105241311e-18  5.467167873646290e-21 -9.742472865278468e-01
 5.467167873646290e-21  1.087730068699835e-17  4.100047899844080e-01
-9.742472865278468e-01  4.100047899844080e-01  7.123099599149212e-18

 1.062618480459268e-17  8.454555806399605e-21 -1.031426061894777e+00
 8.454555806399605e-21  1.413889823631312e-17  3.294490259756719e-01
-1.031426061894777e+00  3.294490259756719e-01  1.162910178555523e-17

 1.007668962896533e-17 -6.112898794069044e-20 -1.007399898227990e+00
-6.112898794069044e-20  1.168059387951296e-17  3.723917095417531e-01
-1.007399898227990e+00  3.723917095417531e-01  9.748370037330427e-18

 8.348284235432872e-18 -5.578353078838054e-20 -9.362475128995451e-01
-5.578353078838054e-20  8.551608894912460e-18  4.666150560026600e-01
-9.362475128995451e-01  4.666150560026600e-01  4.280438655565459e-18

 9.207091779895816e-18 -4.513939744845744e-20 -9.661425594698562e-01
-4.513939744845744e-20  1.202860535039372e-17  3.874159055985781e-01
-9.661425594698562e-01  3.874159055985781e-01  7.172292575236794e-18

 8.904993974902182e-18 -1.995248694779457e-20 -9.524255469430104e-01
-1.995248694779457e-20  1.062402579135541e-17  3.966989866466902e-01
-9.524255469430104e-01  3.966989866466902e-01  6.086558991555045e-18

 9.725305834676459e-18 -6.296319911194531e-20 -9.889611118987701e-01
-6.296319911194531e-20  1.002750133982553e-17  4.129279963084015e-01
-9.889611118987701e-01  4.129279963084015e-01  7.899815708230992e-18

 9.948003995725697e-18 -3.065609513394044e-20 -9.984161614340215e-01
-3.065609513394044e-20  1.186160458113414e-17  4.136679756328505e-01
-9.984161614340215e-01  4.136679756328505e-01  8.290412532571082e-18

 1.011888507021604e-17 -3.925076837428158e-20 -1.004924505722088e+00
-3.925076837428158e-20  1.202513743344967e-17  3.926929702496585e-01
-1.004924505722088e+00  3.926929702496585e-01  8.889510537708541e-18

 1.013067087791276e-17 -6.005354851002120e-20 -1.002395977694197e+00
-6.005354851002120e-20  1.171596150804493e-17  3.836726696761316e-01
-1.002395977694197e+00  3.836726696761316e-01  8.877217736622270e-18

 9.950404125536858e-18 -4.888149612219808e-20 -9.939020095737175e-01
-4.888149612219808e-20  1.267595225399861e-17  3.903809114047357e-01
-9.939020095737175e-01  3.903809114047357e-01  8.406912040682087e-18

 9.746285102897151e-18 -4.807018161938930e-20 -9.825609854271782e-01
-4.807018161938930e-20  1.109497949541983e-17  4.052209398161048e-01
-9.825609854271782e-01  4.052209398161048e-01  7.667702958818867e-18

 9.646849090440392e-18 -4.928111327714532e-21 -9.752848974554565e-01
-4.928111327714532e-21  1.123952452124082e-17  4.119074682286628e-01
-9.752848974554565e-01  4.119074682286628e-01  7.479220924151243e-18

 9.845522561805367e-18 -1.221870559971180e-19 -9.737099793111982e-01
-1.221870559971180e-19  1.260554215621284e-17  3.604102830736908e-01
-9.737099793111982e-01  3.604102830736908e-01  8.505544070088393e-18

 1.052025250817463e-17 -1.397195710215957e-19 -9.983102080933051e-01
-1.397195710215957e-19  1.411160579202587e-17  3.235628575082372e-01
-9.983102080933051e-01  3.235628575082372e-01  1.070000187671172e-17

 7.802906164015647e-18 -7.511556874936654e-20 -8.875786666890536e-01
-7.511556874936654e-20  9.041044924710859e-18  4.520464268716524e-01
-8.875786666890536e-01  4.520464268716524e-01  2.236270627978247e-18

 9.298891321170418e-18 -6.550494211583502e-20 -9.470201695160163e-01
-6.550494211583502e-20  1.150363725943782e-17  3.894454996805246e-01
-9.470201695160163e-01  3.894454996805246e-01  6.792933255525663e-18

 9.139278421994328e-18 -5.142491360416765e-20 -9.405851632945801e-01
-5.142491360416765e-20  1.109660007848768e-17  3.877657867445890e-01
-9.405851632945801e-01  3.877657867445890e-01  6.263475864119281e-18

 9.384411459403804e-18 -5.079155846271775e-20 -9.514197795939373e-01
-5.079155846271775e-20  1.121896606343144e-17  3.995341258795634e-01
-9.514197795939373e-01  3.995341258795634e-01  6.662233794489263e-18

 9.740684231024843e-18 -6.749077966348255e-20 -9.668498867460639e-01
-6.749077966348255e-20  1.110304500574386e-17  4.012421207827918e-01
-9.668498867460639e-01  4.012421207827918e-01  7.472663964373915e-18

 9.667907128463877e-18 -7.245768663123775e-20 -9.639996254896414e-01
-7.245768663123775e-20  1.046733782648055e-17  4.155223552975026e-01
-9.639996254896414e-01  4.155223552975026e-01  7.021433555463173e-18

 9.946538952648840e-18 -5.123090190279856e-20 -9.758081973136978e-01
-5.123090190279856e-20  1.210193990818513e-17  3.982576411652047e-01
-9.758081973136978e-01  3.982576411652047e-01  7.872847784759732e-18

 9.999034603670461e-18 -4.598095458086188e-20 -9.766996113183649e-01
-4.598095458086188e-20  1.247334934047368e-17  3.872825903814772e-01
-9.766996113183649e-01  3.872825903814772e-01  7.982312645066969e-18

 9.964874763760959e-18 -5.011122361821338e-20 -9.752603437870496e-01
-5.011122361821338e-20  1.227842022959994e-17  3.864608031822224e-01
-9.752603437870496e-01  3.864608031822224e-01  7.901268821998568e-18

 9.840631913104330e-18 -4.285005646371020e-20 -9.688819357803637e-01
-4.285005646371020e-20  1.130445931829214e-17  4.021476651479002e-01
-9.688819357803637e-01  4.021476651479002e-01  7.341691201917438e-18

 9.893740280753608e-18 -5.813015840485636e-20 -9.695515834039543e-01
-5.813015840485636e-20  1.179403687669398e-17  4.029802261103708e-01
-9.695515834039543e-01  4.029802261103708e-01  7.401002834088059e-18

 1.007067487448302e-17 -7.271610369002509e-20 -9.740812434581673e-01
-7.271610369002509e-20  1.212944729326917e-17  3.863231650317544e-01
-9.740812434581673e-01  3.863231650317544e-01  7.932701804419774e-18

 9.770129781663803e-18  7.394465158904536e-21 -9.695991044263733e-01
 7.394465158904536e-21  1.195689317265862e-17  3.884796727284894e-01
-9.695991044263733e-01  3.884796727284894e-01  7.631321356471619e-18

 1.165743061879006e-17 -9.204547491348012e-19 -9.430322827983703e-01
-9.204547491348012e-19  1.102863205328378e-17  4.230562817944483e-01
-9.430322827983703e-01  4.230562817944483e-01  5.620335482795794e-18

 1.067451128161720e-17 -4.165292893466691e-19 -9.579172312214511e-01
-4.165292893466691e-19  1.186628315463394e-17  3.975485882688915e-01
-9.579172312214511e-01  3.975485882688915e-01  6.915284290385106e-18

-4.614569521170710e-18  5.258833507497771e-18 -9.568598510618138e-01
 5.258833507497771e-18  1.029322013079177e-17  3.855069308204131e-01
-9.568598510618138e-01  3.855069308204131e-01  6.945202695365676e-18

 6.415398621585155e-18  1.258398119015207e-18 -9.682017982076239e-01
 1.258398119015207e-18  1.164921838114476e-17  3.950472065820695e-01
-9.682017982076239e-01  3.950472065820695e-01  7.489598256174843e-18

 2.005935759516219e-17 -3.904185897421031e-18 -9.563487906513966e-01
-3.904185897421031e-18  1.212664264014650e-17  4.239825793594331e-01
-9.563487906513966e-01  4.239825793594331e-01  6.392829733813328e-18

 9.742241571604147e-18  8.653016518983647e-20 -9.745470009524663e-01
 8.653016518983647e-20  1.162304529003677e-17  3.968880896692906e-01
-9.745470009524663e-01  3.968880896692906e-01  7.847267204365957e-18

 1.079642296030310e-17 -2.608719208403978e-19 -9.783864964154838e-01
-2.608719208403978e-19  1.283617582923018e-17  3.846538294887861e-01
-9.783864964154838e-01  3.846538294887861e-01  8.181269181688630e-18

 9.789549768718651e-18 -8.606575504970425e-21 -9.643437345035181e-01
-8.606575504970425e-21  1.231713975325481e-17  4.000627384712502e-01
-9.643437345035181e-01  4.000627384712502e-01  7.099386584682488e-18

 9.986161806748939e-18 -6.680485596072323e-20 -9.655510422841870e-01
-6.680485596072323e-20  1.170406269723724e-17  4.032971432425642e-01
-9.655510422841870e-01  4.032971432425642e-01  7.189652321729423e-18

 9.964733116489258e-18 -8.376184206232560e-20 -9.622080312717793e-01
-8.376184206232560e-20  1.161538228294937e-17  4.054564392667812e-01
-9.622080312717793e-01  4.054564392667812e-01  6.938880660848752e-18

 1.000905681185948e-17 -4.836435943154705e-20 -9.669022267305332e-01
-4.836435943154705e-20  1.211309666287050e-17  3.959939367031903e-01
-9.669022267305332e-01  3.959939367031903e-01  7.384323101157541e-18

 9.714743445028916e-18 -6.364768333211097e-20 -9.534120305670676e-01
-6.364768333211097e-20  1.098325697219217e-17  4.160586476618566e-01
-9.534120305670676e-01  4.160586476618566e-01  6.344158821169429e-18

 9.846495460470133e-18 -6.028714184183718e-20 -9.590296428310111e-01
-6.028714184183718e-20  1.121722958692734e-17  4.129626663563872e-01
-9.590296428310111e-01  4.129626663563872e-01  6.751021266597447e-18

 9.765475723247534e-18 -6.706219408434664e-20 -9.544410438875789e-01
-6.706219408434664e-20  1.202688430074402e-17  4.014300501805846e-01
-9.544410438875789e-01  4.014300501805846e-01  6.585202369215048e-18

 1.007926991664257e-17 -6.789801908536479e-20 -9.663713557080226e-01
-6.789801908536479e-20  1.284712954467304e-17  3.823542475528047e-01
-9.663713557080226e-01  3.823542475528047e-01  7.599021217116438e-18

 9.560892815312369e-18 -6.912610278166721e-20 -9.461380253834936e-01
-6.912610278166721e-20  1.189729586645450e-17  4.071393364818430e-01
-9.461380253834936e-01  4.071393364818430e-01  5.942964499199051e-18

 9.893973207967806e-18 -7.053779073048318e-20 -9.605417622243924e-01
-7.053779073048318e-20  1.216297657888789e-17  4.066404883750073e-01
-9.605417622243924e-01  4.066404883750073e-01  6.733983357128825e-18

 1.005297549655621e-17 -9.248228953800938e-20 -9.685559710919449e-01
-9.248228953800938e-20  1.158415643557421e-17  4.139199683854148e-01
-9.685559710919449e-01  4.139199683854148e-01  7.051313624977514e-18

 1.036555914967012e-17 -8.187769655809405e-20 -9.825479496706843e-01
-8.187769655809405e-20  1.255569981681100e-17  4.047384078321705e-01
-9.825479496706843e-01  4.047384078321705e-01  7.815129467658451e-18

 1.044133956889221e-17 -7.936271943579835e-20 -9.870737484511067e-01
-7.936271943579835e-20  1.278467787669075e-17  4.051294700456171e-01
-9.870737484511067e-01  4.051294700456171e-01  8.002827447436065e-18

 1.032499953593411e-17 -8.290676262907607e-20 -9.829731923705649e-01
-8.290676262907607e-20  1.212876385193428e-17  4.195381576459676e-01
-9.829731923705649e-01  4.195381576459676e-01  7.511823260632355e-18

 1.026165408642452e-17 -7.299939532892294e-20 -9.799128533992684e-01
-7.299939532892294e-20  1.262376418865489e-17  4.125146537711349e-01
-9.799128533992684e-01  4.125146537711349e-01  7.318079282497340e-18

 1.012922681040336e-17 -3.042936425791059e-20 -9.762981324745084e-01
-3.042936425791059e-20  1.337746836845793e-17  3.957982219787912e-01
-9.762981324745084e-01  3.957982219787912e-01  6.988319947488028e-18

 1.110932948479531e-17  3.660885489267224e-20 -1.019233886615439e+00
 3.660885489267224e-20  1.467879349468909e-17  3.669164579166606e-01
-1.019233886615439e+00  3.669164579166606e-01  9.683356157522781e-18

 1.109374406040706e-17 -1.254047467251636e-19 -1.020488310052632e+00
-1.254047467251636e-19  1.282988140057851e-17  4.279359867455014e-01
-1.020488310052632e+00  4.279359867455014e-01  9.141328527480543e-18

 1.143564761429508e-17 -6.559780721628877e-20 -1.036938464355191e+00
-6.559780721628877e-20  1.313267565219491e-17  4.107691445164599e-01
-1.036938464355191e+00  4.107691445164599e-01  1.004892009240246e-17

 1.062326118565989e-17 -6.372791107687336e-20 -1.000975871487054e+00
-6.372791107687336e-20  1.295563531518009e-17  4.116908102872106e-01
-1.000975871487054e+00  4.116908102872106e-01  7.863365678969558e-18

 1.028220153753502e-17 -6.297336731310923e-20 -9.855496536335614e-01
-6.297336731310923e-20  1.240361373216969e-17  4.199006640647521e-01
-9.855496536335614e-01  4.199006640647521e-01  6.874273883368615e-18

 1.095940008112862e-17 -4.117475840977668e-20 -1.013071615016752e+00
-4.117475840977668e-20  1.434159943555907e-17  3.835577657673672e-01
-1.013071615016752e+00  3.835577657673672e-01  8.989701905155930e-18

 1.096513506907779e-17 -3.903045148471890e-20 -1.012683850146800e+00
-3.903045148471890e-20  1.317885198610636e-17  3.977970883513615e-01
-1.012683850146800e+00  3.977970883513615e-01  8.766768179643769e-18

 1.081038528079220e-17 -7.694397002194278e-20 -1.008110146243958e+00
-7.694397002194278e-20  1.193231643204103e-17  4.413174932587839e-01
-1.008110146243958e+00  4.413174932587839e-01  8.081104618819090e-18

 1.088792276550649e-17 -5.342115341483106e-20 -1.010562161846848e+00
-5.342115341483106e-20  1.236826052759642e-17  4.297776841848782e-01
-1.010562161846848e+00  4.297776841848782e-01  8.289991283386194e-18

 1.092992556732483e-17 -7.044921291917320e-20 -1.010816321414592e+00
-7.044921291917320e-20  1.308180615658469e-17  4.046096165489600e-01
-1.010816321414592e+00  4.046096165489600e-01  8.662166634652662e-18

 1.055656701289204e-17 -5.680041053912658e-20 -9.947571273889602e-01
-5.680041053912658e-20  1.295254311685670e-17  4.108839776275445e-01
-9.947571273889602e-01  4.108839776275445e-01  7.569865680517365e-18

 1.030325606481866e-17 -5.506496953166870e-20 -9.847394320172043e-01
-5.506496953166870e-20  1.237023537290141e-17  4.322867222348783e-01
-9.847394320172043e-01  4.322867222348783e-01  6.739959459088585e-18

 1.091195390424508e-17 -4.890976732998008e-20 -1.009958715230149e+00
-4.890976732998008e-20  1.324372183602986e-17  4.129305975298517e-01
-1.009958715230149e+00  4.129305975298517e-01  8.446585480166696e-18

 1.043769845867774e-17 -5.035021876615035e-20 -9.923244298579089e-01
-5.035021876615035e-20  1.238117167174185e-17  4.317810742177099e-01
-9.923244298579089e-01  4.317810742177099e-01  7.005671354399342e-18

 1.045605553235572e-17 -2.329405866776506e-20 -9.952404255691233e-01
-2.329405866776506e-20  1.289694238837158e-17  4.233780480349009e-01
-9.952404255691233e-01  4.233780480349009e-01  7.027562586826920e-18

 1.093932606806661e-17 -3.141524066501831e-20 -1.018412638893529e+00
-3.141524066501831e-20  1.323350893270217e-17  4.164672490381031e-01
-1.018412638893529e+00  4.164672490381031e-01  8.282161304262289e-18

 1.099760472447308e-17 -2.904506548158511e-20 -1.028320954388438e+00
-2.904506548158511e-20  1.330252901129761e-17  4.276488302984615e-01
-1.028320954388438e+00  4.276488302984615e-01  8.070661162255028e-18

 1.231942354838051e-17  3.998793758043518e-20 -1.096983576624865e+00
 3.998793758043518e-20  1.534746851858003e-17  3.952957632178136e-01
-1.096983576624865e+00  3.952957632178136e-01  1.134424320576745e-17

 1.508088867378777e-17  5.343595300433612e-20 -1.225499436143870e+00
 5.343595300433612e-20  1.587064901913836e-17  4.362546888701268e-01
-1.225499436143870e+00  4.362546888701268e-01  1.834907645219370e-17

 1.401737047404843e-17 -4.476577314665960e-19 -1.152761319030885e+00
-4.476577314665960e-19  1.868256986051341e-17  3.328978260548895e-01
-1.152761319030885e+00  3.328978260548895e-01  1.615552043783668e-17

 1.441421038216187e-17 -6.427729663087551e-19 -1.155234864886247e+00
-6.427729663087551e-19  2.244071580207890e-17  2.361332039986553e-01
-1.155234864886247e+00  2.361332039986553e-01  1.791293343899965e-17

 9.811360500134905e-18 -3.879987492505691e-19 -9.750148026104166e-01
-3.879987492505691e-19  1.542967062421991e-17  3.961005216763596e-01
-9.750148026104166e-01  3.961005216763596e-01  4.318275169849237e-18

 1.137720450863501e-17 -9.718935172107116e-20 -1.045005751306756e+00
-9.718935172107116e-20  1.292714460435076e-17  4.579078468207000e-01
-1.045005751306756e+00  4.579078468207000e-01  8.634564085825662e-18

 1.118413735168666e-17  2.002056458814180e-19 -1.037016567124075e+00
 2.002056458814180e-19  1.146133324915226e-17  4.734845889762427e-01
-1.037016567124075e+00  4.734845889762427e-01  8.167858331956874e-18

 1.008364441741799e-17 -2.320266532321412e-19 -9.689638420780404e-01
-2.320266532321412e-19  1.353306881192951e-17  4.063410898315316e-01
-9.689638420780404e-01  4.063410898315316e-01  5.880658489174837e-18

 9.918585779378602e-18 -3.704124901829513e-20 -9.623291716196383e-01
-3.704124901829513e-20  1.228859356143936e-17  4.292814814908276e-01
-9.623291716196383e-01  4.292814814908276e-01  5.469990847321675e-18

 1.035011820382132e-17 -5.253900667977343e-20 -9.781502213747649e-01
-5.253900667977343e-20  1.189464279471771e-17  4.392564657106712e-01
-9.781502213747649e-01  4.392564657106712e-01  6.589188988851188e-18

 1.038571428775773e-17 -5.733608338333537e-20 -9.772416189660499e-01
-5.733608338333537e-20  1.144612373385019e-17  4.490420554592484e-01
-9.772416189660499e-01  4.490420554592484e-01  6.583119064817440e-18

 1.051733464077140e-17 -4.731321008214993e-20 -9.787365730170258e-01
-4.731321008214993e-20  1.230053776328467e-17  4.269712733948209e-01
-9.787365730170258e-01  4.269712733948209e-01  7.185644243512064e-18

 1.050019134726192e-17 -4.159312531197232e-20 -9.739283843440968e-01
-4.159312531197232e-20  1.270130263106364e-17  4.127245157489829e-01
-9.739283843440968e-01  4.127245157489829e-01  7.260294719227840e-18

 1.049762216912635e-17 -2.250041450333111e-20 -9.729394072454182e-01
-2.250041450333111e-20  1.287033942982537e-17  4.062818323589590e-01
-9.729394072454182e-01  4.062818323589590e-01  7.301922102818167e-18

 1.043924291921444e-17  1.070579736727866e-20 -9.710691050875006e-01
 1.070579736727866e-20  1.255999306842125e-17  4.207749835287316e-01
-9.710691050875006e-01  4.207749835287316e-01  6.909387956501234e-18

 1.069042949890464e-17  2.201076143916571e-20 -9.872576264673993e-01
 2.201076143916571e-20  1.259283535473485e-17  4.191115550466815e-01
-9.872576264673993e-01  4.191115550466815e-01  7.329378905013355e-18

 1.077947012488369e-17 -2.127584474506472e-22 -1.001786525532726e+00
-2.127584474506472e-22  1.272939688354831e-17  4.218696360636669e-01
-1.001786525532726e+00  4.218696360636669e-01  7.326982181552323e-18

 1.134157926560858e-17 -1.300453180130825e-20 -1.035672914110229e+00
-1.300453180130825e-20  1.396590853898871e-17  4.044486384786771e-01
-1.035672914110229e+00  4.044486384786771e-01  8.773650930557233e-18

 1.165261714189476e-17 -1.490721822020214e-19 -1.053504198581025e+00
-1.490721822020214e-19  1.326058930097101e-17  4.436901706372284e-01
-1.053504198581025e+00  4.436901706372284e-01  9.269965155053029e-18

 1.231463935321771e-17 -1.534487343574558e-19 -1.082075122827385e+00
-1.534487343574558e-19  1.398599598756862e-17  4.317581249793581e-01
-1.082075122827385e+00  4.317581249793581e-01  1.114589202733413e-17

 1.194755236281157e-17 -8.077489292201389e-20 -1.065495304571550e+00
-8.077489292201389e-20  1.267065735248827e-17  4.581442807869691e-01
-1.065495304571550e+00  4.581442807869691e-01  1.010607033529838e-17

 1.019596693251650e-17 -2.055597481638769e-19 -9.760958935869829e-01
-2.055597481638769e-19  1.340298160521572e-17  4.227394202575687e-01
-9.760958935869829e-01  4.227394202575687e-01  5.943115775550079e-18

 9.625594442432468e-18 -9.475117237314621e-20 -9.485553280741966e-01
-9.475117237314621e-20  1.312189946435076e-17  4.147660441168110e-01
-9.485553280741966e-01  4.147660441168110e-01  4.541210119039696e-18

 1.103418589448542e-17 -2.465525507455854e-19 -1.005052607792181e+00
-2.465525507455854e-19  1.243348598880418e-17  4.462732034119690e-01
-1.005052607792181e+00  4.462732034119690e-01  8.159923533225342e-18

 1.175809760912482e-17 -2.271896069713770e-19 -1.036808164472408e+00
-2.271896069713770e-19  1.297937165187620e-17  4.402204337540742e-01
-1.036808164472408e+00  4.402204337540742e-01  1.009344707681394e-17

 1.128976188891336e-17 -1.565493788948163e-19 -1.017746089637143e+00
-1.565493788948163e-19  1.314721846098884e-17  4.328100757845790e-01
-1.017746089637143e+00  4.328100757845790e-01  8.752568098013021e-18

 1.132887544680434e-17 -1.259032560385247e-19 -1.017034342263631e+00
-1.259032560385247e-19  1.432799977856367e-17  4.011608363383634e-01
-1.017034342263631e+00  4.011608363383634e-01  9.093995917614396e-18

 1.112716815239289e-17 -1.315387881822092e-19 -1.004155884553693e+00
-1.315387881822092e-19  1.351833446472893e-17  4.149202192245016e-01
-1.004155884553693e+00  4.149202192245016e-01  8.555065754004598e-18

 1.074211471178597e-17 -1.253623482240410e-19 -9.819294026349937e-01
-1.253623482240410e-19  1.331160841741564e-17  4.098309271908049e-01
-9.819294026349937e-01  4.098309271908049e-01  7.684941882601984e-18

 1.075051652806038e-17 -1.029264129410460e-19 -9.772466290293396e-01
-1.029264129410460e-19  1.282151532599485e-17  4.211122414203984e-01
-9.772466290293396e-01  4.211122414203984e-01  7.720990087583000e-18

 1.028907762115529e-17 -2.339582687456827e-20 -9.534054582377427e-01
-2.339582687456827e-20  1.428293833501252e-17  3.756677740578408e-01
-9.534054582377427e-01  3.756677740578408e-01  6.830729683434605e-18

 1.273525787916032e-17  9.004537046508363e-20 -1.054695849631145e+00
 9.004537046508363e-20  1.639040569050733e-17  3.169870069839859e-01
-1.054695849631145e+00  3.169870069839859e-01  1.393170160993770e-17

 9.415605531838986e-18 -1.688396569675592e-19 -9.156698235020232e-01
-1.688396569675592e-19  9.372296700785991e-18  5.044666145467702e-01
-9.156698235020232e-01  5.044666145467702e-01  3.518251478016393e-18

 9.910597514319527e-18 -1.556941653119604e-20 -9.377010890452175e-01
-1.556941653119604e-20  1.061065187197025e-17  4.696350492547836e-01
-9.377010890452175e-01  4.696350492547836e-01  4.994104707988616e-18

 1.117837758386899e-17 -9.028002447987652e-20 -9.850297091678478e-01
-9.028002447987652e-20  1.584163464674975e-17  3.400520852688333e-01
-9.850297091678478e-01  3.400520852688333e-01  9.445355120498088e-18

 1.045305632071886e-17  6.011042820521776e-21 -9.588345085678841e-01
 6.011042820521776e-21  1.393040763306916e-17  3.847017909034113e-01
-9.588345085678841e-01  3.847017909034113e-01  7.038246919264183e-18

 1.112606912210932e-17 -2.321638875097347e-20 -9.898472617204158e-01
-2.321638875097347e-20  1.307000596977749e-17  4.108327870216714e-01
-9.898472617204158e-01  4.108327870216714e-01  8.564533453410324e-18

 1.131582095156472e-17  2.002256522075339e-20 -1.001514922848643e+00
 2.002256522075339e-20  1.377455432026850e-17  3.969713064680709e-01
-1.001514922848643e+00  3.969713064680709e-01  9.012345949722456e-18

 1.095971381074259e-17  1.900011831362285e-20 -9.882495102982649e-01
 1.900011831362285e-20  1.359041548037775e-17  3.989690505360431e-01
-9.882495102982649e-01  3.989690505360431e-01  8.019878549235993e-18

 1.075319860332716e-17  1.828931738777211e-20 -9.815004751164643e-01
 1.828931738777211e-20  1.326820184608829e-17  4.069392511147197e-01
-9.815004751164643e-01  4.069392511147197e-01  7.373630123632951e-18

 1.091811238213837e-17  1.336382418707134e-20 -9.882432257015310e-01
 1.336382418707134e-20  1.367795221298668e-17  3.997938500122539e-01
-9.882432257015310e-01  3.997938500122539e-01  7.803000804967725e-18

 1.075223041551253e-17  9.446825313254474e-20 -1.008849498890485e+00
 9.446825313254474e-20  1.214696162457279e-17  4.545484195811257e-01
-1.008849498890485e+00  4.545484195811257e-01  7.601142985132156e-18

 1.012905403628846e-17  1.061724574991402e-19 -9.848696627189568e-01
 1.061724574991402e-19  1.293711008993098e-17  4.443823779227370e-01
-9.848696627189568e-01  4.443823779227370e-01  5.986409126710216e-18

 1.102574730023848e-17  1.406898927336122e-19 -1.016995505220015e+00
 1.406898927336122e-19  1.337379330921395e-17  4.206454505118106e-01
-1.016995505220015e+00  4.206454505118106e-01  8.598314349381652e-18

 1.053978963845428e-17  1.440583823723284e-19 -9.935785297323851e-01
 1.440583823723284e-19  1.221886326837215e-17  4.484004022219765e-01
-9.935785297323851e-01  4.484004022219765e-01  7.027496604970041e-18

 1.096465284947432e-17  1.586826755414230e-19 -1.007596415252968e+00
 1.586826755414230e-19  1.347988056619656e-17  4.225875371265840e-01
-1.007596415252968e+00  4.225875371265840e-01  8.515952340613200e-18

 1.086279162973759e-17  1.476080420588913e-19 -9.990240705012866e-01
 1.476080420588913e-19  1.308900765623316e-17  4.224558404421475e-01
-9.990240705012866e-01  4.224558404421475e-01  8.341988993890567e-18

 1.098378194818280e-17  1.238021652586406e-19 -1.002375933891792e+00
 1.238021652586406e-19  1.331133142181429e-17  4.228796204810057e-01
-1.002375933891792e+00  4.228796204810057e-01  8.687571060716778e-18

 1.084453065583596e-17  8.628294775489596e-20 -9.974128882046984e-01
 8.628294775489596e-20  1.292991763933449e-17  4.352141479852417e-01
-9.974128882046984e-01  4.352141479852417e-01  8.342544081057088e-18

 1.078721041016938e-17  5.367296426024057e-20 -9.968771185469228e-01
 5.367296426024057e-20  1.298163093263318e-17  4.340854158684979e-01
-9.968771185469228e-01  4.340854158684979e-01  8.234506027921133e-18

 1.061473616456875e-17  1.660810934330939e-20 -9.941947574001063e-01
 1.660810934330939e-20  1.368246787654546e-17  4.324352761070183e-01
-9.941947574001063e-01  4.324352761070183e-01  7.750599651559683e-18

 1.102215872225387e-17 -1.546428807592132e-20 -1.018455344054537e+00
-1.546428807592132e-20  1.348685806393555e-17  4.321634299833669e-01
-1.018455344054537e+00  4.321634299833669e-01  8.710315490910409e-18

 1.144443596606321e-17 -3.835895891448595e-20 -1.041765098117124e+00
-3.835895891448595e-20  1.316365357900214e-17  4.485940403717079e-01
-1.041765098117124e+00  4.485940403717079e-01  9.603046550434802e-18

 1.135245928470527e-17 -5.815076630761908e-20 -1.040921242777289e+00
-5.815076630761908e-20  1.342851928895354e-17  4.522218767312446e-01
-1.040921242777289e+00  4.522218767312446e-01  9.296101201618012e-18

 1.095433631954456e-17  1.325012314392254e-20 -1.025942906058123e+00
 1.325012314392254e-20  1.371605333717550e-17  4.296907935461926e-01
-1.025942906058123e+00  4.296907935461926e-01  8.354418203579927e-18

 1.096870676178404e-17 -4.798225262072715e-21 -1.027572875111328e+00
-4.798225262072715e-21  1.354874384306761e-17  4.387507572721547e-01
-1.027572875111328e+00  4.387507572721547e-01  8.319947660834275e-18

 1.084875019602767e-17 -1.878253684790927e-20 -1.024546809486207e+00
-1.878253684790927e-20  1.253621939082245e-17  4.675013537654519e-01
-1.024546809486207e+00  4.675013537654519e-01  7.740267291602014e-18

 1.105515793259310e-17  1.088968159115487e-20 -1.032722899401617e+00
 1.088968159115487e-20  1.310545497441329e-17  4.507429525368759e-01
-1.032722899401617e+00  4.507429525368759e-01  8.378269526378587e-18

 1.132922013971326e-17  2.659731490249015e-20 -1.044943934643212e+00
 2.659731490249015e-20  1.382346844986406e-17  4.305447800856361e-01
-1.044943934643212e+00  4.305447800856361e-01  9.265697947050847e-18

 1.109767874276661e-17  2.780383950902236e-20 -1.035704275491821e+00
 2.780383950902236e-20  1.322945702295049e-17  4.421434614489561e-01
-1.035704275491821e+00  4.421434614489561e-01  8.509651980783623e-18

 1.124282224878448e-17  4.391070855743219e-20 -1.041655710136924e+00
 4.391070855743219e-20  1.324544597453240e-17  4.454513933399852e-01
-1.041655710136924e+00  4.454513933399852e-01  8.858524146873558e-18

 1.140693347693937e-17  5.312774742251790e-20 -1.046720959606241e+00
 5.312774742251790e-20  1.312603565223496e-17  4.470939652386068e-01
-1.046720959606241e+00  4.470939652386068e-01  9.302736133830453e-18

 1.080149574978950e-17  3.570797902654937e-20 -1.018764594861145e+00
 3.570797902654937e-20  1.169632524387877e-17  4.715021930082328e-01
-1.018764594861145e+00  4.715021930082328e-01  7.535441634188528e-18

 1.044880798471820e-17  1.195573371180926e-19 -1.000615831969591e+00
 1.195573371180926e-19  1.296393157895543e-17  4.375937472321441e-01
-1.000615831969591e+00  4.375937472321441e-01  6.959254010552123e-18

 1.021798347827574e-17  9.312110821882506e-20 -9.879405473079550e-01
 9.312110821882506e-20  1.290105926182830e-17  4.370937894066149e-01
-9.879405473079550e-01  4.370937894066149e-01  6.400732740007849e-18

 1.112432840711886e-17  1.151596854645424e-19 -1.028024092757758e+00
 1.151596854645424e-19  1.285553377107585e-17  4.404036717341114e-01
-1.028024092757758e+00  4.404036717341114e-01  8.793246503376314e-18

 1.096723905533836e-17  1.369590991987094e-19 -1.024486471241817e+00
 1.369590991987094e-19  1.193125541787229e-17  4.668882426370789e-01
-1.024486471241817e+00  4.668882426370789e-01  8.108660841695755e-18

 1.129637910605480e-17  1.160809684222293e-19 -1.037637244970335e+00
 1.160809684222293e-19  1.305812372746217e-17  4.360884146988112e-01
-1.037637244970335e+00  4.360884146988112e-01  9.222373146117906e-18

 1.123548121151734e-17  1.230468302496756e-19 -1.034589913229055e+00
 1.230468302496756e-19  1.376014260878908e-17  4.215881809517426e-01
-1.034589913229055e+00  4.215881809517426e-01  9.156866948907656e-18

 1.084567961828661e-17  1.024120073698123e-19 -1.018125083821821e+00
 1.024120073698123e-19  1.328916037849148e-17  4.285026703162416e-01
-1.018125083821821e+00  4.285026703162416e-01  8.044567157874687e-18

 1.042761421026599e-17  1.508397879160248e-19 -1.005305920349108e+00
 1.508397879160248e-19  1.145036668375568e-17  4.841756283583390e-01
-1.005305920349108e+00  4.841756283583390e-01  6.398223277970762e-18

 1.061542440271131e-17  1.346514219735064e-19 -1.014137157330037e+00
 1.346514219735064e-19  1.154332573594917e-17  4.782737692118966e-01
-1.014137157330037e+00  4.782737692118966e-01  6.989630520095715e-18

 1.136422473609743e-17  1.492215327253946e-19 -1.043774734963452e+00
 1.492215327253946e-19  1.372543682585046e-17  4.168934431070036e-01
-1.043774734963452e+00  4.168934431070036e-01  9.520542196043662e-18

 1.118371696139925e-17  1.310316819297387e-19 -1.036407096728631e+00
 1.310316819297387e-19  1.333771356835864e-17  4.276380315781427e-01
-1.036407096728631e+00  4.276380315781427e-01  8.969837386296396e-18

 1.108392929553299e-17  1.386861955626098e-19 -1.033231901043393e+00
 1.386861955626098e-19  1.280770702039099e-17  4.476062531333729e-01
-1.033231901043393e+00  4.476062531333729e-01  8.561220656776617e-18

 1.062223598022677e-17  1.321400512450832e-19 -1.014059404886428e+00
 1.321400512450832e-19  1.227660190813725e-17  4.621943018765011e-01
-1.014059404886428e+00  4.621943018765011e-01  7.166689727628719e-18

 1.232642325513812e-17  1.497658828437684e-19 -1.082023282152599e+00
 1.497658828437684e-19  1.607223369911504e-17  3.648485986118259e-01
-1.082023282152599e+00  3.648485986118259e-01  1.259504188048798e-17

 1.162232664406662e-17  1.361847262688434e-19 -1.053367997060922e+00
 1.361847262688434e-19  1.474287476921757e-17  4.009328099476261e-01
-1.053367997060922e+00  4.009328099476261e-01  1.043463055681258e-17

 1.050972014123038e-17  1.781327324991709e-19 -1.010715440604741e+00
 1.781327324991709e-19  1.176723707130091e-17  4.702131127536460e-01
-1.010715440604741e+00  4.702131127536460e-01  6.835630372709242e-18

 1.117740624249788e-17  1.560701787067829e-19 -1.037050975033530e+00
 1.560701787067829e-19  1.307683498178784e-17  4.445675333885424e-01
-1.037050975033530e+00  4.445675333885424e-01  8.902074668000990e-18

 1.127011270950179e-17  1.555389904602966e-19 -1.039598867897468e+00
 1.555389904602966e-19  1.386662742527252e-17  4.195340041819389e-01
-1.039598867897468e+00  4.195340041819389e-01  9.377901001213674e-18

 1.096068247144949e-17  1.522094951888105e-19 -1.026245866346213e+00
 1.522094951888105e-19  1.326473470701160e-17  4.340262839665546e-01
-1.026245866346213e+00  4.340262839665546e-01  8.482740448293127e-18

 1.101817732682015e-17  1.482477701568283e-19 -1.028195818400647e+00
 1.482477701568283e-19  1.327503082990961e-17  4.320738983982392e-01
-1.028195818400647e+00  4.320738983982392e-01  8.670353107784171e-18

 1.108813135529873e-17  1.463334451980006e-19 -1.031984013194790e+00
 1.463334451980006e-19  1.312223506783186e-17  4.370218097423189e-01
-1.031984013194790e+00  4.370218097423189e-01  8.891844454004440e-18

 1.086018277860950e-17  1.393818952082296e-19 -1.022416943406527e+00
 1.393818952082296e-19  1.378098506293804e-17  4.204973525425391e-01
-1.022416943406527e+00  4.204973525425391e-01  8.447310632484420e-18

 1.104295546075351e-17  1.240747429517589e-19 -1.030675216948894e+00
 1.240747429517589e-19  1.387029790280957e-17  4.138723334204870e-01
-1.030675216948894e+00  4.138723334204870e-01  8.988123707705526e-18

 1.105628357723718e-17  1.637252525272698e-19 -1.035167507392030e+00
 1.637252525272698e-19  1.303413884893448e-17  4.454347260436295e-01
-1.035167507392030e+00  4.454347260436295e-01  8.749648648453047e-18

 1.085458772076855e-17  1.557580441122048e-19 -1.028093205278823e+00
 1.557580441122048e-19  1.214371915854073e-17  4.601884190643477e-01
-1.028093205278823e+00  4.601884190643477e-01  7.998765924268987e-18

 1.136754996589274e-17  1.449020361775304e-19 -1.048609550144420e+00
 1.449020361775304e-19  1.334855641605673e-17  4.386349457053196e-01
-1.048609550144420e+00  4.386349457053196e-01  9.619549377987930e-18

 1.174868827840034e-17  1.462911293656152e-19 -1.064118645390881e+00
 1.462911293656152e-19  1.396292965476499e-17  4.222750802706679e-01
-1.064118645390881e+00  4.222750802706679e-01  1.076210985754973e-17

 1.133564471627769e-17  1.418163376350522e-19 -1.047253441482098e+00
 1.418163376350522e-19  1.335710145077463e-17  4.288617888981472e-01
-1.047253441482098e+00  4.288617888981472e-01  9.582661920527543e-18

 1.126087168639999e-17  1.388371524006541e-19 -1.044305702976410e+00
 1.388371524006541e-19  1.369797185848827e-17  4.276800133567455e-01
-1.044305702976410e+00  4.276800133567455e-01  9.479934264043127e-18

 1.101174403389081e-17  1.357160992746027e-19 -1.033700198688854e+00
 1.357160992746027e-19  1.294496935219537e-17  4.343877568680736e-01
-1.033700198688854e+00  4.343877568680736e-01  8.795945918972260e-18

 1.097011550411646e-17  1.370216656938794e-19 -1.031163125273001e+00
 1.370216656938794e-19  1.349210438865925e-17  4.278774828894015e-01
-1.031163125273001e+00  4.278774828894015e-01  8.802555060309278e-18

 1.086463818753611e-17  1.358286110042889e-19 -1.026480572464512e+00
 1.358286110042889e-19  1.332902544376108e-17  4.309638729897886e-01
-1.026480572464512e+00  4.309638729897886e-01  8.528807868419717e-18

 1.086540917693309e-17  1.396307059340364e-19 -1.027242454203780e+00
 1.396307059340364e-19  1.304353163256974e-17  4.306692201728946e-01
-1.027242454203780e+00  4.306692201728946e-01  8.583848975963074e-18

 1.094182496372980e-17  1.431758244657169e-19 -1.030930709250910e+00
 1.431758244657169e-19  1.308490644839611e-17  4.265823380229847e-01
-1.030930709250910e+00  4.265823380229847e-01  8.818196728492591e-18

 1.092586120742368e-17  1.497972547828681e-19 -1.030670521606447e+00
 1.497972547828681e-19  1.325680383966922e-17  4.256168788740620e-01
-1.030670521606447e+00  4.256168788740620e-01  8.807447164279040e-18

 1.106683521437503e-17  1.511014809344800e-19 -1.036025172518522e+00
 1.511014809344800e-19  1.370534921113443e-17  4.172598969493650e-01
-1.036025172518522e+00  4.172598969493650e-01  9.167933074634825e-18

 1.154358531159289e-17  1.454888864494203e-19 -1.056172680364084e+00
 1.454888864494203e-19  1.445781896621701e-17  3.977862248553877e-01
-1.056172680364084e+00  3.977862248553877e-01  1.067625794824413e-17

 1.122719587663500e-17  1.483153512681142e-19 -1.043274715677806e+00
 1.483153512681142e-19  1.364942053838535e-17  4.141181623776002e-01
-1.043274715677806e+00  4.141181623776002e-01  9.652088984782407e-18

 1.204479531373023e-17  1.484508222177399e-19 -1.077319872112450e+00
 1.484508222177399e-19  1.440640104593459e-17  3.982406927721311e-01
-1.077319872112450e+00  3.982406927721311e-01  1.204257624816086e-17

 1.110249047287321e-17  1.537128282217762e-19 -1.039709891434171e+00
 1.537128282217762e-19  1.215168716294869e-17  4.535740690296134e-01
-1.039709891434171e+00  4.535740690296134e-01  9.065109577433345e-18

 1.016927894447611e-17  1.026638153024414e-19 -1.000261711365464e+00
 1.026638153024414e-19  1.067441893989808e-17  4.943400804975651e-01
-1.000261711365464e+00  4.943400804975651e-01  6.201542424331488e-18

 1.259537902380292e-17  1.725461672279902e-19 -1.095602620258956e+00
 1.725461672279902e-19  1.585423697305414e-17  3.517575935526379e-01
-1.095602620258956e+00  3.517575935526379e-01  1.405001016882895e-17

 1.083162511770881e-17 -3.009161849344837e-21 -1.016951415455590e+00
-3.009161849344837e-21  1.147365506901811e-17  4.616058559438913e-01
-1.016951415455590e+00  4.616058559438913e-01  8.661131580024573e-18

 9.595295759180614e-18 -2.534677582991517e-19 -9.543944260385155e-01
-2.534677582991517e-19  8.797835879069063e-18  5.206993035331332e-01
-9.543944260385155e-01  5.206993035331332e-01  5.490932053875733e-18

 7.816458873872627e-18  4.809839965625262e-19 -8.818348445568933e-01
 4.809839965625262e-19  1.300871178500473e-17  3.562845022764689e-01
-8.818348445568933e-01  3.562845022764689e-01  1.612030136120786e-18

 8.497434842324333e-18 -5.004609922089455e-19 -8.877269893323183e-01
-5.004609922089455e-19  1.393281518610166e-17  3.742172777360149e-01
-8.877269893323183e-01  3.742172777360149e-01  3.323601470079590e-18

 1.213399057801602e-17  7.237061945337824e-19 -1.078336768035764e+00
 7.237061945337824e-19  1.167640899973822e-17  4.196974610355104e-01
-1.078336768035764e+00  4.196974610355104e-01  1.295051367445468e-17

 1.150288527178031e-17 -4.995674573273063e-19 -1.030170699505393e+00
-4.995674573273063e-19  7.131145167210668e-18  5.988246882220730e-01
-1.030170699505393e+00  5.988246882220730e-01  1.088795314780882e-17

 8.134973460967523e-18  8.504681474740132e-19 -8.934163095178145e-01
 8.504681474740132e-19  1.358661374296543e-17  3.152553046444362e-01
-8.934163095178145e-01  3.152553046444362e-01  2.391580617680882e-18

 9.496602112097085e-18 -7.424914489483984e-19 -9.053973240486460e-01
-7.424914489483984e-19  1.833122636127299e-17  2.613428269190397e-01
-9.053973240486460e-01  2.613428269190397e-01  6.382973189065626e-18

 6.978333587619951e-18  1.644459366251429e-18 -8.698965150056510e-01
 1.644459366251429e-18  5.388227826426855e-18  5.126703290623291e-01
-8.698965150056510e-01  5.126703290623291e-01  7.052527738872337e-20

 1.141118442558647e-17  3.897943671539884e-19 -1.028628205846476e+00
 3.897943671539884e-19  1.182985153986061e-17  4.168283030525839e-01
-1.028628205846476e+00  4.168283030525839e-01  1.155880753798995e-17

 1.115942989179990e-17  1.426046905513903e-19 -1.015956519862496e+00
 1.426046905513903e-19  1.432152780446558e-17  3.606646189086627e-01
-1.015956519862496e+00  3.606646189086627e-01  1.119058933691983e-17

 1.029328480422530e-17  6.899612883120963e-20 -9.836957188984662e-01
 6.899612883120963e-20  1.322142750785816e-17  4.016924491159315e-01
-9.836957188984662e-01  4.016924491159315e-01  8.618530874540398e-18

 1.034094147896571e-17  2.669917208846041e-20 -9.908787282769208e-01
 2.669917208846041e-20  1.319941323774878e-17  4.081646490537091e-01
-9.908787282769208e-01  4.081646490537091e-01  8.719807026309736e-18

 1.025386013317676e-17 -2.457236110597459e-22 -9.943180158945075e-01
-2.457236110597459e-22  1.268816305261163e-17  4.178577451599270e-01
-9.943180158945075e-01  4.178577451599270e-01  8.453639395672257e-18

 1.014105428695610e-17  5.467669410983695e-21 -9.943721526520003e-01
 5.467669410983695e-21  1.260942931352490e-17  4.143373213574812e-01
-9.943721526520003e-01  4.143373213574812e-01  8.148566641769902e-18

 1.009137400039116e-17 -3.486012332363626e-22 -9.973277353412240e-01
-3.486012332363626e-22  1.216148547991905e-17  4.224078120574185e-01
-9.973277353412240e-01  4.224078120574185e-01  7.953523458533168e-18

 1.009725644224133e-17  1.222343086873586e-20 -1.002209686274996e+00
 1.222343086873586e-20  1.151889652325251e-17  4.386210476480880e-01
-1.002209686274996e+00  4.386210476480880e-01  7.828740352424369e-18

 1.004539844776256e-17  3.905223587086906e-20 -1.001130632506586e+00
 3.905223587086906e-20  1.222543965231454e-17  4.184216675750728e-01
-1.001130632506586e+00  4.184216675750728e-01  7.856276375995161e-18

 1.004782396468255e-17  6.442368669034093e-20 -1.002006956305832e+00
 6.442368669034093e-20  1.220765000714733e-17  4.144910641503797e-01
-1.002006956305832e+00  4.144910641503797e-01  7.925780950746443e-18

 9.999300539867729e-18  6.068423308001747e-20 -1.001585410970862e+00
 6.068423308001747e-20  1.172077391602126e-17  4.354754051517200e-01
-1.001585410970862e+00  4.354754051517200e-01  7.642610814871932e-18

 1.020708411792074e-17  8.003098070186618e-20 -1.010435218295707e+00
 8.003098070186618e-20  1.184466715745798e-17  4.268226975744486e-01
-1.010435218295707e+00  4.268226975744486e-01  8.337536744919917e-18

 1.011803924510181e-17  7.514180949502729e-20 -1.006818282564107e+00
 7.514180949502729e-20  1.215190593232395e-17  4.223479056028516e-01
-1.006818282564107e+00  4.223479056028516e-01  8.173271867096652e-18

 1.008286792313436e-17  6.880963968894317e-20 -1.008217786789604e+00
 6.880963968894317e-20  1.199674153226204e-17  4.267759640234604e-01
-1.008217786789604e+00  4.267759640234604e-01  8.166545685132805e-18

 1.004295894881723e-17  7.721307842033820e-20 -1.009839304305423e+00
 7.721307842033820e-20  1.170839150781663e-17  4.267514411495107e-01
-1.009839304305423e+00  4.267514411495107e-01  8.128676639863498e-18

 1.012129459002623e-17  8.213060244865850e-20 -1.014986902916267e+00
 8.213060244865850e-20  1.176862178138811e-17  4.198420893902661e-01
-1.014986902916267e+00  4.198420893902661e-01  8.422827901294750e-18

 1.026751106719046e-17  6.050356347805263e-20 -1.023080819382248e+00
 6.050356347805263e-20  1.230224124819719e-17  4.255699766005724e-01
-1.023080819382248e+00  4.255699766005724e-01  8.817297360512702e-18

 9.548587696851425e-18  7.680037850262348e-20 -9.951983276971154e-01
 7.680037850262348e-20  1.036044120871410e-17  4.647344236227087e-01
-9.951983276971154e-01  4.647344236227087e-01  6.552209988833329e-18

 9.348532238074519e-18  7.586873437219396e-20 -9.866929254665475e-01
 7.586873437219396e-20  1.042719674514157e-17  4.628259687011390e-01
-9.866929254665475e-01  4.628259687011390e-01  6.068110571144290e-18

 1.033513994486791e-17  9.834683337685734e-20 -1.027398470667113e+00
 9.834683337685734e-20  1.281902468029258e-17  4.048943187584794e-01
-1.027398470667113e+00  4.048943187584794e-01  9.277405755410327e-18

 9.883904907020696e-18  8.723839108046040e-20 -1.009429513085358e+00
 8.723839108046040e-20  1.227400199141968e-17  4.167745266389221e-01
-1.009429513085358e+00  4.167745266389221e-01  8.007050078453397e-18

 9.703674801924969e-18  1.062686417163503e-19 -1.003999128096272e+00
 1.062686417163503e-19  1.108631330466158e-17  4.360266544250297e-01
-1.003999128096272e+00  4.360266544250297e-01  7.410115144896659e-18

 9.958332566082253e-18  1.043790524574316e-19 -1.016693659720107e+00
 1.043790524574316e-19  1.165153207049065e-17  4.277178047583594e-01
-1.016693659720107e+00  4.277178047583594e-01  8.222727474022943e-18

 1.017524032558097e-17  8.563792823048662e-20 -1.028498595294023e+00
 8.563792823048662e-20  1.244205404290082e-17  4.184909826752653e-01
-1.028498595294023e+00  4.184909826752653e-01  8.844006922792625e-18

 1.092354596122470e-17  9.495254101945927e-20 -1.065958801227676e+00
 9.495254101945927e-20  1.231760826636799e-17  4.260401296555743e-01
-1.065958801227676e+00  4.260401296555743e-01  1.087448464496289e-17

 1.040965660338016e-17  7.830716890543913e-20 -1.044797149170486e+00
 7.830716890543913e-20  1.157166763244695e-17  4.278505515527064e-01
-1.044797149170486e+00  4.278505515527064e-01  9.617348453119493e-18

 1.197894494402013e-17  1.676915777981581e-19 -1.107133042143911e+00
 1.676915777981581e-19  1.459773853711476e-17  3.333337132631295e-01
-1.107133042143911e+00  3.333337132631295e-01  1.473173928089507e-17

 8.739078310317055e-18  6.126645675640043e-20 -9.743451321785757e-01
 6.126645675640043e-20  9.725701998626844e-18  4.760470785301159e-01
-9.743451321785757e-01  4.760470785301159e-01  4.862595323397541e-18

 8.186389402170011e-18  3.628622214387776e-20 -9.504586996104958e-01
 3.628622214387776e-20  8.855173862201219e-18  5.018004693627780e-01
-9.504586996104958e-01  5.018004693627780e-01  3.246172234527175e-18

 9.648955596845565e-18  1.058337456044602e-19 -1.010346621650753e+00
 1.058337456044602e-19  1.259306604990096e-17  3.966741468073739e-01
-1.010346621650753e+00  3.966741468073739e-01  8.256597592194797e-18

 9.817333541559230e-18  9.140955329322561e-20 -1.018516489541007e+00
 9.140955329322561e-20  1.114593152124321e-17  4.168339701978860e-01
-1.018516489541007e+00  4.168339701978860e-01  8.689390115653954e-18

 9.480620649017807e-18  6.712445401201622e-20 -1.008680073206245e+00
 6.712445401201622e-20  9.645821531060807e-18  4.775068178011327e-01
-1.008680073206245e+00  4.775068178011327e-01  7.375817914308030e-18

 9.781845226337994e-18  1.405426278591396e-20 -1.020569685516827e+00
 1.405426278591396e-20  1.052445679434690e-17  4.533215635759421e-01
-1.020569685516827e+00  4.533215635759421e-01  8.470049951966863e-18

 9.359220958485521e-18  8.753095249483147e-20 -1.003718933755541e+00
 8.753095249483147e-20  1.074876337877102e-17  4.258377814776183e-01
-1.003718933755541e+00  4.258377814776183e-01  7.729383543056313e-18

 8.619399467428338e-18  8.092889554917503e-20 -9.733591305126413e-01
 8.092889554917503e-20  1.018731970466931e-17  4.273797251644984e-01
-9.733591305126413e-01  4.273797251644984e-01  5.855934419360920e-18

 9.153281969651878e-18  3.530935337218628e-20 -1.003287032147316e+00
 3.530935337218628e-20  1.098872752931336e-17  4.360508228031308e-01
-1.003287032147316e+00  4.360508228031308e-01  7.267035609452742e-18

 1.024303364607554e-17  5.027323816878583e-20 -1.059411088042792e+00
 5.027323816878583e-20  1.226091778540133e-17  4.255115657614547e-01
-1.059411088042792e+00  4.255115657614547e-01  1.025839395450151e-17

 9.918920064054378e-18  4.924210639102479e-20 -1.050214312032624e+00
 4.924210639102479e-20  1.138949835300270e-17  4.309178369822955e-01
-1.050214312032624e+00  4.309178369822955e-01  9.627545713599692e-18

 9.339082889629120e-18  6.710573345332644e-20 -1.028595821336693e+00
 6.710573345332644e-20  1.118545806790954e-17  4.268151207450558e-01
-1.028595821336693e+00  4.268151207450558e-01  8.352433756459610e-18

 9.193580816567357e-18  3.629379779202886e-20 -1.024422449276487e+00
 3.629379779202886e-20  1.177708636600927e-17  4.206068965625536e-01
-1.024422449276487e+00  4.206068965625536e-01  8.138560674772124e-18

 9.028663879740503e-18  5.468155428340493e-20 -1.022302660495328e+00
 5.468155428340493e-20  1.052168593512352e-17  4.380179099111978e-01
-1.022302660495328e+00  4.380179099111978e-01  7.678987977729284e-18

 9.784574431622038e-18  2.215254295061368e-20 -1.057752422478787e+00
 2.215254295061368e-20  1.184603596516576e-17  4.078244621385814e-01
-1.057752422478787e+00  4.078244621385814e-01  9.923424964350344e-18

 1.063799417671578e-17 -9.770988578358857e-21 -1.100874571273140e+00
-9.770988578358857e-21  9.810408872731288e-18  4.712225086351596e-01
-1.100874571273140e+00  4.712225086351596e-01  1.200409401810433e-17

 8.301373427211970e-18 -7.806815544301519e-19 -9.866337145047481e-01
-7.806815544301519e-19  6.299472704282582e-18  5.840867825214966e-01
-9.866337145047481e-01  5.840867825214966e-01  5.918346487166780e-18

 6.237252023903731e-18 -6.628800407980898e-19 -8.826120738420877e-01
-6.628800407980898e-19  1.441115682663949e-17  3.210020226779129e-01
-8.826120738420877e-01  3.210020226779129e-01  1.506852853272428e-19

 1.321193304301205e-17 -1.839217715805068e-18 -1.149247060238347e+00
-1.839217715805068e-18  1.728171115651407e-17  3.113586323315694e-01
-1.149247060238347e+00  3.113586323315694e-01  1.734430578268330e-17

 4.018874317659341e-18  2.770491343240422e-18 -9.200609033425314e-01
 2.770491343240422e-18 -1.695750357544451e-18  6.796418054730545e-01
-9.200609033425314e-01  6.796418054730545e-01 -9.379122856713231e-19

 1.145770439535023e-17  3.839959398775177e-19 -1.160478597697469e+00
 3.839959398775177e-19  8.126130183426785e-18  5.089137415111579e-01
-1.160478597697469e+00  5.089137415111579e-01  1.558779687395358e-17

 8.524322781325946e-18  4.512761049914807e-19 -1.025193328576778e+00
 4.512761049914807e-19  1.189003640341346e-17  3.683937459666251e-01
-1.025193328576778e+00  3.683937459666251e-01  7.712040797232919e-18

 8.006813261595449e-18  7.780039033791462e-20 -9.950143062030227e-01
 7.780039033791462e-20  9.676541224968247e-18  4.274389564340048e-01
-9.950143062030227e-01  4.274389564340048e-01  6.707304767054946e-18

 7.945149848979634e-18  6.428957990629070e-20 -9.937956770774964e-01
 6.428957990629070e-20  8.963444709611841e-18  4.381878404189922e-01
-9.937956770774964e-01  4.381878404189922e-01  6.783536248059992e-18

 8.162768022012986e-18  6.827426747458046e-20 -1.005227671480100e+00
 6.827426747458046e-20  9.554803128788486e-18  4.196770491702772e-01
-1.005227671480100e+00  4.196770491702772e-01  7.717142809202594e-18

 8.069486396192544e-18  6.861019873603255e-20 -1.005497246862434e+00
 6.861019873603255e-20  8.991980163922398e-18  4.312641264960518e-01
-1.005497246862434e+00  4.312641264960518e-01  7.629329486955838e-18

 7.975178821414370e-18  6.531491811596843e-20 -1.006417316531896e+00
 6.531491811596843e-20  9.135040123022596e-18  4.249636481536792e-01
-1.006417316531896e+00  4.249636481536792e-01  7.697738036437052e-18

 7.922428826110539e-18  6.800071183657266e-20 -1.009645488931672e+00
 6.800071183657266e-20  8.858535698076465e-18  4.261358096974991e-01
-1.009645488931672e+00  4.261358096974991e-01  7.845479087367270e-18

 7.427695230637485e-18  7.878311680633209e-20 -9.954232368687708e-01
 7.878311680633209e-20  8.305732243782211e-18  4.289998416383652e-01
-9.954232368687708e-01  4.289998416383652e-01  6.936343622483933e-18

 7.077161724562392e-18  1.012562005781553e-19 -9.891721502517234e-01
 1.012562005781553e-19  7.247180519707287e-18  4.502447391915124e-01
-9.891721502517234e-01  4.502447391915124e-01  6.359984125456923e-18

 6.547422574210349e-18  1.140668490122264e-19 -9.722659916602511e-01
 1.140668490122264e-19  6.650307867388458e-18  4.604596706663826e-01
-9.722659916602511e-01  4.604596706663826e-01  5.112470146811179e-18

 5.542474114362004e-18  5.759341114551290e-20 -9.378254060382879e-01
 5.759341114551290e-20  7.439385711908076e-18  4.339716551805862e-01
-9.378254060382879e-01  4.339716551805862e-01  3.028871423534626e-18

 8.867797759726275e-18 -9.623439509144598e-19 -1.071128238780851e+00
-9.623439509144598e-19  1.299577207157095e-17  3.495224657681281e-01
-1.071128238780851e+00  3.495224657681281e-01  1.200276296560300e-17

 1.002333852165662e-17  7.435776874828187e-19 -1.191290768334640e+00
 7.435776874828187e-19  6.001723895077900e-18  5.138860098917897e-01
-1.191290768334640e+00  5.138860098917897e-01  1.549702036008105e-17

 8.147188067759864e-18 -1.069379466149206e-18 -1.079151922127880e+00
-1.069379466149206e-18  4.192566488959794e-18  6.236419268225781e-01
-1.079151922127880e+00  6.236419268225781e-01  1.119669746441756e-17

 1.523684892324551e-17  2.139913004841199e-18 -1.419397144228121e+00
 2.139913004841199e-18  2.077795704214414e-17  2.874389982205537e-02
-1.419397144228121e+00  2.874389982205537e-02  3.023732187400504e-17

 7.502705364156324e-18  1.101104025845594e-18 -1.067258715982611e+00
 1.101104025845594e-18  1.310853469221897e-17  2.412392626458966e-01
-1.067258715982611e+00  2.412392626458966e-01  9.488998445084255e-18

 8.569532533315956e-18 -3.627550884006443e-19 -9.565144446126772e-01
-3.627550884006443e-19  5.901251329922406e-18  4.526059027492130e-01
-9.565144446126772e-01  4.526059027492130e-01  3.574312894964244e-18

 9.178950497128947e-18 -4.387724359461200e-19 -9.877123621865190e-01
-4.387724359461200e-19  6.268018429477491e-18  4.394278930783670e-01
-9.877123621865190e-01  4.394278930783670e-01  5.942494137456041e-18

-7.017798865446661e-17  1.125438974770785e-17 -9.903108113967030e-01
 1.125438974770785e-17  4.680959849883453e-18  4.262796234561820e-01
-9.903108113967030e-01  4.262796234561820e-01  6.101697383296084e-18

 4.102816721228414e-17 -5.135639754694401e-18 -1.008308473053930e+00
-5.135639754694401e-18  7.165285967457692e-18  4.204116250642352e-01
-1.008308473053930e+00  4.204116250642352e-01  7.069792630204406e-18

 1.704216720610201e-18  6.571727226042596e-19 -1.016306977737356e+00
 6.571727226042596e-19  5.768018707541362e-18  4.322973314440285e-01
-1.016306977737356e+00  4.322973314440285e-01  7.224899060133847e-18

 5.877530947445994e-18  2.552436210004103e-20 -1.022931327062567e+00
 2.552436210004103e-20  5.971480028547222e-18  4.232177157011760e-01
-1.022931327062567e+00  4.232177157011760e-01  7.588761305902431e-18

 4.683431641469555e-18  1.675600815715527e-19 -1.025844184662104e+00
 1.675600815715527e-19  6.013116627277348e-18  4.182998122966274e-01
-1.025844184662104e+00  4.182998122966274e-01  7.688888134309745e-18

 4.712804267378613e-18  9.737312329339522e-20 -1.024285506428904e+00
 9.737312329339522e-20  5.567337392442381e-18  4.209569574141213e-01
-1.024285506428904e+00  4.209569574141213e-01  7.392568392149198e-18

 4.189216408105527e-18  1.084256053610979e-19 -1.024066342515777e+00
 1.084256053610979e-19  5.054212718967894e-18  4.201782862185947e-01
-1.024066342515777e+00  4.201782862185947e-01  7.233409618245542e-18

 3.726327293613347e-18  1.129111920467242e-19 -1.022443965646797e+00
 1.129111920467242e-19  4.439359600772563e-18  4.255958066913316e-01
-1.022443965646797e+00  4.255958066913316e-01  6.950489657595421e-18

 2.783214703491502e-18  1.247392942415158e-19 -1.007587635908151e+00
 1.247392942415158e-19  4.177677522294437e-18  4.168730214150516e-01
-1.007587635908151e+00  4.168730214150516e-01  5.945644525473060e-18

 2.814659595792620e-18  9.960261255692429e-20 -1.033745995203212e+00
 9.960261255692429e-20  4.544751679422758e-18  3.977511670973252e-01
-1.033745995203212e+00  3.977511670973252e-01  7.521718048695143e-18

 3.099775609287584e-18  1.267981964778833e-19 -1.070662335954878e+00
 1.267981964778833e-19  3.099132275868167e-18  4.277719337246662e-01
-1.070662335954878e+00  4.277719337246662e-01  9.227040193210413e-18

 2.025616107738415e-18 -2.407523026488420e-19 -1.042253082949621e+00
-2.407523026488420e-19  3.607802052016989e-19  4.947051553062749e-01
-1.042253082949621e+00  4.947051553062749e-01  7.698470916192104e-18

-5.830078473106271e-19  4.037746782183638e-19 -9.617123860088161e-01
 4.037746782183638e-19  1.693758526042092e-18  3.978476643070871e-01
-9.617123860088161e-01  3.978476643070871e-01  2.773426440358633e-18

-2.648960954512014e-18 -2.980953248672272e-21 -9.071379949056997e-01
-2.980953248672272e-21  4.619852809754086e-19  4.211773055920348e-01
-9.071379949056997e-01  4.211773055920348e-01 -4.987680425417190e-19

-2.255628878460886e-18  5.806077793452281e-19 -9.846565449188580e-01
 5.806077793452281e-19 -3.560935662330034e-18  5.072421441346552e-01
-9.846565449188580e-01  5.072421441346552e-01  1.515037503777089e-18

-2.041880070496315e-19  2.326862383194672e-19 -1.099083565283159e+00
 2.326862383194672e-19 -7.442419573134829e-19  4.425347736719369e-01
-1.099083565283159e+00  4.425347736719369e-01  9.272044386515614e-18

-1.838891574440928e-18  2.221720439216542e-19 -1.066873998191428e+00
 2.221720439216542e-19  1.264067873795151e-19  3.951790285091074e-01
-1.066873998191428e+00  3.951790285091074e-01  7.426242986931305e-18

-3.504399773181956e-18  2.588196417286513e-19 -1.032515091075223e+00
 2.588196417286513e-19 -1.169963218105006e-18  4.044619522926252e-01
-1.032515091075223e+00  4.044619522926252e-01  5.142199592371493e-18

-5.038428130272771e-18  2.780799142614036e-19 -1.018256781773388e+00
 2.780799142614036e-19 -2.892894636419153e-18  4.205940554191337e-01
-1.018256781773388e+00  4.205940554191337e-01  3.963414482331744e-18

-6.415481267386111e-18  3.051030118249849e-19 -1.013387196102545e+00
 3.051030118249849e-19 -4.388565406154605e-18  4.307122800663297e-01
-1.013387196102545e+00  4.307122800663297e-01  3.278100350027409e-18

-7.760078268452826e-18  3.634256610895891e-19 -1.014567780673911e+00
 3.634256610895891e-19 -5.024895528015310e-18  4.191459605503952e-01
-1.014567780673911e+00  4.191459605503952e-01  3.093311041548698e-18

-9.458505635619208e-18  3.973752473451092e-19 -9.974124476318523e-01
 3.973752473451092e-19 -6.784150329906730e-18  4.377791243426436e-01
-9.974124476318523e-01  4.377791243426436e-01  1.395589802301095e-18

-1.039158890980008e-17  4.356543179989102e-19 -1.004813609402730e+00
 4.356543179989102e-19 -7.095077501213483e-18  4.246067617705017e-01
-1.004813609402730e+00  4.246067617705017e-01  1.645758432554704e-18

-1.233210279580443e-17  4.679413269184801e-19 -1.011861025198311e+00
 4.679413269184801e-19 -9.085592953771331e-18  4.395292390914539e-01
-1.011861025198311e+00  4.395292390914539e-01  1.306983743685513e-18

-1.456603027442844e-17  5.844768382908927e-19 -1.008052996780713e+00
 5.844768382908927e-19 -1.005755969810366e-17  4.235389103869642e-01
-1.008052996780713e+00  4.235389103869642e-01  4.410150599670487e-19

-1.676387730953780e-17  6.801308168415029e-19 -1.007000730634086e+00
 6.801308168415029e-19 -1.066006905862304e-17  4.013872656110330e-01
-1.007000730634086e+00  4.013872656110330e-01 -1.505120570120547e-19

-1.956062688307715e-17  6.859259259146164e-19 -1.010444812975577e+00
 6.859259259146164e-19 -1.377834081698620e-17  4.414516814742266e-01
-1.010444812975577e+00  4.414516814742266e-01 -1.361465189832245e-18

-2.298446249990811e-17  7.460376689759477e-19 -1.016154371718464e+00
 7.460376689759477e-19 -1.558329118855791e-17  4.335818132484463e-01
-1.016154371718464e+00  4.335818132484463e-01 -2.162245372349813e-18

-2.498649422323473e-17  8.424971477887248e-19 -1.035832795915893e+00
 8.424971477887248e-19 -1.575378340570155e-17  4.013945576039111e-01
-1.035832795915893e+00  4.013945576039111e-01 -1.403083277453693e-18

-2.823106326996458e-17  8.606607382688182e-19 -1.026032115956082e+00
 8.606607382688182e-19 -1.801252248556361e-17  4.177037893734686e-01
-1.026032115956082e+00  4.177037893734686e-01 -3.220985973371143e-18

-3.456331678013388e-17  9.526375784609080e-19 -1.014846918366479e+00
 9.526375784609080e-19 -2.141534679403762e-17  4.253275838441786e-01
-1.014846918366479e+00  4.253275838441786e-01 -5.997530682572061e-18

-4.194050897120121e-17  9.980301893324713e-19 -1.012589023325086e+00
 9.980301893324713e-19 -2.473168379651780e-17  4.226623612687013e-01
-1.012589023325086e+00  4.226623612687013e-01 -8.525600768607205e-18

-5.293600951399536e-17  9.202977646096793e-19 -1.013255847651716e+00
 9.202977646096793e-19 -2.932777157903596e-17  4.253508903323012e-01
-1.013255847651716e+00  4.253508903323012e-01 -1.214300235192845e-17

-6.250226760113688e-17  8.020279046708652e-19 -9.944545575140840e-01
 8.020279046708652e-19 -3.299413149751484e-17  4.287656021272918e-01
-9.944545575140840e-01  4.287656021272918e-01 -1.646269873922511e-17

-6.906897506171735e-17  6.154318437814877e-19 -1.006960339592035e+00
 6.154318437814877e-19 -3.434286800895708e-17  4.096112124452176e-01
-1.006960339592035e+00  4.096112124452176e-01 -1.777338630702036e-17

-8.134617251736811e-17 -7.453805710298024e-20 -1.026205477650618e+00
-7.453805710298024e-20 -3.901403791403920e-17  4.378021240146127e-01
-1.026205477650618e+00  4.378021240146127e-01 -2.110970346615861e-17

-9.707359154997691e-17 -9.180844197414510e-19 -1.012297213294851e+00
-9.180844197414510e-19 -4.251578769986906e-17  4.324280314547345e-01
-1.012297213294851e+00  4.324280314547345e-01 -2.702684928614405e-17

-1.074585744088997e-16 -4.262175457989746e-18 -9.886420152597807e-01
-4.262175457989746e-18 -3.045532067757867e-17  4.095275263582883e-01
-9.886420152597807e-01  4.095275263582883e-01 -4.003421823134130e-17

-1.638406856340337e-16 -8.245125699328147e-18 -1.007115434667021e+00
-8.245125699328147e-18 -5.069134542964750e-17  4.113090482425264e-01
-1.007115434667021e+00  4.113090482425264e-01 -4.934055303311834e-17

-2.028322751282482e-16 -1.483439234124027e-17 -9.799212303693583e-01
-1.483439234124027e-17 -5.388925206847506e-17  4.649045012554563e-01
-9.799212303693583e-01  4.649045012554563e-01 -6.412060693116371e-17

-2.672915661469895e-16 -2.932645410019357e-17 -8.440631201473580e-01
-2.932645410019357e-17 -5.186150566448609e-17  4.500010936697023e-01
-8.440631201473580e-01  4.500010936697023e-01 -9.454580301019211e-17

-3.537205247847757e-16 -7.634580120407692e-17 -8.424583345213441e-01
-7.634580120407692e-17 -2.410776190682396e-17  4.075208018389239e-01
-8.424583345213441e-01  4.075208018389239e-01 -1.355591017534184e-16

-4.533918704576280e-16 -8.505961700772913e-17 -1.025448342850470e+00
-8.505961700772913e-17 -1.842131437670678e-17  4.267477896189285e-01
-1.025448342850470e+00  4.267477896189285e-01 -1.530309117496202e-16

-5.290088252056839e-16 -9.541385043858888e-17 -1.165478222111291e+00
-9.541385043858888e-17  3.349299702302842e-17  4.830523300491573e-01
-1.165478222111291e+00  4.830523300491573e-01 -1.819617825274270e-16

-7.117298962771847e-16 -1.900854860440360e-16 -1.189280053087627e+00
-1.900854860440360e-16  7.707931276930126e-17  4.339156197228007e-01
-1.189280053087627e+00  4.339156197228007e-01 -2.392093669521841e-16

-9.179129307665640e-16 -3.545675679193877e-16 -1.034999335903247e+00
-3.545675679193877e-16  1.403487414353027e-16  3.542027830891833e-01
-1.034999335903247e+00  3.542027830891833e-01 -3.432674214895120e-16

-1.126433875194783e-15 -5.976736966375699e-16 -9.586224779775161e-01
-5.976736966375699e-16  2.748878073385243e-16  3.633956945159763e-01
-9.586224779775161e-01  3.633956945159763e-01 -4.822951445146398e-16

-1.572391089889532e-15 -1.076575493159360e-15 -9.504369836057287e-01
-1.076575493159360e-15  3.693963576027679e-16  4.231750362086287e-01
-9.504369836057287e-01  4.231750362086287e-01 -7.028935663438085e-16

-1.980992551344904e-15 -1.637384853981505e-15 -9.738518567798675e-01
-1.637384853981505e-15  5.511551871559276e-16  4.433529666708592e-01
-9.738518567798675e-01  4.433529666708592e-01 -9.541209278774025e-16

-2.637485494283931e-15 -2.812615752299685e-15 -1.013640482775525e+00
-2.812615752299685e-15  7.694620127274914e-16  4.325411405488838e-01
-1.013640482775525e+00  4.325411405488838e-01 -1.454813842397848e-15

-4.215365485082429e-15 -6.457296059228179e-15 -1.003824703191068e+00
-6.457296059228179e-15  2.041635226082851e-16  4.181391779995882e-01
-1.003824703191068e+00  4.181391779995882e-01 -3.181635779240942e-15

-8.400424021525820e-15 -1.133226650141549e-14 -9.969601718444255e-01
-1.133226650141549e-14 -2.560977372766860e-15  4.149870061900576e-01
-9.969601718444255e-01  4.149870061900576e-01 -7.138888041717861e-15

-1.055987209759174e-14 -8.144187704685896e-15 -1.009847918235014e+00
-8.144187704685896e-15  5.482152502700243e-15  4.224058089410730e-01
-1.009847918235014e+00  4.224058089410730e-01 -1.277454967024336e-14

 1.195219985367070e-13  3.237195008124169e-14 -1.002616741372531e+00
 3.237195008124169e-14  7.080256025252840e-14  4.372502905572003e-01
-1.002616741372531e+00  4.372502905572003e-01  2.733614047082903e-14

-6.166507271004478e-13 -1.402710081764697e-13 -1.005988071802713e+00
-1.402710081764697e-13 -3.138962020993313e-13  4.256938599285210e-01
-1.005988071802713e+00  4.256938599285210e-01 -1.517574914029195e-13

-1.258699534177807e-14  1.399360722591437e-14 -1.032565845241243e+00
 1.399360722591437e-14  9.941766064045265e-15  4.226189859782380e-01
-1.032565845241243e+00  4.226189859782380e-01 -1.114573197759658e-14

-6.504637544237665e-13 -1.429793076782365e-13 -1.007300234551535e+00
-1.429793076782365e-13 -3.278171588296126e-13  4.046862918784661e-01
-1.007300234551535e+00  4.046862918784661e-01 -1.715324824024219e-13

-1.536512111648410e-14  7.702404411647987e-16 -1.029602647237480e+00
 7.702404411647987e-16 -6.328548375190913e-15  4.661342298872103e-01
-1.029602647237480e+00  4.661342298872103e-01 -6.739685124317291e-15

-9.311636771992965e-15 -6.004524645462877e-16 -1.056241690819671e+00
-6.004524645462877e-16 -3.290790080682051e-15  3.601159404904954e-01
-1.056241690819671e+00  3.601159404904954e-01 -3.672776613912616e-15

-6.798053066421617e-15 -9.957644130421711e-16 -1.035705488245635e+00
-9.957644130421711e-16 -2.566729056914730e-15  3.686717198582687e-01
-1.035705488245635e+00  3.686717198582687e-01 -2.448781739218668e-15

-4.216484056306893e-15 -1.087955851094719e-15 -1.004453028144561e+00
-1.087955851094719e-15 -2.181122344050115e-15  4.564998425596115e-01
-1.004453028144561e+00  4.564998425596115e-01 -1.346947100818463e-15

-2.923321666510806e-15 -9.958903457705193e-16 -1.017986298091627e+00
-9.958903457705193e-16 -1.751685097940094e-15  4.237573416778083e-01
-1.017986298091627e+00  4.237573416778083e-01 -8.815325942189877e-16

-2.219021835237468e-15 -8.776290673384800e-16 -1.019862143890677e+00
-8.776290673384800e-16 -1.523016742924248e-15  4.131337682063442e-01
-1.019862143890677e+00  4.131337682063442e-01 -6.743111777981743e-16

-1.366214929201686e-15 -6.405514063260818e-16 -1.021841112377387e+00
-6.405514063260818e-16 -1.198767526716918e-15  4.366518572631745e-01
-1.021841112377387e+00  4.366518572631745e-01 -3.877929641675491e-16

-8.448738906501610e-16 -4.366787664042018e-16 -1.024788057163872e+00
-4.366787664042018e-16 -8.949518913840237e-16  4.392924258681378e-01
-1.024788057163872e+00  4.392924258681378e-01 -2.375418488777535e-16

-5.922694669718643e-16 -3.218151496152371e-16 -1.021830856250427e+00
-3.218151496152371e-16 -7.077142960711355e-16  4.331809183486232e-01
-1.021830856250427e+00  4.331809183486232e-01 -1.669686964414877e-16

-4.089820395975494e-16 -2.259326341439944e-16 -1.031785844215573e+00
-2.259326341439944e-16 -5.508547992962023e-16  4.483379198855517e-01
-1.031785844215573e+00  4.483379198855517e-01 -1.153330441681109e-16

-3.129799432437843e-16 -1.734075347937127e-16 -1.029977933105088e+00
-1.734075347937127e-16 -4.495504428189645e-16  4.447685476411645e-01
-1.029977933105088e+00  4.447685476411645e-01 -8.826670550450791e-17

-2.646235122502890e-16 -1.468822104157032e-16 -1.028963487542964e+00
-1.468822104157032e-16 -3.926406505922658e-16  4.321337409125316e-01
-1.028963487542964e+00  4.321337409125316e-01 -7.440596403615316e-17

-2.272446366681018e-16 -1.252958033316444e-16 -1.030025247583793e+00
-1.252958033316444e-16 -3.486795995617687e-16  4.292764503147876e-01
-1.030025247583793e+00  4.292764503147876e-01 -6.359775353931418e-17

-1.884849917164741e-16 -1.017339324029840e-16 -1.036358020115537e+00
-1.017339324029840e-16 -3.044341565115076e-16  4.533707870531609e-01
-1.036358020115537e+00  4.533707870531609e-01 -5.248568895623261e-17

-1.559932315899604e-16 -8.225896235394844e-17 -1.037298693362315e+00
-8.225896235394844e-17 -2.630573337738067e-16  4.637289446040998e-01
-1.037298693362315e+00  4.637289446040998e-01 -4.315530971766266e-17

-1.323996475214096e-16 -6.947644510210491e-17 -1.042450740221255e+00
-6.947644510210491e-17 -2.269361460130979e-16  4.277379224239148e-01
-1.042450740221255e+00  4.277379224239148e-01 -3.547468821813659e-17

-1.117190872527389e-16 -5.763281793886182e-17 -1.050497162494343e+00
-5.763281793886182e-17 -1.964824469093657e-16  4.146836013413545e-01
-1.050497162494343e+00  4.146836013413545e-01 -2.869427557742223e-17

-9.382613826988878e-17 -4.573001815175681e-17 -1.062953776003297e+00
-4.573001815175681e-17 -1.751858398800298e-16  4.744506555092317e-01
-1.062953776003297e+00  4.744506555092317e-01 -2.369114140939136e-17

-8.099906721085954e-17 -3.830650089427102e-17 -1.060851090623251e+00
-3.830650089427102e-17 -1.561808479880361e-16  4.973230946195990e-01
-1.060851090623251e+00  4.973230946195990e-01 -2.003373973561615e-17

-7.010272574171626e-17 -3.443759315022341e-17 -1.094779770629194e+00
-3.443759315022341e-17 -1.322502818176012e-16  3.837893262785872e-01
-1.094779770629194e+00  3.837893262785872e-01 -1.353090423206599e-17

-6.252350274792914e-17 -3.009812970034010e-17 -1.063780669553305e+00
-3.009812970034010e-17 -1.194850200939053e-16  4.151907681500226e-01
-1.063780669553305e+00  4.151907681500226e-01 -1.313532944395351e-17

-5.389040891877453e-17 -2.445940538070380e-17 -1.057322592780186e+00
-2.445940538070380e-17 -1.087150544497344e-16  5.009764599277684e-01
-1.057322592780186e+00  5.009764599277684e-01 -1.200246719723165e-17

-4.658560041178557e-17 -2.140519684613557e-17 -1.082338963475521e+00
-2.140519684613557e-17 -9.478917321784541e-17  4.726710132390066e-01
-1.082338963475521e+00  4.726710132390066e-01 -8.129718693053147e-18

-3.831413186751348e-17 -1.776952516076433e-17 -1.090400611738470e+00
-1.776952516076433e-17 -7.941282494589854e-17  4.828437674446355e-01
-1.090400611738470e+00  4.828437674446355e-01 -5.645694587085380e-18

-3.047317028450529e-17 -1.409292459938848e-17 -1.072618925059380e+00
-1.409292459938848e-17 -6.325353826666711e-17  4.967413027483670e-01
-1.072618925059380e+00  4.967413027483670e-01 -5.425156863744484e-18

-2.359160827782895e-17 -1.118048935366203e-17 -1.131880269559176e+00
-1.118048935366203e-17 -5.261350844255391e-17  5.378383671151384e-01
-1.131880269559176e+00  5.378383671151384e-01 -1.964567871746899e-18

-2.749343104511437e-17 -9.097542857879225e-18 -8.880279849944790e-01
-9.097542857879225e-18 -5.874575414202477e-17  8.224524838236349e-01
-8.880279849944790e-01  8.224524838236349e-01 -2.108175532252674e-17

-1.357822632888145e-17 -1.078637197988768e-17 -1.346750488615382e+00
-1.078637197988768e-17 -3.413106918331932e-17  3.514838100084868e-01
-1.346750488615382e+00  3.514838100084868e-01  1.385835939220782e-17

-1.185004840341544e-17 -6.886532135283419e-18 -1.398077054529838e+00
-6.886532135283419e-18 -3.682141165522669e-17  4.976180940867961e-01
-1.398077054529838e+00  4.976180940867961e-01  1.442324594573416e-17

-2.246403182720894e-17 -2.785742452628706e-18 -9.983149240463804e-01
-2.785742452628706e-18 -5.453955875129240e-17  1.004712460089121e+00
-9.983149240463804e-01  1.004712460089121e+00 -1.279149411501866e-17

-7.885934628780293e-18 -5.488385214566615e-18 -1.454727317657018e+00
-5.488385214566615e-18 -3.337058057531384e-17  5.751529893011840e-01
-1.454727317657018e+00  5.751529893011840e-01  1.859329292763718e-17

-9.611548893701149e-18 -5.271209568272444e-18 -1.272548826228975e+00
-5.271209568272444e-18 -2.619764254788291e-17  3.681206629605611e-01
-1.272548826228975e+00  3.681206629605611e-01  8.524721929098227e-18

-1.039820150341470e-17 -5.517001054482767e-18 -1.127690151262668e+00
-5.517001054482767e-18 -2.533491176293789e-17  4.386480141789385e-01
-1.127690151262668e+00  4.386480141789385e-01  2.522168499514393e-18

-9.758159682785769e-18 -5.221514601201722e-18 -1.092170396858056e+00
-5.221514601201722e-18 -2.562340991938140e-17  5.116787584263217e-01
-1.092170396858056e+00  5.116787584263217e-01  1.107263620188478e-18

-7.665840621175099e-18 -4.828910930548388e-18 -1.115908281165725e+00
-4.828910930548388e-18 -2.311079421353039e-17  5.014595795133945e-01
-1.115908281165725e+00  5.014595795133945e-01  3.936712002278763e-18

-6.083280423446903e-18 -4.231644462071912e-18 -1.091334291940637e+00
-4.231644462071912e-18 -1.874024720725487e-17  4.633156203043827e-01
-1.091334291940637e+00  4.633156203043827e-01  4.151582328038546e-18

-4.839344735634017e-18 -3.739180917602336e-18 -1.077452742113032e+00
-3.739180917602336e-18 -1.625326113347333e-17  4.615460132838829e-01
-1.077452742113032e+00  4.615460132838829e-01  4.292330688280262e-18

-4.863606152808453e-18 -3.410271961044999e-18 -1.047846527048006e+00
-3.410271961044999e-18 -1.692417978115793e-17  5.055099550964727e-01
-1.047846527048006e+00  5.055099550964727e-01  2.297828326113657e-18

-2.932136424666052e-18 -3.245887675881462e-18 -1.097704303241746e+00
-3.245887675881462e-18 -1.403724876610288e-17  4.565237561889187e-01
-1.097704303241746e+00  4.565237561889187e-01  6.565038703697747e-18

-2.342287425072719e-18 -2.955670866854392e-18 -1.077437232770466e+00
-2.955670866854392e-18 -1.274071349710192e-17  4.592826866822370e-01
-1.077437232770466e+00  4.592826866822370e-01  5.992642717254403e-18

-1.786139580097498e-18 -2.749292272792731e-18 -1.064040865825701e+00
-2.749292272792731e-18 -1.098023056271758e-17  4.491406825942614e-01
-1.064040865825701e+00  4.491406825942614e-01  5.880449037070113e-18

-1.397587347330006e-18 -2.553445259693542e-18 -1.043372786966215e+00
-2.553445259693542e-18 -9.649285117897310e-18  4.421621097953838e-01
-1.043372786966215e+00  4.421621097953838e-01  5.285681946820446e-18

-2.694408567090030e-19 -2.339349093546389e-18 -1.049378618603148e+00
-2.339349093546389e-18 -7.054092927359340e-18  4.160117040315972e-01
-1.049378618603148e+00  4.160117040315972e-01  6.531192893349669e-18

 3.580398849694668e-19 -2.123009207523991e-18 -1.052415090712245e+00
-2.123009207523991e-18 -6.509598559977169e-18  4.410285038570930e-01
-1.052415090712245e+00  4.410285038570930e-01  6.662951794268453e-18

 6.456527862339056e-19 -1.965541658732932e-18 -1.043621965813365e+00
-1.965541658732932e-18 -7.384383400298576e-18  4.792792980280403e-01
-1.043621965813365e+00  4.792792980280403e-01  5.955817748999379e-18

 1.399407738177940e-18 -1.810343488448254e-18 -1.046114228332707e+00
-1.810343488448254e-18 -3.749630001211601e-18  4.129351343398079e-01
-1.046114228332707e+00  4.129351343398079e-01  7.036961509057337e-18

 1.944586139103487e-18 -1.731113229767588e-18 -1.044440460728911e+00
-1.731113229767588e-18 -1.957013943853922e-18  3.922732113222621e-01
-1.044440460728911e+00  3.922732113222621e-01  7.492912833351193e-18

 2.045396386780554e-18 -1.494014535638087e-18 -1.030209726002980e+00
-1.494014535638087e-18 -4.515856642016014e-18  4.763594326008836e-01
-1.030209726002980e+00  4.763594326008836e-01  5.921167513627101e-18

 2.814636412194918e-18 -1.445390728315734e-18 -1.039366106608544e+00
-1.445390728315734e-18 -2.713837750622527e-18  4.525306539688658e-01
-1.039366106608544e+00  4.525306539688658e-01  7.216043061100172e-18

 2.777073188259954e-18 -1.306536319742372e-18 -1.013052056929256e+00
-1.306536319742372e-18 -8.902807432212229e-19  4.157283806812411e-01
-1.013052056929256e+00  4.157283806812411e-01  6.267331885269192e-18

 3.027948740166318e-18 -1.235148284302751e-18 -1.001017769490238e+00
-1.235148284302751e-18 -2.632506641175196e-19  4.232832921939270e-01
-1.001017769490238e+00  4.232832921939270e-01  5.812776372310256e-18

 4.155973663575303e-18 -1.124132855808838e-18 -1.031087342826713e+00
-1.124132855808838e-18  1.101321756340424e-18  4.224685076900282e-01
-1.031087342826713e+00  4.224685076900282e-01  7.702109209590155e-18

 4.999414477314233e-18 -1.037710453528461e-18 -1.053978507291917e+00
-1.037710453528461e-18  9.540439714607826e-19  4.510256536944411e-01
-1.053978507291917e+00  4.510256536944411e-01  8.854681863963352e-18

 5.147570803706972e-18 -1.086496262658558e-18 -1.043432507019959e+00
-1.086496262658558e-18  1.405642302257329e-18  4.587039944116751e-01
-1.043432507019959e+00  4.587039944116751e-01  8.544823343218817e-18

 3.683017161100537e-18 -8.846711288380029e-19 -9.637795082622320e-01
-8.846711288380029e-19  2.436254510464835e-18  4.309080456211941e-01
-9.637795082622320e-01  4.309080456211941e-01  3.881159007761378e-18

 4.686799669499261e-18 -9.292578406853236e-19 -9.915007115875091e-01
-9.292578406853236e-19  3.421253271584631e-18  4.301958497122502e-01
-9.915007115875091e-01  4.301958497122502e-01  5.615036834043705e-18

 7.018743261540929e-18 -7.348512398263705e-19 -1.086138385562160e+00
-7.348512398263705e-19  4.446159591788034e-18  4.407349880354774e-01
-1.086138385562160e+00  4.407349880354774e-01  1.055667114347950e-17

 6.804110772077309e-18 -6.764897578486109e-19 -1.059414519505929e+00
-6.764897578486109e-19  4.875057093395529e-18  4.389117580151883e-01
-1.059414519505929e+00  4.389117580151883e-01  9.030110947718239e-18

 6.467761466323123e-18 -5.452767856386274e-19 -1.030993210012541e+00
-5.452767856386274e-19  5.649497717988661e-18  4.137627201383068e-01
-1.030993210012541e+00  4.137627201383068e-01  7.887811213485544e-18

 6.493470713083927e-18 -5.388923918129041e-19 -1.019165204670391e+00
-5.388923918129041e-19  5.460731071697435e-18  4.288396236649454e-01
-1.019165204670391e+00  4.288396236649454e-01  7.493548034395538e-18

 6.517369561241587e-18 -5.537522144773513e-19 -1.007191262496796e+00
-5.537522144773513e-19  4.506752677919098e-18  4.533248850469215e-01
-1.007191262496796e+00  4.533248850469215e-01  7.083417965496289e-18

 5.753781304271271e-18 -4.651156569405103e-19 -9.593297835028787e-01
-4.651156569405103e-19  6.159071296071882e-18  4.121202607899052e-01
-9.593297835028787e-01  4.121202607899052e-01  4.744648566903437e-18

 6.950214254680251e-18 -4.569133517063372e-19 -1.001986723833512e+00
-4.569133517063372e-19  6.349254322768940e-18  4.223422184150243e-01
-1.001986723833512e+00  4.223422184150243e-01  7.406013551835316e-18

 7.124352344465181e-18 -3.115191091307485e-19 -1.010442020861693e+00
-3.115191091307485e-19  3.944160513793294e-18  4.910655489640960e-01
-1.010442020861693e+00  4.910655489640960e-01  7.045778177121956e-18

 7.546409543317989e-18 -4.182480814317290e-19 -1.014159531799545e+00
-4.182480814317290e-19  5.925803674931781e-18  4.446914339732443e-01
-1.014159531799545e+00  4.446914339732443e-01  8.297098974780233e-18

 6.233731930320885e-18 -3.245684495939940e-19 -9.500007635389046e-01
-3.245684495939940e-19  5.516897256843188e-18  4.423169958744733e-01
-9.500007635389046e-01  4.423169958744733e-01  4.563473039896958e-18

 5.775122875721163e-18 -2.758418400946817e-19 -9.233635506939925e-01
-2.758418400946817e-19  7.128669758178041e-18  3.983637871743933e-01
-9.233635506939925e-01  3.983637871743933e-01  3.453589877251545e-18

 9.949358820626244e-18 -6.453530633024415e-19 -1.080455493068274e+00
-6.453530633024415e-19  1.254938349608269e-17  2.809557421929286e-01
-1.080455493068274e+00  2.809557421929286e-01  1.553601637252992e-17

 7.141062260199559e-18 -3.417567536791111e-19 -9.732629675984585e-01
-3.417567536791111e-19  7.003633190970148e-18  4.151360360814289e-01
-9.732629675984585e-01  4.151360360814289e-01  6.739488309732512e-18

 3.773433744543253e-18  1.073631280497836e-19 -8.481344715442432e-01
 1.073631280497836e-19  6.005437645670299e-19  5.733045420451701e-01
-8.481344715442432e-01  5.733045420451701e-01 -3.817278890519365e-18

 8.692507988034892e-18 -1.756480807830447e-19 -1.039593712868376e+00
-1.756480807830447e-19  8.267893806063040e-18  3.979676235608287e-01
-1.039593712868376e+00  3.979676235608287e-01  1.053636746611220e-17

 8.235298217480749e-18 -1.825928425712264e-19 -1.018875924846495e+00
-1.825928425712264e-19  7.508364356560744e-18  4.244314060430776e-01
-1.018875924846495e+00  4.244314060430776e-01  8.803829992560016e-18

 6.370918454549425e-18 -1.887457450409223e-19 -9.415227162801045e-01
-1.887457450409223e-19  4.455881181831808e-18  5.100787579215897e-01
-9.415227162801045e-01  5.100787579215897e-01  2.858636935920091e-18

 8.893780112369808e-18 -1.327443808057492e-19 -1.040647640147385e+00
-1.327443808057492e-19  9.979173927658423e-18  3.645201787506447e-01
-1.040647640147385e+00  3.645201787506447e-01  1.071244010755494e-17

 8.055345617190608e-18 -1.808928124185699e-19 -1.003777247665461e+00
-1.808928124185699e-19  9.390793553193808e-18  3.878091187813144e-01
-1.003777247665461e+00  3.878091187813144e-01  8.040351333855885e-18

 8.074509605129631e-18 -7.985878222752482e-20 -1.006505139031431e+00
-7.985878222752482e-20  7.760910644984902e-18  4.418371616755770e-01
-1.006505139031431e+00  4.418371616755770e-01  7.285650629707815e-18

 8.781142700322770e-18 -6.973287290191577e-20 -1.036165496658087e+00
-6.973287290191577e-20  8.482743770873338e-18  4.374944808225442e-01
-1.036165496658087e+00  4.374944808225442e-01  8.899688619033791e-18

 8.709393613266903e-18 -6.688396827457179e-20 -1.031527287105076e+00
-6.688396827457179e-20  8.558481095923749e-18  4.429414193810498e-01
-1.031527287105076e+00  4.429414193810498e-01  8.386436319788478e-18

 8.503724931992587e-18 -6.114336226288005e-20 -1.019906313698235e+00
-6.114336226288005e-20  9.231318155776982e-18  4.295892268920368e-01
-1.019906313698235e+00  4.295892268920368e-01  7.708314132627402e-18

 8.873729063129946e-18 -1.104295126214530e-19 -1.032952432291536e+00
-1.104295126214530e-19  1.043631509602663e-17  4.162698696373174e-01
-1.032952432291536e+00  4.162698696373174e-01  8.440499998306233e-18

 9.031396777450513e-18  6.840733725597058e-20 -1.046942556521869e+00
 6.840733725597058e-20  8.511653959454573e-18  4.724478376387524e-01
-1.046942556521869e+00  4.724478376387524e-01  8.066625895796645e-18

 9.001231472419522e-18  6.610690470574029e-20 -1.046456954972371e+00
 6.610690470574029e-20  7.849086633834048e-18  4.942789406295729e-01
-1.046456954972371e+00  4.942789406295729e-01  7.618954067476153e-18

 1.014145013490411e-17  1.176812290614325e-20 -1.088326448839524e+00
 1.176812290614325e-20  1.095056323769798e-17  4.225386972790000e-01
-1.088326448839524e+00  4.225386972790000e-01  1.116969652038295e-17

 9.543352542171481e-18  1.895642367266935e-20 -1.058905111392051e+00
 1.895642367266935e-20  1.031837304629437e-17  4.349077310440970e-01
-1.058905111392051e+00  4.349077310440970e-01  9.323652297990587e-18

 9.441578656250952e-18  3.580346197493968e-20 -1.050638304686305e+00
 3.580346197493968e-20  1.040835171598228e-17  4.324938041366790e-01
-1.050638304686305e+00  4.324938041366790e-01  8.980922287892303e-18

 9.310343374614058e-18  4.045020004969003e-20 -1.041072753801948e+00
 4.045020004969003e-20  1.022390567976490e-17  4.418783973298681e-01
-1.041072753801948e+00  4.418783973298681e-01  8.428838216251413e-18

 9.361618921808492e-18  4.353774583065087e-20 -1.040761091200822e+00
 4.353774583065087e-20  1.041322454159666e-17  4.395765382701802e-01
-1.040761091200822e+00  4.395765382701802e-01  8.484687016093258e-18

 9.588448190102193e-18  5.270124239508301e-20 -1.048546448385681e+00
 5.270124239508301e-20  1.038239970157891e-17  4.434980522191024e-01
-1.048546448385681e+00  4.434980522191024e-01  8.832356339360770e-18

 9.800626435592603e-18  6.382569711644651e-20 -1.056825628204073e+00
 6.382569711644651e-20  1.052468924625940e-17  4.438946021208077e-01
-1.056825628204073e+00  4.438946021208077e-01  9.193388228394128e-18

 9.737000857304235e-18  7.577027979760877e-20 -1.052760706557880e+00
 7.577027979760877e-20  1.064819744187702e-17  4.471748244937160e-01
-1.052760706557880e+00  4.471748244937160e-01  8.836170786349759e-18

 1.017786538038447e-17  8.473174906683050e-20 -1.067504601267574e+00
 8.473174906683050e-20  1.165916995371304e-17  4.186803754035711e-01
-1.067504601267574e+00  4.186803754035711e-01  1.005492798547537e-17

 9.902940982338113e-18  9.207679301802853e-20 -1.055065558954005e+00
 9.207679301802853e-20  1.170820254999221e-17  4.255733736286875e-01
-1.055065558954005e+00  4.255733736286875e-01  9.179730641510506e-18

 1.041422002371941e-17  1.058070690934131e-19 -1.074604385782258e+00
 1.058070690934131e-19  1.168935886148092e-17  4.177990584282868e-01
-1.074604385782258e+00  4.177990584282868e-01  1.060136694351333e-17

 1.047779466971001e-17  1.353113548273941e-19 -1.077364976297678e+00
 1.353113548273941e-19  1.145205770069231e-17  4.319329418415638e-01
-1.077364976297678e+00  4.319329418415638e-01  1.060471137796604e-17

 9.856811022008443e-18  1.525527190644461e-19 -1.050103003105650e+00
 1.525527190644461e-19  1.016769846594403e-17  4.695196243003582e-01
-1.050103003105650e+00  4.695196243003582e-01  8.550719703428641e-18

 9.722800609953343e-18  1.172776526932286e-19 -1.041295646265941e+00
 1.172776526932286e-19  1.012272285050598e-17  4.699322872841111e-01
-1.041295646265941e+00  4.699322872841111e-01  8.153294829811414e-18

 1.086364255584028e-17  1.479182489395309e-19 -1.082763205385071e+00
 1.479182489395309e-19  1.309173940379244e-17  3.848141894415187e-01
-1.082763205385071e+00  3.848141894415187e-01  1.187932053916432e-17

 1.099361550496833e-17  1.357623692746960e-19 -1.084860348357063e+00
 1.357623692746960e-19  1.388126313070857e-17  3.752819051337521e-01
-1.084860348357063e+00  3.752819051337521e-01  1.232219884751263e-17

 1.027052954108914e-17  1.423969812992994e-19 -1.053336422599458e+00
 1.423969812992994e-19  1.096602477669432e-17  4.437567347759694e-01
-1.053336422599458e+00  4.437567347759694e-01  9.769998803436359e-18

 1.056911699848599e-17  4.314728331531819e-20 -1.060636413314794e+00
 4.314728331531819e-20  1.108355036216487e-17  4.433898594823936e-01
-1.060636413314794e+00  4.433898594823936e-01  1.067487742323572e-17

 9.398439833045903e-18  6.261746626249910e-20 -1.005163141824627e+00
 6.261746626249910e-20  1.071460592560528e-17  4.439993640174149e-01
-1.005163141824627e+00  4.439993640174149e-01  7.596020232204800e-18

 8.111845372939276e-18  2.872606661432898e-20 -9.459455779259338e-01
 2.872606661432898e-20  9.914549896284882e-18  4.551355222282880e-01
-9.459455779259338e-01  4.551355222282880e-01  4.030135693310996e-18

 9.611806969191701e-18  1.600442646860754e-20 -1.015186503568214e+00
 1.600442646860754e-20  1.123063826435784e-17  4.484868902433383e-01
-1.015186503568214e+00  4.484868902433383e-01  7.736722274987125e-18

 1.086676127660552e-17  7.783930910456106e-20 -1.077766701400969e+00
 7.783930910456106e-20  1.174149026466877e-17  4.515056152871644e-01
-1.077766701400969e+00  4.515056152871644e-01  1.072394517880196e-17

 1.137911522500426e-17  1.827999705853928e-20 -1.105163168153334e+00
 1.827999705853928e-20  1.193729054781208e-17  4.606339942371655e-01
-1.105163168153334e+00  4.606339942371655e-01  1.174207124815195e-17

 1.111066124769662e-17 -4.787010340270951e-20 -1.094668558225087e+00
-4.787010340270951e-20  1.149851775140848e-17  4.798411243353074e-01
-1.094668558225087e+00  4.798411243353074e-01  1.079259949371233e-17

 1.081869862020209e-17  1.274018005468812e-20 -1.079711836767798e+00
 1.274018005468812e-20  1.224214578368136e-17  4.523190789561804e-01
-1.079711836767798e+00  4.523190789561804e-01  1.017043336956879e-17

 9.740931343893933e-18  8.073150610063136e-20 -1.031741607227844e+00
 8.073150610063136e-20  1.173651196873098e-17  4.525283034251437e-01
-1.031741607227844e+00  4.525283034251437e-01  7.302201866928481e-18

 9.507529711717342e-18  3.563350559300454e-20 -1.018850230967586e+00
 3.563350559300454e-20  1.162316452543385e-17  4.554081280867903e-01
-1.018850230967586e+00  4.554081280867903e-01  6.550323671526361e-18

 1.034608778078840e-17  8.175654337848912e-20 -1.058936036564925e+00
 8.175654337848912e-20  1.168900987347530e-17  4.724270760361021e-01
-1.058936036564925e+00  4.724270760361021e-01  8.469344563668776e-18

 1.139719779835481e-17  6.974231939368740e-20 -1.107590335179696e+00
 6.974231939368740e-20  1.284553621654756e-17  4.577792981407275e-01
-1.107590335179696e+00  4.577792981407275e-01  1.119404484577499e-17

 1.308987543323153e-17  1.775316071371172e-20 -1.179577228240240e+00
 1.775316071371172e-20  1.488631263167397e-17  4.229619839774350e-01
-1.179577228240240e+00  4.229619839774350e-01  1.599153142931591e-17

 1.004141730382993e-17  4.766105853737847e-20 -1.061564486815018e+00
 4.766105853737847e-20  9.726594761724536e-18  5.600111237665035e-01
-1.061564486815018e+00  5.600111237665035e-01  6.509251176600564e-18

 1.227656669568405e-17  6.134908126608659e-20 -1.151911690070458e+00
 6.134908126608659e-20  1.379207429616245e-17  4.485429823968719e-01
-1.151911690070458e+00  4.485429823968719e-01  1.337639771247901e-17

 1.400195682618394e-17  5.751279892319730e-20 -1.221516261836216e+00
 5.751279892319730e-20  1.719587736157755e-17  3.722106692690386e-01
-1.221516261836216e+00  3.722106692690386e-01  1.874909118327675e-17

 1.089108435778971e-17 -5.577891449900232e-20 -1.093984979807364e+00
-5.577891449900232e-20  1.073970528106701e-17  5.388915451102300e-01
-1.093984979807364e+00  5.388915451102300e-01  9.163345291610372e-18

 9.185193872933642e-18 -4.131455932574571e-19 -1.016031827263547e+00
-4.131455932574571e-19  7.091442260125465e-18  6.432167078975488e-01
-1.016031827263547e+00  6.432167078975488e-01  4.239350695173451e-18

 1.250390671544599e-17  4.071026452372020e-19 -1.150311230131382e+00
 4.071026452372020e-19  1.778995861665695e-17  3.113909962853900e-01
-1.150311230131382e+00  3.113909962853900e-01  1.482393401209875e-17

 1.360880550976207e-17  1.721047852239308e-19 -1.182221059119635e+00
 1.721047852239308e-19  1.946680044977158e-17  2.711514589656253e-01
-1.182221059119635e+00  2.711514589656253e-01  1.818075357142518e-17

 1.041111315335276e-17  3.010009019428645e-19 -1.059546459333309e+00
 3.010009019428645e-19  1.056583307335702e-17  5.042947353770090e-01
-1.059546459333309e+00  5.042947353770090e-01  8.039537348544176e-18

 1.098817091048214e-17  1.069957483065994e-19 -1.082340417769283e+00
 1.069957483065994e-19  1.261435653678319e-17  4.764884333804170e-01
-1.082340417769283e+00  4.764884333804170e-01  9.517675519147794e-18

 1.106587060645104e-17  8.959970674699786e-20 -1.091204153342949e+00
 8.959970674699786e-20  1.290876636771368e-17  4.769304564927153e-01
-1.091204153342949e+00  4.769304564927153e-01  9.517895097992081e-18

 1.172970987949751e-17  1.144260785988549e-19 -1.124153111426279e+00
 1.144260785988549e-19  1.349635658799773e-17  4.642366533881978e-01
-1.124153111426279e+00  4.642366533881978e-01  1.095029682233414e-17

 1.292624204311050e-17  1.731523166989498e-19 -1.176641843922587e+00
 1.731523166989498e-19  1.413049613640898e-17  4.654924796367912e-01
-1.176641843922587e+00  4.654924796367912e-01  1.387739862605892e-17

 1.333085097487969e-17  1.250102218399524e-19 -1.187760825018872e+00
 1.250102218399524e-19  1.508412138456412e-17  4.511557877597719e-01
-1.187760825018872e+00  4.511557877597719e-01  1.491187891341631e-17

 1.049608349184489e-17  1.460296200766133e-19 -1.078804747901582e+00
 1.460296200766133e-19  1.099976210338768e-17  5.479171541319051e-01
-1.078804747901582e+00  5.479171541319051e-01  6.891859776368882e-18

 1.181174158776585e-17  7.717867383872602e-22 -1.112462508674533e+00
 7.717867383872602e-22  1.225797213090059e-17  5.111936561191998e-01
-1.112462508674533e+00  5.111936561191998e-01  9.695097565546162e-18

 1.104596796361859e-17  5.294246006788865e-19 -1.127672170714773e+00
 5.294246006788865e-19  1.403476185207367e-17  4.467879472000559e-01
-1.127672170714773e+00  4.467879472000559e-01  1.179528892670860e-17

 6.653568015996788e-18  1.815264266695040e-18 -1.092319321179695e+00
 1.815264266695040e-18  1.323727031873569e-17  4.420933910764017e-01
-1.092319321179695e+00  4.420933910764017e-01  1.009915504025175e-17

 4.231341787542161e-17 -1.051366486645207e-17 -1.067886534813554e+00
-1.051366486645207e-17  1.682859209954470e-17  4.550767740133504e-01
-1.067886534813554e+00  4.550767740133504e-01  8.941967313233305e-18

 4.230479371347055e-17 -1.053494911461331e-17 -1.063251591855212e+00
-1.053494911461331e-17  1.645983519232490e-17  4.609365608430085e-01
-1.063251591855212e+00  4.609365608430085e-01  8.959632420721462e-18

 8.407230826631117e-18  1.036815235251299e-18 -1.062516130584962e+00
 1.036815235251299e-18  1.234037152138714e-17  4.659965485512724e-01
-1.062516130584962e+00  4.659965485512724e-01  9.090870107127364e-18

 1.074178413038579e-17  1.918394061082186e-19 -1.056182408183702e+00
 1.918394061082186e-19  1.312445344522290e-17  4.511672447029760e-01
-1.056182408183702e+00  4.511672447029760e-01  8.888411980747771e-18

 1.102623028588911e-17  9.790431750780948e-20 -1.058803470982755e+00
 9.790431750780948e-20  1.346560056070635e-17  4.460293163198998e-01
-1.058803470982755e+00  4.460293163198998e-01  9.035976033508591e-18

 1.128859933864337e-17  1.291414594574839e-19 -1.076227316284678e+00
 1.291414594574839e-19  1.321587640719381e-17  4.613336678830535e-01
-1.076227316284678e+00  4.613336678830535e-01  9.708385644068374e-18

 1.149776242317736e-17  1.240624973208558e-19 -1.086271028104078e+00
 1.240624973208558e-19  1.302024714173576e-17  4.661788810283796e-01
-1.086271028104078e+00  4.661788810283796e-01  1.011127491006614e-17

 1.227013603404165e-17  1.109193002246234e-19 -1.118216491581338e+00
 1.109193002246234e-19  1.394598144668527e-17  4.441235787040569e-01
-1.118216491581338e+00  4.441235787040569e-01  1.241220080084422e-17

 1.225226235386073e-17  9.914035984676817e-20 -1.118750729009913e+00
 9.914035984676817e-20  1.400597560697555e-17  4.546497399223938e-01
-1.118750729009913e+00  4.546497399223938e-01  1.225438502561422e-17

 1.079089895783900e-17  7.389297880479014e-20 -1.059773978245389e+00
 7.389297880479014e-20  1.160559926216517e-17  5.149375792693017e-01
-1.059773978245389e+00  5.149375792693017e-01  7.760738874319460e-18

 1.139871208766650e-17  4.887179471354522e-20 -1.084122368958928e+00
 4.887179471354522e-20  1.224467901646698e-17  4.953424621184273e-01
-1.084122368958928e+00  4.953424621184273e-01  9.598907389513296e-18

 1.159152207594053e-17  8.358185159470040e-20 -1.090315949157393e+00
 8.358185159470040e-20  1.327120918651644e-17  4.589544915748744e-01
-1.090315949157393e+00  4.589544915748744e-01  1.042983752940752e-17

 1.130891284682909e-17  1.315430763796610e-19 -1.077275321689595e+00
 1.315430763796610e-19  1.410425337046593e-17  4.375420071619391e-01
-1.077275321689595e+00  4.375420071619391e-01  9.821231043563874e-18

 1.099896301547674e-17  9.826554177557967e-20 -1.063044965656935e+00
 9.826554177557967e-20  1.323594905940946e-17  4.539033385236813e-01
-1.063044965656935e+00  4.539033385236813e-01  8.830733095970315e-18

 1.136041898072630e-17  8.500565499158664e-20 -1.079968405690684e+00
 8.500565499158664e-20  1.274455586711356e-17  4.681298283994765e-01
-1.079968405690684e+00  4.681298283994765e-01  9.644389508024263e-18

 1.163058978987451e-17  7.687576948665557e-20 -1.089631716182310e+00
 7.687576948665557e-20  1.237473049803900e-17  4.727322976910367e-01
-1.089631716182310e+00  4.727322976910367e-01  1.029029925425252e-17

 1.121616112905559e-17  6.048312131869080e-20 -1.063089775019714e+00
 6.048312131869080e-20  1.199230422407436e-17  4.672221513850514e-01
-1.063089775019714e+00  4.672221513850514e-01  9.445715937955562e-18

 6.477262593970488e-18 -3.853656416094615e-19 -8.510860755894790e-01
-3.853656416094615e-19  5.506207259472281e-18  6.277368580642726e-01
-8.510860755894790e-01  6.277368580642726e-01 -3.905855881001644e-18

 1.203713494094544e-17  4.321094761893888e-19 -1.080308031341201e+00
 4.321094761893888e-19  1.806729954667099e-17  2.614451014090185e-01
-1.080308031341201e+00  2.614451014090185e-01  1.283571707261107e-17

 1.252487177612966e-17 -1.485489046117389e-19 -1.083919177357525e+00
-1.485489046117389e-19  2.005682838203835e-17  2.308315525731162e-01
-1.083919177357525e+00  2.308315525731162e-01  1.411375563040895e-17

 9.406313115574409e-18  2.667359818178802e-19 -9.748994386702381e-01
 2.667359818178802e-19  1.120571726785612e-17  4.565037690090066e-01
-9.748994386702381e-01  4.565037690090066e-01  4.467566165981325e-18

 7.876240400109067e-18  1.147105851094909e-18 -9.404915573662084e-01
 1.147105851094909e-18  5.572669916165120e-18  5.855412612770994e-01
-9.404915573662084e-01  5.855412612770994e-01 -5.606947426775806e-19

 9.741243872135222e-18  7.644646530428930e-19 -1.009072672498641e+00
 7.644646530428930e-19  8.929231915309664e-18  5.264981317958736e-01
-1.009072672498641e+00  5.264981317958736e-01  4.458395139398747e-18

 1.312158406937421e-17  3.060485295374854e-19 -1.134071314346664e+00
 3.060485295374854e-19  1.592830283225610e-17  3.741960141069809e-01
-1.134071314346664e+00  3.741960141069809e-01  1.446745771521959e-17

 1.067700211463549e-17  7.233792646326337e-19 -1.046626635722653e+00
 7.233792646326337e-19  9.772308831962682e-18  5.268091464317833e-01
-1.046626635722653e+00  5.268091464317833e-01  6.560303300815849e-18

 1.281261372484881e-17  4.159224091843028e-19 -1.120888853181684e+00
 4.159224091843028e-19  1.368045583030951e-17  4.297619243811299e-01
-1.120888853181684e+00  4.297619243811299e-01  1.318583567776981e-17

 1.144121026191597e-17  3.853112974047925e-19 -1.052586412701008e+00
 3.853112974047925e-19  1.422296176157206e-17  4.054737161565570e-01
-1.052586412701008e+00  4.054737161565570e-01  9.870459277191020e-18

 1.088688054882297e-17  3.853133156602663e-19 -1.024003810362788e+00
 3.853133156602663e-19  1.330752961322432e-17  4.204295998265529e-01
-1.024003810362788e+00  4.204295998265529e-01  8.563797803743522e-18

 1.061442750626869e-17  3.656170017791630e-19 -1.002794438126430e+00
 3.656170017791630e-19  1.216666734426217e-17  4.368776719571667e-01
-1.002794438126430e+00  4.368776719571667e-01  7.567221260011961e-18

 1.157756481503855e-17  1.987701770518637e-19 -1.033573926596421e+00
 1.987701770518637e-19  1.500807740903534e-17  3.657699011482189e-01
-1.033573926596421e+00  3.657699011482189e-01  1.082740075939651e-17

 9.909079772540393e-18  5.084192827129643e-19 -1.008815343286974e+00
 5.084192827129643e-19  1.264749360224426e-17  4.216147643235887e-01
-1.008815343286974e+00  4.216147643235887e-01  8.434921209635717e-18

 3.278747287513739e-17 -3.574559303045564e-18 -9.855813017709976e-01
-3.574559303045564e-18  1.149961715806538e-17  4.770596900803588e-01
-9.855813017709976e-01  4.770596900803588e-01  6.153249365225168e-18

 3.325928430183048e-17 -3.743279405066083e-18 -9.985064086374363e-01
-3.743279405066083e-18  1.374853310490859e-17  4.195242768106781e-01
-9.985064086374363e-01  4.195242768106781e-01  7.940148175735286e-18

-8.821848374841531e-18  3.483294670930817e-18 -9.824785873832362e-01
 3.483294670930817e-18  1.435763212153744e-17  3.899407487878210e-01
-9.824785873832362e-01  3.899407487878210e-01  7.435475002349394e-18

 1.481871880139075e-17 -1.618584665340336e-19 -1.021570381538870e+00
-1.618584665340336e-19  1.217147252703917e-17  4.514031510014244e-01
-1.021570381538870e+00  4.514031510014244e-01  8.267182472789105e-18

 1.189201196111039e-17  5.355025043681528e-19 -1.034966424051263e+00
 5.355025043681528e-19  1.008358269140879e-17  5.020273070318577e-01
-1.034966424051263e+00  5.020273070318577e-01  8.209943203611976e-18

 1.270015208331631e-17  2.786208083217688e-19 -1.088525398544031e+00
 2.786208083217688e-19  1.461361040989347e-17  4.074772005991517e-01
-1.088525398544031e+00  4.074772005991517e-01  1.329955276750906e-17

 1.074311688136743e-17  2.164360911008288e-19 -1.002674634333343e+00
 2.164360911008288e-19  1.264992880526734e-17  4.423776059758757e-01
-1.002674634333343e+00  4.423776059758757e-01  8.144034930678017e-18

 8.878720315479802e-18  2.351359622679606e-19 -9.222315874345527e-01
 2.351359622679606e-19  1.323369078456031e-17  4.064312765996657e-01
-9.222315874345527e-01  4.064312765996657e-01  3.561579411146276e-18

 8.811918548013992e-18  9.774985398048889e-20 -9.239260619616011e-01
 9.774985398048889e-20  1.223980301066517e-17  4.581970571110624e-01
-9.239260619616011e-01  4.581970571110624e-01  2.863031330032676e-18

 1.142135361517230e-17 -4.350286535579910e-19 -1.028722458879659e+00
-4.350286535579910e-19  1.533761664754021e-17  4.044933758861633e-01
-1.028722458879659e+00  4.044933758861633e-01  9.374250627856659e-18

 1.130147507618734e-17  9.935606932537491e-19 -1.085223405436328e+00
 9.935606932537491e-19  1.238884256010438e-17  5.132966925835524e-01
-1.085223405436328e+00  5.132966925835524e-01  8.679592594916976e-18

 9.177859073712350e-18  1.090780815678422e-18 -1.022733232403537e+00
 1.090780815678422e-18  6.189188267221818e-18  6.337982272804754e-01
-1.022733232403537e+00  6.337982272804754e-01  2.427995375551751e-18

 1.451310203209819e-17  4.582182875507288e-19 -1.242878960780706e+00
 4.582182875507288e-19  1.807831210448957e-17  3.695653829472634e-01
-1.242878960780706e+00  3.695653829472634e-01  1.921174311966368e-17

 2.156804218569471e-17 -2.712660364367186e-18 -1.186779267397192e+00
-2.712660364367186e-18  1.908143312580625e-17  4.145318726923127e-01
-1.186779267397192e+00  4.145318726923127e-01  1.614173735430857e-17

 2.493356936642531e-17 -5.179694138784234e-18 -1.036975853839775e+00
-5.179694138784234e-18  1.552446835825525e-17  4.689287728428388e-01
-1.036975853839775e+00  4.689287728428388e-01  7.015266004910560e-18

 1.464121723587572e-17 -1.003313199498867e-18 -1.053876294887636e+00
-1.003313199498867e-18  1.555653962254727e-17  4.032771552651483e-01
-1.053876294887636e+00  4.032771552651483e-01  9.089252629839306e-18

 1.130424365090757e-17  1.408188815962519e-19 -1.051844017473487e+00
 1.408188815962519e-19  1.404269710140902e-17  4.341645505833872e-01
-1.051844017473487e+00  4.341645505833872e-01  9.739220261699725e-18

 1.022532608469285e-17 -1.077910123207712e-19 -9.901681543769685e-01
-1.077910123207712e-19  1.098637509948403e-17  5.015018574714183e-01
-9.901681543769685e-01  5.015018574714183e-01  6.271451588424803e-18

 1.109868628043289e-17  4.479565287274537e-19 -1.028724540718769e+00
 4.479565287274537e-19  1.521771239812365e-17  3.465703364655275e-01
-1.028724540718769e+00  3.465703364655275e-01  9.675848762020194e-18

 9.158563697200196e-18  1.570083268548546e-19 -9.401091201719517e-01
 1.570083268548546e-19  1.192667033587757e-17  4.390956023619692e-01
-9.401091201719517e-01  4.390956023619692e-01  3.809377877218988e-18

 9.445296197541455e-18  6.548719053625363e-20 -9.489229484999073e-01
 6.548719053625363e-20  1.189813578167412e-17  4.584841958509732e-01
-9.489229484999073e-01  4.584841958509732e-01  4.451255223381065e-18

 1.004452489275812e-17  8.099146111091155e-20 -9.749942418497213e-01
 8.099146111091155e-20  1.195752366339789e-17  4.627406106402917e-01
-9.749942418497213e-01  4.627406106402917e-01  6.039073444854249e-18

 1.120829074437371e-17  9.793111651322977e-20 -1.022170803366226e+00
 9.793111651322977e-20  1.394331246036816e-17  4.148994935482891e-01
-1.022170803366226e+00  4.148994935482891e-01  9.424291660154626e-18

 1.028023805630865e-17  1.403066433299336e-19 -9.849249889966485e-01
 1.403066433299336e-19  1.174276424998467e-17  4.612182257172805e-01
-9.849249889966485e-01  4.612182257172805e-01  6.453933981264996e-18

 9.823364962352442e-18  1.550206385907377e-19 -9.664700843915222e-01
 1.550206385907377e-19  1.092474788921866e-17  4.812593318392402e-01
-9.664700843915222e-01  4.812593318392402e-01  5.016748700059268e-18

 1.073415412370132e-17  1.672040618246499e-19 -1.000769070400857e+00
 1.672040618246499e-19  1.332526530673355e-17  4.107231590551824e-01
-1.000769070400857e+00  4.107231590551824e-01  8.025185611617707e-18

 1.068830541365159e-17  1.691826541331344e-19 -9.984980170800212e-01
 1.691826541331344e-19  1.377389723933157e-17  4.218584654155818e-01
-9.984980170800212e-01  4.218584654155818e-01  7.752938405517768e-18

 1.115011514501439e-17  2.126241029989127e-19 -1.019585113696415e+00
 2.126241029989127e-19  1.307823434910018e-17  4.317278076155501e-01
-1.019585113696415e+00  4.317278076155501e-01  8.869836762437248e-18

 1.132203996899987e-17  1.804468818576865e-19 -1.022821061746304e+00
 1.804468818576865e-19  1.289120839655186e-17  4.270693299225949e-01
-1.022821061746304e+00  4.270693299225949e-01  9.205149607268984e-18

 1.106169852930773e-17  1.786894212367793e-19 -1.009344754257589e+00
 1.786894212367793e-19  1.336707720656573e-17  4.127779428316914e-01
-1.009344754257589e+00  4.127779428316914e-01  8.669114021633126e-18

 1.103423743221400e-17  1.106967272909788e-19 -9.996702497002620e-01
 1.106967272909788e-19  1.279349235749946e-17  4.274983068326567e-01
-9.996702497002620e-01  4.274983068326567e-01  8.093676729829656e-18

 1.557539546929395e-17 -1.739372239815870e-18 -9.782739785694892e-01
-1.739372239815870e-18  1.320658639890459e-17  4.262030232133346e-01
-9.782739785694892e-01  4.262030232133346e-01  6.950689889531868e-18

 1.161529577445228e-17 -2.287795427568653e-19 -9.907024653893727e-01
-2.287795427568653e-19  1.391164922199621e-17  4.207245901532398e-01
-9.907024653893727e-01  4.207245901532398e-01  7.608196385538391e-18

 4.910415106847869e-18  2.695702309158410e-18 -1.047087230543967e+00
 2.695702309158410e-18  1.324263117779545e-17  4.274621167544465e-01
-1.047087230543967e+00  4.274621167544465e-01  1.048555108985814e-17

 1.176407555737824e-17  7.172889916737638e-21 -1.041169684941965e+00
 7.172889916737638e-21  1.450222796380629e-17  4.385968879818504e-01
-1.041169684941965e+00  4.385968879818504e-01  9.691656648454593e-18

 1.100406201926140e-17 -1.833386212188684e-20 -1.012127783673833e+00
-1.833386212188684e-20  1.446519211120831e-17  4.319360486543728e-01
-1.012127783673833e+00  4.319360486543728e-01  7.656669022372328e-18

 1.205085721907990e-17 -2.141318391108242e-19 -1.062112278356098e+00
-2.141318391108242e-19  1.769444515271848e-17  3.549876419002909e-01
-1.062112278356098e+00  3.549876419002909e-01  1.143939562211581e-17

 1.246793759045158e-17  7.564437015991572e-20 -1.096478215617715e+00
 7.564437015991572e-20  1.607778373822903e-17  4.217658958653902e-01
-1.096478215617715e+00  4.217658958653902e-01  1.192662223294174e-17

 1.355205933211954e-17  1.768635652389967e-19 -1.154862649539324e+00
 1.768635652389967e-19  1.349515034010535e-17  4.852841534489201e-01
-1.154862649539324e+00  4.852841534489201e-01  1.436169352112018e-17

 1.257785538172576e-17 -6.361033379779813e-20 -1.100676283180602e+00
-6.361033379779813e-20  1.475518880783469e-17  4.408516931226670e-01
-1.100676283180602e+00  4.408516931226670e-01  1.223653492151356e-17

 1.086061188865600e-17  3.748243914827146e-19 -1.024889536396688e+00
 3.748243914827146e-19  1.554222017704218e-17  3.728739492874752e-01
-1.024889536396688e+00  3.728739492874752e-01  8.154151956334630e-18

-2.531941485267494e-17 -3.656201193265682e-20  1.043315692006386e+00
-3.656201193265682e-20 -7.821655358697193e-18  4.464660978600413e-01
 1.043315692006386e+00  4.464660978600413e-01 -3.565771557450101e-17

-2.465584211931717e-17  8.960006044209690e-21  1.009013659332622e+00
 8.960006044209690e-21 -8.991380690332376e-18  3.955282663102797e-01
 1.009013659332622e+00  3.955282663102797e-01 -3.440158944145156e-17

-2.433148872196194e-17 -3.099878870497542e-20  9.904761734134414e-01
-3.099878870497542e-20 -3.107594823621916e-18  4.045897814221014e-01
 9.904761734134414e-01  4.045897814221014e-01 -3.372818189183653e-17

-2.441535166050934e-17  4.065722285083420e-20  9.903383486287382e-01
 4.065722285083420e-20 -3.832641266207134e-17  4.211239261287638e-01
 9.903383486287382e-01  4.211239261287638e-01 -3.373405591221447e-17

-2.359580798597649e-17  1.646829642195938e-20  9.503424482045489e-01
 1.646829642195938e-20 -1.922036459117251e-17  3.690207251383445e-01
 9.503424482045489e-01  3.690207251383445e-01 -3.225480913596305e-17

-2.425985517156335e-17 -1.277842145428319e-19  9.853371406431455e-01
-1.277842145428319e-19 -4.767021664724557e-18  4.159970885418163e-01
 9.853371406431455e-01  4.159970885418163e-01 -3.350057559052751e-17

-2.478235399777039e-17 -1.620190163912703e-19  1.005441866480304e+00
-1.620190163912703e-19 -6.502794438885756e-18  4.561465149433161e-01
 1.005441866480304e+00  4.561465149433161e-01 -3.434141088798745e-17

-2.459994397773396e-17 -9.756467915595884e-21  9.921718867155097e-01
-9.756467915595884e-21  5.941131018321711e-18  4.556772637445629e-01
 9.921718867155097e-01  4.556772637445629e-01 -3.381444711043406e-17

-2.462923640828812e-17 -2.320069423513913e-20  1.010163686732471e+00
-2.320069423513913e-20 -1.010919006974447e-17  4.056652563227261e-01
 1.010163686732471e+00  4.056652563227261e-01 -3.439894698557940e-17

-2.392856672305040e-17 -8.269846683602113e-20  9.590193466508142e-01
-8.269846683602113e-20 -5.440675837861943e-17  4.305211328081678e-01
 9.590193466508142e-01  4.305211328081678e-01 -3.250379598295566e-17

-2.373827120906013e-17 -8.589444796095738e-20  9.597012183046064e-01
-8.589444796095738e-20 -1.822638917977911e-19  3.890156866102916e-01
 9.597012183046064e-01  3.890156866102916e-01 -3.243517208745650e-17

-2.424198490034457e-17 -2.357864062152825e-20  9.893695094368399e-01
-2.357864062152825e-20 -2.725477160118305e-17  3.838710584278517e-01
 9.893695094368399e-01  3.838710584278517e-01 -3.342855748332369e-17

-2.583756239912141e-17 -8.395941930711753e-20  1.073269252280005e+00
-8.395941930711753e-20 -3.002788558900838e-17  4.228298686216340e-01
 1.073269252280005e+00  4.228298686216340e-01 -3.686499893987233e-17

-2.607607294944152e-17 -4.643549865062713e-20  1.074306787898210e+00
-4.643549865062713e-20 -2.692309562913155e-17  4.788477312495863e-01
 1.074306787898210e+00  4.788477312495863e-01 -3.687886580782181e-17

-2.520460810028607e-17 -5.726871334978654e-20  1.048900257829602e+00
-5.726871334978654e-20  1.339956746175652e-17  4.177667846256958e-01
 1.048900257829602e+00  4.177667846256958e-01 -3.566271428785421e-17

-2.215308546447814e-17 -2.508503532223021e-19  8.646761627154621e-01
-2.508503532223021e-19  3.149548544566669e-18  4.106264164088758e-01
 8.646761627154621e-01  4.106264164088758e-01 -2.903182408335902e-17

-2.233655159869925e-17  1.551052069719943e-19  8.980096470860259e-01
 1.551052069719943e-19  2.975414545274197e-17  3.668978727973382e-01
 8.980096470860259e-01  3.668978727973382e-01 -2.965336591627114e-17

-2.446146497829466e-17 -3.710784427203663e-19  9.871693985090155e-01
-3.710784427203663e-19  1.642351316269305e-18  4.984033247458589e-01
 9.871693985090155e-01  4.984033247458589e-01 -3.401161743738844e-17

-2.449534428011977e-17 -1.610416335450417e-19  9.863633193626348e-01
-1.610416335450417e-19 -1.719476653144680e-17  5.013185918911118e-01
 9.863633193626348e-01  5.013185918911118e-01 -3.361123090109994e-17

-2.472704276278062e-17 -2.350606853141381e-19  1.044292001916040e+00
-2.350606853141381e-19 -2.629283333571993e-17  3.227676268271665e-01
 1.044292001916040e+00  3.227676268271665e-01 -3.553308794277047e-17

-2.415166633937152e-17 -1.333492767099374e-19  1.001020873455140e+00
-1.333492767099374e-19  5.644926488549425e-19  3.458728456096579e-01
 1.001020873455140e+00  3.458728456096579e-01 -3.385528320389165e-17

-2.443851264649395e-17 -2.334441357531453e-19  9.957198811668121e-01
-2.334441357531453e-19 -3.091316591545440e-17  4.336360103632323e-01
 9.957198811668121e-01  4.336360103632323e-01 -3.389529754644194e-17

-2.471919120609945e-17 -1.328327686955848e-19  1.018928488561898e+00
-1.328327686955848e-19 -3.079757666118026e-17  4.038004840120110e-01
 1.018928488561898e+00  4.038004840120110e-01 -3.466957821951529e-17

-2.465830844680828e-17 -1.583964557767405e-19  1.012988050720798e+00
-1.583964557767405e-19 -8.500213441929452e-18  4.104859708165423e-01
 1.012988050720798e+00  4.104859708165423e-01 -3.445758880009348e-17

-2.488989518943914e-17 -2.035588900471295e-19  1.036923759133798e+00
-2.035588900471295e-19 -3.209592207285641e-18  3.816586072510373e-01
 1.036923759133798e+00  3.816586072510373e-01 -3.529496368934159e-17

-2.465318165902655e-17 -1.550671750254644e-19  1.014674645210218e+00
-1.550671750254644e-19 -2.511340520829786e-17  4.028103231196928e-01
 1.014674645210218e+00  4.028103231196928e-01 -3.454285048425574e-17

-2.419776304791259e-17 -1.690041269273459e-19  9.723494214912021e-01
-1.690041269273459e-19  1.035826208456500e-18  4.470101034208404e-01
 9.723494214912021e-01  4.470101034208404e-01 -3.307370563554824e-17

-2.438021176286089e-17 -1.925659297241442e-19  9.968905663230542e-01
-1.925659297241442e-19 -1.964910816867532e-17  4.021069278861669e-01
 9.968905663230542e-01  4.021069278861669e-01 -3.393376884877671e-17

-2.453665121894305e-17 -1.332711348431690e-19  1.010093076028105e+00
-1.332711348431690e-19 -8.922079237912367e-18  3.866677939413608e-01
 1.010093076028105e+00  3.866677939413608e-01 -3.442113803779861e-17

-2.455621776541914e-17 -1.304569923241298e-19  1.005566149266806e+00
-1.304569923241298e-19 -1.215596597861919e-17  4.053345673520037e-01
 1.005566149266806e+00  4.053345673520037e-01 -3.431483410720272e-17

-2.465938306234167e-17 -5.270533711150693e-20  1.009215825945973e+00
-5.270533711150693e-20 -2.316474730661138e-17  4.119726746367556e-01
 1.009215825945973e+00  4.119726746367556e-01 -3.449967626612767e-17

-2.445788643059384e-17 -6.117214413027840e-20  9.945532382026002e-01
-6.117214413027840e-20 -1.460282455916744e-17  4.061822124821175e-01
 9.945532382026002e-01  4.061822124821175e-01 -3.396848809840534e-17

-2.424642555229331e-17 -1.916231297093008e-20  9.837626175746838e-01
-1.916231297093008e-20 -1.253173179097630e-17  3.992476738754225e-01
 9.837626175746838e-01  3.992476738754225e-01 -3.357896822957474e-17

-2.441254200789009e-17  4.730832125616452e-20  9.951365891454139e-01
 4.730832125616452e-20 -1.055274831570713e-17  3.932962190458457e-01
 9.951365891454139e-01  3.932962190458457e-01 -3.398764613720678e-17

-2.447868153795958e-17 -2.535375091446570e-20  9.854388989474484e-01
-2.535375091446570e-20 -1.405776149780983e-17  4.268975091487210e-01
 9.854388989474484e-01  4.268975091487210e-01 -3.369268944914234e-17

-2.443037647079558e-17  3.637653376142654e-20  9.857088695569146e-01
 3.637653376142654e-20 -2.067858327177028e-17  4.297860715124364e-01
 9.857088695569146e-01  4.297860715124364e-01 -3.368447259295435e-17

-2.464784588665479e-17  2.102675999398674e-20  1.013672728296228e+00
 2.102675999398674e-20 -1.372078496181806e-17  3.666665285765793e-01
 1.013672728296228e+00  3.666665285765793e-01 -3.463870506756615e-17

-2.462711232903832e-17  5.071186794942173e-20  1.006427509783829e+00
 5.071186794942173e-20  3.854003109246882e-18  3.762037894694102e-01
 1.006427509783829e+00  3.762037894694102e-01 -3.437384585375497e-17

-2.427080415952069e-17  3.406116448726494e-20  9.697288893227667e-01
 3.406116448726494e-20 -9.949390591004567e-18  4.366277386909493e-01
 9.697288893227667e-01  4.366277386909493e-01 -3.311912153108353e-17

-2.462051558350119e-17  4.512419565205616e-21  9.996131190897396e-01
 4.512419565205616e-21 -2.073981200843909e-17  4.080688788274379e-01
 9.996131190897396e-01  4.080688788274379e-01 -3.416697231619338e-17

-2.451221187162323e-17  3.494518888576025e-20  9.878711439221254e-01
 3.494518888576025e-20 -1.728207322198759e-17  4.176868731543019e-01
 9.878711439221254e-01  4.176868731543019e-01 -3.374747420611423e-17

-2.460915771124539e-17  2.093380735622776e-20  9.941345765103267e-01
 2.093380735622776e-20 -1.341172523836937e-17  4.116529170093050e-01
 9.941345765103267e-01  4.116529170093050e-01 -3.395597428691978e-17

-2.464461409050464e-17  2.390141701395549e-20  9.966090977677979e-01
 2.390141701395549e-20 -1.205265345254613e-17  4.097633282418742e-01
 9.966090977677979e-01  4.097633282418742e-01 -3.403604081442657e-17

-2.469006872271833e-17  2.903676480008401e-20  1.001480545866015e+00
 2.903676480008401e-20 -2.749728034557846e-17  4.062116201503307e-01
 1.001480545866015e+00  4.062116201503307e-01 -3.420152769164680e-17

-2.465513433129602e-17 -5.217366973657336e-21  9.899547846819291e-01
-5.217366973657336e-21 -1.980265230815487e-17  4.233720062250728e-01
 9.899547846819291e-01  4.233720062250728e-01 -3.380175898757170e-17

-2.464864525696485e-17  5.708147822030974e-21  9.891943801971198e-01
 5.708147822030974e-21 -9.060790417771666e-18  4.282844745199827e-01
 9.891943801971198e-01  4.282844745199827e-01 -3.377832111816322e-17

-2.492701159018003e-17 -1.619987359437139e-20  1.012250210060238e+00
-1.619987359437139e-20 -2.981545682234811e-17  4.141024668967925e-01
 1.012250210060238e+00  4.141024668967925e-01 -3.458692227974428e-17

-2.489426688330894e-17 -8.538427982915428e-21  1.008481290371123e+00
-8.538427982915428e-21 -1.684410147974899e-17  4.169060550584226e-01
 1.008481290371123e+00  4.169060550584226e-01 -3.443885953743685e-17

-2.494547510881547e-17 -3.227237187590942e-20  1.011008936500888e+00
-3.227237187590942e-20 -1.264657530314897e-17  4.099391542098866e-01
 1.011008936500888e+00  4.099391542098866e-01 -3.451480122118844e-17

-2.481621630453023e-17 -3.518630837216516e-20  1.003066177796784e+00
-3.518630837216516e-20 -1.308262739033194e-17  4.173725668163628e-01
 1.003066177796784e+00  4.173725668163628e-01 -3.421707241303833e-17

-2.487342833129150e-17 -4.703887504880189e-20  1.005388994770197e+00
-4.703887504880189e-20 -2.507993835729121e-17  4.192828499917940e-01
 1.005388994770197e+00  4.192828499917940e-01 -3.429606979202979e-17

-2.491187064956150e-17 -5.232454216687433e-20  1.002599496930462e+00
-5.232454216687433e-20 -5.456014302312945e-18  4.264085689541899e-01
 1.002599496930462e+00  4.264085689541899e-01 -3.420269324304041e-17

-2.497670845574416e-17 -3.973696420300408e-20  1.012078944763694e+00
-3.973696420300408e-20 -1.895008890375255e-17  4.159881489478103e-01
 1.012078944763694e+00  4.159881489478103e-01 -3.453333469502960e-17

-2.495955234908836e-17 -4.225277148627047e-20  1.009514043273103e+00
-4.225277148627047e-20 -2.446411431295427e-17  4.210337953172006e-01
 1.009514043273103e+00  4.210337953172006e-01 -3.445106736139630e-17

-2.504415175038551e-17 -5.208138436862348e-20  1.014680055297920e+00
-5.208138436862348e-20 -2.064192468784662e-17  4.183139120815451e-01
 1.014680055297920e+00  4.183139120815451e-01 -3.464154453461191e-17

-2.503538747944168e-17 -5.570858371171252e-20  1.012580583906479e+00
-5.570858371171252e-20 -8.954452155088211e-18  4.238859555773656e-01
 1.012580583906479e+00  4.238859555773656e-01 -3.456455982519289e-17

-2.494899662381586e-17 -6.058706141898586e-20  1.007641963650463e+00
-6.058706141898586e-20 -1.296136569184006e-17  4.180671035495483e-01
 1.007641963650463e+00  4.180671035495483e-01 -3.437572231505193e-17

-2.500539902455903e-17 -7.251930085427525e-20  1.006902324179416e+00
-7.251930085427525e-20 -1.268345426552760e-17  4.278915029052470e-01
 1.006902324179416e+00  4.278915029052470e-01 -3.436123513055082e-17

-2.501945321563681e-17 -6.909293519365476e-20  1.008087551072975e+00
-6.909293519365476e-20 -8.266922149092203e-18  4.275235931658510e-01
 1.008087551072975e+00  4.275235931658510e-01 -3.441096010951065e-17

-2.502172244317241e-17 -6.365324974094503e-20  1.007012480876691e+00
-6.365324974094503e-20 -2.254712703935821e-17  4.219037445299606e-01
 1.007012480876691e+00  4.219037445299606e-01 -3.436501719454596e-17

-2.532076562345619e-17 -4.778771209483745e-20  1.028323754216991e+00
-4.778771209483745e-20 -2.569001196126607e-17  4.111665067333124e-01
 1.028323754216991e+00  4.111665067333124e-01 -3.514005175725918e-17

-2.541055833061917e-17 -6.866338528231512e-20  1.030116708050415e+00
-6.866338528231512e-20 -1.983691164804991e-17  4.242838514245590e-01
 1.030116708050415e+00  4.242838514245590e-01 -3.523571489217794e-17

-2.543390570254026e-17 -7.656870384144246e-20  1.030187253719105e+00
-7.656870384144246e-20 -8.891853067650823e-18  4.208718830939979e-01
 1.030187253719105e+00  4.208718830939979e-01 -3.523703449364881e-17

-2.540988533084909e-17 -6.238053986239950e-20  1.029609620513833e+00
-6.238053986239950e-20 -1.785586380556890e-17  4.100838193740668e-01
 1.029609620513833e+00  4.100838193740668e-01 -3.520236091154742e-17

-2.522436459892270e-17 -7.249890389281892e-20  1.010114418632817e+00
-7.249890389281892e-20 -2.009688169136712e-17  4.332344967341232e-01
 1.010114418632817e+00  4.332344967341232e-01 -3.453755210668863e-17

-2.549340185946255e-17 -8.602722874564834e-20  1.032197808220216e+00
-8.602722874564834e-20 -4.784878363755229e-18  4.205475862721478e-01
 1.032197808220216e+00  4.205475862721478e-01 -3.532825416782330e-17

-2.548082708944239e-17 -8.479327989145989e-20  1.028427100045009e+00
-8.479327989145989e-20 -4.711332035926403e-18  4.242924722187388e-01
 1.028427100045009e+00  4.242924722187388e-01 -3.520001314072534e-17

-2.545418502254680e-17 -6.986240154346166e-20  1.029775998526622e+00
-6.986240154346166e-20 -1.750679354760419e-17  4.153110643375560e-01
 1.029775998526622e+00  4.153110643375560e-01 -3.524527021504405e-17

-2.536054075873904e-17 -5.361174284181819e-20  1.020686037627491e+00
-5.361174284181819e-20 -1.451573917758203e-17  4.232324107856116e-01
 1.020686037627491e+00  4.232324107856116e-01 -3.493271294340078e-17

-2.535267819241748e-17 -4.862560786037418e-20  1.021111525302057e+00
-4.862560786037418e-20 -1.956417318604293e-17  4.200979463029062e-01
 1.021111525302057e+00  4.200979463029062e-01 -3.494603239544521e-17

-2.524917790818524e-17 -3.281791981891068e-20  1.015255367169224e+00
-3.281791981891068e-20 -1.922356605196937e-17  4.176206265130834e-01
 1.015255367169224e+00  4.176206265130834e-01 -3.473466939851311e-17

-2.525545045946107e-17 -3.729850521250564e-20  1.015906644271833e+00
-3.729850521250564e-20 -1.528117441498828e-17  4.153283356070679e-01
 1.015906644271833e+00  4.153283356070679e-01 -3.475596743955014e-17

-2.528113456520557e-17 -3.481894263856088e-20  1.015359116521660e+00
-3.481894263856088e-20 -1.652204652866027e-17  4.202759437311512e-01
 1.015359116521660e+00  4.202759437311512e-01 -3.475201373403029e-17

-2.526157151889256e-17 -2.875149789861984e-20  1.013323946719066e+00
-2.875149789861984e-20 -1.561048792982283e-17  4.260368640576132e-01
 1.013323946719066e+00  4.260368640576132e-01 -3.467922314242090e-17

-2.520745622045857e-17 -2.225033144294588e-20  1.010958108068946e+00
-2.225033144294588e-20 -2.072171645874492e-17  4.159932929310423e-01
 1.010958108068946e+00  4.159932929310423e-01 -3.457675862196851e-17

-2.518850660304087e-17 -3.961513622203470e-20  1.011618886927799e+00
-3.961513622203470e-20 -7.865270895568576e-18  4.058720879312476e-01
 1.011618886927799e+00  4.058720879312476e-01 -3.459006936454199e-17

-2.509800478776468e-17 -3.555120841808937e-20  1.005318863477191e+00
-3.555120841808937e-20 -7.538694032411774e-18  4.110408721369176e-01
 1.005318863477191e+00  4.110408721369176e-01 -3.436788617291213e-17

-2.520075796353936e-17 -3.597222154362378e-20  1.009287238032499e+00
-3.597222154362378e-20 -4.205664152166132e-18  4.217733513033888e-01
 1.009287238032499e+00  4.217733513033888e-01 -3.454617614145533e-17

-2.514613033262681e-17 -6.040110040026092e-21  1.004220782958525e+00
-6.040110040026092e-21 -1.965558475027485e-17  4.235224612019472e-01
 1.004220782958525e+00  4.235224612019472e-01 -3.437005839922543e-17

-2.520308063410527e-17 -2.545844835669471e-20  1.009508820299677e+00
-2.545844835669471e-20 -2.025439228471675e-17  4.012135734959832e-01
 1.009508820299677e+00  4.012135734959832e-01 -3.455121915297539e-17

-2.520432311993614e-17 -4.504998262629364e-22  1.014964956075440e+00
-4.504998262629364e-22 -2.129426081510306e-17  3.920342502251066e-01
 1.014964956075440e+00  3.920342502251066e-01 -3.474547364779284e-17

-2.500562576364631e-17  8.211071183602061e-21  9.925109614849352e-01
 8.211071183602061e-21 -2.035970508594283e-17  4.265108473189159e-01
 9.925109614849352e-01  4.265108473189159e-01 -3.396877810879794e-17

-2.509668908377090e-17  9.225821267830307e-21  9.967364695782986e-01
 9.225821267830307e-21 -1.001822572892955e-17  4.195620411965399e-01
 9.967364695782986e-01  4.195620411965399e-01 -3.412593055412146e-17

-2.519160199553797e-17  7.988582236390877e-21  1.008167911362563e+00
 7.988582236390877e-21 -1.160714670235028e-18  3.994081327088824e-01
 1.008167911362563e+00  3.994081327088824e-01 -3.453526891116725e-17

-2.531735918612769e-17  2.500465052894991e-20  1.009103176842245e+00
 2.500465052894991e-20 -8.748028420178850e-18  4.195899351639890e-01
 1.009103176842245e+00  4.195899351639890e-01 -3.461299484574396e-17

-2.543219575461846e-17  4.438342444088354e-20  1.010643979168950e+00
 4.438342444088354e-20 -1.603618706753827e-17  4.219432007385204e-01
 1.010643979168950e+00  4.219432007385204e-01 -3.467332491152584e-17

-2.531304806351222e-17  4.921818896767667e-20  1.008376249643902e+00
 4.921818896767667e-20 -1.642585056150946e-17  4.166008098114589e-01
 1.008376249643902e+00  4.166008098114589e-01 -3.457753325431916e-17

-2.502123660457624e-17  4.823721603839566e-20  9.871788223479029e-01
 4.823721603839566e-20 -1.268685857719954e-17  4.162041127268304e-01
 9.871788223479029e-01  4.162041127268304e-01 -3.379432312935918e-17

-2.535109290465056e-17  3.799857125669102e-20  1.018151842437159e+00
 3.799857125669102e-20 -1.445317701803850e-17  3.712065782507171e-01
 1.018151842437159e+00  3.712065782507171e-01 -3.487484275935874e-17

-2.528548129936811e-17  4.037955042781852e-20  1.008463347714715e+00
 4.037955042781852e-20 -1.999615462448128e-18  4.011746346028258e-01
 1.008463347714715e+00  4.011746346028258e-01 -3.454771202258410e-17

-2.524399324052157e-17  1.948410765450064e-19  9.977648191361970e-01
 1.948410765450064e-19 -2.325958754722006e-18  4.590068530804701e-01
 9.977648191361970e-01  4.590068530804701e-01 -3.409354534466193e-17

-2.570225667350229e-17 -1.121826261793197e-19  1.075481418270572e+00
-1.121826261793197e-19 -2.431776817883910e-17  2.738435340189230e-01
 1.075481418270572e+00  2.738435340189230e-01 -3.686399397782885e-17

-2.433375176311126e-17  2.866557556839428e-20  9.592124175599862e-01
 2.866557556839428e-20 -1.755721230739190e-17  3.518252145600611e-01
 9.592124175599862e-01  3.518252145600611e-01 -3.257614380904180e-17

-2.535176338436579e-17 -6.731440555931542e-20  9.806709025560488e-01
-6.731440555931542e-20  1.186744638221663e-18  4.901125098978048e-01
 9.806709025560488e-01  4.901125098978048e-01 -3.378983679377056e-17

-2.595437778773913e-17  1.337201358585524e-20  1.036512453145577e+00
 1.337201358585524e-20 -1.572455078437645e-17  4.233513351313067e-01
 1.036512453145577e+00  4.233513351313067e-01 -3.561041474595646e-17

-2.577647435577333e-17  1.224910511137100e-20  1.025987257186091e+00
 1.224910511137100e-20 -5.189653702127610e-18  4.099204655491773e-01
 1.025987257186091e+00  4.099204655491773e-01 -3.518227965749126e-17

-2.561429665365907e-17  1.157196828509925e-20  1.014394315888294e+00
 1.157196828509925e-20 -2.377672565221384e-17  4.087747204138343e-01
 1.014394315888294e+00  4.087747204138343e-01 -3.475719384762129e-17

-2.534081212638502e-17  7.988197794315144e-21  9.895208962814014e-01
 7.988197794315144e-21 -1.288839039364437e-17  4.310181630869129e-01
 9.895208962814014e-01  4.310181630869129e-01 -3.385759001972862e-17

-2.545248153342209e-17  1.275602284612751e-20  9.919987841461239e-01
 1.275602284612751e-20 -2.232052694906214e-17  4.319982793582346e-01
 9.919987841461239e-01  4.319982793582346e-01 -3.394213674142368e-17

-2.588459861252850e-17  3.056147798395691e-20  1.024029203379452e+00
 3.056147798395691e-20 -1.113034766287205e-17  4.092577390100663e-01
 1.024029203379452e+00  4.092577390100663e-01 -3.507173517070401e-17

-2.619386947024993e-17  2.860699792875877e-21  1.030920453669748e+00
 2.860699792875877e-21 -2.916251263586667e-17  4.371084467365219e-01
 1.030920453669748e+00  4.371084467365219e-01 -3.545256602616452e-17

-2.656773683921022e-17  2.940127382891794e-20  1.050347563759757e+00
 2.940127382891794e-20 -2.209724380813610e-17  4.243237284739478e-01
 1.050347563759757e+00  4.243237284739478e-01 -3.618044481571089e-17

-2.701810467255894e-17 -1.252002924840947e-20  1.061622898394757e+00
-1.252002924840947e-20 -1.238963339619376e-17  4.498429574205532e-01
 1.061622898394757e+00  4.498429574205532e-01 -3.676157803882586e-17

-2.731338267641482e-17  2.408091004505991e-20  1.071436338992497e+00
 2.408091004505991e-20 -1.921539063617874e-17  4.521752442311472e-01
 1.071436338992497e+00  4.521752442311472e-01 -3.718786278581238e-17

-2.835370353259872e-17  3.705289113201743e-20  1.139730495023407e+00
 3.705289113201743e-20 -1.881304663509643e-17  4.000634505769478e-01
 1.139730495023407e+00  4.000634505769478e-01 -3.970953657364952e-17

-2.925372184363913e-17  7.939451901112432e-20  1.189510226077603e+00
 7.939451901112432e-20 -2.245438780336680e-17  4.186344087631844e-01
 1.189510226077603e+00  4.186344087631844e-01 -4.161696422885728e-17

-2.811698463183332e-17  1.177234901966195e-19  1.133588443254349e+00
 1.177234901966195e-19 -2.188105847921325e-17  4.101713605686308e-01
 1.133588443254349e+00  4.101713605686308e-01 -3.932825184565084e-17

-2.565845064726467e-17  2.906519435673029e-19  9.863321101429628e-01
 2.906519435673029e-19  5.340293465719274e-18  4.650564917531892e-01
 9.863321101429628e-01  4.650564917531892e-01 -3.370564797167811e-17

-2.499917675666451e-17 -4.305023224380665e-19  9.844315882644624e-01
-4.305023224380665e-19 -3.687178545832847e-17  3.118579059911079e-01
 9.844315882644624e-01  3.118579059911079e-01 -3.372116621232161e-17

-2.439138232108153e-17 -1.261141704301544e-19  9.555861851503397e-01
-1.261141704301544e-19 -2.119638654164834e-17  3.141591085520463e-01
 9.555861851503397e-01  3.141591085520463e-01 -3.240822844708600e-17

-2.424494342626117e-17 -4.255206775382986e-20  9.011434513653455e-01
-4.255206775382986e-20  6.239820975018946e-18  5.045158289865438e-01
 9.011434513653455e-01  5.045158289865438e-01 -3.076567814110695e-17

-2.472952914458266e-17  7.540237229496452e-22  9.458197282630866e-01
 7.540237229496452e-22 -3.798452435423969e-17  4.350839129297558e-01
 9.458197282630866e-01  4.350839129297558e-01 -3.220517101222450e-17

-2.520527114573310e-17  5.560513619620914e-20  9.890915532146868e-01
 5.560513619620914e-20  1.210715241161102e-17  3.731220452921840e-01
 9.890915532146868e-01  3.731220452921840e-01 -3.368509929120403e-17

-2.534597449457717e-17  2.709892968463504e-20  9.924834146128753e-01
 2.709892968463504e-20 -8.280121311227090e-18  3.831688342087877e-01
 9.924834146128753e-01  3.831688342087877e-01 -3.384667547593723e-17

-2.512600200019904e-17 -2.387070857873775e-20  9.565542585454968e-01
-2.387070857873775e-20 -2.071374676592905e-17  4.436493160383274e-01
 9.565542585454968e-01  4.436493160383274e-01 -3.269484295575021e-17

-2.594045408753726e-17 -2.325097971306346e-20  1.009871615524933e+00
-2.325097971306346e-20 -2.133915118137302e-17  4.289064885312310e-01
 1.009871615524933e+00  4.289064885312310e-01 -3.464414757607519e-17

-2.576626250413882e-17  7.413124612265381e-21  9.897669041563109e-01
 7.413124612265381e-21 -3.654685884071256e-17  4.417698708825287e-01
 9.897669041563109e-01  4.417698708825287e-01 -3.389496762212187e-17

-2.571066426895313e-17 -1.754308650148210e-20  9.987687413460269e-01
-1.754308650148210e-20  2.375240938712530e-18  3.920041023955947e-01
 9.987687413460269e-01  3.920041023955947e-01 -3.418507853173838e-17

-2.571752500654258e-17 -1.454910214266478e-20  1.002203844367093e+00
-1.454910214266478e-20 -6.171613661984674e-18  3.750620336528242e-01
 1.002203844367093e+00  3.750620336528242e-01 -3.428313505667579e-17

-2.553547364086684e-17 -1.719743271513875e-20  9.797213221119049e-01
-1.719743271513875e-20 -2.104976802207748e-17  4.098134473061963e-01
 9.797213221119049e-01  4.098134473061963e-01 -3.349250789225463e-17

-2.585414937856432e-17 -2.854932796826860e-20  9.925735156654593e-01
-2.854932796826860e-20  7.383323071727624e-18  4.244398152869405e-01
 9.925735156654593e-01  4.244398152869405e-01 -3.399948389670157e-17

-2.586531958088348e-17 -2.714633051188344e-20  9.868621902606676e-01
-2.714633051188344e-20 -1.188625714749498e-17  4.364308567570827e-01
 9.868621902606676e-01  4.364308567570827e-01 -3.381088565327189e-17

-2.598056994319248e-17 -2.566817041017576e-20  1.001385559271275e+00
-2.566817041017576e-20 -1.976969451695720e-17  4.110450173027180e-01
 1.001385559271275e+00  4.110450173027180e-01 -3.430637467004848e-17

-2.590117830697138e-17 -3.517169674716024e-20  9.942012093746746e-01
-3.517169674716024e-20 -2.384651445895936e-17  4.087379004214217e-01
 9.942012093746746e-01  4.087379004214217e-01 -3.404176157789742e-17

-2.604289290289264e-17 -4.069750924536249e-20  9.997098129328350e-01
-4.069750924536249e-20 -2.221559526234914e-17  4.088079467962007e-01
 9.997098129328350e-01  4.088079467962007e-01 -3.424173562419832e-17

-2.604459420961386e-17 -3.843880045423336e-20  9.971945099307354e-01
-3.843880045423336e-20  8.634790565538976e-18  4.169099940598330e-01
 9.971945099307354e-01  4.169099940598330e-01 -3.416562338501795e-17

-2.602632747895049e-17 -5.105762657896614e-20  9.953064163234699e-01
-5.105762657896614e-20 -1.011309275004161e-17  4.114420878207284e-01
 9.953064163234699e-01  4.114420878207284e-01 -3.409631482705319e-17

-2.603935847169486e-17 -5.905075137654090e-20  9.960845620718619e-01
-5.905075137654090e-20 -1.755752158365689e-17  4.038238320948561e-01
 9.960845620718619e-01  4.038238320948561e-01 -3.412024682907400e-17

-2.598909759571741e-17 -6.179757760537922e-20  9.886465903538881e-01
-6.179757760537922e-20 -1.634632523344322e-17  4.154448412838541e-01
 9.886465903538881e-01  4.154448412838541e-01 -3.386530456370787e-17

-2.587349515884022e-17 -6.685742810794046e-20  9.749768044609103e-01
-6.685742810794046e-20 -2.289148546576374e-17  4.296338970681546e-01
 9.749768044609103e-01  4.296338970681546e-01 -3.338881620974028e-17

-2.605366161427562e-17 -7.185611403165030e-20  9.936016901132563e-01
-7.185611403165030e-20  1.580199977979454e-18  3.973609809011540e-01
 9.936016901132563e-01  3.973609809011540e-01 -3.404734804700718e-17

-2.603294606618218e-17 -7.256754398030026e-20  9.925245576370793e-01
-7.256754398030026e-20 -2.596448138094509e-17  3.916223856216232e-01
 9.925245576370793e-01  3.916223856216232e-01 -3.400659254291343e-17

-2.602989403933909e-17 -7.085014120595921e-20  9.824258847755354e-01
-7.085014120595921e-20 -2.323947002827474e-17  4.173802806203893e-01
 9.824258847755354e-01  4.173802806203893e-01 -3.369745114990424e-17

-2.604925465595814e-17 -6.719998983981287e-20  9.762332608838996e-01
-6.719998983981287e-20 -1.319100411635349e-17  4.244301916809740e-01
 9.762332608838996e-01  4.244301916809740e-01 -3.350128980055863e-17

-2.607870448495987e-17 -4.852341668399110e-20  9.828199791132476e-01
-4.852341668399110e-20 -1.021394140676716e-17  4.074708727967760e-01
 9.828199791132476e-01  4.074708727967760e-01 -3.374427554600815e-17

-2.615797646337880e-17 -3.698630598230767e-20  9.867226573408455e-01
-3.698630598230767e-20 -1.966423199640385e-17  4.010356888524124e-01
 9.867226573408455e-01  4.010356888524124e-01 -3.392854779108804e-17

-2.603806519760672e-17 -5.046918738647510e-22  9.651731846417678e-01
-5.046918738647510e-22 -2.495149880554332e-17  4.359560030335019e-01
 9.651731846417678e-01  4.359560030335019e-01 -3.323097631736592e-17

-2.614499903252172e-17  1.157419966357502e-20  9.766425562863502e-01
 1.157419966357502e-20 -1.077700639641731e-17  4.091566682053258e-01
 9.766425562863502e-01  4.091566682053258e-01 -3.365896081535266e-17

-2.603710654834318e-17  5.133797067766771e-20  9.654138631591636e-01
 5.133797067766771e-20 -2.467728522604116e-17  3.984618078820536e-01
 9.654138631591636e-01  3.984618078820536e-01 -3.329090558733197e-17

-2.656708956697131e-17  1.471220562179945e-19  9.979783128659276e-01
 1.471220562179945e-19 -2.398232041900212e-17  3.704258895835173e-01
 9.979783128659276e-01  3.704258895835173e-01 -3.447105365685090e-17

-2.603018432217302e-17  1.334841092160826e-19  9.180180577736129e-01
 1.334841092160826e-19 -2.965924441407571e-17  4.991387679205532e-01
 9.180180577736129e-01  4.991387679205532e-01 -3.184535890260193e-17

-2.664680197444175e-17  1.740641572705641e-19  9.709760028178156e-01
 1.740641572705641e-19 -1.677198186468757e-17  4.498847578039172e-01
 9.709760028178156e-01  4.498847578039172e-01 -3.366436177549362e-17

-2.660109761152026e-17  1.642561896164487e-19  9.728178528913858e-01
 1.642561896164487e-19 -2.358470237773080e-17  4.023574131752693e-01
 9.728178528913858e-01  4.023574131752693e-01 -3.368711725196767e-17

-2.644498416784812e-17  1.854855327893222e-19  9.565900101320541e-01
 1.854855327893222e-19 -1.385558770905856e-17  3.953293293702991e-01
 9.565900101320541e-01  3.953293293702991e-01 -3.304689104093689e-17

-2.698303244656216e-17  1.410265692076913e-19  9.676416746279421e-01
 1.410265692076913e-19 -6.233492817718424e-19  4.534195945039200e-01
 9.676416746279421e-01  4.534195945039200e-01 -3.357181135856073e-17

-2.732625917754169e-17  1.460875791879985e-19  9.852835315347008e-01
 1.460875791879985e-19 -3.106213406602792e-18  4.367835737263733e-01
 9.852835315347008e-01  4.367835737263733e-01 -3.419425497138821e-17

-2.794767212838494e-17  1.217130333160858e-19  1.051042927110810e+00
 1.217130333160858e-19  1.353092869409788e-18  3.223066496592838e-01
 1.051042927110810e+00  3.223066496592838e-01 -3.646673475140398e-17

-2.759933916366162e-17  1.197635976282859e-19  9.905051421905914e-01
 1.197635976282859e-19 -8.422926732261756e-18  4.322287179930330e-01
 9.905051421905914e-01  4.322287179930330e-01 -3.442771006033111e-17

-2.801236896223877e-17  1.340059533153932e-19  1.009630760443495e+00
 1.340059533153932e-19 -1.990560984525215e-17  4.227371912358112e-01
 1.009630760443495e+00  4.227371912358112e-01 -3.512690283820980e-17

-2.813426821849546e-17  1.647266784024014e-19  1.007723126470369e+00
 1.647266784024014e-19 -1.874729575135255e-17  4.013547262456283e-01
 1.007723126470369e+00  4.013547262456283e-01 -3.506345958599461e-17

-2.852120137906998e-17  1.685231505587455e-19  1.002529178090304e+00
 1.685231505587455e-19 -2.275564839747722e-17  4.523181069450632e-01
 1.002529178090304e+00  4.523181069450632e-01 -3.509181332676845e-17

-2.898548324362610e-17  1.569658717449326e-19  1.033295696289285e+00
 1.569658717449326e-19 -2.158694192894727e-17  4.366204974916116e-01
 1.033295696289285e+00  4.366204974916116e-01 -3.623566093811629e-17

-2.944300089943321e-17  1.988157823167575e-19  1.062248242550454e+00
 1.988157823167575e-19 -1.244623197362772e-17  4.106563428405599e-01
 1.062248242550454e+00  4.106563428405599e-01 -3.727619927412523e-17

-2.944900032504819e-17  3.413113446180796e-19  1.055551246471372e+00
 3.413113446180796e-19 -2.220886780693261e-17  4.378191038199536e-01
 1.055551246471372e+00  4.378191038199536e-01 -3.699683935798198e-17

-2.747367992109855e-17  5.765452993596621e-19  8.908344440151450e-01
 5.765452993596621e-19 -1.314021248970555e-17  5.391305455940779e-01
 8.908344440151450e-01  5.391305455940779e-01 -3.100496897895771e-17

-2.796960956398211e-17  2.573501841411731e-19  9.676207111371044e-01
 2.573501841411731e-19 -4.952016780935320e-18  3.425676628521644e-01
 9.676207111371044e-01  3.425676628521644e-01 -3.377235933596079e-17

-2.811705645709678e-17  3.804822595629403e-19  9.644625054281337e-01
 3.804822595629403e-19 -1.916879338206190e-17  3.589403673885475e-01
 9.644625054281337e-01  3.589403673885475e-01 -3.355119533162204e-17

-2.923767760425822e-17  9.655411890336082e-20  9.740465419481855e-01
 9.655411890336082e-20 -2.485118217333070e-17  5.180145998484907e-01
 9.740465419481855e-01  5.180145998484907e-01 -3.489936948330118e-17

-3.072391663520418e-17  2.534742586351305e-19  1.086783156807111e+00
 2.534742586351305e-19 -2.009374690297310e-17  4.332476863291257e-01
 1.086783156807111e+00  4.332476863291257e-01 -3.861062587241031e-17

-3.074942638170296e-17  3.669582003747569e-19  1.078319246644781e+00
 3.669582003747569e-19 -3.129010945570279e-17  4.220514067052782e-01
 1.078319246644781e+00  4.220514067052782e-01 -3.821316647371463e-17

-2.998257869111314e-17  4.065864162484974e-19  1.010119187638450e+00
 4.065864162484974e-19 -2.371055387826524e-17  4.521946587989040e-01
 1.010119187638450e+00  4.521946587989040e-01 -3.572558533507550e-17

-2.959296469605025e-17  4.134336397601423e-19  9.780223952467740e-01
 4.134336397601423e-19 -1.355672976879136e-17  4.491315858514474e-01
 9.780223952467740e-01  4.491315858514474e-01 -3.459315024396048e-17

-2.986060598464749e-17  4.046957795883137e-19  1.005404759715672e+00
 4.046957795883137e-19 -1.307481754086887e-17  3.787536088641696e-01
 1.005404759715672e+00  3.787536088641696e-01 -3.558495457785811e-17

-3.011962339702920e-17  4.870728523875031e-19  9.924952801409601e-01
 4.870728523875031e-19 -1.576301866265959e-17  4.241338492900742e-01
 9.924952801409601e-01  4.241338492900742e-01 -3.521679748481573e-17

-3.197931295653619e-17  5.031696228845649e-19  1.078292717706163e+00
 5.031696228845649e-19 -2.113640680375449e-17  4.154363159559826e-01
 1.078292717706163e+00  4.154363159559826e-01 -3.861976486762007e-17

-3.239767640706866e-17  6.254964774535737e-19  1.076023353455656e+00
 6.254964774535737e-19 -1.599972277407729e-17  4.135252146170088e-01
 1.076023353455656e+00  4.135252146170088e-01 -3.864295740005973e-17

-3.209675710907889e-17  6.659165223404602e-19  1.048579864839453e+00
 6.659165223404602e-19 -4.697595838521467e-17  3.786544957045163e-01
 1.048579864839453e+00  3.786544957045163e-01 -3.770938869792905e-17

-3.133269395201511e-17  8.107698010982004e-19  9.687010186744049e-01
 8.107698010982004e-19 -1.797381501712599e-17  4.222135378940776e-01
 9.687010186744049e-01  4.222135378940776e-01 -3.487898344027062e-17

-3.229530605178340e-17  9.108143642438836e-19  9.977289451956384e-01
 9.108143642438836e-19 -5.268193275881799e-18  4.234983711319330e-01
 9.977289451956384e-01  4.234983711319330e-01 -3.612318162630944e-17

-3.332619534084256e-17  1.050119341620357e-18  1.024647965845777e+00
 1.050119341620357e-18 -2.197858224269614e-17  4.167404226037107e-01
 1.024647965845777e+00  4.167404226037107e-01 -3.734309702416025e-17

-3.335672783242041e-17  1.184496187551550e-18  9.881707806421085e-01
 1.184496187551550e-18 -3.723872176411588e-17  4.323432000030937e-01
 9.881707806421085e-01  4.323432000030937e-01 -3.619496382877358e-17

-3.372456799799196e-17  1.270112522321420e-18  9.941805652452032e-01
 1.270112522321420e-18 -2.498043814742414e-17  4.369729222578635e-01
 9.941805652452032e-01  4.369729222578635e-01 -3.649933007996752e-17

-3.413067179118097e-17  1.370574198113141e-18  1.006424287552950e+00
 1.370574198113141e-18 -2.256161185880238e-17  4.229352866715065e-01
 1.006424287552950e+00  4.229352866715065e-01 -3.702390966247108e-17

-3.361492019441088e-17  1.531110537196290e-18  9.370445489642419e-01
 1.531110537196290e-18 -2.435974505424501e-17  4.751498731848103e-01
 9.370445489642419e-01  4.751498731848103e-01 -3.461382342937847e-17

-3.388638280996911e-17  1.695683983532440e-18  9.408308964230998e-01
 1.695683983532440e-18 -3.906439040672660e-17  3.785177647638621e-01
 9.408308964230998e-01  3.785177647638621e-01 -3.493242832869505e-17

-3.455592840910287e-17  1.994812176618629e-18  9.391244048475549e-01
 1.994812176618629e-18 -2.447945209118603e-17  3.809646010053090e-01
 9.391244048475549e-01  3.809646010053090e-01 -3.491781855177517e-17

-3.660061419784199e-17  1.863886737321061e-18  9.880910517737564e-01
 1.863886737321061e-18 -3.029822183932060e-17  4.660554692550495e-01
 9.880910517737564e-01  4.660554692550495e-01 -3.753532952424123e-17

-3.867167342450380e-17  2.211578786955627e-18  1.052287147242638e+00
 2.211578786955627e-18 -3.730958039567259e-17  4.241746114000697e-01
 1.052287147242638e+00  4.241746114000697e-01 -4.015103793361668e-17

-3.993884412883469e-17  2.667986620479922e-18  1.041214943281490e+00
 2.667986620479922e-18 -3.997215975238619e-17  4.069950295411568e-01
 1.041214943281490e+00  4.069950295411568e-01 -4.018746825651134e-17

-4.112907730541115e-17  3.017849477193060e-18  1.025535189026845e+00
 3.017849477193060e-18 -3.778347502924442e-17  4.340402638732139e-01
 1.025535189026845e+00  4.340402638732139e-01 -4.002880026212703e-17

-4.239553132124586e-17  3.397560570527229e-18  1.042738298211024e+00
 3.397560570527229e-18 -5.610815612436419e-17  3.948258046616617e-01
 1.042738298211024e+00  3.948258046616617e-01 -4.093804671981876e-17

-4.341652097275079e-17  3.642574700836895e-18  1.029458207315318e+00
 3.642574700836895e-18 -5.385906006335414e-17  4.238465288329774e-01
 1.029458207315318e+00  4.238465288329774e-01 -4.083721732349851e-17

-4.459007235170540e-17  3.908374026339449e-18  1.026359916958866e+00
 3.908374026339449e-18 -4.012834848944257e-17  4.458354091291236e-01
 1.026359916958866e+00  4.458354091291236e-01 -4.113139020478460e-17

-4.646923039937664e-17  4.331326002804950e-18  1.076716656265031e+00
 4.331326002804950e-18 -3.277350694431955e-17  3.941881590560656e-01
 1.076716656265031e+00  3.941881590560656e-01 -4.330230147737523e-17

-4.810798967809865e-17  4.626547346318607e-18  1.113207383132856e+00
 4.626547346318607e-18 -4.513835512264679e-17  4.083136799350638e-01
 1.113207383132856e+00  4.083136799350638e-01 -4.500514048260757e-17

-4.766798363012114e-17  4.792709505611544e-18  9.809199613083576e-01
 4.792709505611544e-18 -4.958274441224346e-17  5.623415413246674e-01
 9.809199613083576e-01  5.623415413246674e-01 -4.069415232756757e-17

-4.911314913286632e-17  5.605745660866352e-18  1.008558329574834e+00
 5.605745660866352e-18 -7.811195837792635e-17  4.397534514612240e-01
 1.008558329574834e+00  4.397534514612240e-01 -4.208780240436393e-17

-5.091609841074073e-17  6.615079163894382e-18  1.025007935416862e+00
 6.615079163894382e-18 -8.041985745180781e-17  3.256268463692568e-01
 1.025007935416862e+00  3.256268463692568e-01 -4.320928300131640e-17

-5.208624907596981e-17  6.846944106552485e-18  9.409071615489870e-01
 6.846944106552485e-18 -5.967539157492575e-17  4.895907907425485e-01
 9.409071615489870e-01  4.895907907425485e-01 -4.114699977119576e-17

-5.442066783421319e-17  7.329475092266229e-18  9.928766290148160e-01
 7.329475092266229e-18 -5.055161233775830e-17  4.755450688201447e-01
 9.928766290148160e-01  4.755450688201447e-01 -4.362735607700271e-17

-5.906494014818217e-17  8.970673338000971e-18  1.029788208967899e+00
 8.970673338000971e-18 -7.047239663202167e-17  4.266333765980355e-01
 1.029788208967899e+00  4.266333765980355e-01 -4.641734185032878e-17

-6.245489830947890e-17  1.057897855037024e-17  9.926705882909114e-01
 1.057897855037024e-17 -8.952676298466661e-17  4.381892411753052e-01
 9.926705882909114e-01  4.381892411753052e-01 -4.647311421411086e-17

-6.469123323381670e-17  1.154580553343726e-17  1.026707809206886e+00
 1.154580553343726e-17 -8.026936690362452e-17  3.899274995405490e-01
 1.026707809206886e+00  3.899274995405490e-01 -4.832672488237485e-17

-6.801638978136338e-17  1.317943312107467e-17  9.936460551021548e-01
 1.317943312107467e-17 -7.906672390025688e-17  4.115249737348493e-01
 9.936460551021548e-01  4.115249737348493e-01 -4.845209878327147e-17

-7.496900830131881e-17  1.636287305825323e-17  9.821746082536548e-01
 1.636287305825323e-17 -9.368013131376975e-17  4.237950171978745e-01
 9.821746082536548e-01  4.237950171978745e-01 -5.046277340675928e-17

-8.213710936979839e-17  1.984963815072147e-17  9.768156685953837e-01
 1.984963815072147e-17 -1.044054187530697e-16  4.052154062347516e-01
 9.768156685953837e-01  4.052154062347516e-01 -5.268059702240315e-17

-8.813395427248132e-17  2.253126453401231e-17  1.000754965860957e+00
 2.253126453401231e-17 -1.082954484423837e-16  3.773888049481768e-01
 1.000754965860957e+00  3.773888049481768e-01 -5.538091161957684e-17

-1.024959866283708e-16  2.735262828228130e-17  1.057901997091100e+00
 2.735262828228130e-17 -1.637362351715177e-16  4.276636451150065e-01
 1.057901997091100e+00  4.276636451150065e-01 -6.215028063793884e-17

-1.158284400937473e-16  3.383156977179737e-17  1.018591059793647e+00
 3.383156977179737e-17 -1.634136750177628e-16  4.594467758814253e-01
 1.018591059793647e+00  4.594467758814253e-01 -6.517675918658726e-17

-1.266756360347939e-16  4.071953607665812e-17  1.068364956772233e+00
 4.071953607665812e-17 -1.707862357250235e-16  3.524601894301058e-01
 1.068364956772233e+00  3.524601894301058e-01 -7.012567725780320e-17

-1.488377745080469e-16  5.252612375569880e-17  1.014701994912292e+00
 5.252612375569880e-17 -2.019317448502204e-16  4.237172729049233e-01
 1.014701994912292e+00  4.237172729049233e-01 -7.533975283111908e-17

-1.776826833059370e-16  6.771637721798343e-17  1.025443381490825e+00
 6.771637721798343e-17 -2.507209543711693e-16  4.287677751979723e-01
 1.025443381490825e+00  4.287677751979723e-01 -8.464607304979599e-17

-2.137466584517262e-16  8.727941361198955e-17  1.023670786905921e+00
 8.727941361198955e-17 -2.962886357769292e-16  4.282187769136808e-01
 1.023670786905921e+00  4.282187769136808e-01 -9.566242024184475e-17

-2.501873928315603e-16  1.071382529802938e-16  1.020425221281268e+00
 1.071382529802938e-16 -3.707179717041217e-16  4.262895994287809e-01
 1.020425221281268e+00  4.262895994287809e-01 -1.065419421741177e-16

-3.189746995204726e-16  1.442361762378817e-16  1.014888216189344e+00
 1.442361762378817e-16 -4.371793787558611e-16  4.237447609027449e-01
 1.014888216189344e+00  4.237447609027449e-01 -1.268684102484623e-16

-4.073809043433505e-16  1.903553346091906e-16  1.000076093133044e+00
 1.903553346091906e-16 -4.922213111476467e-16  4.358164547627808e-01
 1.000076093133044e+00  4.358164547627808e-01 -1.523247304279176e-16

-4.805176998080772e-16  2.277095519600029e-16  1.007548348812739e+00
 2.277095519600029e-16 -5.592682320047491e-16  4.207719009036488e-01
 1.007548348812739e+00  4.207719009036488e-01 -1.736377648376328e-16

-6.391217787662598e-16  3.042157300379734e-16  1.008724963868537e+00
 3.042157300379734e-16 -7.164059602743650e-16  4.167098548668901e-01
 1.008724963868537e+00  4.167098548668901e-01 -2.193404383108537e-16

-1.045698791898262e-15  4.715355261458166e-16  1.013759674291337e+00
 4.715355261458166e-16 -9.070431554466870e-16  4.194106434762014e-01
 1.013759674291337e+00  4.194106434762014e-01 -3.370570335609369e-16

-1.683692839275501e-15  6.610289437420597e-16  1.011749118384580e+00
 6.610289437420597e-16 -1.126437814752788e-15  4.234295404961448e-01
 1.011749118384580e+00  4.234295404961448e-01 -5.288168770206669e-16

-2.262313019688967e-15  7.860595617147155e-16  1.012235661842529e+00
 7.860595617147155e-16 -1.352975965029060e-15  4.219601525148390e-01
 1.012235661842529e+00  4.219601525148390e-01 -7.136886318761423e-16

-3.503055340359198e-15  8.912004621135348e-16  1.011695382426787e+00
 8.912004621135348e-16 -1.536946028195999e-15  4.206142244621253e-01
 1.011695382426787e+00  4.206142244621253e-01 -1.153991820930948e-15

-5.129964977141754e-15  7.906488155034739e-16  1.011676100312397e+00
 7.906488155034739e-16 -1.771304648411608e-15  4.222892078552762e-01
 1.011676100312397e+00  4.222892078552762e-01 -1.831278883349346e-15

-7.288251024936438e-15  4.212607046224773e-16  1.013148664985648e+00
 4.212607046224773e-16 -2.105601239740165e-15  4.203596169556963e-01
 1.013148664985648e+00  4.203596169556963e-01 -2.872407857962009e-15

-1.027323501481072e-14 -3.281704080491558e-16  1.012270694354591e+00
-3.281704080491558e-16 -2.510625281415918e-15  4.214623870563787e-01
 1.012270694354591e+00  4.214623870563787e-01 -4.507318049663057e-15

-1.486548915440165e-14 -1.779886208402356e-15  1.015113133169758e+00
-1.779886208402356e-15 -2.629588418823297e-15  4.198967665549114e-01
 1.015113133169758e+00  4.198967665549114e-01 -7.210085561128467e-15

 2.205004412892719e-14 -2.612858389507192e-14  1.015127894153067e+00
-2.612858389507192e-14  3.433513784559059e-14  4.206165707564421e-01
 1.015127894153067e+00  4.206165707564421e-01 -1.434935967257201e-16

-6.155213874381933e-13  1.471592200719831e-13  1.013855395840323e+00
 1.471592200719831e-13 -2.519012086227033e-13  4.209268459904014e-01
 1.013855395840323e+00  4.209268459904014e-01 -2.188269577795924e-13

 8.456207556468946e-14 -2.136975652675917e-14  1.011301998173423e+00
-2.136975652675917e-14  5.427009830856190e-14  4.157156566437413e-01
 1.011301998173423e+00  4.157156566437413e-01  1.691118849544902e-14

-6.495845655862494e-13  1.518221736446119e-13  1.012623952698374e+00
 1.518221736446119e-13 -3.313108878159127e-13  4.182559216175312e-01
 1.012623952698374e+00  4.182559216175312e-01 -1.621382828606232e-13

-9.245485669150044e-15  1.154498427525626e-14  1.008370289986888e+00
 1.154498427525626e-14  8.448834429822318e-16  4.158787069926296e-01
 1.008370289986888e+00  4.158787069926296e-01 -1.021767127830398e-14

-4.441216099720238e-15  9.287644292421093e-15  1.007380675150774e+00
 9.287644292421093e-15  7.001731167188785e-16  4.240474134649498e-01
 1.007380675150774e+00  4.240474134649498e-01 -4.897387491747718e-15

-3.372403728019414e-15  7.443210004365120e-15  1.008401400909953e+00
 7.443210004365120e-15  1.260548734684049e-15  4.218076202476851e-01
 1.008401400909953e+00  4.218076202476851e-01 -3.566372515276835e-15

-2.622261083832289e-15  4.479436930062911e-15  1.008082956173200e+00
 4.479436930062911e-15  1.562163814690972e-15  4.150733756837572e-01
 1.008082956173200e+00  4.150733756837572e-01 -2.097724870784565e-15

-1.744425038051681e-15  1.688998610634913e-15  1.008460396621322e+00
 1.688998610634913e-15  1.065897031531866e-15  4.168464617081954e-01
 1.008460396621322e+00  4.168464617081954e-01 -9.631788966320171e-16

-1.139388695667699e-15  6.735157442905047e-16  1.009329100842499e+00
 6.735157442905047e-16  5.518392995569626e-16  4.177370462896745e-01
 1.009329100842499e+00  4.177370462896745e-01 -5.297836412804914e-16

-8.204369883871675e-16  3.410601610060394e-16  1.006739746259984e+00
 3.410601610060394e-16  3.070920028018414e-16  4.161135343733479e-01
 1.006739746259984e+00  4.161135343733479e-01 -3.595533710304199e-16

-5.530222919587118e-16  1.464565173160483e-16  1.011070501837044e+00
 1.464565173160483e-16  1.358577820675007e-16  4.170598416466508e-01
 1.011070501837044e+00  4.170598416466508e-01 -2.367698456967190e-16

-3.646047490153258e-16  5.555421392809388e-17  1.016179837791083e+00
 5.555421392809388e-17  3.483788860089536e-17  4.187663529594489e-01
 1.016179837791083e+00  4.187663529594489e-01 -1.593878767809120e-16

-2.896401525175736e-16  3.073367060523629e-17  1.008827006128128e+00
 3.073367060523629e-17  2.575800034007937e-18  4.185815527928894e-01
 1.008827006128128e+00  4.185815527928894e-01 -1.301449955376980e-16

-2.527681181206603e-16  2.101158189639216e-17  1.006075159962983e+00
 2.101158189639216e-17 -8.538395804209638e-18  4.132182292383201e-01
 1.006075159962983e+00  4.132182292383201e-01 -1.161450235883803e-16

-2.033096212059115e-16  9.733598558426279e-18  1.006633212520581e+00
 9.733598558426279e-18 -2.522917434187057e-17  4.188897319653448e-01
 1.006633212520581e+00  4.188897319653448e-01 -9.766315536990964e-17

-1.618922018468360e-16  3.014483107613004e-18  1.018301862653432e+00
 3.014483107613004e-18 -3.423896397086441e-17  4.199074335620132e-01
 1.018301862653432e+00  4.199074335620132e-01 -8.279125619824406e-17

-1.157474535042021e-16  1.091876820916861e-18  1.019380036573499e+00
 1.091876820916861e-18 -2.364965339617212e-17  4.204962030530461e-01
 1.019380036573499e+00  4.204962030530461e-01 -7.383870686239231e-17

-1.074135821952299e-16 -1.917558025330887e-18  1.012637736565551e+00
-1.917558025330887e-18 -3.823991671515824e-17  4.216897038934558e-01
 1.012637736565551e+00  4.216897038934558e-01 -6.296317689449736e-17

-9.373341809743625e-17 -2.423541208395568e-18  1.008474982987930e+00
-2.423541208395568e-18 -3.791834535495313e-17  4.226756165826077e-01
 1.008474982987930e+00  4.226756165826077e-01 -5.794058617799088e-17

-8.305032296912934e-17 -2.555462705078664e-18  1.005225497570684e+00
-2.555462705078664e-18 -3.712979035900219e-17  4.216671799504954e-01
 1.005225497570684e+00  4.216671799504954e-01 -5.406669774376967e-17

-7.409674322319626e-17 -2.555901398128117e-18  1.003907444732903e+00
-2.555901398128117e-18 -3.620964113728748e-17  4.204392860922953e-01
 1.003907444732903e+00  4.204392860922953e-01 -5.088779834893181e-17

-6.728172321602151e-17 -2.428127239886524e-18  1.004449991735977e+00
-2.428127239886524e-18 -3.409832086485616e-17  4.182779524309741e-01
 1.004449991735977e+00  4.182779524309741e-01 -4.850809489932019e-17

-6.173638899682928e-17 -2.248230719543724e-18  1.007459262029937e+00
-2.248230719543724e-18 -3.197755979421461e-17  4.156599611123507e-01
 1.007459262029937e+00  4.156599611123507e-01 -4.666229445164490e-17

-5.810146099128060e-17 -2.104329440074314e-18  1.000018675789513e+00
-2.104329440074314e-18 -3.150451876199048e-17  4.283559235183401e-01
 1.000018675789513e+00  4.283559235183401e-01 -4.517515234206798e-17

-5.523540110754458e-17 -1.960207541814833e-18  9.944670842096511e-01
-1.960207541814833e-18 -3.218570166216858e-17  4.210246162473563e-01
 9.944670842096511e-01  4.210246162473563e-01 -4.401256465940509e-17

-5.173242309086145e-17 -1.804682295995453e-18  9.816990101396660e-01
-1.804682295995453e-18 -3.072777040611140e-17  4.080540079108810e-01
 9.816990101396660e-01  4.080540079108810e-01 -4.238772402360442e-17

-4.947262480367897e-17 -1.625667740056811e-18  9.956816983029908e-01
-1.625667740056811e-18 -3.156577703178100e-17  4.035448710570730e-01
 9.956816983029908e-01  4.035448710570730e-01 -4.202060433465667e-17

-4.772138693373527e-17 -1.505336153581565e-18  1.010288010464804e+00
-1.505336153581565e-18 -3.049489105421986e-17  4.242798838923634e-01
 1.010288010464804e+00  4.242798838923634e-01 -4.189094611884220e-17

-4.549947206114213e-17 -1.351610450200132e-18  1.015223480791175e+00
-1.351610450200132e-18 -2.721674306231159e-17  4.223546990981563e-01
 1.015223480791175e+00  4.223546990981563e-01 -4.124702160327160e-17

-4.303094690710379e-17 -1.238189217120107e-18  9.949790612688547e-01
-1.238189217120107e-18 -2.658228336044197e-17  4.007208596717008e-01
 9.949790612688547e-01  4.007208596717008e-01 -3.969351212314252e-17

-4.169461930110521e-17 -1.100279859302268e-18  1.019937781342682e+00
-1.100279859302268e-18 -2.715036188699149e-17  3.997563068798362e-01
 1.019937781342682e+00  3.997563068798362e-01 -4.000820534368856e-17

-4.100428761637807e-17 -9.993716506910157e-19  1.063826367021488e+00
-9.993716506910157e-19 -2.481470639147115e-17  4.247046499677114e-01
 1.063826367021488e+00  4.247046499677114e-01 -4.121644372421694e-17

-3.903211141575908e-17 -8.548937901292810e-19  1.034387340483603e+00
-8.548937901292810e-19 -2.564896151947816e-17  4.239788945821540e-01
 1.034387340483603e+00  4.239788945821540e-01 -3.955681003830458e-17

-3.651894536784616e-17 -8.836136991109180e-19  9.585847380286250e-01
-8.836136991109180e-19 -2.478216208087826e-17  3.964452176018313e-01
 9.585847380286250e-01  3.964452176018313e-01 -3.636438279300889e-17

-3.576980757765882e-17 -7.850145736237877e-19  9.736783833706437e-01
-7.850145736237877e-19 -2.269617504840884e-17  3.854548143083361e-01
 9.736783833706437e-01  3.854548143083361e-01 -3.651527125091197e-17

-3.549294659858228e-17 -7.128667675284878e-19  9.959381728899370e-01
-7.128667675284878e-19 -2.284708259317847e-17  4.364177327623396e-01
 9.959381728899370e-01  4.364177327623396e-01 -3.721105519573210e-17

-3.467649305022264e-17 -5.985325680440057e-19  1.010496629076691e+00
-5.985325680440057e-19 -2.432640047143514e-17  3.964376170985653e-01
 1.010496629076691e+00  3.964376170985653e-01 -3.734538029923088e-17

-3.440672388073060e-17 -5.594310366406091e-19  1.024668707243756e+00
-5.594310366406091e-19 -2.135906291600745e-17  3.920282792921425e-01
 1.024668707243756e+00  3.920282792921425e-01 -3.768554025088250e-17

-3.411962613542941e-17 -5.237902151452812e-19  1.029576770802624e+00
-5.237902151452812e-19 -2.116400167764959e-17  4.258601929134699e-01
 1.029576770802624e+00  4.258601929134699e-01 -3.780345219360572e-17

-3.357960579447767e-17 -4.552901197691593e-19  1.029419642488082e+00
-4.552901197691593e-19 -2.273967022601390e-17  4.245101805230944e-01
 1.029419642488082e+00  4.245101805230944e-01 -3.757408514082547e-17

-3.249674946702132e-17 -4.024458675853434e-19  9.744874447525799e-01
-4.024458675853434e-19 -2.117693566893626e-17  4.431423208333308e-01
 9.744874447525799e-01  4.431423208333308e-01 -3.545193998563917e-17

-3.409593930751579e-17 -4.859310024585805e-19  1.147020180712502e+00
-4.859310024585805e-19 -2.382884755538540e-17  2.690303889154236e-01
 1.147020180712502e+00  2.690303889154236e-01 -4.153816627871116e-17

-3.377808947071948e-17 -4.812844309926603e-19  1.130312959917634e+00
-4.812844309926603e-19 -2.353637028182732e-17  2.801789898387386e-01
 1.130312959917634e+00  2.801789898387386e-01 -4.088888614158128e-17

-3.167456703151120e-17 -4.249972965874707e-19  9.538433598109536e-01
-4.249972965874707e-19 -1.750689713860885e-17  4.485477445296141e-01
 9.538433598109536e-01  4.485477445296141e-01 -3.457616749579880e-17

-3.175626779102325e-17 -3.750773763362369e-19  9.961480368804876e-01
-3.750773763362369e-19 -2.095682366659121e-17  4.179810121438984e-01
 9.961480368804876e-01  4.179810121438984e-01 -3.593263187474044e-17

-3.123112465553783e-17 -3.626550018251630e-19  9.913843780489277e-01
-3.626550018251630e-19 -2.054526314715046e-17  4.124199138279232e-01
 9.913843780489277e-01  4.124199138279232e-01 -3.560039690853075e-17

-3.079922532271386e-17 -3.079686829770291e-19  9.962046133428796e-01
-3.079686829770291e-19 -1.876666351638961e-17  4.149382779831547e-01
 9.962046133428796e-01  4.149382779831547e-01 -3.560803461375999e-17

-3.060288286514672e-17 -2.969483711232212e-19  1.004793401893055e+00
-2.969483711232212e-19 -1.860642737227457e-17  4.136033885960563e-01
 1.004793401893055e+00  4.136033885960563e-01 -3.581347355145940e-17

-3.043120567759106e-17 -2.661768456271635e-19  1.005158325517369e+00
-2.661768456271635e-19 -2.138839943259793e-17  4.166366997991755e-01
 1.005158325517369e+00  4.166366997991755e-01 -3.576479058643029e-17

-3.019310865947293e-17 -2.824124265926265e-19  1.006501425458246e+00
-2.824124265926265e-19 -1.729163473758360e-17  4.092708576036260e-01
 1.006501425458246e+00  4.092708576036260e-01 -3.571493879333467e-17

-2.988600716754258e-17 -2.658328525726834e-19  1.000979184348933e+00
-2.658328525726834e-19 -1.898705961828194e-17  4.128303137709900e-01
 1.000979184348933e+00  4.128303137709900e-01 -3.544358863746424e-17

-2.984428382653625e-17 -2.386921165071141e-19  1.010782635452141e+00
-2.386921165071141e-19 -1.889097280560758e-17  4.073807438038775e-01
 1.010782635452141e+00  4.073807438038775e-01 -3.574235908488280e-17

-2.977050276754747e-17 -2.330416019842687e-19  1.014239848685364e+00
-2.330416019842687e-19 -1.949928623680697e-17  4.086996769557957e-01
 1.014239848685364e+00  4.086996769557957e-01 -3.582393322551970e-17

-2.936673747373161e-17 -2.242424988135934e-19  1.005192575434550e+00
-2.242424988135934e-19 -1.897076389911755e-17  4.089340794855857e-01
 1.005192575434550e+00  4.089340794855857e-01 -3.540079589334774e-17

-2.907974633808813e-17 -2.291745544540925e-19  9.975551550890694e-01
-2.291745544540925e-19 -1.564189609329791e-17  4.273642294256315e-01
 9.975551550890694e-01  4.273642294256315e-01 -3.505422294395951e-17

-2.884518221401086e-17 -1.876183566924073e-19  9.961614992306247e-01
-1.876183566924073e-19 -1.737430982306737e-17  4.233318463959575e-01
 9.961614992306247e-01  4.233318463959575e-01 -3.493796496202036e-17

-2.847021765632998e-17 -1.984684669949028e-19  9.878116833504690e-01
-1.984684669949028e-19 -1.841030475933123e-17  4.068285141728021e-01
 9.878116833504690e-01  4.068285141728021e-01 -3.454425468830346e-17

-2.861143518343297e-17 -1.912164018183798e-19  1.009475840202293e+00
-1.912164018183798e-19 -1.699490169725041e-17  3.911777868086913e-01
 1.009475840202293e+00  3.911777868086913e-01 -3.527095073591189e-17

-2.845014938187443e-17 -1.875269959511926e-19  9.966551234261404e-01
-1.875269959511926e-19 -1.698744366207924e-17  4.321791374260476e-01
 9.966551234261404e-01  4.321791374260476e-01 -3.482727463700522e-17

-2.856336403166400e-17 -1.965117761915042e-19  1.014758545708958e+00
-1.965117761915042e-19 -1.626615029325216e-17  4.127075427515346e-01
 1.014758545708958e+00  4.127075427515346e-01 -3.542180879685533e-17

-2.831873528362419e-17 -2.101921357333810e-19  1.010837371632398e+00
-2.101921357333810e-19 -1.635868198630707e-17  4.033524183224907e-01
 1.010837371632398e+00  4.033524183224907e-01 -3.523136877198504e-17

-2.784847432501460e-17 -2.106721778006124e-19  9.790716107567026e-01
-2.106721778006124e-19 -1.612477409436622e-17  4.265098614600740e-01
 9.790716107567026e-01  4.265098614600740e-01 -3.405040173502935e-17

-2.763391434724781e-17 -1.546623482463100e-19  9.801341898916480e-01
-1.546623482463100e-19 -2.003440733086951e-17  4.151413564491795e-01
 9.801341898916480e-01  4.151413564491795e-01 -3.402009985030936e-17

-2.848395066702796e-17 -1.470859367922784e-19  1.071281247541622e+00
-1.470859367922784e-19 -2.014215392937137e-17  3.282102040555273e-01
 1.071281247541622e+00  3.282102040555273e-01 -3.714541185981852e-17

-2.803294509741766e-17 -1.678232141899349e-19  1.029805768660561e+00
-1.678232141899349e-19 -2.010421114577029e-17  3.807293910456684e-01
 1.029805768660561e+00  3.807293910456684e-01 -3.573329588171006e-17

-2.732194914453067e-17 -1.757616932590150e-19  9.680382184553333e-01
-1.757616932590150e-19 -1.757174056688991e-17  4.540722957551120e-01
 9.680382184553333e-01  4.540722957551120e-01 -3.357134840076670e-17

-2.736398378130563e-17 -1.860671356177046e-19  9.916893994243946e-01
-1.860671356177046e-19 -1.654407355589762e-17  4.026595898815125e-01
 9.916893994243946e-01  4.026595898815125e-01 -3.429708449168264e-17

-2.715700386838741e-17 -1.775692568057962e-19  9.830149740066445e-01
-1.775692568057962e-19 -1.846256095596908e-17  4.104161879114942e-01
 9.830149740066445e-01  4.104161879114942e-01 -3.394833444527129e-17

-2.726656154277894e-17 -2.194771581610597e-19  9.959023823396451e-01
-2.194771581610597e-19 -1.413074873989360e-17  4.051276391572819e-01
 9.959023823396451e-01  4.051276391572819e-01 -3.438736843332477e-17

-2.713671712703492e-17 -1.966183918198778e-19  9.886780298736115e-01
-1.966183918198778e-19 -1.575443869256429e-17  4.267883027176945e-01
 9.886780298736115e-01  4.267883027176945e-01 -3.413985273169406e-17

-2.712110141976099e-17 -1.943298131942089e-19  9.958729565226034e-01
-1.943298131942089e-19 -1.506756554004011e-17  4.125002131858809e-01
 9.958729565226034e-01  4.125002131858809e-01 -3.435866602562804e-17

-2.700830312571164e-17 -2.229074483010251e-19  9.927006434038008e-01
-2.229074483010251e-19 -1.610312252305151e-17  4.114884959735172e-01
 9.927006434038008e-01  4.114884959735172e-01 -3.421356383480688e-17

-2.683910723708689e-17 -2.357297182277439e-19  9.901959089765213e-01
-2.357297182277439e-19 -1.217672402987972e-17  4.086522046209660e-01
 9.901959089765213e-01  4.086522046209660e-01 -3.408460563263068e-17

-2.681447362683120e-17 -2.321156990671478e-19  9.892640267250377e-01
-2.321156990671478e-19 -1.670574471643407e-17  4.242917301632064e-01
 9.892640267250377e-01  4.242917301632064e-01 -3.404510925562062e-17

-2.667762504643551e-17 -2.441518587329149e-19  9.911664076547393e-01
-2.441518587329149e-19 -1.126683198676634e-17  4.143990770977212e-01
 9.911664076547393e-01  4.143990770977212e-01 -3.408075222446555e-17

-2.650280563466914e-17 -2.455917884450026e-19  9.885010188314155e-01
-2.455917884450026e-19 -1.414092489026457e-17  4.039687039790978e-01
 9.885010188314155e-01  4.039687039790978e-01 -3.394341154810032e-17

-2.648851601572062e-17 -2.382086763955641e-19  9.895793395216682e-01
-2.382086763955641e-19 -1.735342207350198e-17  4.094274488295249e-01
 9.895793395216682e-01  4.094274488295249e-01 -3.399263873439182e-17

-2.646834885780983e-17 -2.677888770249618e-19  9.912993491977622e-01
-2.677888770249618e-19 -1.310716303745932e-17  4.174923378601509e-01
 9.912993491977622e-01  4.174923378601509e-01 -3.405968553563175e-17

-2.646199983837854e-17 -2.198359886811565e-19  9.989868323369250e-01
-2.198359886811565e-19 -1.400424552436680e-17  4.022989704722988e-01
 9.989868323369250e-01  4.022989704722988e-01 -3.431274320939523e-17

-2.629540991195269e-17 -2.266192519881970e-19  9.931194427623458e-01
-2.266192519881970e-19 -1.484864835648813e-17  3.978692303982149e-01
 9.931194427623458e-01  3.978692303982149e-01 -3.409896806572323e-17

-2.598666393843183e-17 -2.213045326344937e-19  9.714979612903660e-01
-2.213045326344937e-19 -1.401618675156888e-17  4.122658241754413e-01
 9.714979612903660e-01  4.122658241754413e-01 -3.331586604340996e-17

-2.584885809581999e-17 -2.061983037174307e-19  9.711980433474617e-01
-2.061983037174307e-19 -1.836046683077235e-17  4.037789302492578e-01
 9.711980433474617e-01  4.037789302492578e-01 -3.331005363227114e-17

-2.617415101359794e-17 -1.830062637503851e-19  1.005351829839408e+00
-1.830062637503851e-19 -1.580072679918413e-17  3.706871966523748e-01
 1.005351829839408e+00  3.706871966523748e-01 -3.452704802823205e-17

-2.603674111305668e-17 -1.492941454702433e-19  9.891204303122739e-01
-1.492941454702433e-19 -1.355353221308416e-17  4.038429826986413e-01
 9.891204303122739e-01  4.038429826986413e-01 -3.400167064431740e-17

-2.580858954368532e-17 -1.267382855865148e-19  9.790963280663766e-01
-1.267382855865148e-19 -1.638987586753325e-17  4.062677869365193e-01
 9.790963280663766e-01  4.062677869365193e-01 -3.366571666512079e-17

-2.553455589434430e-17 -1.156966262651016e-19  9.692969434449893e-01
-1.156966262651016e-19 -1.296168160288216e-17  3.792251741797735e-01
 9.692969434449893e-01  3.792251741797735e-01 -3.330200030168458e-17

-2.533213170688744e-17 -6.489791257692509e-20  9.569762508128881e-01
-6.489791257692509e-20 -1.601601028640659e-17  3.951590956379670e-01
 9.569762508128881e-01  3.951590956379670e-01 -3.288085890350161e-17

-2.540732651068779e-17 -5.516973520433658e-20  9.611709324180214e-01
-5.516973520433658e-20 -8.648950998589886e-18  4.055561828619267e-01
 9.611709324180214e-01  4.055561828619267e-01 -3.305425398910746e-17

-2.543454266497320e-17 -1.337483274330379e-20  9.644810715390922e-01
-1.337483274330379e-20 -1.329861921679810e-17  4.011273413857304e-01
 9.644810715390922e-01  4.011273413857304e-01 -3.316974912336787e-17

-2.544170536750202e-17  4.280645911140811e-21  9.693128738188813e-01
 4.280645911140811e-21 -1.389316927232945e-17  3.922650951773584e-01
 9.693128738188813e-01  3.922650951773584e-01 -3.331574798629091e-17

-2.533561030883974e-17 -2.348523942512807e-20  9.640509247842829e-01
-2.348523942512807e-20 -9.724175916026346e-18  3.914249983199911e-01
 9.640509247842829e-01  3.914249983199911e-01 -3.309216991058277e-17

-2.568636124011676e-17  1.752540315480002e-20  9.928136169760191e-01
 1.752540315480002e-20 -1.762575225788306e-17  3.640963264934886e-01
 9.928136169760191e-01  3.640963264934886e-01 -3.408911159198566e-17

-2.551891336790478e-17 -1.598911369030204e-20  9.738979112557665e-01
-1.598911369030204e-20 -1.685745461702132e-17  3.978043191780308e-01
 9.738979112557665e-01  3.978043191780308e-01 -3.342961826403809e-17

-2.554988938924918e-17  9.045819364735693e-21  9.794322172872815e-01
 9.045819364735693e-21 -1.514136809727351e-17  4.135754792845908e-01
 9.794322172872815e-01  4.135754792845908e-01 -3.362011187990725e-17

-2.534066043184532e-17  7.663270075020504e-21  9.656441569624867e-01
 7.663270075020504e-21 -1.801850692328593e-17  4.110091157406759e-01
 9.656441569624867e-01  4.110091157406759e-01 -3.307838195926363e-17

-2.498305238182465e-17  8.302834769558147e-21  9.532456765961136e-01
 8.302834769558147e-21 -1.783466140718988e-17  3.971802092566903e-01
 9.532456765961136e-01  3.971802092566903e-01 -3.260004765566448e-17

-2.485229422590349e-17  3.101272410521050e-20  9.582654301878165e-01
 3.101272410521050e-20 -1.737619754462067e-17  3.582377956397397e-01
 9.582654301878165e-01  3.582377956397397e-01 -3.262857978789155e-17

-2.497619403151653e-17 -6.248235216083971e-20  9.445171414644035e-01
-6.248235216083971e-20 -1.142135808372869e-17  4.357121960516418e-01
 9.445171414644035e-01  4.357121960516418e-01 -3.235759786107635e-17

-2.534598056997701e-17 -5.962185650223827e-20  9.673860558027700e-01
-5.962185650223827e-20 -1.293123570310742e-17  4.473868622439848e-01
 9.673860558027700e-01  4.473868622439848e-01 -3.321132790295572e-17

-2.525554127955614e-17 -4.906946476388413e-20  9.776001536604527e-01
-4.906946476388413e-20 -1.300196296768281e-17  3.778007238102197e-01
 9.776001536604527e-01  3.778007238102197e-01 -3.340349948322679e-17

-2.583837363796076e-17  1.991609597441042e-20  1.028694577680379e+00
 1.991609597441042e-20 -1.664071044915530e-17  3.385402447978145e-01
 1.028694577680379e+00  3.385402447978145e-01 -3.515567025507942e-17

-2.587593353524047e-17 -7.005679280099871e-20  1.009187495066877e+00
-7.005679280099871e-20 -1.206166343729406e-17  4.240914927966932e-01
 1.009187495066877e+00  4.240914927966932e-01 -3.464784658456453e-17

-2.576801114340214e-17 -3.791038105194306e-20  1.002265033209271e+00
-3.791038105194306e-20 -1.476139805602534e-17  4.361540017789872e-01
 1.002265033209271e+00  4.361540017789872e-01 -3.434330924270420e-17

-2.579904990065607e-17 -1.550595732116181e-19  1.026318894577170e+00
-1.550595732116181e-19 -1.488145364291700e-17  3.595023733335875e-01
 1.026318894577170e+00  3.595023733335875e-01 -3.517905152576440e-17

-2.488860060649786e-17 -1.586528902483122e-19  9.610784599665630e-01
-1.586528902483122e-19 -8.094722926373583e-18  3.987616748848449e-01
 9.610784599665630e-01  3.987616748848449e-01 -3.279381814948256e-17

-2.465481987538556e-17 -1.314553027312074e-19  9.553525772171307e-01
-1.314553027312074e-19 -1.145643471012709e-17  3.891710747837417e-01
 9.553525772171307e-01  3.891710747837417e-01 -3.255918430560300e-17

-2.487478605919376e-17 -8.331697176259197e-20  9.758451322703808e-01
-8.331697176259197e-20 -1.413906995937188e-17  3.785880707809795e-01
 9.758451322703808e-01  3.785880707809795e-01 -3.329592209945382e-17

-2.476682169416987e-17 -1.010287050736434e-19  9.609442731349621e-01
-1.010287050736434e-19 -1.032535184633032e-17  4.111566755317305e-01
 9.609442731349621e-01  4.111566755317305e-01 -3.281671626891820e-17

-2.492932701830704e-17 -3.350777315092002e-20  9.763024704029971e-01
-3.350777315092002e-20 -1.594100782975422e-17  4.030418096630451e-01
 9.763024704029971e-01  4.030418096630451e-01 -3.339983497521574e-17

-2.475291111734054e-17  1.091094011194033e-20  9.645016385380112e-01
 1.091094011194033e-20 -2.066990169213085e-17  3.938097258038276e-01
 9.645016385380112e-01  3.938097258038276e-01 -3.297397519267340e-17

-2.449691848064783e-17  6.951024831473354e-20  9.543300735817434e-01
 6.951024831473354e-20 -2.022659274259117e-17  3.907404585103607e-01
 9.543300735817434e-01  3.907404585103607e-01 -3.260501580641725e-17

-2.464870716691439e-17 -1.919330551461604e-21  9.678867228543412e-01
-1.919330551461604e-21 -1.372412006516849e-17  3.826260206777205e-01
 9.678867228543412e-01  3.826260206777205e-01 -3.308103346183515e-17

-2.455314359352442e-17  6.108367764888252e-20  9.483734880580663e-01
 6.108367764888252e-20 -1.602007673302928e-17  4.196565650747117e-01
 9.483734880580663e-01  4.196565650747117e-01 -3.241345278248280e-17

-2.464126101324431e-17  6.033803772441062e-20  9.658341476860912e-01
 6.033803772441062e-20 -1.661445561240173e-17  3.970747383029199e-01
 9.658341476860912e-01  3.970747383029199e-01 -3.301477600790539e-17

-2.451248038673572e-17  8.868431082695926e-20  9.566901601556822e-01
 8.868431082695926e-20 -1.925101123095932e-17  3.983470040837073e-01
 9.566901601556822e-01  3.983470040837073e-01 -3.266865940715521e-17

-2.454192229691048e-17  1.558431819649290e-21  9.644458685661795e-01
 1.558431819649290e-21 -1.463671125609565e-17  3.938954710928789e-01
 9.644458685661795e-01  3.938954710928789e-01 -3.293663591437478e-17

-2.483002621168275e-17  7.777517263340944e-20  9.723177021321096e-01
 7.777517263340944e-20 -1.540412891189245e-17  3.908884565201244e-01
 9.723177021321096e-01  3.908884565201244e-01 -3.321251924217163e-17

-2.476340955662946e-17  6.390062484767293e-20  9.705227164139080e-01
 6.390062484767293e-20 -1.330230937561344e-17  3.883161713705364e-01
 9.705227164139080e-01  3.883161713705364e-01 -3.313914402667758e-17

-1.983796340121792e-17 -1.775151943756284e-18  9.563135673874981e-01
-1.775151943756284e-18 -9.193851479256394e-18  4.050062898090357e-01
 9.563135673874981e-01  4.050062898090357e-01 -3.264475405004573e-17

-1.885865046968685e-17 -2.070019636264080e-18  9.441997289471765e-01
-2.070019636264080e-18 -1.385596107487291e-17  4.218306547931698e-01
 9.441997289471765e-01  4.218306547931698e-01 -3.221421632278578e-17

-5.639361798497935e-17  1.179061625668516e-17  9.696529355036539e-01
 1.179061625668516e-17 -1.769842200071625e-17  3.919133740890433e-01
 9.696529355036539e-01  3.919133740890433e-01 -3.311607137509885e-17

-4.540851515645492e-17  7.730961276603554e-18  9.662570277598381e-01
 7.730961276603554e-18 -2.103978834723487e-17  4.052041110944833e-01
 9.662570277598381e-01  4.052041110944833e-01 -3.300465295175776e-17

-2.207844265110035e-17 -9.636448678246432e-19  9.689480920738693e-01
-9.636448678246432e-19 -6.381519740091358e-18  3.927045819345004e-01
 9.689480920738693e-01  3.927045819345004e-01 -3.309624700255313e-17

-2.434558889741578e-17 -2.819901126080025e-20  9.718923495350525e-01
-2.819901126080025e-20 -1.682666396487987e-17  3.900705817466011e-01
 9.718923495350525e-01  3.900705817466011e-01 -3.319860260675182e-17

-2.462835752949693e-17  9.894018574079811e-20  9.688914424311467e-01
 9.894018574079811e-20 -1.941937617523425e-17  3.970308081079044e-01
 9.688914424311467e-01  3.970308081079044e-01 -3.310505154752129e-17

-2.441316485853676e-17 -2.888811146787673e-20  9.638984734387610e-01
-2.888811146787673e-20 -1.315598951518458e-17  4.056625909479384e-01
 9.638984734387610e-01  4.056625909479384e-01 -3.292612855884504e-17

-2.458280266525097e-17  2.421124992584280e-20  9.805473648581360e-01
 2.421124992584280e-20 -1.396813660780387e-17  3.773077782423482e-01
 9.805473648581360e-01  3.773077782423482e-01 -3.350441189974359e-17

-2.450080340405021e-17 -4.229361611549224e-20  9.734708789675576e-01
-4.229361611549224e-20 -1.245916553811318e-17  3.907024951426569e-01
 9.734708789675576e-01  3.907024951426569e-01 -3.327081646096721e-17

-2.430229772641947e-17  1.173750452626304e-19  9.508362516015065e-01
 1.173750452626304e-19 -1.979423175907603e-17  4.244973157358266e-01
 9.508362516015065e-01  4.244973157358266e-01 -3.247926783481592e-17

-2.431208414432873e-17  4.958801575176493e-21  9.602914213114786e-01
 4.958801575176493e-21 -7.025524772780207e-18  3.968826591560796e-01
 9.602914213114786e-01  3.968826591560796e-01 -3.280371952263237e-17

-2.448880719735057e-17 -1.140620867256445e-20  9.812941554881546e-01
-1.140620867256445e-20 -9.180815339187939e-18  3.581680836827192e-01
 9.812941554881546e-01  3.581680836827192e-01 -3.353153648895450e-17

-2.455296246137071e-17  1.204972092939113e-20  9.796518407896184e-01
 1.204972092939113e-20 -7.704605545624301e-18  3.740208639474131e-01
 9.796518407896184e-01  3.740208639474131e-01 -3.349074103008465e-17

-2.514056894005134e-17  2.439594327573335e-19  1.007389013448333e+00
 2.439594327573335e-19 -1.998010115034361e-17  4.142981305154157e-01
 1.007389013448333e+00  4.142981305154157e-01 -3.462510473766604e-17

-2.490362194462890e-17  5.747395553132279e-20  9.932366019116220e-01
 5.747395553132279e-20 -8.169750891213063e-18  4.014838731786781e-01
 9.932366019116220e-01  4.014838731786781e-01 -3.407816581767822e-17

-2.445782538132376e-17  1.079795936179314e-19  9.730736826304064e-01
 1.079795936179314e-19 -1.548900133403888e-17  3.774851101777742e-01
 9.730736826304064e-01  3.774851101777742e-01 -3.335573809063253e-17

-2.436428563525810e-17  2.326049489860439e-19  9.706979385573310e-01
 2.326049489860439e-19 -1.985363829985509e-17  3.738159903490660e-01
 9.706979385573310e-01  3.738159903490660e-01 -3.322651629580832e-17

-2.445302902341443e-17  1.009805643325462e-19  9.744233285550236e-01
 1.009805643325462e-19 -1.085888399283412e-17  3.787341404523972e-01
 9.744233285550236e-01  3.787341404523972e-01 -3.336951943732740e-17

-2.464703047723495e-17  7.202668270311200e-20  9.820953501756176e-01
 7.202668270311200e-20 -6.921467677278976e-18  3.969129511081900e-01
 9.820953501756176e-01  3.969129511081900e-01 -3.367027898440034e-17

-2.455815264128447e-17  1.039487583732020e-20  9.592519011474198e-01
 1.039487583732020e-20 -5.913185331613416e-18  4.545444022478445e-01
 9.592519011474198e-01  4.545444022478445e-01 -3.289416856716477e-17

-2.449161095414169e-17  1.781277251261665e-19  9.572154775673046e-01
 1.781277251261665e-19 -1.121985528238031e-17  4.456040813541322e-01
 9.572154775673046e-01  4.456040813541322e-01 -3.278405393581146e-17

-2.489262734621324e-17  9.316683560748639e-20  1.008509078779011e+00
 9.316683560748639e-20 -1.347447295205150e-17  3.520543601150693e-01
 1.008509078779011e+00  3.520543601150693e-01 -3.461511201156347e-17

-2.440387653949714e-17  1.422907497240945e-19  9.677430217503826e-01
 1.422907497240945e-19 -1.138643776083376e-17  3.914942464254609e-01
 9.677430217503826e-01  3.914942464254609e-01 -3.310461796203817e-17

-2.467731572491852e-17  9.925701115861175e-20  9.749682587988899e-01
 9.925701115861175e-20 -1.092643460594143e-17  4.162308393263625e-01
 9.749682587988899e-01  4.162308393263625e-01 -3.339093233841520e-17

-2.475157420897592e-17  2.204987533088621e-19  9.802845124786780e-01
 2.204987533088621e-19 -1.928592553252641e-17  4.249588520685730e-01
 9.802845124786780e-01  4.249588520685730e-01 -3.358784481423184e-17

-2.493646616736782e-17  8.226185907335552e-20  9.981425384598817e-01
 8.226185907335552e-20 -1.238450880708065e-17  4.063881567665376e-01
 9.981425384598817e-01  4.063881567665376e-01 -3.419436156837748e-17

-2.491513972058428e-17  2.351371851676303e-19  9.969373008867598e-01
 2.351371851676303e-19 -2.139021166519971e-17  4.026638251932961e-01
 9.969373008867598e-01  4.026638251932961e-01 -3.411926702911751e-17

-2.484371288737001e-17  3.103066424909419e-19  9.942613707154718e-01
 3.103066424909419e-19 -2.803370213269203e-17  4.046169998783537e-01
 9.942613707154718e-01  4.046169998783537e-01 -3.401349325129866e-17

-2.491339741680625e-17  4.216874695530989e-20  9.982327591297041e-01
 4.216874695530989e-20 -1.777422360258463e-17  4.117366526801280e-01
 9.982327591297041e-01  4.117366526801280e-01 -3.416070672435871e-17

-2.495442121523854e-17  2.522867970199337e-19  9.951272206012701e-01
 2.522867970199337e-19 -2.230730460790702e-17  4.173117155862803e-01
 9.951272206012701e-01  4.173117155862803e-01 -3.405744916078053e-17

-2.488204620779391e-17 -5.598417797483406e-20  9.975147577659532e-01
-5.598417797483406e-20 -8.451054030333172e-18  4.094629825780740e-01
 9.975147577659532e-01  4.094629825780740e-01 -3.413938788320550e-17

-2.490767237769760e-17  1.795388301273965e-19  9.969770774707410e-01
 1.795388301273965e-19 -2.028124403399876e-17  4.124881591524640e-01
 9.969770774707410e-01  4.124881591524640e-01 -3.412957451338092e-17

-2.495805605767426e-17  4.911221500526586e-20  9.999771513743794e-01
 4.911221500526586e-20 -1.117044598643412e-17  4.152174128093254e-01
 9.999771513743794e-01  4.152174128093254e-01 -3.425501612184969e-17

-2.506594239805311e-17  3.053849958039430e-19  1.006710000054908e+00
 3.053849958039430e-19 -2.834171987911179e-17  4.139089714062726e-01
 1.006710000054908e+00  4.139089714062726e-01 -3.451280529086723e-17

-2.509727907148422e-17  1.042343005584563e-19  1.008279930717857e+00
 1.042343005584563e-19 -8.949879393178188e-18  4.136817783829046e-01
 1.008279930717857e+00  4.136817783829046e-01 -3.459238436179485e-17

-2.512036599573624e-17  9.106983842275303e-20  1.008040960200264e+00
 9.106983842275303e-20 -1.112182039975323e-17  4.132718867955825e-01
 1.008040960200264e+00  4.132718867955825e-01 -3.460238996186943e-17

-2.517816883016691e-17  3.613402737307938e-19  1.010437762914843e+00
 3.613402737307938e-19 -2.703112837617633e-17  4.141764296712814e-01
 1.010437762914843e+00  4.141764296712814e-01 -3.469816625036233e-17

-2.527074617404108e-17  4.784401919897212e-21  1.012139197653670e+00
 4.784401919897212e-21 -5.522231038036486e-18  4.227001690931389e-01
 1.012139197653670e+00  4.227001690931389e-01 -3.478019758060328e-17

-2.533714409601015e-17  3.418136735717628e-19  1.014375094386783e+00
 3.418136735717628e-19 -2.207076049739897e-17  4.231139726746956e-01
 1.014375094386783e+00  4.231139726746956e-01 -3.486481318132290e-17

-2.562274353907328e-17  5.013162822516228e-19  1.028928380380892e+00
 5.013162822516228e-19 -3.270167049017350e-17  4.217172021528264e-01
 1.028928380380892e+00  4.217172021528264e-01 -3.538080019499838e-17

-2.604544655086065e-17 -1.243650706502485e-19  1.056796084379446e+00
-1.243650706502485e-19 -3.230730088109546e-18  4.105608297221393e-01
 1.056796084379446e+00  4.105608297221393e-01 -3.632566555568134e-17

-2.609979170822068e-17  3.148352435045262e-19  1.056359578260545e+00
 3.148352435045262e-19 -2.713093145869318e-17  4.298246798687502e-01
 1.056359578260545e+00  4.298246798687502e-01 -3.629983104150193e-17

-2.626570570118628e-17  1.100154559667686e-19  1.067738591818072e+00
 1.100154559667686e-19 -1.657837656410225e-17  4.398076689451643e-01
 1.067738591818072e+00  4.398076689451643e-01 -3.666073281179529e-17

-2.602037158848619e-17  1.593128257564635e-19  1.051429471607792e+00
 1.593128257564635e-19 -2.734071598690998e-17  4.481422286306785e-01
 1.051429471607792e+00  4.481422286306785e-01 -3.603554022835945e-17

-2.577762915624994e-17 -2.006168641009368e-19  1.036402025639990e+00
-2.006168641009368e-19 -5.091058442356755e-18  4.514774743896548e-01
 1.036402025639990e+00  4.514774743896548e-01 -3.543665540594155e-17

-2.557695043602208e-17 -1.221736392072607e-19  1.036716354498171e+00
-1.221736392072607e-19 -1.375558843123374e-17  4.298906021548772e-01
 1.036716354498171e+00  4.298906021548772e-01 -3.533155062860865e-17

-2.533878901295200e-17 -1.808606127743489e-19  1.025794792423507e+00
-1.808606127743489e-19 -2.053688441301110e-17  4.403356842305483e-01
 1.025794792423507e+00  4.403356842305483e-01 -3.490107195498480e-17

-2.560471173835126e-17 -3.149035834532719e-19  1.047843614227296e+00
-3.149035834532719e-19 -1.224524505921223e-17  4.206280072753502e-01
 1.047843614227296e+00  4.206280072753502e-01 -3.576305212109393e-17

-2.641295011525224e-17 -3.526650062491872e-19  1.098408060121579e+00
-3.526650062491872e-19 -5.414032461592735e-18  4.152914915970582e-01
 1.098408060121579e+00  4.152914915970582e-01 -3.778541890753527e-17

-2.634825331202448e-17 -3.731594346054068e-19  1.095022441665621e+00
-3.731594346054068e-19  6.261289977333817e-18  4.453384196616721e-01
 1.095022441665621e+00  4.453384196616721e-01 -3.763377363754387e-17

-2.526649195507401e-17  2.894470299702730e-19  1.041990815169423e+00
 2.894470299702730e-19 -2.898138840584454e-17  4.442858087450076e-01
 1.041990815169423e+00  4.442858087450076e-01 -3.553168060530709e-17

-2.207336997152764e-17 -3.808951197058330e-20  8.408908165605077e-01
-3.808951197058330e-20 -1.313872943023907e-17  4.681818508756976e-01
 8.408908165605077e-01  4.681818508756976e-01 -2.829110989786405e-17

-2.222760190364300e-17  2.816262394166073e-19  9.354889605419318e-01
 2.816262394166073e-19 -3.781224594099340e-17  1.831577609240359e-01
 9.354889605419318e-01  1.831577609240359e-01 -3.023975667887802e-17

-2.287615525591999e-17 -1.009195464786582e-19  9.139789774436580e-01
-1.009195464786582e-19  3.594195528580369e-18  3.928850535235691e-01
 9.139789774436580e-01  3.928850535235691e-01 -3.043420914664571e-17

-2.626326405729386e-17 -1.111009824132497e-19  1.080121591431994e+00
-1.111009824132497e-19 -1.602670635062503e-17  5.076269659365815e-01
 1.080121591431994e+00  5.076269659365815e-01 -3.794025407886187e-17

-2.358452245530277e-17  3.994335689189068e-19  9.322703042600859e-01
 3.994335689189068e-19 -2.714795419441185e-17  3.678052654559688e-01
 9.322703042600859e-01  3.678052654559688e-01 -3.165574808962321e-17

-2.512619026247456e-17  5.994384314532876e-19  1.041347314227436e+00
 5.994384314532876e-19 -2.669114732003237e-17  3.176823057885583e-01
 1.041347314227436e+00  3.176823057885583e-01 -3.499048859547051e-17

-2.874815898506706e-17 -5.857364937498290e-20  1.202307871687663e+00
-5.857364937498290e-20 -2.238169089910366e-17  4.648202278465795e-01
 1.202307871687663e+00  4.648202278465795e-01 -4.289234483921501e-17

-2.830932105011049e-17  3.801138872934909e-19  1.203202325844105e+00
 3.801138872934909e-19 -1.511578750518898e-17  4.065931404745543e-01
 1.203202325844105e+00  4.065931404745543e-01 -4.188329276016920e-17

-2.634014783155461e-17 -3.006565910890649e-19  1.098986585547042e+00
-3.006565910890649e-19 -1.686026401878882e-17  3.225601820691977e-01
 1.098986585547042e+00  3.225601820691977e-01 -3.811140714895038e-17

-2.463083241999530e-17 -2.363028271452609e-19  9.917975196975839e-01
-2.363028271452609e-19 -1.033274092949784e-17  3.660249298137283e-01
 9.917975196975839e-01  3.660249298137283e-01 -3.409822332865358e-17

-2.400796236745713e-17 -6.834577138640919e-20  9.454189499357208e-01
-6.834577138640919e-20 -1.122503640635328e-18  4.382418793456180e-01
 9.454189499357208e-01  4.382418793456180e-01 -3.226718132212909e-17

-2.432947433134895e-17  2.877364967611387e-19  9.794462730147330e-01
 2.877364967611387e-19 -1.454426811823209e-17  4.139327035217502e-01
 9.794462730147330e-01  4.139327035217502e-01 -3.346412302703342e-17

-2.447017006732085e-17  5.657002526378713e-20  9.895589108852906e-01
 5.657002526378713e-20 -4.329752010632506e-18  4.199756498256041e-01
 9.895589108852906e-01  4.199756498256041e-01 -3.384943568140086e-17

-2.435463093634396e-17 -2.339589789935333e-19  9.821160726653483e-01
-2.339589789935333e-19  1.088885606644345e-17  4.200004467843878e-01
 9.821160726653483e-01  4.200004467843878e-01 -3.358223321001926e-17

-2.422221856285205e-17 -1.912630564063289e-19  9.772383160455355e-01
-1.912630564063289e-19  6.672483539245334e-18  4.082920048571980e-01
 9.772383160455355e-01  4.082920048571980e-01 -3.339173889738066e-17

-2.431557493922107e-17  4.492268211405377e-19  9.878838301650548e-01
 4.492268211405377e-19 -1.537052272579514e-17  3.873276826150804e-01
 9.878838301650548e-01  3.873276826150804e-01 -3.373980906809878e-17

-2.456614548179153e-17  2.475144690950134e-19  9.958768281201241e-01
 2.475144690950134e-19 -1.303776315544795e-17  4.276176585776316e-01
 9.958768281201241e-01  4.276176585776316e-01 -3.406224009648847e-17

-2.447154314444667e-17 -1.822057386619924e-19  9.944639943010171e-01
-1.822057386619924e-19 -2.622783446223379e-18  4.237074419862459e-01
 9.944639943010171e-01  4.237074419862459e-01 -3.395780597953568e-17

-2.380812712969550e-17  1.894348589155660e-19  9.629172834591849e-01
 1.894348589155660e-19 -1.794954269086352e-17  3.897844682075533e-01
 9.629172834591849e-01  3.897844682075533e-01 -3.280375022374487e-17

-2.372375655253921e-17  3.744601113042645e-19  9.591119429424642e-01
 3.744601113042645e-19 -1.573499060256711e-17  3.987045944183961e-01
 9.591119429424642e-01  3.987045944183961e-01 -3.263023515127647e-17

-2.361373113595040e-17  5.842291394824926e-20  9.552263605033295e-01
 5.842291394824926e-20 -1.496037819535584e-17  4.152194697377206e-01
 9.552263605033295e-01  4.152194697377206e-01 -3.248811962785984e-17

-2.313544001792790e-17  7.127798250278898e-20  9.296171536799855e-01
 7.127798250278898e-20  2.506233208977743e-19  4.164930512523020e-01
 9.296171536799855e-01  4.164930512523020e-01 -3.154191667075514e-17

-2.257731710662616e-17 -8.567030600653818e-20  9.023886872368905e-01
-8.567030600653818e-20 -2.442121684599065e-17  3.913667808541920e-01
 9.023886872368905e-01  3.913667808541920e-01 -3.055288451523431e-17

-2.332520317504046e-17 -1.042625450658228e-19  9.761616080321278e-01
-1.042625450658228e-19 -2.094669924971431e-17  3.101395380543859e-01
 9.761616080321278e-01  3.101395380543859e-01 -3.314327563388987e-17

-2.255591213219724e-17  3.684574171954170e-20  8.976259456050056e-01
 3.684574171954170e-20 -3.038742366678035e-17  4.044071139282038e-01
 8.976259456050056e-01  4.044071139282038e-01 -3.034307730286926e-17

-2.329954621268146e-17  8.837641361259221e-20  9.381685194173363e-01
 8.837641361259221e-20 -1.270154380140377e-18  4.165286687806569e-01
 9.381685194173363e-01  4.165286687806569e-01 -3.187250323320867e-17

-2.367556716442680e-17  8.209873530082956e-20  9.593787727082327e-01
 8.209873530082956e-20  7.125401572043675e-18  4.062926948799045e-01
 9.593787727082327e-01  4.062926948799045e-01 -3.262760630403209e-17

-2.382784447756171e-17 -1.710441760689237e-19  9.667783474190469e-01
-1.710441760689237e-19 -5.054354010489767e-17  4.063917094121414e-01
 9.667783474190469e-01  4.063917094121414e-01 -3.289630889784114e-17

-2.398433235257244e-17  2.804643210970388e-19  9.756497617691932e-01
 2.804643210970388e-19  1.464556326888667e-17  4.037848787931951e-01
 9.756497617691932e-01  4.037848787931951e-01 -3.320942460828633e-17

-2.407621309766424e-17  1.137789739372374e-19  9.787578228846883e-01
 1.137789739372374e-19  2.132200192570509e-17  4.050274925721390e-01
 9.787578228846883e-01  4.050274925721390e-01 -3.331427422191639e-17

-2.413277980477824e-17  1.332796623562005e-19  9.825541827371833e-01
 1.332796623562005e-19 -1.557798833367795e-17  4.018972988185083e-01
 9.825541827371833e-01  4.018972988185083e-01 -3.344355943094275e-17

-2.418832827875886e-17  1.363655761045325e-20  9.842650447857246e-01
 1.363655761045325e-20 -5.386332319479979e-18  4.028607104164712e-01
 9.842650447857246e-01  4.028607104164712e-01 -3.349765445743416e-17

-2.678018819627611e-17  2.730586604913855e-19  1.114646532518111e+00
 2.730586604913855e-19 -1.633691994529901e-17  3.540043068188219e-01
 1.114646532518111e+00  3.540043068188219e-01 -3.847191957497970e-17

-2.587271923809503e-17  3.708643397717872e-19  1.049751562436539e+00
 3.708643397717872e-19 -1.403903810756589e-17  3.925344364022693e-01
 1.049751562436539e+00  3.925344364022693e-01 -3.604060431841305e-17

-2.782805748702629e-17  1.786144598782733e-19  1.174474873191614e+00
 1.786144598782733e-19 -1.601439529554519e-17  3.800324418385523e-01
 1.174474873191614e+00  3.800324418385523e-01 -4.106492903505586e-17

-2.706660691823767e-17 -9.890252455604872e-19  1.029613135687087e+00
-9.890252455604872e-19 -1.328633006552738e-17  6.423553156809254e-01
 1.029613135687087e+00  6.423553156809254e-01 -4.063516413112793e-17

-1.749183955129297e-17 -1.779781147828410e-18  1.925049067587356e-01
-1.779781147828410e-18 -5.509139216895345e-18  1.128850586443991e+00
 1.925049067587356e-01  1.128850586443991e+00 -1.800385405976548e-17

-2.453543701646389e-17  9.186017412699914e-19  1.051429525882837e+00
 9.186017412699914e-19 -1.365031286589486e-17  2.865649780205066e-01
 1.051429525882837e+00  2.865649780205066e-01 -3.348532952470387e-17

-2.340029453225775e-17  1.900007306075061e-18  1.096933273938581e+00
 1.900007306075061e-18 -1.508115113799348e-17  4.114863053447940e-02
 1.096933273938581e+00  4.114863053447940e-02 -3.026794948204853e-17

-2.209921357873377e-17  3.992995124023516e-19  8.458673940675784e-01
 3.992995124023516e-19 -1.022861273943481e-17  4.731432822138180e-01
 8.458673940675784e-01  4.731432822138180e-01 -2.829116988413672e-17

-2.416726973811778e-17  3.036807325902321e-19  9.695152661081190e-01
 3.036807325902321e-19 -1.264592055675600e-17  4.278774202869208e-01
 9.695152661081190e-01  4.278774202869208e-01 -3.295884337181637e-17

-2.501969405406780e-17  3.147095258283820e-19  1.013080523371299e+00
 3.147095258283820e-19 -1.351743274237153e-17  4.187267283597442e-01
 1.013080523371299e+00  4.187267283597442e-01 -3.460044202666869e-17

-2.523916707511909e-17  3.209902378225780e-19  1.021267189201701e+00
 3.209902378225780e-19 -1.348582283859759e-17  4.169957506189682e-01
 1.021267189201701e+00  4.169957506189682e-01 -3.494342476455692e-17

-2.511986804673345e-17  3.284447084921569e-19  1.008034977570130e+00
 3.284447084921569e-19 -1.333834945160587e-17  4.236016183579481e-01
 1.008034977570130e+00  4.236016183579481e-01 -3.449140716990358e-17

-2.532466440658341e-17  2.008310215471155e-19  1.025249805463750e+00
 2.008310215471155e-19 -1.466092847606307e-17  3.725093905161064e-01
 1.025249805463750e+00  3.725093905161064e-01 -3.521163370457889e-17

-2.574229612000394e-17  3.583346488034617e-19  1.035088157140310e+00
 3.583346488034617e-19 -1.393371141397344e-17  4.335629828029908e-01
 1.035088157140310e+00  4.335629828029908e-01 -3.556818466276628e-17

-2.650592197401027e-17  4.053832067506482e-19  1.080100931245321e+00
 4.053832067506482e-19 -1.430055399191123e-17  4.500776890917997e-01
 1.080100931245321e+00  4.500776890917997e-01 -3.721895494478148e-17

-2.607356886787913e-17  3.075091621266513e-19  1.056653230504595e+00
 3.075091621266513e-19 -1.493249242121990e-17  4.127431353974860e-01
 1.056653230504595e+00  4.127431353974860e-01 -3.636727248644385e-17

-2.578744789979282e-17  2.789850083477789e-19  1.039527464363232e+00
 2.789850083477789e-19 -1.497509715117430e-17  4.060368393441885e-01
 1.039527464363232e+00  4.060368393441885e-01 -3.572878999455671e-17

-2.646472666041913e-17  2.595280144154853e-19  1.080010730840121e+00
 2.595280144154853e-19 -1.550015639042330e-17  4.098803580925416e-01
 1.080010730840121e+00  4.098803580925416e-01 -3.727080272088072e-17

-2.602039011318098e-17 -6.025562470516461e-20  9.975853837665546e-01
-6.025562470516461e-20 -1.337899513754791e-17  5.907098184368249e-01
 9.975853837665546e-01  5.907098184368249e-01 -3.533325293268066e-17

-2.641093736091727e-17  3.576468499490079e-19  1.107462338821943e+00
 3.576468499490079e-19 -1.575978076741446e-17  3.422569906345799e-01
 1.107462338821943e+00  3.422569906345799e-01 -3.777953211717734e-17

-2.568317964870829e-17  4.617612347983533e-19  1.086216317282021e+00
 4.617612347983533e-19 -1.638226721559757e-17  2.670638279981724e-01
 1.086216317282021e+00  2.670638279981724e-01 -3.651930158943290e-17

-2.551297514050773e-17  2.233629483533404e-19  1.025434862845618e+00
 2.233629483533404e-19 -1.394762602164185e-17  4.502106484166452e-01
 1.025434862845618e+00  4.502106484166452e-01 -3.506272003353924e-17

-2.600055499428920e-17  1.535425798533910e-19  1.055885938988665e+00
 1.535425798533910e-19 -1.455279261345180e-17  4.429708594329507e-01
 1.055885938988665e+00  4.429708594329507e-01 -3.620942821243658e-17

-2.574017871679931e-17  1.350458220354060e-19  1.044101508531935e+00
 1.350458220354060e-19 -1.474404539951390e-17  4.227870980979803e-01
 1.044101508531935e+00  4.227870980979803e-01 -3.569053396800855e-17

-2.557322292284516e-17  1.483324801041985e-19  1.037576703257880e+00
 1.483324801041985e-19 -1.458349268714721e-17  4.084330646547004e-01
 1.037576703257880e+00  4.084330646547004e-01 -3.539955409710705e-17

-2.558571759692707e-17  1.291554676487249e-19  1.029399767276671e+00
 1.291554676487249e-19 -1.428124478096129e-17  4.425916302416474e-01
 1.029399767276671e+00  4.425916302416474e-01 -3.514884605809075e-17

-2.584149219386963e-17  1.241426775910461e-19  1.045758493249906e+00
 1.241426775910461e-19 -1.455657334196584e-17  4.382559032530410e-01
 1.045758493249906e+00  4.382559032530410e-01 -3.575127495028385e-17

-2.590115247934707e-17  1.204679057548122e-19  1.047862900977869e+00
 1.204679057548122e-19 -1.445799450209541e-17  4.379193456742719e-01
 1.047862900977869e+00  4.379193456742719e-01 -3.582558947915318e-17

-2.586444035816073e-17  1.262840806694933e-19  1.046826389217741e+00
 1.262840806694933e-19 -1.456736255413828e-17  4.281332165376386e-01
 1.046826389217741e+00  4.281332165376386e-01 -3.576600453072502e-17

-2.591323624650350e-17  1.113912023358115e-19  1.045790650205901e+00
 1.113912023358115e-19 -1.468718193116649e-17  4.371307181326976e-01
 1.045790650205901e+00  4.371307181326976e-01 -3.573792067483398e-17

-2.599936395248689e-17  1.206411782391029e-19  1.053336242028226e+00
 1.206411782391029e-19 -1.461244215264886e-17  4.347550194278221e-01
 1.053336242028226e+00  4.347550194278221e-01 -3.601444339282270e-17

-2.597961595773584e-17  1.125149132977198e-19  1.050144347393432e+00
 1.125149132977198e-19 -1.460541975076878e-17  4.422043924375637e-01
 1.050144347393432e+00  4.422043924375637e-01 -3.590756500682885e-17

-2.592288976631851e-17  1.170389265716234e-19  1.044761102372168e+00
 1.170389265716234e-19 -1.436220456397846e-17  4.413779277719296e-01
 1.044761102372168e+00  4.413779277719296e-01 -3.569995366281633e-17

-2.567948050920193e-17  1.092965106232261e-19  1.034436889872838e+00
 1.092965106232261e-19 -1.476938250614337e-17  4.317968380065156e-01
 1.034436889872838e+00  4.317968380065156e-01 -3.528633444864438e-17

-2.570253832711833e-17  1.149076648114835e-19  1.037441001201109e+00
 1.149076648114835e-19 -1.444676742709975e-17  4.285878377238226e-01
 1.037441001201109e+00  4.285878377238226e-01 -3.538645449760194e-17

-2.572560324921614e-17  1.150955005543689e-19  1.030070340475522e+00
 1.150955005543689e-19 -1.398684071919304e-17  4.536046267892552e-01
 1.030070340475522e+00  4.536046267892552e-01 -3.515262783167156e-17

-2.575930981325010e-17  1.108769050624255e-19  1.038264708842443e+00
 1.108769050624255e-19 -1.417661283543012e-17  4.407827667256820e-01
 1.038264708842443e+00  4.407827667256820e-01 -3.543407056679778e-17

-2.554325324298392e-17  1.072989197125739e-19  1.025479327951167e+00
 1.072989197125739e-19 -1.411952864514044e-17  4.368598127875536e-01
 1.025479327951167e+00  4.368598127875536e-01 -3.493702306635653e-17

-2.555056768655630e-17  1.000597671741070e-19  1.026165126118724e+00
 1.000597671741070e-19 -1.428369012186748e-17  4.324325331032914e-01
 1.026165126118724e+00  4.324325331032914e-01 -3.494670022873072e-17

-2.578718300272355e-17  9.721482903812974e-20  1.038600906119384e+00
 9.721482903812974e-20 -1.427308556723643e-17  4.320837380746756e-01
 1.038600906119384e+00  4.320837380746756e-01 -3.540634180907084e-17

-2.596803254174041e-17  9.729669669226248e-20  1.047314464592315e+00
 9.729669669226248e-20 -1.444092171097944e-17  4.435670190573211e-01
 1.047314464592315e+00  4.435670190573211e-01 -3.575980597786581e-17

-2.585819725612116e-17  1.022490906434053e-19  1.037904534991887e+00
 1.022490906434053e-19 -1.425469529156041e-17  4.421939968257331e-01
 1.037904534991887e+00  4.421939968257331e-01 -3.540955045336792e-17

-2.556703372517670e-17  1.259092481524649e-19  1.023885453445923e+00
 1.259092481524649e-19 -1.421417271377518e-17  4.290330044929460e-01
 1.023885453445923e+00  4.290330044929460e-01 -3.486229629631199e-17

-2.564180433659769e-17  1.226510662071331e-19  1.028997835834877e+00
 1.226510662071331e-19 -1.434495795255824e-17  4.257073686644046e-01
 1.028997835834877e+00  4.257073686644046e-01 -3.505984452935020e-17

-2.574532391202119e-17  1.305210670808558e-19  1.029878697211284e+00
 1.305210670808558e-19 -1.418283243223714e-17  4.438498520273848e-01
 1.029878697211284e+00  4.438498520273848e-01 -3.512629190754441e-17

-2.583646324265998e-17  1.358852400320953e-19  1.036551235685530e+00
 1.358852400320953e-19 -1.432822226518368e-17  4.356073420924696e-01
 1.036551235685530e+00  4.356073420924696e-01 -3.537281617704253e-17

-2.578878530783885e-17  1.356267878123774e-19  1.032679821815585e+00
 1.356267878123774e-19 -1.442981525031235e-17  4.310367891463480e-01
 1.032679821815585e+00  4.310367891463480e-01 -3.522798102027417e-17

-2.591781121623425e-17  1.396575798611461e-19  1.041767639322688e+00
 1.396575798611461e-19 -1.453858360368710e-17  4.228138901025552e-01
 1.041767639322688e+00  4.228138901025552e-01 -3.556016991041373e-17

-2.600179039830023e-17  1.462144765692926e-19  1.045939167339613e+00
 1.462144765692926e-19 -1.453053012622585e-17  4.261510125325769e-01
 1.045939167339613e+00  4.261510125325769e-01 -3.572447013120694e-17

-2.588423106712166e-17  1.629647735452041e-19  1.037654150589487e+00
 1.629647735452041e-19 -1.442269411926871e-17  4.262056250092949e-01
 1.037654150589487e+00  4.262056250092949e-01 -3.543521180800114e-17

-2.573650084493154e-17  1.938362559884601e-19  1.032779217383163e+00
 1.938362559884601e-19 -1.451062287244375e-17  4.114732769335764e-01
 1.032779217383163e+00  4.114732769335764e-01 -3.524501675705809e-17

-2.563485569762882e-17  1.994345539718997e-19  1.016147050857813e+00
 1.994345539718997e-19 -1.401324594747856e-17  4.358525912627004e-01
 1.016147050857813e+00  4.358525912627004e-01 -3.469979010089161e-17

-2.535169563324272e-17  2.023291868396280e-19  1.003534217966438e+00
 2.023291868396280e-19 -1.377071960715785e-17  4.429155590168474e-01
 1.003534217966438e+00  4.429155590168474e-01 -3.428594673862503e-17

-2.467938803111300e-17  2.093561086107953e-19  9.733631647854318e-01
 2.093561086107953e-19 -1.423553956199326e-17  3.923619739401374e-01
 9.733631647854318e-01  3.923619739401374e-01 -3.308002410626020e-17

-2.510289162826726e-17  9.517272081941427e-20  1.008760256270222e+00
 9.517272081941427e-20 -1.534796391311530e-17  3.436192211322330e-01
 1.008760256270222e+00  3.436192211322330e-01 -3.446419877088949e-17

-2.587618591224421e-17  2.665457920966718e-19  1.037877044863130e+00
 2.665457920966718e-19 -1.423084871679311e-17  4.355825914711058e-01
 1.037877044863130e+00  4.355825914711058e-01 -3.548520795094432e-17

-2.650142708379912e-17  1.256417796487553e-19  1.079252116500033e+00
 1.256417796487553e-19 -1.496532724030437e-17  4.158498807019077e-01
 1.079252116500033e+00  4.158498807019077e-01 -3.707155703882266e-17

-2.555843867676363e-17  1.232979010547833e-19  1.029458304556742e+00
 1.232979010547833e-19 -1.475932666026915e-17  3.895092948524892e-01
 1.029458304556742e+00  3.895092948524892e-01 -3.508614798623138e-17

-2.517234442625809e-17  1.671423540098889e-20  1.014527282842455e+00
 1.671423540098889e-20 -1.389675681721093e-17  4.011662867464004e-01
 1.014527282842455e+00  4.011662867464004e-01 -3.465610576356691e-17

-2.045902513969946e-17 -1.078988707048503e-18  5.784935001455043e-01
-1.078988707048503e-18 -7.202775474874961e-18  7.935799034074437e-01
 5.784935001455043e-01  7.935799034074437e-01 -2.306356771313936e-17

-2.282851329335889e-17  6.168707419677146e-19  9.516831868946903e-01
 6.168707419677146e-19 -1.369314903335505e-17  2.368214400948601e-01
 9.516831868946903e-01  2.368214400948601e-01 -3.017455668812613e-17

-2.150852517940633e-17  2.760959232530087e-19  8.467441651022123e-01
 2.760959232530087e-19 -1.340936460215952e-17  2.599154717052978e-01
 8.467441651022123e-01  2.599154717052978e-01 -2.709931760322590e-17

-2.381788127653274e-17  2.221643895512292e-19  9.376320678940079e-01
 2.221643895512292e-19 -1.139201153119853e-17  4.536818053773664e-01
 9.376320678940079e-01  4.536818053773664e-01 -3.154573530232578e-17

-2.399587867665178e-17  1.006848985996995e-19  9.385567671777453e-01
 1.006848985996995e-19 -1.279219776984900e-17  4.092111801855017e-01
 9.385567671777453e-01  4.092111801855017e-01 -3.172509901340867e-17

-2.451762515683328e-17  1.328777769938326e-19  9.608711400680778e-01
 1.328777769938326e-19 -1.322122932238342e-17  4.145539007431459e-01
 9.608711400680778e-01  4.145539007431459e-01 -3.256673873268981e-17

-2.511307204110206e-17  1.461819875344004e-19  9.896369647640975e-01
 1.461819875344004e-19 -1.392046571088695e-17  4.089152621676421e-01
 9.896369647640975e-01  4.089152621676421e-01 -3.366064750247907e-17

-2.568626182411703e-17  1.575984269977955e-19  1.016597552891691e+00
 1.575984269977955e-19 -1.449070767284438e-17  4.097454278709490e-01
 1.016597552891691e+00  4.097454278709490e-01 -3.468906140603988e-17

-2.607159026979728e-17  1.429675880995926e-19  1.035996445405079e+00
 1.429675880995926e-19 -1.516190652063389e-17  3.990686004387451e-01
 1.035996445405079e+00  3.990686004387451e-01 -3.543472943826204e-17

-2.678276704280354e-17  1.460055732190345e-19  1.074507096191492e+00
 1.460055732190345e-19 -1.547029701244899e-17  4.087983320581955e-01
 1.074507096191492e+00  4.087983320581955e-01 -3.688823762319585e-17

-2.635695636786977e-17  4.773279964936194e-20  1.031742794325838e+00
 4.773279964936194e-20 -1.449804380726314e-17  4.660139473250032e-01
 1.031742794325838e+00  4.660139473250032e-01 -3.551724168047484e-17

-2.578868355844956e-17  1.834762967541477e-19  1.026392977074194e+00
 1.834762967541477e-19 -1.542819023215276e-17  3.708064665161219e-01
 1.026392977074194e+00  3.708064665161219e-01 -3.486918582534507e-17

-2.514206421944902e-17  1.455738011806230e-19  9.790643303777085e-01
 1.455738011806230e-19 -1.467900119601838e-17  4.001269467015220e-01
 9.790643303777085e-01  4.001269467015220e-01 -3.322845530029017e-17

-2.526748351244319e-17  1.107961064039071e-19  9.778943952254964e-01
 1.107961064039071e-19 -1.423929098565362e-17  4.326820578677617e-01
 9.778943952254964e-01  4.326820578677617e-01 -3.326709705238259e-17

-2.592893689747020e-17  9.542442113558696e-20  1.017331238683906e+00
 9.542442113558696e-20 -1.497288035663340e-17  4.166184838664639e-01
 1.017331238683906e+00  4.166184838664639e-01 -3.473288974984835e-17

-2.588363061945803e-17  1.196518756504482e-19  9.858917795214830e-01
 1.196518756504482e-19 -1.383695339375292e-17  4.991306196233874e-01
 9.858917795214830e-01  4.991306196233874e-01 -3.368263670114887e-17

-2.648087359022867e-17  1.223590475681205e-19  1.040743423480700e+00
 1.223590475681205e-19 -1.514160678016008e-17  4.277995834585284e-01
 1.040743423480700e+00  4.277995834585284e-01 -3.561319458005686e-17

-2.668131945354943e-17  1.031842332280523e-19  1.069819915631002e+00
 1.031842332280523e-19 -1.612257500189361e-17  3.738584443967557e-01
 1.069819915631002e+00  3.738584443967557e-01 -3.658229975771958e-17

-2.634650831931222e-17  7.961620829521536e-20  1.036221339865997e+00
 7.961620829521536e-20 -1.563201126677078e-17  4.061570760927297e-01
 1.036221339865997e+00  4.061570760927297e-01 -3.542079113716857e-17

-2.644835623022908e-17  5.643501558375842e-20  1.030839878820935e+00
 5.643501558375842e-20 -1.513752659671287e-17  4.382345531307612e-01
 1.030839878820935e+00  4.382345531307612e-01 -3.526490599423985e-17

-2.647003267942140e-17  6.887943218865488e-20  1.032763193201781e+00
 6.887943218865488e-20 -1.513052794622446e-17  4.440092959816258e-01
 1.032763193201781e+00  4.440092959816258e-01 -3.534402333366800e-17

-2.632571791111685e-17  6.862340056838351e-20  1.027839277925619e+00
 6.862340056838351e-20 -1.538314069135010e-17  4.229329628958325e-01
 1.027839277925619e+00  4.229329628958325e-01 -3.510165674960780e-17

-2.621130865339466e-17  6.166618664447416e-20  1.019887204534228e+00
 6.166618664447416e-20 -1.535259573530811e-17  4.200125126806104e-01
 1.019887204534228e+00  4.200125126806104e-01 -3.479216596745249e-17

-2.624636586150098e-17  7.307219966592657e-20  1.019757456633488e+00
 7.307219966592657e-20 -1.522702371724647e-17  4.272831178154594e-01
 1.019757456633488e+00  4.272831178154594e-01 -3.480401688115628e-17

-2.624714947495376e-17  8.995302345989255e-20  1.014621688586414e+00
 8.995302345989255e-20 -1.513593593223056e-17  4.309485035692280e-01
 1.014621688586414e+00  4.309485035692280e-01 -3.464707121819199e-17

-2.628345822669609e-17  1.203608619064068e-19  1.013671289471464e+00
 1.203608619064068e-19 -1.526927282444167e-17  4.253675988060296e-01
 1.013671289471464e+00  4.253675988060296e-01 -3.465241559947034e-17

-2.651988573008743e-17  1.378795733625670e-19  1.025436443698414e+00
 1.378795733625670e-19 -1.547795393420032e-17  4.223459899396361e-01
 1.025436443698414e+00  4.223459899396361e-01 -3.513229212784934e-17

-2.650790336862666e-17  1.238767535983963e-19  1.017038387141820e+00
 1.238767535983963e-19 -1.502487643276694e-17  4.518293352304659e-01
 1.017038387141820e+00  4.518293352304659e-01 -3.491003001540449e-17

-2.593810477337478e-17  1.306659672955602e-19  9.882330214937604e-01
 1.306659672955602e-19 -1.518537409931506e-17  4.229879218664643e-01
 9.882330214937604e-01  4.229879218664643e-01 -3.375390171955419e-17

-2.568618450201563e-17  1.095083359344973e-19  9.686176317548666e-01
 1.095083359344973e-19 -1.516446197623676e-17  4.240923413315476e-01
 9.686176317548666e-01  4.240923413315476e-01 -3.306067364174336e-17

-2.652967200446503e-17  8.349233340900795e-20  1.014152827306169e+00
 8.349233340900795e-20 -1.572283296055319e-17  4.281617322382300e-01
 1.014152827306169e+00  4.281617322382300e-01 -3.475578481794916e-17

-2.747879322341030e-17  5.671587684766557e-20  1.065673997682485e+00
 5.671587684766557e-20 -1.651296877202616e-17  4.233808031270144e-01
 1.065673997682485e+00  4.233808031270144e-01 -3.666612168326138e-17

-2.752196255112883e-17  1.567872552306190e-20  1.061131790867543e+00
 1.567872552306190e-20 -1.652435105820170e-17  4.294611731315451e-01
 1.061131790867543e+00  4.294611731315451e-01 -3.652185355227169e-17

-2.674341916839535e-17  4.853227934780241e-20  1.009946439903678e+00
 4.853227934780241e-20 -1.617035365704117e-17  4.231299172891537e-01
 1.009946439903678e+00  4.231299172891537e-01 -3.456651953382363e-17

-2.670162890854327e-17  4.881091474455171e-20  1.002171715969464e+00
 4.881091474455171e-20 -1.579434560073424e-17  4.417454563717415e-01
 1.002171715969464e+00  4.417454563717415e-01 -3.433807857665925e-17

-2.668595853742314e-17  4.583133554067429e-20  9.994023011612636e-01
 4.583133554067429e-20 -1.607195694695553e-17  4.293346218724691e-01
 9.994023011612636e-01  4.293346218724691e-01 -3.425905506748175e-17

-2.725540523621991e-17  5.470933037766593e-20  1.025961394776343e+00
 5.470933037766593e-20 -1.649001969914296e-17  4.333065916100217e-01
 1.025961394776343e+00  4.333065916100217e-01 -3.528547497442829e-17

-2.792900206564968e-17  5.703626972660658e-20  1.057364288665623e+00
 5.703626972660658e-20 -1.702627731277271e-17  4.330754609899560e-01
 1.057364288665623e+00  4.330754609899560e-01 -3.651596678424232e-17

-2.793197999617062e-17  4.428700826510610e-20  1.051534642962115e+00
 4.428700826510610e-20 -1.735280055836679e-17  4.248719317832315e-01
 1.051534642962115e+00  4.248719317832315e-01 -3.636263752747014e-17

-2.823738151026567e-17  2.588774149798307e-20  1.063445199095155e+00
 2.588774149798307e-20 -1.759716813380832e-17  4.279036491801639e-01
 1.063445199095155e+00  4.279036491801639e-01 -3.684550006403104e-17

-2.827220748708281e-17 -9.497686385544735e-21  1.055847264572764e+00
-9.497686385544735e-21 -1.728586156810272e-17  4.501991891879612e-01
 1.055847264572764e+00  4.501991891879612e-01 -3.666590456194443e-17

-2.811416980332051e-17  5.631532976124878e-20  1.057792669883099e+00
 5.631532976124878e-20 -1.790633482193403e-17  3.936009042491558e-01
 1.057792669883099e+00  3.936009042491558e-01 -3.656725252175695e-17

-2.796639567713072e-17  3.807314948503410e-20  1.051569206219765e+00
 3.807314948503410e-20 -1.806098283071166e-17  3.798746921378766e-01
 1.051569206219765e+00  3.798746921378766e-01 -3.631232044554034e-17

-2.777392901553156e-17  2.567969203986724e-20  1.020627827942404e+00
 2.567969203986724e-20 -1.723979653515059e-17  4.300476998153708e-01
 1.020627827942404e+00  4.300476998153708e-01 -3.531725902383082e-17

-2.791295195432069e-17  2.010455685487353e-20  1.018810272059965e+00
 2.010455685487353e-20 -1.697786202991418e-17  4.541416922441332e-01
 1.018810272059965e+00  4.541416922441332e-01 -3.531339676925587e-17

-2.787388995672499e-17 -2.141540755169764e-21  1.016892832729750e+00
-2.141540755169764e-21 -1.716327731204984e-17  4.415918568273748e-01
 1.016892832729750e+00  4.415918568273748e-01 -3.522724479676686e-17

-2.773583680191187e-17 -1.720651327895891e-20  1.012434737938277e+00
-1.720651327895891e-20 -1.750570895850005e-17  4.153277580430086e-01
 1.012434737938277e+00  4.153277580430086e-01 -3.500726727041751e-17

-2.769488145614013e-17 -6.163484567081153e-20  9.992851383159980e-01
-6.163484567081153e-20 -1.719083861940124e-17  4.361980021631099e-01
 9.992851383159980e-01  4.361980021631099e-01 -3.456853880252271e-17

-2.753690595700406e-17 -1.018111788631652e-19  9.860465220567153e-01
-1.018111788631652e-19 -1.749155179553838e-17  4.196903029597960e-01
 9.860465220567153e-01  4.196903029597960e-01 -3.408170594005654e-17

-2.806283929164761e-17 -1.350443264868531e-19  1.009570189340010e+00
-1.350443264868531e-19 -1.793031607476466e-17  4.212394990946846e-01
 1.009570189340010e+00  4.212394990946846e-01 -3.498340794551058e-17

-2.883415523422631e-17 -1.568059803253778e-19  1.044991232442680e+00
-1.568059803253778e-19 -1.823180255061934e-17  4.362465844280825e-01
 1.044991232442680e+00  4.362465844280825e-01 -3.633104149571520e-17

-2.889552362798220e-17 -2.386749809154876e-19  1.039198992202681e+00
-2.386749809154876e-19 -1.863922665295909e-17  4.275494421094380e-01
 1.039198992202681e+00  4.275494421094380e-01 -3.612839000485402e-17

-2.878694089044429e-17 -3.078123643665487e-19  1.020265760747228e+00
-3.078123643665487e-19 -1.869760611238826e-17  4.305746919079461e-01
 1.020265760747228e+00  4.305746919079461e-01 -3.540387753409592e-17

-2.908625986413064e-17 -3.676377026980123e-19  1.028366068839470e+00
-3.676377026980123e-19 -1.905204777490279e-17  4.249237392080241e-01
 1.028366068839470e+00  4.249237392080241e-01 -3.571924137829881e-17

-3.007563691713126e-17 -3.699763939945301e-19  1.068981771185731e+00
-3.699763939945301e-19 -1.924064015607649e-17  4.495447745628959e-01
 1.068981771185731e+00  4.495447745628959e-01 -3.736348350889982e-17

-3.006225704036911e-17 -3.727335702223472e-19  1.050647836301426e+00
-3.727335702223472e-19 -1.914603192715626e-17  4.588297366472373e-01
 1.050647836301426e+00  4.588297366472373e-01 -3.686268397102614e-17

-2.931442370159347e-17 -3.001833534977221e-19  1.001914017189392e+00
-3.001833534977221e-19 -1.951627989957606e-17  4.106741718187055e-01
 1.001914017189392e+00  4.106741718187055e-01 -3.497859163607750e-17

-2.995695986666485e-17 -2.902570400940187e-19  1.017275126021484e+00
-2.902570400940187e-19 -1.953070482438977e-17  4.265177772915543e-01
 1.017275126021484e+00  4.265177772915543e-01 -3.568213426890756e-17

-3.117894177027065e-17 -1.498027500980301e-19  1.017350872104366e+00
-1.498027500980301e-19 -1.926295784536968e-17  4.603312603329945e-01
 1.017350872104366e+00  4.603312603329945e-01 -3.576810617367572e-17

-3.151401155900419e-17 -2.222458470371081e-19  1.034660662162654e+00
-2.222458470371081e-19 -1.999821144511679e-17  4.304050491547483e-01
 1.034660662162654e+00  4.304050491547483e-01 -3.643628082930835e-17

-3.848713620941225e-17  7.512769478380935e-19  1.013902464004757e+00
 7.512769478380935e-19 -2.027678775522335e-17  4.292548564819461e-01
 1.013902464004757e+00  4.292548564819461e-01 -3.569399522560713e-17

 6.424622559186996e-18 -5.985151691189159e-18  1.008576380120750e+00
-5.985151691189159e-18 -1.975673236171043e-17  4.149520231481499e-01
 1.008576380120750e+00  4.149520231481499e-01 -3.554944654276854e-17

-3.652225452916335e-17  1.965195929661485e-19  1.012135982975052e+00
 1.965195929661485e-19 -2.041232579186417e-17  4.494417170576108e-01
 1.012135982975052e+00  4.494417170576108e-01 -3.579010654861531e-17

-2.967035511284547e-17 -8.539420926441265e-19  1.016492588288648e+00
-8.539420926441265e-19 -2.033764412296555e-17  4.614158144003762e-01
 1.016492588288648e+00  4.614158144003762e-01 -3.603737050520879e-17

-3.128670190092431e-17 -6.820078201618667e-19  1.005631417447551e+00
-6.820078201618667e-19 -2.099643728716944e-17  4.296259567982241e-01
 1.005631417447551e+00  4.296259567982241e-01 -3.567692448450457e-17

-3.165299560230452e-17 -7.335871781598622e-19  1.000091728315468e+00
-7.335871781598622e-19 -2.167675195719892e-17  4.045730922914700e-01
 1.000091728315468e+00  4.045730922914700e-01 -3.557160498704760e-17

-3.216055727485023e-17 -7.803901784948481e-19  1.019760298375865e+00
-7.803901784948481e-19 -2.207811778212830e-17  4.010363944923867e-01
 1.019760298375865e+00  4.010363944923867e-01 -3.639705625916015e-17

-3.299713556186756e-17 -7.924435714329457e-19  1.039341652551451e+00
-7.924435714329457e-19 -2.212996440772013e-17  4.357555330300193e-01
 1.039341652551451e+00  4.357555330300193e-01 -3.728181265290559e-17

-3.350074403125457e-17 -9.042644383304754e-19  1.033684538557679e+00
-9.042644383304754e-19 -2.274649433243022e-17  4.278885505693912e-01
 1.033684538557679e+00  4.278885505693912e-01 -3.729178696176680e-17

-3.354541087367241e-17 -9.829117797510041e-19  9.997559770429449e-01
-9.829117797510041e-19 -2.302422859435408e-17  4.184240045206240e-01
 9.997559770429449e-01  4.184240045206240e-01 -3.620318557202870e-17

-3.403116684906454e-17 -1.086557220194699e-18  9.885386220218000e-01
-1.086557220194699e-18 -2.311646129428586e-17  4.329769828623161e-01
 9.885386220218000e-01  4.329769828623161e-01 -3.606660038530653e-17

-3.458409903181692e-17 -1.244850996954994e-18  9.654807225044133e-01
-1.244850996954994e-18 -2.372252205801722e-17  4.332447922347933e-01
 9.654807225044133e-01  4.332447922347933e-01 -3.552027594713956e-17

-3.557793623884291e-17 -1.468953581602552e-18  9.768562307130902e-01
-1.468953581602552e-18 -2.524060641776313e-17  4.015766149839914e-01
 9.768562307130902e-01  4.015766149839914e-01 -3.624357820175752e-17

-3.776820649326835e-17 -1.621839207753762e-18  1.110810461598959e+00
-1.621839207753762e-18 -2.750194799806754e-17  3.202634064800110e-01
 1.110810461598959e+00  3.202634064800110e-01 -4.125684892192523e-17

-3.764853241531069e-17 -1.484593099269645e-18  1.067560982744339e+00
-1.484593099269645e-18 -2.640741527953743e-17  4.013957671887208e-01
 1.067560982744339e+00  4.013957671887208e-01 -3.973937430589814e-17

-3.679969543626289e-17 -1.330817324705610e-18  9.474871129581000e-01
-1.330817324705610e-18 -2.398450993433441e-17  5.503766728752592e-01
 9.474871129581000e-01  5.503766728752592e-01 -3.550497243192137e-17

-3.907289161862778e-17 -1.583629942407043e-18  1.081938801429565e+00
-1.583629942407043e-18 -2.676664740316717e-17  4.486066927845506e-01
 1.081938801429565e+00  4.486066927845506e-01 -4.066960052519627e-17

-3.923805685790120e-17 -1.769834291324144e-18  1.037666733994444e+00
-1.769834291324144e-18 -2.751948622839439e-17  4.146481867555096e-01
 1.037666733994444e+00  4.146481867555096e-01 -3.929346871437787e-17

-3.951404972611108e-17 -1.854888345494710e-18  1.023092139729077e+00
-1.854888345494710e-18 -2.794523180456748e-17  3.932494310139147e-01
 1.023092139729077e+00  3.932494310139147e-01 -3.886734264316811e-17

-3.998630820962215e-17 -2.051170993821343e-18  9.751879016112259e-01
-2.051170993821343e-18 -2.788333630300837e-17  4.223451809029027e-01
 9.751879016112259e-01  4.223451809029027e-01 -3.755041532123680e-17

-4.169612825914352e-17 -2.296062378546469e-18  9.804007445065499e-01
-2.296062378546469e-18 -2.892971312740964e-17  4.257762486472551e-01
 9.804007445065499e-01  4.257762486472551e-01 -3.832500239567852e-17

-4.297261016436121e-17 -2.422007268685429e-18  1.011440205439587e+00
-2.422007268685429e-18 -2.985096792884098e-17  4.110450774209249e-01
 1.011440205439587e+00  4.110450774209249e-01 -3.974764747690238e-17

-4.324263752694730e-17 -2.484972448353096e-18  9.731045352555702e-01
-2.484972448353096e-18 -2.954921657695244e-17  4.528448176331358e-01
 9.731045352555702e-01  4.528448176331358e-01 -3.858638431893061e-17

-4.380672572386635e-17 -2.563714319538109e-18  9.771852377508771e-01
-2.563714319538109e-18 -3.005154525640477e-17  4.472376074784620e-01
 9.771852377508771e-01  4.472376074784620e-01 -3.893221697266500e-17

-4.514936859856061e-17 -2.708782714936809e-18  1.014808254457026e+00
-2.708782714936809e-18 -3.136296508585432e-17  4.100125162009998e-01
 1.014808254457026e+00  4.100125162009998e-01 -4.057741694205599e-17

-4.625052909971510e-17 -2.888203014548498e-18  9.996271248176697e-01
-2.888203014548498e-18 -3.189492145129992e-17  4.242699945768376e-01
 9.996271248176697e-01  4.242699945768376e-01 -4.044919087026020e-17

-4.840982859366091e-17 -3.176281877118841e-18  1.010245015023437e+00
-3.176281877118841e-18 -3.332647898388747e-17  4.169434396205794e-01
 1.010245015023437e+00  4.169434396205794e-01 -4.152092706408682e-17

-5.230056281209269e-17 -3.711065117791440e-18  1.012844984937720e+00
-3.711065117791440e-18 -3.547713146257477e-17  4.186268906456258e-01
 1.012844984937720e+00  4.186268906456258e-01 -4.289062220145448e-17

-5.638230427470423e-17 -4.267165051721926e-18  1.008523026576839e+00
-4.267165051721926e-18 -3.757753171014168e-17  4.169335205621396e-01
 1.008523026576839e+00  4.169335205621396e-01 -4.409698534068674e-17

-6.012716923824477e-17 -4.732517538451865e-18  1.010730555470490e+00
-4.732517538451865e-18 -3.925134798202468e-17  4.203232116388219e-01
 1.010730555470490e+00  4.203232116388219e-01 -4.542877821795828e-17

-6.452536395959922e-17 -5.259756712627631e-18  1.011183392942938e+00
-5.259756712627631e-18 -4.121662074557489e-17  4.197518132885202e-01
 1.011183392942938e+00  4.197518132885202e-01 -4.690297617387800e-17

-7.066011516114930e-17 -5.951160735140541e-18  1.007236032119660e+00
-5.951160735140541e-18 -4.358637968589786e-17  4.188907137465770e-01
 1.007236032119660e+00  4.188907137465770e-01 -4.883068776586190e-17

-7.558650073993632e-17 -6.466361296831691e-18  1.013123849066758e+00
-6.466361296831691e-18 -4.546204934291433e-17  4.104443817636256e-01
 1.013123849066758e+00  4.104443817636256e-01 -5.066925705858022e-17

-8.084912825375396e-17 -6.934543370239747e-18  1.012727059049972e+00
-6.934543370239747e-18 -4.704173920202499e-17  4.192626618261571e-01
 1.012727059049972e+00  4.192626618261571e-01 -5.241838094240102e-17

-9.260330968893761e-17 -7.895555186100936e-18  1.006399274059991e+00
-7.895555186100936e-18 -4.998521181140346e-17  4.237561396590320e-01
 1.006399274059991e+00  4.237561396590320e-01 -5.616017895156729e-17

-1.030487378056399e-16 -8.693344677771006e-18  1.007932913438434e+00
-8.693344677771006e-18 -5.264236121054182e-17  3.898102159409140e-01
 1.007932913438434e+00  3.898102159409140e-01 -5.969896276651575e-17

-1.120406682681222e-16 -9.164556156844280e-18  1.009437057754820e+00
-9.164556156844280e-18 -5.445828807267197e-17  3.954743977020264e-01
 1.009437057754820e+00  3.954743977020264e-01 -6.280006804374116e-17

-1.272159553084115e-16 -9.567079225247309e-18  1.044597346323893e+00
-9.567079225247309e-18 -5.681490864304954e-17  4.267542681623497e-01
 1.044597346323893e+00  4.267542681623497e-01 -6.899599595856712e-17

-1.485661720223184e-16 -9.886615751370432e-18  1.050052633888502e+00
-9.886615751370432e-18 -5.823547365676396e-17  4.167822577797918e-01
 1.050052633888502e+00  4.167822577797918e-01 -7.643081196019793e-17

-1.833363544929761e-16 -9.409119870439292e-18  9.927350870637516e-01
-9.409119870439292e-18 -5.637177319640697e-17  4.093011185793263e-01
 9.927350870637516e-01  4.093011185793263e-01 -8.644279307272413e-17

-2.320951682587735e-16 -5.909279929762203e-18  9.838903237945577e-01
-5.909279929762203e-18 -4.969246870340100e-17  4.156056067880613e-01
 9.838903237945577e-01  4.156056067880613e-01 -1.029837973302586e-16

-2.782842548410934e-16 -4.538725827634944e-19  9.933067483876025e-01
-4.538725827634944e-19 -4.046724010819980e-17  4.227012138510510e-01
 9.933067483876025e-01  4.227012138510510e-01 -1.193552884182549e-16

-3.409233545189643e-16  1.040511409142423e-17  1.004840383816043e+00
 1.040511409142423e-17 -2.294848945798369e-17  4.249228991240191e-01
 1.004840383816043e+00  4.249228991240191e-01 -1.418505414300686e-16

-4.375182990549283e-16  3.396238414289133e-17  1.011256029970541e+00
 3.396238414289133e-17  1.216448804185354e-17  4.268732095962526e-01
 1.011256029970541e+00  4.268732095962526e-01 -1.770864729126667e-16

-6.016656410545335e-16  9.514904091777365e-17  1.017381690456869e+00
 9.514904091777365e-17  9.155878362892803e-17  4.247634964667262e-01
 1.017381690456869e+00  4.247634964667262e-01 -2.400151469480512e-16

-7.864169282576680e-16  1.934816079516984e-16  1.016185739892066e+00
 1.934816079516984e-16  2.024957286443421e-16  4.392784483936786e-01
 1.016185739892066e+00  4.392784483936786e-01 -3.156765768206465e-16

-9.250483554869059e-16  2.882036170914726e-16  9.816651278037487e-01
 2.882036170914726e-16  2.968001539598560e-16  4.568802280083130e-01
 9.816651278037487e-01  4.568802280083130e-01 -3.755991124203066e-16

-1.039789824828638e-15  3.922433627855699e-16  1.012030487612638e+00
 3.922433627855699e-16  3.793341047571969e-16  3.984014999579650e-01
 1.012030487612638e+00  3.984014999579650e-01 -4.331765641650768e-16

-1.242122335743372e-15  5.917622804352190e-16  9.950033080794012e-01
 5.917622804352190e-16  5.372490547527606e-16  4.034928982013252e-01
 9.950033080794012e-01  4.034928982013252e-01 -5.358287436914270e-16

-1.615309094146304e-15  1.053329060060124e-15  9.894026304724980e-01
 1.053329060060124e-15  8.628821628564049e-16  4.327868884602047e-01
 9.894026304724980e-01  4.327868884602047e-01 -7.492990637341612e-16

-2.248096737603687e-15  2.315017958318089e-15  1.008209638180896e+00
 2.315017958318089e-15  1.490216190684484e-15  4.205172096432587e-01
 1.008209638180896e+00  4.205172096432587e-01 -1.251930160720803e-15

-2.951669492054596e-15  4.937824597002642e-15  1.024160597549718e+00
 4.937824597002642e-15  2.225203186109303e-15  4.278310090044405e-01
 1.024160597549718e+00  4.278310090044405e-01 -2.243574937428536e-15

-3.530560117318849e-15  9.032766096336734e-15  1.027248089939452e+00
 9.032766096336734e-15  2.097253760088980e-15  4.254832641524917e-01
 1.027248089939452e+00  4.254832641524917e-01 -4.051818052354506e-15

-6.639514698619234e-15  1.433332358662799e-14  1.011682575134043e+00
 1.433332358662799e-14 -7.585611225889917e-16  4.201664300066498e-01
 1.011682575134043e+00  4.201664300066498e-01 -9.416296400535880e-15

 1.635210732864785e-14 -4.130648311259763e-17  1.008837502532857e+00
-4.130648311259763e-17  1.748246997577117e-14  4.258082833019147e-01
 1.008837502532857e+00  4.258082833019147e-01 -7.809870759288020e-15

 1.627135357138609e-13 -4.017369704379217e-14  9.894733127224327e-01
-4.017369704379217e-14  7.695542879688354e-14  4.488777514552746e-01
 9.894733127224327e-01  4.488777514552746e-01  3.783983005555300e-14

-6.293007781200512e-13  1.480987463191867e-13  9.924611733144916e-01
 1.480987463191867e-13 -3.196241782168099e-13  4.356779629409152e-01
 9.924611733144916e-01  4.356779629409152e-01 -1.556989722272924e-13

 1.644801245182297e-13 -5.565595259972903e-14  1.010640917345061e+00
-5.565595259972903e-14  7.759284646280733e-14  4.208215545583663e-01
 1.010640917345061e+00  4.208215545583663e-01  4.211786279372987e-14

-6.640705329521806e-13  1.533061806425191e-13  1.020043424236440e+00
 1.533061806425191e-13 -3.310480553569720e-13  3.910414652994571e-01
 1.020043424236440e+00  3.910414652994571e-01 -1.853616536745636e-13

-1.898095569342490e-14 -1.020801001959519e-14  1.012329250540196e+00
-1.020801001959519e-14 -2.667372558614056e-15  4.572398499631555e-01
 1.012329250540196e+00  4.572398499631555e-01 -1.323862491165387e-14

-1.770033183083733e-14 -4.094877913570952e-15  1.021356582014980e+00
-4.094877913570952e-15 -6.501126324643233e-15  4.354567211435903e-01
 1.021356582014980e+00  4.354567211435903e-01 -9.479291916438186e-15

-1.237603427258442e-14 -1.696224108851252e-15  1.022353910391297e+00
-1.696224108851252e-15 -5.051796762998912e-15  4.193269175264637e-01
 1.022353910391297e+00  4.193269175264637e-01 -5.793966961018324e-15

-7.170306383859413e-15  1.568939346547506e-16  1.014207431657109e+00
 1.568939346547506e-16 -3.134957422574360e-15  4.278306937453929e-01
 1.014207431657109e+00  4.278306937453929e-01 -2.707426737232765e-15

-4.064736749381032e-15  8.103692490275476e-16  1.027377030271972e+00
 8.103692490275476e-16 -2.248286435975814e-15  4.353504657777880e-01
 1.027377030271972e+00  4.353504657777880e-01 -1.285158307095703e-15

-2.695548549611637e-15  8.088068170327027e-16  1.038990977927367e+00
 8.088068170327027e-16 -1.888716546346714e-15  4.290557993445765e-01
 1.038990977927367e+00  4.290557993445765e-01 -8.039914273376435e-16

-2.121046083341296e-15  7.340537401765860e-16  1.033023504332160e+00
 7.340537401765860e-16 -1.569726106526691e-15  4.358803644746874e-01
 1.033023504332160e+00  4.358803644746874e-01 -6.240511759551838e-16

-1.387942170346994e-15  5.804249696196433e-16  1.001866882792022e+00
 5.804249696196433e-16 -1.240803781400435e-15  4.430447216304315e-01
 1.001866882792022e+00  4.430447216304315e-01 -4.087869273598170e-16

-9.831730242771037e-16  4.490770177132822e-16  9.943525774283778e-01
 4.490770177132822e-16 -8.593335753785512e-16  4.180652052354901e-01
 9.943525774283778e-01  4.180652052354901e-01 -2.969141509401042e-16

-8.050236891703986e-16  3.718998089972269e-16  1.005864760932213e+00
 3.718998089972269e-16 -1.100464755077581e-15  4.155794736820992e-01
 1.005864760932213e+00  4.155794736820992e-01 -2.494823589117547e-16

-5.731540506977803e-16  2.638354266105812e-16  1.053022890422809e+00
 2.638354266105812e-16 -6.865195564130748e-16  4.523503724868503e-01
 1.053022890422809e+00  4.523503724868503e-01 -2.008738361174186e-16

-4.259538272183049e-16  1.928555937615954e-16  1.072400970807971e+00
 1.928555937615954e-16 -5.049068269722516e-16  4.489832065670782e-01
 1.072400970807971e+00  4.489832065670782e-01 -1.511453290096299e-16

-3.252906408254012e-16  1.450167632123698e-16  9.661757885220384e-01
 1.450167632123698e-16 -3.705661840384238e-16  4.773531067582424e-01
 9.661757885220384e-01  4.773531067582424e-01 -1.200703942282453e-16

-2.967497737505877e-16  1.313618190623031e-16  1.260818473739468e+00
 1.313618190623031e-16 -4.335695612488421e-16  2.085879443296532e-01
 1.260818473739468e+00  2.085879443296532e-01 -1.211452188526992e-16

-2.720472639033427e-16  1.149907451316395e-16  1.108760034049443e+00
 1.149907451316395e-16 -4.159777747964329e-16  3.742736695297339e-01
 1.108760034049443e+00  3.742736695297339e-01 -1.097935765543365e-16

-2.454256402749261e-16  9.557965508604088e-17  8.152105453895429e-01
 9.557965508604088e-17 -4.458546029356727e-16  6.810350097885567e-01
 8.152105453895429e-01  6.810350097885567e-01 -9.368454279833115e-17

-2.232166843019442e-16  8.648904043502578e-17  1.112676958147669e+00
 8.648904043502578e-17 -3.071627633030032e-16  4.504997124449106e-01
 1.112676958147669e+00  4.504997124449106e-01 -9.666642319858052e-17

-1.901156852862132e-16  6.900157285707332e-17  1.086792251696222e+00
 6.900157285707332e-17 -3.202948292464130e-16  4.659255250837922e-01
 1.086792251696222e+00  4.659255250837922e-01 -8.643611620798563e-17

-1.719271504942951e-16  5.740644315430214e-17  1.084366386638595e+00
 5.740644315430214e-17 -5.691817623674710e-16  4.476855711566186e-01
 1.084366386638595e+00  4.476855711566186e-01 -8.097757258703009e-17

-1.466828593397754e-16  5.318261141373089e-17  1.063867461522344e+00
 5.318261141373089e-17  7.115096124836888e-17  4.456478978845670e-01
 1.063867461522344e+00  4.456478978845670e-01 -7.285414359064156e-17

-1.239887632523023e-16  4.230068924550161e-17  1.057938005274447e+00
 4.230068924550161e-17  1.088916820483027e-16  4.545500395592003e-01
 1.057938005274447e+00  4.545500395592003e-01 -6.590677652329108e-17

-1.084635420950979e-16  3.117110881347400e-17  1.045290321660712e+00
 3.117110881347400e-17 -1.649586947223325e-16  4.850938005067885e-01
 1.045290321660712e+00  4.850938005067885e-01 -6.087943214042552e-17

-9.933518870048196e-17  2.918992401402352e-17  1.035782321863233e+00
 2.918992401402352e-17 -5.661436605840688e-18  4.732520414693467e-01
 1.035782321863233e+00  4.732520414693467e-01 -5.773350838476438e-17

-9.146919468544970e-17  2.389533392797888e-17  1.021896499641094e+00
 2.389533392797888e-17 -1.676421326318922e-16  4.605996728999357e-01
 1.021896499641094e+00  4.605996728999357e-01 -5.479994220885654e-17

-8.164576672942097e-17  2.048884052892837e-17  9.876598123499443e-01
 2.048884052892837e-17 -7.848693338263813e-17  5.012024330050395e-01
 9.876598123499443e-01  5.012024330050395e-01 -5.073321074923294e-17

-7.329162390525181e-17  1.657664291270296e-17  9.279588887801045e-01
 1.657664291270296e-17 -1.043793294979957e-16  5.253713089073425e-01
 9.279588887801045e-01  5.253713089073425e-01 -4.619043196938178e-17

-6.738125138243923e-17  1.245304580697422e-17  9.237033312553314e-01
 1.245304580697422e-17 -1.352916241221039e-16  4.870583559367934e-01
 9.237033312553314e-01  4.870583559367934e-01 -4.369826593795717e-17

-7.299700127402094e-17  1.302903541362900e-17  1.645664979095070e+00
 1.302903541362900e-17  8.758637783023725e-17  1.488938511833170e-01
 1.645664979095070e+00  1.488938511833170e-01 -6.451622661084390e-17

-6.521592920994227e-17  8.522834945137826e-18  1.032903167862935e+00
 8.522834945137826e-18 -1.407653355076205e-16  6.213686163094636e-01
 1.032903167862935e+00  6.213686163094636e-01 -4.889743530817096e-17

-6.367290760931201e-17  7.264653128871167e-18  9.516827129139689e-01
 7.264653128871167e-18 -5.122734500241953e-17  8.611526394953339e-01
 9.516827129139689e-01  8.611526394953339e-01 -4.955535313094494e-17

-6.399618580046525e-17  5.845019822062120e-18  1.302376452485086e+00
 5.845019822062120e-18 -1.481980075263713e-16  4.320012073340571e-01
 1.302376452485086e+00  4.320012073340571e-01 -5.601011388692715e-17

-6.543317187852030e-17  6.124058360071530e-18  1.644341001379974e+00
 6.124058360071530e-18 -3.901585065259457e-17  1.046212678320236e-01
 1.644341001379974e+00  1.046212678320236e-01 -6.527716874003961e-17

-6.238616304401133e-17  4.022035241791241e-18  1.398066574310464e+00
 4.022035241791241e-18 -9.818016720138709e-17  5.538791581198262e-01
 1.398066574310464e+00  5.538791581198262e-01 -6.110660796845069e-17

-5.925060726316034e-17  2.293146081886296e-18  1.129251374394496e+00
 2.293146081886296e-18 -7.815279915697280e-17  1.009715209129930e+00
 1.129251374394496e+00  1.009715209129930e+00 -6.035678047803522e-17

-5.901753449657919e-17  2.358710096332510e-18  1.288045382477820e+00
 2.358710096332510e-18 -9.715127573790613e-17  7.434917843343127e-01
 1.288045382477820e+00  7.434917843343127e-01 -5.976999445742118e-17

-5.921215343328297e-17  4.888901780028150e-18  1.563910585067598e+00
 4.888901780028150e-18 -1.358640347705571e-16  2.085911809189041e-01
 1.563910585067598e+00  2.085911809189041e-01 -6.004934040770379e-17

-5.439655504169663e-17  7.200445875918085e-18  1.326959181737071e+00
 7.200445875918085e-18  4.311891240170837e-17  2.201762467032999e-01
 1.326959181737071e+00  2.201762467032999e-01 -5.143628601994116e-17

-4.990068224839415e-17  3.113077124898310e-18  1.090545658763545e+00
 3.113077124898310e-18 -1.532479234288446e-16  4.971574011561307e-01
 1.090545658763545e+00  4.971574011561307e-01 -4.468829910551564e-17

-4.889149720568371e-17  3.023713148918907e-18  1.203092569187504e+00
 3.023713148918907e-18 -7.506462310002497e-17  4.995847324037286e-01
 1.203092569187504e+00  4.995847324037286e-01 -4.821561897971774e-17

-4.596082986405689e-17  3.022479226546228e-19  1.170523251613776e+00
 3.022479226546228e-19 -2.599355258580877e-16  4.383102729238167e-01
 1.170523251613776e+00  4.383102729238167e-01 -4.586246259400295e-17

-4.369511816447459e-17  4.104609307682539e-18  1.129429287692675e+00
 4.104609307682539e-18  5.623869218610278e-17  4.145489801623430e-01
 1.129429287692675e+00  4.145489801623430e-01 -4.363427230410307e-17

-4.176971602493698e-17  2.506244340923410e-18  1.092907312684348e+00
 2.506244340923410e-18 -2.224359339501799e-17  4.974909626846805e-01
 1.092907312684348e+00  4.974909626846805e-01 -4.210242534918009e-17

-3.835238286662107e-17  3.915676314042954e-19  9.914554455549793e-01
 3.915676314042954e-19 -1.801399880801124e-16  4.507954638604268e-01
 9.914554455549793e-01  4.507954638604268e-01 -3.742178544821744e-17

-3.694345718346755e-17 -2.857033329370538e-21  9.916522121062101e-01
-2.857033329370538e-21 -1.770607373011565e-16  4.609927385617636e-01
 9.916522121062101e-01  4.609927385617636e-01 -3.705060774696077e-17

-3.615774071595269e-17  2.142202785013100e-18  1.015112479964910e+00
 2.142202785013100e-18  1.927609787350957e-18  4.418599393018708e-01
 1.015112479964910e+00  4.418599393018708e-01 -3.757273593907457e-17

-3.593635115517920e-17  4.787147623497046e-18  1.048941793583964e+00
 4.787147623497046e-18  2.127902190378471e-16  4.369195602595230e-01
 1.048941793583964e+00  4.369195602595230e-01 -3.861204349805111e-17

-3.539035859984711e-17  4.563051857916747e-18  1.051505379501698e+00
 4.563051857916747e-18  2.146614472773933e-16  4.714706120619873e-01
 1.051505379501698e+00  4.714706120619873e-01 -3.861177209905491e-17

-3.431098947865623e-17  2.942372320195390e-18  1.021822665444545e+00
 2.942372320195390e-18  9.468591771186731e-17  4.415278074979239e-01
 1.021822665444545e+00  4.415278074979239e-01 -3.724083738867902e-17

-3.312248641841912e-17  8.323443842292679e-20  9.890635072576259e-01
 8.323443842292679e-20 -1.109866252236152e-16  4.038200659521388e-01
 9.890635072576259e-01  4.038200659521388e-01 -3.572267202129205e-17

-3.223132299497261e-17 -8.541955102618852e-20  9.653742196014901e-01
-8.541955102618852e-20 -1.088671543635623e-16  4.463024257930683e-01
 9.653742196014901e-01  4.463024257930683e-01 -3.477346884709338e-17

-3.204239249361799e-17 -1.253835485433416e-18  9.836066180765687e-01
-1.253835485433416e-18 -1.856230321172874e-16  4.173606632239725e-01
 9.836066180765687e-01  4.173606632239725e-01 -3.531222699403554e-17

-3.160604831064938e-17  1.231203875442086e-18  9.738295561864054e-01
 1.231203875442086e-18 -6.923324156269922e-18  4.248233841922073e-01
 9.738295561864054e-01  4.248233841922073e-01 -3.489845862149848e-17

-3.152191139173992e-17  1.137328154697229e-18  9.988944062572109e-01
 1.137328154697229e-18 -6.057294876505181e-18  4.300850800112486e-01
 9.988944062572109e-01  4.300850800112486e-01 -3.568196504297838e-17

-3.098450407058906e-17  3.727464669155428e-19  9.887262923385973e-01
 3.727464669155428e-19 -5.295401988769208e-17  4.479505235864840e-01
 9.887262923385973e-01  4.479505235864840e-01 -3.522080575109775e-17

-2.981861946280981e-17  1.455148369406255e-19  9.407980578823333e-01
 1.455148369406255e-19 -6.493170582220961e-17  4.361851747621260e-01
 9.407980578823333e-01  4.361851747621260e-01 -3.330180587674888e-17

-2.929422823743390e-17  1.328516932641255e-18  9.307494854855716e-01
 1.328516932641255e-18  3.371270422835562e-17  3.902530567865181e-01
 9.307494854855716e-01  3.902530567865181e-01 -3.296305732896328e-17

-3.074126458961532e-17  1.171638471193470e-18  1.025488508635723e+00
 1.171638471193470e-18  3.552592448773038e-17  3.940285877145112e-01
 1.025488508635723e+00  3.940285877145112e-01 -3.644749701221427e-17

-3.305967281939287e-17  1.561360813455003e-18  1.167574274973247e+00
 1.561360813455003e-18  3.603153490139874e-17  4.684623170931634e-01
 1.167574274973247e+00  4.684623170931634e-01 -4.165726543967102e-17

-3.221837948659897e-17  2.631033959011892e-18  1.129859502979690e+00
 2.631033959011892e-18  1.551632671669691e-16  4.423714174391636e-01
 1.129859502979690e+00  4.423714174391636e-01 -4.054408028600418e-17

-2.860321979513020e-17 -1.487852065333713e-18  9.454615259210281e-01
-1.487852065333713e-18 -1.727714581800940e-16  3.933892981447820e-01
 9.454615259210281e-01  3.933892981447820e-01 -3.305353474597621e-17

-2.879583151677811e-17  2.761398125409014e-18  9.744167462606131e-01
 2.761398125409014e-18  1.470855898046654e-16  4.212127537681989e-01
 9.744167462606131e-01  4.212127537681989e-01 -3.423544376329825e-17

-2.906206373894606e-17  4.079545219512079e-19  9.961834701172677e-01
 4.079545219512079e-19 -2.598368678589044e-17  4.459575902156833e-01
 9.961834701172677e-01  4.459575902156833e-01 -3.497373045068847e-17

-2.888288768169673e-17 -2.503270359801446e-18  1.000998074245423e+00
-2.503270359801446e-18 -2.384822161398150e-16  4.226928677460132e-01
 1.000998074245423e+00  4.226928677460132e-01 -3.509397430188938e-17

-2.904333591025621e-17 -1.790485751069525e-20  1.034809261730099e+00
-1.790485751069525e-20 -4.605859262848616e-17  3.743394050353656e-01
 1.034809261730099e+00  3.743394050353656e-01 -3.627068676803947e-17

-2.897290646342412e-17 -9.640696071309120e-19  1.022714218716880e+00
-9.640696071309120e-19 -1.204757737602816e-16  4.349583681616256e-01
 1.022714218716880e+00  4.349583681616256e-01 -3.582224877901859e-17

-2.870612366152832e-17 -1.156767689852883e-18  1.004169517105907e+00
-1.156767689852883e-18 -1.305211038204088e-16  4.713924942021238e-01
 1.004169517105907e+00  4.713924942021238e-01 -3.517566183726339e-17

-2.898456923114094e-17 -4.959764278323183e-19  1.059773404912219e+00
-4.959764278323183e-19 -8.159572575061315e-17  3.626141579493739e-01
 1.059773404912219e+00  3.626141579493739e-01 -3.693919858133313e-17

-2.825519350705642e-17 -1.088272659867144e-18  1.010506309727208e+00
-1.088272659867144e-18 -1.206607361123945e-16  3.855474734603994e-01
 1.010506309727208e+00  3.855474734603994e-01 -3.515070950662270e-17

-2.795774815305997e-17  4.903161339909023e-20  9.877161246812964e-01
 4.903161339909023e-20 -3.125799122411389e-17  4.395310914254956e-01
 9.877161246812964e-01  4.395310914254956e-01 -3.432243723033515e-17

-2.808355004984722e-17 -1.236541906131720e-18  9.989348192151786e-01
-1.236541906131720e-18 -1.256814258062860e-16  4.418418170439457e-01
 9.989348192151786e-01  4.418418170439457e-01 -3.470052417822559e-17

-2.831827939944047e-17 -6.578957405675794e-19  1.026184053399460e+00
-6.578957405675794e-19 -8.015408785640474e-17  4.187420562270195e-01
 1.026184053399460e+00  4.187420562270195e-01 -3.562571490210149e-17

-2.824121193392061e-17  1.157563984310063e-18  1.020106546742603e+00
 1.157563984310063e-18  6.018439116846171e-17  4.266494727359261e-01
 1.020106546742603e+00  4.266494727359261e-01 -3.536996320769272e-17

-2.823518306433570e-17  4.711234942744726e-19  1.028527714541886e+00
 4.711234942744726e-19  1.010162237677573e-17  4.289040240531206e-01
 1.028527714541886e+00  4.289040240531206e-01 -3.562692604942596e-17

-2.818107471238970e-17 -3.349483619401481e-19  1.029409259334210e+00
-3.349483619401481e-19 -4.755778306263042e-17  4.313533570407683e-01
 1.029409259334210e+00  4.313533570407683e-01 -3.559301973555452e-17

-2.800528827117685e-17 -1.262493133299274e-18  1.021831127995411e+00
-1.262493133299274e-18 -1.152403471199978e-16  4.374400967275541e-01
 1.021831127995411e+00  4.374400967275541e-01 -3.526783499700515e-17

-2.784704763311383e-17  3.536622068513809e-19  1.019249224583578e+00
 3.536622068513809e-19  6.453080887960168e-18  4.329480719388309e-01
 1.019249224583578e+00  4.329480719388309e-01 -3.511437942350335e-17

-2.793148974350359e-17  2.122131017250199e-19  1.028822644250463e+00
 2.122131017250199e-19 -3.661100587230735e-18  4.330750187955422e-01
 1.028822644250463e+00  4.330750187955422e-01 -3.542707147044378e-17

-2.808930980932779e-17  4.257346273120665e-19  1.041082228478110e+00
 4.257346273120665e-19  1.334537903728844e-17  4.482076281495076e-01
 1.041082228478110e+00  4.482076281495076e-01 -3.586142022998134e-17

-2.795521228651736e-17 -1.757061572625376e-18  1.033632927600647e+00
-1.757061572625376e-18 -1.458457139776268e-16  4.431996088346293e-01
 1.033632927600647e+00  4.431996088346293e-01 -3.555353378221138e-17

-2.782435106091087e-17  2.667060912300532e-19  1.032256195741463e+00
 2.667060912300532e-19  1.249142906390213e-18  4.320043403476600e-01
 1.032256195741463e+00  4.320043403476600e-01 -3.546355727872987e-17

-2.797123933920531e-17 -1.423647800990236e-18  1.034361083517250e+00
-1.423647800990236e-18 -1.221305243170813e-16  4.617880983489307e-01
 1.034361083517250e+00  4.617880983489307e-01 -3.557069896451105e-17

-2.818518444437999e-17  3.005980101628008e-18  1.057815295594215e+00
 3.005980101628008e-18  1.989021027516099e-16  4.492368929334725e-01
 1.057815295594215e+00  4.492368929334725e-01 -3.642580052569524e-17

-2.817082667043554e-17  1.274115369745476e-18  1.055032192164493e+00
 1.274115369745476e-18  7.199620112064824e-17  4.507098674675738e-01
 1.055032192164493e+00  4.507098674675738e-01 -3.633641631041784e-17

-2.808320093829003e-17  8.316570706606088e-19  1.046799048371841e+00
 8.316570706606088e-19  3.913640888692462e-17  4.581145008525201e-01
 1.046799048371841e+00  4.581145008525201e-01 -3.605041091036088e-17

-2.836082235700231e-17  1.147950595105352e-18  1.075807582451802e+00
 1.147950595105352e-18  6.022933386263391e-17  4.367357606850444e-01
 1.075807582451802e+00  4.367357606850444e-01 -3.709797070180789e-17

-2.795339342462761e-17  5.631095192181752e-19  1.050032096558223e+00
 5.631095192181752e-19  2.018035663614025e-17  4.666892442142093e-01
 1.050032096558223e+00  4.666892442142093e-01 -3.621514783938300e-17

-2.795785945428385e-17 -2.739921764592384e-19  1.090840961143750e+00
-2.739921764592384e-19 -4.249626450045935e-17  3.399191231697619e-01
 1.090840961143750e+00  3.399191231697619e-01 -3.736618154000057e-17

-2.766657597344123e-17 -4.654278579046282e-19  1.051448191831315e+00
-4.654278579046282e-19 -5.418629192959220e-17  4.207169505678608e-01
 1.051448191831315e+00  4.207169505678608e-01 -3.609182391729528e-17

-2.760768352348887e-17 -1.342773386609974e-18  1.030850960491480e+00
-1.342773386609974e-18 -1.137330517463767e-16  5.043101546703079e-01
 1.030850960491480e+00  5.043101546703079e-01 -3.546178970118307e-17

-2.725344093565124e-17 -1.398664438327817e-18  1.032120660697118e+00
-1.398664438327817e-18 -1.154775137201187e-16  3.907995499511884e-01
 1.032120660697118e+00  3.907995499511884e-01 -3.535650933191426e-17

-2.803202418955437e-17 -8.082004738717156e-19  1.072534778170734e+00
-8.082004738717156e-19 -7.853463602648000e-17  4.293095254173970e-01
 1.072534778170734e+00  4.293095254173970e-01 -3.691758310370659e-17

-2.904058918620139e-17  5.483978193624583e-19  1.131313803662767e+00
 5.483978193624583e-19  1.086607949345128e-17  4.673798377553671e-01
 1.131313803662767e+00  4.673798377553671e-01 -3.914711495438461e-17

-2.872517660217526e-17  4.776002285339595e-19  1.120599856882002e+00
 4.776002285339595e-19  1.059298546844581e-17  4.338147517777977e-01
 1.120599856882002e+00  4.338147517777977e-01 -3.878883674523230e-17

-2.738728533812611e-17  1.942603164158473e-19  1.052898855516617e+00
 1.942603164158473e-19 -1.109128700161287e-17  4.350343277858483e-01
 1.052898855516617e+00  4.350343277858483e-01 -3.618709747604178e-17

-2.438712228449284e-17 -1.065539387751645e-18  8.209915625719341e-01
-1.065539387751645e-18 -8.043650919640106e-17  5.933010643962390e-01
 8.209915625719341e-01  5.933010643962390e-01 -2.827679084860843e-17

-2.558873126142508e-17 -3.707423113341930e-19  9.709847441012933e-01
-3.707423113341930e-19 -5.565113419901147e-17  3.945144891719666e-01
 9.709847441012933e-01  3.945144891719666e-01 -3.283435209853532e-17

-2.480528043065131e-17  1.529140042606955e-19  9.198258293208249e-01
 1.529140042606955e-19 -1.960629801694182e-17  4.088969115546819e-01
 9.198258293208249e-01  4.088969115546819e-01 -3.107877983468028e-17

-2.596555856850743e-17 -2.141445111808424e-19  9.872548526537176e-01
-2.141445111808424e-19 -3.767914337010969e-17  4.203799796494109e-01
 9.872548526537176e-01  4.203799796494109e-01 -3.380211027337391e-17

-2.744530482950624e-17 -1.943045924444429e-18  1.092170415212835e+00
-1.943045924444429e-18 -1.482845657936632e-16  3.733245566779471e-01
 1.092170415212835e+00  3.733245566779471e-01 -3.764389444168949e-17

-2.731440387954596e-17  2.272494205244241e-18  1.058494163546755e+00
 2.272494205244241e-18  1.180084548138183e-16  4.949112205664906e-01
 1.058494163546755e+00  4.949112205664906e-01 -3.642103566374675e-17

-2.690557860387888e-17  1.172972761047185e-18  1.042623187494409e+00
 1.172972761047185e-18  5.602016456170397e-17  4.593607949414794e-01
 1.042623187494409e+00  4.593607949414794e-01 -3.587462914637071e-17

-2.493286802534444e-17  9.648744066270485e-19  9.311345603850349e-01
 9.648744066270485e-19  3.756050879193566e-17  4.176694466749952e-01
 9.311345603850349e-01  4.176694466749952e-01 -3.149343850073898e-17

-2.653054492156939e-17 -6.954440239829517e-19  1.020190309268733e+00
-6.954440239829517e-19 -7.010398083251925e-17  4.518990230799755e-01
 1.020190309268733e+00  4.518990230799755e-01 -3.489824238222904e-17

-2.799263199744521e-17  1.013781314000796e-18  1.105889181602721e+00
 1.013781314000796e-18  3.848952147731703e-17  4.622334259503362e-01
 1.105889181602721e+00  4.622334259503362e-01 -3.816159917948413e-17

-2.723691117909823e-17  4.618839088395547e-19  1.058296427023761e+00
 4.618839088395547e-19  5.016893164445919e-18  4.185744295584072e-01
 1.058296427023761e+00  4.185744295584072e-01 -3.641875397625975e-17

-2.843877077139602e-17 -9.703482258027453e-19  1.135282843401661e+00
-9.703482258027453e-19 -8.975129250542699e-17  4.040785629137240e-01
 1.135282843401661e+00  4.040785629137240e-01 -3.935277126958679e-17

-2.932447708972230e-17 -1.091182367305620e-18  1.138984672868229e+00
-1.091182367305620e-18 -8.734835457083341e-17  6.068468921372258e-01
 1.138984672868229e+00  6.068468921372258e-01 -4.049488514339303e-17

-2.800690205209310e-17  1.653982160309776e-19  1.121992359103397e+00
 1.653982160309776e-19 -1.692916001015579e-17  4.247990545624058e-01
 1.121992359103397e+00  4.247990545624058e-01 -3.852289292861316e-17

-2.561736140248453e-17  3.502291345596042e-19  9.822625679888786e-01
 3.502291345596042e-19 -1.076801629794411e-17  4.335308486082463e-01
 9.822625679888786e-01  4.335308486082463e-01 -3.299613726415337e-17

-2.404786606027040e-17 -1.100593740190881e-18  8.704332812361086e-01
-1.100593740190881e-18 -3.908701123035688e-17  3.953050616668505e-01
 8.704332812361086e-01  3.953050616668505e-01 -2.874766463941113e-17

-2.993493125076319e-17 -3.457200252654332e-18  1.275594296689671e+00
-3.457200252654332e-18 -1.133552224505147e-16  3.087717874864627e-01
 1.275594296689671e+00  3.087717874864627e-01 -4.012913285590201e-17

-2.780111070366610e-17  5.681481679802928e-19  1.024665662505821e+00
 5.681481679802928e-19 -1.093423477255606e-16  5.465435196391074e-01
 1.024665662505821e+00  5.465435196391074e-01 -4.062324214651862e-17

-3.058115117793395e-17  1.920914076928135e-18  1.162069143808748e+00
 1.920914076928135e-18 -2.004949110123681e-17  6.591728636446565e-01
 1.162069143808748e+00  6.591728636446565e-01 -4.645152420264429e-17

-3.418907140598170e-17 -6.535026198452059e-19  1.330264086237332e+00
-6.535026198452059e-19 -2.574289034849482e-17  7.721040221040084e-01
 1.330264086237332e+00  7.721040221040084e-01 -5.503560835186013e-17

-3.108718536921384e-17 -1.097699386107062e-18  1.243532301193830e+00
-1.097699386107062e-18 -7.291906117157468e-17  5.314112009801538e-01
 1.243532301193830e+00  5.314112009801538e-01 -4.627537065627876e-17

-2.703635937614585e-17  2.112952771183418e-18  1.188582863373725e+00
 2.112952771183418e-18  8.206021515775659e-18  1.685454093887291e-01
 1.188582863373725e+00  1.685454093887291e-01 -3.536495616763639e-17

-2.367728452323287e-17  6.699720593384344e-19  8.659012322827145e-01
 6.699720593384344e-19  8.456001527275512e-18  4.441776129517484e-01
 8.659012322827145e-01  4.441776129517484e-01 -2.857096682209495e-17

-2.483577226907309e-17 -8.873546364299213e-20  9.272049363467838e-01
-8.873546364299213e-20 -6.878261510067790e-18  4.546045187093075e-01
 9.272049363467838e-01  4.546045187093075e-01 -3.167664945402504e-17

-2.768849215846232e-17  4.268356998227434e-19  1.094148036688544e+00
 4.268356998227434e-19 -7.299650986180493e-18  5.080291552418630e-01
 1.094148036688544e+00  5.080291552418630e-01 -3.766245846318760e-17

-2.928838173363834e-17 -1.369699336400257e-18  1.178577408109083e+00
-1.369699336400257e-18 -1.253357382603581e-16  5.065084382616568e-01
 1.178577408109083e+00  5.065084382616568e-01 -4.102291664278365e-17

-2.983040279479157e-17 -8.690547905939521e-19  1.223780818419229e+00
-8.690547905939521e-19 -8.304293305100863e-17  4.314097316507600e-01
 1.223780818419229e+00  4.314097316507600e-01 -4.273149259293701e-17

-2.926139909621628e-17  1.467823899489004e-18  1.162650546504086e+00
 1.467823899489004e-18  8.194123599793489e-17  5.014573419413476e-01
 1.162650546504086e+00  5.014573419413476e-01 -4.068844523716328e-17

-2.906384565529397e-17  1.669989221455588e-18  1.164952685691706e+00
 1.669989221455588e-18  9.218367639309772e-17  4.766837496578763e-01
 1.164952685691706e+00  4.766837496578763e-01 -4.067735201690339e-17

-2.857179914903205e-17  6.272524706990730e-19  1.142671969646910e+00
 6.272524706990730e-19  1.438968338532878e-17  4.476061700331970e-01
 1.142671969646910e+00  4.476061700331970e-01 -3.965445273880413e-17

-2.812380072153106e-17 -4.988643307964882e-19  1.115566832990773e+00
-4.988643307964882e-19 -6.130650423175407e-17  4.508119363310152e-01
 1.115566832990773e+00  4.508119363310152e-01 -3.861311957829585e-17

-2.766386283521782e-17 -7.564306460457510e-19  1.091314582948688e+00
-7.564306460457510e-19 -7.848808044000934e-17  4.594211224225952e-01
 1.091314582948688e+00  4.594211224225952e-01 -3.771136185886509e-17

-2.891883539351224e-17  8.817631533524004e-19  1.081096661205361e+00
 8.817631533524004e-19 -7.273276213737421e-18  4.632031329834581e-01
 1.081096661205361e+00  4.632031329834581e-01 -3.731753886606209e-17

-3.138593110205215e-17  2.698750460654533e-18  1.074873976093895e+00
 2.698750460654533e-18  5.066957437099576e-17  4.592890735338998e-01
 1.074873976093895e+00  4.592890735338998e-01 -3.706561676073960e-17

-5.235405573779596e-17  8.576864637254386e-18  1.063720698204223e+00
 8.576864637254386e-18 -3.602345849465489e-17  4.610693725520353e-01
 1.063720698204223e+00  4.610693725520353e-01 -3.663050437812049e-17

-2.915654225526902e-17  1.985822921258956e-18  1.054212065342033e+00
 1.985822921258956e-18  4.362636980057850e-17  4.595116432373565e-01
 1.054212065342033e+00  4.595116432373565e-01 -3.624321554780316e-17

-2.904613886091687e-17  1.149199508626132e-18  1.049425689065987e+00
 1.149199508626132e-18 -7.927933405953506e-18  4.589370934090183e-01
 1.049425689065987e+00  4.589370934090183e-01 -3.603884050813865e-17

-2.679582811352629e-17  9.048232782246158e-20  1.051973510037147e+00
 9.048232782246158e-20 -2.639661991443728e-17  4.548490783263428e-01
 1.051973510037147e+00  4.548490783263428e-01 -3.611548729944400e-17

-2.653175453386367e-17  2.081574474844307e-19  1.045659758776009e+00
 2.081574474844307e-19 -1.503862769894713e-17  4.675532526290891e-01
 1.045659758776009e+00  4.675532526290891e-01 -3.591229238169063e-17

-2.667426439057047e-17  6.027966789142496e-19  1.052971302959771e+00
 6.027966789142496e-19  8.094120147740710e-18  4.594856233347356e-01
 1.052971302959771e+00  4.594856233347356e-01 -3.617959011372257e-17

-2.662810733227144e-17  7.239061002466509e-19  1.057189994745216e+00
 7.239061002466509e-19  1.590698637037341e-17  4.515613994169857e-01
 1.057189994745216e+00  4.515613994169857e-01 -3.633573273204323e-17

-2.647057276154765e-17  7.676987925898884e-19  1.046550723068297e+00
 7.676987925898884e-19  1.787065747113959e-17  4.547725824433380e-01
 1.046550723068297e+00  4.547725824433380e-01 -3.598667816361040e-17

-2.657294508484981e-17  9.167877090706497e-19  1.051937960127706e+00
 9.167877090706497e-19  2.653456320456033e-17  4.561038988502860e-01
 1.051937960127706e+00  4.561038988502860e-01 -3.622580083498625e-17

-2.678337887895733e-17 -2.261950487518396e-19  1.061261501950412e+00
-2.261950487518396e-19 -4.532394808597023e-17  4.569771671336387e-01
 1.061261501950412e+00  4.569771671336387e-01 -3.659700975044053e-17

-2.693938989552035e-17  1.234416737020820e-18  1.073822303046889e+00
 1.234416737020820e-18  4.680889981355600e-17  4.524923495249727e-01
 1.073822303046889e+00  4.524923495249727e-01 -3.710090354193102e-17

-2.715077190568687e-17  7.319836969391955e-19  1.083545029941831e+00
 7.319836969391955e-19  1.792672918117949e-17  4.439638922533566e-01
 1.083545029941831e+00  4.439638922533566e-01 -3.753188742816730e-17

-2.783317310855684e-17  8.204791944316979e-20  1.121921276707178e+00
 8.204791944316979e-20 -2.173741979977400e-17  4.356017232359657e-01
 1.121921276707178e+00  4.356017232359657e-01 -3.901357867823949e-17

-2.886890650123142e-17 -3.409338407755321e-19  1.190138414969143e+00
-3.409338407755321e-19 -4.832583960575912e-17  4.183063782557506e-01
 1.190138414969143e+00  4.183063782557506e-01 -4.154212463811394e-17

-2.964776565907737e-17 -1.129818305622617e-18  1.223572365729298e+00
-1.129818305622617e-18 -1.038300616991137e-16  4.802312605675926e-01
 1.223572365729298e+00  4.802312605675926e-01 -4.288904046077058e-17

-2.795587487478061e-17 -8.834632338274699e-19  1.046776250651403e+00
-8.834632338274699e-19 -7.587489288600640e-17  6.824296810752771e-01
 1.046776250651403e+00  6.824296810752771e-01 -3.709944465823430e-17

-2.957115889136284e-17 -2.714391570719725e-19  1.208428688145273e+00
-2.714391570719725e-19 -2.633878136707318e-17  5.196548318241344e-01
 1.208428688145273e+00  5.196548318241344e-01 -4.260231309564847e-17

-2.911721940953737e-17  3.822221422121200e-19  1.219660236294005e+00
 3.822221422121200e-19  1.013654304229316e-17  4.111099889032557e-01
 1.219660236294005e+00  4.111099889032557e-01 -4.228405853197129e-17

-2.831556213669420e-17  1.517845110370182e-19  1.172117051233994e+00
 1.517845110370182e-19 -5.444065436068068e-18  4.140179661392019e-01
 1.172117051233994e+00  4.140179661392019e-01 -4.034743545529571e-17

-2.741908532927172e-17  1.059189913542101e-19  1.115044549625489e+00
 1.059189913542101e-19 -1.476224353417348e-18  4.564449612096937e-01
 1.115044549625489e+00  4.564449612096937e-01 -3.828950161533482e-17

-2.669331175905743e-17 -4.446385131373458e-19  1.072887686652099e+00
-4.446385131373458e-19 -3.112641013316822e-17  4.794041637363226e-01
 1.072887686652099e+00  4.794041637363226e-01 -3.672567526643017e-17

-2.588718901406903e-17 -1.877529727918916e-19  1.042811803999730e+00
-1.877529727918916e-19 -2.191330093751800e-17  4.287678129976401e-01
 1.042811803999730e+00  4.287678129976401e-01 -3.530609911457415e-17

-2.658859305363077e-17 -1.344997503694477e-19  1.111056440694069e+00
-1.344997503694477e-19 -1.901253123014616e-17  3.640528564614581e-01
 1.111056440694069e+00  3.640528564614581e-01 -3.775696689030817e-17

-2.622817186956368e-17 -3.330358231317864e-19  1.056538234431725e+00
-3.330358231317864e-19 -2.541630372216588e-17  4.809884618332038e-01
 1.056538234431725e+00  4.809884618332038e-01 -3.603468428881272e-17

-2.605497845802498e-17 -2.434872639949650e-19  1.052015052953687e+00
-2.434872639949650e-19 -1.698348255482775e-17  4.777183758618022e-01
 1.052015052953687e+00  4.777183758618022e-01 -3.591024296677035e-17

-2.452052131105265e-17 -1.209300222949301e-19  9.769210206489765e-01
-1.209300222949301e-19 -1.369556501192699e-17  4.477946704353543e-01
 9.769210206489765e-01  4.477946704353543e-01 -3.283920820199936e-17

-2.608710639592809e-17  5.317099896781835e-20  1.002002406836777e+00
 5.317099896781835e-20 -1.388473328709915e-17  4.378509057347021e-01
 1.002002406836777e+00  4.378509057347021e-01 -3.380004061971741e-17

-5.280461994713405e-17  4.658808041304457e-18  1.060124900500468e+00
 4.658808041304457e-18 -1.497209245795339e-17  4.568843123015054e-01
 1.060124900500468e+00  4.568843123015054e-01 -3.597324081243961e-17

-4.433587604691732e-17  3.064260047521983e-18  1.058386413764450e+00
 3.064260047521983e-18 -1.599233487757885e-17  4.546499076385921e-01
 1.058386413764450e+00  4.546499076385921e-01 -3.595345941645047e-17

-3.413183111918415e-17  1.420531485088456e-18  1.014194399804767e+00
 1.420531485088456e-18 -1.398754989188549e-17  4.595180143817984e-01
 1.014194399804767e+00  4.595180143817984e-01 -3.429060724192681e-17

-2.378227018734632e-17 -1.341255308388347e-19  9.358592790911677e-01
-1.341255308388347e-19 -1.103193183210138e-17  4.784051095415424e-01
 9.358592790911677e-01  4.784051095415424e-01 -3.138870639819327e-17

-2.358775763355933e-17 -4.755995056645362e-19  9.496322502669119e-01
-4.755995056645362e-19 -1.376664541947559e-17  3.437674317495238e-01
 9.496322502669119e-01  3.437674317495238e-01 -3.182512707832538e-17

-2.484243211381555e-17 -2.735158238492714e-19  1.006564394992405e+00
-2.735158238492714e-19 -1.364942800008746e-17  4.196595017971231e-01
 1.006564394992405e+00  4.196595017971231e-01 -3.394783328468927e-17

-2.496156515137953e-17  3.392091953946591e-19  9.789057443480083e-01
 3.392091953946591e-19 -1.168076164729422e-17  5.778193168711124e-01
 9.789057443480083e-01  5.778193168711124e-01 -3.295484336466675e-17

-2.672580814588019e-17 -1.867484527354837e-19  1.108638413405850e+00
-1.867484527354837e-19 -1.426859809274748e-17  4.502956724245518e-01
 1.108638413405850e+00  4.502956724245518e-01 -3.773456150084390e-17

-2.581685709303777e-17 -2.035032877037409e-19  1.046172969863840e+00
-2.035032877037409e-19 -1.435365033798655e-17  4.656101021759205e-01
 1.046172969863840e+00  4.656101021759205e-01 -3.541723456645544e-17

-2.450326419273528e-17 -6.033699878728777e-20  9.681221028771583e-01
-6.033699878728777e-20 -1.413795875669534e-17  4.516649645690179e-01
 9.681221028771583e-01  4.516649645690179e-01 -3.241894038648259e-17

-2.597541477029533e-17  2.619800170532483e-19  1.015115973785114e+00
 2.619800170532483e-19 -1.363524494025461e-17  4.330066682868884e-01
 1.015115973785114e+00  4.330066682868884e-01 -3.450904902212367e-17

-3.169701174231530e-17  2.428424766121199e-18  1.018941137587858e+00
 2.428424766121199e-18 -1.183581201942682e-17  5.775295469075531e-01
 1.018941137587858e+00  5.775295469075531e-01 -3.509736042407041e-17

-1.626952051536038e-17 -3.204871400809880e-18  9.816728000981566e-01
-3.204871400809880e-18 -1.249786139596768e-17  5.583910986211731e-01
 9.816728000981566e-01  5.583910986211731e-01 -3.398981425277980e-17

-5.390897542748609e-17  1.070243388989152e-17  1.077316773443036e+00
 1.070243388989152e-17 -2.030562591954160e-17  2.944241083102058e-01
 1.077316773443036e+00  2.944241083102058e-01 -3.666206364168623e-17

 1.602083593992826e-17 -1.493968427883531e-17  1.035341207262974e+00
-1.493968427883531e-17 -8.821356226696696e-18  3.851944751655721e-01
 1.035341207262974e+00  3.851944751655721e-01 -3.557455702776822e-17

-3.050789764887046e-17  2.338720864175289e-18  1.004961209877237e+00
 2.338720864175289e-18 -1.265853607637592e-17  5.275228470345305e-01
 1.004961209877237e+00  5.275228470345305e-01 -3.470219994657317e-17

-2.669563093746470e-17  9.342744974658152e-19  1.029273764580899e+00
 9.342744974658152e-19 -1.499794183539089e-17  3.561797385975607e-01
 1.029273764580899e+00  3.561797385975607e-01 -3.525299994009935e-17

-2.462441714010204e-17  1.711110603236982e-19  9.942351233527598e-01
 1.711110603236982e-19 -1.473317776372229e-17  3.812524926815067e-01
 9.942351233527598e-01  3.812524926815067e-01 -3.416718656753309e-17

-2.480425750384340e-17  5.761014065986051e-19  9.484486576186210e-01
 5.761014065986051e-19 -1.359440784079086e-17  5.231231197128349e-01
 9.484486576186210e-01  5.231231197128349e-01 -3.243480786986855e-17

-2.692506256890803e-17  3.716718511303005e-19  1.113213222076542e+00
 3.716718511303005e-19 -1.475446160221831e-17  4.222078119746668e-01
 1.113213222076542e+00  4.222078119746668e-01 -3.846812677933917e-17

-2.639905276539268e-17  2.397229190352801e-19  1.084508267247973e+00
 2.397229190352801e-19 -1.331712512506165e-17  4.123031019105036e-01
 1.084508267247973e+00  4.123031019105036e-01 -3.736351447396917e-17

-2.555177574192704e-17  1.784527216287468e-19  1.027805507868813e+00
 1.784527216287468e-19 -1.528551174016266e-17  4.228060938783600e-01
 1.027805507868813e+00  4.228060938783600e-01 -3.521017337008399e-17

-2.545208425186835e-17  1.528445920304136e-19  1.031489528952714e+00
 1.528445920304136e-19 -1.649488621737000e-17  3.970831172932988e-01
 1.031489528952714e+00  3.970831172932988e-01 -3.522605189211491e-17

-2.546771620439523e-17  1.706319148339221e-19  1.037762530964693e+00
 1.706319148339221e-19 -1.408911583887471e-17  4.010798704315218e-01
 1.037762530964693e+00  4.010798704315218e-01 -3.542394444318953e-17

-2.538175011011192e-17  1.454480833269465e-19  1.029337973113244e+00
 1.454480833269465e-19 -1.270383117132873e-17  4.289041865584873e-01
 1.029337973113244e+00  4.289041865584873e-01 -3.510703355188896e-17

-2.514272392189020e-17  1.187784328163488e-19  1.013928669469787e+00
 1.187784328163488e-19 -1.311292152353717e-17  4.373858799128549e-01
 1.013928669469787e+00  4.373858799128549e-01 -3.451117989480655e-17

-2.501222799109438e-17  8.188365314491647e-20  1.010551364938753e+00
 8.188365314491647e-20 -1.399358300486622e-17  4.307798640868778e-01
 1.010551364938753e+00  4.307798640868778e-01 -3.434967482144407e-17

-2.493284345128825e-17  7.322966857081240e-20  1.008778984707069e+00
 7.322966857081240e-20 -1.474662318066505e-17  4.232604468223679e-01
 1.008778984707069e+00  4.232604468223679e-01 -3.424634992349351e-17

-2.479926638767140e-17  7.546694250371870e-20  1.000854237130520e+00
 7.546694250371870e-20 -1.339437922855500e-17  4.356727677360085e-01
 1.000854237130520e+00  4.356727677360085e-01 -3.396257363155644e-17

-2.485305304398831e-17  8.999448611032334e-20  1.002199889024397e+00
 8.999448611032334e-20 -1.434782840698993e-17  4.251066954122717e-01
 1.002199889024397e+00  4.251066954122717e-01 -3.397084404680357e-17

-2.171550889482622e-17 -1.014776469094178e-18  9.983024740645754e-01
-1.014776469094178e-18 -1.185876414532018e-17  4.369952282822945e-01
 9.983024740645754e-01  4.369952282822945e-01 -3.381655799048542e-17

-2.113707244132886e-17 -1.018741755974981e-18  9.605234156865937e-01
-1.018741755974981e-18 -1.152515917395468e-17  4.493299202651208e-01
 9.605234156865937e-01  4.493299202651208e-01 -3.239845532177898e-17

-1.067582446945476e-16  3.046539032125735e-17  1.000920180124016e+00
 3.046539032125735e-17 -2.461399835443895e-17  3.817700346716484e-01
 1.000920180124016e+00  3.817700346716484e-01 -3.374810503640443e-17

-2.302303366117390e-17 -3.298258179053816e-19  9.638222484877743e-01
-3.298258179053816e-19 -1.279252128518808e-17  4.270746100792276e-01
 9.638222484877743e-01  4.270746100792276e-01 -3.249159695692448e-17

-2.681507487654123e-17  8.910429604483985e-19  9.915781751718454e-01
 8.910429604483985e-19 -1.315006144159219e-17  4.707004063691477e-01
 9.915781751718454e-01  4.707004063691477e-01 -3.354819670751420e-17

-2.311765626017843e-17 -3.984191020373947e-19  9.657023716252421e-01
-3.984191020373947e-19 -1.148288330928290e-17  4.897240113564026e-01
 9.657023716252421e-01  4.897240113564026e-01 -3.268521298483741e-17

-2.493972364496303e-17  8.688616527474322e-20  1.022109815509689e+00
 8.688616527474322e-20 -1.433411542088263e-17  3.829841052246951e-01
 1.022109815509689e+00  3.829841052246951e-01 -3.465093453923159e-17

-2.519511281089537e-17  1.664779867537013e-19  1.021706394502439e+00
 1.664779867537013e-19 -1.386190398917769e-17  4.049503458243357e-01
 1.021706394502439e+00  4.049503458243357e-01 -3.473833575359345e-17

-2.574213494752020e-17  3.186685662931184e-19  1.037480053753129e+00
 3.186685662931184e-19 -1.338100094095468e-17  4.512288198630594e-01
 1.037480053753129e+00  4.512288198630594e-01 -3.540825568551254e-17

-2.585487755437538e-17  3.492819807983709e-19  1.043481522980645e+00
 3.492819807983709e-19 -1.367976117601837e-17  4.273206106448098e-01
 1.043481522980645e+00  4.273206106448098e-01 -3.575205588793337e-17

-2.587360369179750e-17  3.515550279709721e-19  1.050953896218988e+00
 3.515550279709721e-19 -1.470783007514728e-17  3.957838693608187e-01
 1.050953896218988e+00  3.957838693608187e-01 -3.602691521748146e-17

-2.561784536184569e-17  3.827429517755624e-19  1.031665174050264e+00
 3.827429517755624e-19 -1.401284610214385e-17  4.157087522165405e-01
 1.031665174050264e+00  4.157087522165405e-01 -3.536238788838610e-17

-2.565065545715769e-17  3.606760619166027e-19  1.032723953423423e+00
 3.606760619166027e-19 -1.455241336572167e-17  4.139984711673132e-01
 1.032723953423423e+00  4.139984711673132e-01 -3.540913137131663e-17


CELL_DATA 1486
SCALARS dislocation_index int
LOOKUP_TABLE default
0
1
2
3
4
5
6
7
8
9
10
11
12
13
14
15
16
17
18
19
20
21
22
23
24
25
26
27
28
29
30
31
32
33
34
35
36
37
38
39
40
41
42
43
44
45
46
47
48
49
50
51
52
53
54
55
56
57
58
59
60
61
62
63
64
65
66
67
68
69
70
71
72
73
74
75
76
77
78
79
80
81
82
83
84
85
86
87
88
89
90
91
92
93
94
95
96
97
98
99
100
101
102
103
104
105
106
107
108
109
110
111
112
113
114
115
116
117
118
119
120
121
122
123
124
125
126
127
128
129
130
131
132
133
134
135
136
137
138
139
140
141
142
143
144
145
146
147
148
149
150
151
152
153
154
155
156
157
158
159
160
161
162
163
164
165
166
167
168
169
170
171
172
173
174
175
176
177
178
179
180
181
182
183
184
185
186
187
188
189
190
191
192
193
194
195
196
197
198
199
200
201
202
203
204
205
206
207
208
209
210
211
212
213
214
215
216
217
218
219
220
221
222
223
224
225
226
227
228
229
230
231
232
233
234
235
236
237
238
239
240
241
242
243
244
245
246
247
248
249
250
251
252
253
254
255
256
257
258
259
260
261
262
263
264
265
266
267
268
269
270
271
272
273
274
275
276
277
278
279
280
281
282
283
284
285
286
287
288
289
290
291
292
293
294
295
296
297
298
299
300
301
302
303
304
305
306
307
308
309
310
311
312
313
314
315
316
317
318
319
320
321
322
323
324
325
326
327
328
329
330
331
332
333
334
335
336
337
338
339
340
341
342
343
344
345
346
347
348
349
350
351
352
353
354
355
356
357
358
359
360
361
362
363
364
365
366
367
368
369
370
371
372
373
374
375
376
377
378
379
380
381
382
383
384
385
386
387
388
389
390
391
392
393
394
395
396
397
398
399
400
401
402
403
404
405
406
407
408
409
410
411
412
413
414
415
416
417
418
419
420
421
422
423
424
425
426
427
428
429
430
431
432
433
434
435
436
437
438
439
440
441
442
443
444
445
446
447
448
449
450
451
452
453
454
455
456
457
458
459
460
461
462
463
464
465
466
467
468
469
470
471
472
473
474
475
476
477
478
479
480
481
482
483
484
485
486
487
488
489
490
491
492
493
494
495
496
497
498
499
500
501
502
503
504
505
506
507
508
509
510
511
512
513
514
515
516
517
518
519
520
521
522
523
524
525
526
527
528
529
530
531
532
533
534
535
536
537
538
539
540
541
542
543
544
545
546
547
548
549
550
551
552
553
554
555
556
557
558
559
560
561
562
563
564
565
566
567
568
569
570
571
572
573
574
575
576
577
578
579
580
581
582
583
584
585
586
587
588
589
590
591
592
593
594
595
596
597
598
599
600
601
602
603
604
605
606
607
608
609
610
611
612
613
614
615
616
617
618
619
620
621
622
623
624
625
626
627
628
629
630
631
632
633
634
635
636
637
638
639
640
641
642
643
644
645
646
647
648
649
650
651
652
653
654
655
656
657
658
659
660
661
662
663
664
665
666
667
668
669
670
671
672
673
674
675
676
677
678
679
680
681
682
683
684
685
686
687
688
689
690
691
692
693
694
695
696
697
698
699
700
701
702
703
704
705
706
707
708
709
710
711
712
713
714
715
716
717
718
719
720
721
722
723
724
725
726
727
728
729
730
731
732
733
734
735
736
737
738
739
740
741
742
743
744
745
746
747
748
749
750
751
752
753
754
755
756
757
758
759
760
761
762
763
764
765
766
767
768
769
770
771
772
773
774
775
776
777
778
779
780
781
782
783
784
785
786
787
788
789
790
791
792
793
794
795
796
797
798
799
800
801
802
803
804
805
806
807
808
809
810
811
812
813
814
815
816
817
818
819
820
821
822
823
824
825
826
827
828
829
830
831
832
833
834
835
836
837
838
839
840
841
842
843
844
845
846
847
848
849
850
851
852
853
854
855
856
857
858
859
860
861
862
863
864
865
866
867
868
869
870
871
872
873
874
875
876
877
878
879
880
881
882
883
884
885
886
887
888
889
890
891
892
893
894
895
896
897
898
899
900
901
902
903
904
905
906
907
908
909
910
911
912
913
914
915
916
917
918
919
920
921
922
923
924
925
926
927
928
929
930
931
932
933
934
935
936
937
938
939
940
941
942
943
944
945
946
947
948
949
950
951
952
953
954
955
956
957
958
959
960
961
962
963
964
965
966
967
968
969
970
971
972
973
974
975
976
977
978
979
980
981
982
983
984
985
986
987
988
989
990
991
992
993
994
995
996
997
998
999
1000
1001
1002
1003
1004
1005
1006
1007
1008
1009
1010
1011
1012
1013
1014
1015
1016
1017
1018
1019
1020
1021
1022
1023
1024
1025
1026
1027
1028
1029
1030
1031
1032
1033
1034
1035
1036
1037
1038
1039
1040
1041
1042
1043
1044
1045
1046
1047
1048
1049
1050
1051
1052
1053
1054
1055
1056
1057
1058
1059
1060
1061
1062
1063
1064
1065
1066
1067
1068
1069
1070
1071
1072
1073
1074
1075
1076
1077
1078
1079
1080
1081
1082
1083
1084
1085
1086
1087
1088
1089
1090
1091
1092
1093
1094
1095
1096
1097
1098
1099
1100
1101
1102
1103
1104
1105
1106
1107
1108
1109
1110
1111
1112
1113
1114
1115
1116
1117
1118
1119
1120
1121
1122
1123
1124
1125
1126
1127
1128
1129
1130
1131
1132
1133
1134
1135
1136
1137
1138
1139
1140
1141
1142
1143
1144
1145
1146
1147
1148
1149
1150
1151
1152
1153
1154
1155
1156
1157
1158
1159
1160
1161
1162
1163
1164
1165
1166
1167
1168
1169
1170
1171
1172
1173
1174
1175
1176
1177
1178
1179
1180
1181
1182
1183
1184
1185
1186
1187
1188
1189
1190
1191
1192
1193
1194
1195
1196
1197
1198
1199
1200
1201
1202
1203
1204
1205
1206
1207
1208
1209
1210
1211
1212
1213
1214
1215
1216
1217
1218
1219
1220
1221
1222
1223
1224
1225
1226
1227
1228
1229
1230
1231
1232
1233
1234
1235
1236
1237
1238
1239
1240
1241
1242
1243
1244
1245
1246
1247
1248
1249
1250
1251
1252
1253
1254
1255
1256
1257
1258
1259
1260
1261
1262
1263
1264
1265
1266
1267
1268
1269
1270
1271
1272
1273
1274
1275
1276
1277
1278
1279
1280
1281
1282
1283
1284
1285
1286
1287
1288
1289
1290
1291
1292
1293
1294
1295
1296
1297
1298
1299
1300
1301
1302
1303
1304
1305
1306
1307
1308
1309
1310
1311
1312
1313
1314
1315
1316
1317
1318
1319
1320
1321
1322
1323
1324
1325
1326
1327
1328
1329
1330
1331
1332
1333
1334
1335
1336
1337
1338
1339
1340
1341
1342
1343
1344
1345
1346
1347
1348
1349
1350
1351
1352
1353
1354
1355
1356
1357
1358
1359
1360
1361
1362
1363
1364
1365
1366
1367
1368
1369
1370
1371
1372
1373
1374
1375
1376
1377
1378
1379
1380
1381
1382
1383
1384
1385
1386
1387
1388
1389
1390
1391
1392
1393
1394
1395
1396
1397
1398
1399
1400
1401
1402
1403
1404
1405
1406
1407
1408
1409
1410
1411
1412
1413
1414
1415
1416
1417
1418
1419
1420
1421
1422
1423
1424
1425
1426
1427
1428
1429
1430
1431
1432
1433
1434
1435
1436
1437
1438
1439
1440
1441
1442
1443
1444
1445
1446
1447
1448
1449
1450
1451
1452
1453
1454
1455
1456
1457
1458
1459
1460
1461
1462
1463
1464
1465
1466
1467
1468
1469
1470
1471
1472
1473
1474
1475
1476
1477
1478
1479
1480
1481
1482
1483
1484
1485

VECTORS burgers_vector_global double
-1.429999999999999e+00 -8.256108849411650e-01  3.393140768766017e-17
 1.429999999999999e+00  8.256108849411650e-01 -3.393140768766017e-17
-1.429999999999999e+00 -8.256108849411650e-01  3.393140768766017e-17
-1.429999999999999e+00 -8.256108849411650e-01  3.393140768766017e-17
-1.429999999999999e+00 -8.256108849411650e-01  3.393140768766017e-17
-1.429999999999999e+00 -8.256108849411650e-01  3.393140768766017e-17
-1.429999999999999e+00 -8.256108849411650e-01  3.393140768766017e-17
-1.429999999999999e+00 -8.256108849411650e-01  3.393140768766017e-17
-1.429999999999999e+00 -8.256108849411650e-01  3.393140768766017e-17
-1.429999999999999e+00 -8.256108849411650e-01  3.393140768766017e-17
-1.429999999999999e+00 -8.256108849411650e-01  3.393140768766017e-17
-1.429999999999999e+00 -8.256108849411650e-01  3.393140768766017e-17
-1.429999999999999e+00 -8.256108849411650e-01  3.393140768766017e-17
-1.429999999999999e+00 -8.256108849411650e-01  3.393140768766017e-17
-1.429999999999999e+00 -8.256108849411650e-01  3.393140768766017e-17
-1.429999999999999e+00 -8.256108849411650e-01  3.393140768766017e-17
-1.429999999999999e+00 -8.256108849411650e-01  3.393140768766017e-17
-1.429999999999999e+00 -8.256108849411650e-01  3.393140768766017e-17
-1.429999999999999e+00 -8.256108849411650e-01  3.393140768766017e-17
-1.429999999999999e+00 -8.256108849411650e-01  3.393140768766017e-17
-1.429999999999999e+00 -8.256108849411650e-01  3.393140768766017e-17
-1.429999999999999e+00 -8.256108849411650e-01  3.393140768766017e-17
-1.429999999999999e+00 -8.256108849411650e-01  3.393140768766017e-17
-1.429999999999999e+00 -8.256108849411650e-01  3.393140768766017e-17
-1.429999999999999e+00 -8.256108849411650e-01  3.393140768766017e-17
-1.429999999999999e+00 -8.256108849411650e-01  3.393140768766017e-17
-1.429999999999999e+00 -8.256108849411650e-01  3.393140768766017e-17
-1.429999999999999e+00 -8.256108849411650e-01  3.393140768766017e-17
-1.429999999999999e+00 -8.256108849411650e-01  3.393140768766017e-17
-1.429999999999999e+00 -8.256108849411650e-01  3.393140768766017e-17
-1.429999999999999e+00 -8.256108849411650e-01  3.393140768766017e-17
-1.429999999999999e+00 -8.256108849411650e-01  3.393140768766017e-17
-1.429999999999999e+00 -8.256108849411650e-01  3.393140768766017e-17
-1.429999999999999e+00 -8.256108849411650e-01  3.393140768766017e-17
-1.429999999999999e+00 -8.256108849411650e-01  3.393140768766017e-17
-1.429999999999999e+00 -8.256108849411650e-01  3.393140768766017e-17
-1.429999999999999e+00 -8.256108849411650e-01  3.393140768766017e-17
-1.429999999999999e+00 -8.256108849411650e-01  3.393140768766017e-17
-1.429999999999999e+00 -8.256108849411650e-01  3.393140768766017e-17
-1.429999999999999e+00 -8.256108849411650e-01  3.393140768766017e-17
-1.429999999999999e+00 -8.256108849411650e-01  3.393140768766017e-17
-1.429999999999999e+00 -8.256108849411650e-01  3.393140768766017e-17
-1.429999999999999e+00 -8.256108849411650e-01  3.393140768766017e-17
-1.429999999999999e+00 -8.256108849411650e-01  3.393140768766017e-17
-1.429999999999999e+00 -8.256108849411650e-01  3.393140768766017e-17
-1.429999999999999e+00 -8.256108849411650e-01  3.393140768766017e-17
-1.429999999999999e+00 -8.256108849411650e-01  3.393140768766017e-17
-1.429999999999999e+00 -8.256108849411650e-01  3.393140768766017e-17
-1.429999999999999e+00 -8.256108849411650e-01  3.393140768766017e-17
-1.429999999999999e+00 -8.256108849411650e-01  3.393140768766017e-17
-1.429999999999999e+00 -8.256108849411650e-01  3.393140768766017e-17
-1.429999999999999e+00 -8.256108849411650e-01  3.393140768766017e-17
-1.429999999999999e+00 -8.256108849411650e-01  3.393140768766017e-17
-1.429999999999999e+00 -8.256108849411650e-01  3.393140768766017e-17
-1.429999999999999e+00 -8.256108849411650e-01  3.393140768766017e-17
-1.429999999999999e+00 -8.256108849411650e-01  3.393140768766017e-17
-1.429999999999999e+00 -8.256108849411650e-01  3.393140768766017e-17
-1.429999999999999e+00 -8.256108849411650e-01  3.393140768766017e-17
-1.429999999999999e+00 -8.256108849411650e-01  3.393140768766017e-17
-1.429999999999999e+00 -8.256108849411650e-01  3.393140768766017e-17
-1.429999999999999e+00 -8.256108849411650e-01  3.393140768766017e-17
-1.429999999999999e+00 -8.256108849411650e-01  3.393140768766017e-17
-1.429999999999999e+00 -8.256108849411650e-01  3.393140768766017e-17
-1.429999999999999e+00 -8.256108849411650e-01  3.393140768766017e-17
-1.429999999999999e+00 -8.256108849411650e-01  3.393140768766017e-17
-1.429999999999999e+00 -8.256108849411650e-01  3.393140768766017e-17
-1.429999999999999e+00 -8.256108849411650e-01  3.393140768766017e-17
-1.429999999999999e+00 -8.256108849411650e-01  3.393140768766017e-17
-1.429999999999999e+00 -8.256108849411650e-01  3.393140768766017e-17
-1.429999999999999e+00 -8.256108849411650e-01  3.393140768766017e-17
-1.429999999999999e+00 -8.256108849411650e-01  3.393140768766017e-17
-1.429999999999999e+00 -8.256108849411650e-01  3.393140768766017e-17
-1.429999999999999e+00 -8.256108849411650e-01  3.393140768766017e-17
-1.429999999999999e+00 -8.256108849411650e-01  3.393140768766017e-17
-1.429999999999999e+00 -8.256108849411650e-01  3.393140768766017e-17
-1.429999999999999e+00 -8.256108849411650e-01  3.393140768766017e-17
-1.429999999999999e+00 -8.256108849411650e-01  3.393140768766017e-17
-1.429999999999999e+00 -8.256108849411650e-01  3.393140768766017e-17
-1.429999999999999e+00 -8.256108849411650e-01  3.393140768766017e-17
-1.429999999999999e+00 -8.256108849411650e-01  3.393140768766017e-17
-1.429999999999999e+00 -8.256108849411650e-01  3.393140768766017e-17
-1.429999999999999e+00 -8.256108849411650e-01  3.393140768766017e-17
-1.429999999999999e+00 -8.256108849411650e-01  3.393140768766017e-17
-1.429999999999999e+00 -8.256108849411650e-01  3.393140768766017e-17
-1.429999999999999e+00 -8.256108849411650e-01  3.393140768766017e-17
-1.429999999999999e+00 -8.256108849411650e-01  3.393140768766017e-17
-1.429999999999999e+00 -8.256108849411650e-01  3.393140768766017e-17
-1.429999999999999e+00 -8.256108849411650e-01  3.393140768766017e-17
-1.429999999999999e+00 -8.256108849411650e-01  3.393140768766017e-17
-1.429999999999999e+00 -8.256108849411650e-01  3.393140768766017e-17
-1.429999999999999e+00 -8.256108849411650e-01  3.393140768766017e-17
-1.429999999999999e+00 -8.256108849411650e-01  3.393140768766017e-17
-1.429999999999999e+00 -8.256108849411650e-01  3.393140768766017e-17
-1.429999999999999e+00 -8.256108849411650e-01  3.393140768766017e-17
-1.429999999999999e+00 -8.256108849411650e-01  3.393140768766017e-17
-1.429999999999999e+00 -8.256108849411650e-01  3.393140768766017e-17
-1.429999999999999e+00 -8.256108849411650e-01  3.393140768766017e-17
-1.429999999999999e+00 -8.256108849411650e-01  3.393140768766017e-17
-1.429999999999999e+00 -8.256108849411650e-01  3.393140768766017e-17
-1.429999999999999e+00 -8.256108849411650e-01  3.393140768766017e-17
-1.429999999999999e+00 -8.256108849411650e-01  3.393140768766017e-17
-1.429999999999999e+00 -8.256108849411650e-01  3.393140768766017e-17
-1.429999999999999e+00 -8.256108849411650e-01  3.393140768766017e-17
-1.429999999999999e+00 -8.256108849411650e-01  3.393140768766017e-17
-1.429999999999999e+00 -8.256108849411650e-01  3.393140768766017e-17
-1.429999999999999e+00 -8.256108849411650e-01  3.393140768766017e-17
-1.429999999999999e+00 -8.256108849411650e-01  3.393140768766017e-17
-1.429999999999999e+00 -8.256108849411650e-01  3.393140768766017e-17
-1.429999999999999e+00 -8.256108849411650e-01  3.393140768766017e-17
-1.429999999999999e+00 -8.256108849411650e-01  3.393140768766017e-17
-1.429999999999999e+00 -8.256108849411650e-01  3.393140768766017e-17
-1.429999999999999e+00 -8.256108849411650e-01  3.393140768766017e-17
-1.429999999999999e+00 -8.256108849411650e-01  3.393140768766017e-17
-1.429999999999999e+00 -8.256108849411650e-01  3.393140768766017e-17
-1.429999999999999e+00 -8.256108849411650e-01  3.393140768766017e-17
-1.429999999999999e+00 -8.256108849411650e-01  3.393140768766017e-17
-1.429999999999999e+00 -8.256108849411650e-01  3.393140768766017e-17
-1.429999999999999e+00 -8.256108849411650e-01  3.393140768766017e-17
-1.429999999999999e+00 -8.256108849411650e-01  3.393140768766017e-17
-1.429999999999999e+00 -8.256108849411650e-01  3.393140768766017e-17
-1.429999999999999e+00 -8.256108849411650e-01  3.393140768766017e-17
-1.429999999999999e+00 -8.256108849411650e-01  3.393140768766017e-17
-1.429999999999999e+00 -8.256108849411650e-01  3.393140768766017e-17
-1.429999999999999e+00 -8.256108849411650e-01  3.393140768766017e-17
-1.429999999999999e+00 -8.256108849411650e-01  3.393140768766017e-17
-1.429999999999999e+00 -8.256108849411650e-01  3.393140768766017e-17
-1.429999999999999e+00 -8.256108849411650e-01  3.393140768766017e-17
-1.429999999999999e+00 -8.256108849411650e-01  3.393140768766017e-17
-1.429999999999999e+00 -8.256108849411650e-01  3.393140768766017e-17
-1.429999999999999e+00 -8.256108849411650e-01  3.393140768766017e-17
-1.429999999999999e+00 -8.256108849411650e-01  3.393140768766017e-17
-1.429999999999999e+00 -8.256108849411650e-01  3.393140768766017e-17
-1.429999999999999e+00 -8.256108849411650e-01  3.393140768766017e-17
-1.429999999999999e+00 -8.256108849411650e-01  3.393140768766017e-17
-1.429999999999999e+00 -8.256108849411650e-01  3.393140768766017e-17
-1.429999999999999e+00 -8.256108849411650e-01  3.393140768766017e-17
-1.429999999999999e+00 -8.256108849411650e-01  3.393140768766017e-17
-1.429999999999999e+00 -8.256108849411650e-01  3.393140768766017e-17
-1.429999999999999e+00 -8.256108849411650e-01  3.393140768766017e-17
-1.429999999999999e+00 -8.256108849411650e-01  3.393140768766017e-17
-1.429999999999999e+00 -8.256108849411650e-01  3.393140768766017e-17
-1.429999999999999e+00 -8.256108849411650e-01  3.393140768766017e-17
-1.429999999999999e+00 -8.256108849411650e-01  3.393140768766017e-17
-1.429999999999999e+00 -8.256108849411650e-01  3.393140768766017e-17
-1.429999999999999e+00 -8.256108849411650e-01  3.393140768766017e-17
-1.429999999999999e+00 -8.256108849411650e-01  3.393140768766017e-17
-1.429999999999999e+00 -8.256108849411650e-01  3.393140768766017e-17
-1.429999999999999e+00 -8.256108849411650e-01  3.393140768766017e-17
-1.429999999999999e+00 -8.256108849411650e-01  3.393140768766017e-17
-1.429999999999999e+00 -8.256108849411650e-01  3.393140768766017e-17
-1.429999999999999e+00 -8.256108849411650e-01  3.393140768766017e-17
-1.429999999999999e+00 -8.256108849411650e-01  3.393140768766017e-17
-1.429999999999999e+00 -8.256108849411650e-01  3.393140768766017e-17
-1.429999999999999e+00 -8.256108849411650e-01  3.393140768766017e-17
-1.429999999999999e+00 -8.256108849411650e-01  3.393140768766017e-17
-1.429999999999999e+00 -8.256108849411650e-01  3.393140768766017e-17
-1.429999999999999e+00 -8.256108849411650e-01  3.393140768766017e-17
-1.429999999999999e+00 -8.256108849411650e-01  3.393140768766017e-17
-1.429999999999999e+00 -8.256108849411650e-01  3.393140768766017e-17
-1.429999999999999e+00 -8.256108849411650e-01  3.393140768766017e-17
-1.429999999999999e+00 -8.256108849411650e-01  3.393140768766017e-17
-1.429999999999999e+00 -8.256108849411650e-01  3.393140768766017e-17
-1.429999999999999e+00 -8.256108849411650e-01  3.393140768766017e-17
-1.429999999999999e+00 -8.256108849411650e-01  3.393140768766017e-17
-1.429999999999999e+00 -8.256108849411650e-01  3.393140768766017e-17
-1.429999999999999e+00 -8.256108849411650e-01  3.393140768766017e-17
-1.429999999999999e+00 -8.256108849411650e-01  3.393140768766017e-17
-1.429999999999999e+00 -8.256108849411650e-01  3.393140768766017e-17
-1.429999999999999e+00 -8.256108849411650e-01  3.393140768766017e-17
-1.429999999999999e+00 -8.256108849411650e-01  3.393140768766017e-17
-1.429999999999999e+00 -8.256108849411650e-01  3.393140768766017e-17
-1.429999999999999e+00 -8.256108849411650e-01  3.393140768766017e-17
-1.429999999999999e+00 -8.256108849411650e-01  3.393140768766017e-17
-1.429999999999999e+00 -8.256108849411650e-01  3.393140768766017e-17
-1.429999999999999e+00 -8.256108849411650e-01  3.393140768766017e-17
-1.429999999999999e+00 -8.256108849411650e-01  3.393140768766017e-17
-1.429999999999999e+00 -8.256108849411650e-01  3.393140768766017e-17
-1.429999999999999e+00 -8.256108849411650e-01  3.393140768766017e-17
-1.429999999999999e+00 -8.256108849411650e-01  3.393140768766017e-17
-1.429999999999999e+00 -8.256108849411650e-01  3.393140768766017e-17
-1.429999999999999e+00 -8.256108849411650e-01  3.393140768766017e-17
-1.429999999999999e+00 -8.256108849411650e-01  3.393140768766017e-17
-1.429999999999999e+00 -8.256108849411650e-01  3.393140768766017e-17
-1.429999999999999e+00 -8.256108849411650e-01  3.393140768766017e-17
-1.429999999999999e+00 -8.256108849411650e-01  3.393140768766017e-17
-1.429999999999999e+00 -8.256108849411650e-01  3.393140768766017e-17
-1.429999999999999e+00 -8.256108849411650e-01  3.393140768766017e-17
-1.429999999999999e+00 -8.256108849411650e-01  3.393140768766017e-17
-1.429999999999999e+00 -8.256108849411650e-01  3.393140768766017e-17
-1.429999999999999e+00 -8.256108849411650e-01  3.393140768766017e-17
-1.429999999999999e+00 -8.256108849411650e-01  3.393140768766017e-17
-1.429999999999999e+00 -8.256108849411650e-01  3.393140768766017e-17
-1.429999999999999e+00 -8.256108849411650e-01  3.393140768766017e-17
-1.429999999999999e+00 -8.256108849411650e-01  3.393140768766017e-17
-1.429999999999999e+00 -8.256108849411650e-01  3.393140768766017e-17
-1.429999999999999e+00 -8.256108849411650e-01  3.393140768766017e-17
 1.429999999999999e+00  8.256108849411650e-01 -3.393140768766017e-17
-1.429999999999999e+00 -8.256108849411650e-01  3.393140768766017e-17
-1.429999999999999e+00 -8.256108849411650e-01  3.393140768766017e-17
-1.429999999999999e+00 -8.256108849411650e-01  3.393140768766017e-17
-1.429999999999999e+00 -8.256108849411650e-01  3.393140768766017e-17
-1.429999999999999e+00 -8.256108849411650e-01  3.393140768766017e-17
-1.429999999999999e+00 -8.256108849411650e-01  3.393140768766017e-17
-1.429999999999999e+00 -8.256108849411650e-01  3.393140768766017e-17
-1.429999999999999e+00 -8.256108849411650e-01  3.393140768766017e-17
-1.429999999999999e+00 -8.256108849411650e-01  3.393140768766017e-17
-1.429999999999999e+00 -8.256108849411650e-01  3.393140768766017e-17
-1.429999999999999e+00 -8.256108849411650e-01  3.393140768766017e-17
-1.429999999999999e+00 -8.256108849411650e-01  3.393140768766017e-17
-1.429999999999999e+00 -8.256108849411650e-01  3.393140768766017e-17
-1.429999999999999e+00 -8.256108849411650e-01  3.393140768766017e-17
-1.429999999999999e+00 -8.256108849411650e-01  3.393140768766017e-17
-1.429999999999999e+00 -8.256108849411650e-01  3.393140768766017e-17
-1.429999999999999e+00 -8.256108849411650e-01  3.393140768766017e-17
-1.429999999999999e+00 -8.256108849411650e-01  3.393140768766017e-17
-1.429999999999999e+00 -8.256108849411650e-01  3.393140768766017e-17
-1.429999999999999e+00 -8.256108849411650e-01  3.393140768766017e-17
-1.429999999999999e+00 -8.256108849411650e-01  3.393140768766017e-17
-1.429999999999999e+00 -8.256108849411650e-01  3.393140768766017e-17
-1.429999999999999e+00 -8.256108849411650e-01  3.393140768766017e-17
-1.429999999999999e+00 -8.256108849411650e-01  3.393140768766017e-17
-1.429999999999999e+00 -8.256108849411650e-01  3.393140768766017e-17
-1.429999999999999e+00 -8.256108849411650e-01  3.393140768766017e-17
-1.429999999999999e+00 -8.256108849411650e-01  3.393140768766017e-17
-1.429999999999999e+00 -8.256108849411650e-01  3.393140768766017e-17
-1.429999999999999e+00 -8.256108849411650e-01  3.393140768766017e-17
-1.429999999999999e+00 -8.256108849411650e-01  3.393140768766017e-17
-1.429999999999999e+00 -8.256108849411650e-01  3.393140768766017e-17
-1.429999999999999e+00 -8.256108849411650e-01  3.393140768766017e-17
-1.429999999999999e+00 -8.256108849411650e-01  3.393140768766017e-17
-1.429999999999999e+00 -8.256108849411650e-01  3.393140768766017e-17
-1.429999999999999e+00 -8.256108849411650e-01  3.393140768766017e-17
-1.429999999999999e+00 -8.256108849411650e-01  3.393140768766017e-17
-1.429999999999999e+00 -8.256108849411650e-01  3.393140768766017e-17
-1.429999999999999e+00 -8.256108849411650e-01  3.393140768766017e-17
-1.429999999999999e+00 -8.256108849411650e-01  3.393140768766017e-17
-1.429999999999999e+00 -8.256108849411650e-01  3.393140768766017e-17
-1.429999999999999e+00 -8.256108849411650e-01  3.393140768766017e-17
-1.429999999999999e+00 -8.256108849411650e-01  3.393140768766017e-17
-1.429999999999999e+00 -8.256108849411650e-01  3.393140768766017e-17
-1.429999999999999e+00 -8.256108849411650e-01  3.393140768766017e-17
-1.429999999999999e+00 -8.256108849411650e-01  3.393140768766017e-17
-1.429999999999999e+00 -8.256108849411650e-01  3.393140768766017e-17
-1.429999999999999e+00 -8.256108849411650e-01  3.393140768766017e-17
-1.429999999999999e+00 -8.256108849411650e-01  3.393140768766017e-17
-1.429999999999999e+00 -8.256108849411650e-01  3.393140768766017e-17
-1.429999999999999e+00 -8.256108849411650e-01  3.393140768766017e-17
-1.429999999999999e+00 -8.256108849411650e-01  3.393140768766017e-17
-1.429999999999999e+00 -8.256108849411650e-01  3.393140768766017e-17
-1.429999999999999e+00 -8.256108849411650e-01  3.393140768766017e-17
-1.429999999999999e+00 -8.256108849411650e-01  3.393140768766017e-17
-1.429999999999999e+00 -8.256108849411650e-01  3.393140768766017e-17
-1.429999999999999e+00 -8.256108849411650e-01  3.393140768766017e-17
-1.429999999999999e+00 -8.256108849411650e-01  3.393140768766017e-17
-1.429999999999999e+00 -8.256108849411650e-01  3.393140768766017e-17
-1.429999999999999e+00 -8.256108849411650e-01  3.393140768766017e-17
-1.429999999999999e+00 -8.256108849411650e-01  3.393140768766017e-17
-1.429999999999999e+00 -8.256108849411650e-01  3.393140768766017e-17
-1.429999999999999e+00 -8.256108849411650e-01  3.393140768766017e-17
-1.429999999999999e+00 -8.256108849411650e-01  3.393140768766017e-17
-1.429999999999999e+00 -8.256108849411650e-01  3.393140768766017e-17
-1.429999999999999e+00 -8.256108849411650e-01  3.393140768766017e-17
-1.429999999999999e+00 -8.256108849411650e-01  3.393140768766017e-17
-1.429999999999999e+00 -8.256108849411650e-01  3.393140768766017e-17
-1.429999999999999e+00 -8.256108849411650e-01  3.393140768766017e-17
-1.429999999999999e+00 -8.256108849411650e-01  3.393140768766017e-17
-1.429999999999999e+00 -8.256108849411650e-01  3.393140768766017e-17
-1.429999999999999e+00 -8.256108849411650e-01  3.393140768766017e-17
-1.429999999999999e+00 -8.256108849411650e-01  3.393140768766017e-17
-1.429999999999999e+00 -8.256108849411650e-01  3.393140768766017e-17
-1.429999999999999e+00 -8.256108849411650e-01  3.393140768766017e-17
-1.429999999999999e+00 -8.256108849411650e-01  3.393140768766017e-17
-1.429999999999999e+00 -8.256108849411650e-01  3.393140768766017e-17
-1.429999999999999e+00 -8.256108849411650e-01  3.393140768766017e-17
-1.429999999999999e+00 -8.256108849411650e-01  3.393140768766017e-17
-1.429999999999999e+00 -8.256108849411650e-01  3.393140768766017e-17
-1.429999999999999e+00 -8.256108849411650e-01  3.393140768766017e-17
-1.429999999999999e+00 -8.256108849411650e-01  3.393140768766017e-17
-1.429999999999999e+00 -8.256108849411650e-01  3.393140768766017e-17
-1.429999999999999e+00 -8.256108849411650e-01  3.393140768766017e-17
-1.429999999999999e+00 -8.256108849411650e-01  3.393140768766017e-17
-1.429999999999999e+00 -8.256108849411650e-01  3.393140768766017e-17
-1.429999999999999e+00 -8.256108849411650e-01  3.393140768766017e-17
-1.429999999999999e+00 -8.256108849411650e-01  3.393140768766017e-17
-1.429999999999999e+00 -8.256108849411650e-01  3.393140768766017e-17
-1.429999999999999e+00 -8.256108849411650e-01  3.393140768766017e-17
-1.429999999999999e+00 -8.256108849411650e-01  3.393140768766017e-17
-1.429999999999999e+00 -8.256108849411650e-01  3.393140768766017e-17
-1.429999999999999e+00 -8.256108849411650e-01  3.393140768766017e-17
-1.429999999999999e+00 -8.256108849411650e-01  3.393140768766017e-17
-1.429999999999999e+00 -8.256108849411650e-01  3.393140768766017e-17
-1.429999999999999e+00 -8.256108849411650e-01  3.393140768766017e-17
-1.429999999999999e+00 -8.256108849411650e-01  3.393140768766017e-17
-1.429999999999999e+00 -8.256108849411650e-01  3.393140768766017e-17
-1.429999999999999e+00 -8.256108849411650e-01  3.393140768766017e-17
-1.429999999999999e+00 -8.256108849411650e-01  3.393140768766017e-17
-1.429999999999999e+00 -8.256108849411650e-01  3.393140768766017e-17
-1.429999999999999e+00 -8.256108849411650e-01  3.393140768766017e-17
-1.429999999999999e+00 -8.256108849411650e-01  3.393140768766017e-17
-1.429999999999999e+00 -8.256108849411650e-01  3.393140768766017e-17
-1.429999999999999e+00 -8.256108849411650e-01  3.393140768766017e-17
-1.429999999999999e+00 -8.256108849411650e-01  3.393140768766017e-17
-1.429999999999999e+00 -8.256108849411650e-01  3.393140768766017e-17
-1.429999999999999e+00 -8.256108849411650e-01  3.393140768766017e-17
-1.429999999999999e+00 -8.256108849411650e-01  3.393140768766017e-17
-1.429999999999999e+00 -8.256108849411650e-01  3.393140768766017e-17
-1.429999999999999e+00 -8.256108849411650e-01  3.393140768766017e-17
-1.429999999999999e+00 -8.256108849411650e-01  3.393140768766017e-17
-1.429999999999999e+00 -8.256108849411650e-01  3.393140768766017e-17
-1.429999999999999e+00 -8.256108849411650e-01  3.393140768766017e-17
-1.429999999999999e+00 -8.256108849411650e-01  3.393140768766017e-17
-1.429999999999999e+00 -8.256108849411650e-01  3.393140768766017e-17
-1.429999999999999e+00 -8.256108849411650e-01  3.393140768766017e-17
-1.429999999999999e+00 -8.256108849411650e-01  3.393140768766017e-17
-1.429999999999999e+00 -8.256108849411650e-01  3.393140768766017e-17
-1.429999999999999e+00 -8.256108849411650e-01  3.393140768766017e-17
-1.429999999999999e+00 -8.256108849411650e-01  3.393140768766017e-17
-1.429999999999999e+00 -8.256108849411650e-01  3.393140768766017e-17
-1.429999999999999e+00 -8.256108849411650e-01  3.393140768766017e-17
-1.429999999999999e+00 -8.256108849411650e-01  3.393140768766017e-17
-1.429999999999999e+00 -8.256108849411650e-01  3.393140768766017e-17
-1.429999999999999e+00 -8.256108849411650e-01  3.393140768766017e-17
-1.429999999999999e+00 -8.256108849411650e-01  3.393140768766017e-17
-1.429999999999999e+00 -8.256108849411650e-01  3.393140768766017e-17
-1.429999999999999e+00 -8.256108849411650e-01  3.393140768766017e-17
-1.429999999999999e+00 -8.256108849411650e-01  3.393140768766017e-17
-1.429999999999999e+00 -8.256108849411650e-01  3.393140768766017e-17
-1.429999999999999e+00 -8.256108849411650e-01  3.393140768766017e-17
-1.429999999999999e+00 -8.256108849411650e-01  3.393140768766017e-17
-1.429999999999999e+00 -8.256108849411650e-01  3.393140768766017e-17
-1.429999999999999e+00 -8.256108849411650e-01  3.393140768766017e-17
-1.429999999999999e+00 -8.256108849411650e-01  3.393140768766017e-17
-1.429999999999999e+00 -8.256108849411650e-01  3.393140768766017e-17
-1.429999999999999e+00 -8.256108849411650e-01  3.393140768766017e-17
-1.429999999999999e+00 -8.256108849411650e-01  3.393140768766017e-17
-1.429999999999999e+00 -8.256108849411650e-01  3.393140768766017e-17
-1.429999999999999e+00 -8.256108849411650e-01  3.393140768766017e-17
-1.429999999999999e+00 -8.256108849411650e-01  3.393140768766017e-17
-1.429999999999999e+00 -8.256108849411650e-01  3.393140768766017e-17
-1.429999999999999e+00 -8.256108849411650e-01  3.393140768766017e-17
-1.429999999999999e+00 -8.256108849411650e-01  3.393140768766017e-17
-1.429999999999999e+00 -8.256108849411650e-01  3.393140768766017e-17
-1.429999999999999e+00 -8.256108849411650e-01  3.393140768766017e-17
-1.429999999999999e+00 -8.256108849411650e-01  3.393140768766017e-17
-1.429999999999999e+00 -8.256108849411650e-01  3.393140768766017e-17
-1.429999999999999e+00 -8.256108849411650e-01  3.393140768766017e-17
-1.429999999999999e+00 -8.256108849411650e-01  3.393140768766017e-17
-1.429999999999999e+00 -8.256108849411650e-01  3.393140768766017e-17
-1.429999999999999e+00 -8.256108849411650e-01  3.393140768766017e-17
-1.429999999999999e+00 -8.256108849411650e-01  3.393140768766017e-17
-1.429999999999999e+00 -8.256108849411650e-01  3.393140768766017e-17
-1.429999999999999e+00 -8.256108849411650e-01  3.393140768766017e-17
-1.429999999999999e+00 -8.256108849411650e-01  3.393140768766017e-17
-1.429999999999999e+00 -8.256108849411650e-01  3.393140768766017e-17
-1.429999999999999e+00 -8.256108849411650e-01  3.393140768766017e-17
-1.429999999999999e+00 -8.256108849411650e-01  3.393140768766017e-17
-1.429999999999999e+00 -8.256108849411650e-01  3.393140768766017e-17
-1.429999999999999e+00 -8.256108849411650e-01  3.393140768766017e-17
-1.429999999999999e+00 -8.256108849411650e-01  3.393140768766017e-17
-1.429999999999999e+00 -8.256108849411650e-01  3.393140768766017e-17
-1.429999999999999e+00 -8.256108849411650e-01  3.393140768766017e-17
-1.429999999999999e+00 -8.256108849411650e-01  3.393140768766017e-17
-1.429999999999999e+00 -8.256108849411650e-01  3.393140768766017e-17
-1.429999999999999e+00 -8.256108849411650e-01  3.393140768766017e-17
-1.429999999999999e+00 -8.256108849411650e-01  3.393140768766017e-17
-1.429999999999999e+00 -8.256108849411650e-01  3.393140768766017e-17
-1.429999999999999e+00 -8.256108849411650e-01  3.393140768766017e-17
-1.429999999999999e+00 -8.256108849411650e-01  3.393140768766017e-17
-1.429999999999999e+00 -8.256108849411650e-01  3.393140768766017e-17
-1.429999999999999e+00 -8.256108849411650e-01  3.393140768766017e-17
-1.429999999999999e+00 -8.256108849411650e-01  3.393140768766017e-17
-1.429999999999999e+00 -8.256108849411650e-01  3.393140768766017e-17
-1.429999999999999e+00 -8.256108849411650e-01  3.393140768766017e-17
-1.429999999999999e+00 -8.256108849411650e-01  3.393140768766017e-17
-1.429999999999999e+00 -8.256108849411650e-01  3.393140768766017e-17
-1.429999999999999e+00 -8.256108849411650e-01  3.393140768766017e-17
-1.429999999999999e+00 -8.256108849411650e-01  3.393140768766017e-17
-1.429999999999999e+00 -8.256108849411650e-01  3.393140768766017e-17
-1.429999999999999e+00 -8.256108849411650e-01  3.393140768766017e-17
-1.429999999999999e+00 -8.256108849411650e-01  3.393140768766017e-17
-1.429999999999999e+00 -8.256108849411650e-01  3.393140768766017e-17
-1.429999999999999e+00 -8.256108849411650e-01  3.393140768766017e-17
-1.429999999999999e+00 -8.256108849411650e-01  3.393140768766017e-17
-1.429999999999999e+00 -8.256108849411650e-01  3.393140768766017e-17
-1.429999999999999e+00 -8.256108849411650e-01  3.393140768766017e-17
-1.429999999999999e+00 -8.256108849411650e-01  3.393140768766017e-17
 1.429999999999999e+00  8.256108849411650e-01 -3.393140768766017e-17
-1.429999999999999e+00 -8.256108849411650e-01  3.393140768766017e-17
 1.429999999999999e+00  8.256108849411650e-01 -3.393140768766017e-17
 1.429999999999999e+00  8.256108849411650e-01 -3.393140768766017e-17
 1.429999999999999e+00  8.256108849411650e-01 -3.393140768766017e-17
 1.429999999999999e+00  8.256108849411650e-01 -3.393140768766017e-17
 1.429999999999999e+00  8.256108849411650e-01 -3.393140768766017e-17
 1.429999999999999e+00  8.256108849411650e-01 -3.393140768766017e-17
 1.429999999999999e+00  8.256108849411650e-01 -3.393140768766017e-17
 1.429999999999999e+00  8.256108849411650e-01 -3.393140768766017e-17
 1.429999999999999e+00  8.256108849411650e-01 -3.393140768766017e-17
 1.429999999999999e+00  8.256108849411650e-01 -3.393140768766017e-17
 1.429999999999999e+00  8.256108849411650e-01 -3.393140768766017e-17
 1.429999999999999e+00  8.256108849411650e-01 -3.393140768766017e-17
 1.429999999999999e+00  8.256108849411650e-01 -3.393140768766017e-17
 1.429999999999999e+00  8.256108849411650e-01 -3.393140768766017e-17
 1.429999999999999e+00  8.256108849411650e-01 -3.393140768766017e-17
 1.429999999999999e+00  8.256108849411650e-01 -3.393140768766017e-17
 1.429999999999999e+00  8.256108849411650e-01 -3.393140768766017e-17
 1.429999999999999e+00  8.256108849411650e-01 -3.393140768766017e-17
 1.429999999999999e+00  8.256108849411650e-01 -3.393140768766017e-17
 1.429999999999999e+00  8.256108849411650e-01 -3.393140768766017e-17
 1.429999999999999e+00  8.256108849411650e-01 -3.393140768766017e-17
 1.429999999999999e+00  8.256108849411650e-01 -3.393140768766017e-17
 1.429999999999999e+00  8.256108849411650e-01 -3.393140768766017e-17
 1.429999999999999e+00  8.256108849411650e-01 -3.393140768766017e-17
 1.429999999999999e+00  8.256108849411650e-01 -3.393140768766017e-17
 1.429999999999999e+00  8.256108849411650e-01 -3.393140768766017e-17
 1.429999999999999e+00  8.256108849411650e-01 -3.393140768766017e-17
 1.429999999999999e+00  8.256108849411650e-01 -3.393140768766017e-17
 1.429999999999999e+00  8.256108849411650e-01 -3.393140768766017e-17
 1.429999999999999e+00  8.256108849411650e-01 -3.393140768766017e-17
 1.429999999999999e+00  8.256108849411650e-01 -3.393140768766017e-17
 1.429999999999999e+00  8.256108849411650e-01 -3.393140768766017e-17
 1.429999999999999e+00  8.256108849411650e-01 -3.393140768766017e-17
 1.429999999999999e+00  8.256108849411650e-01 -3.393140768766017e-17
 1.429999999999999e+00  8.256108849411650e-01 -3.393140768766017e-17
 1.429999999999999e+00  8.256108849411650e-01 -3.393140768766017e-17
 1.429999999999999e+00  8.256108849411650e-01 -3.393140768766017e-17
 1.429999999999999e+00  8.256108849411650e-01 -3.393140768766017e-17
 1.429999999999999e+00  8.256108849411650e-01 -3.393140768766017e-17
 1.429999999999999e+00  8.256108849411650e-01 -3.393140768766017e-17
 1.429999999999999e+00  8.256108849411650e-01 -3.393140768766017e-17
 1.429999999999999e+00  8.256108849411650e-01 -3.393140768766017e-17
 1.429999999999999e+00  8.256108849411650e-01 -3.393140768766017e-17
 1.429999999999999e+00  8.256108849411650e-01 -3.393140768766017e-17
 1.429999999999999e+00  8.256108849411650e-01 -3.393140768766017e-17
 1.429999999999999e+00  8.256108849411650e-01 -3.393140768766017e-17
 1.429999999999999e+00  8.256108849411650e-01 -3.393140768766017e-17
 1.429999999999999e+00  8.256108849411650e-01 -3.393140768766017e-17
 1.429999999999999e+00  8.256108849411650e-01 -3.393140768766017e-17
 1.429999999999999e+00  8.256108849411650e-01 -3.393140768766017e-17
 1.429999999999999e+00  8.256108849411650e-01 -3.393140768766017e-17
 1.429999999999999e+00  8.256108849411650e-01 -3.393140768766017e-17
 1.429999999999999e+00  8.256108849411650e-01 -3.393140768766017e-17
 1.429999999999999e+00  8.256108849411650e-01 -3.393140768766017e-17
 1.429999999999999e+00  8.256108849411650e-01 -3.393140768766017e-17
 1.429999999999999e+00  8.256108849411650e-01 -3.393140768766017e-17
 1.429999999999999e+00  8.256108849411650e-01 -3.393140768766017e-17
 1.429999999999999e+00  8.256108849411650e-01 -3.393140768766017e-17
 1.429999999999999e+00  8.256108849411650e-01 -3.393140768766017e-17
 1.429999999999999e+00  8.256108849411650e-01 -3.393140768766017e-17
 1.429999999999999e+00  8.256108849411650e-01 -3.393140768766017e-17
 1.429999999999999e+00  8.256108849411650e-01 -3.393140768766017e-17
 1.429999999999999e+00  8.256108849411650e-01 -3.393140768766017e-17
 1.429999999999999e+00  8.256108849411650e-01 -3.393140768766017e-17
 1.429999999999999e+00  8.256108849411650e-01 -3.393140768766017e-17
 1.429999999999999e+00  8.256108849411650e-01 -3.393140768766017e-17
 1.429999999999999e+00  8.256108849411650e-01 -3.393140768766017e-17
 1.429999999999999e+00  8.256108849411650e-01 -3.393140768766017e-17
 1.429999999999999e+00  8.256108849411650e-01 -3.393140768766017e-17
 1.429999999999999e+00  8.256108849411650e-01 -3.393140768766017e-17
 1.429999999999999e+00  8.256108849411650e-01 -3.393140768766017e-17
 1.429999999999999e+00  8.256108849411650e-01 -3.393140768766017e-17
 1.429999999999999e+00  8.256108849411650e-01 -3.393140768766017e-17
 1.429999999999999e+00  8.256108849411650e-01 -3.393140768766017e-17
 1.429999999999999e+00  8.256108849411650e-01 -3.393140768766017e-17
 1.429999999999999e+00  8.256108849411650e-01 -3.393140768766017e-17
 1.429999999999999e+00  8.256108849411650e-01 -3.393140768766017e-17
 1.429999999999999e+00  8.256108849411650e-01 -3.393140768766017e-17
 1.429999999999999e+00  8.256108849411650e-01 -3.393140768766017e-17
 1.429999999999999e+00  8.256108849411650e-01 -3.393140768766017e-17
 1.429999999999999e+00  8.256108849411650e-01 -3.393140768766017e-17
 1.429999999999999e+00  8.256108849411650e-01 -3.393140768766017e-17
 1.429999999999999e+00  8.256108849411650e-01 -3.393140768766017e-17
 1.429999999999999e+00  8.256108849411650e-01 -3.393140768766017e-17
 1.429999999999999e+00  8.256108849411650e-01 -3.393140768766017e-17
 1.429999999999999e+00  8.256108849411650e-01 -3.393140768766017e-17
 1.429999999999999e+00  8.256108849411650e-01 -3.393140768766017e-17
 1.429999999999999e+00  8.256108849411650e-01 -3.393140768766017e-17
 1.429999999999999e+00  8.256108849411650e-01 -3.393140768766017e-17
 1.429999999999999e+00  8.256108849411650e-01 -3.393140768766017e-17
 1.429999999999999e+00  8.256108849411650e-01 -3.393140768766017e-17
 1.429999999999999e+00  8.256108849411650e-01 -3.393140768766017e-17
 1.429999999999999e+00  8.256108849411650e-01 -3.393140768766017e-17
 1.429999999999999e+00  8.256108849411650e-01 -3.393140768766017e-17
 1.429999999999999e+00  8.256108849411650e-01 -3.393140768766017e-17
 1.429999999999999e+00  8.256108849411650e-01 -3.393140768766017e-17
 1.429999999999999e+00  8.256108849411650e-01 -3.393140768766017e-17
 1.429999999999999e+00  8.256108849411650e-01 -3.393140768766017e-17
 1.429999999999999e+00  8.256108849411650e-01 -3.393140768766017e-17
 1.429999999999999e+00  8.256108849411650e-01 -3.393140768766017e-17
 1.429999999999999e+00  8.256108849411650e-01 -3.393140768766017e-17
 1.429999999999999e+00  8.256108849411650e-01 -3.393140768766017e-17
 1.429999999999999e+00  8.256108849411650e-01 -3.393140768766017e-17
 1.429999999999999e+00  8.256108849411650e-01 -3.393140768766017e-17
 1.429999999999999e+00  8.256108849411650e-01 -3.393140768766017e-17
 1.429999999999999e+00  8.256108849411650e-01 -3.393140768766017e-17
 1.429999999999999e+00  8.256108849411650e-01 -3.393140768766017e-17
 1.429999999999999e+00  8.256108849411650e-01 -3.393140768766017e-17
 1.429999999999999e+00  8.256108849411650e-01 -3.393140768766017e-17
 1.429999999999999e+00  8.256108849411650e-01 -3.393140768766017e-17
 1.429999999999999e+00  8.256108849411650e-01 -3.393140768766017e-17
 1.429999999999999e+00  8.256108849411650e-01 -3.393140768766017e-17
 1.429999999999999e+00  8.256108849411650e-01 -3.393140768766017e-17
 1.429999999999999e+00  8.256108849411650e-01 -3.393140768766017e-17
 1.429999999999999e+00  8.256108849411650e-01 -3.393140768766017e-17
 1.429999999999999e+00  8.256108849411650e-01 -3.393140768766017e-17
 1.429999999999999e+00  8.256108849411650e-01 -3.393140768766017e-17
 1.429999999999999e+00  8.256108849411650e-01 -3.393140768766017e-17
 1.429999999999999e+00  8.256108849411650e-01 -3.393140768766017e-17
 1.429999999999999e+00  8.256108849411650e-01 -3.393140768766017e-17
 1.429999999999999e+00  8.256108849411650e-01 -3.393140768766017e-17
 1.429999999999999e+00  8.256108849411650e-01 -3.393140768766017e-17
 1.429999999999999e+00  8.256108849411650e-01 -3.393140768766017e-17
 1.429999999999999e+00  8.256108849411650e-01 -3.393140768766017e-17
 1.429999999999999e+00  8.256108849411650e-01 -3.393140768766017e-17
 1.429999999999999e+00  8.256108849411650e-01 -3.393140768766017e-17
 1.429999999999999e+00  8.256108849411650e-01 -3.393140768766017e-17
 1.429999999999999e+00  8.256108849411650e-01 -3.393140768766017e-17
 1.429999999999999e+00  8.256108849411650e-01 -3.393140768766017e-17
 1.429999999999999e+00  8.256108849411650e-01 -3.393140768766017e-17
 1.429999999999999e+00  8.256108849411650e-01 -3.393140768766017e-17
 1.429999999999999e+00  8.256108849411650e-01 -3.393140768766017e-17
 1.429999999999999e+00  8.256108849411650e-01 -3.393140768766017e-17
 1.429999999999999e+00  8.256108849411650e-01 -3.393140768766017e-17
 1.429999999999999e+00  8.256108849411650e-01 -3.393140768766017e-17
 1.429999999999999e+00  8.256108849411650e-01 -3.393140768766017e-17
 1.429999999999999e+00  8.256108849411650e-01 -3.393140768766017e-17
 1.429999999999999e+00  8.256108849411650e-01 -3.393140768766017e-17
 1.429999999999999e+00  8.256108849411650e-01 -3.393140768766017e-17
 1.429999999999999e+00  8.256108849411650e-01 -3.393140768766017e-17
 1.429999999999999e+00  8.256108849411650e-01 -3.393140768766017e-17
 1.429999999999999e+00  8.256108849411650e-01 -3.393140768766017e-17
 1.429999999999999e+00  8.256108849411650e-01 -3.393140768766017e-17
 1.429999999999999e+00  8.256108849411650e-01 -3.393140768766017e-17
 1.429999999999999e+00  8.256108849411650e-01 -3.393140768766017e-17
 1.429999999999999e+00  8.256108849411650e-01 -3.393140768766017e-17
 1.429999999999999e+00  8.256108849411650e-01 -3.393140768766017e-17
 1.429999999999999e+00  8.256108849411650e-01 -3.393140768766017e-17
 1.429999999999999e+00  8.256108849411650e-01 -3.393140768766017e-17
 1.429999999999999e+00  8.256108849411650e-01 -3.393140768766017e-17
 1.429999999999999e+00  8.256108849411650e-01 -3.393140768766017e-17
 1.429999999999999e+00  8.256108849411650e-01 -3.393140768766017e-17
 1.429999999999999e+00  8.256108849411650e-01 -3.393140768766017e-17
 1.429999999999999e+00  8.256108849411650e-01 -3.393140768766017e-17
 1.429999999999999e+00  8.256108849411650e-01 -3.393140768766017e-17
 1.429999999999999e+00  8.256108849411650e-01 -3.393140768766017e-17
 1.429999999999999e+00  8.256108849411650e-01 -3.393140768766017e-17
 1.429999999999999e+00  8.256108849411650e-01 -3.393140768766017e-17
 1.429999999999999e+00  8.256108849411650e-01 -3.393140768766017e-17
 1.429999999999999e+00  8.256108849411650e-01 -3.393140768766017e-17
 1.429999999999999e+00  8.256108849411650e-01 -3.393140768766017e-17
 1.429999999999999e+00  8.256108849411650e-01 -3.393140768766017e-17
 1.429999999999999e+00  8.256108849411650e-01 -3.393140768766017e-17
 1.429999999999999e+00  8.256108849411650e-01 -3.393140768766017e-17
 1.429999999999999e+00  8.256108849411650e-01 -3.393140768766017e-17
 1.429999999999999e+00  8.256108849411650e-01 -3.393140768766017e-17
 1.429999999999999e+00  8.256108849411650e-01 -3.393140768766017e-17
 1.429999999999999e+00  8.256108849411650e-01 -3.393140768766017e-17
 1.429999999999999e+00  8.256108849411650e-01 -3.393140768766017e-17
 1.429999999999999e+00  8.256108849411650e-01 -3.393140768766017e-17
 1.429999999999999e+00  8.256108849411650e-01 -3.393140768766017e-17
 1.429999999999999e+00  8.256108849411650e-01 -3.393140768766017e-17
 1.429999999999999e+00  8.256108849411650e-01 -3.393140768766017e-17
 1.429999999999999e+00  8.256108849411650e-01 -3.393140768766017e-17
 1.429999999999999e+00  8.256108849411650e-01 -3.393140768766017e-17
 1.429999999999999e+00  8.256108849411650e-01 -3.393140768766017e-17
-1.429999999999999e+00 -8.256108849411650e-01  3.393140768766017e-17
 1.429999999999999e+00  8.256108849411650e-01 -3.393140768766017e-17
 1.429999999999999e+00  8.256108849411650e-01 -3.393140768766017e-17
 1.429999999999999e+00  8.256108849411650e-01 -3.393140768766017e-17
 1.429999999999999e+00  8.256108849411650e-01 -3.393140768766017e-17
 1.429999999999999e+00  8.256108849411650e-01 -3.393140768766017e-17
 1.429999999999999e+00  8.256108849411650e-01 -3.393140768766017e-17
 1.429999999999999e+00  8.256108849411650e-01 -3.393140768766017e-17
 1.429999999999999e+00  8.256108849411650e-01 -3.393140768766017e-17
 1.429999999999999e+00  8.256108849411650e-01 -3.393140768766017e-17
 1.429999999999999e+00  8.256108849411650e-01 -3.393140768766017e-17
 1.429999999999999e+00  8.256108849411650e-01 -3.393140768766017e-17
 1.429999999999999e+00  8.256108849411650e-01 -3.393140768766017e-17
 1.429999999999999e+00  8.256108849411650e-01 -3.393140768766017e-17
 1.429999999999999e+00  8.256108849411650e-01 -3.393140768766017e-17
 1.429999999999999e+00  8.256108849411650e-01 -3.393140768766017e-17
 1.429999999999999e+00  8.256108849411650e-01 -3.393140768766017e-17
 1.429999999999999e+00  8.256108849411650e-01 -3.393140768766017e-17
 1.429999999999999e+00  8.256108849411650e-01 -3.393140768766017e-17
 1.429999999999999e+00  8.256108849411650e-01 -3.393140768766017e-17
 1.429999999999999e+00  8.256108849411650e-01 -3.393140768766017e-17
 1.429999999999999e+00  8.256108849411650e-01 -3.393140768766017e-17
 1.429999999999999e+00  8.256108849411650e-01 -3.393140768766017e-17
 1.429999999999999e+00  8.256108849411650e-01 -3.393140768766017e-17
 1.429999999999999e+00  8.256108849411650e-01 -3.393140768766017e-17
 1.429999999999999e+00  8.256108849411650e-01 -3.393140768766017e-17
 1.429999999999999e+00  8.256108849411650e-01 -3.393140768766017e-17
 1.429999999999999e+00  8.256108849411650e-01 -3.393140768766017e-17
 1.429999999999999e+00  8.256108849411650e-01 -3.393140768766017e-17
 1.429999999999999e+00  8.256108849411650e-01 -3.393140768766017e-17
 1.429999999999999e+00  8.256108849411650e-01 -3.393140768766017e-17
 1.429999999999999e+00  8.256108849411650e-01 -3.393140768766017e-17
 1.429999999999999e+00  8.256108849411650e-01 -3.393140768766017e-17
 1.429999999999999e+00  8.256108849411650e-01 -3.393140768766017e-17
 1.429999999999999e+00  8.256108849411650e-01 -3.393140768766017e-17
 1.429999999999999e+00  8.256108849411650e-01 -3.393140768766017e-17
 1.429999999999999e+00  8.256108849411650e-01 -3.393140768766017e-17
 1.429999999999999e+00  8.256108849411650e-01 -3.393140768766017e-17
 1.429999999999999e+00  8.256108849411650e-01 -3.393140768766017e-17
 1.429999999999999e+00  8.256108849411650e-01 -3.393140768766017e-17
 1.429999999999999e+00  8.256108849411650e-01 -3.393140768766017e-17
 1.429999999999999e+00  8.256108849411650e-01 -3.393140768766017e-17
 1.429999999999999e+00  8.256108849411650e-01 -3.393140768766017e-17
 1.429999999999999e+00  8.256108849411650e-01 -3.393140768766017e-17
 1.429999999999999e+00  8.256108849411650e-01 -3.393140768766017e-17
 1.429999999999999e+00  8.256108849411650e-01 -3.393140768766017e-17
 1.429999999999999e+00  8.256108849411650e-01 -3.393140768766017e-17
 1.429999999999999e+00  8.256108849411650e-01 -3.393140768766017e-17
 1.429999999999999e+00  8.256108849411650e-01 -3.393140768766017e-17
 1.429999999999999e+00  8.256108849411650e-01 -3.393140768766017e-17
 1.429999999999999e+00  8.256108849411650e-01 -3.393140768766017e-17
 1.429999999999999e+00  8.256108849411650e-01 -3.393140768766017e-17
 1.429999999999999e+00  8.256108849411650e-01 -3.393140768766017e-17
 1.429999999999999e+00  8.256108849411650e-01 -3.393140768766017e-17
 1.429999999999999e+00  8.256108849411650e-01 -3.393140768766017e-17
 1.429999999999999e+00  8.256108849411650e-01 -3.393140768766017e-17
 1.429999999999999e+00  8.256108849411650e-01 -3.393140768766017e-17
 1.429999999999999e+00  8.256108849411650e-01 -3.393140768766017e-17
 1.429999999999999e+00  8.256108849411650e-01 -3.393140768766017e-17
 1.429999999999999e+00  8.256108849411650e-01 -3.393140768766017e-17
 1.429999999999999e+00  8.256108849411650e-01 -3.393140768766017e-17
 1.429999999999999e+00  8.256108849411650e-01 -3.393140768766017e-17
 1.429999999999999e+00  8.256108849411650e-01 -3.393140768766017e-17
 1.429999999999999e+00  8.256108849411650e-01 -3.393140768766017e-17
 1.429999999999999e+00  8.256108849411650e-01 -3.393140768766017e-17
 1.429999999999999e+00  8.256108849411650e-01 -3.393140768766017e-17
 1.429999999999999e+00  8.256108849411650e-01 -3.393140768766017e-17
 1.429999999999999e+00  8.256108849411650e-01 -3.393140768766017e-17
 1.429999999999999e+00  8.256108849411650e-01 -3.393140768766017e-17
 1.429999999999999e+00  8.256108849411650e-01 -3.393140768766017e-17
 1.429999999999999e+00  8.256108849411650e-01 -3.393140768766017e-17
 1.429999999999999e+00  8.256108849411650e-01 -3.393140768766017e-17
 1.429999999999999e+00  8.256108849411650e-01 -3.393140768766017e-17
 1.429999999999999e+00  8.256108849411650e-01 -3.393140768766017e-17
 1.429999999999999e+00  8.256108849411650e-01 -3.393140768766017e-17
 1.429999999999999e+00  8.256108849411650e-01 -3.393140768766017e-17
 1.429999999999999e+00  8.256108849411650e-01 -3.393140768766017e-17
 1.429999999999999e+00  8.256108849411650e-01 -3.393140768766017e-17
 1.429999999999999e+00  8.256108849411650e-01 -3.393140768766017e-17
 1.429999999999999e+00  8.256108849411650e-01 -3.393140768766017e-17
 1.429999999999999e+00  8.256108849411650e-01 -3.393140768766017e-17
 1.429999999999999e+00  8.256108849411650e-01 -3.393140768766017e-17
 1.429999999999999e+00  8.256108849411650e-01 -3.393140768766017e-17
 1.429999999999999e+00  8.256108849411650e-01 -3.393140768766017e-17
 1.429999999999999e+00  8.256108849411650e-01 -3.393140768766017e-17
 1.429999999999999e+00  8.256108849411650e-01 -3.393140768766017e-17
 1.429999999999999e+00  8.256108849411650e-01 -3.393140768766017e-17
 1.429999999999999e+00  8.256108849411650e-01 -3.393140768766017e-17
 1.429999999999999e+00  8.256108849411650e-01 -3.393140768766017e-17
 1.429999999999999e+00  8.256108849411650e-01 -3.393140768766017e-17
 1.429999999999999e+00  8.256108849411650e-01 -3.393140768766017e-17
 1.429999999999999e+00  8.256108849411650e-01 -3.393140768766017e-17
 1.429999999999999e+00  8.256108849411650e-01 -3.393140768766017e-17
 1.429999999999999e+00  8.256108849411650e-01 -3.393140768766017e-17
 1.429999999999999e+00  8.256108849411650e-01 -3.393140768766017e-17
 1.429999999999999e+00  8.256108849411650e-01 -3.393140768766017e-17
 1.429999999999999e+00  8.256108849411650e-01 -3.393140768766017e-17
 1.429999999999999e+00  8.256108849411650e-01 -3.393140768766017e-17
 1.429999999999999e+00  8.256108849411650e-01 -3.393140768766017e-17
 1.429999999999999e+00  8.256108849411650e-01 -3.393140768766017e-17
 1.429999999999999e+00  8.256108849411650e-01 -3.393140768766017e-17
 1.429999999999999e+00  8.256108849411650e-01 -3.393140768766017e-17
 1.429999999999999e+00  8.256108849411650e-01 -3.393140768766017e-17
 1.429999999999999e+00  8.256108849411650e-01 -3.393140768766017e-17
 1.429999999999999e+00  8.256108849411650e-01 -3.393140768766017e-17
 1.429999999999999e+00  8.256108849411650e-01 -3.393140768766017e-17
 1.429999999999999e+00  8.256108849411650e-01 -3.393140768766017e-17
 1.429999999999999e+00  8.256108849411650e-01 -3.393140768766017e-17
 1.429999999999999e+00  8.256108849411650e-01 -3.393140768766017e-17
 1.429999999999999e+00  8.256108849411650e-01 -3.393140768766017e-17
 1.429999999999999e+00  8.256108849411650e-01 -3.393140768766017e-17
 1.429999999999999e+00  8.256108849411650e-01 -3.393140768766017e-17
 1.429999999999999e+00  8.256108849411650e-01 -3.393140768766017e-17
 1.429999999999999e+00  8.256108849411650e-01 -3.393140768766017e-17
 1.429999999999999e+00  8.256108849411650e-01 -3.393140768766017e-17
 1.429999999999999e+00  8.256108849411650e-01 -3.393140768766017e-17
 1.429999999999999e+00  8.256108849411650e-01 -3.393140768766017e-17
 1.429999999999999e+00  8.256108849411650e-01 -3.393140768766017e-17
 1.429999999999999e+00  8.256108849411650e-01 -3.393140768766017e-17
 1.429999999999999e+00  8.256108849411650e-01 -3.393140768766017e-17
 1.429999999999999e+00  8.256108849411650e-01 -3.393140768766017e-17
 1.429999999999999e+00  8.256108849411650e-01 -3.393140768766017e-17
 1.429999999999999e+00  8.256108849411650e-01 -3.393140768766017e-17
 1.429999999999999e+00  8.256108849411650e-01 -3.393140768766017e-17
 1.429999999999999e+00  8.256108849411650e-01 -3.393140768766017e-17
 1.429999999999999e+00  8.256108849411650e-01 -3.393140768766017e-17
 1.429999999999999e+00  8.256108849411650e-01 -3.393140768766017e-17
 1.429999999999999e+00  8.256108849411650e-01 -3.393140768766017e-17
 1.429999999999999e+00  8.256108849411650e-01 -3.393140768766017e-17
 1.429999999999999e+00  8.256108849411650e-01 -3.393140768766017e-17
 1.429999999999999e+00  8.256108849411650e-01 -3.393140768766017e-17
 1.429999999999999e+00  8.256108849411650e-01 -3.393140768766017e-17
 1.429999999999999e+00  8.256108849411650e-01 -3.393140768766017e-17
 1.429999999999999e+00  8.256108849411650e-01 -3.393140768766017e-17
 1.429999999999999e+00  8.256108849411650e-01 -3.393140768766017e-17
 1.429999999999999e+00  8.256108849411650e-01 -3.393140768766017e-17
 1.429999999999999e+00  8.256108849411650e-01 -3.393140768766017e-17
 1.429999999999999e+00  8.256108849411650e-01 -3.393140768766017e-17
 1.429999999999999e+00  8.256108849411650e-01 -3.393140768766017e-17
 1.429999999999999e+00  8.256108849411650e-01 -3.393140768766017e-17
 1.429999999999999e+00  8.256108849411650e-01 -3.393140768766017e-17
 1.429999999999999e+00  8.256108849411650e-01 -3.393140768766017e-17
 1.429999999999999e+00  8.256108849411650e-01 -3.393140768766017e-17
 1.429999999999999e+00  8.256108849411650e-01 -3.393140768766017e-17
 1.429999999999999e+00  8.256108849411650e-01 -3.393140768766017e-17
 1.429999999999999e+00  8.256108849411650e-01 -3.393140768766017e-17
 1.429999999999999e+00  8.256108849411650e-01 -3.393140768766017e-17
 1.429999999999999e+00  8.256108849411650e-01 -3.393140768766017e-17
 1.429999999999999e+00  8.256108849411650e-01 -3.393140768766017e-17
 1.429999999999999e+00  8.256108849411650e-01 -3.393140768766017e-17
 1.429999999999999e+00  8.256108849411650e-01 -3.393140768766017e-17
 1.429999999999999e+00  8.256108849411650e-01 -3.393140768766017e-17
 1.429999999999999e+00  8.256108849411650e-01 -3.393140768766017e-17
 1.429999999999999e+00  8.256108849411650e-01 -3.393140768766017e-17
 1.429999999999999e+00  8.256108849411650e-01 -3.393140768766017e-17
 1.429999999999999e+00  8.256108849411650e-01 -3.393140768766017e-17
 1.429999999999999e+00  8.256108849411650e-01 -3.393140768766017e-17
 1.429999999999999e+00  8.256108849411650e-01 -3.393140768766017e-17
 1.429999999999999e+00  8.256108849411650e-01 -3.393140768766017e-17
 1.429999999999999e+00  8.256108849411650e-01 -3.393140768766017e-17
 1.429999999999999e+00  8.256108849411650e-01 -3.393140768766017e-17
 1.429999999999999e+00  8.256108849411650e-01 -3.393140768766017e-17
 1.429999999999999e+00  8.256108849411650e-01 -3.393140768766017e-17
 1.429999999999999e+00  8.256108849411650e-01 -3.393140768766017e-17
 1.429999999999999e+00  8.256108849411650e-01 -3.393140768766017e-17
 1.429999999999999e+00  8.256108849411650e-01 -3.393140768766017e-17
 1.429999999999999e+00  8.256108849411650e-01 -3.393140768766017e-17
 1.429999999999999e+00  8.256108849411650e-01 -3.393140768766017e-17
 1.429999999999999e+00  8.256108849411650e-01 -3.393140768766017e-17
 1.429999999999999e+00  8.256108849411650e-01 -3.393140768766017e-17
 1.429999999999999e+00  8.256108849411650e-01 -3.393140768766017e-17
 1.429999999999999e+00  8.256108849411650e-01 -3.393140768766017e-17
 1.429999999999999e+00  8.256108849411650e-01 -3.393140768766017e-17
 1.429999999999999e+00  8.256108849411650e-01 -3.393140768766017e-17
 1.429999999999999e+00  8.256108849411650e-01 -3.393140768766017e-17
 1.429999999999999e+00  8.256108849411650e-01 -3.393140768766017e-17
 1.429999999999999e+00  8.256108849411650e-01 -3.393140768766017e-17
 1.429999999999999e+00  8.256108849411650e-01 -3.393140768766017e-17
 1.429999999999999e+00  8.256108849411650e-01 -3.393140768766017e-17
 1.429999999999999e+00  8.256108849411650e-01 -3.393140768766017e-17
 1.429999999999999e+00  8.256108849411650e-01 -3.393140768766017e-17
 1.429999999999999e+00  8.256108849411650e-01 -3.393140768766017e-17
 1.429999999999999e+00  8.256108849411650e-01 -3.393140768766017e-17
 1.429999999999999e+00  8.256108849411650e-01 -3.393140768766017e-17
 1.429999999999999e+00  8.256108849411650e-01 -3.393140768766017e-17
 1.429999999999999e+00  8.256108849411650e-01 -3.393140768766017e-17
-1.429999999999999e+00  8.256108849411650e-01  1.696570384383008e-17
 1.429999999999999e+00 -8.256108849411650e-01 -1.696570384383008e-17
-1.429999999999999e+00  8.256108849411650e-01  1.696570384383008e-17
-1.429999999999999e+00  8.256108849411650e-01  1.696570384383008e-17
-1.429999999999999e+00  8.256108849411650e-01  1.696570384383008e-17
-1.429999999999999e+00  8.256108849411650e-01  1.696570384383008e-17
-1.429999999999999e+00  8.256108849411650e-01  1.696570384383008e-17
-1.429999999999999e+00  8.256108849411650e-01  1.696570384383008e-17
-1.429999999999999e+00  8.256108849411650e-01  1.696570384383008e-17
-1.429999999999999e+00  8.256108849411650e-01  1.696570384383008e-17
-1.429999999999999e+00  8.256108849411650e-01  1.696570384383008e-17
-1.429999999999999e+00  8.256108849411650e-01  1.696570384383008e-17
-1.429999999999999e+00  8.256108849411650e-01  1.696570384383008e-17
-1.429999999999999e+00  8.256108849411650e-01  1.696570384383008e-17
-1.429999999999999e+00  8.256108849411650e-01  1.696570384383008e-17
-1.429999999999999e+00  8.256108849411650e-01  1.696570384383008e-17
-1.429999999999999e+00  8.256108849411650e-01  1.696570384383008e-17
-1.429999999999999e+00  8.256108849411650e-01  1.696570384383008e-17
-1.429999999999999e+00  8.256108849411650e-01  1.696570384383008e-17
-1.429999999999999e+00  8.256108849411650e-01  1.696570384383008e-17
-1.429999999999999e+00  8.256108849411650e-01  1.696570384383008e-17
-1.429999999999999e+00  8.256108849411650e-01  1.696570384383008e-17
-1.429999999999999e+00  8.256108849411650e-01  1.696570384383008e-17
-1.429999999999999e+00  8.256108849411650e-01  1.696570384383008e-17
-1.429999999999999e+00  8.256108849411650e-01  1.696570384383008e-17
-1.429999999999999e+00  8.256108849411650e-01  1.696570384383008e-17
-1.429999999999999e+00  8.256108849411650e-01  1.696570384383008e-17
-1.429999999999999e+00  8.256108849411650e-01  1.696570384383008e-17
-1.429999999999999e+00  8.256108849411650e-01  1.696570384383008e-17
-1.429999999999999e+00  8.256108849411650e-01  1.696570384383008e-17
-1.429999999999999e+00  8.256108849411650e-01  1.696570384383008e-17
-1.429999999999999e+00  8.256108849411650e-01  1.696570384383008e-17
-1.429999999999999e+00  8.256108849411650e-01  1.696570384383008e-17
-1.429999999999999e+00  8.256108849411650e-01  1.696570384383008e-17
-1.429999999999999e+00  8.256108849411650e-01  1.696570384383008e-17
-1.429999999999999e+00  8.256108849411650e-01  1.696570384383008e-17
-1.429999999999999e+00  8.256108849411650e-01  1.696570384383008e-17
-1.429999999999999e+00  8.256108849411650e-01  1.696570384383008e-17
-1.429999999999999e+00  8.256108849411650e-01  1.696570384383008e-17
-1.429999999999999e+00  8.256108849411650e-01  1.696570384383008e-17
-1.429999999999999e+00  8.256108849411650e-01  1.696570384383008e-17
-1.429999999999999e+00  8.256108849411650e-01  1.696570384383008e-17
-1.429999999999999e+00  8.256108849411650e-01  1.696570384383008e-17
-1.429999999999999e+00  8.256108849411650e-01  1.696570384383008e-17
-1.429999999999999e+00  8.256108849411650e-01  1.696570384383008e-17
-1.429999999999999e+00  8.256108849411650e-01  1.696570384383008e-17
-1.429999999999999e+00  8.256108849411650e-01  1.696570384383008e-17
-1.429999999999999e+00  8.256108849411650e-01  1.696570384383008e-17
-1.429999999999999e+00  8.256108849411650e-01  1.696570384383008e-17
-1.429999999999999e+00  8.256108849411650e-01  1.696570384383008e-17
-1.429999999999999e+00  8.256108849411650e-01  1.696570384383008e-17
-1.429999999999999e+00  8.256108849411650e-01  1.696570384383008e-17
-1.429999999999999e+00  8.256108849411650e-01  1.696570384383008e-17
-1.429999999999999e+00  8.256108849411650e-01  1.696570384383008e-17
-1.429999999999999e+00  8.256108849411650e-01  1.696570384383008e-17
-1.429999999999999e+00  8.256108849411650e-01  1.696570384383008e-17
-1.429999999999999e+00  8.256108849411650e-01  1.696570384383008e-17
-1.429999999999999e+00  8.256108849411650e-01  1.696570384383008e-17
-1.429999999999999e+00  8.256108849411650e-01  1.696570384383008e-17
-1.429999999999999e+00  8.256108849411650e-01  1.696570384383008e-17
-1.429999999999999e+00  8.256108849411650e-01  1.696570384383008e-17
-1.429999999999999e+00  8.256108849411650e-01  1.696570384383008e-17
-1.429999999999999e+00  8.256108849411650e-01  1.696570384383008e-17
-1.429999999999999e+00  8.256108849411650e-01  1.696570384383008e-17
-1.429999999999999e+00  8.256108849411650e-01  1.696570384383008e-17
-1.429999999999999e+00  8.256108849411650e-01  1.696570384383008e-17
-1.429999999999999e+00  8.256108849411650e-01  1.696570384383008e-17
-1.429999999999999e+00  8.256108849411650e-01  1.696570384383008e-17
-1.429999999999999e+00  8.256108849411650e-01  1.696570384383008e-17
-1.429999999999999e+00  8.256108849411650e-01  1.696570384383008e-17
-1.429999999999999e+00  8.256108849411650e-01  1.696570384383008e-17
-1.429999999999999e+00  8.256108849411650e-01  1.696570384383008e-17
-1.429999999999999e+00  8.256108849411650e-01  1.696570384383008e-17
-1.429999999999999e+00  8.256108849411650e-01  1.696570384383008e-17
-1.429999999999999e+00  8.256108849411650e-01  1.696570384383008e-17
-1.429999999999999e+00  8.256108849411650e-01  1.696570384383008e-17
-1.429999999999999e+00  8.256108849411650e-01  1.696570384383008e-17
-1.429999999999999e+00  8.256108849411650e-01  1.696570384383008e-17
-1.429999999999999e+00  8.256108849411650e-01  1.696570384383008e-17
-1.429999999999999e+00  8.256108849411650e-01  1.696570384383008e-17
-1.429999999999999e+00  8.256108849411650e-01  1.696570384383008e-17
-1.429999999999999e+00  8.256108849411650e-01  1.696570384383008e-17
-1.429999999999999e+00  8.256108849411650e-01  1.696570384383008e-17
-1.429999999999999e+00  8.256108849411650e-01  1.696570384383008e-17
-1.429999999999999e+00  8.256108849411650e-01  1.696570384383008e-17
-1.429999999999999e+00  8.256108849411650e-01  1.696570384383008e-17
-1.429999999999999e+00  8.256108849411650e-01  1.696570384383008e-17
-1.429999999999999e+00  8.256108849411650e-01  1.696570384383008e-17
-1.429999999999999e+00  8.256108849411650e-01  1.696570384383008e-17
-1.429999999999999e+00  8.256108849411650e-01  1.696570384383008e-17
-1.429999999999999e+00  8.256108849411650e-01  1.696570384383008e-17
-1.429999999999999e+00  8.256108849411650e-01  1.696570384383008e-17
-1.429999999999999e+00  8.256108849411650e-01  1.696570384383008e-17
-1.429999999999999e+00  8.256108849411650e-01  1.696570384383008e-17
-1.429999999999999e+00  8.256108849411650e-01  1.696570384383008e-17
-1.429999999999999e+00  8.256108849411650e-01  1.696570384383008e-17
-1.429999999999999e+00  8.256108849411650e-01  1.696570384383008e-17
-1.429999999999999e+00  8.256108849411650e-01  1.696570384383008e-17
-1.429999999999999e+00  8.256108849411650e-01  1.696570384383008e-17
-1.429999999999999e+00  8.256108849411650e-01  1.696570384383008e-17
-1.429999999999999e+00  8.256108849411650e-01  1.696570384383008e-17
-1.429999999999999e+00  8.256108849411650e-01  1.696570384383008e-17
-1.429999999999999e+00  8.256108849411650e-01  1.696570384383008e-17
-1.429999999999999e+00  8.256108849411650e-01  1.696570384383008e-17
-1.429999999999999e+00  8.256108849411650e-01  1.696570384383008e-17
-1.429999999999999e+00  8.256108849411650e-01  1.696570384383008e-17
-1.429999999999999e+00  8.256108849411650e-01  1.696570384383008e-17
-1.429999999999999e+00  8.256108849411650e-01  1.696570384383008e-17
-1.429999999999999e+00  8.256108849411650e-01  1.696570384383008e-17
-1.429999999999999e+00  8.256108849411650e-01  1.696570384383008e-17
-1.429999999999999e+00  8.256108849411650e-01  1.696570384383008e-17
-1.429999999999999e+00  8.256108849411650e-01  1.696570384383008e-17
-1.429999999999999e+00  8.256108849411650e-01  1.696570384383008e-17
-1.429999999999999e+00  8.256108849411650e-01  1.696570384383008e-17
-1.429999999999999e+00  8.256108849411650e-01  1.696570384383008e-17
-1.429999999999999e+00  8.256108849411650e-01  1.696570384383008e-17
-1.429999999999999e+00  8.256108849411650e-01  1.696570384383008e-17
-1.429999999999999e+00  8.256108849411650e-01  1.696570384383008e-17
-1.429999999999999e+00  8.256108849411650e-01  1.696570384383008e-17
-1.429999999999999e+00  8.256108849411650e-01  1.696570384383008e-17
-1.429999999999999e+00  8.256108849411650e-01  1.696570384383008e-17
-1.429999999999999e+00  8.256108849411650e-01  1.696570384383008e-17
-1.429999999999999e+00  8.256108849411650e-01  1.696570384383008e-17
-1.429999999999999e+00  8.256108849411650e-01  1.696570384383008e-17
-1.429999999999999e+00  8.256108849411650e-01  1.696570384383008e-17
-1.429999999999999e+00  8.256108849411650e-01  1.696570384383008e-17
-1.429999999999999e+00  8.256108849411650e-01  1.696570384383008e-17
-1.429999999999999e+00  8.256108849411650e-01  1.696570384383008e-17
-1.429999999999999e+00  8.256108849411650e-01  1.696570384383008e-17
-1.429999999999999e+00  8.256108849411650e-01  1.696570384383008e-17
-1.429999999999999e+00  8.256108849411650e-01  1.696570384383008e-17
-1.429999999999999e+00  8.256108849411650e-01  1.696570384383008e-17
-1.429999999999999e+00  8.256108849411650e-01  1.696570384383008e-17
-1.429999999999999e+00  8.256108849411650e-01  1.696570384383008e-17
-1.429999999999999e+00  8.256108849411650e-01  1.696570384383008e-17
-1.429999999999999e+00  8.256108849411650e-01  1.696570384383008e-17
-1.429999999999999e+00  8.256108849411650e-01  1.696570384383008e-17
-1.429999999999999e+00  8.256108849411650e-01  1.696570384383008e-17
-1.429999999999999e+00  8.256108849411650e-01  1.696570384383008e-17
-1.429999999999999e+00  8.256108849411650e-01  1.696570384383008e-17
-1.429999999999999e+00  8.256108849411650e-01  1.696570384383008e-17
-1.429999999999999e+00  8.256108849411650e-01  1.696570384383008e-17
-1.429999999999999e+00  8.256108849411650e-01  1.696570384383008e-17
-1.429999999999999e+00  8.256108849411650e-01  1.696570384383008e-17
-1.429999999999999e+00  8.256108849411650e-01  1.696570384383008e-17
-1.429999999999999e+00  8.256108849411650e-01  1.696570384383008e-17
-1.429999999999999e+00  8.256108849411650e-01  1.696570384383008e-17
-1.429999999999999e+00  8.256108849411650e-01  1.696570384383008e-17
-1.429999999999999e+00  8.256108849411650e-01  1.696570384383008e-17
-1.429999999999999e+00  8.256108849411650e-01  1.696570384383008e-17
-1.429999999999999e+00  8.256108849411650e-01  1.696570384383008e-17
-1.429999999999999e+00  8.256108849411650e-01  1.696570384383008e-17
-1.429999999999999e+00  8.256108849411650e-01  1.696570384383008e-17
-1.429999999999999e+00  8.256108849411650e-01  1.696570384383008e-17
-1.429999999999999e+00  8.256108849411650e-01  1.696570384383008e-17
-1.429999999999999e+00  8.256108849411650e-01  1.696570384383008e-17
-1.429999999999999e+00  8.256108849411650e-01  1.696570384383008e-17
-1.429999999999999e+00  8.256108849411650e-01  1.696570384383008e-17
-1.429999999999999e+00  8.256108849411650e-01  1.696570384383008e-17
-1.429999999999999e+00  8.256108849411650e-01  1.696570384383008e-17
-1.429999999999999e+00  8.256108849411650e-01  1.696570384383008e-17
-1.429999999999999e+00  8.256108849411650e-01  1.696570384383008e-17
-1.429999999999999e+00  8.256108849411650e-01  1.696570384383008e-17
-1.429999999999999e+00  8.256108849411650e-01  1.696570384383008e-17
-1.429999999999999e+00  8.256108849411650e-01  1.696570384383008e-17
-1.429999999999999e+00  8.256108849411650e-01  1.696570384383008e-17
-1.429999999999999e+00  8.256108849411650e-01  1.696570384383008e-17
-1.429999999999999e+00  8.256108849411650e-01  1.696570384383008e-17
-1.429999999999999e+00  8.256108849411650e-01  1.696570384383008e-17
-1.429999999999999e+00  8.256108849411650e-01  1.696570384383008e-17
-1.429999999999999e+00  8.256108849411650e-01  1.696570384383008e-17
-1.429999999999999e+00  8.256108849411650e-01  1.696570384383008e-17
-1.429999999999999e+00  8.256108849411650e-01  1.696570384383008e-17
-1.429999999999999e+00  8.256108849411650e-01  1.696570384383008e-17
-1.429999999999999e+00  8.256108849411650e-01  1.696570384383008e-17
-1.429999999999999e+00  8.256108849411650e-01  1.696570384383008e-17
-1.429999999999999e+00  8.256108849411650e-01  1.696570384383008e-17
-1.429999999999999e+00  8.256108849411650e-01  1.696570384383008e-17
-1.429999999999999e+00  8.256108849411650e-01  1.696570384383008e-17
-1.429999999999999e+00  8.256108849411650e-01  1.696570384383008e-17
-1.429999999999999e+00  8.256108849411650e-01  1.696570384383008e-17
-1.429999999999999e+00  8.256108849411650e-01  1.696570384383008e-17
-1.429999999999999e+00  8.256108849411650e-01  1.696570384383008e-17
-1.429999999999999e+00  8.256108849411650e-01  1.696570384383008e-17
-1.429999999999999e+00  8.256108849411650e-01  1.696570384383008e-17
-1.429999999999999e+00  8.256108849411650e-01  1.696570384383008e-17
-1.429999999999999e+00  8.256108849411650e-01  1.696570384383008e-17
-1.429999999999999e+00  8.256108849411650e-01  1.696570384383008e-17
-1.429999999999999e+00  8.256108849411650e-01  1.696570384383008e-17
-1.429999999999999e+00  8.256108849411650e-01  1.696570384383008e-17
-1.429999999999999e+00  8.256108849411650e-01  1.696570384383008e-17
-1.429999999999999e+00  8.256108849411650e-01  1.696570384383008e-17
-1.429999999999999e+00  8.256108849411650e-01  1.696570384383008e-17
-1.429999999999999e+00  8.256108849411650e-01  1.696570384383008e-17
-1.429999999999999e+00  8.256108849411650e-01  1.696570384383008e-17
-1.429999999999999e+00  8.256108849411650e-01  1.696570384383008e-17
-1.429999999999999e+00  8.256108849411650e-01  1.696570384383008e-17
-1.429999999999999e+00  8.256108849411650e-01  1.696570384383008e-17
-1.429999999999999e+00  8.256108849411650e-01  1.696570384383008e-17
-1.429999999999999e+00  8.256108849411650e-01  1.696570384383008e-17
-1.429999999999999e+00  8.256108849411650e-01  1.696570384383008e-17
-1.429999999999999e+00  8.256108849411650e-01  1.696570384383008e-17
-1.429999999999999e+00  8.256108849411650e-01  1.696570384383008e-17
-1.429999999999999e+00  8.256108849411650e-01  1.696570384383008e-17
-1.429999999999999e+00  8.256108849411650e-01  1.696570384383008e-17
-1.429999999999999e+00  8.256108849411650e-01  1.696570384383008e-17
-1.429999999999999e+00  8.256108849411650e-01  1.696570384383008e-17
-1.429999999999999e+00  8.256108849411650e-01  1.696570384383008e-17
-1.429999999999999e+00  8.256108849411650e-01  1.696570384383008e-17
 1.429999999999999e+00 -8.256108849411650e-01 -1.696570384383008e-17
-1.429999999999999e+00  8.256108849411650e-01  1.696570384383008e-17
-1.429999999999999e+00  8.256108849411650e-01  1.696570384383008e-17
-1.429999999999999e+00  8.256108849411650e-01  1.696570384383008e-17
-1.429999999999999e+00  8.256108849411650e-01  1.696570384383008e-17
-1.429999999999999e+00  8.256108849411650e-01  1.696570384383008e-17
-1.429999999999999e+00  8.256108849411650e-01  1.696570384383008e-17
-1.429999999999999e+00  8.256108849411650e-01  1.696570384383008e-17
-1.429999999999999e+00  8.256108849411650e-01  1.696570384383008e-17
-1.429999999999999e+00  8.256108849411650e-01  1.696570384383008e-17
-1.429999999999999e+00  8.256108849411650e-01  1.696570384383008e-17
-1.429999999999999e+00  8.256108849411650e-01  1.696570384383008e-17
-1.429999999999999e+00  8.256108849411650e-01  1.696570384383008e-17
-1.429999999999999e+00  8.256108849411650e-01  1.696570384383008e-17
-1.429999999999999e+00  8.256108849411650e-01  1.696570384383008e-17
-1.429999999999999e+00  8.256108849411650e-01  1.696570384383008e-17
-1.429999999999999e+00  8.256108849411650e-01  1.696570384383008e-17
-1.429999999999999e+00  8.256108849411650e-01  1.696570384383008e-17
-1.429999999999999e+00  8.256108849411650e-01  1.696570384383008e-17
-1.429999999999999e+00  8.256108849411650e-01  1.696570384383008e-17
-1.429999999999999e+00  8.256108849411650e-01  1.696570384383008e-17
-1.429999999999999e+00  8.256108849411650e-01  1.696570384383008e-17
-1.429999999999999e+00  8.256108849411650e-01  1.696570384383008e-17
-1.429999999999999e+00  8.256108849411650e-01  1.696570384383008e-17
-1.429999999999999e+00  8.256108849411650e-01  1.696570384383008e-17
-1.429999999999999e+00  8.256108849411650e-01  1.696570384383008e-17
-1.429999999999999e+00  8.256108849411650e-01  1.696570384383008e-17
-1.429999999999999e+00  8.256108849411650e-01  1.696570384383008e-17
-1.429999999999999e+00  8.256108849411650e-01  1.696570384383008e-17
-1.429999999999999e+00  8.256108849411650e-01  1.696570384383008e-17
-1.429999999999999e+00  8.256108849411650e-01  1.696570384383008e-17
-1.429999999999999e+00  8.256108849411650e-01  1.696570384383008e-17
-1.429999999999999e+00  8.256108849411650e-01  1.696570384383008e-17
-1.429999999999999e+00  8.256108849411650e-01  1.696570384383008e-17
-1.429999999999999e+00  8.256108849411650e-01  1.696570384383008e-17
-1.429999999999999e+00  8.256108849411650e-01  1.696570384383008e-17
-1.429999999999999e+00  8.256108849411650e-01  1.696570384383008e-17
-1.429999999999999e+00  8.256108849411650e-01  1.696570384383008e-17
-1.429999999999999e+00  8.256108849411650e-01  1.696570384383008e-17
-1.429999999999999e+00  8.256108849411650e-01  1.696570384383008e-17
-1.429999999999999e+00  8.256108849411650e-01  1.696570384383008e-17
-1.429999999999999e+00  8.256108849411650e-01  1.696570384383008e-17
-1.429999999999999e+00  8.256108849411650e-01  1.696570384383008e-17
-1.429999999999999e+00  8.256108849411650e-01  1.696570384383008e-17
-1.429999999999999e+00  8.256108849411650e-01  1.696570384383008e-17
-1.429999999999999e+00  8.256108849411650e-01  1.696570384383008e-17
-1.429999999999999e+00  8.256108849411650e-01  1.696570384383008e-17
-1.429999999999999e+00  8.256108849411650e-01  1.696570384383008e-17
-1.429999999999999e+00  8.256108849411650e-01  1.696570384383008e-17
-1.429999999999999e+00  8.256108849411650e-01  1.696570384383008e-17
-1.429999999999999e+00  8.256108849411650e-01  1.696570384383008e-17
-1.429999999999999e+00  8.256108849411650e-01  1.696570384383008e-17
-1.429999999999999e+00  8.256108849411650e-01  1.696570384383008e-17
-1.429999999999999e+00  8.256108849411650e-01  1.696570384383008e-17
-1.429999999999999e+00  8.256108849411650e-01  1.696570384383008e-17
-1.429999999999999e+00  8.256108849411650e-01  1.696570384383008e-17
-1.429999999999999e+00  8.256108849411650e-01  1.696570384383008e-17
-1.429999999999999e+00  8.256108849411650e-01  1.696570384383008e-17
-1.429999999999999e+00  8.256108849411650e-01  1.696570384383008e-17
-1.429999999999999e+00  8.256108849411650e-01  1.696570384383008e-17
-1.429999999999999e+00  8.256108849411650e-01  1.696570384383008e-17
-1.429999999999999e+00  8.256108849411650e-01  1.696570384383008e-17
-1.429999999999999e+00  8.256108849411650e-01  1.696570384383008e-17
-1.429999999999999e+00  8.256108849411650e-01  1.696570384383008e-17
-1.429999999999999e+00  8.256108849411650e-01  1.696570384383008e-17
-1.429999999999999e+00  8.256108849411650e-01  1.696570384383008e-17
-1.429999999999999e+00  8.256108849411650e-01  1.696570384383008e-17
-1.429999999999999e+00  8.256108849411650e-01  1.696570384383008e-17
-1.429999999999999e+00  8.256108849411650e-01  1.696570384383008e-17
-1.429999999999999e+00  8.256108849411650e-01  1.696570384383008e-17
-1.429999999999999e+00  8.256108849411650e-01  1.696570384383008e-17
-1.429999999999999e+00  8.256108849411650e-01  1.696570384383008e-17
-1.429999999999999e+00  8.256108849411650e-01  1.696570384383008e-17
-1.429999999999999e+00  8.256108849411650e-01  1.696570384383008e-17
-1.429999999999999e+00  8.256108849411650e-01  1.696570384383008e-17
-1.429999999999999e+00  8.256108849411650e-01  1.696570384383008e-17
-1.429999999999999e+00  8.256108849411650e-01  1.696570384383008e-17
-1.429999999999999e+00  8.256108849411650e-01  1.696570384383008e-17
-1.429999999999999e+00  8.256108849411650e-01  1.696570384383008e-17
-1.429999999999999e+00  8.256108849411650e-01  1.696570384383008e-17
-1.429999999999999e+00  8.256108849411650e-01  1.696570384383008e-17
-1.429999999999999e+00  8.256108849411650e-01  1.696570384383008e-17
-1.429999999999999e+00  8.256108849411650e-01  1.696570384383008e-17
-1.429999999999999e+00  8.256108849411650e-01  1.696570384383008e-17
-1.429999999999999e+00  8.256108849411650e-01  1.696570384383008e-17
-1.429999999999999e+00  8.256108849411650e-01  1.696570384383008e-17
-1.429999999999999e+00  8.256108849411650e-01  1.696570384383008e-17
-1.429999999999999e+00  8.256108849411650e-01  1.696570384383008e-17
-1.429999999999999e+00  8.256108849411650e-01  1.696570384383008e-17
-1.429999999999999e+00  8.256108849411650e-01  1.696570384383008e-17
-1.429999999999999e+00  8.256108849411650e-01  1.696570384383008e-17
-1.429999999999999e+00  8.256108849411650e-01  1.696570384383008e-17
-1.429999999999999e+00  8.256108849411650e-01  1.696570384383008e-17
-1.429999999999999e+00  8.256108849411650e-01  1.696570384383008e-17
-1.429999999999999e+00  8.256108849411650e-01  1.696570384383008e-17
-1.429999999999999e+00  8.256108849411650e-01  1.696570384383008e-17
-1.429999999999999e+00  8.256108849411650e-01  1.696570384383008e-17
-1.429999999999999e+00  8.256108849411650e-01  1.696570384383008e-17
-1.429999999999999e+00  8.256108849411650e-01  1.696570384383008e-17
-1.429999999999999e+00  8.256108849411650e-01  1.696570384383008e-17
-1.429999999999999e+00  8.256108849411650e-01  1.696570384383008e-17
-1.429999999999999e+00  8.256108849411650e-01  1.696570384383008e-17
-1.429999999999999e+00  8.256108849411650e-01  1.696570384383008e-17
-1.429999999999999e+00  8.256108849411650e-01  1.696570384383008e-17
-1.429999999999999e+00  8.256108849411650e-01  1.696570384383008e-17
-1.429999999999999e+00  8.256108849411650e-01  1.696570384383008e-17
-1.429999999999999e+00  8.256108849411650e-01  1.696570384383008e-17
-1.429999999999999e+00  8.256108849411650e-01  1.696570384383008e-17
-1.429999999999999e+00  8.256108849411650e-01  1.696570384383008e-17
-1.429999999999999e+00  8.256108849411650e-01  1.696570384383008e-17
-1.429999999999999e+00  8.256108849411650e-01  1.696570384383008e-17
-1.429999999999999e+00  8.256108849411650e-01  1.696570384383008e-17
-1.429999999999999e+00  8.256108849411650e-01  1.696570384383008e-17
-1.429999999999999e+00  8.256108849411650e-01  1.696570384383008e-17
-1.429999999999999e+00  8.256108849411650e-01  1.696570384383008e-17
-1.429999999999999e+00  8.256108849411650e-01  1.696570384383008e-17
-1.429999999999999e+00  8.256108849411650e-01  1.696570384383008e-17
-1.429999999999999e+00  8.256108849411650e-01  1.696570384383008e-17
-1.429999999999999e+00  8.256108849411650e-01  1.696570384383008e-17
-1.429999999999999e+00  8.256108849411650e-01  1.696570384383008e-17
-1.429999999999999e+00  8.256108849411650e-01  1.696570384383008e-17
-1.429999999999999e+00  8.256108849411650e-01  1.696570384383008e-17
-1.429999999999999e+00  8.256108849411650e-01  1.696570384383008e-17
-1.429999999999999e+00  8.256108849411650e-01  1.696570384383008e-17
-1.429999999999999e+00  8.256108849411650e-01  1.696570384383008e-17
-1.429999999999999e+00  8.256108849411650e-01  1.696570384383008e-17
-1.429999999999999e+00  8.256108849411650e-01  1.696570384383008e-17
-1.429999999999999e+00  8.256108849411650e-01  1.696570384383008e-17
-1.429999999999999e+00  8.256108849411650e-01  1.696570384383008e-17
-1.429999999999999e+00  8.256108849411650e-01  1.696570384383008e-17
-1.429999999999999e+00  8.256108849411650e-01  1.696570384383008e-17
-1.429999999999999e+00  8.256108849411650e-01  1.696570384383008e-17
-1.429999999999999e+00  8.256108849411650e-01  1.696570384383008e-17
-1.429999999999999e+00  8.256108849411650e-01  1.696570384383008e-17
-1.429999999999999e+00  8.256108849411650e-01  1.696570384383008e-17
-1.429999999999999e+00  8.256108849411650e-01  1.696570384383008e-17
-1.429999999999999e+00  8.256108849411650e-01  1.696570384383008e-17
-1.429999999999999e+00  8.256108849411650e-01  1.696570384383008e-17
-1.429999999999999e+00  8.256108849411650e-01  1.696570384383008e-17
-1.429999999999999e+00  8.256108849411650e-01  1.696570384383008e-17
-1.429999999999999e+00  8.256108849411650e-01  1.696570384383008e-17
-1.429999999999999e+00  8.256108849411650e-01  1.696570384383008e-17
-1.429999999999999e+00  8.256108849411650e-01  1.696570384383008e-17
-1.429999999999999e+00  8.256108849411650e-01  1.696570384383008e-17
-1.429999999999999e+00  8.256108849411650e-01  1.696570384383008e-17
-1.429999999999999e+00  8.256108849411650e-01  1.696570384383008e-17
-1.429999999999999e+00  8.256108849411650e-01  1.696570384383008e-17
-1.429999999999999e+00  8.256108849411650e-01  1.696570384383008e-17
-1.429999999999999e+00  8.256108849411650e-01  1.696570384383008e-17
-1.429999999999999e+00  8.256108849411650e-01  1.696570384383008e-17
-1.429999999999999e+00  8.256108849411650e-01  1.696570384383008e-17
-1.429999999999999e+00  8.256108849411650e-01  1.696570384383008e-17
-1.429999999999999e+00  8.256108849411650e-01  1.696570384383008e-17
-1.429999999999999e+00  8.256108849411650e-01  1.696570384383008e-17
-1.429999999999999e+00  8.256108849411650e-01  1.696570384383008e-17
-1.429999999999999e+00  8.256108849411650e-01  1.696570384383008e-17
-1.429999999999999e+00  8.256108849411650e-01  1.696570384383008e-17
-1.429999999999999e+00  8.256108849411650e-01  1.696570384383008e-17
-1.429999999999999e+00  8.256108849411650e-01  1.696570384383008e-17
-1.429999999999999e+00  8.256108849411650e-01  1.696570384383008e-17
-1.429999999999999e+00  8.256108849411650e-01  1.696570384383008e-17
-1.429999999999999e+00  8.256108849411650e-01  1.696570384383008e-17
-1.429999999999999e+00  8.256108849411650e-01  1.696570384383008e-17
-1.429999999999999e+00  8.256108849411650e-01  1.696570384383008e-17
-1.429999999999999e+00  8.256108849411650e-01  1.696570384383008e-17
-1.429999999999999e+00  8.256108849411650e-01  1.696570384383008e-17
-1.429999999999999e+00  8.256108849411650e-01  1.696570384383008e-17
-1.429999999999999e+00  8.256108849411650e-01  1.696570384383008e-17
-1.429999999999999e+00  8.256108849411650e-01  1.696570384383008e-17
-1.429999999999999e+00  8.256108849411650e-01  1.696570384383008e-17
-1.429999999999999e+00  8.256108849411650e-01  1.696570384383008e-17
-1.429999999999999e+00  8.256108849411650e-01  1.696570384383008e-17
-1.429999999999999e+00  8.256108849411650e-01  1.696570384383008e-17
-1.429999999999999e+00  8.256108849411650e-01  1.696570384383008e-17
-1.429999999999999e+00  8.256108849411650e-01  1.696570384383008e-17
-1.429999999999999e+00  8.256108849411650e-01  1.696570384383008e-17
-1.429999999999999e+00  8.256108849411650e-01  1.696570384383008e-17
-1.429999999999999e+00  8.256108849411650e-01  1.696570384383008e-17
-1.429999999999999e+00  8.256108849411650e-01  1.696570384383008e-17
-1.429999999999999e+00  8.256108849411650e-01  1.696570384383008e-17
-1.429999999999999e+00  8.256108849411650e-01  1.696570384383008e-17
-1.429999999999999e+00  8.256108849411650e-01  1.696570384383008e-17
-1.429999999999999e+00  8.256108849411650e-01  1.696570384383008e-17
-1.429999999999999e+00  8.256108849411650e-01  1.696570384383008e-17
-1.429999999999999e+00  8.256108849411650e-01  1.696570384383008e-17
-1.429999999999999e+00  8.256108849411650e-01  1.696570384383008e-17
-1.429999999999999e+00  8.256108849411650e-01  1.696570384383008e-17
-1.429999999999999e+00  8.256108849411650e-01  1.696570384383008e-17
-1.429999999999999e+00  8.256108849411650e-01  1.696570384383008e-17
 1.429999999999999e+00 -8.256108849411650e-01 -1.696570384383008e-17
-1.429999999999999e+00  8.256108849411650e-01  1.696570384383008e-17
 1.429999999999999e+00 -8.256108849411650e-01 -1.696570384383008e-17
 1.429999999999999e+00 -8.256108849411650e-01 -1.696570384383008e-17
 1.429999999999999e+00 -8.256108849411650e-01 -1.696570384383008e-17
 1.429999999999999e+00 -8.256108849411650e-01 -1.696570384383008e-17
 1.429999999999999e+00 -8.256108849411650e-01 -1.696570384383008e-17
 1.429999999999999e+00 -8.256108849411650e-01 -1.696570384383008e-17
 1.429999999999999e+00 -8.256108849411650e-01 -1.696570384383008e-17
 1.429999999999999e+00 -8.256108849411650e-01 -1.696570384383008e-17
 1.429999999999999e+00 -8.256108849411650e-01 -1.696570384383008e-17
 1.429999999999999e+00 -8.256108849411650e-01 -1.696570384383008e-17
 1.429999999999999e+00 -8.256108849411650e-01 -1.696570384383008e-17
 1.429999999999999e+00 -8.256108849411650e-01 -1.696570384383008e-17
 1.429999999999999e+00 -8.256108849411650e-01 -1.696570384383008e-17
 1.429999999999999e+00 -8.256108849411650e-01 -1.696570384383008e-17
 1.429999999999999e+00 -8.256108849411650e-01 -1.696570384383008e-17
 1.429999999999999e+00 -8.256108849411650e-01 -1.696570384383008e-17
 1.429999999999999e+00 -8.256108849411650e-01 -1.696570384383008e-17
 1.429999999999999e+00 -8.256108849411650e-01 -1.696570384383008e-17
 1.429999999999999e+00 -8.256108849411650e-01 -1.696570384383008e-17
 1.429999999999999e+00 -8.256108849411650e-01 -1.696570384383008e-17
 1.429999999999999e+00 -8.256108849411650e-01 -1.696570384383008e-17
 1.429999999999999e+00 -8.256108849411650e-01 -1.696570384383008e-17
 1.429999999999999e+00 -8.256108849411650e-01 -1.696570384383008e-17
 1.429999999999999e+00 -8.256108849411650e-01 -1.696570384383008e-17
 1.429999999999999e+00 -8.256108849411650e-01 -1.696570384383008e-17
 1.429999999999999e+00 -8.256108849411650e-01 -1.696570384383008e-17
 1.429999999999999e+00 -8.256108849411650e-01 -1.696570384383008e-17
 1.429999999999999e+00 -8.256108849411650e-01 -1.696570384383008e-17
 1.429999999999999e+00 -8.256108849411650e-01 -1.696570384383008e-17
 1.429999999999999e+00 -8.256108849411650e-01 -1.696570384383008e-17
 1.429999999999999e+00 -8.256108849411650e-01 -1.696570384383008e-17
 1.429999999999999e+00 -8.256108849411650e-01 -1.696570384383008e-17
 1.429999999999999e+00 -8.256108849411650e-01 -1.696570384383008e-17
 1.429999999999999e+00 -8.256108849411650e-01 -1.696570384383008e-17
 1.429999999999999e+00 -8.256108849411650e-01 -1.696570384383008e-17
 1.429999999999999e+00 -8.256108849411650e-01 -1.696570384383008e-17
 1.429999999999999e+00 -8.256108849411650e-01 -1.696570384383008e-17
 1.429999999999999e+00 -8.256108849411650e-01 -1.696570384383008e-17
 1.429999999999999e+00 -8.256108849411650e-01 -1.696570384383008e-17
 1.429999999999999e+00 -8.256108849411650e-01 -1.696570384383008e-17
 1.429999999999999e+00 -8.256108849411650e-01 -1.696570384383008e-17
 1.429999999999999e+00 -8.256108849411650e-01 -1.696570384383008e-17
 1.429999999999999e+00 -8.256108849411650e-01 -1.696570384383008e-17
 1.429999999999999e+00 -8.256108849411650e-01 -1.696570384383008e-17
 1.429999999999999e+00 -8.256108849411650e-01 -1.696570384383008e-17
 1.429999999999999e+00 -8.256108849411650e-01 -1.696570384383008e-17
 1.429999999999999e+00 -8.256108849411650e-01 -1.696570384383008e-17
 1.429999999999999e+00 -8.256108849411650e-01 -1.696570384383008e-17
 1.429999999999999e+00 -8.256108849411650e-01 -1.696570384383008e-17
 1.429999999999999e+00 -8.256108849411650e-01 -1.696570384383008e-17
 1.429999999999999e+00 -8.256108849411650e-01 -1.696570384383008e-17
 1.429999999999999e+00 -8.256108849411650e-01 -1.696570384383008e-17
 1.429999999999999e+00 -8.256108849411650e-01 -1.696570384383008e-17
 1.429999999999999e+00 -8.256108849411650e-01 -1.696570384383008e-17
 1.429999999999999e+00 -8.256108849411650e-01 -1.696570384383008e-17
 1.429999999999999e+00 -8.256108849411650e-01 -1.696570384383008e-17
 1.429999999999999e+00 -8.256108849411650e-01 -1.696570384383008e-17
 1.429999999999999e+00 -8.256108849411650e-01 -1.696570384383008e-17
 1.429999999999999e+00 -8.256108849411650e-01 -1.696570384383008e-17
 1.429999999999999e+00 -8.256108849411650e-01 -1.696570384383008e-17
 1.429999999999999e+00 -8.256108849411650e-01 -1.696570384383008e-17
 1.429999999999999e+00 -8.256108849411650e-01 -1.696570384383008e-17
 1.429999999999999e+00 -8.256108849411650e-01 -1.696570384383008e-17
 1.429999999999999e+00 -8.256108849411650e-01 -1.696570384383008e-17
 1.429999999999999e+00 -8.256108849411650e-01 -1.696570384383008e-17
 1.429999999999999e+00 -8.256108849411650e-01 -1.696570384383008e-17
 1.429999999999999e+00 -8.256108849411650e-01 -1.696570384383008e-17
 1.429999999999999e+00 -8.256108849411650e-01 -1.696570384383008e-17
 1.429999999999999e+00 -8.256108849411650e-01 -1.696570384383008e-17
 1.429999999999999e+00 -8.256108849411650e-01 -1.696570384383008e-17
 1.429999999999999e+00 -8.256108849411650e-01 -1.696570384383008e-17
 1.429999999999999e+00 -8.256108849411650e-01 -1.696570384383008e-17
 1.429999999999999e+00 -8.256108849411650e-01 -1.696570384383008e-17
 1.429999999999999e+00 -8.256108849411650e-01 -1.696570384383008e-17
 1.429999999999999e+00 -8.256108849411650e-01 -1.696570384383008e-17
 1.429999999999999e+00 -8.256108849411650e-01 -1.696570384383008e-17
 1.429999999999999e+00 -8.256108849411650e-01 -1.696570384383008e-17
 1.429999999999999e+00 -8.256108849411650e-01 -1.696570384383008e-17
 1.429999999999999e+00 -8.256108849411650e-01 -1.696570384383008e-17
 1.429999999999999e+00 -8.256108849411650e-01 -1.696570384383008e-17
 1.429999999999999e+00 -8.256108849411650e-01 -1.696570384383008e-17
 1.429999999999999e+00 -8.256108849411650e-01 -1.696570384383008e-17
 1.429999999999999e+00 -8.256108849411650e-01 -1.696570384383008e-17
 1.429999999999999e+00 -8.256108849411650e-01 -1.696570384383008e-17
 1.429999999999999e+00 -8.256108849411650e-01 -1.696570384383008e-17
 1.429999999999999e+00 -8.256108849411650e-01 -1.696570384383008e-17
 1.429999999999999e+00 -8.256108849411650e-01 -1.696570384383008e-17
 1.429999999999999e+00 -8.256108849411650e-01 -1.696570384383008e-17
 1.429999999999999e+00 -8.256108849411650e-01 -1.696570384383008e-17
 1.429999999999999e+00 -8.256108849411650e-01 -1.696570384383008e-17
 1.429999999999999e+00 -8.256108849411650e-01 -1.696570384383008e-17
 1.429999999999999e+00 -8.256108849411650e-01 -1.696570384383008e-17
 1.429999999999999e+00 -8.256108849411650e-01 -1.696570384383008e-17
 1.429999999999999e+00 -8.256108849411650e-01 -1.696570384383008e-17
 1.429999999999999e+00 -8.256108849411650e-01 -1.696570384383008e-17
 1.429999999999999e+00 -8.256108849411650e-01 -1.696570384383008e-17
 1.429999999999999e+00 -8.256108849411650e-01 -1.696570384383008e-17
 1.429999999999999e+00 -8.256108849411650e-01 -1.696570384383008e-17
 1.429999999999999e+00 -8.256108849411650e-01 -1.696570384383008e-17
 1.429999999999999e+00 -8.256108849411650e-01 -1.696570384383008e-17
 1.429999999999999e+00 -8.256108849411650e-01 -1.696570384383008e-17
 1.429999999999999e+00 -8.256108849411650e-01 -1.696570384383008e-17
 1.429999999999999e+00 -8.256108849411650e-01 -1.696570384383008e-17
 1.429999999999999e+00 -8.256108849411650e-01 -1.696570384383008e-17
 1.429999999999999e+00 -8.256108849411650e-01 -1.696570384383008e-17
 1.429999999999999e+00 -8.256108849411650e-01 -1.696570384383008e-17
 1.429999999999999e+00 -8.256108849411650e-01 -1.696570384383008e-17
 1.429999999999999e+00 -8.256108849411650e-01 -1.696570384383008e-17
 1.429999999999999e+00 -8.256108849411650e-01 -1.696570384383008e-17
 1.429999999999999e+00 -8.256108849411650e-01 -1.696570384383008e-17
 1.429999999999999e+00 -8.256108849411650e-01 -1.696570384383008e-17
 1.429999999999999e+00 -8.256108849411650e-01 -1.696570384383008e-17
 1.429999999999999e+00 -8.256108849411650e-01 -1.696570384383008e-17
 1.429999999999999e+00 -8.256108849411650e-01 -1.696570384383008e-17
 1.429999999999999e+00 -8.256108849411650e-01 -1.696570384383008e-17
 1.429999999999999e+00 -8.256108849411650e-01 -1.696570384383008e-17
 1.429999999999999e+00 -8.256108849411650e-01 -1.696570384383008e-17
 1.429999999999999e+00 -8.256108849411650e-01 -1.696570384383008e-17
 1.429999999999999e+00 -8.256108849411650e-01 -1.696570384383008e-17
 1.429999999999999e+00 -8.256108849411650e-01 -1.696570384383008e-17
 1.429999999999999e+00 -8.256108849411650e-01 -1.696570384383008e-17
 1.429999999999999e+00 -8.256108849411650e-01 -1.696570384383008e-17
 1.429999999999999e+00 -8.256108849411650e-01 -1.696570384383008e-17
 1.429999999999999e+00 -8.256108849411650e-01 -1.696570384383008e-17
 1.429999999999999e+00 -8.256108849411650e-01 -1.696570384383008e-17
 1.429999999999999e+00 -8.256108849411650e-01 -1.696570384383008e-17
 1.429999999999999e+00 -8.256108849411650e-01 -1.696570384383008e-17
 1.429999999999999e+00 -8.256108849411650e-01 -1.696570384383008e-17
 1.429999999999999e+00 -8.256108849411650e-01 -1.696570384383008e-17
 1.429999999999999e+00 -8.256108849411650e-01 -1.696570384383008e-17
 1.429999999999999e+00 -8.256108849411650e-01 -1.696570384383008e-17
 1.429999999999999e+00 -8.256108849411650e-01 -1.696570384383008e-17
 1.429999999999999e+00 -8.256108849411650e-01 -1.696570384383008e-17
 1.429999999999999e+00 -8.256108849411650e-01 -1.696570384383008e-17
 1.429999999999999e+00 -8.256108849411650e-01 -1.696570384383008e-17
 1.429999999999999e+00 -8.256108849411650e-01 -1.696570384383008e-17
 1.429999999999999e+00 -8.256108849411650e-01 -1.696570384383008e-17
 1.429999999999999e+00 -8.256108849411650e-01 -1.696570384383008e-17
 1.429999999999999e+00 -8.256108849411650e-01 -1.696570384383008e-17
 1.429999999999999e+00 -8.256108849411650e-01 -1.696570384383008e-17
 1.429999999999999e+00 -8.256108849411650e-01 -1.696570384383008e-17
 1.429999999999999e+00 -8.256108849411650e-01 -1.696570384383008e-17
 1.429999999999999e+00 -8.256108849411650e-01 -1.696570384383008e-17
 1.429999999999999e+00 -8.256108849411650e-01 -1.696570384383008e-17
 1.429999999999999e+00 -8.256108849411650e-01 -1.696570384383008e-17
 1.429999999999999e+00 -8.256108849411650e-01 -1.696570384383008e-17
 1.429999999999999e+00 -8.256108849411650e-01 -1.696570384383008e-17
 1.429999999999999e+00 -8.256108849411650e-01 -1.696570384383008e-17
 1.429999999999999e+00 -8.256108849411650e-01 -1.696570384383008e-17
 1.429999999999999e+00 -8.256108849411650e-01 -1.696570384383008e-17
 1.429999999999999e+00 -8.256108849411650e-01 -1.696570384383008e-17
 1.429999999999999e+00 -8.256108849411650e-01 -1.696570384383008e-17
 1.429999999999999e+00 -8.256108849411650e-01 -1.696570384383008e-17
 1.429999999999999e+00 -8.256108849411650e-01 -1.696570384383008e-17
 1.429999999999999e+00 -8.256108849411650e-01 -1.696570384383008e-17
 1.429999999999999e+00 -8.256108849411650e-01 -1.696570384383008e-17
 1.429999999999999e+00 -8.256108849411650e-01 -1.696570384383008e-17
-1.429999999999999e+00  8.256108849411650e-01  1.696570384383008e-17
 1.429999999999999e+00 -8.256108849411650e-01 -1.696570384383008e-17
 1.429999999999999e+00 -8.256108849411650e-01 -1.696570384383008e-17
 1.429999999999999e+00 -8.256108849411650e-01 -1.696570384383008e-17
 1.429999999999999e+00 -8.256108849411650e-01 -1.696570384383008e-17
 1.429999999999999e+00 -8.256108849411650e-01 -1.696570384383008e-17
 1.429999999999999e+00 -8.256108849411650e-01 -1.696570384383008e-17
 1.429999999999999e+00 -8.256108849411650e-01 -1.696570384383008e-17
 1.429999999999999e+00 -8.256108849411650e-01 -1.696570384383008e-17
 1.429999999999999e+00 -8.256108849411650e-01 -1.696570384383008e-17
 1.429999999999999e+00 -8.256108849411650e-01 -1.696570384383008e-17
 1.429999999999999e+00 -8.256108849411650e-01 -1.696570384383008e-17
 1.429999999999999e+00 -8.256108849411650e-01 -1.696570384383008e-17
 1.429999999999999e+00 -8.256108849411650e-01 -1.696570384383008e-17
 1.429999999999999e+00 -8.256108849411650e-01 -1.696570384383008e-17
 1.429999999999999e+00 -8.256108849411650e-01 -1.696570384383008e-17
 1.429999999999999e+00 -8.256108849411650e-01 -1.696570384383008e-17
 1.429999999999999e+00 -8.256108849411650e-01 -1.696570384383008e-17
 1.429999999999999e+00 -8.256108849411650e-01 -1.696570384383008e-17
 1.429999999999999e+00 -8.256108849411650e-01 -1.696570384383008e-17
 1.429999999999999e+00 -8.256108849411650e-01 -1.696570384383008e-17
 1.429999999999999e+00 -8.256108849411650e-01 -1.696570384383008e-17
 1.429999999999999e+00 -8.256108849411650e-01 -1.696570384383008e-17
 1.429999999999999e+00 -8.256108849411650e-01 -1.696570384383008e-17
 1.429999999999999e+00 -8.256108849411650e-01 -1.696570384383008e-17
 1.429999999999999e+00 -8.256108849411650e-01 -1.696570384383008e-17
 1.429999999999999e+00 -8.256108849411650e-01 -1.696570384383008e-17
 1.429999999999999e+00 -8.256108849411650e-01 -1.696570384383008e-17
 1.429999999999999e+00 -8.256108849411650e-01 -1.696570384383008e-17
 1.429999999999999e+00 -8.256108849411650e-01 -1.696570384383008e-17
 1.429999999999999e+00 -8.256108849411650e-01 -1.696570384383008e-17
 1.429999999999999e+00 -8.256108849411650e-01 -1.696570384383008e-17
 1.429999999999999e+00 -8.256108849411650e-01 -1.696570384383008e-17
 1.429999999999999e+00 -8.256108849411650e-01 -1.696570384383008e-17
 1.429999999999999e+00 -8.256108849411650e-01 -1.696570384383008e-17
 1.429999999999999e+00 -8.256108849411650e-01 -1.696570384383008e-17
 1.429999999999999e+00 -8.256108849411650e-01 -1.696570384383008e-17
 1.429999999999999e+00 -8.256108849411650e-01 -1.696570384383008e-17
 1.429999999999999e+00 -8.256108849411650e-01 -1.696570384383008e-17
 1.429999999999999e+00 -8.256108849411650e-01 -1.696570384383008e-17
 1.429999999999999e+00 -8.256108849411650e-01 -1.696570384383008e-17
 1.429999999999999e+00 -8.256108849411650e-01 -1.696570384383008e-17
 1.429999999999999e+00 -8.256108849411650e-01 -1.696570384383008e-17
 1.429999999999999e+00 -8.256108849411650e-01 -1.696570384383008e-17
 1.429999999999999e+00 -8.256108849411650e-01 -1.696570384383008e-17
 1.429999999999999e+00 -8.256108849411650e-01 -1.696570384383008e-17
 1.429999999999999e+00 -8.256108849411650e-01 -1.696570384383008e-17
 1.429999999999999e+00 -8.256108849411650e-01 -1.696570384383008e-17
 1.429999999999999e+00 -8.256108849411650e-01 -1.696570384383008e-17
 1.429999999999999e+00 -8.256108849411650e-01 -1.696570384383008e-17
 1.429999999999999e+00 -8.256108849411650e-01 -1.696570384383008e-17
 1.429999999999999e+00 -8.256108849411650e-01 -1.696570384383008e-17
 1.429999999999999e+00 -8.256108849411650e-01 -1.696570384383008e-17
 1.429999999999999e+00 -8.256108849411650e-01 -1.696570384383008e-17
 1.429999999999999e+00 -8.256108849411650e-01 -1.696570384383008e-17
 1.429999999999999e+00 -8.256108849411650e-01 -1.696570384383008e-17
 1.429999999999999e+00 -8.256108849411650e-01 -1.696570384383008e-17
 1.429999999999999e+00 -8.256108849411650e-01 -1.696570384383008e-17
 1.429999999999999e+00 -8.256108849411650e-01 -1.696570384383008e-17
 1.429999999999999e+00 -8.256108849411650e-01 -1.696570384383008e-17
 1.429999999999999e+00 -8.256108849411650e-01 -1.696570384383008e-17
 1.429999999999999e+00 -8.256108849411650e-01 -1.696570384383008e-17
 1.429999999999999e+00 -8.256108849411650e-01 -1.696570384383008e-17
 1.429999999999999e+00 -8.256108849411650e-01 -1.696570384383008e-17
 1.429999999999999e+00 -8.256108849411650e-01 -1.696570384383008e-17
 1.429999999999999e+00 -8.256108849411650e-01 -1.696570384383008e-17
 1.429999999999999e+00 -8.256108849411650e-01 -1.696570384383008e-17
 1.429999999999999e+00 -8.256108849411650e-01 -1.696570384383008e-17
 1.429999999999999e+00 -8.256108849411650e-01 -1.696570384383008e-17
 1.429999999999999e+00 -8.256108849411650e-01 -1.696570384383008e-17
 1.429999999999999e+00 -8.256108849411650e-01 -1.696570384383008e-17
 1.429999999999999e+00 -8.256108849411650e-01 -1.696570384383008e-17
 1.429999999999999e+00 -8.256108849411650e-01 -1.696570384383008e-17
 1.429999999999999e+00 -8.256108849411650e-01 -1.696570384383008e-17
 1.429999999999999e+00 -8.256108849411650e-01 -1.696570384383008e-17
 1.429999999999999e+00 -8.256108849411650e-01 -1.696570384383008e-17
 1.429999999999999e+00 -8.256108849411650e-01 -1.696570384383008e-17
 1.429999999999999e+00 -8.256108849411650e-01 -1.696570384383008e-17
 1.429999999999999e+00 -8.256108849411650e-01 -1.696570384383008e-17
 1.429999999999999e+00 -8.256108849411650e-01 -1.696570384383008e-17
 1.429999999999999e+00 -8.256108849411650e-01 -1.696570384383008e-17
 1.429999999999999e+00 -8.256108849411650e-01 -1.696570384383008e-17
 1.429999999999999e+00 -8.256108849411650e-01 -1.696570384383008e-17
 1.429999999999999e+00 -8.256108849411650e-01 -1.696570384383008e-17
 1.429999999999999e+00 -8.256108849411650e-01 -1.696570384383008e-17
 1.429999999999999e+00 -8.256108849411650e-01 -1.696570384383008e-17
 1.429999999999999e+00 -8.256108849411650e-01 -1.696570384383008e-17
 1.429999999999999e+00 -8.256108849411650e-01 -1.696570384383008e-17
 1.429999999999999e+00 -8.256108849411650e-01 -1.696570384383008e-17
 1.429999999999999e+00 -8.256108849411650e-01 -1.696570384383008e-17
 1.429999999999999e+00 -8.256108849411650e-01 -1.696570384383008e-17
 1.429999999999999e+00 -8.256108849411650e-01 -1.696570384383008e-17
 1.429999999999999e+00 -8.256108849411650e-01 -1.696570384383008e-17
 1.429999999999999e+00 -8.256108849411650e-01 -1.696570384383008e-17
 1.429999999999999e+00 -8.256108849411650e-01 -1.696570384383008e-17
 1.429999999999999e+00 -8.256108849411650e-01 -1.696570384383008e-17
 1.429999999999999e+00 -8.256108849411650e-01 -1.696570384383008e-17
 1.429999999999999e+00 -8.256108849411650e-01 -1.696570384383008e-17
 1.429999999999999e+00 -8.256108849411650e-01 -1.696570384383008e-17
 1.429999999999999e+00 -8.256108849411650e-01 -1.696570384383008e-17
 1.429999999999999e+00 -8.256108849411650e-01 -1.696570384383008e-17
 1.429999999999999e+00 -8.256108849411650e-01 -1.696570384383008e-17
 1.429999999999999e+00 -8.256108849411650e-01 -1.696570384383008e-17
 1.429999999999999e+00 -8.256108849411650e-01 -1.696570384383008e-17
 1.429999999999999e+00 -8.256108849411650e-01 -1.696570384383008e-17
 1.429999999999999e+00 -8.256108849411650e-01 -1.696570384383008e-17
 1.429999999999999e+00 -8.256108849411650e-01 -1.696570384383008e-17
 1.429999999999999e+00 -8.256108849411650e-01 -1.696570384383008e-17
 1.429999999999999e+00 -8.256108849411650e-01 -1.696570384383008e-17
 1.429999999999999e+00 -8.256108849411650e-01 -1.696570384383008e-17
 1.429999999999999e+00 -8.256108849411650e-01 -1.696570384383008e-17
 1.429999999999999e+00 -8.256108849411650e-01 -1.696570384383008e-17
 1.429999999999999e+00 -8.256108849411650e-01 -1.696570384383008e-17
 1.429999999999999e+00 -8.256108849411650e-01 -1.696570384383008e-17
 1.429999999999999e+00 -8.256108849411650e-01 -1.696570384383008e-17
 1.429999999999999e+00 -8.256108849411650e-01 -1.696570384383008e-17
 1.429999999999999e+00 -8.256108849411650e-01 -1.696570384383008e-17
 1.429999999999999e+00 -8.256108849411650e-01 -1.696570384383008e-17
 1.429999999999999e+00 -8.256108849411650e-01 -1.696570384383008e-17
 1.429999999999999e+00 -8.256108849411650e-01 -1.696570384383008e-17
 1.429999999999999e+00 -8.256108849411650e-01 -1.696570384383008e-17
 1.429999999999999e+00 -8.256108849411650e-01 -1.696570384383008e-17
 1.429999999999999e+00 -8.256108849411650e-01 -1.696570384383008e-17
 1.429999999999999e+00 -8.256108849411650e-01 -1.696570384383008e-17
 1.429999999999999e+00 -8.256108849411650e-01 -1.696570384383008e-17
 1.429999999999999e+00 -8.256108849411650e-01 -1.696570384383008e-17
 1.429999999999999e+00 -8.256108849411650e-01 -1.696570384383008e-17
 1.429999999999999e+00 -8.256108849411650e-01 -1.696570384383008e-17
 1.429999999999999e+00 -8.256108849411650e-01 -1.696570384383008e-17
 1.429999999999999e+00 -8.256108849411650e-01 -1.696570384383008e-17
 1.429999999999999e+00 -8.256108849411650e-01 -1.696570384383008e-17
 1.429999999999999e+00 -8.256108849411650e-01 -1.696570384383008e-17
 1.429999999999999e+00 -8.256108849411650e-01 -1.696570384383008e-17
 1.429999999999999e+00 -8.256108849411650e-01 -1.696570384383008e-17
 1.429999999999999e+00 -8.256108849411650e-01 -1.696570384383008e-17
 1.429999999999999e+00 -8.256108849411650e-01 -1.696570384383008e-17
 1.429999999999999e+00 -8.256108849411650e-01 -1.696570384383008e-17
 1.429999999999999e+00 -8.256108849411650e-01 -1.696570384383008e-17
 1.429999999999999e+00 -8.256108849411650e-01 -1.696570384383008e-17
 1.429999999999999e+00 -8.256108849411650e-01 -1.696570384383008e-17
 1.429999999999999e+00 -8.256108849411650e-01 -1.696570384383008e-17
 1.429999999999999e+00 -8.256108849411650e-01 -1.696570384383008e-17
 1.429999999999999e+00 -8.256108849411650e-01 -1.696570384383008e-17
 1.429999999999999e+00 -8.256108849411650e-01 -1.696570384383008e-17
 1.429999999999999e+00 -8.256108849411650e-01 -1.696570384383008e-17
 1.429999999999999e+00 -8.256108849411650e-01 -1.696570384383008e-17
 1.429999999999999e+00 -8.256108849411650e-01 -1.696570384383008e-17
 1.429999999999999e+00 -8.256108849411650e-01 -1.696570384383008e-17
 1.429999999999999e+00 -8.256108849411650e-01 -1.696570384383008e-17
 1.429999999999999e+00 -8.256108849411650e-01 -1.696570384383008e-17
 1.429999999999999e+00 -8.256108849411650e-01 -1.696570384383008e-17
 1.429999999999999e+00 -8.256108849411650e-01 -1.696570384383008e-17
 1.429999999999999e+00 -8.256108849411650e-01 -1.696570384383008e-17
 1.429999999999999e+00 -8.256108849411650e-01 -1.696570384383008e-17
 1.429999999999999e+00 -8.256108849411650e-01 -1.696570384383008e-17
 1.429999999999999e+00 -8.256108849411650e-01 -1.696570384383008e-17
 1.429999999999999e+00 -8.256108849411650e-01 -1.696570384383008e-17
 1.429999999999999e+00 -8.256108849411650e-01 -1.696570384383008e-17
 1.429999999999999e+00 -8.256108849411650e-01 -1.696570384383008e-17
 1.429999999999999e+00 -8.256108849411650e-01 -1.696570384383008e-17
 1.429999999999999e+00 -8.256108849411650e-01 -1.696570384383008e-17
 1.429999999999999e+00 -8.256108849411650e-01 -1.696570384383008e-17
 1.429999999999999e+00 -8.256108849411650e-01 -1.696570384383008e-17
 1.429999999999999e+00 -8.256108849411650e-01 -1.696570384383008e-17
 1.429999999999999e+00 -8.256108849411650e-01 -1.696570384383008e-17
 1.429999999999999e+00 -8.256108849411650e-01 -1.696570384383008e-17
 1.429999999999999e+00 -8.256108849411650e-01 -1.696570384383008e-17
 1.429999999999999e+00 -8.256108849411650e-01 -1.696570384383008e-17
 1.429999999999999e+00 -8.256108849411650e-01 -1.696570384383008e-17
 1.429999999999999e+00 -8.256108849411650e-01 -1.696570384383008e-17
 1.429999999999999e+00 -8.256108849411650e-01 -1.696570384383008e-17
 1.429999999999999e+00 -8.256108849411650e-01 -1.696570384383008e-17
 1.429999999999999e+00 -8.256108849411650e-01 -1.696570384383008e-17
 1.429999999999999e+00 -8.256108849411650e-01 -1.696570384383008e-17
 1.429999999999999e+00 -8.256108849411650e-01 -1.696570384383008e-17
 1.429999999999999e+00 -8.256108849411650e-01 -1.696570384383008e-17
 1.429999999999999e+00 -8.256108849411650e-01 -1.696570384383008e-17
 1.429999999999999e+00 -8.256108849411650e-01 -1.696570384383008e-17
 1.429999999999999e+00 -8.256108849411650e-01 -1.696570384383008e-17

VECTORS burgers_vector_local double
-1.666666666666667e-01 -3.333333333333333e-01 -1.666666666666665e-01
1.666666666666667e-01 3.333333333333333e-01 1.666666666666665e-01
-1.666666666666667e-01 -3.333333333333333e-01 -1.666666666666665e-01
-1.666666666666667e-01 -3.333333333333333e-01 -1.666666666666665e-01
-1.666666666666667e-01 -3.333333333333333e-01 -1.666666666666665e-01
-1.666666666666667e-01 -3.333333333333333e-01 -1.666666666666665e-01
-1.666666666666667e-01 -3.333333333333333e-01 -1.666666666666665e-01
-1.666666666666667e-01 -3.333333333333333e-01 -1.666666666666665e-01
-1.666666666666667e-01 -3.333333333333333e-01 -1.666666666666665e-01
-1.666666666666667e-01 -3.333333333333333e-01 -1.666666666666665e-01
-1.666666666666667e-01 -3.333333333333333e-01 -1.666666666666665e-01
-1.666666666666667e-01 -3.333333333333333e-01 -1.666666666666665e-01
-1.666666666666667e-01 -3.333333333333333e-01 -1.666666666666665e-01
-1.666666666666667e-01 -3.333333333333333e-01 -1.666666666666665e-01
-1.666666666666667e-01 -3.333333333333333e-01 -1.666666666666665e-01
-1.666666666666667e-01 -3.333333333333333e-01 -1.666666666666665e-01
-1.666666666666667e-01 -3.333333333333333e-01 -1.666666666666665e-01
-1.666666666666667e-01 -3.333333333333333e-01 -1.666666666666665e-01
-1.666666666666667e-01 -3.333333333333333e-01 -1.666666666666665e-01
-1.666666666666667e-01 -3.333333333333333e-01 -1.666666666666665e-01
-1.666666666666667e-01 -3.333333333333333e-01 -1.666666666666665e-01
-1.666666666666667e-01 -3.333333333333333e-01 -1.666666666666665e-01
-1.666666666666667e-01 -3.333333333333333e-01 -1.666666666666665e-01
-1.666666666666667e-01 -3.333333333333333e-01 -1.666666666666665e-01
-1.666666666666667e-01 -3.333333333333333e-01 -1.666666666666665e-01
-1.666666666666667e-01 -3.333333333333333e-01 -1.666666666666665e-01
-1.666666666666667e-01 -3.333333333333333e-01 -1.666666666666665e-01
-1.666666666666667e-01 -3.333333333333333e-01 -1.666666666666665e-01
-1.666666666666667e-01 -3.333333333333333e-01 -1.666666666666665e-01
-1.666666666666667e-01 -3.333333333333333e-01 -1.666666666666665e-01
-1.666666666666667e-01 -3.333333333333333e-01 -1.666666666666665e-01
-1.666666666666667e-01 -3.333333333333333e-01 -1.666666666666665e-01
-1.666666666666667e-01 -3.333333333333333e-01 -1.666666666666665e-01
-1.666666666666667e-01 -3.333333333333333e-01 -1.666666666666665e-01
-1.666666666666667e-01 -3.333333333333333e-01 -1.666666666666665e-01
-1.666666666666667e-01 -3.333333333333333e-01 -1.666666666666665e-01
-1.666666666666667e-01 -3.333333333333333e-01 -1.666666666666665e-01
-1.666666666666667e-01 -3.333333333333333e-01 -1.666666666666665e-01
-1.666666666666667e-01 -3.333333333333333e-01 -1.666666666666665e-01
-1.666666666666667e-01 -3.333333333333333e-01 -1.666666666666665e-01
-1.666666666666667e-01 -3.333333333333333e-01 -1.666666666666665e-01
-1.666666666666667e-01 -3.333333333333333e-01 -1.666666666666665e-01
-1.666666666666667e-01 -3.333333333333333e-01 -1.666666666666665e-01
-1.666666666666667e-01 -3.333333333333333e-01 -1.666666666666665e-01
-1.666666666666667e-01 -3.333333333333333e-01 -1.666666666666665e-01
-1.666666666666667e-01 -3.333333333333333e-01 -1.666666666666665e-01
-1.666666666666667e-01 -3.333333333333333e-01 -1.666666666666665e-01
-1.666666666666667e-01 -3.333333333333333e-01 -1.666666666666665e-01
-1.666666666666667e-01 -3.333333333333333e-01 -1.666666666666665e-01
-1.666666666666667e-01 -3.333333333333333e-01 -1.666666666666665e-01
-1.666666666666667e-01 -3.333333333333333e-01 -1.666666666666665e-01
-1.666666666666667e-01 -3.333333333333333e-01 -1.666666666666665e-01
-1.666666666666667e-01 -3.333333333333333e-01 -1.666666666666665e-01
-1.666666666666667e-01 -3.333333333333333e-01 -1.666666666666665e-01
-1.666666666666667e-01 -3.333333333333333e-01 -1.666666666666665e-01
-1.666666666666667e-01 -3.333333333333333e-01 -1.666666666666665e-01
-1.666666666666667e-01 -3.333333333333333e-01 -1.666666666666665e-01
-1.666666666666667e-01 -3.333333333333333e-01 -1.666666666666665e-01
-1.666666666666667e-01 -3.333333333333333e-01 -1.666666666666665e-01
-1.666666666666667e-01 -3.333333333333333e-01 -1.666666666666665e-01
-1.666666666666667e-01 -3.333333333333333e-01 -1.666666666666665e-01
-1.666666666666667e-01 -3.333333333333333e-01 -1.666666666666665e-01
-1.666666666666667e-01 -3.333333333333333e-01 -1.666666666666665e-01
-1.666666666666667e-01 -3.333333333333333e-01 -1.666666666666665e-01
-1.666666666666667e-01 -3.333333333333333e-01 -1.666666666666665e-01
-1.666666666666667e-01 -3.333333333333333e-01 -1.666666666666665e-01
-1.666666666666667e-01 -3.333333333333333e-01 -1.666666666666665e-01
-1.666666666666667e-01 -3.333333333333333e-01 -1.666666666666665e-01
-1.666666666666667e-01 -3.333333333333333e-01 -1.666666666666665e-01
-1.666666666666667e-01 -3.333333333333333e-01 -1.666666666666665e-01
-1.666666666666667e-01 -3.333333333333333e-01 -1.666666666666665e-01
-1.666666666666667e-01 -3.333333333333333e-01 -1.666666666666665e-01
-1.666666666666667e-01 -3.333333333333333e-01 -1.666666666666665e-01
-1.666666666666667e-01 -3.333333333333333e-01 -1.666666666666665e-01
-1.666666666666667e-01 -3.333333333333333e-01 -1.666666666666665e-01
-1.666666666666667e-01 -3.333333333333333e-01 -1.666666666666665e-01
-1.666666666666667e-01 -3.333333333333333e-01 -1.666666666666665e-01
-1.666666666666667e-01 -3.333333333333333e-01 -1.666666666666665e-01
-1.666666666666667e-01 -3.333333333333333e-01 -1.666666666666665e-01
-1.666666666666667e-01 -3.333333333333333e-01 -1.666666666666665e-01
-1.666666666666667e-01 -3.333333333333333e-01 -1.666666666666665e-01
-1.666666666666667e-01 -3.333333333333333e-01 -1.666666666666665e-01
-1.666666666666667e-01 -3.333333333333333e-01 -1.666666666666665e-01
-1.666666666666667e-01 -3.333333333333333e-01 -1.666666666666665e-01
-1.666666666666667e-01 -3.333333333333333e-01 -1.666666666666665e-01
-1.666666666666667e-01 -3.333333333333333e-01 -1.666666666666665e-01
-1.666666666666667e-01 -3.333333333333333e-01 -1.666666666666665e-01
-1.666666666666667e-01 -3.333333333333333e-01 -1.666666666666665e-01
-1.666666666666667e-01 -3.333333333333333e-01 -1.666666666666665e-01
-1.666666666666667e-01 -3.333333333333333e-01 -1.666666666666665e-01
-1.666666666666667e-01 -3.333333333333333e-01 -1.666666666666665e-01
-1.666666666666667e-01 -3.333333333333333e-01 -1.666666666666665e-01
-1.666666666666667e-01 -3.333333333333333e-01 -1.666666666666665e-01
-1.666666666666667e-01 -3.333333333333333e-01 -1.666666666666665e-01
-1.666666666666667e-01 -3.333333333333333e-01 -1.666666666666665e-01
-1.666666666666667e-01 -3.333333333333333e-01 -1.666666666666665e-01
-1.666666666666667e-01 -3.333333333333333e-01 -1.666666666666665e-01
-1.666666666666667e-01 -3.333333333333333e-01 -1.666666666666665e-01
-1.666666666666667e-01 -3.333333333333333e-01 -1.666666666666665e-01
-1.666666666666667e-01 -3.333333333333333e-01 -1.666666666666665e-01
-1.666666666666667e-01 -3.333333333333333e-01 -1.666666666666665e-01
-1.666666666666667e-01 -3.333333333333333e-01 -1.666666666666665e-01
-1.666666666666667e-01 -3.333333333333333e-01 -1.666666666666665e-01
-1.666666666666667e-01 -3.333333333333333e-01 -1.666666666666665e-01
-1.666666666666667e-01 -3.333333333333333e-01 -1.666666666666665e-01
-1.666666666666667e-01 -3.333333333333333e-01 -1.666666666666665e-01
-1.666666666666667e-01 -3.333333333333333e-01 -1.666666666666665e-01
-1.666666666666667e-01 -3.333333333333333e-01 -1.666666666666665e-01
-1.666666666666667e-01 -3.333333333333333e-01 -1.666666666666665e-01
-1.666666666666667e-01 -3.333333333333333e-01 -1.666666666666665e-01
-1.666666666666667e-01 -3.333333333333333e-01 -1.666666666666665e-01
-1.666666666666667e-01 -3.333333333333333e-01 -1.666666666666665e-01
-1.666666666666667e-01 -3.333333333333333e-01 -1.666666666666665e-01
-1.666666666666667e-01 -3.333333333333333e-01 -1.666666666666665e-01
-1.666666666666667e-01 -3.333333333333333e-01 -1.666666666666665e-01
-1.666666666666667e-01 -3.333333333333333e-01 -1.666666666666665e-01
-1.666666666666667e-01 -3.333333333333333e-01 -1.666666666666665e-01
-1.666666666666667e-01 -3.333333333333333e-01 -1.666666666666665e-01
-1.666666666666667e-01 -3.333333333333333e-01 -1.666666666666665e-01
-1.666666666666667e-01 -3.333333333333333e-01 -1.666666666666665e-01
-1.666666666666667e-01 -3.333333333333333e-01 -1.666666666666665e-01
-1.666666666666667e-01 -3.333333333333333e-01 -1.666666666666665e-01
-1.666666666666667e-01 -3.333333333333333e-01 -1.666666666666665e-01
-1.666666666666667e-01 -3.333333333333333e-01 -1.666666666666665e-01
-1.666666666666667e-01 -3.333333333333333e-01 -1.666666666666665e-01
-1.666666666666667e-01 -3.333333333333333e-01 -1.666666666666665e-01
-1.666666666666667e-01 -3.333333333333333e-01 -1.666666666666665e-01
-1.666666666666667e-01 -3.333333333333333e-01 -1.666666666666665e-01
-1.666666666666667e-01 -3.333333333333333e-01 -1.666666666666665e-01
-1.666666666666667e-01 -3.333333333333333e-01 -1.666666666666665e-01
-1.666666666666667e-01 -3.333333333333333e-01 -1.666666666666665e-01
-1.666666666666667e-01 -3.333333333333333e-01 -1.666666666666665e-01
-1.666666666666667e-01 -3.333333333333333e-01 -1.666666666666665e-01
-1.666666666666667e-01 -3.333333333333333e-01 -1.666666666666665e-01
-1.666666666666667e-01 -3.333333333333333e-01 -1.666666666666665e-01
-1.666666666666667e-01 -3.333333333333333e-01 -1.666666666666665e-01
-1.666666666666667e-01 -3.333333333333333e-01 -1.666666666666665e-01
-1.666666666666667e-01 -3.333333333333333e-01 -1.666666666666665e-01
-1.666666666666667e-01 -3.333333333333333e-01 -1.666666666666665e-01
-1.666666666666667e-01 -3.333333333333333e-01 -1.666666666666665e-01
-1.666666666666667e-01 -3.333333333333333e-01 -1.666666666666665e-01
-1.666666666666667e-01 -3.333333333333333e-01 -1.666666666666665e-01
-1.666666666666667e-01 -3.333333333333333e-01 -1.666666666666665e-01
-1.666666666666667e-01 -3.333333333333333e-01 -1.666666666666665e-01
-1.666666666666667e-01 -3.333333333333333e-01 -1.666666666666665e-01
-1.666666666666667e-01 -3.333333333333333e-01 -1.666666666666665e-01
-1.666666666666667e-01 -3.333333333333333e-01 -1.666666666666665e-01
-1.666666666666667e-01 -3.333333333333333e-01 -1.666666666666665e-01
-1.666666666666667e-01 -3.333333333333333e-01 -1.666666666666665e-01
-1.666666666666667e-01 -3.333333333333333e-01 -1.666666666666665e-01
-1.666666666666667e-01 -3.333333333333333e-01 -1.666666666666665e-01
-1.666666666666667e-01 -3.333333333333333e-01 -1.666666666666665e-01
-1.666666666666667e-01 -3.333333333333333e-01 -1.666666666666665e-01
-1.666666666666667e-01 -3.333333333333333e-01 -1.666666666666665e-01
-1.666666666666667e-01 -3.333333333333333e-01 -1.666666666666665e-01
-1.666666666666667e-01 -3.333333333333333e-01 -1.666666666666665e-01
-1.666666666666667e-01 -3.333333333333333e-01 -1.666666666666665e-01
-1.666666666666667e-01 -3.333333333333333e-01 -1.666666666666665e-01
-1.666666666666667e-01 -3.333333333333333e-01 -1.666666666666665e-01
-1.666666666666667e-01 -3.333333333333333e-01 -1.666666666666665e-01
-1.666666666666667e-01 -3.333333333333333e-01 -1.666666666666665e-01
-1.666666666666667e-01 -3.333333333333333e-01 -1.666666666666665e-01
-1.666666666666667e-01 -3.333333333333333e-01 -1.666666666666665e-01
-1.666666666666667e-01 -3.333333333333333e-01 -1.666666666666665e-01
-1.666666666666667e-01 -3.333333333333333e-01 -1.666666666666665e-01
-1.666666666666667e-01 -3.333333333333333e-01 -1.666666666666665e-01
-1.666666666666667e-01 -3.333333333333333e-01 -1.666666666666665e-01
-1.666666666666667e-01 -3.333333333333333e-01 -1.666666666666665e-01
-1.666666666666667e-01 -3.333333333333333e-01 -1.666666666666665e-01
-1.666666666666667e-01 -3.333333333333333e-01 -1.666666666666665e-01
-1.666666666666667e-01 -3.333333333333333e-01 -1.666666666666665e-01
-1.666666666666667e-01 -3.333333333333333e-01 -1.666666666666665e-01
-1.666666666666667e-01 -3.333333333333333e-01 -1.666666666666665e-01
-1.666666666666667e-01 -3.333333333333333e-01 -1.666666666666665e-01
-1.666666666666667e-01 -3.333333333333333e-01 -1.666666666666665e-01
-1.666666666666667e-01 -3.333333333333333e-01 -1.666666666666665e-01
-1.666666666666667e-01 -3.333333333333333e-01 -1.666666666666665e-01
-1.666666666666667e-01 -3.333333333333333e-01 -1.666666666666665e-01
-1.666666666666667e-01 -3.333333333333333e-01 -1.666666666666665e-01
-1.666666666666667e-01 -3.333333333333333e-01 -1.666666666666665e-01
-1.666666666666667e-01 -3.333333333333333e-01 -1.666666666666665e-01
-1.666666666666667e-01 -3.333333333333333e-01 -1.666666666666665e-01
-1.666666666666667e-01 -3.333333333333333e-01 -1.666666666666665e-01
-1.666666666666667e-01 -3.333333333333333e-01 -1.666666666666665e-01
-1.666666666666667e-01 -3.333333333333333e-01 -1.666666666666665e-01
-1.666666666666667e-01 -3.333333333333333e-01 -1.666666666666665e-01
-1.666666666666667e-01 -3.333333333333333e-01 -1.666666666666665e-01
-1.666666666666667e-01 -3.333333333333333e-01 -1.666666666666665e-01
-1.666666666666667e-01 -3.333333333333333e-01 -1.666666666666665e-01
-1.666666666666667e-01 -3.333333333333333e-01 -1.666666666666665e-01
-1.666666666666667e-01 -3.333333333333333e-01 -1.666666666666665e-01
-1.666666666666667e-01 -3.333333333333333e-01 -1.666666666666665e-01
-1.666666666666667e-01 -3.333333333333333e-01 -1.666666666666665e-01
-1.666666666666667e-01 -3.333333333333333e-01 -1.666666666666665e-01
-1.666666666666667e-01 -3.333333333333333e-01 -1.666666666666665e-01
-1.666666666666667e-01 -3.333333333333333e-01 -1.666666666666665e-01
1.666666666666667e-01 3.333333333333333e-01 1.666666666666665e-01
-1.666666666666667e-01 -3.333333333333333e-01 -1.666666666666665e-01
-1.666666666666667e-01 -3.333333333333333e-01 -1.666666666666665e-01
-1.666666666666667e-01 -3.333333333333333e-01 -1.666666666666665e-01
-1.666666666666667e-01 -3.333333333333333e-01 -1.666666666666665e-01
-1.666666666666667e-01 -3.333333333333333e-01 -1.666666666666665e-01
-1.666666666666667e-01 -3.333333333333333e-01 -1.666666666666665e-01
-1.666666666666667e-01 -3.333333333333333e-01 -1.666666666666665e-01
-1.666666666666667e-01 -3.333333333333333e-01 -1.666666666666665e-01
-1.666666666666667e-01 -3.333333333333333e-01 -1.666666666666665e-01
-1.666666666666667e-01 -3.333333333333333e-01 -1.666666666666665e-01
-1.666666666666667e-01 -3.333333333333333e-01 -1.666666666666665e-01
-1.666666666666667e-01 -3.333333333333333e-01 -1.666666666666665e-01
-1.666666666666667e-01 -3.333333333333333e-01 -1.666666666666665e-01
-1.666666666666667e-01 -3.333333333333333e-01 -1.666666666666665e-01
-1.666666666666667e-01 -3.333333333333333e-01 -1.666666666666665e-01
-1.666666666666667e-01 -3.333333333333333e-01 -1.666666666666665e-01
-1.666666666666667e-01 -3.333333333333333e-01 -1.666666666666665e-01
-1.666666666666667e-01 -3.333333333333333e-01 -1.666666666666665e-01
-1.666666666666667e-01 -3.333333333333333e-01 -1.666666666666665e-01
-1.666666666666667e-01 -3.333333333333333e-01 -1.666666666666665e-01
-1.666666666666667e-01 -3.333333333333333e-01 -1.666666666666665e-01
-1.666666666666667e-01 -3.333333333333333e-01 -1.666666666666665e-01
-1.666666666666667e-01 -3.333333333333333e-01 -1.666666666666665e-01
-1.666666666666667e-01 -3.333333333333333e-01 -1.666666666666665e-01
-1.666666666666667e-01 -3.333333333333333e-01 -1.666666666666665e-01
-1.666666666666667e-01 -3.333333333333333e-01 -1.666666666666665e-01
-1.666666666666667e-01 -3.333333333333333e-01 -1.666666666666665e-01
-1.666666666666667e-01 -3.333333333333333e-01 -1.666666666666665e-01
-1.666666666666667e-01 -3.333333333333333e-01 -1.666666666666665e-01
-1.666666666666667e-01 -3.333333333333333e-01 -1.666666666666665e-01
-1.666666666666667e-01 -3.333333333333333e-01 -1.666666666666665e-01
-1.666666666666667e-01 -3.333333333333333e-01 -1.666666666666665e-01
-1.666666666666667e-01 -3.333333333333333e-01 -1.666666666666665e-01
-1.666666666666667e-01 -3.333333333333333e-01 -1.666666666666665e-01
-1.666666666666667e-01 -3.333333333333333e-01 -1.666666666666665e-01
-1.666666666666667e-01 -3.333333333333333e-01 -1.666666666666665e-01
-1.666666666666667e-01 -3.333333333333333e-01 -1.666666666666665e-01
-1.666666666666667e-01 -3.333333333333333e-01 -1.666666666666665e-01
-1.666666666666667e-01 -3.333333333333333e-01 -1.666666666666665e-01
-1.666666666666667e-01 -3.333333333333333e-01 -1.666666666666665e-01
-1.666666666666667e-01 -3.333333333333333e-01 -1.666666666666665e-01
-1.666666666666667e-01 -3.333333333333333e-01 -1.666666666666665e-01
-1.666666666666667e-01 -3.333333333333333e-01 -1.666666666666665e-01
-1.666666666666667e-01 -3.333333333333333e-01 -1.666666666666665e-01
-1.666666666666667e-01 -3.333333333333333e-01 -1.666666666666665e-01
-1.666666666666667e-01 -3.333333333333333e-01 -1.666666666666665e-01
-1.666666666666667e-01 -3.333333333333333e-01 -1.666666666666665e-01
-1.666666666666667e-01 -3.333333333333333e-01 -1.666666666666665e-01
-1.666666666666667e-01 -3.333333333333333e-01 -1.666666666666665e-01
-1.666666666666667e-01 -3.333333333333333e-01 -1.666666666666665e-01
-1.666666666666667e-01 -3.333333333333333e-01 -1.666666666666665e-01
-1.666666666666667e-01 -3.333333333333333e-01 -1.666666666666665e-01
-1.666666666666667e-01 -3.333333333333333e-01 -1.666666666666665e-01
-1.666666666666667e-01 -3.333333333333333e-01 -1.666666666666665e-01
-1.666666666666667e-01 -3.333333333333333e-01 -1.666666666666665e-01
-1.666666666666667e-01 -3.333333333333333e-01 -1.666666666666665e-01
-1.666666666666667e-01 -3.333333333333333e-01 -1.666666666666665e-01
-1.666666666666667e-01 -3.333333333333333e-01 -1.666666666666665e-01
-1.666666666666667e-01 -3.333333333333333e-01 -1.666666666666665e-01
-1.666666666666667e-01 -3.333333333333333e-01 -1.666666666666665e-01
-1.666666666666667e-01 -3.333333333333333e-01 -1.666666666666665e-01
-1.666666666666667e-01 -3.333333333333333e-01 -1.666666666666665e-01
-1.666666666666667e-01 -3.333333333333333e-01 -1.666666666666665e-01
-1.666666666666667e-01 -3.333333333333333e-01 -1.666666666666665e-01
-1.666666666666667e-01 -3.333333333333333e-01 -1.666666666666665e-01
-1.666666666666667e-01 -3.333333333333333e-01 -1.666666666666665e-01
-1.666666666666667e-01 -3.333333333333333e-01 -1.666666666666665e-01
-1.666666666666667e-01 -3.333333333333333e-01 -1.666666666666665e-01
-1.666666666666667e-01 -3.333333333333333e-01 -1.666666666666665e-01
-1.666666666666667e-01 -3.333333333333333e-01 -1.666666666666665e-01
-1.666666666666667e-01 -3.333333333333333e-01 -1.666666666666665e-01
-1.666666666666667e-01 -3.333333333333333e-01 -1.666666666666665e-01
-1.666666666666667e-01 -3.333333333333333e-01 -1.666666666666665e-01
-1.666666666666667e-01 -3.333333333333333e-01 -1.666666666666665e-01
-1.666666666666667e-01 -3.333333333333333e-01 -1.666666666666665e-01
-1.666666666666667e-01 -3.333333333333333e-01 -1.666666666666665e-01
-1.666666666666667e-01 -3.333333333333333e-01 -1.666666666666665e-01
-1.666666666666667e-01 -3.333333333333333e-01 -1.666666666666665e-01
-1.666666666666667e-01 -3.333333333333333e-01 -1.666666666666665e-01
-1.666666666666667e-01 -3.333333333333333e-01 -1.666666666666665e-01
-1.666666666666667e-01 -3.333333333333333e-01 -1.666666666666665e-01
-1.666666666666667e-01 -3.333333333333333e-01 -1.666666666666665e-01
-1.666666666666667e-01 -3.333333333333333e-01 -1.666666666666665e-01
-1.666666666666667e-01 -3.333333333333333e-01 -1.666666666666665e-01
-1.666666666666667e-01 -3.333333333333333e-01 -1.666666666666665e-01
-1.666666666666667e-01 -3.333333333333333e-01 -1.666666666666665e-01
-1.666666666666667e-01 -3.333333333333333e-01 -1.666666666666665e-01
-1.666666666666667e-01 -3.333333333333333e-01 -1.666666666666665e-01
-1.666666666666667e-01 -3.333333333333333e-01 -1.666666666666665e-01
-1.666666666666667e-01 -3.333333333333333e-01 -1.666666666666665e-01
-1.666666666666667e-01 -3.333333333333333e-01 -1.666666666666665e-01
-1.666666666666667e-01 -3.333333333333333e-01 -1.666666666666665e-01
-1.666666666666667e-01 -3.333333333333333e-01 -1.666666666666665e-01
-1.666666666666667e-01 -3.333333333333333e-01 -1.666666666666665e-01
-1.666666666666667e-01 -3.333333333333333e-01 -1.666666666666665e-01
-1.666666666666667e-01 -3.333333333333333e-01 -1.666666666666665e-01
-1.666666666666667e-01 -3.333333333333333e-01 -1.666666666666665e-01
-1.666666666666667e-01 -3.333333333333333e-01 -1.666666666666665e-01
-1.666666666666667e-01 -3.333333333333333e-01 -1.666666666666665e-01
-1.666666666666667e-01 -3.333333333333333e-01 -1.666666666666665e-01
-1.666666666666667e-01 -3.333333333333333e-01 -1.666666666666665e-01
-1.666666666666667e-01 -3.333333333333333e-01 -1.666666666666665e-01
-1.666666666666667e-01 -3.333333333333333e-01 -1.666666666666665e-01
-1.666666666666667e-01 -3.333333333333333e-01 -1.666666666666665e-01
-1.666666666666667e-01 -3.333333333333333e-01 -1.666666666666665e-01
-1.666666666666667e-01 -3.333333333333333e-01 -1.666666666666665e-01
-1.666666666666667e-01 -3.333333333333333e-01 -1.666666666666665e-01
-1.666666666666667e-01 -3.333333333333333e-01 -1.666666666666665e-01
-1.666666666666667e-01 -3.333333333333333e-01 -1.666666666666665e-01
-1.666666666666667e-01 -3.333333333333333e-01 -1.666666666666665e-01
-1.666666666666667e-01 -3.333333333333333e-01 -1.666666666666665e-01
-1.666666666666667e-01 -3.333333333333333e-01 -1.666666666666665e-01
-1.666666666666667e-01 -3.333333333333333e-01 -1.666666666666665e-01
-1.666666666666667e-01 -3.333333333333333e-01 -1.666666666666665e-01
-1.666666666666667e-01 -3.333333333333333e-01 -1.666666666666665e-01
-1.666666666666667e-01 -3.333333333333333e-01 -1.666666666666665e-01
-1.666666666666667e-01 -3.333333333333333e-01 -1.666666666666665e-01
-1.666666666666667e-01 -3.333333333333333e-01 -1.666666666666665e-01
-1.666666666666667e-01 -3.333333333333333e-01 -1.666666666666665e-01
-1.666666666666667e-01 -3.333333333333333e-01 -1.666666666666665e-01
-1.666666666666667e-01 -3.333333333333333e-01 -1.666666666666665e-01
-1.666666666666667e-01 -3.333333333333333e-01 -1.666666666666665e-01
-1.666666666666667e-01 -3.333333333333333e-01 -1.666666666666665e-01
-1.666666666666667e-01 -3.333333333333333e-01 -1.666666666666665e-01
-1.666666666666667e-01 -3.333333333333333e-01 -1.666666666666665e-01
-1.666666666666667e-01 -3.333333333333333e-01 -1.666666666666665e-01
-1.666666666666667e-01 -3.333333333333333e-01 -1.666666666666665e-01
-1.666666666666667e-01 -3.333333333333333e-01 -1.666666666666665e-01
-1.666666666666667e-01 -3.333333333333333e-01 -1.666666666666665e-01
-1.666666666666667e-01 -3.333333333333333e-01 -1.666666666666665e-01
-1.666666666666667e-01 -3.333333333333333e-01 -1.666666666666665e-01
-1.666666666666667e-01 -3.333333333333333e-01 -1.666666666666665e-01
-1.666666666666667e-01 -3.333333333333333e-01 -1.666666666666665e-01
-1.666666666666667e-01 -3.333333333333333e-01 -1.666666666666665e-01
-1.666666666666667e-01 -3.333333333333333e-01 -1.666666666666665e-01
-1.666666666666667e-01 -3.333333333333333e-01 -1.666666666666665e-01
-1.666666666666667e-01 -3.333333333333333e-01 -1.666666666666665e-01
-1.666666666666667e-01 -3.333333333333333e-01 -1.666666666666665e-01
-1.666666666666667e-01 -3.333333333333333e-01 -1.666666666666665e-01
-1.666666666666667e-01 -3.333333333333333e-01 -1.666666666666665e-01
-1.666666666666667e-01 -3.333333333333333e-01 -1.666666666666665e-01
-1.666666666666667e-01 -3.333333333333333e-01 -1.666666666666665e-01
-1.666666666666667e-01 -3.333333333333333e-01 -1.666666666666665e-01
-1.666666666666667e-01 -3.333333333333333e-01 -1.666666666666665e-01
-1.666666666666667e-01 -3.333333333333333e-01 -1.666666666666665e-01
-1.666666666666667e-01 -3.333333333333333e-01 -1.666666666666665e-01
-1.666666666666667e-01 -3.333333333333333e-01 -1.666666666666665e-01
-1.666666666666667e-01 -3.333333333333333e-01 -1.666666666666665e-01
-1.666666666666667e-01 -3.333333333333333e-01 -1.666666666666665e-01
-1.666666666666667e-01 -3.333333333333333e-01 -1.666666666666665e-01
-1.666666666666667e-01 -3.333333333333333e-01 -1.666666666666665e-01
-1.666666666666667e-01 -3.333333333333333e-01 -1.666666666666665e-01
-1.666666666666667e-01 -3.333333333333333e-01 -1.666666666666665e-01
-1.666666666666667e-01 -3.333333333333333e-01 -1.666666666666665e-01
-1.666666666666667e-01 -3.333333333333333e-01 -1.666666666666665e-01
-1.666666666666667e-01 -3.333333333333333e-01 -1.666666666666665e-01
-1.666666666666667e-01 -3.333333333333333e-01 -1.666666666666665e-01
-1.666666666666667e-01 -3.333333333333333e-01 -1.666666666666665e-01
-1.666666666666667e-01 -3.333333333333333e-01 -1.666666666666665e-01
-1.666666666666667e-01 -3.333333333333333e-01 -1.666666666666665e-01
-1.666666666666667e-01 -3.333333333333333e-01 -1.666666666666665e-01
-1.666666666666667e-01 -3.333333333333333e-01 -1.666666666666665e-01
-1.666666666666667e-01 -3.333333333333333e-01 -1.666666666666665e-01
-1.666666666666667e-01 -3.333333333333333e-01 -1.666666666666665e-01
-1.666666666666667e-01 -3.333333333333333e-01 -1.666666666666665e-01
-1.666666666666667e-01 -3.333333333333333e-01 -1.666666666666665e-01
-1.666666666666667e-01 -3.333333333333333e-01 -1.666666666666665e-01
-1.666666666666667e-01 -3.333333333333333e-01 -1.666666666666665e-01
-1.666666666666667e-01 -3.333333333333333e-01 -1.666666666666665e-01
-1.666666666666667e-01 -3.333333333333333e-01 -1.666666666666665e-01
-1.666666666666667e-01 -3.333333333333333e-01 -1.666666666666665e-01
-1.666666666666667e-01 -3.333333333333333e-01 -1.666666666666665e-01
-1.666666666666667e-01 -3.333333333333333e-01 -1.666666666666665e-01
-1.666666666666667e-01 -3.333333333333333e-01 -1.666666666666665e-01
-1.666666666666667e-01 -3.333333333333333e-01 -1.666666666666665e-01
-1.666666666666667e-01 -3.333333333333333e-01 -1.666666666666665e-01
-1.666666666666667e-01 -3.333333333333333e-01 -1.666666666666665e-01
-1.666666666666667e-01 -3.333333333333333e-01 -1.666666666666665e-01
-1.666666666666667e-01 -3.333333333333333e-01 -1.666666666666665e-01
-1.666666666666667e-01 -3.333333333333333e-01 -1.666666666666665e-01
-1.666666666666667e-01 -3.333333333333333e-01 -1.666666666666665e-01
-1.666666666666667e-01 -3.333333333333333e-01 -1.666666666666665e-01
-1.666666666666667e-01 -3.333333333333333e-01 -1.666666666666665e-01
-1.666666666666667e-01 -3.333333333333333e-01 -1.666666666666665e-01
-1.666666666666667e-01 -3.333333333333333e-01 -1.666666666666665e-01
-1.666666666666667e-01 -3.333333333333333e-01 -1.666666666666665e-01
-1.666666666666667e-01 -3.333333333333333e-01 -1.666666666666665e-01
-1.666666666666667e-01 -3.333333333333333e-01 -1.666666666666665e-01
-1.666666666666667e-01 -3.333333333333333e-01 -1.666666666666665e-01
1.666666666666667e-01 3.333333333333333e-01 1.666666666666665e-01
-1.666666666666667e-01 -3.333333333333333e-01 -1.666666666666665e-01
1.666666666666667e-01 3.333333333333333e-01 1.666666666666665e-01
1.666666666666667e-01 3.333333333333333e-01 1.666666666666665e-01
1.666666666666667e-01 3.333333333333333e-01 1.666666666666665e-01
1.666666666666667e-01 3.333333333333333e-01 1.666666666666665e-01
1.666666666666667e-01 3.333333333333333e-01 1.666666666666665e-01
1.666666666666667e-01 3.333333333333333e-01 1.666666666666665e-01
1.666666666666667e-01 3.333333333333333e-01 1.666666666666665e-01
1.666666666666667e-01 3.333333333333333e-01 1.666666666666665e-01
1.666666666666667e-01 3.333333333333333e-01 1.666666666666665e-01
1.666666666666667e-01 3.333333333333333e-01 1.666666666666665e-01
1.666666666666667e-01 3.333333333333333e-01 1.666666666666665e-01
1.666666666666667e-01 3.333333333333333e-01 1.666666666666665e-01
1.666666666666667e-01 3.333333333333333e-01 1.666666666666665e-01
1.666666666666667e-01 3.333333333333333e-01 1.666666666666665e-01
1.666666666666667e-01 3.333333333333333e-01 1.666666666666665e-01
1.666666666666667e-01 3.333333333333333e-01 1.666666666666665e-01
1.666666666666667e-01 3.333333333333333e-01 1.666666666666665e-01
1.666666666666667e-01 3.333333333333333e-01 1.666666666666665e-01
1.666666666666667e-01 3.333333333333333e-01 1.666666666666665e-01
1.666666666666667e-01 3.333333333333333e-01 1.666666666666665e-01
1.666666666666667e-01 3.333333333333333e-01 1.666666666666665e-01
1.666666666666667e-01 3.333333333333333e-01 1.666666666666665e-01
1.666666666666667e-01 3.333333333333333e-01 1.666666666666665e-01
1.666666666666667e-01 3.333333333333333e-01 1.666666666666665e-01
1.666666666666667e-01 3.333333333333333e-01 1.666666666666665e-01
1.666666666666667e-01 3.333333333333333e-01 1.666666666666665e-01
1.666666666666667e-01 3.333333333333333e-01 1.666666666666665e-01
1.666666666666667e-01 3.333333333333333e-01 1.666666666666665e-01
1.666666666666667e-01 3.333333333333333e-01 1.666666666666665e-01
1.666666666666667e-01 3.333333333333333e-01 1.666666666666665e-01
1.666666666666667e-01 3.333333333333333e-01 1.666666666666665e-01
1.666666666666667e-01 3.333333333333333e-01 1.666666666666665e-01
1.666666666666667e-01 3.333333333333333e-01 1.666666666666665e-01
1.666666666666667e-01 3.333333333333333e-01 1.666666666666665e-01
1.666666666666667e-01 3.333333333333333e-01 1.666666666666665e-01
1.666666666666667e-01 3.333333333333333e-01 1.666666666666665e-01
1.666666666666667e-01 3.333333333333333e-01 1.666666666666665e-01
1.666666666666667e-01 3.333333333333333e-01 1.666666666666665e-01
1.666666666666667e-01 3.333333333333333e-01 1.666666666666665e-01
1.666666666666667e-01 3.333333333333333e-01 1.666666666666665e-01
1.666666666666667e-01 3.333333333333333e-01 1.666666666666665e-01
1.666666666666667e-01 3.333333333333333e-01 1.666666666666665e-01
1.666666666666667e-01 3.333333333333333e-01 1.666666666666665e-01
1.666666666666667e-01 3.333333333333333e-01 1.666666666666665e-01
1.666666666666667e-01 3.333333333333333e-01 1.666666666666665e-01
1.666666666666667e-01 3.333333333333333e-01 1.666666666666665e-01
1.666666666666667e-01 3.333333333333333e-01 1.666666666666665e-01
1.666666666666667e-01 3.333333333333333e-01 1.666666666666665e-01
1.666666666666667e-01 3.333333333333333e-01 1.666666666666665e-01
1.666666666666667e-01 3.333333333333333e-01 1.666666666666665e-01
1.666666666666667e-01 3.333333333333333e-01 1.666666666666665e-01
1.666666666666667e-01 3.333333333333333e-01 1.666666666666665e-01
1.666666666666667e-01 3.333333333333333e-01 1.666666666666665e-01
1.666666666666667e-01 3.333333333333333e-01 1.666666666666665e-01
1.666666666666667e-01 3.333333333333333e-01 1.666666666666665e-01
1.666666666666667e-01 3.333333333333333e-01 1.666666666666665e-01
1.666666666666667e-01 3.333333333333333e-01 1.666666666666665e-01
1.666666666666667e-01 3.333333333333333e-01 1.666666666666665e-01
1.666666666666667e-01 3.333333333333333e-01 1.666666666666665e-01
1.666666666666667e-01 3.333333333333333e-01 1.666666666666665e-01
1.666666666666667e-01 3.333333333333333e-01 1.666666666666665e-01
1.666666666666667e-01 3.333333333333333e-01 1.666666666666665e-01
1.666666666666667e-01 3.333333333333333e-01 1.666666666666665e-01
1.666666666666667e-01 3.333333333333333e-01 1.666666666666665e-01
1.666666666666667e-01 3.333333333333333e-01 1.666666666666665e-01
1.666666666666667e-01 3.333333333333333e-01 1.666666666666665e-01
1.666666666666667e-01 3.333333333333333e-01 1.666666666666665e-01
1.666666666666667e-01 3.333333333333333e-01 1.666666666666665e-01
1.666666666666667e-01 3.333333333333333e-01 1.666666666666665e-01
1.666666666666667e-01 3.333333333333333e-01 1.666666666666665e-01
1.666666666666667e-01 3.333333333333333e-01 1.666666666666665e-01
1.666666666666667e-01 3.333333333333333e-01 1.666666666666665e-01
1.666666666666667e-01 3.333333333333333e-01 1.666666666666665e-01
1.666666666666667e-01 3.333333333333333e-01 1.666666666666665e-01
1.666666666666667e-01 3.333333333333333e-01 1.666666666666665e-01
1.666666666666667e-01 3.333333333333333e-01 1.666666666666665e-01
1.666666666666667e-01 3.333333333333333e-01 1.666666666666665e-01
1.666666666666667e-01 3.333333333333333e-01 1.666666666666665e-01
1.666666666666667e-01 3.333333333333333e-01 1.666666666666665e-01
1.666666666666667e-01 3.333333333333333e-01 1.666666666666665e-01
1.666666666666667e-01 3.333333333333333e-01 1.666666666666665e-01
1.666666666666667e-01 3.333333333333333e-01 1.666666666666665e-01
1.666666666666667e-01 3.333333333333333e-01 1.666666666666665e-01
1.666666666666667e-01 3.333333333333333e-01 1.666666666666665e-01
1.666666666666667e-01 3.333333333333333e-01 1.666666666666665e-01
1.666666666666667e-01 3.333333333333333e-01 1.666666666666665e-01
1.666666666666667e-01 3.333333333333333e-01 1.666666666666665e-01
1.666666666666667e-01 3.333333333333333e-01 1.666666666666665e-01
1.666666666666667e-01 3.333333333333333e-01 1.666666666666665e-01
1.666666666666667e-01 3.333333333333333e-01 1.666666666666665e-01
1.666666666666667e-01 3.333333333333333e-01 1.666666666666665e-01
1.666666666666667e-01 3.333333333333333e-01 1.666666666666665e-01
1.666666666666667e-01 3.333333333333333e-01 1.666666666666665e-01
1.666666666666667e-01 3.333333333333333e-01 1.666666666666665e-01
1.666666666666667e-01 3.333333333333333e-01 1.666666666666665e-01
1.666666666666667e-01 3.333333333333333e-01 1.666666666666665e-01
1.666666666666667e-01 3.333333333333333e-01 1.666666666666665e-01
1.666666666666667e-01 3.333333333333333e-01 1.666666666666665e-01
1.666666666666667e-01 3.333333333333333e-01 1.666666666666665e-01
1.666666666666667e-01 3.333333333333333e-01 1.666666666666665e-01
1.666666666666667e-01 3.333333333333333e-01 1.666666666666665e-01
1.666666666666667e-01 3.333333333333333e-01 1.666666666666665e-01
1.666666666666667e-01 3.333333333333333e-01 1.666666666666665e-01
1.666666666666667e-01 3.333333333333333e-01 1.666666666666665e-01
1.666666666666667e-01 3.333333333333333e-01 1.666666666666665e-01
1.666666666666667e-01 3.333333333333333e-01 1.666666666666665e-01
1.666666666666667e-01 3.333333333333333e-01 1.666666666666665e-01
1.666666666666667e-01 3.333333333333333e-01 1.666666666666665e-01
1.666666666666667e-01 3.333333333333333e-01 1.666666666666665e-01
1.666666666666667e-01 3.333333333333333e-01 1.666666666666665e-01
1.666666666666667e-01 3.333333333333333e-01 1.666666666666665e-01
1.666666666666667e-01 3.333333333333333e-01 1.666666666666665e-01
1.666666666666667e-01 3.333333333333333e-01 1.666666666666665e-01
1.666666666666667e-01 3.333333333333333e-01 1.666666666666665e-01
1.666666666666667e-01 3.333333333333333e-01 1.666666666666665e-01
1.666666666666667e-01 3.333333333333333e-01 1.666666666666665e-01
1.666666666666667e-01 3.333333333333333e-01 1.666666666666665e-01
1.666666666666667e-01 3.333333333333333e-01 1.666666666666665e-01
1.666666666666667e-01 3.333333333333333e-01 1.666666666666665e-01
1.666666666666667e-01 3.333333333333333e-01 1.666666666666665e-01
1.666666666666667e-01 3.333333333333333e-01 1.666666666666665e-01
1.666666666666667e-01 3.333333333333333e-01 1.666666666666665e-01
1.666666666666667e-01 3.333333333333333e-01 1.666666666666665e-01
1.666666666666667e-01 3.333333333333333e-01 1.666666666666665e-01
1.666666666666667e-01 3.333333333333333e-01 1.666666666666665e-01
1.666666666666667e-01 3.333333333333333e-01 1.666666666666665e-01
1.666666666666667e-01 3.333333333333333e-01 1.666666666666665e-01
1.666666666666667e-01 3.333333333333333e-01 1.666666666666665e-01
1.666666666666667e-01 3.333333333333333e-01 1.666666666666665e-01
1.666666666666667e-01 3.333333333333333e-01 1.666666666666665e-01
1.666666666666667e-01 3.333333333333333e-01 1.666666666666665e-01
1.666666666666667e-01 3.333333333333333e-01 1.666666666666665e-01
1.666666666666667e-01 3.333333333333333e-01 1.666666666666665e-01
1.666666666666667e-01 3.333333333333333e-01 1.666666666666665e-01
1.666666666666667e-01 3.333333333333333e-01 1.666666666666665e-01
1.666666666666667e-01 3.333333333333333e-01 1.666666666666665e-01
1.666666666666667e-01 3.333333333333333e-01 1.666666666666665e-01
1.666666666666667e-01 3.333333333333333e-01 1.666666666666665e-01
1.666666666666667e-01 3.333333333333333e-01 1.666666666666665e-01
1.666666666666667e-01 3.333333333333333e-01 1.666666666666665e-01
1.666666666666667e-01 3.333333333333333e-01 1.666666666666665e-01
1.666666666666667e-01 3.333333333333333e-01 1.666666666666665e-01
1.666666666666667e-01 3.333333333333333e-01 1.666666666666665e-01
1.666666666666667e-01 3.333333333333333e-01 1.666666666666665e-01
1.666666666666667e-01 3.333333333333333e-01 1.666666666666665e-01
1.666666666666667e-01 3.333333333333333e-01 1.666666666666665e-01
1.666666666666667e-01 3.333333333333333e-01 1.666666666666665e-01
1.666666666666667e-01 3.333333333333333e-01 1.666666666666665e-01
1.666666666666667e-01 3.333333333333333e-01 1.666666666666665e-01
1.666666666666667e-01 3.333333333333333e-01 1.666666666666665e-01
1.666666666666667e-01 3.333333333333333e-01 1.666666666666665e-01
1.666666666666667e-01 3.333333333333333e-01 1.666666666666665e-01
1.666666666666667e-01 3.333333333333333e-01 1.666666666666665e-01
1.666666666666667e-01 3.333333333333333e-01 1.666666666666665e-01
1.666666666666667e-01 3.333333333333333e-01 1.666666666666665e-01
1.666666666666667e-01 3.333333333333333e-01 1.666666666666665e-01
1.666666666666667e-01 3.333333333333333e-01 1.666666666666665e-01
1.666666666666667e-01 3.333333333333333e-01 1.666666666666665e-01
1.666666666666667e-01 3.333333333333333e-01 1.666666666666665e-01
1.666666666666667e-01 3.333333333333333e-01 1.666666666666665e-01
1.666666666666667e-01 3.333333333333333e-01 1.666666666666665e-01
1.666666666666667e-01 3.333333333333333e-01 1.666666666666665e-01
1.666666666666667e-01 3.333333333333333e-01 1.666666666666665e-01
1.666666666666667e-01 3.333333333333333e-01 1.666666666666665e-01
1.666666666666667e-01 3.333333333333333e-01 1.666666666666665e-01
1.666666666666667e-01 3.333333333333333e-01 1.666666666666665e-01
1.666666666666667e-01 3.333333333333333e-01 1.666666666666665e-01
1.666666666666667e-01 3.333333333333333e-01 1.666666666666665e-01
1.666666666666667e-01 3.333333333333333e-01 1.666666666666665e-01
1.666666666666667e-01 3.333333333333333e-01 1.666666666666665e-01
1.666666666666667e-01 3.333333333333333e-01 1.666666666666665e-01
1.666666666666667e-01 3.333333333333333e-01 1.666666666666665e-01
1.666666666666667e-01 3.333333333333333e-01 1.666666666666665e-01
1.666666666666667e-01 3.333333333333333e-01 1.666666666666665e-01
1.666666666666667e-01 3.333333333333333e-01 1.666666666666665e-01
1.666666666666667e-01 3.333333333333333e-01 1.666666666666665e-01
-1.666666666666667e-01 -3.333333333333333e-01 -1.666666666666665e-01
1.666666666666667e-01 3.333333333333333e-01 1.666666666666665e-01
1.666666666666667e-01 3.333333333333333e-01 1.666666666666665e-01
1.666666666666667e-01 3.333333333333333e-01 1.666666666666665e-01
1.666666666666667e-01 3.333333333333333e-01 1.666666666666665e-01
1.666666666666667e-01 3.333333333333333e-01 1.666666666666665e-01
1.666666666666667e-01 3.333333333333333e-01 1.666666666666665e-01
1.666666666666667e-01 3.333333333333333e-01 1.666666666666665e-01
1.666666666666667e-01 3.333333333333333e-01 1.666666666666665e-01
1.666666666666667e-01 3.333333333333333e-01 1.666666666666665e-01
1.666666666666667e-01 3.333333333333333e-01 1.666666666666665e-01
1.666666666666667e-01 3.333333333333333e-01 1.666666666666665e-01
1.666666666666667e-01 3.333333333333333e-01 1.666666666666665e-01
1.666666666666667e-01 3.333333333333333e-01 1.666666666666665e-01
1.666666666666667e-01 3.333333333333333e-01 1.666666666666665e-01
1.666666666666667e-01 3.333333333333333e-01 1.666666666666665e-01
1.666666666666667e-01 3.333333333333333e-01 1.666666666666665e-01
1.666666666666667e-01 3.333333333333333e-01 1.666666666666665e-01
1.666666666666667e-01 3.333333333333333e-01 1.666666666666665e-01
1.666666666666667e-01 3.333333333333333e-01 1.666666666666665e-01
1.666666666666667e-01 3.333333333333333e-01 1.666666666666665e-01
1.666666666666667e-01 3.333333333333333e-01 1.666666666666665e-01
1.666666666666667e-01 3.333333333333333e-01 1.666666666666665e-01
1.666666666666667e-01 3.333333333333333e-01 1.666666666666665e-01
1.666666666666667e-01 3.333333333333333e-01 1.666666666666665e-01
1.666666666666667e-01 3.333333333333333e-01 1.666666666666665e-01
1.666666666666667e-01 3.333333333333333e-01 1.666666666666665e-01
1.666666666666667e-01 3.333333333333333e-01 1.666666666666665e-01
1.666666666666667e-01 3.333333333333333e-01 1.666666666666665e-01
1.666666666666667e-01 3.333333333333333e-01 1.666666666666665e-01
1.666666666666667e-01 3.333333333333333e-01 1.666666666666665e-01
1.666666666666667e-01 3.333333333333333e-01 1.666666666666665e-01
1.666666666666667e-01 3.333333333333333e-01 1.666666666666665e-01
1.666666666666667e-01 3.333333333333333e-01 1.666666666666665e-01
1.666666666666667e-01 3.333333333333333e-01 1.666666666666665e-01
1.666666666666667e-01 3.333333333333333e-01 1.666666666666665e-01
1.666666666666667e-01 3.333333333333333e-01 1.666666666666665e-01
1.666666666666667e-01 3.333333333333333e-01 1.666666666666665e-01
1.666666666666667e-01 3.333333333333333e-01 1.666666666666665e-01
1.666666666666667e-01 3.333333333333333e-01 1.666666666666665e-01
1.666666666666667e-01 3.333333333333333e-01 1.666666666666665e-01
1.666666666666667e-01 3.333333333333333e-01 1.666666666666665e-01
1.666666666666667e-01 3.333333333333333e-01 1.666666666666665e-01
1.666666666666667e-01 3.333333333333333e-01 1.666666666666665e-01
1.666666666666667e-01 3.333333333333333e-01 1.666666666666665e-01
1.666666666666667e-01 3.333333333333333e-01 1.666666666666665e-01
1.666666666666667e-01 3.333333333333333e-01 1.666666666666665e-01
1.666666666666667e-01 3.333333333333333e-01 1.666666666666665e-01
1.666666666666667e-01 3.333333333333333e-01 1.666666666666665e-01
1.666666666666667e-01 3.333333333333333e-01 1.666666666666665e-01
1.666666666666667e-01 3.333333333333333e-01 1.666666666666665e-01
1.666666666666667e-01 3.333333333333333e-01 1.666666666666665e-01
1.666666666666667e-01 3.333333333333333e-01 1.666666666666665e-01
1.666666666666667e-01 3.333333333333333e-01 1.666666666666665e-01
1.666666666666667e-01 3.333333333333333e-01 1.666666666666665e-01
1.666666666666667e-01 3.333333333333333e-01 1.666666666666665e-01
1.666666666666667e-01 3.333333333333333e-01 1.666666666666665e-01
1.666666666666667e-01 3.333333333333333e-01 1.666666666666665e-01
1.666666666666667e-01 3.333333333333333e-01 1.666666666666665e-01
1.666666666666667e-01 3.333333333333333e-01 1.666666666666665e-01
1.666666666666667e-01 3.333333333333333e-01 1.666666666666665e-01
1.666666666666667e-01 3.333333333333333e-01 1.666666666666665e-01
1.666666666666667e-01 3.333333333333333e-01 1.666666666666665e-01
1.666666666666667e-01 3.333333333333333e-01 1.666666666666665e-01
1.666666666666667e-01 3.333333333333333e-01 1.666666666666665e-01
1.666666666666667e-01 3.333333333333333e-01 1.666666666666665e-01
1.666666666666667e-01 3.333333333333333e-01 1.666666666666665e-01
1.666666666666667e-01 3.333333333333333e-01 1.666666666666665e-01
1.666666666666667e-01 3.333333333333333e-01 1.666666666666665e-01
1.666666666666667e-01 3.333333333333333e-01 1.666666666666665e-01
1.666666666666667e-01 3.333333333333333e-01 1.666666666666665e-01
1.666666666666667e-01 3.333333333333333e-01 1.666666666666665e-01
1.666666666666667e-01 3.333333333333333e-01 1.666666666666665e-01
1.666666666666667e-01 3.333333333333333e-01 1.666666666666665e-01
1.666666666666667e-01 3.333333333333333e-01 1.666666666666665e-01
1.666666666666667e-01 3.333333333333333e-01 1.666666666666665e-01
1.666666666666667e-01 3.333333333333333e-01 1.666666666666665e-01
1.666666666666667e-01 3.333333333333333e-01 1.666666666666665e-01
1.666666666666667e-01 3.333333333333333e-01 1.666666666666665e-01
1.666666666666667e-01 3.333333333333333e-01 1.666666666666665e-01
1.666666666666667e-01 3.333333333333333e-01 1.666666666666665e-01
1.666666666666667e-01 3.333333333333333e-01 1.666666666666665e-01
1.666666666666667e-01 3.333333333333333e-01 1.666666666666665e-01
1.666666666666667e-01 3.333333333333333e-01 1.666666666666665e-01
1.666666666666667e-01 3.333333333333333e-01 1.666666666666665e-01
1.666666666666667e-01 3.333333333333333e-01 1.666666666666665e-01
1.666666666666667e-01 3.333333333333333e-01 1.666666666666665e-01
1.666666666666667e-01 3.333333333333333e-01 1.666666666666665e-01
1.666666666666667e-01 3.333333333333333e-01 1.666666666666665e-01
1.666666666666667e-01 3.333333333333333e-01 1.666666666666665e-01
1.666666666666667e-01 3.333333333333333e-01 1.666666666666665e-01
1.666666666666667e-01 3.333333333333333e-01 1.666666666666665e-01
1.666666666666667e-01 3.333333333333333e-01 1.666666666666665e-01
1.666666666666667e-01 3.333333333333333e-01 1.666666666666665e-01
1.666666666666667e-01 3.333333333333333e-01 1.666666666666665e-01
1.666666666666667e-01 3.333333333333333e-01 1.666666666666665e-01
1.666666666666667e-01 3.333333333333333e-01 1.666666666666665e-01
1.666666666666667e-01 3.333333333333333e-01 1.666666666666665e-01
1.666666666666667e-01 3.333333333333333e-01 1.666666666666665e-01
1.666666666666667e-01 3.333333333333333e-01 1.666666666666665e-01
1.666666666666667e-01 3.333333333333333e-01 1.666666666666665e-01
1.666666666666667e-01 3.333333333333333e-01 1.666666666666665e-01
1.666666666666667e-01 3.333333333333333e-01 1.666666666666665e-01
1.666666666666667e-01 3.333333333333333e-01 1.666666666666665e-01
1.666666666666667e-01 3.333333333333333e-01 1.666666666666665e-01
1.666666666666667e-01 3.333333333333333e-01 1.666666666666665e-01
1.666666666666667e-01 3.333333333333333e-01 1.666666666666665e-01
1.666666666666667e-01 3.333333333333333e-01 1.666666666666665e-01
1.666666666666667e-01 3.333333333333333e-01 1.666666666666665e-01
1.666666666666667e-01 3.333333333333333e-01 1.666666666666665e-01
1.666666666666667e-01 3.333333333333333e-01 1.666666666666665e-01
1.666666666666667e-01 3.333333333333333e-01 1.666666666666665e-01
1.666666666666667e-01 3.333333333333333e-01 1.666666666666665e-01
1.666666666666667e-01 3.333333333333333e-01 1.666666666666665e-01
1.666666666666667e-01 3.333333333333333e-01 1.666666666666665e-01
1.666666666666667e-01 3.333333333333333e-01 1.666666666666665e-01
1.666666666666667e-01 3.333333333333333e-01 1.666666666666665e-01
1.666666666666667e-01 3.333333333333333e-01 1.666666666666665e-01
1.666666666666667e-01 3.333333333333333e-01 1.666666666666665e-01
1.666666666666667e-01 3.333333333333333e-01 1.666666666666665e-01
1.666666666666667e-01 3.333333333333333e-01 1.666666666666665e-01
1.666666666666667e-01 3.333333333333333e-01 1.666666666666665e-01
1.666666666666667e-01 3.333333333333333e-01 1.666666666666665e-01
1.666666666666667e-01 3.333333333333333e-01 1.666666666666665e-01
1.666666666666667e-01 3.333333333333333e-01 1.666666666666665e-01
1.666666666666667e-01 3.333333333333333e-01 1.666666666666665e-01
1.666666666666667e-01 3.333333333333333e-01 1.666666666666665e-01
1.666666666666667e-01 3.333333333333333e-01 1.666666666666665e-01
1.666666666666667e-01 3.333333333333333e-01 1.666666666666665e-01
1.666666666666667e-01 3.333333333333333e-01 1.666666666666665e-01
1.666666666666667e-01 3.333333333333333e-01 1.666666666666665e-01
1.666666666666667e-01 3.333333333333333e-01 1.666666666666665e-01
1.666666666666667e-01 3.333333333333333e-01 1.666666666666665e-01
1.666666666666667e-01 3.333333333333333e-01 1.666666666666665e-01
1.666666666666667e-01 3.333333333333333e-01 1.666666666666665e-01
1.666666666666667e-01 3.333333333333333e-01 1.666666666666665e-01
1.666666666666667e-01 3.333333333333333e-01 1.666666666666665e-01
1.666666666666667e-01 3.333333333333333e-01 1.666666666666665e-01
1.666666666666667e-01 3.333333333333333e-01 1.666666666666665e-01
1.666666666666667e-01 3.333333333333333e-01 1.666666666666665e-01
1.666666666666667e-01 3.333333333333333e-01 1.666666666666665e-01
1.666666666666667e-01 3.333333333333333e-01 1.666666666666665e-01
1.666666666666667e-01 3.333333333333333e-01 1.666666666666665e-01
1.666666666666667e-01 3.333333333333333e-01 1.666666666666665e-01
1.666666666666667e-01 3.333333333333333e-01 1.666666666666665e-01
1.666666666666667e-01 3.333333333333333e-01 1.666666666666665e-01
1.666666666666667e-01 3.333333333333333e-01 1.666666666666665e-01
1.666666666666667e-01 3.333333333333333e-01 1.666666666666665e-01
1.666666666666667e-01 3.333333333333333e-01 1.666666666666665e-01
1.666666666666667e-01 3.333333333333333e-01 1.666666666666665e-01
1.666666666666667e-01 3.333333333333333e-01 1.666666666666665e-01
1.666666666666667e-01 3.333333333333333e-01 1.666666666666665e-01
1.666666666666667e-01 3.333333333333333e-01 1.666666666666665e-01
1.666666666666667e-01 3.333333333333333e-01 1.666666666666665e-01
1.666666666666667e-01 3.333333333333333e-01 1.666666666666665e-01
1.666666666666667e-01 3.333333333333333e-01 1.666666666666665e-01
1.666666666666667e-01 3.333333333333333e-01 1.666666666666665e-01
1.666666666666667e-01 3.333333333333333e-01 1.666666666666665e-01
1.666666666666667e-01 3.333333333333333e-01 1.666666666666665e-01
1.666666666666667e-01 3.333333333333333e-01 1.666666666666665e-01
1.666666666666667e-01 3.333333333333333e-01 1.666666666666665e-01
1.666666666666667e-01 3.333333333333333e-01 1.666666666666665e-01
1.666666666666667e-01 3.333333333333333e-01 1.666666666666665e-01
1.666666666666667e-01 3.333333333333333e-01 1.666666666666665e-01
1.666666666666667e-01 3.333333333333333e-01 1.666666666666665e-01
1.666666666666667e-01 3.333333333333333e-01 1.666666666666665e-01
1.666666666666667e-01 3.333333333333333e-01 1.666666666666665e-01
1.666666666666667e-01 3.333333333333333e-01 1.666666666666665e-01
1.666666666666667e-01 3.333333333333333e-01 1.666666666666665e-01
1.666666666666667e-01 3.333333333333333e-01 1.666666666666665e-01
1.666666666666667e-01 3.333333333333333e-01 1.666666666666665e-01
1.666666666666667e-01 3.333333333333333e-01 1.666666666666665e-01
1.666666666666667e-01 3.333333333333333e-01 1.666666666666665e-01
1.666666666666667e-01 3.333333333333333e-01 1.666666666666665e-01
1.666666666666667e-01 3.333333333333333e-01 1.666666666666665e-01
1.666666666666667e-01 3.333333333333333e-01 1.666666666666665e-01
1.666666666666667e-01 3.333333333333333e-01 1.666666666666665e-01
1.666666666666667e-01 3.333333333333333e-01 1.666666666666665e-01
1.666666666666667e-01 3.333333333333333e-01 1.666666666666665e-01
1.666666666666667e-01 3.333333333333333e-01 1.666666666666665e-01
1.666666666666667e-01 3.333333333333333e-01 1.666666666666665e-01
1.666666666666667e-01 3.333333333333333e-01 1.666666666666665e-01
1.666666666666667e-01 3.333333333333333e-01 1.666666666666665e-01
1.666666666666667e-01 3.333333333333333e-01 1.666666666666665e-01
1.666666666666667e-01 3.333333333333333e-01 1.666666666666665e-01
1.666666666666667e-01 3.333333333333333e-01 1.666666666666665e-01
 1.666666666666667e-01 -1.666666666666665e-01 -3.333333333333333e-01
-1.666666666666667e-01  1.666666666666665e-01  3.333333333333333e-01
 1.666666666666667e-01 -1.666666666666665e-01 -3.333333333333333e-01
 1.666666666666667e-01 -1.666666666666665e-01 -3.333333333333333e-01
 1.666666666666667e-01 -1.666666666666665e-01 -3.333333333333333e-01
 1.666666666666667e-01 -1.666666666666665e-01 -3.333333333333333e-01
 1.666666666666667e-01 -1.666666666666665e-01 -3.333333333333333e-01
 1.666666666666667e-01 -1.666666666666665e-01 -3.333333333333333e-01
 1.666666666666667e-01 -1.666666666666665e-01 -3.333333333333333e-01
 1.666666666666667e-01 -1.666666666666665e-01 -3.333333333333333e-01
 1.666666666666667e-01 -1.666666666666665e-01 -3.333333333333333e-01
 1.666666666666667e-01 -1.666666666666665e-01 -3.333333333333333e-01
 1.666666666666667e-01 -1.666666666666665e-01 -3.333333333333333e-01
 1.666666666666667e-01 -1.666666666666665e-01 -3.333333333333333e-01
 1.666666666666667e-01 -1.666666666666665e-01 -3.333333333333333e-01
 1.666666666666667e-01 -1.666666666666665e-01 -3.333333333333333e-01
 1.666666666666667e-01 -1.666666666666665e-01 -3.333333333333333e-01
 1.666666666666667e-01 -1.666666666666665e-01 -3.333333333333333e-01
 1.666666666666667e-01 -1.666666666666665e-01 -3.333333333333333e-01
 1.666666666666667e-01 -1.666666666666665e-01 -3.333333333333333e-01
 1.666666666666667e-01 -1.666666666666665e-01 -3.333333333333333e-01
 1.666666666666667e-01 -1.666666666666665e-01 -3.333333333333333e-01
 1.666666666666667e-01 -1.666666666666665e-01 -3.333333333333333e-01
 1.666666666666667e-01 -1.666666666666665e-01 -3.333333333333333e-01
 1.666666666666667e-01 -1.666666666666665e-01 -3.333333333333333e-01
 1.666666666666667e-01 -1.666666666666665e-01 -3.333333333333333e-01
 1.666666666666667e-01 -1.666666666666665e-01 -3.333333333333333e-01
 1.666666666666667e-01 -1.666666666666665e-01 -3.333333333333333e-01
 1.666666666666667e-01 -1.666666666666665e-01 -3.333333333333333e-01
 1.666666666666667e-01 -1.666666666666665e-01 -3.333333333333333e-01
 1.666666666666667e-01 -1.666666666666665e-01 -3.333333333333333e-01
 1.666666666666667e-01 -1.666666666666665e-01 -3.333333333333333e-01
 1.666666666666667e-01 -1.666666666666665e-01 -3.333333333333333e-01
 1.666666666666667e-01 -1.666666666666665e-01 -3.333333333333333e-01
 1.666666666666667e-01 -1.666666666666665e-01 -3.333333333333333e-01
 1.666666666666667e-01 -1.666666666666665e-01 -3.333333333333333e-01
 1.666666666666667e-01 -1.666666666666665e-01 -3.333333333333333e-01
 1.666666666666667e-01 -1.666666666666665e-01 -3.333333333333333e-01
 1.666666666666667e-01 -1.666666666666665e-01 -3.333333333333333e-01
 1.666666666666667e-01 -1.666666666666665e-01 -3.333333333333333e-01
 1.666666666666667e-01 -1.666666666666665e-01 -3.333333333333333e-01
 1.666666666666667e-01 -1.666666666666665e-01 -3.333333333333333e-01
 1.666666666666667e-01 -1.666666666666665e-01 -3.333333333333333e-01
 1.666666666666667e-01 -1.666666666666665e-01 -3.333333333333333e-01
 1.666666666666667e-01 -1.666666666666665e-01 -3.333333333333333e-01
 1.666666666666667e-01 -1.666666666666665e-01 -3.333333333333333e-01
 1.666666666666667e-01 -1.666666666666665e-01 -3.333333333333333e-01
 1.666666666666667e-01 -1.666666666666665e-01 -3.333333333333333e-01
 1.666666666666667e-01 -1.666666666666665e-01 -3.333333333333333e-01
 1.666666666666667e-01 -1.666666666666665e-01 -3.333333333333333e-01
 1.666666666666667e-01 -1.666666666666665e-01 -3.333333333333333e-01
 1.666666666666667e-01 -1.666666666666665e-01 -3.333333333333333e-01
 1.666666666666667e-01 -1.666666666666665e-01 -3.333333333333333e-01
 1.666666666666667e-01 -1.666666666666665e-01 -3.333333333333333e-01
 1.666666666666667e-01 -1.666666666666665e-01 -3.333333333333333e-01
 1.666666666666667e-01 -1.666666666666665e-01 -3.333333333333333e-01
 1.666666666666667e-01 -1.666666666666665e-01 -3.333333333333333e-01
 1.666666666666667e-01 -1.666666666666665e-01 -3.333333333333333e-01
 1.666666666666667e-01 -1.666666666666665e-01 -3.333333333333333e-01
 1.666666666666667e-01 -1.666666666666665e-01 -3.333333333333333e-01
 1.666666666666667e-01 -1.666666666666665e-01 -3.333333333333333e-01
 1.666666666666667e-01 -1.666666666666665e-01 -3.333333333333333e-01
 1.666666666666667e-01 -1.666666666666665e-01 -3.333333333333333e-01
 1.666666666666667e-01 -1.666666666666665e-01 -3.333333333333333e-01
 1.666666666666667e-01 -1.666666666666665e-01 -3.333333333333333e-01
 1.666666666666667e-01 -1.666666666666665e-01 -3.333333333333333e-01
 1.666666666666667e-01 -1.666666666666665e-01 -3.333333333333333e-01
 1.666666666666667e-01 -1.666666666666665e-01 -3.333333333333333e-01
 1.666666666666667e-01 -1.666666666666665e-01 -3.333333333333333e-01
 1.666666666666667e-01 -1.666666666666665e-01 -3.333333333333333e-01
 1.666666666666667e-01 -1.666666666666665e-01 -3.333333333333333e-01
 1.666666666666667e-01 -1.666666666666665e-01 -3.333333333333333e-01
 1.666666666666667e-01 -1.666666666666665e-01 -3.333333333333333e-01
 1.666666666666667e-01 -1.666666666666665e-01 -3.333333333333333e-01
 1.666666666666667e-01 -1.666666666666665e-01 -3.333333333333333e-01
 1.666666666666667e-01 -1.666666666666665e-01 -3.333333333333333e-01
 1.666666666666667e-01 -1.666666666666665e-01 -3.333333333333333e-01
 1.666666666666667e-01 -1.666666666666665e-01 -3.333333333333333e-01
 1.666666666666667e-01 -1.666666666666665e-01 -3.333333333333333e-01
 1.666666666666667e-01 -1.666666666666665e-01 -3.333333333333333e-01
 1.666666666666667e-01 -1.666666666666665e-01 -3.333333333333333e-01
 1.666666666666667e-01 -1.666666666666665e-01 -3.333333333333333e-01
 1.666666666666667e-01 -1.666666666666665e-01 -3.333333333333333e-01
 1.666666666666667e-01 -1.666666666666665e-01 -3.333333333333333e-01
 1.666666666666667e-01 -1.666666666666665e-01 -3.333333333333333e-01
 1.666666666666667e-01 -1.666666666666665e-01 -3.333333333333333e-01
 1.666666666666667e-01 -1.666666666666665e-01 -3.333333333333333e-01
 1.666666666666667e-01 -1.666666666666665e-01 -3.333333333333333e-01
 1.666666666666667e-01 -1.666666666666665e-01 -3.333333333333333e-01
 1.666666666666667e-01 -1.666666666666665e-01 -3.333333333333333e-01
 1.666666666666667e-01 -1.666666666666665e-01 -3.333333333333333e-01
 1.666666666666667e-01 -1.666666666666665e-01 -3.333333333333333e-01
 1.666666666666667e-01 -1.666666666666665e-01 -3.333333333333333e-01
 1.666666666666667e-01 -1.666666666666665e-01 -3.333333333333333e-01
 1.666666666666667e-01 -1.666666666666665e-01 -3.333333333333333e-01
 1.666666666666667e-01 -1.666666666666665e-01 -3.333333333333333e-01
 1.666666666666667e-01 -1.666666666666665e-01 -3.333333333333333e-01
 1.666666666666667e-01 -1.666666666666665e-01 -3.333333333333333e-01
 1.666666666666667e-01 -1.666666666666665e-01 -3.333333333333333e-01
 1.666666666666667e-01 -1.666666666666665e-01 -3.333333333333333e-01
 1.666666666666667e-01 -1.666666666666665e-01 -3.333333333333333e-01
 1.666666666666667e-01 -1.666666666666665e-01 -3.333333333333333e-01
 1.666666666666667e-01 -1.666666666666665e-01 -3.333333333333333e-01
 1.666666666666667e-01 -1.666666666666665e-01 -3.333333333333333e-01
 1.666666666666667e-01 -1.666666666666665e-01 -3.333333333333333e-01
 1.666666666666667e-01 -1.666666666666665e-01 -3.333333333333333e-01
 1.666666666666667e-01 -1.666666666666665e-01 -3.333333333333333e-01
 1.666666666666667e-01 -1.666666666666665e-01 -3.333333333333333e-01
 1.666666666666667e-01 -1.666666666666665e-01 -3.333333333333333e-01
 1.666666666666667e-01 -1.666666666666665e-01 -3.333333333333333e-01
 1.666666666666667e-01 -1.666666666666665e-01 -3.333333333333333e-01
 1.666666666666667e-01 -1.666666666666665e-01 -3.333333333333333e-01
 1.666666666666667e-01 -1.666666666666665e-01 -3.333333333333333e-01
 1.666666666666667e-01 -1.666666666666665e-01 -3.333333333333333e-01
 1.666666666666667e-01 -1.666666666666665e-01 -3.333333333333333e-01
 1.666666666666667e-01 -1.666666666666665e-01 -3.333333333333333e-01
 1.666666666666667e-01 -1.666666666666665e-01 -3.333333333333333e-01
 1.666666666666667e-01 -1.666666666666665e-01 -3.333333333333333e-01
 1.666666666666667e-01 -1.666666666666665e-01 -3.333333333333333e-01
 1.666666666666667e-01 -1.666666666666665e-01 -3.333333333333333e-01
 1.666666666666667e-01 -1.666666666666665e-01 -3.333333333333333e-01
 1.666666666666667e-01 -1.666666666666665e-01 -3.333333333333333e-01
 1.666666666666667e-01 -1.666666666666665e-01 -3.333333333333333e-01
 1.666666666666667e-01 -1.666666666666665e-01 -3.333333333333333e-01
 1.666666666666667e-01 -1.666666666666665e-01 -3.333333333333333e-01
 1.666666666666667e-01 -1.666666666666665e-01 -3.333333333333333e-01
 1.666666666666667e-01 -1.666666666666665e-01 -3.333333333333333e-01
 1.666666666666667e-01 -1.666666666666665e-01 -3.333333333333333e-01
 1.666666666666667e-01 -1.666666666666665e-01 -3.333333333333333e-01
 1.666666666666667e-01 -1.666666666666665e-01 -3.333333333333333e-01
 1.666666666666667e-01 -1.666666666666665e-01 -3.333333333333333e-01
 1.666666666666667e-01 -1.666666666666665e-01 -3.333333333333333e-01
 1.666666666666667e-01 -1.666666666666665e-01 -3.333333333333333e-01
 1.666666666666667e-01 -1.666666666666665e-01 -3.333333333333333e-01
 1.666666666666667e-01 -1.666666666666665e-01 -3.333333333333333e-01
 1.666666666666667e-01 -1.666666666666665e-01 -3.333333333333333e-01
 1.666666666666667e-01 -1.666666666666665e-01 -3.333333333333333e-01
 1.666666666666667e-01 -1.666666666666665e-01 -3.333333333333333e-01
 1.666666666666667e-01 -1.666666666666665e-01 -3.333333333333333e-01
 1.666666666666667e-01 -1.666666666666665e-01 -3.333333333333333e-01
 1.666666666666667e-01 -1.666666666666665e-01 -3.333333333333333e-01
 1.666666666666667e-01 -1.666666666666665e-01 -3.333333333333333e-01
 1.666666666666667e-01 -1.666666666666665e-01 -3.333333333333333e-01
 1.666666666666667e-01 -1.666666666666665e-01 -3.333333333333333e-01
 1.666666666666667e-01 -1.666666666666665e-01 -3.333333333333333e-01
 1.666666666666667e-01 -1.666666666666665e-01 -3.333333333333333e-01
 1.666666666666667e-01 -1.666666666666665e-01 -3.333333333333333e-01
 1.666666666666667e-01 -1.666666666666665e-01 -3.333333333333333e-01
 1.666666666666667e-01 -1.666666666666665e-01 -3.333333333333333e-01
 1.666666666666667e-01 -1.666666666666665e-01 -3.333333333333333e-01
 1.666666666666667e-01 -1.666666666666665e-01 -3.333333333333333e-01
 1.666666666666667e-01 -1.666666666666665e-01 -3.333333333333333e-01
 1.666666666666667e-01 -1.666666666666665e-01 -3.333333333333333e-01
 1.666666666666667e-01 -1.666666666666665e-01 -3.333333333333333e-01
 1.666666666666667e-01 -1.666666666666665e-01 -3.333333333333333e-01
 1.666666666666667e-01 -1.666666666666665e-01 -3.333333333333333e-01
 1.666666666666667e-01 -1.666666666666665e-01 -3.333333333333333e-01
 1.666666666666667e-01 -1.666666666666665e-01 -3.333333333333333e-01
 1.666666666666667e-01 -1.666666666666665e-01 -3.333333333333333e-01
 1.666666666666667e-01 -1.666666666666665e-01 -3.333333333333333e-01
 1.666666666666667e-01 -1.666666666666665e-01 -3.333333333333333e-01
 1.666666666666667e-01 -1.666666666666665e-01 -3.333333333333333e-01
 1.666666666666667e-01 -1.666666666666665e-01 -3.333333333333333e-01
 1.666666666666667e-01 -1.666666666666665e-01 -3.333333333333333e-01
 1.666666666666667e-01 -1.666666666666665e-01 -3.333333333333333e-01
 1.666666666666667e-01 -1.666666666666665e-01 -3.333333333333333e-01
 1.666666666666667e-01 -1.666666666666665e-01 -3.333333333333333e-01
 1.666666666666667e-01 -1.666666666666665e-01 -3.333333333333333e-01
 1.666666666666667e-01 -1.666666666666665e-01 -3.333333333333333e-01
 1.666666666666667e-01 -1.666666666666665e-01 -3.333333333333333e-01
 1.666666666666667e-01 -1.666666666666665e-01 -3.333333333333333e-01
 1.666666666666667e-01 -1.666666666666665e-01 -3.333333333333333e-01
 1.666666666666667e-01 -1.666666666666665e-01 -3.333333333333333e-01
 1.666666666666667e-01 -1.666666666666665e-01 -3.333333333333333e-01
 1.666666666666667e-01 -1.666666666666665e-01 -3.333333333333333e-01
 1.666666666666667e-01 -1.666666666666665e-01 -3.333333333333333e-01
 1.666666666666667e-01 -1.666666666666665e-01 -3.333333333333333e-01
 1.666666666666667e-01 -1.666666666666665e-01 -3.333333333333333e-01
 1.666666666666667e-01 -1.666666666666665e-01 -3.333333333333333e-01
 1.666666666666667e-01 -1.666666666666665e-01 -3.333333333333333e-01
 1.666666666666667e-01 -1.666666666666665e-01 -3.333333333333333e-01
 1.666666666666667e-01 -1.666666666666665e-01 -3.333333333333333e-01
 1.666666666666667e-01 -1.666666666666665e-01 -3.333333333333333e-01
 1.666666666666667e-01 -1.666666666666665e-01 -3.333333333333333e-01
 1.666666666666667e-01 -1.666666666666665e-01 -3.333333333333333e-01
 1.666666666666667e-01 -1.666666666666665e-01 -3.333333333333333e-01
 1.666666666666667e-01 -1.666666666666665e-01 -3.333333333333333e-01
 1.666666666666667e-01 -1.666666666666665e-01 -3.333333333333333e-01
 1.666666666666667e-01 -1.666666666666665e-01 -3.333333333333333e-01
 1.666666666666667e-01 -1.666666666666665e-01 -3.333333333333333e-01
 1.666666666666667e-01 -1.666666666666665e-01 -3.333333333333333e-01
 1.666666666666667e-01 -1.666666666666665e-01 -3.333333333333333e-01
 1.666666666666667e-01 -1.666666666666665e-01 -3.333333333333333e-01
 1.666666666666667e-01 -1.666666666666665e-01 -3.333333333333333e-01
 1.666666666666667e-01 -1.666666666666665e-01 -3.333333333333333e-01
 1.666666666666667e-01 -1.666666666666665e-01 -3.333333333333333e-01
 1.666666666666667e-01 -1.666666666666665e-01 -3.333333333333333e-01
 1.666666666666667e-01 -1.666666666666665e-01 -3.333333333333333e-01
 1.666666666666667e-01 -1.666666666666665e-01 -3.333333333333333e-01
 1.666666666666667e-01 -1.666666666666665e-01 -3.333333333333333e-01
 1.666666666666667e-01 -1.666666666666665e-01 -3.333333333333333e-01
 1.666666666666667e-01 -1.666666666666665e-01 -3.333333333333333e-01
 1.666666666666667e-01 -1.666666666666665e-01 -3.333333333333333e-01
 1.666666666666667e-01 -1.666666666666665e-01 -3.333333333333333e-01
 1.666666666666667e-01 -1.666666666666665e-01 -3.333333333333333e-01
 1.666666666666667e-01 -1.666666666666665e-01 -3.333333333333333e-01
 1.666666666666667e-01 -1.666666666666665e-01 -3.333333333333333e-01
 1.666666666666667e-01 -1.666666666666665e-01 -3.333333333333333e-01
 1.666666666666667e-01 -1.666666666666665e-01 -3.333333333333333e-01
-1.666666666666667e-01  1.666666666666665e-01  3.333333333333333e-01
 1.666666666666667e-01 -1.666666666666665e-01 -3.333333333333333e-01
 1.666666666666667e-01 -1.666666666666665e-01 -3.333333333333333e-01
 1.666666666666667e-01 -1.666666666666665e-01 -3.333333333333333e-01
 1.666666666666667e-01 -1.666666666666665e-01 -3.333333333333333e-01
 1.666666666666667e-01 -1.666666666666665e-01 -3.333333333333333e-01
 1.666666666666667e-01 -1.666666666666665e-01 -3.333333333333333e-01
 1.666666666666667e-01 -1.666666666666665e-01 -3.333333333333333e-01
 1.666666666666667e-01 -1.666666666666665e-01 -3.333333333333333e-01
 1.666666666666667e-01 -1.666666666666665e-01 -3.333333333333333e-01
 1.666666666666667e-01 -1.666666666666665e-01 -3.333333333333333e-01
 1.666666666666667e-01 -1.666666666666665e-01 -3.333333333333333e-01
 1.666666666666667e-01 -1.666666666666665e-01 -3.333333333333333e-01
 1.666666666666667e-01 -1.666666666666665e-01 -3.333333333333333e-01
 1.666666666666667e-01 -1.666666666666665e-01 -3.333333333333333e-01
 1.666666666666667e-01 -1.666666666666665e-01 -3.333333333333333e-01
 1.666666666666667e-01 -1.666666666666665e-01 -3.333333333333333e-01
 1.666666666666667e-01 -1.666666666666665e-01 -3.333333333333333e-01
 1.666666666666667e-01 -1.666666666666665e-01 -3.333333333333333e-01
 1.666666666666667e-01 -1.666666666666665e-01 -3.333333333333333e-01
 1.666666666666667e-01 -1.666666666666665e-01 -3.333333333333333e-01
 1.666666666666667e-01 -1.666666666666665e-01 -3.333333333333333e-01
 1.666666666666667e-01 -1.666666666666665e-01 -3.333333333333333e-01
 1.666666666666667e-01 -1.666666666666665e-01 -3.333333333333333e-01
 1.666666666666667e-01 -1.666666666666665e-01 -3.333333333333333e-01
 1.666666666666667e-01 -1.666666666666665e-01 -3.333333333333333e-01
 1.666666666666667e-01 -1.666666666666665e-01 -3.333333333333333e-01
 1.666666666666667e-01 -1.666666666666665e-01 -3.333333333333333e-01
 1.666666666666667e-01 -1.666666666666665e-01 -3.333333333333333e-01
 1.666666666666667e-01 -1.666666666666665e-01 -3.333333333333333e-01
 1.666666666666667e-01 -1.666666666666665e-01 -3.333333333333333e-01
 1.666666666666667e-01 -1.666666666666665e-01 -3.333333333333333e-01
 1.666666666666667e-01 -1.666666666666665e-01 -3.333333333333333e-01
 1.666666666666667e-01 -1.666666666666665e-01 -3.333333333333333e-01
 1.666666666666667e-01 -1.666666666666665e-01 -3.333333333333333e-01
 1.666666666666667e-01 -1.666666666666665e-01 -3.333333333333333e-01
 1.666666666666667e-01 -1.666666666666665e-01 -3.333333333333333e-01
 1.666666666666667e-01 -1.666666666666665e-01 -3.333333333333333e-01
 1.666666666666667e-01 -1.666666666666665e-01 -3.333333333333333e-01
 1.666666666666667e-01 -1.666666666666665e-01 -3.333333333333333e-01
 1.666666666666667e-01 -1.666666666666665e-01 -3.333333333333333e-01
 1.666666666666667e-01 -1.666666666666665e-01 -3.333333333333333e-01
 1.666666666666667e-01 -1.666666666666665e-01 -3.333333333333333e-01
 1.666666666666667e-01 -1.666666666666665e-01 -3.333333333333333e-01
 1.666666666666667e-01 -1.666666666666665e-01 -3.333333333333333e-01
 1.666666666666667e-01 -1.666666666666665e-01 -3.333333333333333e-01
 1.666666666666667e-01 -1.666666666666665e-01 -3.333333333333333e-01
 1.666666666666667e-01 -1.666666666666665e-01 -3.333333333333333e-01
 1.666666666666667e-01 -1.666666666666665e-01 -3.333333333333333e-01
 1.666666666666667e-01 -1.666666666666665e-01 -3.333333333333333e-01
 1.666666666666667e-01 -1.666666666666665e-01 -3.333333333333333e-01
 1.666666666666667e-01 -1.666666666666665e-01 -3.333333333333333e-01
 1.666666666666667e-01 -1.666666666666665e-01 -3.333333333333333e-01
 1.666666666666667e-01 -1.666666666666665e-01 -3.333333333333333e-01
 1.666666666666667e-01 -1.666666666666665e-01 -3.333333333333333e-01
 1.666666666666667e-01 -1.666666666666665e-01 -3.333333333333333e-01
 1.666666666666667e-01 -1.666666666666665e-01 -3.333333333333333e-01
 1.666666666666667e-01 -1.666666666666665e-01 -3.333333333333333e-01
 1.666666666666667e-01 -1.666666666666665e-01 -3.333333333333333e-01
 1.666666666666667e-01 -1.666666666666665e-01 -3.333333333333333e-01
 1.666666666666667e-01 -1.666666666666665e-01 -3.333333333333333e-01
 1.666666666666667e-01 -1.666666666666665e-01 -3.333333333333333e-01
 1.666666666666667e-01 -1.666666666666665e-01 -3.333333333333333e-01
 1.666666666666667e-01 -1.666666666666665e-01 -3.333333333333333e-01
 1.666666666666667e-01 -1.666666666666665e-01 -3.333333333333333e-01
 1.666666666666667e-01 -1.666666666666665e-01 -3.333333333333333e-01
 1.666666666666667e-01 -1.666666666666665e-01 -3.333333333333333e-01
 1.666666666666667e-01 -1.666666666666665e-01 -3.333333333333333e-01
 1.666666666666667e-01 -1.666666666666665e-01 -3.333333333333333e-01
 1.666666666666667e-01 -1.666666666666665e-01 -3.333333333333333e-01
 1.666666666666667e-01 -1.666666666666665e-01 -3.333333333333333e-01
 1.666666666666667e-01 -1.666666666666665e-01 -3.333333333333333e-01
 1.666666666666667e-01 -1.666666666666665e-01 -3.333333333333333e-01
 1.666666666666667e-01 -1.666666666666665e-01 -3.333333333333333e-01
 1.666666666666667e-01 -1.666666666666665e-01 -3.333333333333333e-01
 1.666666666666667e-01 -1.666666666666665e-01 -3.333333333333333e-01
 1.666666666666667e-01 -1.666666666666665e-01 -3.333333333333333e-01
 1.666666666666667e-01 -1.666666666666665e-01 -3.333333333333333e-01
 1.666666666666667e-01 -1.666666666666665e-01 -3.333333333333333e-01
 1.666666666666667e-01 -1.666666666666665e-01 -3.333333333333333e-01
 1.666666666666667e-01 -1.666666666666665e-01 -3.333333333333333e-01
 1.666666666666667e-01 -1.666666666666665e-01 -3.333333333333333e-01
 1.666666666666667e-01 -1.666666666666665e-01 -3.333333333333333e-01
 1.666666666666667e-01 -1.666666666666665e-01 -3.333333333333333e-01
 1.666666666666667e-01 -1.666666666666665e-01 -3.333333333333333e-01
 1.666666666666667e-01 -1.666666666666665e-01 -3.333333333333333e-01
 1.666666666666667e-01 -1.666666666666665e-01 -3.333333333333333e-01
 1.666666666666667e-01 -1.666666666666665e-01 -3.333333333333333e-01
 1.666666666666667e-01 -1.666666666666665e-01 -3.333333333333333e-01
 1.666666666666667e-01 -1.666666666666665e-01 -3.333333333333333e-01
 1.666666666666667e-01 -1.666666666666665e-01 -3.333333333333333e-01
 1.666666666666667e-01 -1.666666666666665e-01 -3.333333333333333e-01
 1.666666666666667e-01 -1.666666666666665e-01 -3.333333333333333e-01
 1.666666666666667e-01 -1.666666666666665e-01 -3.333333333333333e-01
 1.666666666666667e-01 -1.666666666666665e-01 -3.333333333333333e-01
 1.666666666666667e-01 -1.666666666666665e-01 -3.333333333333333e-01
 1.666666666666667e-01 -1.666666666666665e-01 -3.333333333333333e-01
 1.666666666666667e-01 -1.666666666666665e-01 -3.333333333333333e-01
 1.666666666666667e-01 -1.666666666666665e-01 -3.333333333333333e-01
 1.666666666666667e-01 -1.666666666666665e-01 -3.333333333333333e-01
 1.666666666666667e-01 -1.666666666666665e-01 -3.333333333333333e-01
 1.666666666666667e-01 -1.666666666666665e-01 -3.333333333333333e-01
 1.666666666666667e-01 -1.666666666666665e-01 -3.333333333333333e-01
 1.666666666666667e-01 -1.666666666666665e-01 -3.333333333333333e-01
 1.666666666666667e-01 -1.666666666666665e-01 -3.333333333333333e-01
 1.666666666666667e-01 -1.666666666666665e-01 -3.333333333333333e-01
 1.666666666666667e-01 -1.666666666666665e-01 -3.333333333333333e-01
 1.666666666666667e-01 -1.666666666666665e-01 -3.333333333333333e-01
 1.666666666666667e-01 -1.666666666666665e-01 -3.333333333333333e-01
 1.666666666666667e-01 -1.666666666666665e-01 -3.333333333333333e-01
 1.666666666666667e-01 -1.666666666666665e-01 -3.333333333333333e-01
 1.666666666666667e-01 -1.666666666666665e-01 -3.333333333333333e-01
 1.666666666666667e-01 -1.666666666666665e-01 -3.333333333333333e-01
 1.666666666666667e-01 -1.666666666666665e-01 -3.333333333333333e-01
 1.666666666666667e-01 -1.666666666666665e-01 -3.333333333333333e-01
 1.666666666666667e-01 -1.666666666666665e-01 -3.333333333333333e-01
 1.666666666666667e-01 -1.666666666666665e-01 -3.333333333333333e-01
 1.666666666666667e-01 -1.666666666666665e-01 -3.333333333333333e-01
 1.666666666666667e-01 -1.666666666666665e-01 -3.333333333333333e-01
 1.666666666666667e-01 -1.666666666666665e-01 -3.333333333333333e-01
 1.666666666666667e-01 -1.666666666666665e-01 -3.333333333333333e-01
 1.666666666666667e-01 -1.666666666666665e-01 -3.333333333333333e-01
 1.666666666666667e-01 -1.666666666666665e-01 -3.333333333333333e-01
 1.666666666666667e-01 -1.666666666666665e-01 -3.333333333333333e-01
 1.666666666666667e-01 -1.666666666666665e-01 -3.333333333333333e-01
 1.666666666666667e-01 -1.666666666666665e-01 -3.333333333333333e-01
 1.666666666666667e-01 -1.666666666666665e-01 -3.333333333333333e-01
 1.666666666666667e-01 -1.666666666666665e-01 -3.333333333333333e-01
 1.666666666666667e-01 -1.666666666666665e-01 -3.333333333333333e-01
 1.666666666666667e-01 -1.666666666666665e-01 -3.333333333333333e-01
 1.666666666666667e-01 -1.666666666666665e-01 -3.333333333333333e-01
 1.666666666666667e-01 -1.666666666666665e-01 -3.333333333333333e-01
 1.666666666666667e-01 -1.666666666666665e-01 -3.333333333333333e-01
 1.666666666666667e-01 -1.666666666666665e-01 -3.333333333333333e-01
 1.666666666666667e-01 -1.666666666666665e-01 -3.333333333333333e-01
 1.666666666666667e-01 -1.666666666666665e-01 -3.333333333333333e-01
 1.666666666666667e-01 -1.666666666666665e-01 -3.333333333333333e-01
 1.666666666666667e-01 -1.666666666666665e-01 -3.333333333333333e-01
 1.666666666666667e-01 -1.666666666666665e-01 -3.333333333333333e-01
 1.666666666666667e-01 -1.666666666666665e-01 -3.333333333333333e-01
 1.666666666666667e-01 -1.666666666666665e-01 -3.333333333333333e-01
 1.666666666666667e-01 -1.666666666666665e-01 -3.333333333333333e-01
 1.666666666666667e-01 -1.666666666666665e-01 -3.333333333333333e-01
 1.666666666666667e-01 -1.666666666666665e-01 -3.333333333333333e-01
 1.666666666666667e-01 -1.666666666666665e-01 -3.333333333333333e-01
 1.666666666666667e-01 -1.666666666666665e-01 -3.333333333333333e-01
 1.666666666666667e-01 -1.666666666666665e-01 -3.333333333333333e-01
 1.666666666666667e-01 -1.666666666666665e-01 -3.333333333333333e-01
 1.666666666666667e-01 -1.666666666666665e-01 -3.333333333333333e-01
 1.666666666666667e-01 -1.666666666666665e-01 -3.333333333333333e-01
 1.666666666666667e-01 -1.666666666666665e-01 -3.333333333333333e-01
 1.666666666666667e-01 -1.666666666666665e-01 -3.333333333333333e-01
 1.666666666666667e-01 -1.666666666666665e-01 -3.333333333333333e-01
 1.666666666666667e-01 -1.666666666666665e-01 -3.333333333333333e-01
 1.666666666666667e-01 -1.666666666666665e-01 -3.333333333333333e-01
 1.666666666666667e-01 -1.666666666666665e-01 -3.333333333333333e-01
 1.666666666666667e-01 -1.666666666666665e-01 -3.333333333333333e-01
 1.666666666666667e-01 -1.666666666666665e-01 -3.333333333333333e-01
 1.666666666666667e-01 -1.666666666666665e-01 -3.333333333333333e-01
 1.666666666666667e-01 -1.666666666666665e-01 -3.333333333333333e-01
 1.666666666666667e-01 -1.666666666666665e-01 -3.333333333333333e-01
 1.666666666666667e-01 -1.666666666666665e-01 -3.333333333333333e-01
 1.666666666666667e-01 -1.666666666666665e-01 -3.333333333333333e-01
 1.666666666666667e-01 -1.666666666666665e-01 -3.333333333333333e-01
 1.666666666666667e-01 -1.666666666666665e-01 -3.333333333333333e-01
 1.666666666666667e-01 -1.666666666666665e-01 -3.333333333333333e-01
 1.666666666666667e-01 -1.666666666666665e-01 -3.333333333333333e-01
 1.666666666666667e-01 -1.666666666666665e-01 -3.333333333333333e-01
 1.666666666666667e-01 -1.666666666666665e-01 -3.333333333333333e-01
 1.666666666666667e-01 -1.666666666666665e-01 -3.333333333333333e-01
 1.666666666666667e-01 -1.666666666666665e-01 -3.333333333333333e-01
 1.666666666666667e-01 -1.666666666666665e-01 -3.333333333333333e-01
 1.666666666666667e-01 -1.666666666666665e-01 -3.333333333333333e-01
 1.666666666666667e-01 -1.666666666666665e-01 -3.333333333333333e-01
 1.666666666666667e-01 -1.666666666666665e-01 -3.333333333333333e-01
 1.666666666666667e-01 -1.666666666666665e-01 -3.333333333333333e-01
 1.666666666666667e-01 -1.666666666666665e-01 -3.333333333333333e-01
 1.666666666666667e-01 -1.666666666666665e-01 -3.333333333333333e-01
 1.666666666666667e-01 -1.666666666666665e-01 -3.333333333333333e-01
 1.666666666666667e-01 -1.666666666666665e-01 -3.333333333333333e-01
 1.666666666666667e-01 -1.666666666666665e-01 -3.333333333333333e-01
 1.666666666666667e-01 -1.666666666666665e-01 -3.333333333333333e-01
 1.666666666666667e-01 -1.666666666666665e-01 -3.333333333333333e-01
 1.666666666666667e-01 -1.666666666666665e-01 -3.333333333333333e-01
 1.666666666666667e-01 -1.666666666666665e-01 -3.333333333333333e-01
 1.666666666666667e-01 -1.666666666666665e-01 -3.333333333333333e-01
 1.666666666666667e-01 -1.666666666666665e-01 -3.333333333333333e-01
 1.666666666666667e-01 -1.666666666666665e-01 -3.333333333333333e-01
 1.666666666666667e-01 -1.666666666666665e-01 -3.333333333333333e-01
-1.666666666666667e-01  1.666666666666665e-01  3.333333333333333e-01
 1.666666666666667e-01 -1.666666666666665e-01 -3.333333333333333e-01
-1.666666666666667e-01  1.666666666666665e-01  3.333333333333333e-01
-1.666666666666667e-01  1.666666666666665e-01  3.333333333333333e-01
-1.666666666666667e-01  1.666666666666665e-01  3.333333333333333e-01
-1.666666666666667e-01  1.666666666666665e-01  3.333333333333333e-01
-1.666666666666667e-01  1.666666666666665e-01  3.333333333333333e-01
-1.666666666666667e-01  1.666666666666665e-01  3.333333333333333e-01
-1.666666666666667e-01  1.666666666666665e-01  3.333333333333333e-01
-1.666666666666667e-01  1.666666666666665e-01  3.333333333333333e-01
-1.666666666666667e-01  1.666666666666665e-01  3.333333333333333e-01
-1.666666666666667e-01  1.666666666666665e-01  3.333333333333333e-01
-1.666666666666667e-01  1.666666666666665e-01  3.333333333333333e-01
-1.666666666666667e-01  1.666666666666665e-01  3.333333333333333e-01
-1.666666666666667e-01  1.666666666666665e-01  3.333333333333333e-01
-1.666666666666667e-01  1.666666666666665e-01  3.333333333333333e-01
-1.666666666666667e-01  1.666666666666665e-01  3.333333333333333e-01
-1.666666666666667e-01  1.666666666666665e-01  3.333333333333333e-01
-1.666666666666667e-01  1.666666666666665e-01  3.333333333333333e-01
-1.666666666666667e-01  1.666666666666665e-01  3.333333333333333e-01
-1.666666666666667e-01  1.666666666666665e-01  3.333333333333333e-01
-1.666666666666667e-01  1.666666666666665e-01  3.333333333333333e-01
-1.666666666666667e-01  1.666666666666665e-01  3.333333333333333e-01
-1.666666666666667e-01  1.666666666666665e-01  3.333333333333333e-01
-1.666666666666667e-01  1.666666666666665e-01  3.333333333333333e-01
-1.666666666666667e-01  1.666666666666665e-01  3.333333333333333e-01
-1.666666666666667e-01  1.666666666666665e-01  3.333333333333333e-01
-1.666666666666667e-01  1.666666666666665e-01  3.333333333333333e-01
-1.666666666666667e-01  1.666666666666665e-01  3.333333333333333e-01
-1.666666666666667e-01  1.666666666666665e-01  3.333333333333333e-01
-1.666666666666667e-01  1.666666666666665e-01  3.333333333333333e-01
-1.666666666666667e-01  1.666666666666665e-01  3.333333333333333e-01
-1.666666666666667e-01  1.666666666666665e-01  3.333333333333333e-01
-1.666666666666667e-01  1.666666666666665e-01  3.333333333333333e-01
-1.666666666666667e-01  1.666666666666665e-01  3.333333333333333e-01
-1.666666666666667e-01  1.666666666666665e-01  3.333333333333333e-01
-1.666666666666667e-01  1.666666666666665e-01  3.333333333333333e-01
-1.666666666666667e-01  1.666666666666665e-01  3.333333333333333e-01
-1.666666666666667e-01  1.666666666666665e-01  3.333333333333333e-01
-1.666666666666667e-01  1.666666666666665e-01  3.333333333333333e-01
-1.666666666666667e-01  1.666666666666665e-01  3.333333333333333e-01
-1.666666666666667e-01  1.666666666666665e-01  3.333333333333333e-01
-1.666666666666667e-01  1.666666666666665e-01  3.333333333333333e-01
-1.666666666666667e-01  1.666666666666665e-01  3.333333333333333e-01
-1.666666666666667e-01  1.666666666666665e-01  3.333333333333333e-01
-1.666666666666667e-01  1.666666666666665e-01  3.333333333333333e-01
-1.666666666666667e-01  1.666666666666665e-01  3.333333333333333e-01
-1.666666666666667e-01  1.666666666666665e-01  3.333333333333333e-01
-1.666666666666667e-01  1.666666666666665e-01  3.333333333333333e-01
-1.666666666666667e-01  1.666666666666665e-01  3.333333333333333e-01
-1.666666666666667e-01  1.666666666666665e-01  3.333333333333333e-01
-1.666666666666667e-01  1.666666666666665e-01  3.333333333333333e-01
-1.666666666666667e-01  1.666666666666665e-01  3.333333333333333e-01
-1.666666666666667e-01  1.666666666666665e-01  3.333333333333333e-01
-1.666666666666667e-01  1.666666666666665e-01  3.333333333333333e-01
-1.666666666666667e-01  1.666666666666665e-01  3.333333333333333e-01
-1.666666666666667e-01  1.666666666666665e-01  3.333333333333333e-01
-1.666666666666667e-01  1.666666666666665e-01  3.333333333333333e-01
-1.666666666666667e-01  1.666666666666665e-01  3.333333333333333e-01
-1.666666666666667e-01  1.666666666666665e-01  3.333333333333333e-01
-1.666666666666667e-01  1.666666666666665e-01  3.333333333333333e-01
-1.666666666666667e-01  1.666666666666665e-01  3.333333333333333e-01
-1.666666666666667e-01  1.666666666666665e-01  3.333333333333333e-01
-1.666666666666667e-01  1.666666666666665e-01  3.333333333333333e-01
-1.666666666666667e-01  1.666666666666665e-01  3.333333333333333e-01
-1.666666666666667e-01  1.666666666666665e-01  3.333333333333333e-01
-1.666666666666667e-01  1.666666666666665e-01  3.333333333333333e-01
-1.666666666666667e-01  1.666666666666665e-01  3.333333333333333e-01
-1.666666666666667e-01  1.666666666666665e-01  3.333333333333333e-01
-1.666666666666667e-01  1.666666666666665e-01  3.333333333333333e-01
-1.666666666666667e-01  1.666666666666665e-01  3.333333333333333e-01
-1.666666666666667e-01  1.666666666666665e-01  3.333333333333333e-01
-1.666666666666667e-01  1.666666666666665e-01  3.333333333333333e-01
-1.666666666666667e-01  1.666666666666665e-01  3.333333333333333e-01
-1.666666666666667e-01  1.666666666666665e-01  3.333333333333333e-01
-1.666666666666667e-01  1.666666666666665e-01  3.333333333333333e-01
-1.666666666666667e-01  1.666666666666665e-01  3.333333333333333e-01
-1.666666666666667e-01  1.666666666666665e-01  3.333333333333333e-01
-1.666666666666667e-01  1.666666666666665e-01  3.333333333333333e-01
-1.666666666666667e-01  1.666666666666665e-01  3.333333333333333e-01
-1.666666666666667e-01  1.666666666666665e-01  3.333333333333333e-01
-1.666666666666667e-01  1.666666666666665e-01  3.333333333333333e-01
-1.666666666666667e-01  1.666666666666665e-01  3.333333333333333e-01
-1.666666666666667e-01  1.666666666666665e-01  3.333333333333333e-01
-1.666666666666667e-01  1.666666666666665e-01  3.333333333333333e-01
-1.666666666666667e-01  1.666666666666665e-01  3.333333333333333e-01
-1.666666666666667e-01  1.666666666666665e-01  3.333333333333333e-01
-1.666666666666667e-01  1.666666666666665e-01  3.333333333333333e-01
-1.666666666666667e-01  1.666666666666665e-01  3.333333333333333e-01
-1.666666666666667e-01  1.666666666666665e-01  3.333333333333333e-01
-1.666666666666667e-01  1.666666666666665e-01  3.333333333333333e-01
-1.666666666666667e-01  1.666666666666665e-01  3.333333333333333e-01
-1.666666666666667e-01  1.666666666666665e-01  3.333333333333333e-01
-1.666666666666667e-01  1.666666666666665e-01  3.333333333333333e-01
-1.666666666666667e-01  1.666666666666665e-01  3.333333333333333e-01
-1.666666666666667e-01  1.666666666666665e-01  3.333333333333333e-01
-1.666666666666667e-01  1.666666666666665e-01  3.333333333333333e-01
-1.666666666666667e-01  1.666666666666665e-01  3.333333333333333e-01
-1.666666666666667e-01  1.666666666666665e-01  3.333333333333333e-01
-1.666666666666667e-01  1.666666666666665e-01  3.333333333333333e-01
-1.666666666666667e-01  1.666666666666665e-01  3.333333333333333e-01
-1.666666666666667e-01  1.666666666666665e-01  3.333333333333333e-01
-1.666666666666667e-01  1.666666666666665e-01  3.333333333333333e-01
-1.666666666666667e-01  1.666666666666665e-01  3.333333333333333e-01
-1.666666666666667e-01  1.666666666666665e-01  3.333333333333333e-01
-1.666666666666667e-01  1.666666666666665e-01  3.333333333333333e-01
-1.666666666666667e-01  1.666666666666665e-01  3.333333333333333e-01
-1.666666666666667e-01  1.666666666666665e-01  3.333333333333333e-01
-1.666666666666667e-01  1.666666666666665e-01  3.333333333333333e-01
-1.666666666666667e-01  1.666666666666665e-01  3.333333333333333e-01
-1.666666666666667e-01  1.666666666666665e-01  3.333333333333333e-01
-1.666666666666667e-01  1.666666666666665e-01  3.333333333333333e-01
-1.666666666666667e-01  1.666666666666665e-01  3.333333333333333e-01
-1.666666666666667e-01  1.666666666666665e-01  3.333333333333333e-01
-1.666666666666667e-01  1.666666666666665e-01  3.333333333333333e-01
-1.666666666666667e-01  1.666666666666665e-01  3.333333333333333e-01
-1.666666666666667e-01  1.666666666666665e-01  3.333333333333333e-01
-1.666666666666667e-01  1.666666666666665e-01  3.333333333333333e-01
-1.666666666666667e-01  1.666666666666665e-01  3.333333333333333e-01
-1.666666666666667e-01  1.666666666666665e-01  3.333333333333333e-01
-1.666666666666667e-01  1.666666666666665e-01  3.333333333333333e-01
-1.666666666666667e-01  1.666666666666665e-01  3.333333333333333e-01
-1.666666666666667e-01  1.666666666666665e-01  3.333333333333333e-01
-1.666666666666667e-01  1.666666666666665e-01  3.333333333333333e-01
-1.666666666666667e-01  1.666666666666665e-01  3.333333333333333e-01
-1.666666666666667e-01  1.666666666666665e-01  3.333333333333333e-01
-1.666666666666667e-01  1.666666666666665e-01  3.333333333333333e-01
-1.666666666666667e-01  1.666666666666665e-01  3.333333333333333e-01
-1.666666666666667e-01  1.666666666666665e-01  3.333333333333333e-01
-1.666666666666667e-01  1.666666666666665e-01  3.333333333333333e-01
-1.666666666666667e-01  1.666666666666665e-01  3.333333333333333e-01
-1.666666666666667e-01  1.666666666666665e-01  3.333333333333333e-01
-1.666666666666667e-01  1.666666666666665e-01  3.333333333333333e-01
-1.666666666666667e-01  1.666666666666665e-01  3.333333333333333e-01
-1.666666666666667e-01  1.666666666666665e-01  3.333333333333333e-01
-1.666666666666667e-01  1.666666666666665e-01  3.333333333333333e-01
-1.666666666666667e-01  1.666666666666665e-01  3.333333333333333e-01
-1.666666666666667e-01  1.666666666666665e-01  3.333333333333333e-01
-1.666666666666667e-01  1.666666666666665e-01  3.333333333333333e-01
-1.666666666666667e-01  1.666666666666665e-01  3.333333333333333e-01
-1.666666666666667e-01  1.666666666666665e-01  3.333333333333333e-01
-1.666666666666667e-01  1.666666666666665e-01  3.333333333333333e-01
-1.666666666666667e-01  1.666666666666665e-01  3.333333333333333e-01
-1.666666666666667e-01  1.666666666666665e-01  3.333333333333333e-01
-1.666666666666667e-01  1.666666666666665e-01  3.333333333333333e-01
-1.666666666666667e-01  1.666666666666665e-01  3.333333333333333e-01
-1.666666666666667e-01  1.666666666666665e-01  3.333333333333333e-01
-1.666666666666667e-01  1.666666666666665e-01  3.333333333333333e-01
-1.666666666666667e-01  1.666666666666665e-01  3.333333333333333e-01
-1.666666666666667e-01  1.666666666666665e-01  3.333333333333333e-01
-1.666666666666667e-01  1.666666666666665e-01  3.333333333333333e-01
-1.666666666666667e-01  1.666666666666665e-01  3.333333333333333e-01
-1.666666666666667e-01  1.666666666666665e-01  3.333333333333333e-01
-1.666666666666667e-01  1.666666666666665e-01  3.333333333333333e-01
-1.666666666666667e-01  1.666666666666665e-01  3.333333333333333e-01
-1.666666666666667e-01  1.666666666666665e-01  3.333333333333333e-01
-1.666666666666667e-01  1.666666666666665e-01  3.333333333333333e-01
-1.666666666666667e-01  1.666666666666665e-01  3.333333333333333e-01
-1.666666666666667e-01  1.666666666666665e-01  3.333333333333333e-01
 1.666666666666667e-01 -1.666666666666665e-01 -3.333333333333333e-01
-1.666666666666667e-01  1.666666666666665e-01  3.333333333333333e-01
-1.666666666666667e-01  1.666666666666665e-01  3.333333333333333e-01
-1.666666666666667e-01  1.666666666666665e-01  3.333333333333333e-01
-1.666666666666667e-01  1.666666666666665e-01  3.333333333333333e-01
-1.666666666666667e-01  1.666666666666665e-01  3.333333333333333e-01
-1.666666666666667e-01  1.666666666666665e-01  3.333333333333333e-01
-1.666666666666667e-01  1.666666666666665e-01  3.333333333333333e-01
-1.666666666666667e-01  1.666666666666665e-01  3.333333333333333e-01
-1.666666666666667e-01  1.666666666666665e-01  3.333333333333333e-01
-1.666666666666667e-01  1.666666666666665e-01  3.333333333333333e-01
-1.666666666666667e-01  1.666666666666665e-01  3.333333333333333e-01
-1.666666666666667e-01  1.666666666666665e-01  3.333333333333333e-01
-1.666666666666667e-01  1.666666666666665e-01  3.333333333333333e-01
-1.666666666666667e-01  1.666666666666665e-01  3.333333333333333e-01
-1.666666666666667e-01  1.666666666666665e-01  3.333333333333333e-01
-1.666666666666667e-01  1.666666666666665e-01  3.333333333333333e-01
-1.666666666666667e-01  1.666666666666665e-01  3.333333333333333e-01
-1.666666666666667e-01  1.666666666666665e-01  3.333333333333333e-01
-1.666666666666667e-01  1.666666666666665e-01  3.333333333333333e-01
-1.666666666666667e-01  1.666666666666665e-01  3.333333333333333e-01
-1.666666666666667e-01  1.666666666666665e-01  3.333333333333333e-01
-1.666666666666667e-01  1.666666666666665e-01  3.333333333333333e-01
-1.666666666666667e-01  1.666666666666665e-01  3.333333333333333e-01
-1.666666666666667e-01  1.666666666666665e-01  3.333333333333333e-01
-1.666666666666667e-01  1.666666666666665e-01  3.333333333333333e-01
-1.666666666666667e-01  1.666666666666665e-01  3.333333333333333e-01
-1.666666666666667e-01  1.666666666666665e-01  3.333333333333333e-01
-1.666666666666667e-01  1.666666666666665e-01  3.333333333333333e-01
-1.666666666666667e-01  1.666666666666665e-01  3.333333333333333e-01
-1.666666666666667e-01  1.666666666666665e-01  3.333333333333333e-01
-1.666666666666667e-01  1.666666666666665e-01  3.333333333333333e-01
-1.666666666666667e-01  1.666666666666665e-01  3.333333333333333e-01
-1.666666666666667e-01  1.666666666666665e-01  3.333333333333333e-01
-1.666666666666667e-01  1.666666666666665e-01  3.333333333333333e-01
-1.666666666666667e-01  1.666666666666665e-01  3.333333333333333e-01
-1.666666666666667e-01  1.666666666666665e-01  3.333333333333333e-01
-1.666666666666667e-01  1.666666666666665e-01  3.333333333333333e-01
-1.666666666666667e-01  1.666666666666665e-01  3.333333333333333e-01
-1.666666666666667e-01  1.666666666666665e-01  3.333333333333333e-01
-1.666666666666667e-01  1.666666666666665e-01  3.333333333333333e-01
-1.666666666666667e-01  1.666666666666665e-01  3.333333333333333e-01
-1.666666666666667e-01  1.666666666666665e-01  3.333333333333333e-01
-1.666666666666667e-01  1.666666666666665e-01  3.333333333333333e-01
-1.666666666666667e-01  1.666666666666665e-01  3.333333333333333e-01
-1.666666666666667e-01  1.666666666666665e-01  3.333333333333333e-01
-1.666666666666667e-01  1.666666666666665e-01  3.333333333333333e-01
-1.666666666666667e-01  1.666666666666665e-01  3.333333333333333e-01
-1.666666666666667e-01  1.666666666666665e-01  3.333333333333333e-01
-1.666666666666667e-01  1.666666666666665e-01  3.333333333333333e-01
-1.666666666666667e-01  1.666666666666665e-01  3.333333333333333e-01
-1.666666666666667e-01  1.666666666666665e-01  3.333333333333333e-01
-1.666666666666667e-01  1.666666666666665e-01  3.333333333333333e-01
-1.666666666666667e-01  1.666666666666665e-01  3.333333333333333e-01
-1.666666666666667e-01  1.666666666666665e-01  3.333333333333333e-01
-1.666666666666667e-01  1.666666666666665e-01  3.333333333333333e-01
-1.666666666666667e-01  1.666666666666665e-01  3.333333333333333e-01
-1.666666666666667e-01  1.666666666666665e-01  3.333333333333333e-01
-1.666666666666667e-01  1.666666666666665e-01  3.333333333333333e-01
-1.666666666666667e-01  1.666666666666665e-01  3.333333333333333e-01
-1.666666666666667e-01  1.666666666666665e-01  3.333333333333333e-01
-1.666666666666667e-01  1.666666666666665e-01  3.333333333333333e-01
-1.666666666666667e-01  1.666666666666665e-01  3.333333333333333e-01
-1.666666666666667e-01  1.666666666666665e-01  3.333333333333333e-01
-1.666666666666667e-01  1.666666666666665e-01  3.333333333333333e-01
-1.666666666666667e-01  1.666666666666665e-01  3.333333333333333e-01
-1.666666666666667e-01  1.666666666666665e-01  3.333333333333333e-01
-1.666666666666667e-01  1.666666666666665e-01  3.333333333333333e-01
-1.666666666666667e-01  1.666666666666665e-01  3.333333333333333e-01
-1.666666666666667e-01  1.666666666666665e-01  3.333333333333333e-01
-1.666666666666667e-01  1.666666666666665e-01  3.333333333333333e-01
-1.666666666666667e-01  1.666666666666665e-01  3.333333333333333e-01
-1.666666666666667e-01  1.666666666666665e-01  3.333333333333333e-01
-1.666666666666667e-01  1.666666666666665e-01  3.333333333333333e-01
-1.666666666666667e-01  1.666666666666665e-01  3.333333333333333e-01
-1.666666666666667e-01  1.666666666666665e-01  3.333333333333333e-01
-1.666666666666667e-01  1.666666666666665e-01  3.333333333333333e-01
-1.666666666666667e-01  1.666666666666665e-01  3.333333333333333e-01
-1.666666666666667e-01  1.666666666666665e-01  3.333333333333333e-01
-1.666666666666667e-01  1.666666666666665e-01  3.333333333333333e-01
-1.666666666666667e-01  1.666666666666665e-01  3.333333333333333e-01
-1.666666666666667e-01  1.666666666666665e-01  3.333333333333333e-01
-1.666666666666667e-01  1.666666666666665e-01  3.333333333333333e-01
-1.666666666666667e-01  1.666666666666665e-01  3.333333333333333e-01
-1.666666666666667e-01  1.666666666666665e-01  3.333333333333333e-01
-1.666666666666667e-01  1.666666666666665e-01  3.333333333333333e-01
-1.666666666666667e-01  1.666666666666665e-01  3.333333333333333e-01
-1.666666666666667e-01  1.666666666666665e-01  3.333333333333333e-01
-1.666666666666667e-01  1.666666666666665e-01  3.333333333333333e-01
-1.666666666666667e-01  1.666666666666665e-01  3.333333333333333e-01
-1.666666666666667e-01  1.666666666666665e-01  3.333333333333333e-01
-1.666666666666667e-01  1.666666666666665e-01  3.333333333333333e-01
-1.666666666666667e-01  1.666666666666665e-01  3.333333333333333e-01
-1.666666666666667e-01  1.666666666666665e-01  3.333333333333333e-01
-1.666666666666667e-01  1.666666666666665e-01  3.333333333333333e-01
-1.666666666666667e-01  1.666666666666665e-01  3.333333333333333e-01
-1.666666666666667e-01  1.666666666666665e-01  3.333333333333333e-01
-1.666666666666667e-01  1.666666666666665e-01  3.333333333333333e-01
-1.666666666666667e-01  1.666666666666665e-01  3.333333333333333e-01
-1.666666666666667e-01  1.666666666666665e-01  3.333333333333333e-01
-1.666666666666667e-01  1.666666666666665e-01  3.333333333333333e-01
-1.666666666666667e-01  1.666666666666665e-01  3.333333333333333e-01
-1.666666666666667e-01  1.666666666666665e-01  3.333333333333333e-01
-1.666666666666667e-01  1.666666666666665e-01  3.333333333333333e-01
-1.666666666666667e-01  1.666666666666665e-01  3.333333333333333e-01
-1.666666666666667e-01  1.666666666666665e-01  3.333333333333333e-01
-1.666666666666667e-01  1.666666666666665e-01  3.333333333333333e-01
-1.666666666666667e-01  1.666666666666665e-01  3.333333333333333e-01
-1.666666666666667e-01  1.666666666666665e-01  3.333333333333333e-01
-1.666666666666667e-01  1.666666666666665e-01  3.333333333333333e-01
-1.666666666666667e-01  1.666666666666665e-01  3.333333333333333e-01
-1.666666666666667e-01  1.666666666666665e-01  3.333333333333333e-01
-1.666666666666667e-01  1.666666666666665e-01  3.333333333333333e-01
-1.666666666666667e-01  1.666666666666665e-01  3.333333333333333e-01
-1.666666666666667e-01  1.666666666666665e-01  3.333333333333333e-01
-1.666666666666667e-01  1.666666666666665e-01  3.333333333333333e-01
-1.666666666666667e-01  1.666666666666665e-01  3.333333333333333e-01
-1.666666666666667e-01  1.666666666666665e-01  3.333333333333333e-01
-1.666666666666667e-01  1.666666666666665e-01  3.333333333333333e-01
-1.666666666666667e-01  1.666666666666665e-01  3.333333333333333e-01
-1.666666666666667e-01  1.666666666666665e-01  3.333333333333333e-01
-1.666666666666667e-01  1.666666666666665e-01  3.333333333333333e-01
-1.666666666666667e-01  1.666666666666665e-01  3.333333333333333e-01
-1.666666666666667e-01  1.666666666666665e-01  3.333333333333333e-01
-1.666666666666667e-01  1.666666666666665e-01  3.333333333333333e-01
-1.666666666666667e-01  1.666666666666665e-01  3.333333333333333e-01
-1.666666666666667e-01  1.666666666666665e-01  3.333333333333333e-01
-1.666666666666667e-01  1.666666666666665e-01  3.333333333333333e-01
-1.666666666666667e-01  1.666666666666665e-01  3.333333333333333e-01
-1.666666666666667e-01  1.666666666666665e-01  3.333333333333333e-01
-1.666666666666667e-01  1.666666666666665e-01  3.333333333333333e-01
-1.666666666666667e-01  1.666666666666665e-01  3.333333333333333e-01
-1.666666666666667e-01  1.666666666666665e-01  3.333333333333333e-01
-1.666666666666667e-01  1.666666666666665e-01  3.333333333333333e-01
-1.666666666666667e-01  1.666666666666665e-01  3.333333333333333e-01
-1.666666666666667e-01  1.666666666666665e-01  3.333333333333333e-01
-1.666666666666667e-01  1.666666666666665e-01  3.333333333333333e-01
-1.666666666666667e-01  1.666666666666665e-01  3.333333333333333e-01
-1.666666666666667e-01  1.666666666666665e-01  3.333333333333333e-01
-1.666666666666667e-01  1.666666666666665e-01  3.333333333333333e-01
-1.666666666666667e-01  1.666666666666665e-01  3.333333333333333e-01
-1.666666666666667e-01  1.666666666666665e-01  3.333333333333333e-01
-1.666666666666667e-01  1.666666666666665e-01  3.333333333333333e-01
-1.666666666666667e-01  1.666666666666665e-01  3.333333333333333e-01
-1.666666666666667e-01  1.666666666666665e-01  3.333333333333333e-01
-1.666666666666667e-01  1.666666666666665e-01  3.333333333333333e-01
-1.666666666666667e-01  1.666666666666665e-01  3.333333333333333e-01
-1.666666666666667e-01  1.666666666666665e-01  3.333333333333333e-01
-1.666666666666667e-01  1.666666666666665e-01  3.333333333333333e-01
-1.666666666666667e-01  1.666666666666665e-01  3.333333333333333e-01
-1.666666666666667e-01  1.666666666666665e-01  3.333333333333333e-01
-1.666666666666667e-01  1.666666666666665e-01  3.333333333333333e-01
-1.666666666666667e-01  1.666666666666665e-01  3.333333333333333e-01
-1.666666666666667e-01  1.666666666666665e-01  3.333333333333333e-01
-1.666666666666667e-01  1.666666666666665e-01  3.333333333333333e-01
-1.666666666666667e-01  1.666666666666665e-01  3.333333333333333e-01
-1.666666666666667e-01  1.666666666666665e-01  3.333333333333333e-01
-1.666666666666667e-01  1.666666666666665e-01  3.333333333333333e-01
-1.666666666666667e-01  1.666666666666665e-01  3.333333333333333e-01
-1.666666666666667e-01  1.666666666666665e-01  3.333333333333333e-01
-1.666666666666667e-01  1.666666666666665e-01  3.333333333333333e-01
-1.666666666666667e-01  1.666666666666665e-01  3.333333333333333e-01
-1.666666666666667e-01  1.666666666666665e-01  3.333333333333333e-01
-1.666666666666667e-01  1.666666666666665e-01  3.333333333333333e-01
-1.666666666666667e-01  1.666666666666665e-01  3.333333333333333e-01
-1.666666666666667e-01  1.666666666666665e-01  3.333333333333333e-01
-1.666666666666667e-01  1.666666666666665e-01  3.333333333333333e-01
-1.666666666666667e-01  1.666666666666665e-01  3.333333333333333e-01
-1.666666666666667e-01  1.666666666666665e-01  3.333333333333333e-01
-1.666666666666667e-01  1.666666666666665e-01  3.333333333333333e-01
-1.666666666666667e-01  1.666666666666665e-01  3.333333333333333e-01
-1.666666666666667e-01  1.666666666666665e-01  3.333333333333333e-01
-1.666666666666667e-01  1.666666666666665e-01  3.333333333333333e-01
-1.666666666666667e-01  1.666666666666665e-01  3.333333333333333e-01
-1.666666666666667e-01  1.666666666666665e-01  3.333333333333333e-01
-1.666666666666667e-01  1.666666666666665e-01  3.333333333333333e-01
-1.666666666666667e-01  1.666666666666665e-01  3.333333333333333e-01
-1.666666666666667e-01  1.666666666666665e-01  3.333333333333333e-01
-1.666666666666667e-01  1.666666666666665e-01  3.333333333333333e-01
