# vtk DataFile Version 3.0
# Dislocation lines converted from MoDELib file
ASCII
DATASET UNSTRUCTURED_GRID
POINTS 3000 double
-1.429999999999877e+00  3.863858941524650e+02 -2.918975276816622e+03
-1.429999999999897e+00 -3.863858941524674e+02 -2.918975276816622e+03
-1.429999999999897e+00  0.000000000000000e+00 -2.918975276816622e+03
-1.430000000000221e+00  0.000000000000000e+00  2.918975276816619e+03
-1.430000000000221e+00 -3.863858941524674e+02  2.918975276816619e+03
-1.430000000000201e+00  3.863858941524653e+02  2.918975276816619e+03
-1.148581411444983e+03  1.104412295210384e+00 -2.918975276816622e+03
-1.148565410929294e+03 -1.049016263564983e+00 -2.918975276816622e+03
-1.148540436182579e+03 -1.737550022212095e+00 -2.918975276816622e+03
-1.148574728677897e+03 -3.939759029000403e+00 -2.918975276816622e+03
-1.148552053085303e+03 -5.250084892315046e+00 -2.918975276816622e+03
-1.148555680996429e+03 -6.328167140900810e+00 -2.918975276816622e+03
-1.148529859449706e+03 -8.209662834765835e+00 -2.918975276816622e+03
-1.148518103700049e+03 -1.300848422464194e+01 -2.918975276816622e+03
-1.148506105472423e+03 -1.368636528727601e+01 -2.918975276816622e+03
-1.148511688715440e+03 -1.660991744544019e+01 -2.918975276816622e+03
-1.148443323531024e+03 -2.010195765375597e+01 -2.918975276816622e+03
-1.148434150729216e+03 -2.289836093773415e+01 -2.918975276816622e+03
-1.148321814188894e+03 -2.693457535315741e+01 -2.918975276816622e+03
-1.148305223351043e+03 -2.804645666628008e+01 -2.918975276816622e+03
-1.148127874079362e+03 -3.496504764529580e+01 -2.918975276816622e+03
-1.148075094364633e+03 -3.587201821302411e+01 -2.918975276816622e+03
-1.148073786331786e+03 -3.841337306240002e+01 -2.918975276816622e+03
-1.147950753632697e+03 -4.024111779076498e+01 -2.918975276816622e+03
-1.148009320083901e+03 -4.108024643271280e+01 -2.918975276816622e+03
-1.147852536368601e+03 -4.334469103208711e+01 -2.918975276816622e+03
-1.147857071716651e+03 -4.517192110051481e+01 -2.918975276816622e+03
-1.147695863580822e+03 -4.976228782874292e+01 -2.918975276816622e+03
-1.147736508926294e+03 -5.037199101226035e+01 -2.918975276816622e+03
-1.147499317036831e+03 -5.217068625899204e+01 -2.918975276816622e+03
-1.147702045980657e+03 -5.412657386949478e+01 -2.918975276816622e+03
-1.147700952253873e+03 -5.430306066019440e+01 -2.918975276816622e+03
-1.147642995776179e+03 -5.592493031788629e+01 -2.918975276816622e+03
-1.147671669384414e+03 -5.844986541985957e+01 -2.918975276816622e+03
-1.147633280105309e+03 -6.014456912911309e+01 -2.918975276816622e+03
-1.147665813379691e+03 -6.137936740262930e+01 -2.918975276816622e+03
-1.147637668353087e+03 -6.331869653700880e+01 -2.918975276816622e+03
-1.147687321331380e+03 -6.434191831405961e+01 -2.918975276816622e+03
-1.147679949702220e+03 -6.632572171716171e+01 -2.918975276816622e+03
-1.147779089880997e+03 -6.737916978360258e+01 -2.918975276816622e+03
-1.147741305794940e+03 -6.992631422435122e+01 -2.918975276816622e+03
-1.147796479004048e+03 -7.058076027388981e+01 -2.918975276816622e+03
-1.147726140947654e+03 -7.213374929794659e+01 -2.918975276816622e+03
-1.147842660959577e+03 -7.419155869665757e+01 -2.918975276816622e+03
-1.147735416266029e+03 -7.527474433175188e+01 -2.918975276816622e+03
-1.147829728796183e+03 -7.630184464213764e+01 -2.918975276816622e+03
-1.147729566358506e+03 -7.834243331932572e+01 -2.918975276816622e+03
-1.147845693094502e+03 -8.024532280904806e+01 -2.918975276816622e+03
-1.147744393612699e+03 -8.134556903715131e+01 -2.918975276816622e+03
-1.147835716255428e+03 -8.335663717184541e+01 -2.918975276816622e+03
-1.147731447182545e+03 -8.500232823864516e+01 -2.918975276816622e+03
-1.147799074110462e+03 -8.765952480483709e+01 -2.918975276816622e+03
-1.147717409799437e+03 -8.953673088808308e+01 -2.918975276816622e+03
-1.147755906468029e+03 -9.040069480636326e+01 -2.918975276816622e+03
-1.147694715017830e+03 -9.210369332781097e+01 -2.918975276816622e+03
-1.147723762084129e+03 -9.486754853360499e+01 -2.918975276816622e+03
-1.147681806444572e+03 -9.555463602818229e+01 -2.918975276816622e+03
-1.147699644325503e+03 -9.844895859261642e+01 -2.918975276816622e+03
-1.147642744906302e+03 -1.003117201450549e+02 -2.918975276816622e+03
-1.147671616841144e+03 -1.013935723928386e+02 -2.918975276816622e+03
-1.147609776681802e+03 -1.032458249196514e+02 -2.918975276816622e+03
-1.147647514471727e+03 -1.042336338429585e+02 -2.918975276816622e+03
-1.147570473390259e+03 -1.061858851312320e+02 -2.918975276816622e+03
-1.147625056747312e+03 -1.072556677058161e+02 -2.918975276816622e+03
-1.147523311185133e+03 -1.097246546035682e+02 -2.918975276816622e+03
-1.147589685752970e+03 -1.105171571846464e+02 -2.918975276816622e+03
-1.147468914346426e+03 -1.122576676212468e+02 -2.918975276816622e+03
-1.147551214684960e+03 -1.141378212655784e+02 -2.918975276816622e+03
-1.147523319927748e+03 -1.142208382660914e+02 -2.918975276816622e+03
-1.147593923679727e+03 -1.157551477441692e+02 -2.918975276816622e+03
-1.147498818805558e+03 -1.183434799638613e+02 -2.918975276816622e+03
-1.147553530826650e+03 -1.201296809715689e+02 -2.918975276816622e+03
-1.147498865051461e+03 -1.213372231481593e+02 -2.918975276816622e+03
-1.147535692942517e+03 -1.234740449787949e+02 -2.918975276816622e+03
-1.147514036773847e+03 -1.248128101276452e+02 -2.918975276816622e+03
-1.147499984961692e+03 -1.295945757972378e+02 -2.918975276816622e+03
-1.147516428673328e+03 -1.303465055056144e+02 -2.918975276816622e+03
-1.147501081234544e+03 -1.322153053380806e+02 -2.918975276816622e+03
-1.147500318032259e+03 -1.341605590291616e+02 -2.918975276816622e+03
-1.147515508969067e+03 -1.344624164146209e+02 -2.918975276816622e+03
-1.147509813892355e+03 -1.357672709387753e+02 -2.918975276816622e+03
-1.147567209415140e+03 -1.384013920492419e+02 -2.918975276816622e+03
-1.147578532220553e+03 -1.400557038025896e+02 -2.918975276816622e+03
-1.147590052698033e+03 -1.412651530574515e+02 -2.918975276816622e+03
-1.147625952158640e+03 -1.431672127122124e+02 -2.918975276816622e+03
-1.147622686415704e+03 -1.441340430560280e+02 -2.918975276816622e+03
-1.147677142452546e+03 -1.461360569743376e+02 -2.918975276816622e+03
-1.147652241495866e+03 -1.471495906590398e+02 -2.918975276816622e+03
-1.147732935984414e+03 -1.496372909824327e+02 -2.918975276816622e+03
-1.147701850235422e+03 -1.503403329912800e+02 -2.918975276816622e+03
-1.147778029636837e+03 -1.520377712335007e+02 -2.918975276816622e+03
-1.147755034855723e+03 -1.540306775428500e+02 -2.918975276816622e+03
-1.147776569284090e+03 -1.540665853234963e+02 -2.918975276816622e+03
-1.147748216360523e+03 -1.559595899875345e+02 -2.918975276816622e+03
-1.147811434453662e+03 -1.601733184260203e+02 -2.918975276816622e+03
-1.147786718123042e+03 -1.612307223244766e+02 -2.918975276816622e+03
-1.147851274711094e+03 -1.631928721576240e+02 -2.918975276816622e+03
-1.147839760498287e+03 -1.647274734270130e+02 -2.918975276816622e+03
-1.147956733040518e+03 -1.723220643031277e+02 -2.918975276816622e+03
-1.147950955234086e+03 -1.756643006787480e+02 -2.918975276816622e+03
-1.147993014842328e+03 -1.783160689953725e+02 -2.918975276816622e+03
-1.148013819744441e+03 -1.802142117690433e+02 -2.918975276816622e+03
-1.148020704022729e+03 -1.812735250999626e+02 -2.918975276816622e+03
-1.148055828671125e+03 -1.831419188199355e+02 -2.918975276816622e+03
-1.148052785623828e+03 -1.847064556206825e+02 -2.918975276816622e+03
-1.148052051068044e+03 -1.894915167104971e+02 -2.918975276816622e+03
-1.148063563985607e+03 -1.901301279536345e+02 -2.918975276816622e+03
-1.148050653977365e+03 -1.919394993060475e+02 -2.918975276816622e+03
-1.148028336460991e+03 -1.939044642424947e+02 -2.918975276816622e+03
-1.148038586823807e+03 -1.943010722313435e+02 -2.918975276816622e+03
-1.148010231371207e+03 -1.960466054525416e+02 -2.918975276816622e+03
-1.148038762376646e+03 -2.000598294776739e+02 -2.918975276816622e+03
-1.147990593364253e+03 -2.010802373667880e+02 -2.918975276816622e+03
-1.148054317342873e+03 -2.030827490155255e+02 -2.918975276816622e+03
-1.147985873718387e+03 -2.040534627654457e+02 -2.918975276816622e+03
-1.148019038429731e+03 -2.060226202609468e+02 -2.918975276816622e+03
-1.147976762713898e+03 -2.070713852721384e+02 -2.918975276816622e+03
-1.148018127319528e+03 -2.095591436341770e+02 -2.918975276816622e+03
-1.147959747356905e+03 -2.103851180704727e+02 -2.918975276816622e+03
-1.147963659763487e+03 -2.124290534934286e+02 -2.918975276816622e+03
-1.147892493301846e+03 -2.156029890184703e+02 -2.918975276816622e+03
-1.147892206071723e+03 -2.182331714075551e+02 -2.918975276816622e+03
-1.147816256647401e+03 -2.201117501955888e+02 -2.918975276816622e+03
-1.147822445764570e+03 -2.212146778671636e+02 -2.918975276816622e+03
-1.147742196150317e+03 -2.230834361804744e+02 -2.918975276816622e+03
-1.147710712552311e+03 -2.246479351844981e+02 -2.918975276816622e+03
-1.147530409408671e+03 -2.294588400429383e+02 -2.918975276816622e+03
-1.147462944095836e+03 -2.301898766975309e+02 -2.918975276816622e+03
-1.147394728177093e+03 -2.319889719768751e+02 -2.918975276816622e+03
-1.147187451506734e+03 -2.337589109267188e+02 -2.918975276816622e+03
-1.147163322974677e+03 -2.338776498128183e+02 -2.918975276816622e+03
-1.147457039771660e+03 -2.355484244905788e+02 -2.918975276816622e+03
-1.147524432232840e+03 -2.381242141431264e+02 -2.918975276816622e+03
-1.147695920174918e+03 -2.401084796666865e+02 -2.918975276816622e+03
-1.147665796777112e+03 -2.411567686841656e+02 -2.918975276816622e+03
-1.147807107122108e+03 -2.431449876410108e+02 -2.918975276816622e+03
-1.147779820850514e+03 -2.444597322974089e+02 -2.918975276816622e+03
-1.147915496450865e+03 -2.470205244791816e+02 -2.918975276816622e+03
-1.147900503467775e+03 -2.470657478271049e+02 -2.918975276816622e+03
-1.147950440878272e+03 -2.498192608387517e+02 -2.918975276816622e+03
-1.147852267937235e+03 -2.508425742666761e+02 -2.918975276816622e+03
-1.147933423951264e+03 -2.516614796599836e+02 -2.918975276816622e+03
-1.147885683494570e+03 -2.538871017087585e+02 -2.918975276816622e+03
-1.147898629175440e+03 -2.552045111405332e+02 -2.918975276816622e+03
-1.147867461334699e+03 -2.574888038654365e+02 -2.918975276816622e+03
-1.147901636115569e+03 -2.577455410076631e+02 -2.918975276816622e+03
-1.147869070936614e+03 -2.601488782425150e+02 -2.918975276816622e+03
-1.147859522398349e+03 -2.609348755624789e+02 -2.918975276816622e+03
-1.147872778035017e+03 -2.634060908204875e+02 -2.918975276816622e+03
-1.147872777464091e+03 -2.661324312705280e+02 -2.918975276816622e+03
-1.147876990670528e+03 -2.710875211485135e+02 -2.918975276816622e+03
-1.147865724522674e+03 -2.738720083474652e+02 -2.918975276816622e+03
-1.147918100877574e+03 -2.755609020246994e+02 -2.918975276816622e+03
-1.147878452268962e+03 -2.773762471559122e+02 -2.918975276816622e+03
-1.147930519074108e+03 -2.802801126693389e+02 -2.918975276816622e+03
-1.147914846994585e+03 -2.843491237248442e+02 -2.918975276816622e+03
-1.147948625377060e+03 -2.858176000339791e+02 -2.918975276816622e+03
-1.147942660418576e+03 -2.877496521351137e+02 -2.918975276816622e+03
-1.147963305037160e+03 -2.950600935327565e+02 -2.918975276816622e+03
-1.148014121451005e+03 -2.986467909882986e+02 -2.918975276816622e+03
-1.147904647224136e+03 -3.003047944727625e+02 -2.918975276816622e+03
-1.148041902858464e+03 -3.036948750908770e+02 -2.918975276816622e+03
-1.147935754694253e+03 -3.043053997502633e+02 -2.918975276816622e+03
-1.148082071159017e+03 -3.073928301304672e+02 -2.918975276816622e+03
-1.147896021874761e+03 -3.106841757105393e+02 -2.918975276816622e+03
-1.148023237344698e+03 -3.139549612373943e+02 -2.918975276816622e+03
-1.147899568779004e+03 -3.181170123586901e+02 -2.918975276816622e+03
-1.147696075124682e+03 -3.231151615253650e+02 -2.918975276816622e+03
-1.147626700768005e+03 -3.263079007182275e+02 -2.918975276816622e+03
-1.147541762351317e+03 -3.265561953114281e+02 -2.918975276816622e+03
-1.147942593196310e+03 -3.304579374343685e+02 -2.918975276816622e+03
-1.147410221226492e+03 -3.342590461629508e+02 -2.918975276816622e+03
-1.147773512339240e+03 -3.349723397204422e+02 -2.918975276816622e+03
-1.147649696600582e+03 -3.387250415850301e+02 -2.918975276816622e+03
-1.147857514203628e+03 -3.432077986784793e+02 -2.918975276816622e+03
-1.148059310456260e+03 -3.470284040304589e+02 -2.918975276816622e+03
-1.147877592505575e+03 -3.478696746164917e+02 -2.918975276816622e+03
-1.148291871373041e+03 -3.530669129409851e+02 -2.918975276816622e+03
-1.147617716531426e+03 -3.544752623359156e+02 -2.918975276816622e+03
-1.147525464302530e+03 -3.578794190715961e+02 -2.918975276816622e+03
-1.147259552070891e+03 -3.590213916176268e+02 -2.918975276816622e+03
-1.147735645381345e+03 -3.621712795466328e+02 -2.918975276816622e+03
-1.147945309278673e+03 -3.696680185939301e+02 -2.918975276816622e+03
-1.148002016277168e+03 -3.717857510935897e+02 -2.918975276816622e+03
-1.148018805485657e+03 -3.740942041962589e+02 -2.918975276816622e+03
-1.148039564330902e+03 -3.743908932619347e+02 -2.918975276816622e+03
-1.148019436312333e+03 -3.763696103418871e+02 -2.918975276816622e+03
-1.148067047171568e+03 -3.775316020356889e+02 -2.918975276816622e+03
-1.148037347528629e+03 -3.796381279540612e+02 -2.918975276816622e+03
-1.148063733999786e+03 -3.799678036952898e+02 -2.918975276816622e+03
-1.148033872976938e+03 -3.823209764286029e+02 -2.918975276816622e+03
-1.148062994472081e+03 -3.860359642732611e+02 -2.918975276816622e+03
-1.148081914384906e+03  3.833371670379892e+02 -2.918975276816622e+03
-1.148101319895211e+03  3.785848239088587e+02 -2.918975276816622e+03
-1.148107151432671e+03  3.772910214810070e+02 -2.918975276816622e+03
-1.148109623099154e+03  3.765468998247605e+02 -2.918975276816622e+03
-1.148117506104295e+03  3.736665953920533e+02 -2.918975276816622e+03
-1.148133613357165e+03  3.684591257215840e+02 -2.918975276816622e+03
-1.148161069981457e+03  3.598644811851549e+02 -2.918975276816622e+03
-1.148149995411275e+03  3.575780734576776e+02 -2.918975276816622e+03
-1.148204722913630e+03  3.546587966744914e+02 -2.918975276816622e+03
-1.148151745221568e+03  3.527484993419687e+02 -2.918975276816622e+03
-1.148228650705730e+03  3.510419249545617e+02 -2.918975276816622e+03
-1.148110192155893e+03  3.485462530304318e+02 -2.918975276816622e+03
-1.148200799478072e+03  3.458916596514557e+02 -2.918975276816622e+03
-1.148082624720030e+03  3.443868759530293e+02 -2.918975276816622e+03
-1.148140003221876e+03  3.413654350737849e+02 -2.918975276816622e+03
-1.148056077889288e+03  3.405858438494220e+02 -2.918975276816622e+03
-1.148088138585651e+03  3.383669475146486e+02 -2.918975276816622e+03
-1.147923860264253e+03  3.297019853339415e+02 -2.918975276816622e+03
-1.147840384787693e+03  3.277034536077448e+02 -2.918975276816622e+03
-1.147827493818268e+03  3.260457411719202e+02 -2.918975276816622e+03
-1.147645604447881e+03  3.234739673172278e+02 -2.918975276816622e+03
-1.147640146970650e+03  3.234346864321845e+02 -2.918975276816622e+03
-1.147907882399203e+03  3.210287013805311e+02 -2.918975276816622e+03
-1.147740539716883e+03  3.201713185167180e+02 -2.918975276816622e+03
-1.148043957924375e+03  3.172623258392287e+02 -2.918975276816622e+03
-1.147760424972890e+03  3.132948033408779e+02 -2.918975276816622e+03
-1.147979347093010e+03  3.120576628938146e+02 -2.918975276816622e+03
-1.147735405403943e+03  3.097626999940481e+02 -2.918975276816622e+03
-1.147906645929625e+03  3.070335878037303e+02 -2.918975276816622e+03
-1.147754536594159e+03  3.049673103795097e+02 -2.918975276816622e+03
-1.147833821686759e+03  3.033729949758703e+02 -2.918975276816622e+03
-1.147783225665646e+03  3.011712470105588e+02 -2.918975276816622e+03
-1.147758329059139e+03  2.962601770394807e+02 -2.918975276816622e+03
-1.147779968597111e+03  2.959907988089309e+02 -2.918975276816622e+03
-1.147785136261125e+03  2.936671244656103e+02 -2.918975276816622e+03
-1.147805303272143e+03  2.890409746202064e+02 -2.918975276816622e+03
-1.147807860767834e+03  2.884929457688896e+02 -2.918975276816622e+03
-1.147812398256416e+03  2.862373729344089e+02 -2.918975276816622e+03
-1.147824877021182e+03  2.831651618010980e+02 -2.918975276816622e+03
-1.147820586378297e+03  2.820151416086450e+02 -2.918975276816622e+03
-1.147822418972654e+03  2.800998797369235e+02 -2.918975276816622e+03
-1.147830400384143e+03  2.780110351759700e+02 -2.918975276816622e+03
-1.147816187286822e+03  2.761745915230167e+02 -2.918975276816622e+03
-1.147835734735806e+03  2.756788285103047e+02 -2.918975276816622e+03
-1.147813877377003e+03  2.742150280635486e+02 -2.918975276816622e+03
-1.147841086175636e+03  2.717196057522302e+02 -2.918975276816622e+03
-1.147814489222333e+03  2.708945945034655e+02 -2.918975276816622e+03
-1.147850790425244e+03  2.691380220746681e+02 -2.918975276816622e+03
-1.147811211792198e+03  2.666848801824281e+02 -2.918975276816622e+03
-1.147843058222771e+03  2.655671981258893e+02 -2.918975276816622e+03
-1.147803449951940e+03  2.630305120869195e+02 -2.918975276816622e+03
-1.147827833741553e+03  2.610244352632674e+02 -2.918975276816622e+03
-1.147802604599437e+03  2.599902432401634e+02 -2.918975276816622e+03
-1.147814960001590e+03  2.580549238684116e+02 -2.918975276816622e+03
-1.147797527200428e+03  2.567091574166544e+02 -2.918975276816622e+03
-1.147769564340918e+03  2.513808963687052e+02 -2.918975276816622e+03
-1.147728796727246e+03  2.502351304455471e+02 -2.918975276816622e+03
-1.147766502344986e+03  2.494524024118164e+02 -2.918975276816622e+03
-1.147682639762093e+03  2.471329504844691e+02 -2.918975276816622e+03
-1.147745935646436e+03  2.457872500688488e+02 -2.918975276816622e+03
-1.147621691839467e+03  2.436174148765188e+02 -2.918975276816622e+03
-1.147696959588323e+03  2.433230184473830e+02 -2.918975276816622e+03
-1.147551857238128e+03  2.406785968715658e+02 -2.918975276816622e+03
-1.147643362827983e+03  2.400572508582394e+02 -2.918975276816622e+03
-1.147461676664279e+03  2.385528460219543e+02 -2.918975276816622e+03
-1.147571705247851e+03  2.362773958169302e+02 -2.918975276816622e+03
-1.147407255017334e+03  2.353619438372471e+02 -2.918975276816622e+03
-1.147528997597614e+03  2.340449219366540e+02 -2.918975276816622e+03
-1.147307566219529e+03  2.319446828276547e+02 -2.918975276816622e+03
-1.147411775140409e+03  2.305727162199206e+02 -2.918975276816622e+03
-1.147243742728836e+03  2.295685101759355e+02 -2.918975276816622e+03
-1.147296474069297e+03  2.272855692072939e+02 -2.918975276816622e+03
-1.147137126368910e+03  2.263152665032644e+02 -2.918975276816622e+03
-1.147169406774092e+03  2.244217658572636e+02 -2.918975276816622e+03
-1.147026226123679e+03  2.233459772892132e+02 -2.918975276816622e+03
-1.146942171752267e+03  2.204185848226886e+02 -2.918975276816622e+03
-1.146614607911249e+03  2.165253657406942e+02 -2.918975276816622e+03
-1.146499089003271e+03  2.160898259797281e+02 -2.918975276816622e+03
-1.146836335627358e+03  2.144533093185222e+02 -2.918975276816622e+03
-1.146682706528668e+03  2.130663748378342e+02 -2.918975276816622e+03
-1.146934137810949e+03  2.118949917707235e+02 -2.918975276816622e+03
-1.146788686850801e+03  2.102621102841166e+02 -2.918975276816622e+03
-1.147022454930874e+03  2.091699763187761e+02 -2.918975276816622e+03
-1.146872168679912e+03  2.071807130612529e+02 -2.918975276816622e+03
-1.147078929112877e+03  2.058255385013098e+02 -2.918975276816622e+03
-1.146931417802581e+03  2.041233488594411e+02 -2.918975276816622e+03
-1.147042577301056e+03  2.031818951684186e+02 -2.918975276816622e+03
-1.147060591229744e+03  1.987073734802770e+02 -2.918975276816622e+03
-1.147118017581834e+03  1.962821572283637e+02 -2.918975276816622e+03
-1.147042683186546e+03  1.921827114235316e+02 -2.918975276816622e+03
-1.147118528720326e+03  1.902684255804865e+02 -2.918975276816622e+03
-1.147021523100808e+03  1.891515509238215e+02 -2.918975276816622e+03
-1.147094757872300e+03  1.872906235356065e+02 -2.918975276816622e+03
-1.146991987608576e+03  1.863005056047945e+02 -2.918975276816622e+03
-1.147045758960717e+03  1.844264034836944e+02 -2.918975276816622e+03
-1.146939961832479e+03  1.833602935524254e+02 -2.918975276816622e+03
-1.146913205707958e+03  1.805420634738181e+02 -2.918975276816622e+03
-1.146805802915324e+03  1.790333571210100e+02 -2.918975276816622e+03
-1.146773894742096e+03  1.783579604894985e+02 -2.918975276816622e+03
-1.146706794585002e+03  1.762253864884686e+02 -2.918975276816622e+03
-1.146685941554094e+03  1.761209544311534e+02 -2.918975276816622e+03
-1.146847731125318e+03  1.734651187086404e+02 -2.918975276816622e+03
-1.146852040473494e+03  1.717873780684602e+02 -2.918975276816622e+03
-1.146925909342526e+03  1.701699531736460e+02 -2.918975276816622e+03
-1.146913106092300e+03  1.690659571737212e+02 -2.918975276816622e+03
-1.146961715818526e+03  1.673970802965700e+02 -2.918975276816622e+03
-1.146949326338466e+03  1.662683838881657e+02 -2.918975276816622e+03
-1.146989494427247e+03  1.642904252310360e+02 -2.918975276816622e+03
-1.146960376795227e+03  1.633680448821281e+02 -2.918975276816622e+03
-1.146978559884329e+03  1.609544925474929e+02 -2.918975276816622e+03
-1.146960535475899e+03  1.604037497492216e+02 -2.918975276816622e+03
-1.146987723971844e+03  1.582226595563577e+02 -2.918975276816622e+03
-1.147003978787039e+03  1.531211887565329e+02 -2.918975276816622e+03
-1.147000194785144e+03  1.516612459234335e+02 -2.918975276816622e+03
-1.147023172737770e+03  1.499379448684592e+02 -2.918975276816622e+03
-1.147001458957513e+03  1.490852616085662e+02 -2.918975276816622e+03
-1.147037538776671e+03  1.474873089151070e+02 -2.918975276816622e+03
-1.147050624591433e+03  1.463331984033512e+02 -2.918975276816622e+03
-1.147057200196727e+03  1.443290490758412e+02 -2.918975276816622e+03
-1.147038971893146e+03  1.433183928292580e+02 -2.918975276816622e+03
-1.147011607158742e+03  1.409927013273003e+02 -2.918975276816622e+03
-1.147042502002268e+03  1.407760720676775e+02 -2.918975276816622e+03
-1.147070338420322e+03  1.386142731846813e+02 -2.918975276816622e+03
-1.147069132609247e+03  1.370683148251199e+02 -2.918975276816622e+03
-1.147106565161836e+03  1.365759729749143e+02 -2.918975276816622e+03
-1.147105141433061e+03  1.342255571522372e+02 -2.918975276816622e+03
-1.147218487119083e+03  1.330494003225738e+02 -2.918975276816622e+03
-1.147210368775163e+03  1.304614309413599e+02 -2.918975276816622e+03
-1.147300108347613e+03  1.292649483354062e+02 -2.918975276816622e+03
-1.147318839018117e+03  1.275201597652044e+02 -2.918975276816622e+03
-1.147375565054996e+03  1.257657292512902e+02 -2.918975276816622e+03
-1.147471775786518e+03  1.210852171514369e+02 -2.918975276816622e+03
-1.147467750261835e+03  1.201636064376860e+02 -2.918975276816622e+03
-1.147576224265742e+03  1.178123516626249e+02 -2.918975276816622e+03
-1.147565734795674e+03  1.148679765295257e+02 -2.918975276816622e+03
-1.147672557817976e+03  1.128896050767627e+02 -2.918975276816622e+03
-1.147611908347401e+03  1.119947913410621e+02 -2.918975276816622e+03
-1.147726191115149e+03  1.104884339218973e+02 -2.918975276816622e+03
-1.147649079212216e+03  1.095447719929168e+02 -2.918975276816622e+03
-1.147789579170804e+03  1.071768911335958e+02 -2.918975276816622e+03
-1.147681882660979e+03  1.060716101562994e+02 -2.918975276816622e+03
-1.147829007245982e+03  1.046055430285986e+02 -2.918975276816622e+03
-1.147710109437311e+03  1.034337965210985e+02 -2.918975276816622e+03
-1.147885744222575e+03  1.010247954286810e+02 -2.918975276816622e+03
-1.147786707993893e+03  9.992983001073151e+01 -2.918975276816622e+03
-1.147966352071171e+03  9.861331044089079e+01 -2.918975276816622e+03
-1.147832318998979e+03  9.701697554161447e+01 -2.918975276816622e+03
-1.147872226738757e+03  9.516224274565452e+01 -2.918975276816622e+03
-1.147846485384888e+03  9.147633558708900e+01 -2.918975276816622e+03
-1.147969999932742e+03  8.881507044740587e+01 -2.918975276816622e+03
-1.147918274394830e+03  8.564814377050831e+01 -2.918975276816622e+03
-1.147875607505771e+03  8.233870959859927e+01 -2.918975276816622e+03
-1.147877089105514e+03  8.088347637731238e+01 -2.918975276816622e+03
-1.147798088638081e+03  7.896848438227420e+01 -2.918975276816622e+03
-1.147886033304653e+03  7.617920253118493e+01 -2.918975276816622e+03
-1.147724953184853e+03  7.382321259352611e+01 -2.918975276816622e+03
-1.147775840483873e+03  7.168710374281945e+01 -2.918975276816622e+03
-1.147700115659822e+03  7.061132894747654e+01 -2.918975276816622e+03
-1.147777915029160e+03  6.809826810980977e+01 -2.918975276816622e+03
-1.147728164526659e+03  6.741719874164680e+01 -2.918975276816622e+03
-1.147790246932455e+03  6.560714205984881e+01 -2.918975276816622e+03
-1.147797450559703e+03  6.196746037941010e+01 -2.918975276816622e+03
-1.147868034970479e+03  5.510434283513682e+01 -2.918975276816622e+03
-1.147834101512303e+03  5.296516078029588e+01 -2.918975276816622e+03
-1.147994663666963e+03  5.117718933795888e+01 -2.918975276816622e+03
-1.147837852727116e+03  4.951222565102231e+01 -2.918975276816622e+03
-1.148086866434831e+03  4.746657153403805e+01 -2.918975276816622e+03
-1.147813765600678e+03  4.452359670222126e+01 -2.918975276816622e+03
-1.148202457164452e+03  4.239233089990395e+01 -2.918975276816622e+03
-1.147895968648936e+03  4.069165804802930e+01 -2.918975276816622e+03
-1.148181411423424e+03  4.021501020289622e+01 -2.918975276816622e+03
-1.147828858717497e+03  3.797721061379663e+01 -2.918975276816622e+03
-1.148353493289455e+03  3.542908587099693e+01 -2.918975276816622e+03
-1.148085962480844e+03  3.158914335032493e+01 -2.918975276816622e+03
-1.148297740489777e+03  2.900570335785900e+01 -2.918975276816622e+03
-1.148253063923793e+03  2.309541313482881e+01 -2.918975276816622e+03
-1.148260092178052e+03  2.279419461021995e+01 -2.918975276816622e+03
-1.148387048491461e+03  2.118284993741922e+01 -2.918975276816622e+03
-1.148359307399888e+03  2.011758479953246e+01 -2.918975276816622e+03
-1.148450472313351e+03  1.805798628860487e+01 -2.918975276816622e+03
-1.148448535997914e+03  1.658972551385042e+01 -2.918975276816622e+03
-1.148520263170691e+03  1.368666816877122e+01 -2.918975276816622e+03
-1.148554041219956e+03  7.652068468453809e+00 -2.918975276816622e+03
-1.148566846715750e+03  6.176562921690453e+00 -2.918975276816622e+03
-1.148559048900849e+03  5.220862191892509e+00 -2.918975276816622e+03
1.145762025595707e+03 5.235608233268954e-01 2.918975276816622e+03
1.146004980152826e+03 1.698644244238881e-01 2.918975276816622e+03
 1.145834389756365e+03 -9.498548633531048e-01  2.918975276816622e+03
 1.145850889001720e+03 -3.534579636894783e+00  2.918975276816622e+03
 1.145817097210266e+03 -4.449766493117394e+00  2.918975276816622e+03
 1.145766198019056e+03 -8.848417559389331e+00  2.918975276816622e+03
 1.145731337040852e+03 -9.882653352594771e+00  2.918975276816622e+03
 1.145710867039793e+03 -1.177251861481718e+01  2.918975276816622e+03
 1.145651987770186e+03 -1.343461627677429e+01  2.918975276816622e+03
 1.145554375692878e+03 -1.702190542302081e+01  2.918975276816622e+03
 1.145376453084873e+03 -2.154096258078025e+01  2.918975276816622e+03
 1.145285771757298e+03 -2.385526061801035e+01  2.918975276816622e+03
 1.145198145716966e+03 -2.611326469530424e+01  2.918975276816622e+03
 1.145139422724644e+03 -2.776619098684815e+01  2.918975276816622e+03
 1.145061909330004e+03 -2.983295418722433e+01  2.918975276816622e+03
 1.145057341529692e+03 -3.018625754720150e+01  2.918975276816622e+03
 1.145000912802441e+03 -3.182494215117595e+01  2.918975276816622e+03
 1.144962669466811e+03 -3.327878240558861e+01  2.918975276816622e+03
 1.144843929902170e+03 -3.811700607097628e+01  2.918975276816622e+03
 1.144861267389766e+03 -3.923830074254579e+01  2.918975276816622e+03
 1.144758249194833e+03 -4.186279979231590e+01  2.918975276816622e+03
 1.144755456601908e+03 -4.500959706721492e+01  2.918975276816622e+03
 1.144692046333953e+03 -4.553532132013370e+01  2.918975276816622e+03
 1.144801803803556e+03 -4.720833272215303e+01  2.918975276816622e+03
 1.144675433255477e+03 -4.933352027133107e+01  2.918975276816622e+03
 1.144823714111121e+03 -5.039999155437366e+01  2.918975276816622e+03
 1.144664821085442e+03 -5.379470849508950e+01  2.918975276816622e+03
 1.144876369151410e+03 -5.506448946712439e+01  2.918975276816622e+03
 1.144662903800506e+03 -5.634877359687210e+01  2.918975276816622e+03
 1.144911196014889e+03 -5.866599791349315e+01  2.918975276816622e+03
 1.144686682535088e+03 -6.039733366058460e+01  2.918975276816622e+03
 1.144927382463615e+03 -6.240504312948891e+01  2.918975276816622e+03
 1.144753779722743e+03 -6.377848714898838e+01  2.918975276816622e+03
 1.145066490760362e+03 -6.481927459228190e+01  2.918975276816622e+03
 1.144840226930177e+03 -6.543243508024801e+01  2.918975276816622e+03
 1.144869779392388e+03 -6.696038824826485e+01  2.918975276816622e+03
 1.144816698648800e+03 -6.861048940021168e+01  2.918975276816622e+03
 1.144843036953003e+03 -7.029802141780658e+01  2.918975276816622e+03
 1.144842258850267e+03 -7.501162598711515e+01  2.918975276816622e+03
 1.144904684038357e+03 -7.872426268932348e+01  2.918975276816622e+03
 1.144886050927405e+03 -8.070134125606788e+01  2.918975276816622e+03
 1.144959582750298e+03 -8.229339964098965e+01  2.918975276816622e+03
 1.144934828439003e+03 -8.396834718719896e+01  2.918975276816622e+03
 1.145016638025283e+03 -8.500397885664762e+01  2.918975276816622e+03
 1.144991670481453e+03 -8.509706612171834e+01  2.918975276816622e+03
 1.145035455818090e+03 -8.617786525795825e+01  2.918975276816622e+03
 1.144966663457574e+03 -8.722760444400699e+01  2.918975276816622e+03
 1.144997685747127e+03 -8.881687497881029e+01  2.918975276816622e+03
 1.144962710810062e+03 -9.022547423433492e+01  2.918975276816622e+03
 1.144959843357666e+03 -9.472909264213457e+01  2.918975276816622e+03
 1.144987401966471e+03 -9.802701441698606e+01  2.918975276816622e+03
 1.144983532048669e+03 -9.937909108475458e+01  2.918975276816622e+03
 1.145017691601729e+03 -1.017452296152999e+02  2.918975276816622e+03
 1.145037257315510e+03 -1.027942223459585e+02  2.918975276816622e+03
 1.145055920810994e+03 -1.041370064336562e+02  2.918975276816622e+03
 1.145061276187551e+03 -1.042598097182466e+02  2.918975276816622e+03
 1.145040230466480e+03 -1.055299802521488e+02  2.918975276816622e+03
 1.145079072565366e+03 -1.062962217180242e+02  2.918975276816622e+03
 1.144939559869313e+03 -1.075110031355265e+02  2.918975276816622e+03
 1.145006924205862e+03 -1.099084322853505e+02  2.918975276816622e+03
 1.145034430241401e+03 -1.101736275572480e+02  2.918975276816622e+03
 1.144936145142833e+03 -1.145899683494939e+02  2.918975276816622e+03
 1.144929031494833e+03 -1.194329866363857e+02  2.918975276816622e+03
 1.144820785671006e+03 -1.216845194743362e+02  2.918975276816622e+03
 1.144080098899182e+03 -1.233972034926711e+02  2.918975276816622e+03
 1.145085796690664e+03 -1.236409700410910e+02  2.918975276816622e+03
 1.144880297886963e+03 -1.264971147769252e+02  2.918975276816622e+03
 1.145073326473075e+03 -1.287301944076210e+02  2.918975276816622e+03
 1.144995909519549e+03 -1.302037508271965e+02  2.918975276816622e+03
 1.144945501744830e+03 -1.347715735926587e+02  2.918975276816622e+03
 1.144975809095280e+03 -1.379568091330850e+02  2.918975276816622e+03
 1.144900811199597e+03 -1.392611534772539e+02  2.918975276816622e+03
 1.144902145321132e+03 -1.429715116210056e+02  2.918975276816622e+03
 1.144936192266171e+03 -1.448033290733948e+02  2.918975276816622e+03
 1.144937925421943e+03 -1.468190368198914e+02  2.918975276816622e+03
 1.144944429940693e+03 -1.486495912550489e+02  2.918975276816622e+03
 1.144935006802461e+03 -1.502364186855231e+02  2.918975276816622e+03
 1.144913629965145e+03 -1.549133033611471e+02  2.918975276816622e+03
 1.144922624365795e+03 -1.587031610772380e+02  2.918975276816622e+03
 1.144903375312655e+03 -1.605014376561044e+02  2.918975276816622e+03
 1.144930623132327e+03 -1.621563127817871e+02  2.918975276816622e+03
 1.144900428329715e+03 -1.639454242370402e+02  2.918975276816622e+03
 1.144938240734339e+03 -1.651381498548577e+02  2.918975276816622e+03
 1.144914329232121e+03 -1.655731849675454e+02  2.918975276816622e+03
 1.144924641058177e+03 -1.671828539388345e+02  2.918975276816622e+03
 1.144871130911850e+03 -1.686643748094434e+02  2.918975276816622e+03
 1.144872862237960e+03 -1.701609835078508e+02  2.918975276816622e+03
 1.144656713999558e+03 -1.750392631745068e+02  2.918975276816622e+03
 1.144688406599527e+03 -1.785313516818247e+02  2.918975276816622e+03
 1.144581652563376e+03 -1.802781328393992e+02  2.918975276816622e+03
 1.144661210464754e+03 -1.815654564941344e+02  2.918975276816622e+03
 1.144670417313089e+03 -1.856943648064698e+02  2.918975276816622e+03
 1.144774165071677e+03 -1.873589017584788e+02  2.918975276816622e+03
 1.144716710827494e+03 -1.889466375007681e+02  2.918975276816622e+03
 1.144831561600082e+03 -1.902480114899409e+02  2.918975276816622e+03
 1.144839580571927e+03 -1.949415055815242e+02  2.918975276816622e+03
 1.144853370955920e+03 -1.987742128640174e+02  2.918975276816622e+03
 1.144840264602808e+03 -2.029070123058890e+02  2.918975276816622e+03
 1.144859399408108e+03 -2.067943270827587e+02  2.918975276816622e+03
 1.144845134766969e+03 -2.083982600739159e+02  2.918975276816622e+03
 1.144847262114760e+03 -2.101017874065646e+02  2.918975276816622e+03
 1.144828989727766e+03 -2.148037512884416e+02  2.918975276816622e+03
 1.144849130769079e+03 -2.169539146329128e+02  2.918975276816622e+03
 1.144837189714672e+03 -2.186601645259474e+02  2.918975276816622e+03
 1.144773382269726e+03 -2.237479170352080e+02  2.918975276816622e+03
 1.144797900635891e+03 -2.251448939250688e+02  2.918975276816622e+03
 1.144833811137142e+03 -2.288511128490568e+02  2.918975276816622e+03
 1.144766184296077e+03 -2.301677012388676e+02  2.918975276816622e+03
 1.144799208512585e+03 -2.329480530157160e+02  2.918975276816622e+03
 1.144739463032778e+03 -2.341780462904082e+02  2.918975276816622e+03
 1.144808726779332e+03 -2.368041711441064e+02  2.918975276816622e+03
 1.144736657380904e+03 -2.389234373176619e+02  2.918975276816622e+03
 1.144837704230555e+03 -2.413975169859230e+02  2.918975276816622e+03
 1.144691242567364e+03 -2.449674572916214e+02  2.918975276816622e+03
 1.144880844820430e+03 -2.479728904069832e+02  2.918975276816622e+03
 1.144876500842821e+03 -2.489128242376254e+02  2.918975276816622e+03
 1.145158849320635e+03 -2.530943406443832e+02  2.918975276816622e+03
 1.145497399308988e+03 -2.556115074046704e+02  2.918975276816622e+03
 1.144593809363059e+03 -2.576429061480706e+02  2.918975276816622e+03
 1.145084808300050e+03 -2.588724283048713e+02  2.918975276816622e+03
 1.144935752389672e+03 -2.607564375982005e+02  2.918975276816622e+03
 1.144905038695549e+03 -2.658163850920026e+02  2.918975276816622e+03
 1.144956120971584e+03 -2.690411631641835e+02  2.918975276816622e+03
 1.145042647103648e+03 -2.700233174717413e+02  2.918975276816622e+03
 1.145097892838186e+03 -2.727506269403854e+02  2.918975276816622e+03
 1.145068683430607e+03 -2.733927103145424e+02  2.918975276816622e+03
 1.145130596907488e+03 -2.758390769967647e+02  2.918975276816622e+03
 1.145140663374889e+03 -2.785663870560971e+02  2.918975276816622e+03
 1.145140976427982e+03 -2.833282725065790e+02  2.918975276816622e+03
 1.145177817607992e+03 -2.867301044668881e+02  2.918975276816622e+03
 1.145234651498843e+03 -2.885829055507020e+02  2.918975276816622e+03
 1.145159560044246e+03 -2.907339178095898e+02  2.918975276816622e+03
 1.145271185036331e+03 -2.931381943393953e+02  2.918975276816622e+03
 1.145120311760937e+03 -2.950446115388540e+02  2.918975276816622e+03
 1.145337194325773e+03 -2.987581085176076e+02  2.918975276816622e+03
 1.145263898868728e+03 -2.991607547235907e+02  2.918975276816622e+03
 1.145292939928754e+03 -3.026295314415570e+02  2.918975276816622e+03
 1.145245840056019e+03 -3.036265990057669e+02  2.918975276816622e+03
 1.145149367054640e+03 -3.082247878084057e+02  2.918975276816622e+03
 1.145176791295945e+03 -3.101334004532603e+02  2.918975276816622e+03
 1.145038270677495e+03 -3.122746430839964e+02  2.918975276816622e+03
 1.145130442117892e+03 -3.135534772263582e+02  2.918975276816622e+03
 1.144963184018318e+03 -3.149317979602544e+02  2.918975276816622e+03
 1.145066132619216e+03 -3.179581341380138e+02  2.918975276816622e+03
 1.144891183030079e+03 -3.190916823349378e+02  2.918975276816622e+03
 1.145012867969246e+03 -3.215544638674637e+02  2.918975276816622e+03
 1.144830046763714e+03 -3.233714017961905e+02  2.918975276816622e+03
 1.144935698523718e+03 -3.260849212500777e+02  2.918975276816622e+03
 1.144833375473582e+03 -3.263674829510572e+02  2.918975276816622e+03
 1.144959801613850e+03 -3.290212135852553e+02  2.918975276816622e+03
 1.144755130473235e+03 -3.317021891372726e+02  2.918975276816622e+03
 1.144885315437372e+03 -3.343410386638416e+02  2.918975276816622e+03
 1.144677639440112e+03 -3.379390231909214e+02  2.918975276816622e+03
 1.144815711181128e+03 -3.388449837014116e+02  2.918975276816622e+03
 1.144584613330232e+03 -3.406387398259325e+02  2.918975276816622e+03
 1.144808471804850e+03 -3.431239456442406e+02  2.918975276816622e+03
 1.144508917010244e+03 -3.450021678803394e+02  2.918975276816622e+03
 1.144778992906306e+03 -3.487553219038531e+02  2.918975276816622e+03
 1.144418509735293e+03 -3.514015078376768e+02  2.918975276816622e+03
 1.144680645946639e+03 -3.534043644224201e+02  2.918975276816622e+03
 1.144329543703112e+03 -3.571410574495092e+02  2.918975276816622e+03
 1.144549069171944e+03 -3.597015377840330e+02  2.918975276816622e+03
 1.144672777712908e+03 -3.601368893900541e+02  2.918975276816622e+03
 1.144601372597345e+03 -3.619588694659277e+02  2.918975276816622e+03
 1.144695763890868e+03 -3.669004197883776e+02  2.918975276816622e+03
 1.144732680818984e+03 -3.685805969266633e+02  2.918975276816622e+03
 1.144775771205454e+03 -3.713662285238553e+02  2.918975276816622e+03
 1.144789853901432e+03 -3.716975261331397e+02  2.918975276816622e+03
 1.144837025540270e+03 -3.752703365808171e+02  2.918975276816622e+03
 1.144888731353614e+03 -3.778672655853058e+02  2.918975276816622e+03
 1.144923431115732e+03 -3.828988407794490e+02  2.918975276816622e+03
 1.144977442077430e+03 -3.834870672472125e+02  2.918975276816622e+03
1.144993825137998e+03 3.848367707174379e+02 2.918975276816622e+03
1.145026645405243e+03 3.813363629914550e+02 2.918975276816622e+03
1.145074893954804e+03 3.788404250477006e+02 2.918975276816622e+03
1.145043486010160e+03 3.778988819861909e+02 2.918975276816622e+03
1.145097401047766e+03 3.763883981263946e+02 2.918975276816622e+03
1.145079289635442e+03 3.736746087530547e+02 2.918975276816622e+03
1.145112989934326e+03 3.728201614684993e+02 2.918975276816622e+03
1.145109727082821e+03 3.712232665499729e+02 2.918975276816622e+03
1.145166745201445e+03 3.673008665885135e+02 2.918975276816622e+03
1.145176296697716e+03 3.653874913597185e+02 2.918975276816622e+03
1.145162693649421e+03 3.626242218937469e+02 2.918975276816622e+03
1.145253973961373e+03 3.599680181680752e+02 2.918975276816622e+03
1.145236724669133e+03 3.581940923669294e+02 2.918975276816622e+03
1.145308703393235e+03 3.571494468741511e+02 2.918975276816622e+03
1.145250709821031e+03 3.554467189756088e+02 2.918975276816622e+03
1.145406127690891e+03 3.537472597617585e+02 2.918975276816622e+03
1.145350005966946e+03 3.517055448163920e+02 2.918975276816622e+03
1.145488823781498e+03 3.504184124610089e+02 2.918975276816622e+03
1.145470262320003e+03 3.480855183634271e+02 2.918975276816622e+03
1.145632556110613e+03 3.467911983987480e+02 2.918975276816622e+03
1.145568197379157e+03 3.446481243060496e+02 2.918975276816622e+03
1.145689188330191e+03 3.435917853968182e+02 2.918975276816622e+03
1.145632487238391e+03 3.416571988075103e+02 2.918975276816622e+03
1.145811844072738e+03 3.399064755563969e+02 2.918975276816622e+03
1.145792890009522e+03 3.381329621662157e+02 2.918975276816622e+03
1.146029059930452e+03 3.347112745773605e+02 2.918975276816622e+03
1.146174111771365e+03 3.315914852001234e+02 2.918975276816622e+03
1.146522729830928e+03 3.289958335688584e+02 2.918975276816622e+03
1.146513871728584e+03 3.286566927422195e+02 2.918975276816622e+03
1.145976734646187e+03 3.260945845464050e+02 2.918975276816622e+03
1.146233856186263e+03 3.235280410313983e+02 2.918975276816622e+03
1.145818674430226e+03 3.213682278552251e+02 2.918975276816622e+03
1.146014430960347e+03 3.193156858378773e+02 2.918975276816622e+03
1.145816976963825e+03 3.185901720239292e+02 2.918975276816622e+03
1.145982643982762e+03 3.161052155648601e+02 2.918975276816622e+03
1.145728385647020e+03 3.134940982575210e+02 2.918975276816622e+03
1.145883472507112e+03 3.118914106384908e+02 2.918975276816622e+03
1.145800128667466e+03 3.114818226366430e+02 2.918975276816622e+03
1.145848776495742e+03 3.096386508915740e+02 2.918975276816622e+03
1.145743056359475e+03 3.078082485058849e+02 2.918975276816622e+03
1.145763848141919e+03 3.065029166191166e+02 2.918975276816622e+03
1.145731412340561e+03 3.020034938090742e+02 2.918975276816622e+03
1.145722086486784e+03 3.014802397434073e+02 2.918975276816622e+03
1.145727895902838e+03 2.989078729725912e+02 2.918975276816622e+03
1.145688412506927e+03 2.975141388939156e+02 2.918975276816622e+03
1.145679098747603e+03 2.954117371612742e+02 2.918975276816622e+03
1.145653213270763e+03 2.938296087408136e+02 2.918975276816622e+03
1.145635289090339e+03 2.919061065895843e+02 2.918975276816622e+03
1.145563883640543e+03 2.870494836771488e+02 2.918975276816622e+03
1.145520800428074e+03 2.850077958461878e+02 2.918975276816622e+03
1.145480395972372e+03 2.830153841281983e+02 2.918975276816622e+03
1.145447566908841e+03 2.808716650874620e+02 2.918975276816622e+03
1.145297995530812e+03 2.773352377204657e+02 2.918975276816622e+03
1.145269887787671e+03 2.752936356138038e+02 2.918975276816622e+03
1.145105561950517e+03 2.711716011916982e+02 2.918975276816622e+03
1.144955000064052e+03 2.666432761643279e+02 2.918975276816622e+03
1.144951357113132e+03 2.651447001990208e+02 2.918975276816622e+03
1.144757635584561e+03 2.623657215464514e+02 2.918975276816622e+03
1.144738868401684e+03 2.586337773583271e+02 2.918975276816622e+03
1.144719583624801e+03 2.579797381182844e+02 2.918975276816622e+03
1.144662255888580e+03 2.533832670698823e+02 2.918975276816622e+03
1.144625067697092e+03 2.515186526689031e+02 2.918975276816622e+03
1.144642911947790e+03 2.501276412911877e+02 2.918975276816622e+03
1.144595713303558e+03 2.486526747579278e+02 2.918975276816622e+03
1.144753076037592e+03 2.470731133052096e+02 2.918975276816622e+03
1.144527918921218e+03 2.457576975842858e+02 2.918975276816622e+03
1.144596641640051e+03 2.445300466177898e+02 2.918975276816622e+03
1.144556656285422e+03 2.429161517974689e+02 2.918975276816622e+03
1.144627681578891e+03 2.420926933856904e+02 2.918975276816622e+03
1.144654511857271e+03 2.402807236615756e+02 2.918975276816622e+03
1.144748326215898e+03 2.355624935105125e+02 2.918975276816622e+03
1.144785416700780e+03 2.339626280146452e+02 2.918975276816622e+03
1.144838257795515e+03 2.313420015527625e+02 2.918975276816622e+03
1.144913826214570e+03 2.285675960865770e+02 2.918975276816622e+03
1.144929987621967e+03 2.274109600765488e+02 2.918975276816622e+03
1.144962591556027e+03 2.262933942658787e+02 2.918975276816622e+03
1.144956823245844e+03 2.238510583747239e+02 2.918975276816622e+03
1.145008100116268e+03 2.218293330264126e+02 2.918975276816622e+03
1.145039866071559e+03 2.202240021382959e+02 2.918975276816622e+03
1.145089453393862e+03 2.158149695826989e+02 2.918975276816622e+03
1.145161705969224e+03 2.127307958766899e+02 2.918975276816622e+03
1.145156541353217e+03 2.111952196634588e+02 2.918975276816622e+03
1.145192711238775e+03 2.087039981517682e+02 2.918975276816622e+03
1.145158479579328e+03 2.076889738686190e+02 2.918975276816622e+03
1.145303920554203e+03 2.062486077393520e+02 2.918975276816622e+03
1.145223974899429e+03 2.060475962268573e+02 2.918975276816622e+03
1.145346204474368e+03 2.046418456923425e+02 2.918975276816622e+03
1.145239637779791e+03 2.039753966496999e+02 2.918975276816622e+03
1.145333495701505e+03 2.026379544899418e+02 2.918975276816622e+03
1.145196106705427e+03 2.013397244604633e+02 2.918975276816622e+03
1.145254226651858e+03 2.002649935901070e+02 2.918975276816622e+03
1.145187599848510e+03 1.954309595207775e+02 2.918975276816622e+03
1.145196726437559e+03 1.921963299010348e+02 2.918975276816622e+03
1.145156718915155e+03 1.879809301785548e+02 2.918975276816622e+03
1.145165322046580e+03 1.863279359730571e+02 2.918975276816622e+03
1.145101390193425e+03 1.836199119600174e+02 2.918975276816622e+03
1.145149242363552e+03 1.816609310319463e+02 2.918975276816622e+03
1.145184074885943e+03 1.803926667418717e+02 2.918975276816622e+03
1.145007635574203e+03 1.757335480662042e+02 2.918975276816622e+03
1.145040952446241e+03 1.729079412656118e+02 2.918975276816622e+03
1.144802680879282e+03 1.712876567921583e+02 2.918975276816622e+03
1.144935313903234e+03 1.686427064254013e+02 2.918975276816622e+03
1.144660935341154e+03 1.679758131610739e+02 2.918975276816622e+03
1.145006897972457e+03 1.668040952383554e+02 2.918975276816622e+03
1.144519102302998e+03 1.657747199774474e+02 2.918975276816622e+03
1.144845831778588e+03 1.645382918541070e+02 2.918975276816622e+03
1.144071560696259e+03 1.637920939136940e+02 2.918975276816622e+03
1.144512751732585e+03 1.627056285649538e+02 2.918975276816622e+03
1.144741341282486e+03 1.566825640806162e+02 2.918975276816622e+03
1.144870305696995e+03 1.540706972395153e+02 2.918975276816622e+03
1.144011376595575e+03 1.515274902885700e+02 2.918975276816622e+03
1.145076091495893e+03 1.472864183001338e+02 2.918975276816622e+03
1.145325020162619e+03 1.460731685270923e+02 2.918975276816622e+03
1.145602257970497e+03 1.450650937223406e+02 2.918975276816622e+03
1.145580527459725e+03 1.449886568962070e+02 2.918975276816622e+03
1.145370253873094e+03 1.438709425260522e+02 2.918975276816622e+03
1.145176346176629e+03 1.418407267684156e+02 2.918975276816622e+03
1.145098095599030e+03 1.404158147106755e+02 2.918975276816622e+03
1.144945048890198e+03 1.360112275053610e+02 2.918975276816622e+03
1.144957788832571e+03 1.329136040603315e+02 2.918975276816622e+03
1.144899798107924e+03 1.312809004340994e+02 2.918975276816622e+03
1.144970513958612e+03 1.289155692490608e+02 2.918975276816622e+03
1.144931699770239e+03 1.277941964114039e+02 2.918975276816622e+03
1.145020461580149e+03 1.264611947471191e+02 2.918975276816622e+03
1.145007348832180e+03 1.262943332091297e+02 2.918975276816622e+03
1.145102898478865e+03 1.249983807191568e+02 2.918975276816622e+03
1.145093868884278e+03 1.249672054450003e+02 2.918975276816622e+03
1.144986396174941e+03 1.236533606899723e+02 2.918975276816622e+03
1.144836030148512e+03 1.219717123681491e+02 2.918975276816622e+03
1.144773768001561e+03 1.204845988666569e+02 2.918975276816622e+03
1.144626011375543e+03 1.158926653859849e+02 2.918975276816622e+03
1.144507041322997e+03 1.123760401160471e+02 2.918975276816622e+03
1.144489592913121e+03 1.106820895521151e+02 2.918975276816622e+03
1.144643179533129e+03 1.091508882015373e+02 2.918975276816622e+03
1.144637346984247e+03 1.069923414804313e+02 2.918975276816622e+03
1.144801943386783e+03 1.053169920493261e+02 2.918975276816622e+03
1.144914792547440e+03 1.020265500928595e+02 2.918975276816622e+03
1.145167831447620e+03 1.006344728810987e+02 2.918975276816622e+03
1.145398629865057e+03 9.563842981405432e+01 2.918975276816622e+03
1.145486023323828e+03 9.378005399969052e+01 2.918975276816622e+03
1.146033594665649e+03 8.353309564220632e+01 2.918975276816622e+03
1.146219497405954e+03 8.033781708707527e+01 2.918975276816622e+03
1.146387343523594e+03 8.024427458272019e+01 2.918975276816622e+03
1.146394900641797e+03 7.785802273379828e+01 2.918975276816622e+03
1.146543306984985e+03 7.578526716125849e+01 2.918975276816622e+03
1.147076422538480e+03 7.021501947303010e+01 2.918975276816622e+03
1.145853580764519e+03 6.825170484213778e+01 2.918975276816622e+03
1.147403368532965e+03 6.726243287751667e+01 2.918975276816622e+03
1.146738429210803e+03 6.190067317225595e+01 2.918975276816622e+03
1.147406444445587e+03 5.757665328511948e+01 2.918975276816622e+03
1.147161989923191e+03 5.699442444235231e+01 2.918975276816622e+03
1.146490289856952e+03 5.499727880647003e+01 2.918975276816622e+03
1.146802547113910e+03 5.308512646189579e+01 2.918975276816622e+03
1.146233923559055e+03 5.052924321083464e+01 2.918975276816622e+03
1.146294830206074e+03 4.933577936750300e+01 2.918975276816622e+03
1.146124097059962e+03 4.776323880285700e+01 2.918975276816622e+03
1.146149207044861e+03 4.701714166528321e+01 2.918975276816622e+03
1.146149517291784e+03 4.421977666756107e+01 2.918975276816622e+03
1.146021575015346e+03 4.242466700651133e+01 2.918975276816622e+03
1.146098302406254e+03 4.186772789341505e+01 2.918975276816622e+03
1.146025030673867e+03 4.028604519132828e+01 2.918975276816622e+03
1.146121519806294e+03 3.821821708142930e+01 2.918975276816622e+03
1.146045851067550e+03 3.606132633972891e+01 2.918975276816622e+03
1.146115069378787e+03 3.385100758118645e+01 2.918975276816622e+03
1.146173205855459e+03 2.914624932942043e+01 2.918975276816622e+03
1.146199160540346e+03 2.724522667224764e+01 2.918975276816622e+03
1.146175118475226e+03 2.362199570284900e+01 2.918975276816622e+03
1.146265393333317e+03 2.074340306151163e+01 2.918975276816622e+03
1.146268349203898e+03 1.747806609379519e+01 2.918975276816622e+03
1.146191150874979e+03 1.291763946871094e+01 2.918975276816622e+03
1.146217277772501e+03 1.087446501685763e+01 2.918975276816622e+03
1.146210870787069e+03 9.864551591276081e+00 2.918975276816622e+03
1.146091356444283e+03 7.788167590376417e+00 2.918975276816622e+03
1.146063791452377e+03 4.498166444894792e+00 2.918975276816622e+03
1.145830393497943e+03 2.830742967906167e+00 2.918975276816622e+03
-1.157505108457467e+03  1.136437200568430e+00 -2.918975276816622e+03
-1.157428613323285e+03 -5.927499711892450e+00 -2.918975276816622e+03
-1.157349969228361e+03 -1.050019268969184e+01 -2.918975276816622e+03
-1.157373463126187e+03 -1.061902633520231e+01 -2.918975276816622e+03
-1.157491769266672e+03 -1.381452447634942e+01 -2.918975276816622e+03
-1.157493837189697e+03 -1.490460638996684e+01 -2.918975276816622e+03
-1.157540435305497e+03 -1.683046496853168e+01 -2.918975276816622e+03
-1.157689787654619e+03 -2.149479581362349e+01 -2.918975276816622e+03
-1.157484224506129e+03 -2.216400950332729e+01 -2.918975276816622e+03
-1.157462385073617e+03 -2.578188993318110e+01 -2.918975276816622e+03
-1.157375509626299e+03 -2.846644296366288e+01 -2.918975276816622e+03
-1.157169503749416e+03 -3.287741691295030e+01 -2.918975276816622e+03
-1.157176652958594e+03 -3.442629151066974e+01 -2.918975276816622e+03
-1.157058096563074e+03 -3.594087456672390e+01 -2.918975276816622e+03
-1.157080455195964e+03 -3.712637382519113e+01 -2.918975276816622e+03
-1.156901512444163e+03 -4.048382847525843e+01 -2.918975276816622e+03
-1.157053016525095e+03 -4.125342079396160e+01 -2.918975276816622e+03
-1.156760725980049e+03 -4.356966645382900e+01 -2.918975276816622e+03
-1.156855797502799e+03 -4.526568667635932e+01 -2.918975276816622e+03
-1.156764476595941e+03 -4.566106212570028e+01 -2.918975276816622e+03
-1.156852779074025e+03 -4.738886451459443e+01 -2.918975276816622e+03
-1.156691092109543e+03 -4.961979142539224e+01 -2.918975276816622e+03
-1.156775372996741e+03 -5.034277308132867e+01 -2.918975276816622e+03
-1.156639044469980e+03 -5.216412896900491e+01 -2.918975276816622e+03
-1.156698674293458e+03 -5.514288937636178e+01 -2.918975276816622e+03
-1.156632838642003e+03 -5.623626032572605e+01 -2.918975276816622e+03
-1.156673514756882e+03 -5.865404854002200e+01 -2.918975276816622e+03
-1.156632804480157e+03 -6.047363798777805e+01 -2.918975276816622e+03
-1.156661421512694e+03 -6.139918676626382e+01 -2.918975276816622e+03
-1.156642920640941e+03 -6.359502642118511e+01 -2.918975276816622e+03
-1.156658907641892e+03 -6.486912157030002e+01 -2.918975276816622e+03
-1.156642323505362e+03 -6.579594791749192e+01 -2.918975276816622e+03
-1.156663713272353e+03 -6.745259183227807e+01 -2.918975276816622e+03
-1.156666840336065e+03 -6.993778226977554e+01 -2.918975276816622e+03
-1.156649434466860e+03 -7.048086843992122e+01 -2.918975276816622e+03
-1.156674875747085e+03 -7.198268598249368e+01 -2.918975276816622e+03
-1.156629600202810e+03 -7.331379165653334e+01 -2.918975276816622e+03
-1.156676184176052e+03 -7.528514298425254e+01 -2.918975276816622e+03
-1.156619684855882e+03 -7.615787556749623e+01 -2.918975276816622e+03
-1.156664002865651e+03 -7.680258735768716e+01 -2.918975276816622e+03
-1.156605946659554e+03 -7.865479034069968e+01 -2.918975276816622e+03
-1.156647829076380e+03 -8.043055556980910e+01 -2.918975276816622e+03
-1.156607702608799e+03 -8.127705750518000e+01 -2.918975276816622e+03
-1.156638372373024e+03 -8.345354833995714e+01 -2.918975276816622e+03
-1.156606695427400e+03 -8.486058299260954e+01 -2.918975276816622e+03
-1.156612194336692e+03 -8.593025264752643e+01 -2.918975276816622e+03
-1.156603757569521e+03 -8.732271138582065e+01 -2.918975276816622e+03
-1.156566545858008e+03 -8.971498514137392e+01 -2.918975276816622e+03
-1.156587820087351e+03 -9.052756009919801e+01 -2.918975276816622e+03
-1.156529944469025e+03 -9.204176987813823e+01 -2.918975276816622e+03
-1.156565910786662e+03 -9.527995769783365e+01 -2.918975276816622e+03
-1.156479909074346e+03 -9.651775915899448e+01 -2.918975276816622e+03
-1.156554008498006e+03 -9.895017371241231e+01 -2.918975276816622e+03
-1.156419453995470e+03 -1.012102596649569e+02 -2.918975276816622e+03
-1.156476381744752e+03 -1.013851443179297e+02 -2.918975276816622e+03
-1.156370009501890e+03 -1.035846573091276e+02 -2.918975276816622e+03
-1.156431545600592e+03 -1.052750088427435e+02 -2.918975276816622e+03
-1.156374738803115e+03 -1.065899279123803e+02 -2.918975276816622e+03
-1.156402773079156e+03 -1.071447898529109e+02 -2.918975276816622e+03
-1.156370935888116e+03 -1.095378999122769e+02 -2.918975276816622e+03
-1.156373228245592e+03 -1.108371439495866e+02 -2.918975276816622e+03
-1.156358646978947e+03 -1.128244497417064e+02 -2.918975276816622e+03
-1.156419558933608e+03 -1.134637529317590e+02 -2.918975276816622e+03
-1.156384021712198e+03 -1.182508196271736e+02 -2.918975276816622e+03
-1.156353273352270e+03 -1.204088683312873e+02 -2.918975276816622e+03
-1.156377918059048e+03 -1.212047587937988e+02 -2.918975276816622e+03
-1.156357550183369e+03 -1.234227721661189e+02 -2.918975276816622e+03
-1.156397213543401e+03 -1.247098869144583e+02 -2.918975276816622e+03
-1.156365046076670e+03 -1.258500436941228e+02 -2.918975276816622e+03
-1.156418345985508e+03 -1.273478421456214e+02 -2.918975276816622e+03
-1.156373099106889e+03 -1.298220254639894e+02 -2.918975276816622e+03
-1.156441126592982e+03 -1.315308656496483e+02 -2.918975276816622e+03
-1.156396549738671e+03 -1.324505466866894e+02 -2.918975276816622e+03
-1.156453596998792e+03 -1.332858268014511e+02 -2.918975276816622e+03
-1.156414090813704e+03 -1.351462635857694e+02 -2.918975276816622e+03
-1.156465681741751e+03 -1.362160262246846e+02 -2.918975276816622e+03
-1.156451207013246e+03 -1.385010276695211e+02 -2.918975276816622e+03
-1.156496803281722e+03 -1.403423238469532e+02 -2.918975276816622e+03
-1.156488243905555e+03 -1.413062266930974e+02 -2.918975276816622e+03
-1.156556320229261e+03 -1.434306976714223e+02 -2.918975276816622e+03
-1.156510451352807e+03 -1.448176677318911e+02 -2.918975276816622e+03
-1.156621617692228e+03 -1.458812349528764e+02 -2.918975276816622e+03
-1.156522374042189e+03 -1.476600582056107e+02 -2.918975276816622e+03
-1.156687950272427e+03 -1.515727398906034e+02 -2.918975276816622e+03
-1.156529519250731e+03 -1.549200129336063e+02 -2.918975276816622e+03
-1.156713704613174e+03 -1.561037740346531e+02 -2.918975276816622e+03
-1.156486733570754e+03 -1.586025278248120e+02 -2.918975276816622e+03
-1.156758015649683e+03 -1.604899323309610e+02 -2.918975276816622e+03
-1.156728077499047e+03 -1.611269452962711e+02 -2.918975276816622e+03
-1.156866265557777e+03 -1.633603383491329e+02 -2.918975276816622e+03
-1.156788858929544e+03 -1.645518026951737e+02 -2.918975276816622e+03
-1.156864727989842e+03 -1.661223864412462e+02 -2.918975276816622e+03
-1.156636756312463e+03 -1.674639888960602e+02 -2.918975276816622e+03
-1.156777183877602e+03 -1.701465197788788e+02 -2.918975276816622e+03
-1.156568625024184e+03 -1.722086481432808e+02 -2.918975276816622e+03
-1.156678894804734e+03 -1.731135448005546e+02 -2.918975276816622e+03
-1.156947093475309e+03 -1.770695489464004e+02 -2.918975276816622e+03
-1.157285695351375e+03 -1.822791612224987e+02 -2.918975276816622e+03
-1.157098265105194e+03 -1.844636738650199e+02 -2.918975276816622e+03
-1.157438838867246e+03 -1.857490594574958e+02 -2.918975276816622e+03
-1.157178103960250e+03 -1.868710780046071e+02 -2.918975276816622e+03
-1.157419158871320e+03 -1.894809260486242e+02 -2.918975276816622e+03
-1.157203453666909e+03 -1.914785583997920e+02 -2.918975276816622e+03
-1.157122845379854e+03 -1.949342157038329e+02 -2.918975276816622e+03
-1.157018877946208e+03 -1.973364998767325e+02 -2.918975276816622e+03
-1.157025749375650e+03 -1.985286005290633e+02 -2.918975276816622e+03
-1.157010631495440e+03 -2.003187330727641e+02 -2.918975276816622e+03
-1.157003467295920e+03 -2.008897250012705e+02 -2.918975276816622e+03
-1.157003694635091e+03 -2.031972488932249e+02 -2.918975276816622e+03
-1.156994281832405e+03 -2.044904233433618e+02 -2.918975276816622e+03
-1.156977481765600e+03 -2.055354771653151e+02 -2.918975276816622e+03
-1.156974255826148e+03 -2.071978208076304e+02 -2.918975276816622e+03
-1.156925957927627e+03 -2.095790912084501e+02 -2.918975276816622e+03
-1.156954907461498e+03 -2.108488141329524e+02 -2.918975276816622e+03
-1.156899743227525e+03 -2.123414758426159e+02 -2.918975276816622e+03
-1.156940869605152e+03 -2.152712248111014e+02 -2.918975276816622e+03
-1.156899771414395e+03 -2.158145321522226e+02 -2.918975276816622e+03
-1.156947297074106e+03 -2.184055933537615e+02 -2.918975276816622e+03
-1.156904401667395e+03 -2.207622736733350e+02 -2.918975276816622e+03
-1.156912959353790e+03 -2.209311808987614e+02 -2.918975276816622e+03
-1.156867273917157e+03 -2.231837142590961e+02 -2.918975276816622e+03
-1.156841163023684e+03 -2.247488634219969e+02 -2.918975276816622e+03
-1.156833884222105e+03 -2.258146557780694e+02 -2.918975276816622e+03
-1.156802421216372e+03 -2.272158422958128e+02 -2.918975276816622e+03
-1.156774617794675e+03 -2.297113321207721e+02 -2.918975276816622e+03
-1.156781322827895e+03 -2.312200676231192e+02 -2.918975276816622e+03
-1.156751804877961e+03 -2.318688128131970e+02 -2.918975276816622e+03
-1.156752477224177e+03 -2.409883552132460e+02 -2.918975276816622e+03
-1.156590634583405e+03 -2.439986576019548e+02 -2.918975276816622e+03
-1.156897556588755e+03 -2.466772100983068e+02 -2.918975276816622e+03
-1.156605666490643e+03 -2.489344321155594e+02 -2.918975276816622e+03
-1.156864336071267e+03 -2.497833421156042e+02 -2.918975276816622e+03
-1.156595888799573e+03 -2.516724872921249e+02 -2.918975276816622e+03
-1.156792142697530e+03 -2.544063523960454e+02 -2.918975276816622e+03
-1.156577192277573e+03 -2.563967581799393e+02 -2.918975276816622e+03
-1.156728178045132e+03 -2.602303576086956e+02 -2.918975276816622e+03
-1.156510829365296e+03 -2.610626483481292e+02 -2.918975276816622e+03
-1.156788201601528e+03 -2.629355184196571e+02 -2.918975276816622e+03
-1.156500304488218e+03 -2.647052920334232e+02 -2.918975276816622e+03
-1.156899891991670e+03 -2.665027574822370e+02 -2.918975276816622e+03
-1.156462636483953e+03 -2.677584570863675e+02 -2.918975276816622e+03
-1.156907243938663e+03 -2.689108194233901e+02 -2.918975276816622e+03
-1.156414276407941e+03 -2.702906009561384e+02 -2.918975276816622e+03
-1.156858656524696e+03 -2.718031121517092e+02 -2.918975276816622e+03
-1.156368200994481e+03 -2.733771356724665e+02 -2.918975276816622e+03
-1.156809925091572e+03 -2.752697250858798e+02 -2.918975276816622e+03
-1.156367739952907e+03 -2.765241558439680e+02 -2.918975276816622e+03
-1.156804342442762e+03 -2.776369174240252e+02 -2.918975276816622e+03
-1.156423965469235e+03 -2.797350552125542e+02 -2.918975276816622e+03
-1.156858728117226e+03 -2.819988482705061e+02 -2.918975276816622e+03
-1.156508181566799e+03 -2.861361417796270e+02 -2.918975276816622e+03
-1.156945268623957e+03 -2.884510525687239e+02 -2.918975276816622e+03
-1.156610640653146e+03 -2.894269378887678e+02 -2.918975276816622e+03
-1.156972789082308e+03 -2.933749298068752e+02 -2.918975276816622e+03
-1.156650479354361e+03 -2.949423667716517e+02 -2.918975276816622e+03
-1.156993553943811e+03 -2.987834518864178e+02 -2.918975276816622e+03
-1.156782295785745e+03 -2.987974897279395e+02 -2.918975276816622e+03
-1.156958341199417e+03 -3.011019765702019e+02 -2.918975276816622e+03
-1.156877615242695e+03 -3.018375421785793e+02 -2.918975276816622e+03
-1.156965783554886e+03 -3.039510749855780e+02 -2.918975276816622e+03
-1.156876761801537e+03 -3.053535760439905e+02 -2.918975276816622e+03
-1.156930770674195e+03 -3.075453866510951e+02 -2.918975276816622e+03
-1.156852037870349e+03 -3.095642028834100e+02 -2.918975276816622e+03
-1.156809980986008e+03 -3.152460073685488e+02 -2.918975276816622e+03
-1.156735409543932e+03 -3.172636526605972e+02 -2.918975276816622e+03
-1.156807612295989e+03 -3.189405936254406e+02 -2.918975276816622e+03
-1.156636001322421e+03 -3.203519616173731e+02 -2.918975276816622e+03
-1.156831011415688e+03 -3.218155114464421e+02 -2.918975276816622e+03
-1.156610616062607e+03 -3.235681204286803e+02 -2.918975276816622e+03
-1.156829541679216e+03 -3.243306368728215e+02 -2.918975276816622e+03
-1.156565375329016e+03 -3.261781212494945e+02 -2.918975276816622e+03
-1.156840096389167e+03 -3.269455716665790e+02 -2.918975276816622e+03
-1.156621504255739e+03 -3.288912081170462e+02 -2.918975276816622e+03
-1.156782363726567e+03 -3.299733664081890e+02 -2.918975276816622e+03
-1.156693674763365e+03 -3.312512197616068e+02 -2.918975276816622e+03
-1.156783639817891e+03 -3.347728871778394e+02 -2.918975276816622e+03
-1.156632710928035e+03 -3.353907874110440e+02 -2.918975276816622e+03
-1.156718274406055e+03 -3.365318595672799e+02 -2.918975276816622e+03
-1.156555255668663e+03 -3.385202034802131e+02 -2.918975276816622e+03
-1.156681161062741e+03 -3.413935140205736e+02 -2.918975276816622e+03
-1.156508721491588e+03 -3.428150705256649e+02 -2.918975276816622e+03
-1.156640891942889e+03 -3.441327808680095e+02 -2.918975276816622e+03
-1.156558977745838e+03 -3.485171317404817e+02 -2.918975276816622e+03
-1.156360949110125e+03 -3.485470852796593e+02 -2.918975276816622e+03
-1.156605697392601e+03 -3.532851501368549e+02 -2.918975276816622e+03
-1.156692929070811e+03 -3.575639816600103e+02 -2.918975276816622e+03
-1.156658633477662e+03 -3.586997790437086e+02 -2.918975276816622e+03
-1.156741136336688e+03 -3.622795202333945e+02 -2.918975276816622e+03
-1.156721951197677e+03 -3.629146224406857e+02 -2.918975276816622e+03
-1.156765581695366e+03 -3.647371502099766e+02 -2.918975276816622e+03
-1.156749496704570e+03 -3.672142439595158e+02 -2.918975276816622e+03
-1.156819591297231e+03 -3.710763026455190e+02 -2.918975276816622e+03
-1.156796823260862e+03 -3.725505021359813e+02 -2.918975276816622e+03
-1.156848293729490e+03 -3.741885835933757e+02 -2.918975276816622e+03
-1.156838649979690e+03 -3.768219060235049e+02 -2.918975276816622e+03
-1.156870021913997e+03 -3.776527027376943e+02 -2.918975276816622e+03
-1.156861843503646e+03 -3.798916351585301e+02 -2.918975276816622e+03
-1.156877151130579e+03 -3.803176545600261e+02 -2.918975276816622e+03
-1.156874806001147e+03 -3.825129125713739e+02 -2.918975276816622e+03
-1.156902220699708e+03 -3.861309600675132e+02 -2.918975276816622e+03
-1.156922785715372e+03  3.832697074844563e+02 -2.918975276816622e+03
-1.156927863235410e+03  3.822491747086418e+02 -2.918975276816622e+03
-1.156943760220147e+03  3.786451676492345e+02 -2.918975276816622e+03
-1.156954493811930e+03  3.775412292578101e+02 -2.918975276816622e+03
-1.156954914412628e+03  3.765463442603228e+02 -2.918975276816622e+03
-1.156970184317021e+03  3.736107824681201e+02 -2.918975276816622e+03
-1.156975302810190e+03  3.694453504878242e+02 -2.918975276816622e+03
-1.156988071016119e+03  3.642202404722864e+02 -2.918975276816622e+03
-1.156995961560300e+03  3.601311047926023e+02 -2.918975276816622e+03
-1.157005962447747e+03  3.563751606574783e+02 -2.918975276816622e+03
-1.157005836243079e+03  3.553069525920128e+02 -2.918975276816622e+03
-1.156999848198955e+03  3.532501064131131e+02 -2.918975276816622e+03
-1.156989990390572e+03  3.470794646007414e+02 -2.918975276816622e+03
-1.156964710728435e+03  3.433296252900703e+02 -2.918975276816622e+03
-1.156935134580814e+03  3.380627579120523e+02 -2.918975276816622e+03
-1.156917021641861e+03  3.353812894377978e+02 -2.918975276816622e+03
-1.156863500171930e+03  3.276281643676996e+02 -2.918975276816622e+03
-1.156847012634547e+03  3.263565752368751e+02 -2.918975276816622e+03
-1.156838555249331e+03  3.242107712965550e+02 -2.918975276816622e+03
-1.156809374785709e+03  3.217157092857228e+02 -2.918975276816622e+03
-1.156807449965977e+03  3.202294629765634e+02 -2.918975276816622e+03
-1.156782271007573e+03  3.177834020941638e+02 -2.918975276816622e+03
-1.156736693310608e+03  3.125520961037361e+02 -2.918975276816622e+03
-1.156712604032891e+03  3.105011273639358e+02 -2.918975276816622e+03
-1.156699155643809e+03  3.076791221036527e+02 -2.918975276816622e+03
-1.156689788559009e+03  3.026569052719950e+02 -2.918975276816622e+03
-1.156406938483046e+03  3.024558180722298e+02 -2.918975276816622e+03
-1.156746161525050e+03  2.978320388038184e+02 -2.918975276816622e+03
-1.156664115310494e+03  2.954403096297038e+02 -2.918975276816622e+03
-1.156972606937014e+03  2.943798986559214e+02 -2.918975276816622e+03
-1.156797474510851e+03  2.918565610980940e+02 -2.918975276816622e+03
-1.157223902293068e+03  2.901885766233794e+02 -2.918975276816622e+03
-1.157136801915628e+03  2.889615923114852e+02 -2.918975276816622e+03
-1.157486992059404e+03  2.890488024608161e+02 -2.918975276816622e+03
-1.157191002821786e+03  2.880228975389743e+02 -2.918975276816622e+03
-1.157103528023193e+03  2.865808264228572e+02 -2.918975276816622e+03
-1.156980681901538e+03  2.843879679171966e+02 -2.918975276816622e+03
-1.156950051910801e+03  2.820327719325998e+02 -2.918975276816622e+03
-1.156749698044839e+03  2.780109280362337e+02 -2.918975276816622e+03
-1.156779139766391e+03  2.777081183631578e+02 -2.918975276816622e+03
-1.156715487051998e+03  2.753550891134166e+02 -2.918975276816622e+03
-1.156775977213857e+03  2.740288827437651e+02 -2.918975276816622e+03
-1.156699589650747e+03  2.717387337500801e+02 -2.918975276816622e+03
-1.156766764486232e+03  2.711574274511540e+02 -2.918975276816622e+03
-1.156665806173459e+03  2.695853337315623e+02 -2.918975276816622e+03
-1.156795571406348e+03  2.661439181591525e+02 -2.918975276816622e+03
-1.156663843086411e+03  2.648773948572438e+02 -2.918975276816622e+03
-1.156842806037073e+03  2.627197841059893e+02 -2.918975276816622e+03
-1.156671323053681e+03  2.607524211244616e+02 -2.918975276816622e+03
-1.156846433060051e+03  2.600016281780124e+02 -2.918975276816622e+03
-1.156656062208754e+03  2.577148956761698e+02 -2.918975276816622e+03
-1.156875829107071e+03  2.568233273928720e+02 -2.918975276816622e+03
-1.156649265863163e+03  2.551884997391323e+02 -2.918975276816622e+03
-1.156901959723399e+03  2.540646263763113e+02 -2.918975276816622e+03
-1.156706182668125e+03  2.515533577726473e+02 -2.918975276816622e+03
-1.157015097667738e+03  2.501782628475767e+02 -2.918975276816622e+03
-1.156902548534010e+03  2.499540765318359e+02 -2.918975276816622e+03
-1.156894538085238e+03  2.473525089795533e+02 -2.918975276816622e+03
-1.156699157875804e+03  2.459952128444649e+02 -2.918975276816622e+03
-1.156753451437361e+03  2.443032998910792e+02 -2.918975276816622e+03
-1.156636680649819e+03  2.431121728503551e+02 -2.918975276816622e+03
-1.156634405658516e+03  2.409085396771326e+02 -2.918975276816622e+03
-1.156588015818573e+03  2.400835017574556e+02 -2.918975276816622e+03
-1.156559987146991e+03  2.385304910789586e+02 -2.918975276816622e+03
-1.156500598067553e+03  2.353322223170551e+02 -2.918975276816622e+03
-1.156456994023783e+03  2.341373435993111e+02 -2.918975276816622e+03
-1.156461388201416e+03  2.317106585663712e+02 -2.918975276816622e+03
-1.156375067147647e+03  2.298877237821602e+02 -2.918975276816622e+03
-1.156413585914541e+03  2.292337602215339e+02 -2.918975276816622e+03
-1.156308044666713e+03  2.269998271650257e+02 -2.918975276816622e+03
-1.156379675074884e+03  2.257262704104027e+02 -2.918975276816622e+03
-1.156287419282225e+03  2.249154220314759e+02 -2.918975276816622e+03
-1.156355600348198e+03  2.233033225827824e+02 -2.918975276816622e+03
-1.156199500030169e+03  2.207479873604578e+02 -2.918975276816622e+03
-1.156293868260117e+03  2.197956596297115e+02 -2.918975276816622e+03
-1.156169303421950e+03  2.184487045071164e+02 -2.918975276816622e+03
-1.156241369560693e+03  2.154034539558209e+02 -2.918975276816622e+03
-1.156136666441637e+03  2.142143385789327e+02 -2.918975276816622e+03
-1.156245787275442e+03  2.119792538110730e+02 -2.918975276816622e+03
-1.156105544224770e+03  2.100089175699408e+02 -2.918975276816622e+03
-1.156237866934312e+03  2.091546422579464e+02 -2.918975276816622e+03
-1.156141130952047e+03  2.070587713713606e+02 -2.918975276816622e+03
-1.156212925274694e+03  2.053863391122727e+02 -2.918975276816622e+03
-1.156095644579328e+03  2.044639386980382e+02 -2.918975276816622e+03
-1.156193687975691e+03  2.033383375040411e+02 -2.918975276816622e+03
-1.156128391272705e+03  2.008685077138008e+02 -2.918975276816622e+03
-1.156106320993593e+03  1.999114526624640e+02 -2.918975276816622e+03
-1.156111417748702e+03  1.980180647524983e+02 -2.918975276816622e+03
-1.156010398624225e+03  1.949601858872072e+02 -2.918975276816622e+03
-1.156034544270582e+03  1.901160491148920e+02 -2.918975276816622e+03
-1.156234290010630e+03  1.892825394911802e+02 -2.918975276816622e+03
-1.156019333026573e+03  1.872298628673942e+02 -2.918975276816622e+03
-1.156214588906980e+03  1.859327599175267e+02 -2.918975276816622e+03
-1.156062682250642e+03  1.845261232009746e+02 -2.918975276816622e+03
-1.156228901341336e+03  1.832015959945084e+02 -2.918975276816622e+03
-1.156106079797503e+03  1.808849186434785e+02 -2.918975276816622e+03
-1.156164017789758e+03  1.802602429679157e+02 -2.918975276816622e+03
-1.156079390789996e+03  1.787136789118901e+02 -2.918975276816622e+03
-1.156131355378094e+03  1.753726304820000e+02 -2.918975276816622e+03
-1.156072388055325e+03  1.743599433548298e+02 -2.918975276816622e+03
-1.156122292561212e+03  1.719349768017447e+02 -2.918975276816622e+03
-1.156124717287476e+03  1.701085097020278e+02 -2.918975276816622e+03
-1.156108751929176e+03  1.691554662042415e+02 -2.918975276816622e+03
-1.156170777583287e+03  1.671017357308373e+02 -2.918975276816622e+03
-1.156122676686292e+03  1.657530228815788e+02 -2.918975276816622e+03
-1.156177449634107e+03  1.646366090527793e+02 -2.918975276816622e+03
-1.156123540092018e+03  1.632336291847058e+02 -2.918975276816622e+03
-1.156210522808998e+03  1.608774546080242e+02 -2.918975276816622e+03
-1.156167875532468e+03  1.600735361470081e+02 -2.918975276816622e+03
-1.156179962535768e+03  1.585850169991520e+02 -2.918975276816622e+03
-1.156165964997341e+03  1.556761985810020e+02 -2.918975276816622e+03
-1.156205841292350e+03  1.544785655407928e+02 -2.918975276816622e+03
-1.156199372124649e+03  1.519225896287022e+02 -2.918975276816622e+03
-1.156355992639483e+03  1.501673861486958e+02 -2.918975276816622e+03
-1.156194736626381e+03  1.493512476191622e+02 -2.918975276816622e+03
-1.156182670133642e+03  1.471127490394146e+02 -2.918975276816622e+03
-1.156221171242736e+03  1.455902033185008e+02 -2.918975276816622e+03
-1.156229347939184e+03  1.447439838616054e+02 -2.918975276816622e+03
-1.156241734984516e+03  1.433612355857131e+02 -2.918975276816622e+03
-1.156260575706886e+03  1.409452134764344e+02 -2.918975276816622e+03
-1.156273540427730e+03  1.400906939815578e+02 -2.918975276816622e+03
-1.156279258431981e+03  1.385222000340407e+02 -2.918975276816622e+03
-1.156266914790256e+03  1.355472221896865e+02 -2.918975276816622e+03
-1.156330050506007e+03  1.344025838697392e+02 -2.918975276816622e+03
-1.156273146451555e+03  1.319911544445494e+02 -2.918975276816622e+03
-1.156396766500634e+03  1.300810661273161e+02 -2.918975276816622e+03
-1.156313093945382e+03  1.293572346485009e+02 -2.918975276816622e+03
-1.156479674308181e+03  1.270981227451904e+02 -2.918975276816622e+03
-1.156356859977072e+03  1.259501858043697e+02 -2.918975276816622e+03
-1.156506444700730e+03  1.247214023110726e+02 -2.918975276816622e+03
-1.156383943831631e+03  1.232936671990208e+02 -2.918975276816622e+03
-1.156553949339372e+03  1.209629702860308e+02 -2.918975276816622e+03
-1.156445902186443e+03  1.199772209464654e+02 -2.918975276816622e+03
-1.156575409070172e+03  1.185553505384081e+02 -2.918975276816622e+03
-1.156494993737964e+03  1.154606604575858e+02 -2.918975276816622e+03
-1.156603877456496e+03  1.143269139491476e+02 -2.918975276816622e+03
-1.156524447121931e+03  1.120221614972867e+02 -2.918975276816622e+03
-1.156625619139819e+03  1.104063891882128e+02 -2.918975276816622e+03
-1.156552842644570e+03  1.094679372910584e+02 -2.918975276816622e+03
-1.156658260325765e+03  1.073236940329124e+02 -2.918975276816622e+03
-1.156594963140570e+03  1.060277200459246e+02 -2.918975276816622e+03
-1.156672079128374e+03  1.046805954809872e+02 -2.918975276816622e+03
-1.156593478771660e+03  1.032517716418004e+02 -2.918975276816622e+03
-1.156691672555888e+03  1.010682941567783e+02 -2.918975276816622e+03
-1.156622287859871e+03  1.003009023199020e+02 -2.918975276816622e+03
-1.156722331926484e+03  9.821599474253362e+01 -2.918975276816622e+03
-1.156624424681015e+03  9.692801843959317e+01 -2.918975276816622e+03
-1.156741715601935e+03  9.514762893897897e+01 -2.918975276816622e+03
-1.156631658892679e+03  9.117829046010262e+01 -2.918975276816622e+03
-1.156748656739642e+03  8.991569672599030e+01 -2.918975276816622e+03
-1.156610267583362e+03  8.808603508559331e+01 -2.918975276816622e+03
-1.156732089935246e+03  8.678085283165383e+01 -2.918975276816622e+03
-1.156665881395269e+03  8.641787317198153e+01 -2.918975276816622e+03
-1.156739206379119e+03  8.510759939645389e+01 -2.918975276816622e+03
-1.156663714066249e+03  8.266402951333792e+01 -2.918975276816622e+03
-1.156668271016064e+03  7.913343211374386e+01 -2.918975276816622e+03
-1.156694258972108e+03  7.352703816898631e+01 -2.918975276816622e+03
-1.156651528044662e+03  7.182855678169265e+01 -2.918975276816622e+03
-1.156465591039260e+03  6.931929156588794e+01 -2.918975276816622e+03
-1.156253605020090e+03  6.722967993904382e+01 -2.918975276816622e+03
-1.156061692009235e+03  6.431129928154864e+01 -2.918975276816622e+03
-1.155164790935320e+03  6.336155933789785e+01 -2.918975276816622e+03
-1.156770326055952e+03  5.846347262265064e+01 -2.918975276816622e+03
-1.156608420402247e+03  5.630887794783903e+01 -2.918975276816622e+03
-1.156831129342628e+03  5.357136356653524e+01 -2.918975276816622e+03
-1.156635598319045e+03  5.094124313136025e+01 -2.918975276816622e+03
-1.156833761249248e+03  4.966943101536562e+01 -2.918975276816622e+03
-1.156748340681480e+03  4.799168120790382e+01 -2.918975276816622e+03
-1.156845792825450e+03  4.665885747890710e+01 -2.918975276816622e+03
-1.156876128529086e+03  4.422397828233417e+01 -2.918975276816622e+03
-1.157020816058817e+03  4.210316728032555e+01 -2.918975276816622e+03
-1.157000923465703e+03  4.156032387401314e+01 -2.918975276816622e+03
-1.157161038191618e+03  3.899254949339996e+01 -2.918975276816622e+03
-1.157185216102085e+03  3.653734689704893e+01 -2.918975276816622e+03
-1.157308331171851e+03  3.493464051710324e+01 -2.918975276816622e+03
-1.157327482510023e+03  3.324064523462557e+01 -2.918975276816622e+03
-1.157531416465725e+03  2.995865829477166e+01 -2.918975276816622e+03
-1.157549681501091e+03  2.883462175751737e+01 -2.918975276816622e+03
-1.157861587968735e+03  2.366698217134731e+01 -2.918975276816622e+03
-1.158099535519599e+03  2.180698041395084e+01 -2.918975276816622e+03
-1.158099934861958e+03  2.180145996559116e+01 -2.918975276816622e+03
-1.157895041411114e+03  1.903484042790187e+01 -2.918975276816622e+03
-1.157784444963707e+03  1.708206413954714e+01 -2.918975276816622e+03
-1.157752568220150e+03  1.585765761196247e+01 -2.918975276816622e+03
-1.157700402972479e+03  1.464761397170387e+01 -2.918975276816622e+03
-1.157676116566783e+03  1.323930253866792e+01 -2.918975276816622e+03
-1.157648910575371e+03  1.195585480735384e+01 -2.918975276816622e+03
-1.157565146706410e+03  7.572259832545457e+00 -2.918975276816622e+03
1.154291405676900e+03 5.926847561672343e-01 2.918975276816622e+03
 1.154449979957132e+03 -1.460558608764659e+00  2.918975276816622e+03
 1.154728782230874e+03 -2.133618883850238e+00  2.918975276816622e+03
 1.154474012800270e+03 -4.662207174727259e+00  2.918975276816622e+03
 1.154805319143385e+03 -6.282692191147355e+00  2.918975276816622e+03
 1.156212878909372e+03 -5.402523494774474e+00  2.918975276816622e+03
 1.155425280823852e+03 -9.400791906421933e+00  2.918975276816622e+03
 1.154692287511978e+03 -1.653009164952407e+01  2.918975276816622e+03
 1.154269509429963e+03 -2.118639066327742e+01  2.918975276816622e+03
 1.153777358409817e+03 -2.666546618534285e+01  2.918975276816622e+03
 1.153711160991847e+03 -2.681909219627629e+01  2.918975276816622e+03
 1.153702195051733e+03 -3.025581620693637e+01  2.918975276816622e+03
 1.153624407174003e+03 -3.481081384617197e+01  2.918975276816622e+03
 1.153573954761481e+03 -3.785231278516799e+01  2.918975276816622e+03
 1.153466917688767e+03 -4.295518715213226e+01  2.918975276816622e+03
 1.153580371533852e+03 -4.591693833391636e+01  2.918975276816622e+03
 1.153342979087695e+03 -4.899295151889758e+01  2.918975276816622e+03
 1.153557148993106e+03 -5.070940448028306e+01  2.918975276816622e+03
 1.153328176836031e+03 -5.242516057602062e+01  2.918975276816622e+03
 1.153530726588204e+03 -5.454901586558456e+01  2.918975276816622e+03
 1.153329814461297e+03 -5.659101624477034e+01  2.918975276816622e+03
 1.153564869084737e+03 -5.888832247042293e+01  2.918975276816622e+03
 1.153329430582643e+03 -6.059762211503704e+01  2.918975276816622e+03
 1.153430772700963e+03 -6.175405383999131e+01  2.918975276816622e+03
 1.153402485566430e+03 -6.353350275249014e+01  2.918975276816622e+03
 1.153452459383353e+03 -6.531608507097809e+01  2.918975276816622e+03
 1.153423270301768e+03 -6.634016956250349e+01  2.918975276816622e+03
 1.153456152706074e+03 -6.914895314176590e+01  2.918975276816622e+03
 1.153498389714122e+03 -7.100075749360926e+01  2.918975276816622e+03
 1.153452880793009e+03 -7.209507129223248e+01  2.918975276816622e+03
 1.153526101298673e+03 -7.448641653795082e+01  2.918975276816622e+03
 1.153519430381075e+03 -7.813813255193391e+01  2.918975276816622e+03
 1.153576567398234e+03 -8.071397561591689e+01  2.918975276816622e+03
 1.153558990543690e+03 -8.184061478491661e+01  2.918975276816622e+03
 1.153582225468503e+03 -8.478257731213614e+01  2.918975276816622e+03
 1.153606470655346e+03 -8.600191335710056e+01  2.918975276816622e+03
 1.153597476428745e+03 -8.899487025345897e+01  2.918975276816622e+03
 1.153648026978939e+03 -9.074302912341695e+01  2.918975276816622e+03
 1.153598728652745e+03 -9.233410451116902e+01  2.918975276816622e+03
 1.153683944964242e+03 -9.467689481630021e+01  2.918975276816622e+03
 1.153634848590988e+03 -9.736870749172739e+01  2.918975276816622e+03
 1.153688639806266e+03 -9.787182055239269e+01  2.918975276816622e+03
 1.153638954676082e+03 -1.004411304909877e+02  2.918975276816622e+03
 1.153712044784609e+03 -1.036486709060578e+02  2.918975276816622e+03
 1.153714213414948e+03 -1.051968594332699e+02  2.918975276816622e+03
 1.153714702982004e+03 -1.060976635276919e+02  2.918975276816622e+03
 1.153775670361663e+03 -1.089856315657661e+02  2.918975276816622e+03
 1.153747302552169e+03 -1.105905489944592e+02  2.918975276816622e+03
 1.153751767900410e+03 -1.122114957703156e+02  2.918975276816622e+03
 1.153753836905270e+03 -1.144177101810672e+02  2.918975276816622e+03
 1.153526683808268e+03 -1.171446801288294e+02  2.918975276816622e+03
 1.153604802867040e+03 -1.206493621207155e+02  2.918975276816622e+03
 1.153786582783378e+03 -1.254900587184761e+02  2.918975276816622e+03
 1.153035837712029e+03 -1.264365709763439e+02  2.918975276816622e+03
 1.153357762717296e+03 -1.292362603105707e+02  2.918975276816622e+03
 1.153565067615216e+03 -1.330674460710012e+02  2.918975276816622e+03
 1.153638686267102e+03 -1.433328695997161e+02  2.918975276816622e+03
 1.153690702952047e+03 -1.457923234625524e+02  2.918975276816622e+03
 1.153675477673347e+03 -1.488903073360651e+02  2.918975276816622e+03
 1.153699126003615e+03 -1.506940662265391e+02  2.918975276816622e+03
 1.153701169504769e+03 -1.523186377031965e+02  2.918975276816622e+03
 1.153679532075616e+03 -1.543324646515116e+02  2.918975276816622e+03
 1.153612219569828e+03 -1.578128776995023e+02  2.918975276816622e+03
 1.153670699535655e+03 -1.603469253908173e+02  2.918975276816622e+03
 1.153626952026167e+03 -1.615938773278850e+02  2.918975276816622e+03
 1.153694329180846e+03 -1.624078801925169e+02  2.918975276816622e+03
 1.153587997290240e+03 -1.636236291079063e+02  2.918975276816622e+03
 1.153695024278116e+03 -1.656070267952575e+02  2.918975276816622e+03
 1.153623603732141e+03 -1.664466763720593e+02  2.918975276816622e+03
 1.153710638861533e+03 -1.686905137735998e+02  2.918975276816622e+03
 1.153639395517976e+03 -1.705090516149644e+02  2.918975276816622e+03
 1.153696799527980e+03 -1.720971474431890e+02  2.918975276816622e+03
 1.153579078831597e+03 -1.742955834405813e+02  2.918975276816622e+03
 1.153734035454044e+03 -1.779337605846450e+02  2.918975276816622e+03
 1.153534063198453e+03 -1.805793996926666e+02  2.918975276816622e+03
 1.153755163728347e+03 -1.839171612485985e+02  2.918975276816622e+03
 1.153573973855866e+03 -1.862023345386051e+02  2.918975276816622e+03
 1.153776449210437e+03 -1.881992001075054e+02  2.918975276816622e+03
 1.153587682026764e+03 -1.914140207069292e+02  2.918975276816622e+03
 1.153756765377659e+03 -1.942980971756587e+02  2.918975276816622e+03
 1.153590645137615e+03 -1.978758854328362e+02  2.918975276816622e+03
 1.153781794524456e+03 -2.009935394676403e+02  2.918975276816622e+03
 1.153602606802047e+03 -2.087257124724835e+02  2.918975276816622e+03
 1.153597263380571e+03 -2.110709299034664e+02  2.918975276816622e+03
 1.153590002796735e+03 -2.178594041979142e+02  2.918975276816622e+03
 1.153562541697487e+03 -2.204402108893394e+02  2.918975276816622e+03
 1.153498395972495e+03 -2.234142078527310e+02  2.918975276816622e+03
 1.153542186186915e+03 -2.241910747177920e+02  2.918975276816622e+03
 1.153480665570209e+03 -2.257354341112208e+02  2.918975276816622e+03
 1.153551933458543e+03 -2.287974006748189e+02  2.918975276816622e+03
 1.153496516978777e+03 -2.304266906412530e+02  2.918975276816622e+03
 1.153555558097888e+03 -2.317847145940549e+02  2.918975276816622e+03
 1.153529285989132e+03 -2.344673804151663e+02  2.918975276816622e+03
 1.153558890043289e+03 -2.398085594641868e+02  2.918975276816622e+03
 1.153555966520623e+03 -2.418503488723456e+02  2.918975276816622e+03
 1.153580884701922e+03 -2.445838043762712e+02  2.918975276816622e+03
 1.153596803996733e+03 -2.476517333312886e+02  2.918975276816622e+03
 1.153645484798873e+03 -2.527419321489890e+02  2.918975276816622e+03
 1.153679363779754e+03 -2.554508136218011e+02  2.918975276816622e+03
 1.153679265274483e+03 -2.572594969450098e+02  2.918975276816622e+03
 1.153725732628336e+03 -2.607411059116403e+02  2.918975276816622e+03
 1.153719762210308e+03 -2.613942097187646e+02  2.918975276816622e+03
 1.153792670060221e+03 -2.657764145619012e+02  2.918975276816622e+03
 1.153859753882801e+03 -2.685530147681437e+02  2.918975276816622e+03
 1.153896456114217e+03 -2.715176453655870e+02  2.918975276816622e+03
 1.153886224649352e+03 -2.723120172517061e+02  2.918975276816622e+03
 1.153903212621357e+03 -2.743151996888827e+02  2.918975276816622e+03
 1.153989206014790e+03 -2.774835894507606e+02  2.918975276816622e+03
 1.153921653718952e+03 -2.794419403892072e+02  2.918975276816622e+03
 1.153982852983829e+03 -2.801629815618479e+02  2.918975276816622e+03
 1.153931852657197e+03 -2.834693583564150e+02  2.918975276816622e+03
 1.153964562257535e+03 -2.861106394433530e+02  2.918975276816622e+03
 1.153958184319306e+03 -2.914038571594593e+02  2.918975276816622e+03
 1.153982627206470e+03 -2.951248270029396e+02  2.918975276816622e+03
 1.154006968236431e+03 -2.965590209517936e+02  2.918975276816622e+03
 1.154004993421527e+03 -2.974970898948034e+02  2.918975276816622e+03
 1.153985014260444e+03 -2.977957348215095e+02  2.918975276816622e+03
 1.154032497316476e+03 -2.988023424064942e+02  2.918975276816622e+03
 1.153986542196900e+03 -3.032769737404049e+02  2.918975276816622e+03
 1.153962743280451e+03 -3.038336381585285e+02  2.918975276816622e+03
 1.154025663654156e+03 -3.074037342126843e+02  2.918975276816622e+03
 1.153966447925840e+03 -3.094072551271050e+02  2.918975276816622e+03
 1.154033912294894e+03 -3.100650138158896e+02  2.918975276816622e+03
 1.153939918190389e+03 -3.111004414793138e+02  2.918975276816622e+03
 1.153992295044215e+03 -3.115904018688836e+02  2.918975276816622e+03
 1.153889139916406e+03 -3.134256358498462e+02  2.918975276816622e+03
 1.153925909164996e+03 -3.145289028776423e+02  2.918975276816622e+03
 1.153824359436021e+03 -3.176868169080088e+02  2.918975276816622e+03
 1.153803474821422e+03 -3.214143105852796e+02  2.918975276816622e+03
 1.153733575190208e+03 -3.260626575804020e+02  2.918975276816622e+03
 1.153717891188972e+03 -3.285360693457156e+02  2.918975276816622e+03
 1.153656931076886e+03 -3.314910446394327e+02  2.918975276816622e+03
 1.153668743630647e+03 -3.323213211176673e+02  2.918975276816622e+03
 1.153611256272094e+03 -3.348090218357199e+02  2.918975276816622e+03
 1.153600099715120e+03 -3.385073336541473e+02  2.918975276816622e+03
 1.153583763962373e+03 -3.395504131040304e+02  2.918975276816622e+03
 1.153559524236982e+03 -3.439438527015803e+02  2.918975276816622e+03
 1.153534575674113e+03 -3.466411693714521e+02  2.918975276816622e+03
 1.153547626849617e+03 -3.505563061990295e+02  2.918975276816622e+03
 1.153521173818064e+03 -3.527665331936429e+02  2.918975276816622e+03
 1.153568460311702e+03 -3.548833114444964e+02  2.918975276816622e+03
 1.153539638246218e+03 -3.571975344634671e+02  2.918975276816622e+03
 1.153621306631375e+03 -3.601402985569978e+02  2.918975276816622e+03
 1.153609180857857e+03 -3.631568614208512e+02  2.918975276816622e+03
 1.153679844939817e+03 -3.646750000303236e+02  2.918975276816622e+03
 1.153653692964248e+03 -3.659141455783211e+02  2.918975276816622e+03
 1.153693783306357e+03 -3.667823436033905e+02  2.918975276816622e+03
 1.153675917020946e+03 -3.688004501019553e+02  2.918975276816622e+03
 1.153702816566214e+03 -3.708230891647682e+02  2.918975276816622e+03
 1.153710205820880e+03 -3.742771681962499e+02  2.918975276816622e+03
 1.153747674746400e+03 -3.760749517680646e+02  2.918975276816622e+03
 1.153778453426363e+03 -3.815164821339737e+02  2.918975276816622e+03
 1.153792135329534e+03 -3.833342612198671e+02  2.918975276816622e+03
 1.153794931687152e+03 -3.837835360762068e+02  2.918975276816622e+03
1.153818085129430e+03 3.851875545859012e+02 2.918975276816622e+03
1.153820124735085e+03 3.840052474058255e+02 2.918975276816622e+03
1.153838543388128e+03 3.815507845852351e+02 2.918975276816622e+03
1.153837167289985e+03 3.811184062299322e+02 2.918975276816622e+03
1.153872167470234e+03 3.765663308541556e+02 2.918975276816622e+03
1.153840696188436e+03 3.733796523117121e+02 2.918975276816622e+03
1.153917454939197e+03 3.723370649868990e+02 2.918975276816622e+03
1.153821136173628e+03 3.708722138174502e+02 2.918975276816622e+03
1.153960135690064e+03 3.675415497053741e+02 2.918975276816622e+03
1.153807258763939e+03 3.665082146084228e+02 2.918975276816622e+03
1.154025448154836e+03 3.648294891134022e+02 2.918975276816622e+03
1.153878957802565e+03 3.625527059341882e+02 2.918975276816622e+03
1.153842020605726e+03 3.593452733047826e+02 2.918975276816622e+03
1.153894792948780e+03 3.577632014942203e+02 2.918975276816622e+03
1.153664135495134e+03 3.557914224123937e+02 2.918975276816622e+03
1.153701571633064e+03 3.532066058824835e+02 2.918975276816622e+03
1.153716377304668e+03 3.522038274192881e+02 2.918975276816622e+03
1.153842339403616e+03 3.504705427141879e+02 2.918975276816622e+03
1.154070553990208e+03 3.451763559398640e+02 2.918975276816622e+03
1.154113742559670e+03 3.430593163192836e+02 2.918975276816622e+03
1.154175933636399e+03 3.419380575763063e+02 2.918975276816622e+03
1.154242740402600e+03 3.396696749177491e+02 2.918975276816622e+03
1.154486081115029e+03 3.324291088719109e+02 2.918975276816622e+03
1.154766478865338e+03 3.312929146280233e+02 2.918975276816622e+03
1.153798558916239e+03 3.280231432818946e+02 2.918975276816622e+03
1.153880286454742e+03 3.268214517051635e+02 2.918975276816622e+03
1.152986967798328e+03 3.248221451878214e+02 2.918975276816622e+03
1.155256085901251e+03 3.247792560209460e+02 2.918975276816622e+03
1.154877438176424e+03 3.209685638669112e+02 2.918975276816622e+03
1.155094666359804e+03 3.191394078825913e+02 2.918975276816622e+03
1.154864551182580e+03 3.159461254233971e+02 2.918975276816622e+03
1.154441796788212e+03 3.137090645228552e+02 2.918975276816622e+03
1.154341019916542e+03 3.113024063155320e+02 2.918975276816622e+03
1.154337618886982e+03 3.084125111246502e+02 2.918975276816622e+03
1.154360719388641e+03 3.017697797063764e+02 2.918975276816622e+03
1.154381120679164e+03 2.997281869227392e+02 2.918975276816622e+03
1.154383551732960e+03 2.946979505944251e+02 2.918975276816622e+03
1.154431482522481e+03 2.937146796355549e+02 2.918975276816622e+03
1.154439691595751e+03 2.880112036831758e+02 2.918975276816622e+03
1.154452540735691e+03 2.878179588360940e+02 2.918975276816622e+03
1.154238887396931e+03 2.817562579392264e+02 2.918975276816622e+03
1.154205733461449e+03 2.798056490544230e+02 2.918975276816622e+03
1.154119516101281e+03 2.769472517032814e+02 2.918975276816622e+03
1.154013473448474e+03 2.750579079607683e+02 2.918975276816622e+03
1.153904820561779e+03 2.708679212015961e+02 2.918975276816622e+03
1.153785301322272e+03 2.682904078236750e+02 2.918975276816622e+03
1.153750777475853e+03 2.644428317877148e+02 2.918975276816622e+03
1.153659296714796e+03 2.638527618658429e+02 2.918975276816622e+03
1.153691443887032e+03 2.606987546744458e+02 2.918975276816622e+03
1.153464207066409e+03 2.579526647817206e+02 2.918975276816622e+03
1.153583332130035e+03 2.562981159847031e+02 2.918975276816622e+03
1.153380518958338e+03 2.547426565078223e+02 2.918975276816622e+03
1.153521706027965e+03 2.531037531489343e+02 2.918975276816622e+03
1.153367725344447e+03 2.523366815873756e+02 2.918975276816622e+03
1.153515531646496e+03 2.505835286421827e+02 2.918975276816622e+03
1.153328410042439e+03 2.487790252401131e+02 2.918975276816622e+03
1.153438634608493e+03 2.483008300471784e+02 2.918975276816622e+03
1.153294618675108e+03 2.465464296671111e+02 2.918975276816622e+03
1.153435435147119e+03 2.456156469152378e+02 2.918975276816622e+03
1.153310781955478e+03 2.434132749390082e+02 2.918975276816622e+03
1.153457595132418e+03 2.417197178900637e+02 2.918975276816622e+03
1.153338435716651e+03 2.400160002739435e+02 2.918975276816622e+03
1.153504383005053e+03 2.383564586946381e+02 2.918975276816622e+03
1.153379530696301e+03 2.358316646791067e+02 2.918975276816622e+03
1.153543165887922e+03 2.330735128035168e+02 2.918975276816622e+03
1.153511888322692e+03 2.327616845220006e+02 2.918975276816622e+03
1.153587023072273e+03 2.298992802946277e+02 2.918975276816622e+03
1.153531669199818e+03 2.286219798763731e+02 2.918975276816622e+03
1.153605059724611e+03 2.267175121113020e+02 2.918975276816622e+03
1.153638579291415e+03 2.254743879277401e+02 2.918975276816622e+03
1.153630157237615e+03 2.243353616039055e+02 2.918975276816622e+03
1.153730863208833e+03 2.212581018225461e+02 2.918975276816622e+03
1.153735907617740e+03 2.181445422137175e+02 2.918975276816622e+03
1.153811156784227e+03 2.106044010812190e+02 2.918975276816622e+03
1.153779501187983e+03 2.095701669673370e+02 2.918975276816622e+03
1.153865242043650e+03 2.037241678306083e+02 2.918975276816622e+03
1.153837747520858e+03 2.009228340221514e+02 2.918975276816622e+03
1.153887491889182e+03 1.957126700760988e+02 2.918975276816622e+03
1.153839749222582e+03 1.924096177895368e+02 2.918975276816622e+03
1.153897851180921e+03 1.922381744464420e+02 2.918975276816622e+03
1.153658428234817e+03 1.898826957010152e+02 2.918975276816622e+03
1.153852593048355e+03 1.875344634157306e+02 2.918975276816622e+03
1.153781946908773e+03 1.841662755957495e+02 2.918975276816622e+03
1.153818066850084e+03 1.819486146353196e+02 2.918975276816622e+03
1.153661381382862e+03 1.759636615926826e+02 2.918975276816622e+03
1.152878786722004e+03 1.680752486748486e+02 2.918975276816622e+03
1.153942717499042e+03 1.662932885190503e+02 2.918975276816622e+03
1.153222004748019e+03 1.591611557601482e+02 2.918975276816622e+03
1.153102029636849e+03 1.576305787589005e+02 2.918975276816622e+03
1.153125858928035e+03 1.530592269980582e+02 2.918975276816622e+03
1.153170590630540e+03 1.522270781772958e+02 2.918975276816622e+03
1.153124595329673e+03 1.497694081618721e+02 2.918975276816622e+03
1.153092965970944e+03 1.488443683840003e+02 2.918975276816622e+03
1.153142015300703e+03 1.470842597380262e+02 2.918975276816622e+03
1.153108731869444e+03 1.457807785069963e+02 2.918975276816622e+03
1.153213630809891e+03 1.447912661684404e+02 2.918975276816622e+03
1.153250322936876e+03 1.415150108698510e+02 2.918975276816622e+03
1.153281448748469e+03 1.392960154094678e+02 2.918975276816622e+03
1.153256325985521e+03 1.388805114196659e+02 2.918975276816622e+03
1.153313925159111e+03 1.363025626715559e+02 2.918975276816622e+03
1.153296355648483e+03 1.303051141957515e+02 2.918975276816622e+03
1.153243137634446e+03 1.280462354231320e+02 2.918975276816622e+03
1.153240180144173e+03 1.269013256700404e+02 2.918975276816622e+03
1.153247599431953e+03 1.259509152326416e+02 2.918975276816622e+03
1.153190921598353e+03 1.246589065839147e+02 2.918975276816622e+03
1.153127389451589e+03 1.216071276813084e+02 2.918975276816622e+03
1.153000947406391e+03 1.198118396406647e+02 2.918975276816622e+03
1.153014305263476e+03 1.186717963311999e+02 2.918975276816622e+03
1.152815714150958e+03 1.163518668018860e+02 2.918975276816622e+03
1.152679797066153e+03 1.130842848801842e+02 2.918975276816622e+03
1.152388699319592e+03 1.116368461848277e+02 2.918975276816622e+03
1.152354132331845e+03 1.102833524461189e+02 2.918975276816622e+03
1.151866042635542e+03 1.085275419426753e+02 2.918975276816622e+03
1.151882177757817e+03 1.084984531960501e+02 2.918975276816622e+03
1.152329131288319e+03 1.068972665598073e+02 2.918975276816622e+03
1.152589889277042e+03 1.055833266018756e+02 2.918975276816622e+03
1.152782779572527e+03 1.045439065782456e+02 2.918975276816622e+03
1.153276320309525e+03 1.014835566401894e+02 2.918975276816622e+03
1.153417754850230e+03 9.937672196723337e+01 2.918975276816622e+03
1.153818269976001e+03 9.656601557450027e+01 2.918975276816622e+03
1.153803040085445e+03 9.655127427991995e+01 2.918975276816622e+03
1.154071520242358e+03 9.358254133769577e+01 2.918975276816622e+03
1.154150985013000e+03 9.131765248805216e+01 2.918975276816622e+03
1.154429397140926e+03 8.763956412753390e+01 2.918975276816622e+03
1.154519550333504e+03 8.584028298252768e+01 2.918975276816622e+03
1.154725118207479e+03 8.261664130819868e+01 2.918975276816622e+03
1.154897887127184e+03 8.014739870428737e+01 2.918975276816622e+03
1.154969061188563e+03 7.844801228966784e+01 2.918975276816622e+03
1.155333837853412e+03 6.766001621582939e+01 2.918975276816622e+03
1.155245341242974e+03 6.605451684835204e+01 2.918975276816622e+03
1.155480230243409e+03 6.261239945219727e+01 2.918975276816622e+03
1.155343755007792e+03 5.983566613481337e+01 2.918975276816622e+03
1.155356269203153e+03 5.847358685453879e+01 2.918975276816622e+03
1.155349293674047e+03 5.743891350961130e+01 2.918975276816622e+03
1.155248992915392e+03 5.534872257202068e+01 2.918975276816622e+03
1.155263335801940e+03 5.441888078961276e+01 2.918975276816622e+03
1.154966572047678e+03 5.165865246965543e+01 2.918975276816622e+03
1.155100578067869e+03 5.041466586159009e+01 2.918975276816622e+03
1.154643766706520e+03 4.789368570744411e+01 2.918975276816622e+03
1.154770765274318e+03 4.777316252779961e+01 2.918975276816622e+03
1.154587317267566e+03 4.432184904956151e+01 2.918975276816622e+03
1.154794584236611e+03 4.238334788875508e+01 2.918975276816622e+03
1.154644496348799e+03 4.189046050969122e+01 2.918975276816622e+03
1.154867700380878e+03 4.070490668901036e+01 2.918975276816622e+03
1.154709738771575e+03 3.888869073604810e+01 2.918975276816622e+03
1.154955334765481e+03 3.551519121029437e+01 2.918975276816622e+03
1.154831183895488e+03 3.408000848028382e+01 2.918975276816622e+03
1.155029062457798e+03 3.213692183088150e+01 2.918975276816622e+03
1.154945667134675e+03 3.007341057383377e+01 2.918975276816622e+03
1.155111748855652e+03 2.822310528500170e+01 2.918975276816622e+03
1.155098114626295e+03 2.544936672879527e+01 2.918975276816622e+03
1.155405358394601e+03 1.945224661497294e+01 2.918975276816622e+03
1.155407926633050e+03 1.941298265363628e+01 2.918975276816622e+03
1.155172212106817e+03 1.596354833313338e+01 2.918975276816622e+03
1.155162267193308e+03 1.441937000817506e+01 2.918975276816622e+03
1.155082975378768e+03 1.339842091481414e+01 2.918975276816622e+03
1.155055528028083e+03 1.159650191319724e+01 2.918975276816622e+03
1.154981689178958e+03 1.024131343989476e+01 2.918975276816622e+03
1.154798821674098e+03 5.440524646373571e+00 2.918975276816622e+03
1.154626084580202e+03 4.347794144485821e+00 2.918975276816622e+03
1.154485767758649e+03 2.518486165658337e+00 2.918975276816622e+03
1.154745446077853e+03 9.611790669663877e-01 2.918975276816622e+03
-1.148064942489437e+03 -3.863858941524650e+02 -2.918975276816622e+03
-1.148064942489437e+03  3.863858941524653e+02 -2.918975276816622e+03
 1.144988119277742e+03 -3.863858941524653e+02  2.918975276816622e+03
1.144988119277742e+03 3.863858941524650e+02 2.918975276816622e+03
-1.156903775886791e+03 -3.863858941524650e+02 -2.918975276816622e+03
-1.156903775886791e+03  3.863858941524653e+02 -2.918975276816622e+03
 1.153810784973355e+03 -3.863858941524653e+02  2.918975276816622e+03
1.153810784973355e+03 3.863858941524650e+02 2.918975276816622e+03
-1.148573411187138e+03  2.769801582270020e-02 -2.918975276816622e+03
-1.148570230172916e+03  3.162637243551446e+00 -2.918975276816622e+03
-1.148552923555937e+03 -1.393283142888539e+00 -2.918975276816622e+03
-1.148557582430238e+03 -2.838654525606249e+00 -2.918975276816622e+03
-1.148563390881600e+03 -4.594921960657726e+00 -2.918975276816622e+03
-1.148553867040866e+03 -5.789126016607928e+00 -2.918975276816622e+03
-1.148542770223067e+03 -7.268914987833324e+00 -2.918975276816622e+03
-1.148526920512291e+03 -9.409368182234861e+00 -2.918975276816622e+03
-1.148521042637463e+03 -1.180877887717291e+01 -2.918975276816622e+03
-1.148512104586236e+03 -1.334742475595897e+01 -2.918975276816622e+03
-1.148508897093931e+03 -1.514814136635810e+01 -2.918975276816622e+03
-1.148477506123232e+03 -1.835593754959807e+01 -2.918975276816622e+03
-1.148438737130120e+03 -2.150015929574506e+01 -2.918975276816622e+03
-1.148377982459056e+03 -2.491646814544578e+01 -2.918975276816622e+03
-1.148313518769968e+03 -2.749051600971875e+01 -2.918975276816622e+03
-1.148260886033122e+03 -2.977610441103401e+01 -2.918975276816622e+03
-1.148172211397282e+03 -3.323539990054186e+01 -2.918975276816622e+03
-1.148101484221998e+03 -3.541853292915995e+01 -2.918975276816622e+03
-1.148074440348210e+03 -3.714269563771206e+01 -2.918975276816622e+03
-1.148012269982242e+03 -3.932724542658249e+01 -2.918975276816622e+03
-1.147980036858299e+03 -4.066068211173889e+01 -2.918975276816622e+03
-1.147930928226251e+03 -4.221246873239993e+01 -2.918975276816622e+03
-1.147854804042626e+03 -4.425830606630096e+01 -2.918975276816622e+03
-1.147816769682693e+03 -4.631951278257183e+01 -2.918975276816622e+03
-1.147736165614779e+03 -4.861469614668589e+01 -2.918975276816622e+03
-1.147716186253558e+03 -5.006713942050163e+01 -2.918975276816622e+03
-1.147617912981563e+03 -5.127133863562619e+01 -2.918975276816622e+03
-1.147600681508744e+03 -5.314863006424340e+01 -2.918975276816622e+03
-1.147701499117265e+03 -5.421481726484460e+01 -2.918975276816622e+03
-1.147671974015026e+03 -5.511399548904034e+01 -2.918975276816622e+03
-1.147657332580296e+03 -5.718739786887294e+01 -2.918975276816622e+03
-1.147652474744862e+03 -5.929721727448633e+01 -2.918975276816622e+03
-1.147649546742500e+03 -6.076196826587122e+01 -2.918975276816622e+03
-1.147651740866389e+03 -6.234903196981904e+01 -2.918975276816622e+03
-1.147662494842234e+03 -6.383030742553422e+01 -2.918975276816622e+03
-1.147683635516800e+03 -6.533382001561066e+01 -2.918975276816622e+03
-1.147729519791608e+03 -6.685244575038215e+01 -2.918975276816622e+03
-1.147760197837968e+03 -6.865274200397691e+01 -2.918975276816622e+03
-1.147768892399494e+03 -7.025353724912051e+01 -2.918975276816622e+03
-1.147761309975851e+03 -7.135725478591819e+01 -2.918975276816622e+03
-1.147784400953615e+03 -7.316265399730207e+01 -2.918975276816622e+03
-1.147789038612803e+03 -7.473315151420474e+01 -2.918975276816622e+03
-1.147782572531106e+03 -7.578829448694475e+01 -2.918975276816622e+03
-1.147779647577344e+03 -7.732213898073167e+01 -2.918975276816622e+03
-1.147787629726504e+03 -7.929387806418687e+01 -2.918975276816622e+03
-1.147795043353600e+03 -8.079544592309968e+01 -2.918975276816622e+03
-1.147790054934063e+03 -8.235110310449835e+01 -2.918975276816622e+03
-1.147783581718986e+03 -8.417948270524531e+01 -2.918975276816622e+03
-1.147765260646503e+03 -8.633092652174113e+01 -2.918975276816622e+03
-1.147758241954949e+03 -8.859812784646009e+01 -2.918975276816622e+03
-1.147736658133733e+03 -8.996871284722314e+01 -2.918975276816622e+03
-1.147725310742930e+03 -9.125219406708710e+01 -2.918975276816622e+03
-1.147709238550980e+03 -9.348562093070801e+01 -2.918975276816622e+03
-1.147702784264351e+03 -9.521109228089361e+01 -2.918975276816622e+03
-1.147690725385038e+03 -9.700179731039934e+01 -2.918975276816622e+03
-1.147671194615903e+03 -9.938033936883565e+01 -2.918975276816622e+03
-1.147657180873724e+03 -1.008526462689467e+02 -2.918975276816622e+03
-1.147640696761473e+03 -1.023196986562450e+02 -2.918975276816622e+03
-1.147628645576765e+03 -1.037397293813049e+02 -2.918975276816622e+03
-1.147608993930993e+03 -1.052097594870952e+02 -2.918975276816622e+03
-1.147597765068786e+03 -1.067207764185240e+02 -2.918975276816622e+03
-1.147574183966223e+03 -1.084901611546922e+02 -2.918975276816622e+03
-1.147556498469052e+03 -1.101209058941073e+02 -2.918975276816622e+03
-1.147529300049698e+03 -1.113874124029466e+02 -2.918975276816622e+03
-1.147510064515693e+03 -1.131977444434126e+02 -2.918975276816622e+03
-1.147537267306354e+03 -1.141793297658349e+02 -2.918975276816622e+03
-1.147558621803737e+03 -1.149879930051303e+02 -2.918975276816622e+03
-1.147546371242642e+03 -1.170493138540153e+02 -2.918975276816622e+03
-1.147526174816104e+03 -1.192365804677151e+02 -2.918975276816622e+03
-1.147526197939055e+03 -1.207334520598641e+02 -2.918975276816622e+03
-1.147517278996989e+03 -1.224056340634771e+02 -2.918975276816622e+03
-1.147524864858182e+03 -1.241434275532201e+02 -2.918975276816622e+03
-1.147510523820808e+03 -1.260082515450433e+02 -2.918975276816622e+03
-1.147503497914731e+03 -1.283991343798396e+02 -2.918975276816622e+03
-1.147508206817510e+03 -1.299705406514261e+02 -2.918975276816622e+03
-1.147508754953936e+03 -1.312809054218475e+02 -2.918975276816622e+03
-1.147500699633402e+03 -1.331879321836211e+02 -2.918975276816622e+03
-1.147507913500664e+03 -1.343114877218913e+02 -2.918975276816622e+03
-1.147512661430711e+03 -1.351148436766981e+02 -2.918975276816622e+03
-1.147538511653747e+03 -1.370843314940086e+02 -2.918975276816622e+03
-1.147572870817846e+03 -1.392285479259158e+02 -2.918975276816622e+03
-1.147584292459293e+03 -1.406604284300205e+02 -2.918975276816622e+03
-1.147608002428336e+03 -1.422161828848320e+02 -2.918975276816622e+03
-1.147624319287172e+03 -1.436506278841202e+02 -2.918975276816622e+03
-1.147649914434125e+03 -1.451350500151828e+02 -2.918975276816622e+03
-1.147664691974206e+03 -1.466428238166887e+02 -2.918975276816622e+03
-1.147692588740140e+03 -1.483934408207363e+02 -2.918975276816622e+03
-1.147717393109918e+03 -1.499888119868563e+02 -2.918975276816622e+03
-1.147739939936130e+03 -1.511890521123903e+02 -2.918975276816622e+03
-1.147766532246280e+03 -1.530342243881753e+02 -2.918975276816622e+03
-1.147765802069907e+03 -1.540486314331731e+02 -2.918975276816622e+03
-1.147762392822307e+03 -1.550130876555154e+02 -2.918975276816622e+03
-1.147779825407092e+03 -1.580664542067774e+02 -2.918975276816622e+03
-1.147799076288352e+03 -1.607020203752485e+02 -2.918975276816622e+03
-1.147818996417068e+03 -1.622117972410503e+02 -2.918975276816622e+03
-1.147845517604690e+03 -1.639601727923184e+02 -2.918975276816622e+03
-1.147859255921992e+03 -1.659932385730321e+02 -2.918975276816622e+03
-1.147898246769402e+03 -1.685247688650703e+02 -2.918975276816622e+03
-1.147937237616812e+03 -1.710562991571086e+02 -2.918975276816622e+03
-1.147953844137302e+03 -1.739931824909379e+02 -2.918975276816622e+03
-1.147971985038207e+03 -1.769901848370603e+02 -2.918975276816622e+03
-1.148003417293385e+03 -1.792651403822079e+02 -2.918975276816622e+03
-1.148017261883585e+03 -1.807438684345030e+02 -2.918975276816622e+03
-1.148038266346927e+03 -1.822077219599491e+02 -2.918975276816622e+03
-1.148054307147476e+03 -1.839241872203090e+02 -2.918975276816622e+03
-1.148052601984882e+03 -1.859027208931361e+02 -2.918975276816622e+03
-1.148052234706990e+03 -1.882952514380434e+02 -2.918975276816622e+03
-1.148057807526825e+03 -1.898108223320658e+02 -2.918975276816622e+03
-1.148057108981486e+03 -1.910348136298410e+02 -2.918975276816622e+03
-1.148039495219178e+03 -1.929219817742711e+02 -2.918975276816622e+03
-1.148033461642399e+03 -1.941027682369191e+02 -2.918975276816622e+03
-1.148024409097507e+03 -1.951738388419426e+02 -2.918975276816622e+03
-1.148024496873926e+03 -1.980532174651077e+02 -2.918975276816622e+03
-1.148014677870449e+03 -2.005700334222309e+02 -2.918975276816622e+03
-1.148022455353563e+03 -2.020814931911567e+02 -2.918975276816622e+03
-1.148020095530630e+03 -2.035681058904856e+02 -2.918975276816622e+03
-1.148002456074059e+03 -2.050380415131963e+02 -2.918975276816622e+03
-1.147997900571815e+03 -2.065470027665426e+02 -2.918975276816622e+03
-1.147997445016714e+03 -2.083152644531577e+02 -2.918975276816622e+03
-1.147988937338217e+03 -2.099721308523248e+02 -2.918975276816622e+03
-1.147961703560196e+03 -2.114070857819507e+02 -2.918975276816622e+03
-1.147928076532667e+03 -2.140160212559495e+02 -2.918975276816622e+03
-1.147892349686784e+03 -2.169180802130127e+02 -2.918975276816622e+03
-1.147854231359562e+03 -2.191724608015720e+02 -2.918975276816622e+03
-1.147819351205986e+03 -2.206632140313762e+02 -2.918975276816622e+03
-1.147782320957444e+03 -2.221490570238190e+02 -2.918975276816622e+03
-1.147726454351314e+03 -2.238656856824863e+02 -2.918975276816622e+03
-1.147665636766401e+03 -2.258506613991082e+02 -2.918975276816622e+03
-1.147575485194581e+03 -2.282561138283283e+02 -2.918975276816622e+03
-1.147496676752254e+03 -2.298243583702346e+02 -2.918975276816622e+03
-1.147428836136464e+03 -2.310894243372030e+02 -2.918975276816622e+03
-1.147291089841913e+03 -2.328739414517970e+02 -2.918975276816622e+03
-1.147175387240705e+03 -2.338182803697686e+02 -2.918975276816622e+03
-1.147310181373169e+03 -2.347130371516985e+02 -2.918975276816622e+03
-1.147490736002250e+03 -2.368363193168526e+02 -2.918975276816622e+03
-1.147610176203880e+03 -2.391163469049065e+02 -2.918975276816622e+03
-1.147680858476015e+03 -2.406326241754261e+02 -2.918975276816622e+03
-1.147736451949610e+03 -2.421508781625882e+02 -2.918975276816622e+03
-1.147793463986311e+03 -2.438023599692099e+02 -2.918975276816622e+03
-1.147847658650690e+03 -2.457401283882953e+02 -2.918975276816622e+03
-1.147907999959320e+03 -2.470431361531433e+02 -2.918975276816622e+03
-1.147925472173023e+03 -2.484425043329283e+02 -2.918975276816622e+03
-1.147901354407753e+03 -2.503309175527139e+02 -2.918975276816622e+03
-1.147892845944249e+03 -2.512520269633299e+02 -2.918975276816622e+03
-1.147909553722917e+03 -2.527742906843711e+02 -2.918975276816622e+03
-1.147892156335005e+03 -2.545458064246458e+02 -2.918975276816622e+03
-1.147883045255069e+03 -2.563466575029849e+02 -2.918975276816622e+03
-1.147884548725134e+03 -2.576171724365498e+02 -2.918975276816622e+03
-1.147885353526091e+03 -2.589472096250890e+02 -2.918975276816622e+03
-1.147864296667482e+03 -2.605418769024969e+02 -2.918975276816622e+03
-1.147866150216683e+03 -2.621704831914832e+02 -2.918975276816622e+03
-1.147872777749554e+03 -2.647692610455077e+02 -2.918975276816622e+03
-1.147873830765700e+03 -2.673712037400244e+02 -2.918975276816622e+03
-1.147875937368918e+03 -2.698487486790171e+02 -2.918975276816622e+03
-1.147871357596600e+03 -2.724797647479893e+02 -2.918975276816622e+03
-1.147891912700124e+03 -2.747164551860823e+02 -2.918975276816622e+03
-1.147898276573268e+03 -2.764685745903058e+02 -2.918975276816622e+03
-1.147904485671535e+03 -2.788281799126255e+02 -2.918975276816622e+03
-1.147922683034346e+03 -2.823146181970915e+02 -2.918975276816622e+03
-1.147931736185823e+03 -2.850833618794117e+02 -2.918975276816622e+03
-1.147945642897818e+03 -2.867836260845464e+02 -2.918975276816622e+03
-1.147946101188341e+03 -2.889680590347210e+02 -2.918975276816622e+03
-1.147952982727868e+03 -2.914048728339351e+02 -2.918975276816622e+03
-1.147959864267396e+03 -2.938416866331495e+02 -2.918975276816622e+03
-1.147988713244082e+03 -2.968534422605274e+02 -2.918975276816622e+03
-1.147959384337570e+03 -2.994757927305304e+02 -2.918975276816622e+03
-1.147973275041300e+03 -3.019998347818197e+02 -2.918975276816622e+03
-1.147988828776359e+03 -3.040001374205702e+02 -2.918975276816622e+03
-1.148008912926635e+03 -3.058491149403653e+02 -2.918975276816622e+03
-1.147989046516889e+03 -3.090385029205033e+02 -2.918975276816622e+03
-1.147959629609729e+03 -3.123195684739668e+02 -2.918975276816622e+03
-1.147961403061851e+03 -3.160359867980423e+02 -2.918975276816622e+03
-1.147848695365424e+03 -3.193665496503588e+02 -2.918975276816622e+03
-1.147746948538263e+03 -3.218656242336964e+02 -2.918975276816622e+03
-1.147661387946344e+03 -3.247115311217960e+02 -2.918975276816622e+03
-1.147584231559661e+03 -3.264320480148276e+02 -2.918975276816622e+03
-1.147742177773813e+03 -3.285070663728983e+02 -2.918975276816622e+03
-1.147676407211401e+03 -3.323584917986596e+02 -2.918975276816622e+03
-1.147591866782866e+03 -3.346156929416964e+02 -2.918975276816622e+03
-1.147711604469911e+03 -3.368486906527363e+02 -2.918975276816622e+03
-1.147701651001343e+03 -3.398457308583926e+02 -2.918975276816622e+03
-1.147805559802867e+03 -3.420871094051171e+02 -2.918975276816622e+03
-1.147958412329944e+03 -3.451181013544693e+02 -2.918975276816622e+03
-1.147968451480917e+03 -3.474490393234755e+02 -2.918975276816622e+03
-1.147981162222442e+03 -3.491689841976153e+02 -2.918975276816622e+03
-1.148188301656174e+03 -3.517676033598618e+02 -2.918975276816622e+03
-1.147954793952234e+03 -3.537710876384501e+02 -2.918975276816622e+03
-1.147571590416978e+03 -3.561773407037557e+02 -2.918975276816622e+03
-1.147392508186711e+03 -3.584504053446116e+02 -2.918975276816622e+03
-1.147497598726118e+03 -3.605963355821298e+02 -2.918975276816622e+03
-1.147770589364233e+03 -3.634207360545158e+02 -2.918975276816622e+03
-1.147840477330009e+03 -3.659196490702816e+02 -2.918975276816622e+03
-1.147910365295785e+03 -3.684185620860474e+02 -2.918975276816622e+03
-1.147973662777920e+03 -3.707268848437597e+02 -2.918975276816622e+03
-1.148010410881412e+03 -3.729399776449241e+02 -2.918975276816622e+03
-1.148029184908280e+03 -3.742425487290967e+02 -2.918975276816622e+03
-1.148029500321617e+03 -3.753802518019108e+02 -2.918975276816622e+03
-1.148043241741951e+03 -3.769506061887880e+02 -2.918975276816622e+03
-1.148052197350099e+03 -3.785848649948751e+02 -2.918975276816622e+03
-1.148050540764207e+03 -3.798029658246755e+02 -2.918975276816622e+03
-1.148048803488362e+03 -3.811443900619464e+02 -2.918975276816622e+03
-1.148048433724510e+03 -3.841784703509318e+02 -2.918975276816622e+03
-1.148063968480759e+03 -3.862109292128630e+02 -2.918975276816622e+03
-1.148086765762482e+03  3.821490812557066e+02 -2.918975276816622e+03
-1.148096468517635e+03  3.797729096911412e+02 -2.918975276816622e+03
-1.148073428437172e+03  3.848615305952271e+02 -2.918975276816622e+03
-1.148104235663941e+03  3.779379226949329e+02 -2.918975276816622e+03
-1.148108387265913e+03  3.769189606528838e+02 -2.918975276816622e+03
-1.148113564601724e+03  3.751067476084071e+02 -2.918975276816622e+03
-1.148121532917512e+03  3.723647279744361e+02 -2.918975276816622e+03
-1.148129586543947e+03  3.697609931392013e+02 -2.918975276816622e+03
-1.148138189461214e+03  3.670266849655126e+02 -2.918975276816622e+03
-1.148147341669310e+03  3.641618034533697e+02 -2.918975276816622e+03
-1.148156493877408e+03  3.612969219412264e+02 -2.918975276816622e+03
-1.148155532696366e+03  3.587212773214164e+02 -2.918975276816622e+03
-1.148177359162452e+03  3.561184350660845e+02 -2.918975276816622e+03
-1.148178234067599e+03  3.537036480082299e+02 -2.918975276816622e+03
-1.148190197963649e+03  3.518952121482652e+02 -2.918975276816622e+03
-1.148169421430812e+03  3.497940889924967e+02 -2.918975276816622e+03
-1.148155495816983e+03  3.472189563409438e+02 -2.918975276816622e+03
-1.148141712099051e+03  3.451392678022423e+02 -2.918975276816622e+03
-1.148111313970953e+03  3.428761555134069e+02 -2.918975276816622e+03
-1.148098040555582e+03  3.409756394616034e+02 -2.918975276816622e+03
-1.148072108237470e+03  3.394763956820353e+02 -2.918975276816622e+03
-1.148060758865418e+03  3.369227871511974e+02 -2.918975276816622e+03
-1.148005999424952e+03  3.340344664242949e+02 -2.918975276816622e+03
-1.147951239984485e+03  3.311461456973927e+02 -2.918975276816622e+03
-1.147882122525973e+03  3.287027194708431e+02 -2.918975276816622e+03
-1.147833939302981e+03  3.268745973898325e+02 -2.918975276816622e+03
-1.147736549133075e+03  3.247598542445741e+02 -2.918975276816622e+03
-1.147642875709266e+03  3.234543268747062e+02 -2.918975276816622e+03
-1.147774014684927e+03  3.222316939063579e+02 -2.918975276816622e+03
-1.147824211058043e+03  3.206000099486244e+02 -2.918975276816622e+03
-1.147892248820629e+03  3.187168221779734e+02 -2.918975276816622e+03
-1.147902191448633e+03  3.152785645900533e+02 -2.918975276816622e+03
-1.147869886032951e+03  3.126762331173463e+02 -2.918975276816622e+03
-1.147857376248477e+03  3.109101814439312e+02 -2.918975276816622e+03
-1.147821025666784e+03  3.083981438988893e+02 -2.918975276816622e+03
-1.147830591261892e+03  3.060004490916202e+02 -2.918975276816622e+03
-1.147794179140459e+03  3.041701526776899e+02 -2.918975276816622e+03
-1.147808523676203e+03  3.022721209932147e+02 -2.918975276816622e+03
-1.147777001514020e+03  2.999434795177893e+02 -2.918975276816622e+03
-1.147764553210767e+03  2.974879445322502e+02 -2.918975276816622e+03
-1.147769148828125e+03  2.961254879242057e+02 -2.918975276816622e+03
-1.147782552429118e+03  2.948289616372707e+02 -2.918975276816622e+03
-1.147790178013880e+03  2.925105870042593e+02 -2.918975276816622e+03
-1.147800261519389e+03  2.901975120815574e+02 -2.918975276816622e+03
-1.147806582019989e+03  2.887669601945480e+02 -2.918975276816622e+03
-1.147810129512125e+03  2.873651593516493e+02 -2.918975276816622e+03
-1.147818637638799e+03  2.847012673677534e+02 -2.918975276816622e+03
-1.147822731699739e+03  2.825901517048715e+02 -2.918975276816622e+03
-1.147821502675476e+03  2.810575106727842e+02 -2.918975276816622e+03
-1.147826409678399e+03  2.790554574564467e+02 -2.918975276816622e+03
-1.147823293835483e+03  2.770928133494933e+02 -2.918975276816622e+03
-1.147825961011314e+03  2.759267100166606e+02 -2.918975276816622e+03
-1.147824806056404e+03  2.749469282869267e+02 -2.918975276816622e+03
-1.147827481776319e+03  2.729673169078894e+02 -2.918975276816622e+03
-1.147827787698985e+03  2.713071001278478e+02 -2.918975276816622e+03
-1.147832639823788e+03  2.700163082890668e+02 -2.918975276816622e+03
-1.147831001108721e+03  2.679114511285480e+02 -2.918975276816622e+03
-1.147827135007484e+03  2.661260391541587e+02 -2.918975276816622e+03
-1.147823254087356e+03  2.642988551064044e+02 -2.918975276816622e+03
-1.147815641846747e+03  2.620274736750935e+02 -2.918975276816622e+03
-1.147815219170495e+03  2.605073392517154e+02 -2.918975276816622e+03
-1.147808782300514e+03  2.590225835542875e+02 -2.918975276816622e+03
-1.147806243601009e+03  2.573820406425330e+02 -2.918975276816622e+03
-1.147790536485550e+03  2.553770921546671e+02 -2.918975276816622e+03
-1.147776555055796e+03  2.527129616306925e+02 -2.918975276816622e+03
-1.147749180534082e+03  2.508080134071261e+02 -2.918975276816622e+03
-1.147747649536116e+03  2.498437664286817e+02 -2.918975276816622e+03
-1.147724571053539e+03  2.482926764481428e+02 -2.918975276816622e+03
-1.147714287704264e+03  2.464601002766590e+02 -2.918975276816622e+03
-1.147683813742951e+03  2.447023324726838e+02 -2.918975276816622e+03
-1.147659325713895e+03  2.434702166619509e+02 -2.918975276816622e+03
-1.147624408413226e+03  2.420008076594744e+02 -2.918975276816622e+03
-1.147597610033056e+03  2.403679238649026e+02 -2.918975276816622e+03
-1.147552519746131e+03  2.393050484400968e+02 -2.918975276816622e+03
-1.147516690956065e+03  2.374151209194422e+02 -2.918975276816622e+03
-1.147489480132592e+03  2.358196698270886e+02 -2.918975276816622e+03
-1.147468126307474e+03  2.347034328869505e+02 -2.918975276816622e+03
-1.147418281908571e+03  2.329948023821543e+02 -2.918975276816622e+03
-1.147359670679969e+03  2.312586995237876e+02 -2.918975276816622e+03
-1.147327758934622e+03  2.300706131979281e+02 -2.918975276816622e+03
-1.147270108399066e+03  2.284270396916147e+02 -2.918975276816622e+03
-1.147216800219103e+03  2.268004178552791e+02 -2.918975276816622e+03
-1.147153266571501e+03  2.253685161802640e+02 -2.918975276816622e+03
-1.147097816448886e+03  2.238838715732384e+02 -2.918975276816622e+03
-1.146984198937973e+03  2.218822810559509e+02 -2.918975276816622e+03
-1.146778389831758e+03  2.184719752816914e+02 -2.918975276816622e+03
-1.146556848457260e+03  2.163075958602112e+02 -2.918975276816622e+03
-1.146667712315315e+03  2.152715676491251e+02 -2.918975276816622e+03
-1.146759521078013e+03  2.137598420781782e+02 -2.918975276816622e+03
-1.146808422169809e+03  2.124806833042788e+02 -2.918975276816622e+03
-1.146861412330875e+03  2.110785510274200e+02 -2.918975276816622e+03
-1.146905570890837e+03  2.097160433014463e+02 -2.918975276816622e+03
-1.146947311805393e+03  2.081753446900145e+02 -2.918975276816622e+03
-1.146975548896394e+03  2.065031257812813e+02 -2.918975276816622e+03
-1.147005173457729e+03  2.049744436803755e+02 -2.918975276816622e+03
-1.146986997551819e+03  2.036526220139298e+02 -2.918975276816622e+03
-1.147047080783228e+03  2.020632647463832e+02 -2.918975276816622e+03
-1.147056087747572e+03  1.998260039023124e+02 -2.918975276816622e+03
-1.147089304405789e+03  1.974947653543204e+02 -2.918975276816622e+03
-1.147080350384190e+03  1.942324343259477e+02 -2.918975276816622e+03
-1.147080605953436e+03  1.912255685020091e+02 -2.918975276816622e+03
-1.147070025910567e+03  1.897099882521540e+02 -2.918975276816622e+03
-1.147058140486554e+03  1.882210872297140e+02 -2.918975276816622e+03
-1.147043372740438e+03  1.867955645702005e+02 -2.918975276816622e+03
-1.147018873284646e+03  1.853634545442444e+02 -2.918975276816622e+03
-1.146992860396598e+03  1.838933485180599e+02 -2.918975276816622e+03
-1.146926583770219e+03  1.819511785131217e+02 -2.918975276816622e+03
-1.146859504311641e+03  1.797877102974141e+02 -2.918975276816622e+03
-1.146789848828710e+03  1.786956588052543e+02 -2.918975276816622e+03
-1.146740344663549e+03  1.772916734889836e+02 -2.918975276816622e+03
-1.146696368069548e+03  1.761731704598110e+02 -2.918975276816622e+03
-1.146766836339706e+03  1.747930365698969e+02 -2.918975276816622e+03
-1.146849885799406e+03  1.726262483885503e+02 -2.918975276816622e+03
-1.146888974908010e+03  1.709786656210531e+02 -2.918975276816622e+03
-1.146919507717414e+03  1.696179551736836e+02 -2.918975276816622e+03
-1.146937410955413e+03  1.682315187351456e+02 -2.918975276816622e+03
-1.146955521078496e+03  1.668327320923678e+02 -2.918975276816622e+03
-1.146969410382856e+03  1.652794045596008e+02 -2.918975276816622e+03
-1.146974935611237e+03  1.638292350565821e+02 -2.918975276816622e+03
-1.146969468339778e+03  1.621612687148105e+02 -2.918975276816622e+03
-1.146969547680114e+03  1.606791211483572e+02 -2.918975276816622e+03
-1.146974129723872e+03  1.593132046527896e+02 -2.918975276816622e+03
-1.146991787675643e+03  1.569472918564015e+02 -2.918975276816622e+03
-1.146999915083240e+03  1.543965564564891e+02 -2.918975276816622e+03
-1.147002086786092e+03  1.523912173399832e+02 -2.918975276816622e+03
-1.147011683761457e+03  1.507995953959463e+02 -2.918975276816622e+03
-1.147012315847642e+03  1.495116032385127e+02 -2.918975276816622e+03
-1.147019498867092e+03  1.482862852618366e+02 -2.918975276816622e+03
-1.147044081684052e+03  1.469102536592291e+02 -2.918975276816622e+03
-1.147053912394080e+03  1.453311237395962e+02 -2.918975276816622e+03
-1.147048086044937e+03  1.438237209525496e+02 -2.918975276816622e+03
-1.147025289525944e+03  1.421555470782791e+02 -2.918975276816622e+03
-1.147027054580505e+03  1.408843866974889e+02 -2.918975276816622e+03
-1.147056420211295e+03  1.396951726261794e+02 -2.918975276816622e+03
-1.147069735514784e+03  1.378412940049006e+02 -2.918975276816622e+03
-1.147087848885541e+03  1.368221439000171e+02 -2.918975276816622e+03
-1.147105853297448e+03  1.354007650635758e+02 -2.918975276816622e+03
-1.147161814276072e+03  1.336374787374055e+02 -2.918975276816622e+03
-1.147214427947123e+03  1.317554156319669e+02 -2.918975276816622e+03
-1.147255238561388e+03  1.298631896383831e+02 -2.918975276816622e+03
-1.147309473682865e+03  1.283925540503053e+02 -2.918975276816622e+03
-1.147347202036557e+03  1.266429445082473e+02 -2.918975276816622e+03
-1.147399617737877e+03  1.245956012263269e+02 -2.918975276816622e+03
-1.147447723103638e+03  1.222553451764002e+02 -2.918975276816622e+03
-1.147469763024176e+03  1.206244117945615e+02 -2.918975276816622e+03
-1.147521987263789e+03  1.189879790501554e+02 -2.918975276816622e+03
-1.147570979530709e+03  1.163401640960753e+02 -2.918975276816622e+03
-1.147619146306826e+03  1.138787908031443e+02 -2.918975276816622e+03
-1.147642233082689e+03  1.124421982089124e+02 -2.918975276816622e+03
-1.147669049731275e+03  1.112416126314797e+02 -2.918975276816622e+03
-1.147687635163682e+03  1.100166029574071e+02 -2.918975276816622e+03
-1.147719329191510e+03  1.083608315632563e+02 -2.918975276816622e+03
-1.147735730915891e+03  1.066242506449476e+02 -2.918975276816622e+03
-1.147755444953480e+03  1.053385765924490e+02 -2.918975276816622e+03
-1.147769558341646e+03  1.040196697748486e+02 -2.918975276816622e+03
-1.147797926829943e+03  1.022292959748898e+02 -2.918975276816622e+03
-1.147836226108234e+03  1.004773127197063e+02 -2.918975276816622e+03
-1.147876530032532e+03  9.927157022581115e+01 -2.918975276816622e+03
-1.147899335535074e+03  9.781514299125263e+01 -2.918975276816622e+03
-1.147852272868868e+03  9.608960914363452e+01 -2.918975276816622e+03
-1.147859356061823e+03  9.331928916637177e+01 -2.918975276816622e+03
-1.147908242658815e+03  9.014570301724744e+01 -2.918975276816622e+03
-1.147944137163786e+03  8.723160710895709e+01 -2.918975276816622e+03
-1.147896940950301e+03  8.399342668455380e+01 -2.918975276816622e+03
-1.147876348305642e+03  8.161109298795581e+01 -2.918975276816622e+03
-1.147837588871797e+03  7.992598037979330e+01 -2.918975276816622e+03
-1.147842060971367e+03  7.757384345672956e+01 -2.918975276816622e+03
-1.147805493244753e+03  7.500120756235553e+01 -2.918975276816622e+03
-1.147750396834362e+03  7.275515816817280e+01 -2.918975276816622e+03
-1.147737978071847e+03  7.114921634514799e+01 -2.918975276816622e+03
-1.147739015344491e+03  6.935479852864314e+01 -2.918975276816622e+03
-1.147753039777909e+03  6.775773342572829e+01 -2.918975276816622e+03
-1.147759205729557e+03  6.651217040074782e+01 -2.918975276816622e+03
-1.147793848746079e+03  6.378730121962944e+01 -2.918975276816622e+03
-1.147815096662397e+03  6.025168099334179e+01 -2.918975276816622e+03
-1.147850388867785e+03  5.682012222120514e+01 -2.918975276816622e+03
-1.147851068241391e+03  5.403475180771633e+01 -2.918975276816622e+03
-1.147914382589633e+03  5.207117505912737e+01 -2.918975276816622e+03
-1.147916258197039e+03  5.034470749449058e+01 -2.918975276816622e+03
-1.147962359580973e+03  4.848939859253019e+01 -2.918975276816622e+03
-1.147950316017755e+03  4.599508411812966e+01 -2.918975276816622e+03
-1.148008111382565e+03  4.345796380106261e+01 -2.918975276816622e+03
-1.148049212906694e+03  4.154199447396665e+01 -2.918975276816622e+03
-1.148038690036180e+03  4.045333412546277e+01 -2.918975276816622e+03
-1.148005135070460e+03  3.909611040834642e+01 -2.918975276816622e+03
-1.148091176003476e+03  3.670314824239678e+01 -2.918975276816622e+03
-1.148219727885149e+03  3.350911461066094e+01 -2.918975276816622e+03
-1.148191851485310e+03  3.029742335409198e+01 -2.918975276816622e+03
-1.148286571348281e+03  2.752813080210146e+01 -2.918975276816622e+03
-1.148264233065289e+03  2.457298569058636e+01 -2.918975276816622e+03
-1.148256578050922e+03  2.294480387252438e+01 -2.918975276816622e+03
-1.148323570334756e+03  2.198852227381959e+01 -2.918975276816622e+03
-1.148373177945674e+03  2.065021736847584e+01 -2.918975276816622e+03
-1.148404889856620e+03  1.908778554406867e+01 -2.918975276816622e+03
-1.148449504155633e+03  1.732385590122765e+01 -2.918975276816622e+03
-1.148484399584303e+03  1.513819684131082e+01 -2.918975276816622e+03
-1.148528707683007e+03  1.217801824369186e+01 -2.918975276816622e+03
-1.148545596707640e+03  9.160718393533161e+00 -2.918975276816622e+03
-1.148560443967854e+03  6.914315695072131e+00 -2.918975276816622e+03
-1.148562947808300e+03  5.698712556791480e+00 -2.918975276816622e+03
 1.145919684954595e+03 -3.899952194646085e-01  2.918975276816622e+03
1.145917686825384e+03 1.500303696165028e+00 2.918975276816622e+03
 1.145842639379043e+03 -2.242217250123943e+00  2.918975276816622e+03
 1.145833993105993e+03 -3.992173065006089e+00  2.918975276816622e+03
 1.145804372412464e+03 -5.549429259685380e+00  2.918975276816622e+03
 1.145778922816859e+03 -7.748754792821349e+00  2.918975276816622e+03
 1.145748767529954e+03 -9.365535455992053e+00  2.918975276816622e+03
 1.145721102040323e+03 -1.082758598370598e+01  2.918975276816622e+03
 1.145681427404990e+03 -1.260356744579573e+01  2.918975276816622e+03
 1.145603181731532e+03 -1.522826084989755e+01  2.918975276816622e+03
 1.145509895040877e+03 -1.815166971246067e+01  2.918975276816622e+03
 1.145420933736874e+03 -2.041119829134039e+01  2.918975276816622e+03
 1.145331112421086e+03 -2.269811159939530e+01  2.918975276816622e+03
 1.145241958737132e+03 -2.498426265665730e+01  2.918975276816622e+03
 1.145168784220805e+03 -2.693972784107619e+01  2.918975276816622e+03
 1.145100666027324e+03 -2.879957258703625e+01  2.918975276816622e+03
 1.145059625429848e+03 -3.000960586721291e+01  2.918975276816622e+03
 1.145029127166066e+03 -3.100559984918871e+01  2.918975276816622e+03
 1.144981791134626e+03 -3.255186227838227e+01  2.918975276816622e+03
 1.144932984575651e+03 -3.448833832193553e+01  2.918975276816622e+03
 1.144873614793330e+03 -3.690745015462937e+01  2.918975276816622e+03
 1.144852598645968e+03 -3.867765340676105e+01  2.918975276816622e+03
 1.144809758292299e+03 -4.055055026743086e+01  2.918975276816622e+03
 1.144756852898370e+03 -4.343619842976543e+01  2.918975276816622e+03
 1.144723751467931e+03 -4.527245919367431e+01  2.918975276816622e+03
 1.144746925068755e+03 -4.637182702114337e+01  2.918975276816622e+03
 1.144738618529517e+03 -4.827092649674206e+01  2.918975276816622e+03
 1.144749573683299e+03 -4.986675591285236e+01  2.918975276816622e+03
 1.144744267598282e+03 -5.209735002473158e+01  2.918975276816622e+03
 1.144770595118426e+03 -5.442959898110696e+01  2.918975276816622e+03
 1.144769636475958e+03 -5.570663153199824e+01  2.918975276816622e+03
 1.144787049907698e+03 -5.750738575518262e+01  2.918975276816622e+03
 1.144798939274989e+03 -5.953166578703888e+01  2.918975276816622e+03
 1.144807032499351e+03 -6.140118839503675e+01  2.918975276816622e+03
 1.144840581093179e+03 -6.309176513923864e+01  2.918975276816622e+03
 1.144910135241553e+03 -6.429888087063513e+01  2.918975276816622e+03
 1.144953358845269e+03 -6.512585483626493e+01  2.918975276816622e+03
 1.144855003161282e+03 -6.619641166425644e+01  2.918975276816622e+03
 1.144843239020594e+03 -6.778543882423826e+01  2.918975276816622e+03
 1.144829867800902e+03 -6.945425540900912e+01  2.918975276816622e+03
 1.144842842427319e+03 -7.147642256013374e+01  2.918975276816622e+03
 1.144842453375951e+03 -7.383322484478801e+01  2.918975276816622e+03
 1.144873471444312e+03 -7.686794433821932e+01  2.918975276816622e+03
 1.144895367482881e+03 -7.971280197269567e+01  2.918975276816622e+03
 1.144922816838852e+03 -8.149737044852874e+01  2.918975276816622e+03
 1.144947205594651e+03 -8.313087341409430e+01  2.918975276816622e+03
 1.144975733232144e+03 -8.448616302192329e+01  2.918975276816622e+03
 1.145004154253369e+03 -8.505052248918295e+01  2.918975276816622e+03
 1.145013563149772e+03 -8.563746568983829e+01  2.918975276816622e+03
 1.145001059637832e+03 -8.670273485098262e+01  2.918975276816622e+03
 1.144982174602350e+03 -8.802223971140864e+01  2.918975276816622e+03
 1.144980198278595e+03 -8.952117460657263e+01  2.918975276816622e+03
 1.144961993946963e+03 -9.135137883628482e+01  2.918975276816622e+03
 1.144960560220765e+03 -9.360318804018465e+01  2.918975276816622e+03
 1.144973622662069e+03 -9.637805352956032e+01  2.918975276816622e+03
 1.144985467007570e+03 -9.870305275087030e+01  2.918975276816622e+03
 1.145000611825199e+03 -1.005621603500272e+02  2.918975276816622e+03
 1.145027474458619e+03 -1.022697259806292e+02  2.918975276816622e+03
 1.145046589063252e+03 -1.034656143898073e+02  2.918975276816622e+03
 1.145058598499273e+03 -1.041984080759514e+02  2.918975276816622e+03
 1.145050753327015e+03 -1.048948949851977e+02  2.918975276816622e+03
 1.145059651515923e+03 -1.059131009850865e+02  2.918975276816622e+03
 1.145009316217339e+03 -1.069036124267754e+02  2.918975276816622e+03
 1.144973242037588e+03 -1.087097177104385e+02  2.918975276816622e+03
 1.145020677223632e+03 -1.100410299212992e+02  2.918975276816622e+03
 1.145009858966759e+03 -1.112777127553094e+02  2.918975276816622e+03
 1.144960716417475e+03 -1.134858831514324e+02  2.918975276816622e+03
 1.144934366730833e+03 -1.158007229212168e+02  2.918975276816622e+03
 1.144930809906833e+03 -1.182222320646627e+02  2.918975276816622e+03
 1.144874908582919e+03 -1.205587530553610e+02  2.918975276816622e+03
 1.144450442285094e+03 -1.225408614835036e+02  2.918975276816622e+03
 1.144582947794923e+03 -1.235190867668810e+02  2.918975276816622e+03
 1.144983047288814e+03 -1.250690424090081e+02  2.918975276816622e+03
 1.144976812180019e+03 -1.276136545922731e+02  2.918975276816622e+03
 1.145034617996312e+03 -1.294669726174088e+02  2.918975276816622e+03
 1.144983307575869e+03 -1.313457065185621e+02  2.918975276816622e+03
 1.144958103688509e+03 -1.336296179012932e+02  2.918975276816622e+03
 1.144960655420055e+03 -1.363641913628718e+02  2.918975276816622e+03
 1.144938310147438e+03 -1.386089813051694e+02  2.918975276816622e+03
 1.144901478260365e+03 -1.411163325491297e+02  2.918975276816622e+03
 1.144919168793652e+03 -1.438874203472002e+02  2.918975276816622e+03
 1.144937058844057e+03 -1.458111829466431e+02  2.918975276816622e+03
 1.144941177681318e+03 -1.477343140374701e+02  2.918975276816622e+03
 1.144939718371577e+03 -1.494430049702860e+02  2.918975276816622e+03
 1.144929662593132e+03 -1.514056398544291e+02  2.918975276816622e+03
 1.144918974174474e+03 -1.537440821922411e+02  2.918975276816622e+03
 1.144918127165470e+03 -1.568082322191926e+02  2.918975276816622e+03
 1.144912999839225e+03 -1.596022993666712e+02  2.918975276816622e+03
 1.144916999222491e+03 -1.613288752189458e+02  2.918975276816622e+03
 1.144915525731021e+03 -1.630508685094136e+02  2.918975276816622e+03
 1.144919334532027e+03 -1.645417870459490e+02  2.918975276816622e+03
 1.144926284983230e+03 -1.653556674112015e+02  2.918975276816622e+03
 1.144919485145148e+03 -1.663780194531899e+02  2.918975276816622e+03
 1.144897885985013e+03 -1.679236143741390e+02  2.918975276816622e+03
 1.144871996574905e+03 -1.694126791586471e+02  2.918975276816622e+03
 1.144818825178360e+03 -1.713805534245148e+02  2.918975276816622e+03
 1.144710751059159e+03 -1.738196932578428e+02  2.918975276816622e+03
 1.144672560299543e+03 -1.767853074281658e+02  2.918975276816622e+03
 1.144635029581452e+03 -1.794047422606120e+02  2.918975276816622e+03
 1.144621431514065e+03 -1.809217946667668e+02  2.918975276816622e+03
 1.144665813888922e+03 -1.836299106503021e+02  2.918975276816622e+03
 1.144722291192383e+03 -1.865266332824743e+02  2.918975276816622e+03
 1.144745437949585e+03 -1.881527696296235e+02  2.918975276816622e+03
 1.144774136213788e+03 -1.895973244953545e+02  2.918975276816622e+03
 1.144833566343043e+03 -1.914213850128367e+02  2.918975276816622e+03
 1.144837575828966e+03 -1.937681320586283e+02  2.918975276816622e+03
 1.144846475763924e+03 -1.968578592227708e+02  2.918975276816622e+03
 1.144846817779364e+03 -2.008406125849532e+02  2.918975276816622e+03
 1.144849832005458e+03 -2.048506696943238e+02  2.918975276816622e+03
 1.144852267087539e+03 -2.075962935783373e+02  2.918975276816622e+03
 1.144846198440865e+03 -2.092500237402403e+02  2.918975276816622e+03
 1.144842694018012e+03 -2.112772783770338e+02  2.918975276816622e+03
 1.144833557824514e+03 -2.136282603179723e+02  2.918975276816622e+03
 1.144839060248423e+03 -2.158788329606772e+02  2.918975276816622e+03
 1.144843160241876e+03 -2.178070395794301e+02  2.918975276816622e+03
 1.144821237853436e+03 -2.199321026532625e+02  2.918975276816622e+03
 1.144789334130962e+03 -2.224759789078929e+02  2.918975276816622e+03
 1.144785641452808e+03 -2.244464054801384e+02  2.918975276816622e+03
 1.144815855886517e+03 -2.269980033870628e+02  2.918975276816622e+03
 1.144799997716610e+03 -2.295094070439622e+02  2.918975276816622e+03
 1.144782696404331e+03 -2.315578771272918e+02  2.918975276816622e+03
 1.144769335772682e+03 -2.335630496530621e+02  2.918975276816622e+03
 1.144774094906055e+03 -2.354911087172573e+02  2.918975276816622e+03
 1.144772692080118e+03 -2.378638042308842e+02  2.918975276816622e+03
 1.144787180805730e+03 -2.401604771517925e+02  2.918975276816622e+03
 1.144764473398960e+03 -2.431824871387722e+02  2.918975276816622e+03
 1.144786043693897e+03 -2.464701738493023e+02  2.918975276816622e+03
 1.144878672831626e+03 -2.484428573223043e+02  2.918975276816622e+03
 1.145017675081728e+03 -2.510035824410043e+02  2.918975276816622e+03
 1.145328124314812e+03 -2.543529240245268e+02  2.918975276816622e+03
 1.145045604336024e+03 -2.566272067763704e+02  2.918975276816622e+03
 1.144839308831555e+03 -2.582576672264710e+02  2.918975276816622e+03
 1.145010280344861e+03 -2.598144329515359e+02  2.918975276816622e+03
 1.144928073966141e+03 -2.620214244716510e+02  2.918975276816622e+03
 1.144912717119080e+03 -2.645513982185521e+02  2.918975276816622e+03
 1.144930579833567e+03 -2.674287741280930e+02  2.918975276816622e+03
 1.144999384037616e+03 -2.695322403179624e+02  2.918975276816622e+03
 1.145070269970917e+03 -2.713869722060634e+02  2.918975276816622e+03
 1.145083288134396e+03 -2.730716686274639e+02  2.918975276816622e+03
 1.145099640169047e+03 -2.746158936556536e+02  2.918975276816622e+03
 1.145135630141188e+03 -2.772027320264309e+02  2.918975276816622e+03
 1.145140741638162e+03 -2.797568584187176e+02  2.918975276816622e+03
 1.145140898164709e+03 -2.821378011439585e+02  2.918975276816622e+03
 1.145159397017987e+03 -2.850291884867336e+02  2.918975276816622e+03
 1.145206234553417e+03 -2.876565050087952e+02  2.918975276816622e+03
 1.145197105771545e+03 -2.896584116801461e+02  2.918975276816622e+03
 1.145215372540289e+03 -2.919360560744926e+02  2.918975276816622e+03
 1.145195748398634e+03 -2.940914029391246e+02  2.918975276816622e+03
 1.145228753043355e+03 -2.969013600282307e+02  2.918975276816622e+03
 1.145300546597251e+03 -2.989594316205992e+02  2.918975276816622e+03
 1.145278419398741e+03 -3.008951430825738e+02  2.918975276816622e+03
 1.145269389992387e+03 -3.031280652236620e+02  2.918975276816622e+03
 1.145221721805674e+03 -3.047761462064268e+02  2.918975276816622e+03
 1.145173485304985e+03 -3.070752406077460e+02  2.918975276816622e+03
 1.145163079175293e+03 -3.091790941308332e+02  2.918975276816622e+03
 1.145107530986720e+03 -3.112040217686285e+02  2.918975276816622e+03
 1.145084356397694e+03 -3.129140601551773e+02  2.918975276816622e+03
 1.145046813068105e+03 -3.142426375933064e+02  2.918975276816622e+03
 1.145014658318767e+03 -3.164449660491342e+02  2.918975276816622e+03
 1.144978657824647e+03 -3.185249082364758e+02  2.918975276816622e+03
 1.144952025499662e+03 -3.203230731012006e+02  2.918975276816622e+03
 1.144921457366480e+03 -3.224629328318272e+02  2.918975276816622e+03
 1.144882872643716e+03 -3.247281615231342e+02  2.918975276816622e+03
 1.144884536998650e+03 -3.262262021005677e+02  2.918975276816622e+03
 1.144896588543716e+03 -3.276943482681563e+02  2.918975276816622e+03
 1.144857466043542e+03 -3.303617013612638e+02  2.918975276816622e+03
 1.144820222955303e+03 -3.330216139005570e+02  2.918975276816622e+03
 1.144781477438742e+03 -3.361400309273815e+02  2.918975276816622e+03
 1.144746675310620e+03 -3.383920034461664e+02  2.918975276816622e+03
 1.144700162255680e+03 -3.397418617636720e+02  2.918975276816622e+03
 1.144696542567541e+03 -3.418813427350864e+02  2.918975276816622e+03
 1.144658694407547e+03 -3.440630567622900e+02  2.918975276816622e+03
 1.144643954958275e+03 -3.468787448920963e+02  2.918975276816622e+03
 1.144598751320800e+03 -3.500784148707651e+02  2.918975276816622e+03
 1.144549577840966e+03 -3.524029361300485e+02  2.918975276816622e+03
 1.144505094824875e+03 -3.552727109359645e+02  2.918975276816622e+03
 1.144439306437528e+03 -3.584212976167712e+02  2.918975276816622e+03
 1.144610923442426e+03 -3.599192135870434e+02  2.918975276816622e+03
 1.144637075155126e+03 -3.610478794279909e+02  2.918975276816622e+03
 1.144624970420725e+03 -3.631942570465404e+02  2.918975276816622e+03
 1.144672166067487e+03 -3.656650322077653e+02  2.918975276816622e+03
 1.144714222354926e+03 -3.677405083575206e+02  2.918975276816622e+03
 1.144754226012219e+03 -3.699734127252592e+02  2.918975276816622e+03
 1.144782812553444e+03 -3.715318773284976e+02  2.918975276816622e+03
 1.144813439720851e+03 -3.734839313569784e+02  2.918975276816622e+03
 1.144862878446942e+03 -3.765688010830614e+02  2.918975276816622e+03
 1.144897406294144e+03 -3.791251593838414e+02  2.918975276816622e+03
 1.144914756175203e+03 -3.816409469809130e+02  2.918975276816622e+03
 1.144950436596581e+03 -3.831929540133306e+02  2.918975276816622e+03
 1.144982780677586e+03 -3.849364806998387e+02  2.918975276816622e+03
1.145010235271621e+03 3.830865668544466e+02 2.918975276816622e+03
1.144990972207870e+03 3.856113324349515e+02 2.918975276816622e+03
1.145050769680023e+03 3.800883940195776e+02 2.918975276816622e+03
1.145059189982482e+03 3.783696535169457e+02 2.918975276816622e+03
1.145070443528963e+03 3.771436400562928e+02 2.918975276816622e+03
1.145088345341605e+03 3.750315034397245e+02 2.918975276816622e+03
1.145096139784884e+03 3.732473851107770e+02 2.918975276816622e+03
1.145111358508573e+03 3.720217140092361e+02 2.918975276816622e+03
1.145138236142133e+03 3.692620665692432e+02 2.918975276816622e+03
1.145171520949580e+03 3.663441789741161e+02 2.918975276816622e+03
1.145169495173569e+03 3.640058566267329e+02 2.918975276816622e+03
1.145208333805397e+03 3.612961200309111e+02 2.918975276816622e+03
1.145245349315253e+03 3.590810552675023e+02 2.918975276816622e+03
1.145272714031184e+03 3.576717696205402e+02 2.918975276816622e+03
1.145279706607133e+03 3.562980829248798e+02 2.918975276816622e+03
1.145328418755960e+03 3.545969893686835e+02 2.918975276816622e+03
1.145378066828918e+03 3.527264022890751e+02 2.918975276816622e+03
1.145419414874222e+03 3.510619786387005e+02 2.918975276816622e+03
1.145479543050751e+03 3.492519654122181e+02 2.918975276816622e+03
1.145551409215308e+03 3.474383583810877e+02 2.918975276816622e+03
1.145600376744885e+03 3.457196613523988e+02 2.918975276816622e+03
1.145628692854674e+03 3.441199548514339e+02 2.918975276816622e+03
1.145660837784291e+03 3.426244921021643e+02 2.918975276816622e+03
1.145722165655564e+03 3.407818371819536e+02 2.918975276816622e+03
1.145802367041130e+03 3.390197188613063e+02 2.918975276816622e+03
1.145910974969987e+03 3.364221183717883e+02 2.918975276816622e+03
1.146101585850909e+03 3.331513798887420e+02 2.918975276816622e+03
1.146348420801147e+03 3.302936593844911e+02 2.918975276816622e+03
1.146518300779756e+03 3.288262631555390e+02 2.918975276816622e+03
1.146245303187386e+03 3.273756386443122e+02 2.918975276816622e+03
1.146105295416225e+03 3.248113127889018e+02 2.918975276816622e+03
1.146026265308245e+03 3.224481344433117e+02 2.918975276816622e+03
1.145916552695287e+03 3.203419568465513e+02 2.918975276816622e+03
1.145915703962086e+03 3.189529289309031e+02 2.918975276816622e+03
1.145899810473293e+03 3.173476937943947e+02 2.918975276816622e+03
1.145855514814891e+03 3.147996569111906e+02 2.918975276816622e+03
1.145805929077065e+03 3.126927544480060e+02 2.918975276816622e+03
1.145841800587289e+03 3.116866166375667e+02 2.918975276816622e+03
1.145824452581604e+03 3.105602367641085e+02 2.918975276816622e+03
1.145795916427608e+03 3.087234496987294e+02 2.918975276816622e+03
1.145753452250697e+03 3.071555825625006e+02 2.918975276816622e+03
1.145755739191580e+03 3.053780609166058e+02 2.918975276816622e+03
1.145739521290900e+03 3.031283495115848e+02 2.918975276816622e+03
1.145726749413673e+03 3.017418667762408e+02 2.918975276816622e+03
1.145724991194811e+03 3.001940563579992e+02 2.918975276816622e+03
1.145708154204882e+03 2.982110059332535e+02 2.918975276816622e+03
1.145683755627265e+03 2.964629380275949e+02 2.918975276816622e+03
1.145666156009183e+03 2.946206729510438e+02 2.918975276816622e+03
1.145644251180551e+03 2.928678576651991e+02 2.918975276816622e+03
1.145617437727890e+03 2.906919508614756e+02 2.918975276816622e+03
1.145581735002992e+03 2.882636394052578e+02 2.918975276816622e+03
1.145542342034309e+03 2.860286397616682e+02 2.918975276816622e+03
1.145500598200224e+03 2.840115899871931e+02 2.918975276816622e+03
1.145463981440607e+03 2.819435246078301e+02 2.918975276816622e+03
1.145372781219827e+03 2.791034514039638e+02 2.918975276816622e+03
1.145283941659242e+03 2.763144366671348e+02 2.918975276816622e+03
1.145187724869094e+03 2.732326184027510e+02 2.918975276816622e+03
1.145067921478901e+03 2.700395199348557e+02 2.918975276816622e+03
1.144992640535669e+03 2.677753574211705e+02 2.918975276816622e+03
1.144953178588592e+03 2.658939881816744e+02 2.918975276816622e+03
1.144854496348846e+03 2.637552108727361e+02 2.918975276816622e+03
1.144748251993122e+03 2.604997494523892e+02 2.918975276816622e+03
1.144729226013243e+03 2.583067577383057e+02 2.918975276816622e+03
1.144705251690746e+03 2.568306203561839e+02 2.918975276816622e+03
1.144676587822635e+03 2.545323848319828e+02 2.918975276816622e+03
1.144643661792836e+03 2.524509598693927e+02 2.918975276816622e+03
1.144633989822441e+03 2.508231469800454e+02 2.918975276816622e+03
1.144619312625674e+03 2.493901580245578e+02 2.918975276816622e+03
1.144674394670575e+03 2.478628940315687e+02 2.918975276816622e+03
1.144640497479405e+03 2.464154054447477e+02 2.918975276816622e+03
1.144562280280634e+03 2.451438721010378e+02 2.918975276816622e+03
1.144576648962737e+03 2.437230992076294e+02 2.918975276816622e+03
1.144592168932156e+03 2.425044225915796e+02 2.918975276816622e+03
1.144641096718081e+03 2.411867085236330e+02 2.918975276816622e+03
1.144677965446928e+03 2.391011661238098e+02 2.918975276816622e+03
1.144724872626242e+03 2.367420510482783e+02 2.918975276816622e+03
1.144766871458339e+03 2.347625607625789e+02 2.918975276816622e+03
1.144811837248147e+03 2.326523147837038e+02 2.918975276816622e+03
1.144876042005042e+03 2.299547988196697e+02 2.918975276816622e+03
1.144921906918268e+03 2.279892780815629e+02 2.918975276816622e+03
1.144946289588996e+03 2.268521771712138e+02 2.918975276816622e+03
1.144959707400935e+03 2.250722263203013e+02 2.918975276816622e+03
1.144982461681056e+03 2.228401957005682e+02 2.918975276816622e+03
1.145023983093913e+03 2.210266675823543e+02 2.918975276816622e+03
1.145052262902135e+03 2.191217439993967e+02 2.918975276816622e+03
1.145077056563286e+03 2.169172277215982e+02 2.918975276816622e+03
1.145125579681543e+03 2.142728827296944e+02 2.918975276816622e+03
1.145159123661221e+03 2.119630077700744e+02 2.918975276816622e+03
1.145174626295996e+03 2.099496089076135e+02 2.918975276816622e+03
1.145175595409052e+03 2.081964860101936e+02 2.918975276816622e+03
1.145231200066765e+03 2.069687908039855e+02 2.918975276816622e+03
1.145263947726816e+03 2.061481019831047e+02 2.918975276816622e+03
1.145285089686898e+03 2.053447209595999e+02 2.918975276816622e+03
1.145292921127079e+03 2.043086211710212e+02 2.918975276816622e+03
1.145286566740648e+03 2.033066755698209e+02 2.918975276816622e+03
1.145264801203466e+03 2.019888394752025e+02 2.918975276816622e+03
1.145225166678642e+03 2.008023590252851e+02 2.918975276816622e+03
1.145237569951021e+03 1.990564850727746e+02 2.918975276816622e+03
1.145204256549347e+03 1.966394680381099e+02 2.918975276816622e+03
1.145192163143035e+03 1.938136447109061e+02 2.918975276816622e+03
1.145176722676357e+03 1.900886300397948e+02 2.918975276816622e+03
1.145161020480868e+03 1.871544330758059e+02 2.918975276816622e+03
1.145133356120003e+03 1.849739239665373e+02 2.918975276816622e+03
1.145125316278488e+03 1.826404214959818e+02 2.918975276816622e+03
1.145166658624747e+03 1.810267988869090e+02 2.918975276816622e+03
1.145139965058008e+03 1.792278870729549e+02 2.918975276816622e+03
1.145051745402138e+03 1.768983277351211e+02 2.918975276816622e+03
1.145024294010222e+03 1.743207446659080e+02 2.918975276816622e+03
1.144921816662761e+03 1.720977990288850e+02 2.918975276816622e+03
1.144868997391258e+03 1.699651816087799e+02 2.918975276816622e+03
1.144798124622194e+03 1.683092597932376e+02 2.918975276816622e+03
1.144833916656805e+03 1.673899541997147e+02 2.918975276816622e+03
1.144763000137728e+03 1.662894076079014e+02 2.918975276816622e+03
1.144682467040793e+03 1.651565059157772e+02 2.918975276816622e+03
1.144458696237424e+03 1.641651928839005e+02 2.918975276816622e+03
1.144292156214422e+03 1.632488612393239e+02 2.918975276816622e+03
1.144569899120061e+03 1.611998624438694e+02 2.918975276816622e+03
1.144684193895011e+03 1.581883302017006e+02 2.918975276816622e+03
1.144805823489740e+03 1.553766306600658e+02 2.918975276816622e+03
1.144440841146285e+03 1.527990937640427e+02 2.918975276816622e+03
1.144277555320654e+03 1.504672222914610e+02 2.918975276816622e+03
1.144809912770813e+03 1.483466862972429e+02 2.918975276816622e+03
1.145200555829256e+03 1.466797934136131e+02 2.918975276816622e+03
1.145463639066558e+03 1.455691311247164e+02 2.918975276816622e+03
1.145591392715111e+03 1.450268753092738e+02 2.918975276816622e+03
1.145475390666409e+03 1.444297997111296e+02 2.918975276816622e+03
1.145273300024861e+03 1.428558346472339e+02 2.918975276816622e+03
1.145137220887829e+03 1.411282707395456e+02 2.918975276816622e+03
1.145059833921822e+03 1.393146679093469e+02 2.918975276816622e+03
1.144983310567406e+03 1.371123743066896e+02 2.918975276816622e+03
1.144951418861385e+03 1.344624157828463e+02 2.918975276816622e+03
1.144928793470247e+03 1.320972522472155e+02 2.918975276816622e+03
1.144935156033268e+03 1.300982348415801e+02 2.918975276816622e+03
1.144951106864426e+03 1.283548828302323e+02 2.918975276816622e+03
1.144976080675194e+03 1.271276955792615e+02 2.918975276816622e+03
1.145013905206165e+03 1.263777639781244e+02 2.918975276816622e+03
1.145055123655523e+03 1.256463569641432e+02 2.918975276816622e+03
1.145098383681571e+03 1.249827930820786e+02 2.918975276816622e+03
1.145040132529610e+03 1.243102830674863e+02 2.918975276816622e+03
1.144911213161727e+03 1.228125365290607e+02 2.918975276816622e+03
1.144804899075037e+03 1.212281556174030e+02 2.918975276816622e+03
1.144736828845056e+03 1.193366154964889e+02 2.918975276816622e+03
1.144662950532047e+03 1.170406487561529e+02 2.918975276816622e+03
1.144566526349270e+03 1.141343527510160e+02 2.918975276816622e+03
1.144498317118059e+03 1.115290648340811e+02 2.918975276816622e+03
1.144566386223125e+03 1.099164888768262e+02 2.918975276816622e+03
1.144640263258688e+03 1.080716148409843e+02 2.918975276816622e+03
1.144719645185515e+03 1.061546667648787e+02 2.918975276816622e+03
1.144858367967111e+03 1.036717710710928e+02 2.918975276816622e+03
1.145041311997530e+03 1.013305114869791e+02 2.918975276816622e+03
1.145225531051979e+03 9.938546211433763e+01 2.918975276816622e+03
1.145340930260698e+03 9.688744058081542e+01 2.918975276816622e+03
1.145442326594442e+03 9.470924190687242e+01 2.918975276816622e+03
1.145554469741556e+03 9.249918420500501e+01 2.918975276816622e+03
1.145691362577011e+03 8.993744461563392e+01 2.918975276816622e+03
1.145828255412466e+03 8.737570502626288e+01 2.918975276816622e+03
1.145965148247921e+03 8.481396543689185e+01 2.918975276816622e+03
1.146126546035801e+03 8.193545636464080e+01 2.918975276816622e+03
1.146303420464774e+03 8.029104583489772e+01 2.918975276816622e+03
1.146391122082696e+03 7.905114865825924e+01 2.918975276816622e+03
1.146469103813391e+03 7.682164494752836e+01 2.918975276816622e+03
1.146676585873359e+03 7.439270523920138e+01 2.918975276816622e+03
1.146943143650106e+03 7.160758139508719e+01 2.918975276816622e+03
1.146465001651499e+03 6.923336215758394e+01 2.918975276816622e+03
1.146628474648742e+03 6.775706885982724e+01 2.918975276816622e+03
1.147237133702425e+03 6.592199295120147e+01 2.918975276816622e+03
1.146904664041343e+03 6.324111309857112e+01 2.918975276816622e+03
1.146905433019499e+03 6.081966820047181e+01 2.918975276816622e+03
1.147239440636891e+03 5.865765825690359e+01 2.918975276816622e+03
1.147284217184388e+03 5.728553886373589e+01 2.918975276816622e+03
1.146826139890071e+03 5.599585162441115e+01 2.918975276816622e+03
1.146646418485431e+03 5.404120263418291e+01 2.918975276816622e+03
1.146518235336482e+03 5.180718483636522e+01 2.918975276816622e+03
1.146264376882564e+03 4.993251128916882e+01 2.918975276816622e+03
1.146209463633018e+03 4.854950908517999e+01 2.918975276816622e+03
1.146136652052411e+03 4.739019023407012e+01 2.918975276816622e+03
1.146149362168323e+03 4.561845916642214e+01 2.918975276816622e+03
1.146085546153565e+03 4.332222183703620e+01 2.918975276816622e+03
1.146059938710800e+03 4.214619744996320e+01 2.918975276816622e+03
1.146061666540061e+03 4.107688654237167e+01 2.918975276816622e+03
1.146073275240080e+03 3.925213113637879e+01 2.918975276816622e+03
1.146083685436922e+03 3.713977171057911e+01 2.918975276816622e+03
1.146080460223169e+03 3.495616696045769e+01 2.918975276816622e+03
1.146129603497956e+03 3.267481801824495e+01 2.918975276816622e+03
1.146158671736291e+03 3.032243889236193e+01 2.918975276816622e+03
1.146186183197903e+03 2.819573800083403e+01 2.918975276816622e+03
1.146187139507786e+03 2.543361118754832e+01 2.918975276816622e+03
1.146220255904272e+03 2.218269938218031e+01 2.918975276816622e+03
1.146266871268608e+03 1.911073457765341e+01 2.918975276816622e+03
1.146249049621669e+03 1.633795943752413e+01 2.918975276816622e+03
1.146210450457208e+03 1.405774612498201e+01 2.918975276816622e+03
1.146204214323740e+03 1.189605224278429e+01 2.918975276816622e+03
1.146214074279785e+03 1.036950830406686e+01 2.918975276816622e+03
1.146151113615676e+03 8.826359590826248e+00 2.918975276816622e+03
1.146077573948330e+03 6.143167017635602e+00 2.918975276816622e+03
1.145947092475160e+03 3.664454706400479e+00 2.918975276816622e+03
-1.157485984673922e+03 -6.295470275467896e-01 -2.918975276816622e+03
-1.157447737106831e+03 -4.161515483777229e+00 -2.918975276816622e+03
-1.157520118019703e+03  2.745392858562686e+00 -2.918975276816622e+03
-1.157550137144174e+03  5.963304174551197e+00 -2.918975276816622e+03
-1.157408952299554e+03 -7.070672956342294e+00 -2.918975276816622e+03
-1.157369630252092e+03 -9.357019445241992e+00 -2.918975276816622e+03
-1.157361716177274e+03 -1.055960951244708e+01 -2.918975276816622e+03
-1.157432616196430e+03 -1.221677540577587e+01 -2.918975276816622e+03
-1.157492803228185e+03 -1.435956543315813e+01 -2.918975276816622e+03
-1.157517136247597e+03 -1.586753567924926e+01 -2.918975276816622e+03
-1.157577773392778e+03 -1.799654767980464e+01 -2.918975276816622e+03
-1.157652449567338e+03 -2.032871310235054e+01 -2.918975276816622e+03
-1.157587006080374e+03 -2.182940265847539e+01 -2.918975276816622e+03
-1.157473304789873e+03 -2.397294971825420e+01 -2.918975276816622e+03
-1.157418947349958e+03 -2.712416644842198e+01 -2.918975276816622e+03
-1.157324008157079e+03 -2.956918645098472e+01 -2.918975276816622e+03
-1.157221005218637e+03 -3.177467342562845e+01 -2.918975276816622e+03
-1.157173078354005e+03 -3.365185421181003e+01 -2.918975276816622e+03
-1.157117374760834e+03 -3.518358303869683e+01 -2.918975276816622e+03
-1.157069275879519e+03 -3.653362419595751e+01 -2.918975276816622e+03
-1.156990983820063e+03 -3.880510115022478e+01 -2.918975276816622e+03
-1.156977264484629e+03 -4.086862463461004e+01 -2.918975276816622e+03
-1.156906871252573e+03 -4.241154362389531e+01 -2.918975276816622e+03
-1.156808261741424e+03 -4.441767656509418e+01 -2.918975276816622e+03
-1.156810137049370e+03 -4.546337440102978e+01 -2.918975276816622e+03
-1.156808627834983e+03 -4.652496332014734e+01 -2.918975276816622e+03
-1.156771935591784e+03 -4.850432796999335e+01 -2.918975276816622e+03
-1.156733232553142e+03 -4.998128225336045e+01 -2.918975276816622e+03
-1.156707208733361e+03 -5.125345102516679e+01 -2.918975276816622e+03
-1.156668859381719e+03 -5.365350917268336e+01 -2.918975276816622e+03
-1.156665756467730e+03 -5.568957485104393e+01 -2.918975276816622e+03
-1.156653176699442e+03 -5.744515443287403e+01 -2.918975276816622e+03
-1.156653159618519e+03 -5.956384326390000e+01 -2.918975276816622e+03
-1.156647112996425e+03 -6.093641237702094e+01 -2.918975276816622e+03
-1.156652171076817e+03 -6.249710659372450e+01 -2.918975276816622e+03
-1.156650914141417e+03 -6.423207399574257e+01 -2.918975276816622e+03
-1.156650615573627e+03 -6.533253474389596e+01 -2.918975276816622e+03
-1.156653018388858e+03 -6.662426987488500e+01 -2.918975276816622e+03
-1.156665276804209e+03 -6.869518705102682e+01 -2.918975276816622e+03
-1.156658137401462e+03 -7.020932535484839e+01 -2.918975276816622e+03
-1.156662155106972e+03 -7.123177721120747e+01 -2.918975276816622e+03
-1.156652237974948e+03 -7.264823881951352e+01 -2.918975276816622e+03
-1.156652892189431e+03 -7.429946732039294e+01 -2.918975276816622e+03
-1.156647934515967e+03 -7.572150927587438e+01 -2.918975276816622e+03
-1.156641843860766e+03 -7.648023146259170e+01 -2.918975276816622e+03
-1.156634974762603e+03 -7.772868884919342e+01 -2.918975276816622e+03
-1.156626887867967e+03 -7.954267295525440e+01 -2.918975276816622e+03
-1.156627765842589e+03 -8.085380653749453e+01 -2.918975276816622e+03
-1.156623037490911e+03 -8.236530292256856e+01 -2.918975276816622e+03
-1.156622533900212e+03 -8.415706566628334e+01 -2.918975276816622e+03
-1.156609444882046e+03 -8.539541782006799e+01 -2.918975276816622e+03
-1.156607975953106e+03 -8.662648201667355e+01 -2.918975276816622e+03
-1.156585151713765e+03 -8.851884826359731e+01 -2.918975276816622e+03
-1.156577182972679e+03 -9.012127262028595e+01 -2.918975276816622e+03
-1.156558882278188e+03 -9.128466498866811e+01 -2.918975276816622e+03
-1.156547927627844e+03 -9.366086378798593e+01 -2.918975276816622e+03
-1.156522909930503e+03 -9.589885842841406e+01 -2.918975276816622e+03
-1.156516958786176e+03 -9.773396643570339e+01 -2.918975276816622e+03
-1.156486731246738e+03 -1.000802166886846e+02 -2.918975276816622e+03
-1.156447917870111e+03 -1.012977019914433e+02 -2.918975276816622e+03
-1.156423195623321e+03 -1.024849008135287e+02 -2.918975276816622e+03
-1.156400777551241e+03 -1.044298330759356e+02 -2.918975276816622e+03
-1.156403142201854e+03 -1.059324683775619e+02 -2.918975276816622e+03
-1.156388755941136e+03 -1.068673588826456e+02 -2.918975276816622e+03
-1.156386854483636e+03 -1.083413448825939e+02 -2.918975276816622e+03
-1.156372082066854e+03 -1.101875219309318e+02 -2.918975276816622e+03
-1.156365937612269e+03 -1.118307968456465e+02 -2.918975276816622e+03
-1.156389102956277e+03 -1.131441013367327e+02 -2.918975276816622e+03
-1.156410674628256e+03 -1.146605196056126e+02 -2.918975276816622e+03
-1.156392906017551e+03 -1.170540529533199e+02 -2.918975276816622e+03
-1.156368647532234e+03 -1.193298439792304e+02 -2.918975276816622e+03
-1.156365595705659e+03 -1.208068135625430e+02 -2.918975276816622e+03
-1.156367734121209e+03 -1.223137654799588e+02 -2.918975276816622e+03
-1.156377381863385e+03 -1.240663295402886e+02 -2.918975276816622e+03
-1.156381129810036e+03 -1.252799653042906e+02 -2.918975276816622e+03
-1.156391696031089e+03 -1.265989429198721e+02 -2.918975276816622e+03
-1.156395722546198e+03 -1.285849338048054e+02 -2.918975276816622e+03
-1.156407112849935e+03 -1.306764455568189e+02 -2.918975276816622e+03
-1.156418838165827e+03 -1.319907061681689e+02 -2.918975276816622e+03
-1.156425073368731e+03 -1.328681867440702e+02 -2.918975276816622e+03
-1.156433843906248e+03 -1.342160451936103e+02 -2.918975276816622e+03
-1.156439886277727e+03 -1.356811449052270e+02 -2.918975276816622e+03
-1.156458444377498e+03 -1.373585269471029e+02 -2.918975276816622e+03
-1.156474005147484e+03 -1.394216757582372e+02 -2.918975276816622e+03
-1.156492523593638e+03 -1.408242752700253e+02 -2.918975276816622e+03
-1.156522282067408e+03 -1.423684621822598e+02 -2.918975276816622e+03
-1.156533385791034e+03 -1.441241827016567e+02 -2.918975276816622e+03
-1.156566034522517e+03 -1.453494513423837e+02 -2.918975276816622e+03
-1.156571995867208e+03 -1.467706465792435e+02 -2.918975276816622e+03
-1.156605162157308e+03 -1.496163990481070e+02 -2.918975276816622e+03
-1.156608734761579e+03 -1.532463764121049e+02 -2.918975276816622e+03
-1.156621611931953e+03 -1.555118934841297e+02 -2.918975276816622e+03
-1.156600219091965e+03 -1.573531509297325e+02 -2.918975276816622e+03
-1.156622374610218e+03 -1.595462300778865e+02 -2.918975276816622e+03
-1.156743046574365e+03 -1.608084388136160e+02 -2.918975276816622e+03
-1.156797171528412e+03 -1.622436418227020e+02 -2.918975276816622e+03
-1.156827562243660e+03 -1.639560705221533e+02 -2.918975276816622e+03
-1.156826793459693e+03 -1.653370945682099e+02 -2.918975276816622e+03
-1.156750742151152e+03 -1.667931876686532e+02 -2.918975276816622e+03
-1.156706970095032e+03 -1.688052543374695e+02 -2.918975276816622e+03
-1.156672904450893e+03 -1.711775839610798e+02 -2.918975276816622e+03
-1.156623759914459e+03 -1.726610964719177e+02 -2.918975276816622e+03
-1.156812994140022e+03 -1.750915468734775e+02 -2.918975276816622e+03
-1.157031743944326e+03 -1.783719520154250e+02 -2.918975276816622e+03
-1.157201044882359e+03 -1.809767581534741e+02 -2.918975276816622e+03
-1.157191980228285e+03 -1.833714175437593e+02 -2.918975276816622e+03
-1.157268551986220e+03 -1.851063666612579e+02 -2.918975276816622e+03
-1.157308471413748e+03 -1.863100687310515e+02 -2.918975276816622e+03
-1.157298631415785e+03 -1.881760020266156e+02 -2.918975276816622e+03
-1.157311306269115e+03 -1.904797422242081e+02 -2.918975276816622e+03
-1.157163149523381e+03 -1.932063870518125e+02 -2.918975276816622e+03
-1.157070861663031e+03 -1.961353577902827e+02 -2.918975276816622e+03
-1.157022313660929e+03 -1.979325502028979e+02 -2.918975276816622e+03
-1.157018190435545e+03 -1.994236668009137e+02 -2.918975276816622e+03
-1.157007049395680e+03 -2.006042290370173e+02 -2.918975276816622e+03
-1.157003580965506e+03 -2.020434869472477e+02 -2.918975276816622e+03
-1.156998988233748e+03 -2.038438361182933e+02 -2.918975276816622e+03
-1.156985881799003e+03 -2.050129502543384e+02 -2.918975276816622e+03
-1.156975868795874e+03 -2.063666489864727e+02 -2.918975276816622e+03
-1.156950106876888e+03 -2.083884560080403e+02 -2.918975276816622e+03
-1.156940432694563e+03 -2.102139526707012e+02 -2.918975276816622e+03
-1.156927325344511e+03 -2.115951449877842e+02 -2.918975276816622e+03
-1.156920306416338e+03 -2.138063503268587e+02 -2.918975276816622e+03
-1.156920320509774e+03 -2.155428784816620e+02 -2.918975276816622e+03
-1.156923534244251e+03 -2.171100627529920e+02 -2.918975276816622e+03
-1.156925849370750e+03 -2.195839335135483e+02 -2.918975276816622e+03
-1.156908680510592e+03 -2.208467272860482e+02 -2.918975276816622e+03
-1.156890116635474e+03 -2.220574475789288e+02 -2.918975276816622e+03
-1.156854218470421e+03 -2.239662888405465e+02 -2.918975276816622e+03
-1.156837523622894e+03 -2.252817596000332e+02 -2.918975276816622e+03
-1.156818152719238e+03 -2.265152490369411e+02 -2.918975276816622e+03
-1.156788519505523e+03 -2.284635872082924e+02 -2.918975276816622e+03
-1.156777970311285e+03 -2.304656998719456e+02 -2.918975276816622e+03
-1.156766563852928e+03 -2.315444402181581e+02 -2.918975276816622e+03
-1.156751916935663e+03 -2.333887365465386e+02 -2.918975276816622e+03
-1.156752141051069e+03 -2.364285840132215e+02 -2.918975276816622e+03
-1.156752365166474e+03 -2.394684314799045e+02 -2.918975276816622e+03
-1.156671555903791e+03 -2.424935064076004e+02 -2.918975276816622e+03
-1.156744095586080e+03 -2.453379338501308e+02 -2.918975276816622e+03
-1.156751611539699e+03 -2.478058211069331e+02 -2.918975276816622e+03
-1.156735001280955e+03 -2.493588871155818e+02 -2.918975276816622e+03
-1.156730112435420e+03 -2.507279147038645e+02 -2.918975276816622e+03
-1.156694015748551e+03 -2.530394198440851e+02 -2.918975276816622e+03
-1.156684667487551e+03 -2.554015552879923e+02 -2.918975276816622e+03
-1.156652685161352e+03 -2.583135578943174e+02 -2.918975276816622e+03
-1.156619503705214e+03 -2.606465029784124e+02 -2.918975276816622e+03
-1.156649515483412e+03 -2.619990833838932e+02 -2.918975276816622e+03
-1.156644253044873e+03 -2.638204052265402e+02 -2.918975276816622e+03
-1.156700098239944e+03 -2.656040247578301e+02 -2.918975276816622e+03
-1.156681264237812e+03 -2.671306072843022e+02 -2.918975276816622e+03
-1.156684940211308e+03 -2.683346382548788e+02 -2.918975276816622e+03
-1.156660760173302e+03 -2.696007101897642e+02 -2.918975276816622e+03
-1.156636466466318e+03 -2.710468565539238e+02 -2.918975276816622e+03
-1.156613428759588e+03 -2.725901239120878e+02 -2.918975276816622e+03
-1.156589063043026e+03 -2.743234303791731e+02 -2.918975276816622e+03
-1.156588832522239e+03 -2.758969404649239e+02 -2.918975276816622e+03
-1.156586041197834e+03 -2.770805366339965e+02 -2.918975276816622e+03
-1.156614153955998e+03 -2.786859863182897e+02 -2.918975276816622e+03
-1.156641346793231e+03 -2.808669517415302e+02 -2.918975276816622e+03
-1.156683454842013e+03 -2.840674950250665e+02 -2.918975276816622e+03
-1.156726725095378e+03 -2.872935971741753e+02 -2.918975276816622e+03
-1.156777954638551e+03 -2.889389952287459e+02 -2.918975276816622e+03
-1.156791714867727e+03 -2.914009338478215e+02 -2.918975276816622e+03
-1.156811634218334e+03 -2.941586482892635e+02 -2.918975276816622e+03
-1.156822016649086e+03 -2.968629093290349e+02 -2.918975276816622e+03
-1.156887924864778e+03 -2.987904708071786e+02 -2.918975276816622e+03
-1.156870318492581e+03 -2.999497331490705e+02 -2.918975276816622e+03
-1.156917978221056e+03 -3.014697593743907e+02 -2.918975276816622e+03
-1.156921699398790e+03 -3.028943085820786e+02 -2.918975276816622e+03
-1.156921272678211e+03 -3.046523255147844e+02 -2.918975276816622e+03
-1.156903766237866e+03 -3.064494813475430e+02 -2.918975276816622e+03
-1.156891404272272e+03 -3.085547947672525e+02 -2.918975276816622e+03
-1.156841523649264e+03 -3.109846540046947e+02 -2.918975276816622e+03
-1.156820495207093e+03 -3.138255562472642e+02 -2.918975276816622e+03
-1.156772695264970e+03 -3.162548300145731e+02 -2.918975276816622e+03
-1.156771510919960e+03 -3.181021231430188e+02 -2.918975276816622e+03
-1.156721806809205e+03 -3.196462776214068e+02 -2.918975276816622e+03
-1.156733506369055e+03 -3.210837365319077e+02 -2.918975276816622e+03
-1.156720813739147e+03 -3.226918159375610e+02 -2.918975276816622e+03
-1.156720078870911e+03 -3.239493786507507e+02 -2.918975276816622e+03
-1.156697458504116e+03 -3.252543790611579e+02 -2.918975276816622e+03
-1.156702735859092e+03 -3.265618464580367e+02 -2.918975276816622e+03
-1.156730800322453e+03 -3.279183898918124e+02 -2.918975276816622e+03
-1.156701933991153e+03 -3.294322872626174e+02 -2.918975276816622e+03
-1.156738019244967e+03 -3.306122930848978e+02 -2.918975276816622e+03
-1.156738657290628e+03 -3.330120534697231e+02 -2.918975276816622e+03
-1.156708175372963e+03 -3.350818372944416e+02 -2.918975276816622e+03
-1.156675492667045e+03 -3.359613234891619e+02 -2.918975276816622e+03
-1.156636765037359e+03 -3.375260315237465e+02 -2.918975276816622e+03
-1.156618208365702e+03 -3.399568587503934e+02 -2.918975276816622e+03
-1.156594941277165e+03 -3.421042922731193e+02 -2.918975276816622e+03
-1.156574806717239e+03 -3.434739256968371e+02 -2.918975276816622e+03
-1.156620413393627e+03 -3.452288685861275e+02 -2.918975276816622e+03
-1.156579456295101e+03 -3.474210440223637e+02 -2.918975276816622e+03
-1.156459963427982e+03 -3.485321085100706e+02 -2.918975276816622e+03
-1.156422136180744e+03 -3.497316014939581e+02 -2.918975276816622e+03
-1.156544510321982e+03 -3.521006339225561e+02 -2.918975276816622e+03
-1.156649313231706e+03 -3.554245658984326e+02 -2.918975276816622e+03
-1.156675781274237e+03 -3.581318803518596e+02 -2.918975276816622e+03
-1.156699884907176e+03 -3.604896496385516e+02 -2.918975276816622e+03
-1.156731543767183e+03 -3.625970713370399e+02 -2.918975276816622e+03
-1.156743766446522e+03 -3.638258863253311e+02 -2.918975276816622e+03
-1.156757539199969e+03 -3.659756970847460e+02 -2.918975276816622e+03
-1.156784544000901e+03 -3.691452733025174e+02 -2.918975276816622e+03
-1.156808207279046e+03 -3.718134023907503e+02 -2.918975276816622e+03
-1.156822558495176e+03 -3.733695428646786e+02 -2.918975276816622e+03
-1.156843471854590e+03 -3.755052448084403e+02 -2.918975276816622e+03
-1.156854335946844e+03 -3.772373043805998e+02 -2.918975276816622e+03
-1.156865932708821e+03 -3.787721689481124e+02 -2.918975276816622e+03
-1.156869497317113e+03 -3.801046448592778e+02 -2.918975276816622e+03
-1.156875978565864e+03 -3.814152835657001e+02 -2.918975276816622e+03
-1.156888513350428e+03 -3.843219363194436e+02 -2.918975276816622e+03
-1.156902998293249e+03 -3.862584271099892e+02 -2.918975276816622e+03
-1.156925324475391e+03  3.827594410965491e+02 -2.918975276816622e+03
-1.156913280801082e+03  3.848278008184607e+02 -2.918975276816622e+03
-1.156935811727778e+03  3.804471711789380e+02 -2.918975276816622e+03
-1.156949127016039e+03  3.780931984535222e+02 -2.918975276816622e+03
-1.156954704112279e+03  3.770437867590666e+02 -2.918975276816622e+03
-1.156962549364825e+03  3.750785633642215e+02 -2.918975276816622e+03
-1.156972743563605e+03  3.715280664779721e+02 -2.918975276816622e+03
-1.156978494861672e+03  3.681390729839397e+02 -2.918975276816622e+03
-1.156984878964637e+03  3.655265179761709e+02 -2.918975276816622e+03
-1.156992016288209e+03  3.621756726324442e+02 -2.918975276816622e+03
-1.157000962004023e+03  3.582531327250401e+02 -2.918975276816622e+03
-1.157005899345413e+03  3.558410566247454e+02 -2.918975276816622e+03
-1.157002842221017e+03  3.542785295025631e+02 -2.918975276816622e+03
-1.156997383746859e+03  3.517074459600201e+02 -2.918975276816622e+03
-1.156992454842668e+03  3.486221250538343e+02 -2.918975276816622e+03
-1.156977350559504e+03  3.452045449454058e+02 -2.918975276816622e+03
-1.156957316691530e+03  3.420129084455658e+02 -2.918975276816622e+03
-1.156942528617720e+03  3.393794747565568e+02 -2.918975276816622e+03
-1.156926078111337e+03  3.367220236749251e+02 -2.918975276816622e+03
-1.156908101396872e+03  3.340891019261147e+02 -2.918975276816622e+03
-1.156890260906896e+03  3.315047269027488e+02 -2.918975276816622e+03
-1.156872420416919e+03  3.289203518793827e+02 -2.918975276816622e+03
-1.156855256403239e+03  3.269923698022873e+02 -2.918975276816622e+03
-1.156842783941939e+03  3.252836732667150e+02 -2.918975276816622e+03
-1.156823965017520e+03  3.229632402911389e+02 -2.918975276816622e+03
-1.156808412375843e+03  3.209725861311432e+02 -2.918975276816622e+03
-1.156794860486775e+03  3.190064325353637e+02 -2.918975276816622e+03
-1.156770876583332e+03  3.164755755965570e+02 -2.918975276816622e+03
-1.156748087734849e+03  3.138599226013431e+02 -2.918975276816622e+03
-1.156724648671750e+03  3.115266117338360e+02 -2.918975276816622e+03
-1.156705879838350e+03  3.090901247337944e+02 -2.918975276816622e+03
-1.156696813872609e+03  3.064235678957384e+02 -2.918975276816622e+03
-1.156692130330209e+03  3.039124594799096e+02 -2.918975276816622e+03
-1.156548363521028e+03  3.025563616721125e+02 -2.918975276816622e+03
-1.156491744243547e+03  3.012998732551270e+02 -2.918975276816622e+03
-1.156661355764549e+03  2.989879836209212e+02 -2.918975276816622e+03
-1.156705138417772e+03  2.966361742167610e+02 -2.918975276816622e+03
-1.156818361123754e+03  2.949101041428124e+02 -2.918975276816622e+03
-1.156885040723933e+03  2.931182298770077e+02 -2.918975276816622e+03
-1.157010688401960e+03  2.910225688607368e+02 -2.918975276816622e+03
-1.157180352104348e+03  2.895750844674324e+02 -2.918975276816622e+03
-1.157311896987516e+03  2.890051973861507e+02 -2.918975276816622e+03
-1.157338997440595e+03  2.885358499998952e+02 -2.918975276816622e+03
-1.157147265422489e+03  2.873018619809158e+02 -2.918975276816622e+03
-1.157042104962365e+03  2.854843971700269e+02 -2.918975276816622e+03
-1.156965366906169e+03  2.832103699248982e+02 -2.918975276816622e+03
-1.156849874977820e+03  2.800218499844167e+02 -2.918975276816622e+03
-1.156764418905615e+03  2.778595231996957e+02 -2.918975276816622e+03
-1.156747313409194e+03  2.765316037382872e+02 -2.918975276816622e+03
-1.156745732132927e+03  2.746919859285908e+02 -2.918975276816622e+03
-1.156737783432302e+03  2.728838082469226e+02 -2.918975276816622e+03
-1.156733177068490e+03  2.714480806006171e+02 -2.918975276816622e+03
-1.156716285329846e+03  2.703713805913582e+02 -2.918975276816622e+03
-1.156730688789904e+03  2.678646259453574e+02 -2.918975276816622e+03
-1.156729707246380e+03  2.655106565081982e+02 -2.918975276816622e+03
-1.156753324561742e+03  2.637985894816165e+02 -2.918975276816622e+03
-1.156757064545377e+03  2.617361026152254e+02 -2.918975276816622e+03
-1.156758878056866e+03  2.603770246512370e+02 -2.918975276816622e+03
-1.156751247634402e+03  2.588582619270912e+02 -2.918975276816622e+03
-1.156765945657912e+03  2.572691115345209e+02 -2.918975276816622e+03
-1.156762547485117e+03  2.560059135660021e+02 -2.918975276816622e+03
-1.156775612793281e+03  2.546265630577218e+02 -2.918975276816622e+03
-1.156804071195762e+03  2.528089920744793e+02 -2.918975276816622e+03
-1.156860640167931e+03  2.508658103101120e+02 -2.918975276816622e+03
-1.156958823100874e+03  2.500661696897063e+02 -2.918975276816622e+03
-1.156898543309624e+03  2.486532927556945e+02 -2.918975276816622e+03
-1.156796847980521e+03  2.466738609120091e+02 -2.918975276816622e+03
-1.156726304656582e+03  2.451492563677720e+02 -2.918975276816622e+03
-1.156695066043590e+03  2.437077363707172e+02 -2.918975276816622e+03
-1.156635543154168e+03  2.420103562637438e+02 -2.918975276816622e+03
-1.156611210738544e+03  2.404960207172941e+02 -2.918975276816622e+03
-1.156574001482782e+03  2.393069964182071e+02 -2.918975276816622e+03
-1.156530292607272e+03  2.369313566980069e+02 -2.918975276816622e+03
-1.156478796045668e+03  2.347347829581831e+02 -2.918975276816622e+03
-1.156459191112599e+03  2.329240010828411e+02 -2.918975276816622e+03
-1.156418227674532e+03  2.307991911742657e+02 -2.918975276816622e+03
-1.156394326531094e+03  2.295607420018470e+02 -2.918975276816622e+03
-1.156360815290627e+03  2.281167936932798e+02 -2.918975276816622e+03
-1.156343859870798e+03  2.263630487877142e+02 -2.918975276816622e+03
-1.156333547178554e+03  2.253208462209393e+02 -2.918975276816622e+03
-1.156321509815211e+03  2.241093723071291e+02 -2.918975276816622e+03
-1.156277550189183e+03  2.220256549716201e+02 -2.918975276816622e+03
-1.156246684145143e+03  2.202718234950846e+02 -2.918975276816622e+03
-1.156231585841033e+03  2.191221820684140e+02 -2.918975276816622e+03
-1.156205336491322e+03  2.169260792314686e+02 -2.918975276816622e+03
-1.156189018001165e+03  2.148088962673768e+02 -2.918975276816622e+03
-1.156191226858540e+03  2.130967961950028e+02 -2.918975276816622e+03
-1.156175665750106e+03  2.109940856905068e+02 -2.918975276816622e+03
-1.156171705579541e+03  2.095817799139436e+02 -2.918975276816622e+03
-1.156189498943180e+03  2.081067068146535e+02 -2.918975276816622e+03
-1.156177028113370e+03  2.062225552418167e+02 -2.918975276816622e+03
-1.156154284927011e+03  2.049251389051554e+02 -2.918975276816622e+03
-1.156144666277509e+03  2.039011381010396e+02 -2.918975276816622e+03
-1.156161039624198e+03  2.021034226089209e+02 -2.918975276816622e+03
-1.156117356133149e+03  2.003899801881324e+02 -2.918975276816622e+03
-1.156108869371147e+03  1.989647587074812e+02 -2.918975276816622e+03
-1.156060908186463e+03  1.964891253198528e+02 -2.918975276816622e+03
-1.156016435035814e+03  1.937491516941284e+02 -2.918975276816622e+03
-1.156028507858992e+03  1.913270833079708e+02 -2.918975276816622e+03
-1.156134417140606e+03  1.896992943030361e+02 -2.918975276816622e+03
-1.156126811518601e+03  1.882562011792872e+02 -2.918975276816622e+03
-1.156116960966777e+03  1.865813113924605e+02 -2.918975276816622e+03
-1.156138635578811e+03  1.852294415592506e+02 -2.918975276816622e+03
-1.156145791795989e+03  1.838638595977415e+02 -2.918975276816622e+03
-1.156167490569420e+03  1.820432573189935e+02 -2.918975276816622e+03
-1.156135048793630e+03  1.805725808056971e+02 -2.918975276816622e+03
-1.156121704289877e+03  1.794869609399029e+02 -2.918975276816622e+03
-1.156105373084045e+03  1.770431546969450e+02 -2.918975276816622e+03
-1.156101871716710e+03  1.748662869184149e+02 -2.918975276816622e+03
-1.156097340308269e+03  1.731474600782872e+02 -2.918975276816622e+03
-1.156123504924344e+03  1.710217432518862e+02 -2.918975276816622e+03
-1.156116734608326e+03  1.696319879531346e+02 -2.918975276816622e+03
-1.156139764756231e+03  1.681286009675394e+02 -2.918975276816622e+03
-1.156146727134790e+03  1.664273793062081e+02 -2.918975276816622e+03
-1.156150063160200e+03  1.651948159671791e+02 -2.918975276816622e+03
-1.156150494863063e+03  1.639351191187425e+02 -2.918975276816622e+03
-1.156167031450508e+03  1.620555418963650e+02 -2.918975276816622e+03
-1.156189199170733e+03  1.604754953775161e+02 -2.918975276816622e+03
-1.156173919034118e+03  1.593292765730801e+02 -2.918975276816622e+03
-1.156172963766554e+03  1.571306077900770e+02 -2.918975276816622e+03
-1.156185903144845e+03  1.550773820608974e+02 -2.918975276816622e+03
-1.156202606708500e+03  1.532005775847475e+02 -2.918975276816622e+03
-1.156277682382066e+03  1.510449878886990e+02 -2.918975276816622e+03
-1.156275364632932e+03  1.497593168839290e+02 -2.918975276816622e+03
-1.156188703380011e+03  1.482319983292884e+02 -2.918975276816622e+03
-1.156201920688189e+03  1.463514761789577e+02 -2.918975276816622e+03
-1.156225259590960e+03  1.451670935900531e+02 -2.918975276816622e+03
-1.156235541461850e+03  1.440526097236593e+02 -2.918975276816622e+03
-1.156251155345701e+03  1.421532245310738e+02 -2.918975276816622e+03
-1.156267058067308e+03  1.405179537289961e+02 -2.918975276816622e+03
-1.156276399429856e+03  1.393064470077992e+02 -2.918975276816622e+03
-1.156273086611119e+03  1.370347111118636e+02 -2.918975276816622e+03
-1.156298482648131e+03  1.349749030297129e+02 -2.918975276816622e+03
-1.156301598478781e+03  1.331968691571443e+02 -2.918975276816622e+03
-1.156334956476094e+03  1.310361102859328e+02 -2.918975276816622e+03
-1.156354930223008e+03  1.297191503879085e+02 -2.918975276816622e+03
-1.156396384126781e+03  1.282276786968457e+02 -2.918975276816622e+03
-1.156418267142626e+03  1.265241542747801e+02 -2.918975276816622e+03
-1.156431652338901e+03  1.253357940577212e+02 -2.918975276816622e+03
-1.156445194266180e+03  1.240075347550467e+02 -2.918975276816622e+03
-1.156468946585501e+03  1.221283187425258e+02 -2.918975276816622e+03
-1.156499925762907e+03  1.204700956162481e+02 -2.918975276816622e+03
-1.156510655628307e+03  1.192662857424368e+02 -2.918975276816622e+03
-1.156535201404068e+03  1.170080054979970e+02 -2.918975276816622e+03
-1.156549435597230e+03  1.148937872033667e+02 -2.918975276816622e+03
-1.156564162289214e+03  1.131745377232172e+02 -2.918975276816622e+03
-1.156575033130875e+03  1.112142753427498e+02 -2.918975276816622e+03
-1.156589230892195e+03  1.099371632396356e+02 -2.918975276816622e+03
-1.156605551485168e+03  1.083958156619854e+02 -2.918975276816622e+03
-1.156626611733168e+03  1.066757070394185e+02 -2.918975276816622e+03
-1.156633521134472e+03  1.053541577634559e+02 -2.918975276816622e+03
-1.156632778950017e+03  1.039661835613938e+02 -2.918975276816622e+03
-1.156642575663774e+03  1.021600328992893e+02 -2.918975276816622e+03
-1.156656980207879e+03  1.006845982383401e+02 -2.918975276816622e+03
-1.156672309893178e+03  9.925844853121782e+01 -2.918975276816622e+03
-1.156673378303750e+03  9.757200659106340e+01 -2.918975276816622e+03
-1.156683070141475e+03  9.603782368928607e+01 -2.918975276816622e+03
-1.156686687247307e+03  9.316295969954079e+01 -2.918975276816622e+03
-1.156690157816161e+03  9.054699359304645e+01 -2.918975276816622e+03
-1.156679462161502e+03  8.900086590579180e+01 -2.918975276816622e+03
-1.156671178759304e+03  8.743344395862357e+01 -2.918975276816622e+03
-1.156698985665258e+03  8.659936300181766e+01 -2.918975276816622e+03
-1.156702543887194e+03  8.576273628421772e+01 -2.918975276816622e+03
-1.156701460222683e+03  8.388581445489591e+01 -2.918975276816622e+03
-1.156665992541156e+03  8.089873081354089e+01 -2.918975276816622e+03
-1.156674768005075e+03  7.773183362755447e+01 -2.918975276816622e+03
-1.156687761983097e+03  7.492863665517571e+01 -2.918975276816622e+03
-1.156672893508385e+03  7.267779747533949e+01 -2.918975276816622e+03
-1.156558559541961e+03  7.057392417379029e+01 -2.918975276816622e+03
-1.156359598029675e+03  6.827448575246588e+01 -2.918975276816622e+03
-1.156157648514662e+03  6.577048961029624e+01 -2.918975276816622e+03
-1.155613241472278e+03  6.383642930972324e+01 -2.918975276816622e+03
-1.155566174715479e+03  6.213703765908605e+01 -2.918975276816622e+03
-1.156368942275794e+03  5.968799430146243e+01 -2.918975276816622e+03
-1.156689373229100e+03  5.738617528524482e+01 -2.918975276816622e+03
-1.156719774872438e+03  5.494012075718712e+01 -2.918975276816622e+03
-1.156733363830837e+03  5.225630334894775e+01 -2.918975276816622e+03
-1.156734679784147e+03  5.030533707336294e+01 -2.918975276816622e+03
-1.156791050965364e+03  4.883055611163473e+01 -2.918975276816622e+03
-1.156797066753465e+03  4.732526934340545e+01 -2.918975276816622e+03
-1.156860960677268e+03  4.544141788062065e+01 -2.918975276816622e+03
-1.156948472293951e+03  4.316357278132986e+01 -2.918975276816622e+03
-1.157010869762260e+03  4.183174557716934e+01 -2.918975276816622e+03
-1.157080980828661e+03  4.027643668370654e+01 -2.918975276816622e+03
-1.157173127146851e+03  3.776494819522445e+01 -2.918975276816622e+03
-1.157246773636968e+03  3.573599370707609e+01 -2.918975276816622e+03
-1.157317906840937e+03  3.408764287586440e+01 -2.918975276816622e+03
-1.157429449487874e+03  3.159965176469862e+01 -2.918975276816622e+03
-1.157540548983408e+03  2.939664002614454e+01 -2.918975276816622e+03
-1.157627658118002e+03  2.754271186097486e+01 -2.918975276816622e+03
-1.157783611351824e+03  2.495889206788983e+01 -2.918975276816622e+03
-1.157980561744167e+03  2.273698129264908e+01 -2.918975276816622e+03
-1.158099735190779e+03  2.180422018977100e+01 -2.918975276816622e+03
-1.157997488136536e+03  2.041815019674651e+01 -2.918975276816622e+03
-1.157839743187411e+03  1.805845228372450e+01 -2.918975276816622e+03
-1.157768506591929e+03  1.646986087575480e+01 -2.918975276816622e+03
-1.157726485596314e+03  1.525263579183317e+01 -2.918975276816622e+03
-1.157688259769631e+03  1.394345825518589e+01 -2.918975276816622e+03
-1.157662513571077e+03  1.259757867301088e+01 -2.918975276816622e+03
-1.157627969608131e+03  1.085995606365174e+01 -2.918975276816622e+03
-1.157586087673650e+03  8.668158576247551e+00 -2.918975276816622e+03
 1.154589381094003e+03 -1.797088746307448e+00  2.918975276816622e+03
 1.154597713017493e+03 -2.496897708991355e-01  2.918975276816622e+03
 1.154601397515572e+03 -3.397913029288749e+00  2.918975276816622e+03
 1.154639665971828e+03 -5.472449682937308e+00  2.918975276816622e+03
 1.155509099026379e+03 -5.842607842960915e+00  2.918975276816622e+03
 1.155819079866612e+03 -7.401657700598204e+00  2.918975276816622e+03
 1.155303115271873e+03 -1.058900853027229e+01  2.918975276816622e+03
 1.155058784167915e+03 -1.296544177797300e+01  2.918975276816622e+03
 1.154814453063957e+03 -1.534187502567371e+01  2.918975276816622e+03
 1.154586592991474e+03 -1.769416640296241e+01  2.918975276816622e+03
 1.154375203950467e+03 -2.002231590983908e+01  2.918975276816622e+03
 1.154146471674926e+03 -2.255615954379378e+01  2.918975276816622e+03
 1.153900396164854e+03 -2.529569730482650e+01  2.918975276816622e+03
 1.153744259700832e+03 -2.674227919080957e+01  2.918975276816622e+03
 1.153706678021790e+03 -2.853745420160634e+01  2.918975276816622e+03
 1.153682748082300e+03 -3.139456561674528e+01  2.918975276816622e+03
 1.153643854143435e+03 -3.367206443636307e+01  2.918975276816622e+03
 1.153599180967742e+03 -3.633156331567000e+01  2.918975276816622e+03
 1.153547195493303e+03 -3.912803137690907e+01  2.918975276816622e+03
 1.153493676956946e+03 -4.167946856039118e+01  2.918975276816622e+03
 1.153523644611310e+03 -4.443606274302432e+01  2.918975276816622e+03
 1.153461675310773e+03 -4.745494492640697e+01  2.918975276816622e+03
 1.153450064040401e+03 -4.985117799959031e+01  2.918975276816622e+03
 1.153442662914568e+03 -5.156728252815185e+01  2.918975276816622e+03
 1.153429451712117e+03 -5.348708822080260e+01  2.918975276816622e+03
 1.153430270524751e+03 -5.557001605517745e+01  2.918975276816622e+03
 1.153447341773017e+03 -5.773966935759665e+01  2.918975276816622e+03
 1.153447149833690e+03 -5.974297229272999e+01  2.918975276816622e+03
 1.153380101641803e+03 -6.117583797751417e+01  2.918975276816622e+03
 1.153416629133696e+03 -6.264377829624073e+01  2.918975276816622e+03
 1.153427472474891e+03 -6.442479391173411e+01  2.918975276816622e+03
 1.153437864842560e+03 -6.582812731674078e+01  2.918975276816622e+03
 1.153439711503921e+03 -6.774456135213470e+01  2.918975276816622e+03
 1.153477271210098e+03 -7.007485531768756e+01  2.918975276816622e+03
 1.153475635253566e+03 -7.154791439292084e+01  2.918975276816622e+03
 1.153489491045841e+03 -7.329074391509165e+01  2.918975276816622e+03
 1.153522765839874e+03 -7.631227454494235e+01  2.918975276816622e+03
 1.153547998889654e+03 -7.942605408392541e+01  2.918975276816622e+03
 1.153567778970962e+03 -8.127729520041675e+01  2.918975276816622e+03
 1.153570608006097e+03 -8.331159604852635e+01  2.918975276816622e+03
 1.153594348061925e+03 -8.539224533461834e+01  2.918975276816622e+03
 1.153601973542046e+03 -8.749839180527977e+01  2.918975276816622e+03
 1.153622751703842e+03 -8.986894968843795e+01  2.918975276816622e+03
 1.153623377815842e+03 -9.153856681729299e+01  2.918975276816622e+03
 1.153641336808493e+03 -9.350549966373461e+01  2.918975276816622e+03
 1.153659396777615e+03 -9.602280115401379e+01  2.918975276816622e+03
 1.153661744198627e+03 -9.762026402206004e+01  2.918975276816622e+03
 1.153663797241174e+03 -9.915647552169020e+01  2.918975276816622e+03
 1.153675499730346e+03 -1.020449006985227e+02  2.918975276816622e+03
 1.153713129099779e+03 -1.044227651696638e+02  2.918975276816622e+03
 1.153714458198476e+03 -1.056472614804809e+02  2.918975276816622e+03
 1.153745186671833e+03 -1.075416475467290e+02  2.918975276816622e+03
 1.153761486456916e+03 -1.097880902801127e+02  2.918975276816622e+03
 1.153749535226289e+03 -1.114010223823874e+02  2.918975276816622e+03
 1.153752802402840e+03 -1.133146029756914e+02  2.918975276816622e+03
 1.153640260356770e+03 -1.157811951549482e+02  2.918975276816622e+03
 1.153565743337654e+03 -1.188970211247724e+02  2.918975276816622e+03
 1.153650247846125e+03 -1.218595362701556e+02  2.918975276816622e+03
 1.153741137804294e+03 -1.242798845690359e+02  2.918975276816622e+03
 1.153411210247704e+03 -1.259633148474100e+02  2.918975276816622e+03
 1.153196800214663e+03 -1.278364156434574e+02  2.918975276816622e+03
 1.153461415166256e+03 -1.311518531907860e+02  2.918975276816622e+03
 1.153574269946702e+03 -1.343506240120905e+02  2.918975276816622e+03
 1.153592674609673e+03 -1.369169798942693e+02  2.918975276816622e+03
 1.153611079272645e+03 -1.394833357764480e+02  2.918975276816622e+03
 1.153629483935616e+03 -1.420496916586267e+02  2.918975276816622e+03
 1.153664694609574e+03 -1.445625965311342e+02  2.918975276816622e+03
 1.153683090312697e+03 -1.473413153993088e+02  2.918975276816622e+03
 1.153687301838480e+03 -1.497921867813021e+02  2.918975276816622e+03
 1.153700147754191e+03 -1.515063519648678e+02  2.918975276816622e+03
 1.153690350790192e+03 -1.533255511773540e+02  2.918975276816622e+03
 1.153645875822722e+03 -1.560726711755069e+02  2.918975276816622e+03
 1.153641459552741e+03 -1.590799015451597e+02  2.918975276816622e+03
 1.153648825780911e+03 -1.609704013593511e+02  2.918975276816622e+03
 1.153660640603507e+03 -1.620008787602009e+02  2.918975276816622e+03
 1.153641163235543e+03 -1.630157546502116e+02  2.918975276816622e+03
 1.153641510784178e+03 -1.646153279515819e+02  2.918975276816622e+03
 1.153659314005129e+03 -1.660268515836584e+02  2.918975276816622e+03
 1.153667121296837e+03 -1.675685950728295e+02  2.918975276816622e+03
 1.153675017189755e+03 -1.695997826942821e+02  2.918975276816622e+03
 1.153668097522978e+03 -1.713030995290767e+02  2.918975276816622e+03
 1.153637939179788e+03 -1.731963654418852e+02  2.918975276816622e+03
 1.153656557142820e+03 -1.761146720126132e+02  2.918975276816622e+03
 1.153634049326248e+03 -1.792565801386558e+02  2.918975276816622e+03
 1.153644613463400e+03 -1.822482804706326e+02  2.918975276816622e+03
 1.153664568792106e+03 -1.850597478936018e+02  2.918975276816622e+03
 1.153675211533151e+03 -1.872007673230552e+02  2.918975276816622e+03
 1.153682065618601e+03 -1.898066104072173e+02  2.918975276816622e+03
 1.153672223702212e+03 -1.928560589412940e+02  2.918975276816622e+03
 1.153673705257638e+03 -1.960869913042474e+02  2.918975276816622e+03
 1.153686219831036e+03 -1.994347124502382e+02  2.918975276816622e+03
 1.153751929904055e+03 -2.022822349684475e+02  2.918975276816622e+03
 1.153692200663252e+03 -2.048596259700619e+02  2.918975276816622e+03
 1.153632471422449e+03 -2.074370169716763e+02  2.918975276816622e+03
 1.153599935091309e+03 -2.098983211879749e+02  2.918975276816622e+03
 1.153595448234612e+03 -2.127680484770783e+02  2.918975276816622e+03
 1.153591817942694e+03 -2.161622856243022e+02  2.918975276816622e+03
 1.153576272247111e+03 -2.191498075436268e+02  2.918975276816622e+03
 1.153530468834992e+03 -2.219272093710352e+02  2.918975276816622e+03
 1.153520291079705e+03 -2.238026412852615e+02  2.918975276816622e+03
 1.153511425878562e+03 -2.249632544145064e+02  2.918975276816622e+03
 1.153516299514376e+03 -2.272664173930198e+02  2.918975276816622e+03
 1.153524225218659e+03 -2.296120456580360e+02  2.918975276816622e+03
 1.153526037538332e+03 -2.311057026176539e+02  2.918975276816622e+03
 1.153542422043510e+03 -2.331260475046106e+02  2.918975276816622e+03
 1.153536687002671e+03 -2.358026751774214e+02  2.918975276816622e+03
 1.153551489029750e+03 -2.384732647019317e+02  2.918975276816622e+03
 1.153557428281956e+03 -2.408294541682662e+02  2.918975276816622e+03
 1.153568425611273e+03 -2.432170766243084e+02  2.918975276816622e+03
 1.153588844349328e+03 -2.461177688537799e+02  2.918975276816622e+03
 1.153608974197268e+03 -2.489242830357137e+02  2.918975276816622e+03
 1.153633314598338e+03 -2.514693824445639e+02  2.918975276816622e+03
 1.153662424289314e+03 -2.540963728853951e+02  2.918975276816622e+03
 1.153679314527119e+03 -2.563551552834055e+02  2.918975276816622e+03
 1.153702498951410e+03 -2.590003014283250e+02  2.918975276816622e+03
 1.153722747419322e+03 -2.610676578152024e+02  2.918975276816622e+03
 1.153737989172786e+03 -2.624897609295487e+02  2.918975276816622e+03
 1.153774443097743e+03 -2.646808633511171e+02  2.918975276816622e+03
 1.153826211971511e+03 -2.671647146650224e+02  2.918975276816622e+03
 1.153878104998509e+03 -2.700353300668653e+02  2.918975276816622e+03
 1.153891340381784e+03 -2.719148313086466e+02  2.918975276816622e+03
 1.153894718635354e+03 -2.733136084702944e+02  2.918975276816622e+03
 1.153946209318073e+03 -2.758993945698217e+02  2.918975276816622e+03
 1.153955429866871e+03 -2.784627649199839e+02  2.918975276816622e+03
 1.153952253351391e+03 -2.798024609755276e+02  2.918975276816622e+03
 1.153957352820513e+03 -2.818161699591315e+02  2.918975276816622e+03
 1.153948207457366e+03 -2.847899988998840e+02  2.918975276816622e+03
 1.153962967772977e+03 -2.874339438723796e+02  2.918975276816622e+03
 1.153959778803863e+03 -2.900805527304328e+02  2.918975276816622e+03
 1.153970405762889e+03 -2.932643420811996e+02  2.918975276816622e+03
 1.153994797721451e+03 -2.958419239773666e+02  2.918975276816622e+03
 1.154005980828979e+03 -2.970280554232983e+02  2.918975276816622e+03
 1.153995003840985e+03 -2.976464123581566e+02  2.918975276816622e+03
 1.154008755788460e+03 -2.982990386140019e+02  2.918975276816622e+03
 1.154021008536582e+03 -2.999210002399720e+02  2.918975276816622e+03
 1.153998030976794e+03 -3.021583159069272e+02  2.918975276816622e+03
 1.153974642738676e+03 -3.035553059494667e+02  2.918975276816622e+03
 1.153994203467304e+03 -3.056186861856062e+02  2.918975276816622e+03
 1.153996055789998e+03 -3.084054946698946e+02  2.918975276816622e+03
 1.154000180110367e+03 -3.097361344714975e+02  2.918975276816622e+03
 1.153986915242642e+03 -3.105827276476018e+02  2.918975276816622e+03
 1.153966106617302e+03 -3.113454216740985e+02  2.918975276816622e+03
 1.153940717480310e+03 -3.125080188593649e+02  2.918975276816622e+03
 1.153907524540701e+03 -3.139772693637443e+02  2.918975276816622e+03
 1.153875134300509e+03 -3.161078598928256e+02  2.918975276816622e+03
 1.153813917128722e+03 -3.195505637466443e+02  2.918975276816622e+03
 1.153785999913619e+03 -3.225763973340603e+02  2.918975276816622e+03
 1.153751050098012e+03 -3.249005708316213e+02  2.918975276816622e+03
 1.153725733189590e+03 -3.272993634630588e+02  2.918975276816622e+03
 1.153687411132929e+03 -3.300135569925740e+02  2.918975276816622e+03
 1.153662837353767e+03 -3.319061828785500e+02  2.918975276816622e+03
 1.153639999951371e+03 -3.335651714766938e+02  2.918975276816622e+03
 1.153605677993607e+03 -3.366581777449336e+02  2.918975276816622e+03
 1.153591931838747e+03 -3.390288733790890e+02  2.918975276816622e+03
 1.153577704031026e+03 -3.406487730034177e+02  2.918975276816622e+03
 1.153565584168330e+03 -3.428454928021927e+02  2.918975276816622e+03
 1.153547049955547e+03 -3.452925110365162e+02  2.918975276816622e+03
 1.153541101261865e+03 -3.485987377852408e+02  2.918975276816622e+03
 1.153534400333841e+03 -3.516614196963362e+02  2.918975276816622e+03
 1.153544817064883e+03 -3.538249223190696e+02  2.918975276816622e+03
 1.153554049278960e+03 -3.560404229539818e+02  2.918975276816622e+03
 1.153580472438797e+03 -3.586689165102326e+02  2.918975276816622e+03
 1.153615243744616e+03 -3.616485799889246e+02  2.918975276816622e+03
 1.153644512898837e+03 -3.639159307255873e+02  2.918975276816622e+03
 1.153666768952032e+03 -3.652945728043223e+02  2.918975276816622e+03
 1.153673738135302e+03 -3.663482445908557e+02  2.918975276816622e+03
 1.153684850163651e+03 -3.677913968526729e+02  2.918975276816622e+03
 1.153689366793580e+03 -3.698117696333618e+02  2.918975276816622e+03
 1.153706511193547e+03 -3.725501286805089e+02  2.918975276816622e+03
 1.153728940283640e+03 -3.751760599821572e+02  2.918975276816622e+03
 1.153755369416391e+03 -3.774353343595420e+02  2.918975276816622e+03
 1.153770758756373e+03 -3.801560995424964e+02  2.918975276816622e+03
 1.153785294377949e+03 -3.824253716769206e+02  2.918975276816622e+03
 1.153793533508343e+03 -3.835588986480371e+02  2.918975276816622e+03
 1.153802858330254e+03 -3.850847151143361e+02  2.918975276816622e+03
1.153819104932257e+03 3.845964009958634e+02 2.918975276816622e+03
1.153814435051393e+03 3.857867243691832e+02 2.918975276816622e+03
1.153829334061606e+03 3.827780159955303e+02 2.918975276816622e+03
1.153837855339056e+03 3.813345954075838e+02 2.918975276816622e+03
1.153845917335047e+03 3.799803873859882e+02 2.918975276816622e+03
1.153863417425172e+03 3.777043496980997e+02 2.918975276816622e+03
1.153856431829335e+03 3.749729915829337e+02 2.918975276816622e+03
1.153879075563816e+03 3.728583586493057e+02 2.918975276816622e+03
1.153869295556413e+03 3.716046394021745e+02 2.918975276816622e+03
1.153890635931846e+03 3.692068817614120e+02 2.918975276816622e+03
1.153883697227002e+03 3.670248821568985e+02 2.918975276816622e+03
1.153916353459387e+03 3.656688518609123e+02 2.918975276816622e+03
1.153952202978700e+03 3.636910975237951e+02 2.918975276816622e+03
1.153860489204145e+03 3.609489896194854e+02 2.918975276816622e+03
1.153868406777253e+03 3.585542373995015e+02 2.918975276816622e+03
1.153779464221957e+03 3.567773119533071e+02 2.918975276816622e+03
1.153682853564099e+03 3.544990141474387e+02 2.918975276816622e+03
1.153708974468866e+03 3.527052166508859e+02 2.918975276816622e+03
1.153779358354142e+03 3.513371850667381e+02 2.918975276816622e+03
1.153899393050264e+03 3.491469960206070e+02 2.918975276816622e+03
1.154013500343560e+03 3.464999026334448e+02 2.918975276816622e+03
1.154092148274939e+03 3.441178361295737e+02 2.918975276816622e+03
1.154144838098034e+03 3.424986869477951e+02 2.918975276816622e+03
1.154209337019499e+03 3.408038662470276e+02 2.918975276816622e+03
1.154283297188005e+03 3.384629139101093e+02 2.918975276816622e+03
1.154364410758815e+03 3.360493918948300e+02 2.918975276816622e+03
1.154445524329625e+03 3.336358698795505e+02 2.918975276816622e+03
1.154626279990184e+03 3.318610117499671e+02 2.918975276816622e+03
1.154282518890788e+03 3.296580289549590e+02 2.918975276816622e+03
1.153839422685490e+03 3.274222974935290e+02 2.918975276816622e+03
1.153433627126535e+03 3.258217984464924e+02 2.918975276816622e+03
1.154121526849790e+03 3.248007006043837e+02 2.918975276816622e+03
1.155066762038838e+03 3.228739099439287e+02 2.918975276816622e+03
1.154986052268114e+03 3.200539858747512e+02 2.918975276816622e+03
1.154979608771192e+03 3.175427666529942e+02 2.918975276816622e+03
1.154653173985396e+03 3.148275949731261e+02 2.918975276816622e+03
1.154391408352377e+03 3.125057354191936e+02 2.918975276816622e+03
1.154339319401762e+03 3.098574587200913e+02 2.918975276816622e+03
1.154343394012397e+03 3.067518282700818e+02 2.918975276816622e+03
1.154354944263227e+03 3.034304625609449e+02 2.918975276816622e+03
1.154370920033903e+03 3.007489833145577e+02 2.918975276816622e+03
1.154381728442613e+03 2.984706278406604e+02 2.918975276816622e+03
1.154382943969511e+03 2.959555096765035e+02 2.918975276816622e+03
1.154407517127721e+03 2.942063151149900e+02 2.918975276816622e+03
1.154433534790798e+03 2.922888106474602e+02 2.918975276816622e+03
1.154437639327433e+03 2.894370726712705e+02 2.918975276816622e+03
1.154446116165721e+03 2.879145812596348e+02 2.918975276816622e+03
1.154399127401001e+03 2.863025336118770e+02 2.918975276816622e+03
1.154292300731621e+03 2.832716831634432e+02 2.918975276816622e+03
1.154222310429190e+03 2.807809534968247e+02 2.918975276816622e+03
1.154162624781365e+03 2.783764503788522e+02 2.918975276816622e+03
1.154066494774878e+03 2.760025798320248e+02 2.918975276816622e+03
1.153959147005127e+03 2.729629145811822e+02 2.918975276816622e+03
1.153845060942025e+03 2.695791645126355e+02 2.918975276816622e+03
1.153768039399062e+03 2.663666198056949e+02 2.918975276816622e+03
1.153705037095325e+03 2.641477968267789e+02 2.918975276816622e+03
1.153675370300914e+03 2.622757582701444e+02 2.918975276816622e+03
1.153577825476721e+03 2.593257097280832e+02 2.918975276816622e+03
1.153523769598222e+03 2.571253903832119e+02 2.918975276816622e+03
1.153481925544187e+03 2.555203862462627e+02 2.918975276816622e+03
1.153451112493151e+03 2.539232048283783e+02 2.918975276816622e+03
1.153444715686206e+03 2.527202173681549e+02 2.918975276816622e+03
1.153441628495471e+03 2.514601051147791e+02 2.918975276816622e+03
1.153421970844467e+03 2.496812769411479e+02 2.918975276816622e+03
1.153383522325466e+03 2.485399276436458e+02 2.918975276816622e+03
1.153366626641801e+03 2.474236298571448e+02 2.918975276816622e+03
1.153365026911114e+03 2.460810382911744e+02 2.918975276816622e+03
1.153373108551298e+03 2.445144609271229e+02 2.918975276816622e+03
1.153384188543948e+03 2.425664964145359e+02 2.918975276816622e+03
1.153398015424534e+03 2.408678590820036e+02 2.918975276816622e+03
1.153421409360852e+03 2.391862294842908e+02 2.918975276816622e+03
1.153441956850677e+03 2.370940616868724e+02 2.918975276816622e+03
1.153461348292111e+03 2.344525887413118e+02 2.918975276816622e+03
1.153527527105306e+03 2.329175986627587e+02 2.918975276816622e+03
1.153549455697482e+03 2.313304824083141e+02 2.918975276816622e+03
1.153559346136046e+03 2.292606300855004e+02 2.918975276816622e+03
1.153568364462214e+03 2.276697459938376e+02 2.918975276816622e+03
1.153621819508013e+03 2.260959500195210e+02 2.918975276816622e+03
1.153634368264515e+03 2.249048747658228e+02 2.918975276816622e+03
1.153680510223224e+03 2.227967317132258e+02 2.918975276816622e+03
1.153733385413287e+03 2.197013220181318e+02 2.918975276816622e+03
1.153748449145487e+03 2.168878520249678e+02 2.918975276816622e+03
1.153773532200983e+03 2.143744716474682e+02 2.918975276816622e+03
1.153798615256479e+03 2.118610912699687e+02 2.918975276816622e+03
1.153795328986105e+03 2.100872840242779e+02 2.918975276816622e+03
1.153800936401900e+03 2.081086671831548e+02 2.918975276816622e+03
1.153843806829733e+03 2.051856676147905e+02 2.918975276816622e+03
1.153851494782255e+03 2.023235009263799e+02 2.918975276816622e+03
1.153850183612939e+03 1.996202930356383e+02 2.918975276816622e+03
1.153875055797101e+03 1.970152110626120e+02 2.918975276816622e+03
1.153863620555882e+03 1.940611439328178e+02 2.918975276816622e+03
1.153868800201751e+03 1.923238961179894e+02 2.918975276816622e+03
1.153778139707869e+03 1.910604350737286e+02 2.918975276816622e+03
1.153755510641586e+03 1.887085795583729e+02 2.918975276816622e+03
1.153817269978564e+03 1.858503695057400e+02 2.918975276816622e+03
1.153800006879429e+03 1.830574451155345e+02 2.918975276816622e+03
1.153778895483278e+03 1.804523763746603e+02 2.918975276816622e+03
1.153700552749668e+03 1.774598998533419e+02 2.918975276816622e+03
1.153530948939386e+03 1.746489261063769e+02 2.918975276816622e+03
1.153270084052433e+03 1.720194551337656e+02 2.918975276816622e+03
1.153009219165480e+03 1.693899841611542e+02 2.918975276816622e+03
1.153410752110523e+03 1.671842685969495e+02 2.918975276816622e+03
1.153822598707205e+03 1.651045997259000e+02 2.918975276816622e+03
1.153582361123531e+03 1.627272221395993e+02 2.918975276816622e+03
1.153342123539856e+03 1.603498445532985e+02 2.918975276816622e+03
1.153162017192434e+03 1.583958672595244e+02 2.918975276816622e+03
1.153107986959646e+03 1.564877408186899e+02 2.918975276816622e+03
1.153119901605239e+03 1.542020649382688e+02 2.918975276816622e+03
1.153148224779288e+03 1.526431525876770e+02 2.918975276816622e+03
1.153147592980107e+03 1.509982431695840e+02 2.918975276816622e+03
1.153108780650309e+03 1.493068882729362e+02 2.918975276816622e+03
1.153117490635824e+03 1.479643140610133e+02 2.918975276816622e+03
1.153125373585074e+03 1.464325191225113e+02 2.918975276816622e+03
1.153161181339668e+03 1.452860223377184e+02 2.918975276816622e+03
1.153231976873383e+03 1.431531385191457e+02 2.918975276816622e+03
1.153265885842672e+03 1.404055131396594e+02 2.918975276816622e+03
1.153268887366995e+03 1.390882634145669e+02 2.918975276816622e+03
1.153285125572316e+03 1.375915370456109e+02 2.918975276816622e+03
1.153309532781454e+03 1.348032005526048e+02 2.918975276816622e+03
1.153300748026140e+03 1.318044763147026e+02 2.918975276816622e+03
1.153269746641465e+03 1.291756748094417e+02 2.918975276816622e+03
1.153241658889309e+03 1.274737805465863e+02 2.918975276816622e+03
1.153243889788063e+03 1.264261204513410e+02 2.918975276816622e+03
1.153219260515153e+03 1.253049109082781e+02 2.918975276816622e+03
1.153159155524971e+03 1.231330171326115e+02 2.918975276816622e+03
1.153064168428990e+03 1.207094836609866e+02 2.918975276816622e+03
1.153007626334934e+03 1.192418179859323e+02 2.918975276816622e+03
1.152915009707217e+03 1.175118315665429e+02 2.918975276816622e+03
1.152747755608556e+03 1.147180758410351e+02 2.918975276816622e+03
1.152534248192872e+03 1.123605655325060e+02 2.918975276816622e+03
1.152371415825718e+03 1.109600993154733e+02 2.918975276816622e+03
1.152110087483694e+03 1.094054471943971e+02 2.918975276816622e+03
1.151874110196680e+03 1.085129975693627e+02 2.918975276816622e+03
1.152105654523068e+03 1.076978598779287e+02 2.918975276816622e+03
1.152459510282681e+03 1.062402965808415e+02 2.918975276816622e+03
1.152686334424785e+03 1.050636165900606e+02 2.918975276816622e+03
1.153029549941026e+03 1.030137316092174e+02 2.918975276816622e+03
1.153347037579877e+03 1.004301393037114e+02 2.918975276816622e+03
1.153618012413116e+03 9.797136877086682e+01 2.918975276816622e+03
1.153810655030723e+03 9.655864492721010e+01 2.918975276816622e+03
1.153937280163902e+03 9.506690780880788e+01 2.918975276816622e+03
1.154111252627679e+03 9.245009691287399e+01 2.918975276816622e+03
1.154290191076963e+03 8.947860830779301e+01 2.918975276816622e+03
1.154474473737215e+03 8.673992355503081e+01 2.918975276816622e+03
1.154622334270492e+03 8.422846214536320e+01 2.918975276816622e+03
1.154811502667331e+03 8.138202000624304e+01 2.918975276816622e+03
1.154933474157873e+03 7.929770549697758e+01 2.918975276816622e+03
1.155014658271669e+03 7.709951278043803e+01 2.918975276816622e+03
1.155105852437881e+03 7.440251376197843e+01 2.918975276816622e+03
1.155197046604094e+03 7.170551474351880e+01 2.918975276816622e+03
1.155288240770305e+03 6.900851572505920e+01 2.918975276816622e+03
1.155289589548193e+03 6.685726653209072e+01 2.918975276816622e+03
1.155362785743191e+03 6.433345815027465e+01 2.918975276816622e+03
1.155411992625600e+03 6.122403279350532e+01 2.918975276816622e+03
1.155350012105472e+03 5.915462649467609e+01 2.918975276816622e+03
1.155352781438600e+03 5.795625018207505e+01 2.918975276816622e+03
1.155299143294719e+03 5.639381804081599e+01 2.918975276816622e+03
1.155256164358666e+03 5.488380168081673e+01 2.918975276816622e+03
1.155114953924809e+03 5.303876662963410e+01 2.918975276816622e+03
1.155033575057774e+03 5.103665916562276e+01 2.918975276816622e+03
1.154872172387194e+03 4.915417578451711e+01 2.918975276816622e+03
1.154707265990419e+03 4.783342411762185e+01 2.918975276816622e+03
1.154679041270942e+03 4.604750578868056e+01 2.918975276816622e+03
1.154690950752088e+03 4.335259846915829e+01 2.918975276816622e+03
1.154719540292705e+03 4.213690419922315e+01 2.918975276816622e+03
1.154756098364839e+03 4.129768359935080e+01 2.918975276816622e+03
1.154788719576227e+03 3.979679871252923e+01 2.918975276816622e+03
1.154832536768528e+03 3.720194097317123e+01 2.918975276816622e+03
1.154893259330485e+03 3.479759984528908e+01 2.918975276816622e+03
1.154930123176643e+03 3.310846515558267e+01 2.918975276816622e+03
1.154987364796237e+03 3.110516620235765e+01 2.918975276816622e+03
1.155028707995164e+03 2.914825792941775e+01 2.918975276816622e+03
1.155104931740974e+03 2.683623600689848e+01 2.918975276816622e+03
1.155174925568372e+03 2.395008670033968e+01 2.918975276816622e+03
1.155328547452525e+03 2.095152664342852e+01 2.918975276816622e+03
1.155406642513825e+03 1.943261463430461e+01 2.918975276816622e+03
1.155290069369933e+03 1.768826549338483e+01 2.918975276816622e+03
1.155167239650062e+03 1.519145917065422e+01 2.918975276816622e+03
1.155122621286038e+03 1.390889546149460e+01 2.918975276816622e+03
1.155069251703426e+03 1.249746141400569e+01 2.918975276816622e+03
1.155018608603521e+03 1.091890767654600e+01 2.918975276816622e+03
1.154935972302743e+03 9.041116241514466e+00 2.918975276816622e+03
1.154844538550313e+03 6.640721844753869e+00 2.918975276816622e+03
1.154712453127150e+03 4.894159395429695e+00 2.918975276816622e+03
1.154555926169425e+03 3.433140155072079e+00 2.918975276816622e+03
1.154615606918251e+03 1.739832616312363e+00 2.918975276816622e+03

CELLS 1424 5836
3 6 1436 7
3 6 1437 376
3 7 1438 8
3 8 1439 9
3 9 1440 10
3 10 1441 11
3 11 1442 12
4 12 1443 1444 13
3 13 1445 14
3 14 1446 15
3 15 1447 16
3 16 1448 17
3 17 1449 18
3 18 1450 19
4 19 1451 1452 20
3 20 1453 21
3 21 1454 22
3 22 1455 23
3 23 1456 24
3 24 1457 25
3 25 1458 26
4 26 1459 1460 27
3 27 1461 28
3 28 1462 29
3 29 1463 30
3 30 1464 31
3 31 1465 32
3 32 1466 33
3 33 1467 34
3 34 1468 35
3 35 1469 36
3 36 1470 37
3 37 1471 38
3 38 1472 39
3 39 1473 40
3 40 1474 41
3 41 1475 42
3 42 1476 43
3 43 1477 44
3 44 1478 45
3 45 1479 46
3 46 1480 47
3 47 1481 48
3 48 1482 49
3 49 1483 50
3 50 1484 51
3 51 1485 52
3 52 1486 53
3 53 1487 54
3 54 1488 55
3 55 1489 56
3 56 1490 57
3 57 1491 58
3 58 1492 59
3 59 1493 60
3 60 1494 61
3 61 1495 62
3 62 1496 63
3 63 1497 64
3 64 1498 65
3 65 1499 66
3 66 1500 67
3 67 1501 68
3 68 1502 69
3 69 1503 70
3 70 1504 71
3 71 1505 72
3 72 1506 73
3 73 1507 74
4 74 1508 1509 75
3 75 1510 76
3 76 1511 77
3 77 1512 78
3 78 1513 79
3 79 1514 80
3 80 1515 81
3 81 1516 82
3 82 1517 83
3 83 1518 84
3 84 1519 85
3 85 1520 86
3 86 1521 87
3 87 1522 88
3 88 1523 89
3 89 1524 90
3 90 1525 91
3 91 1526 92
3 92 1527 93
3 93 1528 94
3 94 1529 95
3 95 1530 96
3 96 1531 97
5 97 1532 1533 1534 98
3 98 1535 99
3 99 1536 100
3 100 1537 101
3 101 1538 102
3 102 1539 103
3 103 1540 104
4 104 1541 1542 105
3 105 1543 106
3 106 1544 107
3 107 1545 108
3 108 1546 109
3 109 1547 110
3 110 1548 111
3 111 1549 112
3 112 1550 113
3 113 1551 114
3 114 1552 115
3 115 1553 116
3 116 1554 117
3 117 1555 118
3 118 1556 119
3 119 1557 120
3 120 1558 121
3 121 1559 122
3 122 1560 123
3 123 1561 124
3 124 1562 125
4 125 1563 1564 126
3 126 1565 127
3 127 1566 128
3 128 1567 129
3 129 1568 130
3 130 1569 131
3 131 1570 132
3 132 1571 133
3 133 1572 134
3 134 1573 135
3 135 1574 136
3 136 1575 137
3 137 1576 138
3 138 1577 139
3 139 1578 140
3 140 1579 141
3 141 1580 142
3 142 1581 143
3 143 1582 144
3 144 1583 145
3 145 1584 146
3 146 1585 147
3 147 1586 148
3 148 1587 149
4 149 1588 1589 150
3 150 1590 151
3 151 1591 152
3 152 1592 153
3 153 1593 154
3 154 1594 155
3 155 1595 156
3 156 1596 157
5 157 1597 1598 1599 158
3 158 1600 159
3 159 1601 160
3 160 1602 161
3 161 1603 162
3 162 1604 163
3 163 1605 164
3 164 1606 165
3 165 1607 166
4 166 1608 1609 167
3 167 1610 168
3 168 1611 169
3 169 1612 170
3 170 1613 171
3 171 1614 172
3 172 1615 173
4 173 1616 1617 174
3 174 1618 175
3 175 1619 176
4 176 1620 1621 177
3 177 1622 178
3 178 1623 179
3 179 1624 180
3 180 1625 181
5 181 1626 1627 1628 182
3 182 1629 183
3 183 1630 184
3 184 1631 185
3 185 1632 186
3 186 1633 187
3 187 1634 188
3 188 1635 189
3 189 1636 190
3 190 1637 191
3 191 1638 1428
4 192 1639 1640 193
3 192 1641 1429
3 193 1642 194
3 194 1643 195
3 195 1644 196
4 196 1645 1646 197
5 197 1647 1648 1649 198
3 198 1650 199
3 199 1651 200
3 200 1652 201
3 201 1653 202
3 202 1654 203
3 203 1655 204
3 204 1656 205
3 205 1657 206
3 206 1658 207
3 207 1659 208
5 208 1660 1661 1662 209
3 209 1663 210
3 210 1664 211
3 211 1665 212
3 212 1666 213
3 213 1667 214
3 214 1668 215
3 215 1669 216
3 216 1670 217
3 217 1671 218
3 218 1672 219
3 219 1673 220
3 220 1674 221
3 221 1675 222
3 222 1676 223
4 223 1677 1678 224
3 224 1679 225
3 225 1680 226
4 226 1681 1682 227
3 227 1683 228
3 228 1684 229
3 229 1685 230
3 230 1686 231
3 231 1687 232
3 232 1688 233
3 233 1689 234
3 234 1690 235
3 235 1691 236
3 236 1692 237
3 237 1693 238
3 238 1694 239
3 239 1695 240
3 240 1696 241
3 241 1697 242
3 242 1698 243
3 243 1699 244
3 244 1700 245
3 245 1701 246
4 246 1702 1703 247
3 247 1704 248
3 248 1705 249
3 249 1706 250
3 250 1707 251
3 251 1708 252
3 252 1709 253
3 253 1710 254
3 254 1711 255
3 255 1712 256
3 256 1713 257
3 257 1714 258
3 258 1715 259
3 259 1716 260
3 260 1717 261
3 261 1718 262
3 262 1719 263
3 263 1720 264
3 264 1721 265
3 265 1722 266
3 266 1723 267
3 267 1724 268
3 268 1725 269
3 269 1726 270
3 270 1727 271
3 271 1728 272
3 272 1729 273
3 273 1730 274
3 274 1731 275
3 275 1732 276
3 276 1733 277
3 277 1734 278
4 278 1735 1736 279
3 279 1737 280
3 280 1738 281
3 281 1739 282
3 282 1740 283
3 283 1741 284
3 284 1742 285
3 285 1743 286
3 286 1744 287
3 287 1745 288
3 288 1746 289
3 289 1747 290
3 290 1748 291
3 291 1749 292
3 292 1750 293
3 293 1751 294
3 294 1752 295
3 295 1753 296
3 296 1754 297
3 297 1755 298
3 298 1756 299
3 299 1757 300
3 300 1758 301
3 301 1759 302
3 302 1760 303
4 303 1761 1762 304
3 304 1763 305
3 305 1764 306
3 306 1765 307
3 307 1766 308
3 308 1767 309
3 309 1768 310
3 310 1769 311
3 311 1770 312
3 312 1771 313
3 313 1772 314
3 314 1773 315
3 315 1774 316
3 316 1775 317
3 317 1776 318
3 318 1777 319
3 319 1778 320
3 320 1779 321
3 321 1780 322
4 322 1781 1782 323
3 323 1783 324
3 324 1784 325
3 325 1785 326
3 326 1786 327
3 327 1787 328
3 328 1788 329
3 329 1789 330
3 330 1790 331
3 331 1791 332
3 332 1792 333
3 333 1793 334
3 334 1794 335
3 335 1795 336
3 336 1796 337
3 337 1797 338
3 338 1798 339
3 339 1799 340
3 340 1800 341
3 341 1801 342
3 342 1802 343
3 343 1803 344
3 344 1804 345
3 345 1805 346
3 346 1806 347
3 347 1807 348
3 348 1808 349
3 349 1809 350
3 350 1810 351
3 351 1811 352
3 352 1812 353
4 353 1813 1814 354
3 354 1815 355
3 355 1816 356
3 356 1817 357
3 357 1818 358
3 358 1819 359
3 359 1820 360
3 360 1821 361
3 361 1822 362
3 362 1823 363
3 363 1824 364
3 364 1825 365
3 365 1826 366
4 366 1827 1828 367
3 367 1829 368
3 368 1830 369
3 369 1831 370
3 370 1832 371
3 371 1833 372
3 372 1834 373
4 373 1835 1836 374
3 374 1837 375
3 375 1838 376
3 378 1839 379
3 378 1840 723
3 379 1841 380
3 380 1842 381
4 381 1843 1844 382
3 382 1845 383
3 383 1846 384
3 384 1847 385
3 385 1848 386
4 386 1849 1850 387
3 387 1851 388
3 388 1852 389
3 389 1853 390
3 390 1854 391
3 391 1855 392
3 392 1856 393
3 393 1857 394
4 394 1858 1859 395
3 395 1860 396
3 396 1861 397
3 397 1862 398
3 398 1863 399
3 399 1864 400
3 400 1865 401
3 401 1866 402
3 402 1867 403
3 403 1868 404
3 404 1869 405
3 405 1870 406
3 406 1871 407
3 407 1872 408
3 408 1873 409
3 409 1874 410
3 410 1875 411
3 411 1876 412
3 412 1877 413
3 413 1878 414
4 414 1879 1880 415
3 415 1881 416
3 416 1882 417
3 417 1883 418
3 418 1884 419
3 419 1885 420
3 420 1886 421
3 421 1887 422
3 422 1888 423
3 423 1889 424
3 424 1890 425
4 425 1891 1892 426
3 426 1893 427
3 427 1894 428
3 428 1895 429
3 429 1896 430
3 430 1897 431
3 431 1898 432
3 432 1899 433
3 433 1900 434
3 434 1901 435
3 435 1902 436
3 436 1903 437
4 437 1904 1905 438
4 438 1906 1907 439
3 439 1908 440
3 440 1909 441
3 441 1910 442
3 442 1911 443
3 443 1912 444
3 444 1913 445
4 445 1914 1915 446
3 446 1916 447
3 447 1917 448
3 448 1918 449
3 449 1919 450
3 450 1920 451
3 451 1921 452
3 452 1922 453
4 453 1923 1924 454
3 454 1925 455
3 455 1926 456
3 456 1927 457
3 457 1928 458
3 458 1929 459
3 459 1930 460
3 460 1931 461
3 461 1932 462
3 462 1933 463
4 463 1934 1935 464
3 464 1936 465
3 465 1937 466
3 466 1938 467
3 467 1939 468
3 468 1940 469
3 469 1941 470
3 470 1942 471
4 471 1943 1944 472
3 472 1945 473
3 473 1946 474
3 474 1947 475
3 475 1948 476
3 476 1949 477
4 477 1950 1951 478
3 478 1952 479
3 479 1953 480
4 480 1954 1955 481
3 481 1956 482
3 482 1957 483
3 483 1958 484
3 484 1959 485
3 485 1960 486
3 486 1961 487
3 487 1962 488
3 488 1963 489
3 489 1964 490
3 490 1965 491
3 491 1966 492
3 492 1967 493
3 493 1968 494
3 494 1969 495
3 495 1970 496
3 496 1971 497
4 497 1972 1973 498
3 498 1974 499
3 499 1975 500
3 500 1976 501
3 501 1977 502
3 502 1978 503
3 503 1979 504
4 504 1980 1981 505
3 505 1982 506
3 506 1983 507
3 507 1984 508
3 508 1985 509
3 509 1986 510
3 510 1987 511
3 511 1988 512
3 512 1989 513
3 513 1990 514
4 514 1991 1992 515
3 515 1993 516
3 516 1994 517
3 517 1995 518
3 518 1996 519
3 519 1997 520
3 520 1998 521
3 521 1999 522
3 522 2000 523
3 523 2001 524
3 524 2002 525
3 525 2003 526
3 526 2004 527
3 527 2005 528
3 528 2006 529
3 529 2007 530
3 530 2008 531
3 531 2009 532
3 532 2010 533
3 533 2011 534
3 534 2012 535
3 535 2013 536
3 536 2014 537
3 537 2015 538
3 538 2016 539
3 539 2017 540
4 540 2018 2019 541
3 541 2020 542
3 542 2021 543
3 543 2022 544
3 544 2023 545
3 545 2024 546
4 546 2025 2026 547
3 547 2027 548
3 548 2028 1430
3 549 2029 550
3 549 2030 1431
3 550 2031 551
3 551 2032 552
3 552 2033 553
3 553 2034 554
3 554 2035 555
3 555 2036 556
3 556 2037 557
3 557 2038 558
3 558 2039 559
3 559 2040 560
3 560 2041 561
3 561 2042 562
3 562 2043 563
3 563 2044 564
3 564 2045 565
3 565 2046 566
3 566 2047 567
3 567 2048 568
3 568 2049 569
3 569 2050 570
3 570 2051 571
3 571 2052 572
3 572 2053 573
3 573 2054 574
3 574 2055 575
3 575 2056 576
3 576 2057 577
3 577 2058 578
3 578 2059 579
3 579 2060 580
3 580 2061 581
3 581 2062 582
3 582 2063 583
3 583 2064 584
3 584 2065 585
3 585 2066 586
3 586 2067 587
3 587 2068 588
3 588 2069 589
4 589 2070 2071 590
3 590 2072 591
3 591 2073 592
3 592 2074 593
3 593 2075 594
3 594 2076 595
3 595 2077 596
4 596 2078 2079 597
3 597 2080 598
3 598 2081 599
3 599 2082 600
3 600 2083 601
3 601 2084 602
3 602 2085 603
4 603 2086 2087 604
3 604 2088 605
3 605 2089 606
3 606 2090 607
3 607 2091 608
4 608 2092 2093 609
3 609 2094 610
3 610 2095 611
3 611 2096 612
3 612 2097 613
3 613 2098 614
3 614 2099 615
3 615 2100 616
3 616 2101 617
3 617 2102 618
4 618 2103 2104 619
3 619 2105 620
3 620 2106 621
3 621 2107 622
3 622 2108 623
3 623 2109 624
3 624 2110 625
3 625 2111 626
3 626 2112 627
4 627 2113 2114 628
3 628 2115 629
3 629 2116 630
3 630 2117 631
3 631 2118 632
3 632 2119 633
3 633 2120 634
3 634 2121 635
3 635 2122 636
3 636 2123 637
3 637 2124 638
3 638 2125 639
4 639 2126 2127 640
3 640 2128 641
3 641 2129 642
3 642 2130 643
3 643 2131 644
3 644 2132 645
3 645 2133 646
4 646 2134 2135 647
3 647 2136 648
3 648 2137 649
3 649 2138 650
3 650 2139 651
3 651 2140 652
3 652 2141 653
3 653 2142 654
3 654 2143 655
3 655 2144 656
4 656 2145 2146 657
3 657 2147 658
3 658 2148 659
4 659 2149 2150 660
3 660 2151 661
3 661 2152 662
3 662 2153 663
3 663 2154 664
3 664 2155 665
3 665 2156 666
4 666 2157 2158 667
3 667 2159 668
3 668 2160 669
3 669 2161 670
3 670 2162 671
3 671 2163 672
3 672 2164 673
3 673 2165 674
3 674 2166 675
3 675 2167 676
3 676 2168 677
3 677 2169 678
4 678 2170 2171 679
3 679 2172 680
3 680 2173 681
3 681 2174 682
3 682 2175 683
3 683 2176 684
3 684 2177 685
3 685 2178 686
4 686 2179 2180 687
3 687 2181 688
6 688 2182 2183 2184 2185 689
3 689 2186 690
3 690 2187 691
3 691 2188 692
3 692 2189 693
4 693 2190 2191 694
3 694 2192 695
3 695 2193 696
4 696 2194 2195 697
4 697 2196 2197 698
3 698 2198 699
3 699 2199 700
3 700 2200 701
3 701 2201 702
3 702 2202 703
3 703 2203 704
3 704 2204 705
3 705 2205 706
3 706 2206 707
3 707 2207 708
3 708 2208 709
3 709 2209 710
3 710 2210 711
3 711 2211 712
4 712 2212 2213 713
3 713 2214 714
3 714 2215 715
3 715 2216 716
3 716 2217 717
4 717 2218 2219 718
3 718 2220 719
3 719 2221 720
3 720 2222 721
3 721 2223 722
3 722 2224 723
4 724 2225 2226 725
4 724 2227 2228 1111
4 725 2229 2230 726
3 726 2231 727
3 727 2232 728
3 728 2233 729
3 729 2234 730
4 730 2235 2236 731
3 731 2237 732
3 732 2238 733
3 733 2239 734
4 734 2240 2241 735
3 735 2242 736
3 736 2243 737
3 737 2244 738
3 738 2245 739
3 739 2246 740
3 740 2247 741
3 741 2248 742
3 742 2249 743
3 743 2250 744
3 744 2251 745
3 745 2252 746
3 746 2253 747
3 747 2254 748
3 748 2255 749
3 749 2256 750
3 750 2257 751
3 751 2258 752
3 752 2259 753
3 753 2260 754
3 754 2261 755
3 755 2262 756
3 756 2263 757
3 757 2264 758
3 758 2265 759
3 759 2266 760
3 760 2267 761
3 761 2268 762
3 762 2269 763
3 763 2270 764
3 764 2271 765
3 765 2272 766
3 766 2273 767
3 767 2274 768
3 768 2275 769
3 769 2276 770
3 770 2277 771
3 771 2278 772
3 772 2279 773
3 773 2280 774
3 774 2281 775
3 775 2282 776
3 776 2283 777
3 777 2284 778
3 778 2285 779
3 779 2286 780
3 780 2287 781
3 781 2288 782
3 782 2289 783
3 783 2290 784
3 784 2291 785
3 785 2292 786
4 786 2293 2294 787
3 787 2295 788
3 788 2296 789
3 789 2297 790
3 790 2298 791
3 791 2299 792
3 792 2300 793
3 793 2301 794
3 794 2302 795
3 795 2303 796
3 796 2304 797
3 797 2305 798
3 798 2306 799
3 799 2307 800
3 800 2308 801
3 801 2309 802
3 802 2310 803
3 803 2311 804
3 804 2312 805
3 805 2313 806
3 806 2314 807
3 807 2315 808
3 808 2316 809
3 809 2317 810
3 810 2318 811
3 811 2319 812
3 812 2320 813
3 813 2321 814
3 814 2322 815
3 815 2323 816
3 816 2324 817
3 817 2325 818
3 818 2326 819
3 819 2327 820
4 820 2328 2329 821
3 821 2330 822
3 822 2331 823
3 823 2332 824
3 824 2333 825
3 825 2334 826
3 826 2335 827
3 827 2336 828
3 828 2337 829
3 829 2338 830
3 830 2339 831
3 831 2340 832
3 832 2341 833
3 833 2342 834
3 834 2343 835
3 835 2344 836
3 836 2345 837
3 837 2346 838
3 838 2347 839
3 839 2348 840
3 840 2349 841
3 841 2350 842
3 842 2351 843
3 843 2352 844
3 844 2353 845
3 845 2354 846
3 846 2355 847
3 847 2356 848
3 848 2357 849
3 849 2358 850
5 850 2359 2360 2361 851
3 851 2362 852
3 852 2363 853
3 853 2364 854
3 854 2365 855
3 855 2366 856
3 856 2367 857
3 857 2368 858
3 858 2369 859
3 859 2370 860
3 860 2371 861
3 861 2372 862
3 862 2373 863
3 863 2374 864
3 864 2375 865
3 865 2376 866
3 866 2377 867
3 867 2378 868
3 868 2379 869
3 869 2380 870
3 870 2381 871
3 871 2382 872
3 872 2383 873
3 873 2384 874
3 874 2385 875
3 875 2386 876
3 876 2387 877
3 877 2388 878
3 878 2389 879
3 879 2390 880
3 880 2391 881
3 881 2392 882
3 882 2393 883
3 883 2394 884
3 884 2395 885
3 885 2396 886
4 886 2397 2398 887
3 887 2399 888
3 888 2400 889
3 889 2401 890
3 890 2402 891
3 891 2403 892
3 892 2404 893
3 893 2405 894
3 894 2406 895
3 895 2407 896
3 896 2408 897
3 897 2409 898
3 898 2410 899
3 899 2411 900
3 900 2412 901
3 901 2413 902
3 902 2414 903
3 903 2415 904
3 904 2416 905
4 905 2417 2418 906
3 906 2419 907
4 907 2420 2421 908
3 908 2422 909
3 909 2423 910
3 910 2424 911
3 911 2425 912
3 912 2426 913
3 913 2427 914
3 914 2428 915
3 915 2429 916
3 916 2430 917
3 917 2431 918
3 918 2432 919
3 919 2433 920
3 920 2434 921
3 921 2435 922
3 922 2436 923
3 923 2437 1432
3 924 2438 925
3 924 2439 1433
3 925 2440 926
3 926 2441 927
3 927 2442 928
3 928 2443 929
3 929 2444 930
4 930 2445 2446 931
3 931 2447 932
3 932 2448 933
3 933 2449 934
3 934 2450 935
4 935 2451 2452 936
3 936 2453 937
4 937 2454 2455 938
3 938 2456 939
5 939 2457 2458 2459 940
3 940 2460 941
3 941 2461 942
3 942 2462 943
3 943 2463 944
3 944 2464 945
4 945 2465 2466 946
3 946 2467 947
3 947 2468 948
4 948 2469 2470 949
3 949 2471 950
4 950 2472 2473 951
3 951 2474 952
3 952 2475 953
3 953 2476 954
3 954 2477 955
3 955 2478 956
3 956 2479 957
3 957 2480 958
3 958 2481 959
3 959 2482 960
3 960 2483 961
3 961 2484 962
3 962 2485 963
3 963 2486 964
3 964 2487 965
3 965 2488 966
3 966 2489 967
3 967 2490 968
3 968 2491 969
3 969 2492 970
3 970 2493 971
3 971 2494 972
3 972 2495 973
3 973 2496 974
3 974 2497 975
3 975 2498 976
3 976 2499 977
3 977 2500 978
3 978 2501 979
3 979 2502 980
3 980 2503 981
3 981 2504 982
3 982 2505 983
3 983 2506 984
3 984 2507 985
3 985 2508 986
3 986 2509 987
3 987 2510 988
3 988 2511 989
3 989 2512 990
3 990 2513 991
3 991 2514 992
3 992 2515 993
3 993 2516 994
3 994 2517 995
3 995 2518 996
3 996 2519 997
3 997 2520 998
3 998 2521 999
3 999 2522 1000
3 1000 2523 1001
3 1001 2524 1002
3 1002 2525 1003
3 1003 2526 1004
3 1004 2527 1005
3 1005 2528 1006
3 1006 2529 1007
3 1007 2530 1008
3 1008 2531 1009
3 1009 2532 1010
3 1010 2533 1011
3 1011 2534 1012
4 1012 2535 2536 1013
3 1013 2537 1014
3 1014 2538 1015
3 1015 2539 1016
3 1016 2540 1017
3 1017 2541 1018
3 1018 2542 1019
3 1019 2543 1020
3 1020 2544 1021
3 1021 2545 1022
3 1022 2546 1023
3 1023 2547 1024
3 1024 2548 1025
3 1025 2549 1026
3 1026 2550 1027
3 1027 2551 1028
3 1028 2552 1029
3 1029 2553 1030
3 1030 2554 1031
3 1031 2555 1032
3 1032 2556 1033
3 1033 2557 1034
3 1034 2558 1035
3 1035 2559 1036
3 1036 2560 1037
3 1037 2561 1038
3 1038 2562 1039
3 1039 2563 1040
3 1040 2564 1041
3 1041 2565 1042
3 1042 2566 1043
3 1043 2567 1044
3 1044 2568 1045
3 1045 2569 1046
3 1046 2570 1047
3 1047 2571 1048
3 1048 2572 1049
3 1049 2573 1050
3 1050 2574 1051
3 1051 2575 1052
3 1052 2576 1053
3 1053 2577 1054
3 1054 2578 1055
3 1055 2579 1056
3 1056 2580 1057
3 1057 2581 1058
3 1058 2582 1059
3 1059 2583 1060
3 1060 2584 1061
3 1061 2585 1062
3 1062 2586 1063
3 1063 2587 1064
3 1064 2588 1065
3 1065 2589 1066
3 1066 2590 1067
3 1067 2591 1068
3 1068 2592 1069
3 1069 2593 1070
3 1070 2594 1071
3 1071 2595 1072
3 1072 2596 1073
3 1073 2597 1074
3 1074 2598 1075
3 1075 2599 1076
3 1076 2600 1077
3 1077 2601 1078
3 1078 2602 1079
4 1079 2603 2604 1080
3 1080 2605 1081
3 1081 2606 1082
3 1082 2607 1083
3 1083 2608 1084
3 1084 2609 1085
4 1085 2610 2611 1086
3 1086 2612 1087
3 1087 2613 1088
3 1088 2614 1089
3 1089 2615 1090
3 1090 2616 1091
3 1091 2617 1092
3 1092 2618 1093
3 1093 2619 1094
3 1094 2620 1095
3 1095 2621 1096
3 1096 2622 1097
3 1097 2623 1098
3 1098 2624 1099
3 1099 2625 1100
3 1100 2626 1101
4 1101 2627 2628 1102
3 1102 2629 1103
3 1103 2630 1104
3 1104 2631 1105
3 1105 2632 1106
3 1106 2633 1107
3 1107 2634 1108
3 1108 2635 1109
3 1109 2636 1110
4 1110 2637 2638 1111
3 1113 2639 1114
3 1113 2640 1427
3 1114 2641 1115
3 1115 2642 1116
3 1116 2643 1117
3 1117 2644 1118
5 1118 2645 2646 2647 1119
4 1119 2648 2649 1120
4 1120 2650 2651 1121
3 1121 2652 1122
3 1122 2653 1123
4 1123 2654 2655 1124
3 1124 2656 1125
4 1125 2657 2658 1126
3 1126 2659 1127
3 1127 2660 1128
3 1128 2661 1129
3 1129 2662 1130
3 1130 2663 1131
3 1131 2664 1132
3 1132 2665 1133
3 1133 2666 1134
3 1134 2667 1135
3 1135 2668 1136
3 1136 2669 1137
3 1137 2670 1138
3 1138 2671 1139
3 1139 2672 1140
3 1140 2673 1141
3 1141 2674 1142
3 1142 2675 1143
3 1143 2676 1144
3 1144 2677 1145
3 1145 2678 1146
3 1146 2679 1147
3 1147 2680 1148
3 1148 2681 1149
3 1149 2682 1150
3 1150 2683 1151
3 1151 2684 1152
3 1152 2685 1153
3 1153 2686 1154
3 1154 2687 1155
3 1155 2688 1156
3 1156 2689 1157
3 1157 2690 1158
3 1158 2691 1159
3 1159 2692 1160
3 1160 2693 1161
3 1161 2694 1162
3 1162 2695 1163
4 1163 2696 2697 1164
3 1164 2698 1165
3 1165 2699 1166
3 1166 2700 1167
6 1167 2701 2702 2703 2704 1168
3 1168 2705 1169
3 1169 2706 1170
3 1170 2707 1171
3 1171 2708 1172
3 1172 2709 1173
3 1173 2710 1174
3 1174 2711 1175
3 1175 2712 1176
3 1176 2713 1177
3 1177 2714 1178
3 1178 2715 1179
3 1179 2716 1180
3 1180 2717 1181
3 1181 2718 1182
3 1182 2719 1183
3 1183 2720 1184
3 1184 2721 1185
3 1185 2722 1186
3 1186 2723 1187
3 1187 2724 1188
3 1188 2725 1189
3 1189 2726 1190
3 1190 2727 1191
3 1191 2728 1192
3 1192 2729 1193
5 1193 2730 2731 2732 1194
3 1194 2733 1195
4 1195 2734 2735 1196
3 1196 2736 1197
3 1197 2737 1198
3 1198 2738 1199
3 1199 2739 1200
3 1200 2740 1201
3 1201 2741 1202
3 1202 2742 1203
3 1203 2743 1204
4 1204 2744 2745 1205
3 1205 2746 1206
3 1206 2747 1207
3 1207 2748 1208
4 1208 2749 2750 1209
3 1209 2751 1210
3 1210 2752 1211
3 1211 2753 1212
3 1212 2754 1213
4 1213 2755 2756 1214
3 1214 2757 1215
3 1215 2758 1216
3 1216 2759 1217
3 1217 2760 1218
3 1218 2761 1219
3 1219 2762 1220
3 1220 2763 1221
3 1221 2764 1222
3 1222 2765 1223
4 1223 2766 2767 1224
3 1224 2768 1225
3 1225 2769 1226
3 1226 2770 1227
3 1227 2771 1228
3 1228 2772 1229
4 1229 2773 2774 1230
3 1230 2775 1231
3 1231 2776 1232
3 1232 2777 1233
3 1233 2778 1234
3 1234 2779 1235
3 1235 2780 1236
3 1236 2781 1237
3 1237 2782 1238
3 1238 2783 1239
3 1239 2784 1240
4 1240 2785 2786 1241
3 1241 2787 1242
3 1242 2788 1243
3 1243 2789 1244
3 1244 2790 1245
3 1245 2791 1246
3 1246 2792 1247
4 1247 2793 2794 1248
3 1248 2795 1249
3 1249 2796 1250
3 1250 2797 1251
3 1251 2798 1252
3 1252 2799 1253
3 1253 2800 1254
3 1254 2801 1255
3 1255 2802 1256
3 1256 2803 1257
3 1257 2804 1258
3 1258 2805 1259
3 1259 2806 1260
3 1260 2807 1261
3 1261 2808 1262
4 1262 2809 2810 1263
3 1263 2811 1264
3 1264 2812 1265
3 1265 2813 1434
3 1266 2814 1267
3 1266 2815 1435
3 1267 2816 1268
3 1268 2817 1269
4 1269 2818 2819 1270
3 1270 2820 1271
3 1271 2821 1272
3 1272 2822 1273
3 1273 2823 1274
3 1274 2824 1275
3 1275 2825 1276
3 1276 2826 1277
3 1277 2827 1278
3 1278 2828 1279
3 1279 2829 1280
3 1280 2830 1281
3 1281 2831 1282
3 1282 2832 1283
4 1283 2833 2834 1284
3 1284 2835 1285
3 1285 2836 1286
3 1286 2837 1287
5 1287 2838 2839 2840 1288
3 1288 2841 1289
3 1289 2842 1290
3 1290 2843 1291
3 1291 2844 1292
3 1292 2845 1293
3 1293 2846 1294
3 1294 2847 1295
3 1295 2848 1296
3 1296 2849 1297
3 1297 2850 1298
3 1298 2851 1299
4 1299 2852 2853 1300
3 1300 2854 1301
4 1301 2855 2856 1302
3 1302 2857 1303
4 1303 2858 2859 1304
3 1304 2860 1305
4 1305 2861 2862 1306
3 1306 2863 1307
3 1307 2864 1308
3 1308 2865 1309
3 1309 2866 1310
3 1310 2867 1311
3 1311 2868 1312
3 1312 2869 1313
3 1313 2870 1314
3 1314 2871 1315
3 1315 2872 1316
3 1316 2873 1317
3 1317 2874 1318
3 1318 2875 1319
3 1319 2876 1320
3 1320 2877 1321
3 1321 2878 1322
3 1322 2879 1323
3 1323 2880 1324
3 1324 2881 1325
3 1325 2882 1326
3 1326 2883 1327
3 1327 2884 1328
3 1328 2885 1329
3 1329 2886 1330
3 1330 2887 1331
3 1331 2888 1332
3 1332 2889 1333
3 1333 2890 1334
3 1334 2891 1335
3 1335 2892 1336
3 1336 2893 1337
3 1337 2894 1338
5 1338 2895 2896 2897 1339
3 1339 2898 1340
4 1340 2899 2900 1341
3 1341 2901 1342
4 1342 2902 2903 1343
3 1343 2904 1344
3 1344 2905 1345
3 1345 2906 1346
3 1346 2907 1347
3 1347 2908 1348
3 1348 2909 1349
4 1349 2910 2911 1350
5 1350 2912 2913 2914 1351
3 1351 2915 1352
5 1352 2916 2917 2918 1353
3 1353 2919 1354
4 1354 2920 2921 1355
3 1355 2922 1356
3 1356 2923 1357
3 1357 2924 1358
3 1358 2925 1359
3 1359 2926 1360
3 1360 2927 1361
3 1361 2928 1362
3 1362 2929 1363
3 1363 2930 1364
3 1364 2931 1365
4 1365 2932 2933 1366
3 1366 2934 1367
3 1367 2935 1368
3 1368 2936 1369
3 1369 2937 1370
3 1370 2938 1371
3 1371 2939 1372
3 1372 2940 1373
3 1373 2941 1374
3 1374 2942 1375
3 1375 2943 1376
3 1376 2944 1377
3 1377 2945 1378
3 1378 2946 1379
3 1379 2947 1380
3 1380 2948 1381
3 1381 2949 1382
3 1382 2950 1383
3 1383 2951 1384
3 1384 2952 1385
3 1385 2953 1386
3 1386 2954 1387
3 1387 2955 1388
3 1388 2956 1389
3 1389 2957 1390
3 1390 2958 1391
3 1391 2959 1392
3 1392 2960 1393
6 1393 2961 2962 2963 2964 1394
3 1394 2965 1395
3 1395 2966 1396
3 1396 2967 1397
3 1397 2968 1398
3 1398 2969 1399
3 1399 2970 1400
3 1400 2971 1401
3 1401 2972 1402
3 1402 2973 1403
3 1403 2974 1404
3 1404 2975 1405
3 1405 2976 1406
3 1406 2977 1407
3 1407 2978 1408
3 1408 2979 1409
3 1409 2980 1410
3 1410 2981 1411
3 1411 2982 1412
3 1412 2983 1413
3 1413 2984 1414
3 1414 2985 1415
3 1415 2986 1416
4 1416 2987 2988 1417
3 1417 2989 1418
3 1418 2990 1419
3 1419 2991 1420
3 1420 2992 1421
3 1421 2993 1422
3 1422 2994 1423
4 1423 2995 2996 1424
3 1424 2997 1425
3 1425 2998 1426
3 1426 2999 1427

CELL_TYPES 1424
4
4
4
4
4
4
4
4
4
4
4
4
4
4
4
4
4
4
4
4
4
4
4
4
4
4
4
4
4
4
4
4
4
4
4
4
4
4
4
4
4
4
4
4
4
4
4
4
4
4
4
4
4
4
4
4
4
4
4
4
4
4
4
4
4
4
4
4
4
4
4
4
4
4
4
4
4
4
4
4
4
4
4
4
4
4
4
4
4
4
4
4
4
4
4
4
4
4
4
4
4
4
4
4
4
4
4
4
4
4
4
4
4
4
4
4
4
4
4
4
4
4
4
4
4
4
4
4
4
4
4
4
4
4
4
4
4
4
4
4
4
4
4
4
4
4
4
4
4
4
4
4
4
4
4
4
4
4
4
4
4
4
4
4
4
4
4
4
4
4
4
4
4
4
4
4
4
4
4
4
4
4
4
4
4
4
4
4
4
4
4
4
4
4
4
4
4
4
4
4
4
4
4
4
4
4
4
4
4
4
4
4
4
4
4
4
4
4
4
4
4
4
4
4
4
4
4
4
4
4
4
4
4
4
4
4
4
4
4
4
4
4
4
4
4
4
4
4
4
4
4
4
4
4
4
4
4
4
4
4
4
4
4
4
4
4
4
4
4
4
4
4
4
4
4
4
4
4
4
4
4
4
4
4
4
4
4
4
4
4
4
4
4
4
4
4
4
4
4
4
4
4
4
4
4
4
4
4
4
4
4
4
4
4
4
4
4
4
4
4
4
4
4
4
4
4
4
4
4
4
4
4
4
4
4
4
4
4
4
4
4
4
4
4
4
4
4
4
4
4
4
4
4
4
4
4
4
4
4
4
4
4
4
4
4
4
4
4
4
4
4
4
4
4
4
4
4
4
4
4
4
4
4
4
4
4
4
4
4
4
4
4
4
4
4
4
4
4
4
4
4
4
4
4
4
4
4
4
4
4
4
4
4
4
4
4
4
4
4
4
4
4
4
4
4
4
4
4
4
4
4
4
4
4
4
4
4
4
4
4
4
4
4
4
4
4
4
4
4
4
4
4
4
4
4
4
4
4
4
4
4
4
4
4
4
4
4
4
4
4
4
4
4
4
4
4
4
4
4
4
4
4
4
4
4
4
4
4
4
4
4
4
4
4
4
4
4
4
4
4
4
4
4
4
4
4
4
4
4
4
4
4
4
4
4
4
4
4
4
4
4
4
4
4
4
4
4
4
4
4
4
4
4
4
4
4
4
4
4
4
4
4
4
4
4
4
4
4
4
4
4
4
4
4
4
4
4
4
4
4
4
4
4
4
4
4
4
4
4
4
4
4
4
4
4
4
4
4
4
4
4
4
4
4
4
4
4
4
4
4
4
4
4
4
4
4
4
4
4
4
4
4
4
4
4
4
4
4
4
4
4
4
4
4
4
4
4
4
4
4
4
4
4
4
4
4
4
4
4
4
4
4
4
4
4
4
4
4
4
4
4
4
4
4
4
4
4
4
4
4
4
4
4
4
4
4
4
4
4
4
4
4
4
4
4
4
4
4
4
4
4
4
4
4
4
4
4
4
4
4
4
4
4
4
4
4
4
4
4
4
4
4
4
4
4
4
4
4
4
4
4
4
4
4
4
4
4
4
4
4
4
4
4
4
4
4
4
4
4
4
4
4
4
4
4
4
4
4
4
4
4
4
4
4
4
4
4
4
4
4
4
4
4
4
4
4
4
4
4
4
4
4
4
4
4
4
4
4
4
4
4
4
4
4
4
4
4
4
4
4
4
4
4
4
4
4
4
4
4
4
4
4
4
4
4
4
4
4
4
4
4
4
4
4
4
4
4
4
4
4
4
4
4
4
4
4
4
4
4
4
4
4
4
4
4
4
4
4
4
4
4
4
4
4
4
4
4
4
4
4
4
4
4
4
4
4
4
4
4
4
4
4
4
4
4
4
4
4
4
4
4
4
4
4
4
4
4
4
4
4
4
4
4
4
4
4
4
4
4
4
4
4
4
4
4
4
4
4
4
4
4
4
4
4
4
4
4
4
4
4
4
4
4
4
4
4
4
4
4
4
4
4
4
4
4
4
4
4
4
4
4
4
4
4
4
4
4
4
4
4
4
4
4
4
4
4
4
4
4
4
4
4
4
4
4
4
4
4
4
4
4
4
4
4
4
4
4
4
4
4
4
4
4
4
4
4
4
4
4
4
4
4
4
4
4
4
4
4
4
4
4
4
4
4
4
4
4
4
4
4
4
4
4
4
4
4
4
4
4
4
4
4
4
4
4
4
4
4
4
4
4
4
4
4
4
4
4
4
4
4
4
4
4
4
4
4
4
4
4
4
4
4
4
4
4
4
4
4
4
4
4
4
4
4
4
4
4
4
4
4
4
4
4
4
4
4
4
4
4
4
4
4
4
4
4
4
4
4
4
4
4
4
4
4
4
4
4
4
4
4
4
4
4
4
4
4
4
4
4
4
4
4
4
4
4
4
4
4
4
4
4
4
4
4
4
4
4
4
4
4
4
4
4
4
4
4
4
4
4
4
4
4
4
4
4
4
4
4
4
4
4
4
4
4
4
4
4
4
4
4
4
4
4
4
4
4
4
4
4
4
4
4
4
4
4
4
4
4
4
4
4
4
4
4
4
4
4
4
4
4
4
4
4
4
4
4
4
4
4
4
4
4
4
4
4
4
4
4
4
4
4
4
4
4
4
4
4
4
4
4
4
4
4
4
4
4
4
4
4
4
4
4
4
4
4
4
4
4
4
4
4
4
4
4
4
4
4
4
4
4
4
4
4
4
4
4
4
4
4
4
4
4
4
4
4
4
4
4
4
4
4
4
4
4
4
4
4
4
4
4
4
4
4
4
4
4
4
4
4
4
4
4
4
4
4
4
4
4
4
4
4
4
4
4
4
4
4
4
4
4
4
4
4
4
4
4
4
4
4
4
4
4
4
4
4
4
4
4
4
4
4
4
4
4
4
4
4
4
4
4
4
4
4
4
4
4
4
4
4
4
4
4
4
4
4
4
4
4
4
4
4
4
4
4
4
4
4
4
4
4
4
4
4
4
4
4
4
4
4
4
4
4
4
4
4
4
4
4
4
4
4
4
4
4
4
4
4
4
4
4
4
4
4
4
4
4
4
4
4
4
4
4
4
4
4
4
4
4
4
4
4
4
4
4
4
4
4
4
4
4
4
4
4
4
4
4
4
4
4
4
4
4
4
4
4
4
4
4
4
4
4
4
4
4

POINT_DATA 3000
VECTORS PK_force double
0.000000000000000e+00 0.000000000000000e+00 0.000000000000000e+00
0.000000000000000e+00 0.000000000000000e+00 0.000000000000000e+00
0.000000000000000e+00 0.000000000000000e+00 0.000000000000000e+00
0.000000000000000e+00 0.000000000000000e+00 0.000000000000000e+00
0.000000000000000e+00 0.000000000000000e+00 0.000000000000000e+00
0.000000000000000e+00 0.000000000000000e+00 0.000000000000000e+00
0.000000000000000e+00 0.000000000000000e+00 0.000000000000000e+00
0.000000000000000e+00 0.000000000000000e+00 0.000000000000000e+00
0.000000000000000e+00 0.000000000000000e+00 0.000000000000000e+00
0.000000000000000e+00 0.000000000000000e+00 0.000000000000000e+00
0.000000000000000e+00 0.000000000000000e+00 0.000000000000000e+00
0.000000000000000e+00 0.000000000000000e+00 0.000000000000000e+00
0.000000000000000e+00 0.000000000000000e+00 0.000000000000000e+00
0.000000000000000e+00 0.000000000000000e+00 0.000000000000000e+00
0.000000000000000e+00 0.000000000000000e+00 0.000000000000000e+00
0.000000000000000e+00 0.000000000000000e+00 0.000000000000000e+00
0.000000000000000e+00 0.000000000000000e+00 0.000000000000000e+00
0.000000000000000e+00 0.000000000000000e+00 0.000000000000000e+00
0.000000000000000e+00 0.000000000000000e+00 0.000000000000000e+00
0.000000000000000e+00 0.000000000000000e+00 0.000000000000000e+00
0.000000000000000e+00 0.000000000000000e+00 0.000000000000000e+00
0.000000000000000e+00 0.000000000000000e+00 0.000000000000000e+00
0.000000000000000e+00 0.000000000000000e+00 0.000000000000000e+00
0.000000000000000e+00 0.000000000000000e+00 0.000000000000000e+00
0.000000000000000e+00 0.000000000000000e+00 0.000000000000000e+00
0.000000000000000e+00 0.000000000000000e+00 0.000000000000000e+00
0.000000000000000e+00 0.000000000000000e+00 0.000000000000000e+00
0.000000000000000e+00 0.000000000000000e+00 0.000000000000000e+00
0.000000000000000e+00 0.000000000000000e+00 0.000000000000000e+00
0.000000000000000e+00 0.000000000000000e+00 0.000000000000000e+00
0.000000000000000e+00 0.000000000000000e+00 0.000000000000000e+00
0.000000000000000e+00 0.000000000000000e+00 0.000000000000000e+00
0.000000000000000e+00 0.000000000000000e+00 0.000000000000000e+00
0.000000000000000e+00 0.000000000000000e+00 0.000000000000000e+00
0.000000000000000e+00 0.000000000000000e+00 0.000000000000000e+00
0.000000000000000e+00 0.000000000000000e+00 0.000000000000000e+00
0.000000000000000e+00 0.000000000000000e+00 0.000000000000000e+00
0.000000000000000e+00 0.000000000000000e+00 0.000000000000000e+00
0.000000000000000e+00 0.000000000000000e+00 0.000000000000000e+00
0.000000000000000e+00 0.000000000000000e+00 0.000000000000000e+00
0.000000000000000e+00 0.000000000000000e+00 0.000000000000000e+00
0.000000000000000e+00 0.000000000000000e+00 0.000000000000000e+00
0.000000000000000e+00 0.000000000000000e+00 0.000000000000000e+00
0.000000000000000e+00 0.000000000000000e+00 0.000000000000000e+00
0.000000000000000e+00 0.000000000000000e+00 0.000000000000000e+00
0.000000000000000e+00 0.000000000000000e+00 0.000000000000000e+00
0.000000000000000e+00 0.000000000000000e+00 0.000000000000000e+00
0.000000000000000e+00 0.000000000000000e+00 0.000000000000000e+00
0.000000000000000e+00 0.000000000000000e+00 0.000000000000000e+00
0.000000000000000e+00 0.000000000000000e+00 0.000000000000000e+00
0.000000000000000e+00 0.000000000000000e+00 0.000000000000000e+00
0.000000000000000e+00 0.000000000000000e+00 0.000000000000000e+00
0.000000000000000e+00 0.000000000000000e+00 0.000000000000000e+00
0.000000000000000e+00 0.000000000000000e+00 0.000000000000000e+00
0.000000000000000e+00 0.000000000000000e+00 0.000000000000000e+00
0.000000000000000e+00 0.000000000000000e+00 0.000000000000000e+00
0.000000000000000e+00 0.000000000000000e+00 0.000000000000000e+00
0.000000000000000e+00 0.000000000000000e+00 0.000000000000000e+00
0.000000000000000e+00 0.000000000000000e+00 0.000000000000000e+00
0.000000000000000e+00 0.000000000000000e+00 0.000000000000000e+00
0.000000000000000e+00 0.000000000000000e+00 0.000000000000000e+00
0.000000000000000e+00 0.000000000000000e+00 0.000000000000000e+00
0.000000000000000e+00 0.000000000000000e+00 0.000000000000000e+00
0.000000000000000e+00 0.000000000000000e+00 0.000000000000000e+00
0.000000000000000e+00 0.000000000000000e+00 0.000000000000000e+00
0.000000000000000e+00 0.000000000000000e+00 0.000000000000000e+00
0.000000000000000e+00 0.000000000000000e+00 0.000000000000000e+00
0.000000000000000e+00 0.000000000000000e+00 0.000000000000000e+00
0.000000000000000e+00 0.000000000000000e+00 0.000000000000000e+00
0.000000000000000e+00 0.000000000000000e+00 0.000000000000000e+00
0.000000000000000e+00 0.000000000000000e+00 0.000000000000000e+00
0.000000000000000e+00 0.000000000000000e+00 0.000000000000000e+00
0.000000000000000e+00 0.000000000000000e+00 0.000000000000000e+00
0.000000000000000e+00 0.000000000000000e+00 0.000000000000000e+00
0.000000000000000e+00 0.000000000000000e+00 0.000000000000000e+00
0.000000000000000e+00 0.000000000000000e+00 0.000000000000000e+00
0.000000000000000e+00 0.000000000000000e+00 0.000000000000000e+00
0.000000000000000e+00 0.000000000000000e+00 0.000000000000000e+00
0.000000000000000e+00 0.000000000000000e+00 0.000000000000000e+00
0.000000000000000e+00 0.000000000000000e+00 0.000000000000000e+00
0.000000000000000e+00 0.000000000000000e+00 0.000000000000000e+00
0.000000000000000e+00 0.000000000000000e+00 0.000000000000000e+00
0.000000000000000e+00 0.000000000000000e+00 0.000000000000000e+00
0.000000000000000e+00 0.000000000000000e+00 0.000000000000000e+00
0.000000000000000e+00 0.000000000000000e+00 0.000000000000000e+00
0.000000000000000e+00 0.000000000000000e+00 0.000000000000000e+00
0.000000000000000e+00 0.000000000000000e+00 0.000000000000000e+00
0.000000000000000e+00 0.000000000000000e+00 0.000000000000000e+00
0.000000000000000e+00 0.000000000000000e+00 0.000000000000000e+00
0.000000000000000e+00 0.000000000000000e+00 0.000000000000000e+00
0.000000000000000e+00 0.000000000000000e+00 0.000000000000000e+00
0.000000000000000e+00 0.000000000000000e+00 0.000000000000000e+00
0.000000000000000e+00 0.000000000000000e+00 0.000000000000000e+00
0.000000000000000e+00 0.000000000000000e+00 0.000000000000000e+00
0.000000000000000e+00 0.000000000000000e+00 0.000000000000000e+00
0.000000000000000e+00 0.000000000000000e+00 0.000000000000000e+00
0.000000000000000e+00 0.000000000000000e+00 0.000000000000000e+00
0.000000000000000e+00 0.000000000000000e+00 0.000000000000000e+00
0.000000000000000e+00 0.000000000000000e+00 0.000000000000000e+00
0.000000000000000e+00 0.000000000000000e+00 0.000000000000000e+00
0.000000000000000e+00 0.000000000000000e+00 0.000000000000000e+00
0.000000000000000e+00 0.000000000000000e+00 0.000000000000000e+00
0.000000000000000e+00 0.000000000000000e+00 0.000000000000000e+00
0.000000000000000e+00 0.000000000000000e+00 0.000000000000000e+00
0.000000000000000e+00 0.000000000000000e+00 0.000000000000000e+00
0.000000000000000e+00 0.000000000000000e+00 0.000000000000000e+00
0.000000000000000e+00 0.000000000000000e+00 0.000000000000000e+00
0.000000000000000e+00 0.000000000000000e+00 0.000000000000000e+00
0.000000000000000e+00 0.000000000000000e+00 0.000000000000000e+00
0.000000000000000e+00 0.000000000000000e+00 0.000000000000000e+00
0.000000000000000e+00 0.000000000000000e+00 0.000000000000000e+00
0.000000000000000e+00 0.000000000000000e+00 0.000000000000000e+00
0.000000000000000e+00 0.000000000000000e+00 0.000000000000000e+00
0.000000000000000e+00 0.000000000000000e+00 0.000000000000000e+00
0.000000000000000e+00 0.000000000000000e+00 0.000000000000000e+00
0.000000000000000e+00 0.000000000000000e+00 0.000000000000000e+00
0.000000000000000e+00 0.000000000000000e+00 0.000000000000000e+00
0.000000000000000e+00 0.000000000000000e+00 0.000000000000000e+00
0.000000000000000e+00 0.000000000000000e+00 0.000000000000000e+00
0.000000000000000e+00 0.000000000000000e+00 0.000000000000000e+00
0.000000000000000e+00 0.000000000000000e+00 0.000000000000000e+00
0.000000000000000e+00 0.000000000000000e+00 0.000000000000000e+00
0.000000000000000e+00 0.000000000000000e+00 0.000000000000000e+00
0.000000000000000e+00 0.000000000000000e+00 0.000000000000000e+00
0.000000000000000e+00 0.000000000000000e+00 0.000000000000000e+00
0.000000000000000e+00 0.000000000000000e+00 0.000000000000000e+00
0.000000000000000e+00 0.000000000000000e+00 0.000000000000000e+00
0.000000000000000e+00 0.000000000000000e+00 0.000000000000000e+00
0.000000000000000e+00 0.000000000000000e+00 0.000000000000000e+00
0.000000000000000e+00 0.000000000000000e+00 0.000000000000000e+00
0.000000000000000e+00 0.000000000000000e+00 0.000000000000000e+00
0.000000000000000e+00 0.000000000000000e+00 0.000000000000000e+00
0.000000000000000e+00 0.000000000000000e+00 0.000000000000000e+00
0.000000000000000e+00 0.000000000000000e+00 0.000000000000000e+00
0.000000000000000e+00 0.000000000000000e+00 0.000000000000000e+00
0.000000000000000e+00 0.000000000000000e+00 0.000000000000000e+00
0.000000000000000e+00 0.000000000000000e+00 0.000000000000000e+00
0.000000000000000e+00 0.000000000000000e+00 0.000000000000000e+00
0.000000000000000e+00 0.000000000000000e+00 0.000000000000000e+00
0.000000000000000e+00 0.000000000000000e+00 0.000000000000000e+00
0.000000000000000e+00 0.000000000000000e+00 0.000000000000000e+00
0.000000000000000e+00 0.000000000000000e+00 0.000000000000000e+00
0.000000000000000e+00 0.000000000000000e+00 0.000000000000000e+00
0.000000000000000e+00 0.000000000000000e+00 0.000000000000000e+00
0.000000000000000e+00 0.000000000000000e+00 0.000000000000000e+00
0.000000000000000e+00 0.000000000000000e+00 0.000000000000000e+00
0.000000000000000e+00 0.000000000000000e+00 0.000000000000000e+00
0.000000000000000e+00 0.000000000000000e+00 0.000000000000000e+00
0.000000000000000e+00 0.000000000000000e+00 0.000000000000000e+00
0.000000000000000e+00 0.000000000000000e+00 0.000000000000000e+00
0.000000000000000e+00 0.000000000000000e+00 0.000000000000000e+00
0.000000000000000e+00 0.000000000000000e+00 0.000000000000000e+00
0.000000000000000e+00 0.000000000000000e+00 0.000000000000000e+00
0.000000000000000e+00 0.000000000000000e+00 0.000000000000000e+00
0.000000000000000e+00 0.000000000000000e+00 0.000000000000000e+00
0.000000000000000e+00 0.000000000000000e+00 0.000000000000000e+00
0.000000000000000e+00 0.000000000000000e+00 0.000000000000000e+00
0.000000000000000e+00 0.000000000000000e+00 0.000000000000000e+00
0.000000000000000e+00 0.000000000000000e+00 0.000000000000000e+00
0.000000000000000e+00 0.000000000000000e+00 0.000000000000000e+00
0.000000000000000e+00 0.000000000000000e+00 0.000000000000000e+00
0.000000000000000e+00 0.000000000000000e+00 0.000000000000000e+00
0.000000000000000e+00 0.000000000000000e+00 0.000000000000000e+00
0.000000000000000e+00 0.000000000000000e+00 0.000000000000000e+00
0.000000000000000e+00 0.000000000000000e+00 0.000000000000000e+00
0.000000000000000e+00 0.000000000000000e+00 0.000000000000000e+00
0.000000000000000e+00 0.000000000000000e+00 0.000000000000000e+00
0.000000000000000e+00 0.000000000000000e+00 0.000000000000000e+00
0.000000000000000e+00 0.000000000000000e+00 0.000000000000000e+00
0.000000000000000e+00 0.000000000000000e+00 0.000000000000000e+00
0.000000000000000e+00 0.000000000000000e+00 0.000000000000000e+00
0.000000000000000e+00 0.000000000000000e+00 0.000000000000000e+00
0.000000000000000e+00 0.000000000000000e+00 0.000000000000000e+00
0.000000000000000e+00 0.000000000000000e+00 0.000000000000000e+00
0.000000000000000e+00 0.000000000000000e+00 0.000000000000000e+00
0.000000000000000e+00 0.000000000000000e+00 0.000000000000000e+00
0.000000000000000e+00 0.000000000000000e+00 0.000000000000000e+00
0.000000000000000e+00 0.000000000000000e+00 0.000000000000000e+00
0.000000000000000e+00 0.000000000000000e+00 0.000000000000000e+00
0.000000000000000e+00 0.000000000000000e+00 0.000000000000000e+00
0.000000000000000e+00 0.000000000000000e+00 0.000000000000000e+00
0.000000000000000e+00 0.000000000000000e+00 0.000000000000000e+00
0.000000000000000e+00 0.000000000000000e+00 0.000000000000000e+00
0.000000000000000e+00 0.000000000000000e+00 0.000000000000000e+00
0.000000000000000e+00 0.000000000000000e+00 0.000000000000000e+00
0.000000000000000e+00 0.000000000000000e+00 0.000000000000000e+00
0.000000000000000e+00 0.000000000000000e+00 0.000000000000000e+00
0.000000000000000e+00 0.000000000000000e+00 0.000000000000000e+00
0.000000000000000e+00 0.000000000000000e+00 0.000000000000000e+00
0.000000000000000e+00 0.000000000000000e+00 0.000000000000000e+00
0.000000000000000e+00 0.000000000000000e+00 0.000000000000000e+00
0.000000000000000e+00 0.000000000000000e+00 0.000000000000000e+00
0.000000000000000e+00 0.000000000000000e+00 0.000000000000000e+00
0.000000000000000e+00 0.000000000000000e+00 0.000000000000000e+00
0.000000000000000e+00 0.000000000000000e+00 0.000000000000000e+00
0.000000000000000e+00 0.000000000000000e+00 0.000000000000000e+00
0.000000000000000e+00 0.000000000000000e+00 0.000000000000000e+00
0.000000000000000e+00 0.000000000000000e+00 0.000000000000000e+00
0.000000000000000e+00 0.000000000000000e+00 0.000000000000000e+00
0.000000000000000e+00 0.000000000000000e+00 0.000000000000000e+00
0.000000000000000e+00 0.000000000000000e+00 0.000000000000000e+00
0.000000000000000e+00 0.000000000000000e+00 0.000000000000000e+00
0.000000000000000e+00 0.000000000000000e+00 0.000000000000000e+00
0.000000000000000e+00 0.000000000000000e+00 0.000000000000000e+00
0.000000000000000e+00 0.000000000000000e+00 0.000000000000000e+00
0.000000000000000e+00 0.000000000000000e+00 0.000000000000000e+00
0.000000000000000e+00 0.000000000000000e+00 0.000000000000000e+00
0.000000000000000e+00 0.000000000000000e+00 0.000000000000000e+00
0.000000000000000e+00 0.000000000000000e+00 0.000000000000000e+00
0.000000000000000e+00 0.000000000000000e+00 0.000000000000000e+00
0.000000000000000e+00 0.000000000000000e+00 0.000000000000000e+00
0.000000000000000e+00 0.000000000000000e+00 0.000000000000000e+00
0.000000000000000e+00 0.000000000000000e+00 0.000000000000000e+00
0.000000000000000e+00 0.000000000000000e+00 0.000000000000000e+00
0.000000000000000e+00 0.000000000000000e+00 0.000000000000000e+00
0.000000000000000e+00 0.000000000000000e+00 0.000000000000000e+00
0.000000000000000e+00 0.000000000000000e+00 0.000000000000000e+00
0.000000000000000e+00 0.000000000000000e+00 0.000000000000000e+00
0.000000000000000e+00 0.000000000000000e+00 0.000000000000000e+00
0.000000000000000e+00 0.000000000000000e+00 0.000000000000000e+00
0.000000000000000e+00 0.000000000000000e+00 0.000000000000000e+00
0.000000000000000e+00 0.000000000000000e+00 0.000000000000000e+00
0.000000000000000e+00 0.000000000000000e+00 0.000000000000000e+00
0.000000000000000e+00 0.000000000000000e+00 0.000000000000000e+00
0.000000000000000e+00 0.000000000000000e+00 0.000000000000000e+00
0.000000000000000e+00 0.000000000000000e+00 0.000000000000000e+00
0.000000000000000e+00 0.000000000000000e+00 0.000000000000000e+00
0.000000000000000e+00 0.000000000000000e+00 0.000000000000000e+00
0.000000000000000e+00 0.000000000000000e+00 0.000000000000000e+00
0.000000000000000e+00 0.000000000000000e+00 0.000000000000000e+00
0.000000000000000e+00 0.000000000000000e+00 0.000000000000000e+00
0.000000000000000e+00 0.000000000000000e+00 0.000000000000000e+00
0.000000000000000e+00 0.000000000000000e+00 0.000000000000000e+00
0.000000000000000e+00 0.000000000000000e+00 0.000000000000000e+00
0.000000000000000e+00 0.000000000000000e+00 0.000000000000000e+00
0.000000000000000e+00 0.000000000000000e+00 0.000000000000000e+00
0.000000000000000e+00 0.000000000000000e+00 0.000000000000000e+00
0.000000000000000e+00 0.000000000000000e+00 0.000000000000000e+00
0.000000000000000e+00 0.000000000000000e+00 0.000000000000000e+00
0.000000000000000e+00 0.000000000000000e+00 0.000000000000000e+00
0.000000000000000e+00 0.000000000000000e+00 0.000000000000000e+00
0.000000000000000e+00 0.000000000000000e+00 0.000000000000000e+00
0.000000000000000e+00 0.000000000000000e+00 0.000000000000000e+00
0.000000000000000e+00 0.000000000000000e+00 0.000000000000000e+00
0.000000000000000e+00 0.000000000000000e+00 0.000000000000000e+00
0.000000000000000e+00 0.000000000000000e+00 0.000000000000000e+00
0.000000000000000e+00 0.000000000000000e+00 0.000000000000000e+00
0.000000000000000e+00 0.000000000000000e+00 0.000000000000000e+00
0.000000000000000e+00 0.000000000000000e+00 0.000000000000000e+00
0.000000000000000e+00 0.000000000000000e+00 0.000000000000000e+00
0.000000000000000e+00 0.000000000000000e+00 0.000000000000000e+00
0.000000000000000e+00 0.000000000000000e+00 0.000000000000000e+00
0.000000000000000e+00 0.000000000000000e+00 0.000000000000000e+00
0.000000000000000e+00 0.000000000000000e+00 0.000000000000000e+00
0.000000000000000e+00 0.000000000000000e+00 0.000000000000000e+00
0.000000000000000e+00 0.000000000000000e+00 0.000000000000000e+00
0.000000000000000e+00 0.000000000000000e+00 0.000000000000000e+00
0.000000000000000e+00 0.000000000000000e+00 0.000000000000000e+00
0.000000000000000e+00 0.000000000000000e+00 0.000000000000000e+00
0.000000000000000e+00 0.000000000000000e+00 0.000000000000000e+00
0.000000000000000e+00 0.000000000000000e+00 0.000000000000000e+00
0.000000000000000e+00 0.000000000000000e+00 0.000000000000000e+00
0.000000000000000e+00 0.000000000000000e+00 0.000000000000000e+00
0.000000000000000e+00 0.000000000000000e+00 0.000000000000000e+00
0.000000000000000e+00 0.000000000000000e+00 0.000000000000000e+00
0.000000000000000e+00 0.000000000000000e+00 0.000000000000000e+00
0.000000000000000e+00 0.000000000000000e+00 0.000000000000000e+00
0.000000000000000e+00 0.000000000000000e+00 0.000000000000000e+00
0.000000000000000e+00 0.000000000000000e+00 0.000000000000000e+00
0.000000000000000e+00 0.000000000000000e+00 0.000000000000000e+00
0.000000000000000e+00 0.000000000000000e+00 0.000000000000000e+00
0.000000000000000e+00 0.000000000000000e+00 0.000000000000000e+00
0.000000000000000e+00 0.000000000000000e+00 0.000000000000000e+00
0.000000000000000e+00 0.000000000000000e+00 0.000000000000000e+00
0.000000000000000e+00 0.000000000000000e+00 0.000000000000000e+00
0.000000000000000e+00 0.000000000000000e+00 0.000000000000000e+00
0.000000000000000e+00 0.000000000000000e+00 0.000000000000000e+00
0.000000000000000e+00 0.000000000000000e+00 0.000000000000000e+00
0.000000000000000e+00 0.000000000000000e+00 0.000000000000000e+00
0.000000000000000e+00 0.000000000000000e+00 0.000000000000000e+00
0.000000000000000e+00 0.000000000000000e+00 0.000000000000000e+00
0.000000000000000e+00 0.000000000000000e+00 0.000000000000000e+00
0.000000000000000e+00 0.000000000000000e+00 0.000000000000000e+00
0.000000000000000e+00 0.000000000000000e+00 0.000000000000000e+00
0.000000000000000e+00 0.000000000000000e+00 0.000000000000000e+00
0.000000000000000e+00 0.000000000000000e+00 0.000000000000000e+00
0.000000000000000e+00 0.000000000000000e+00 0.000000000000000e+00
0.000000000000000e+00 0.000000000000000e+00 0.000000000000000e+00
0.000000000000000e+00 0.000000000000000e+00 0.000000000000000e+00
0.000000000000000e+00 0.000000000000000e+00 0.000000000000000e+00
0.000000000000000e+00 0.000000000000000e+00 0.000000000000000e+00
0.000000000000000e+00 0.000000000000000e+00 0.000000000000000e+00
0.000000000000000e+00 0.000000000000000e+00 0.000000000000000e+00
0.000000000000000e+00 0.000000000000000e+00 0.000000000000000e+00
0.000000000000000e+00 0.000000000000000e+00 0.000000000000000e+00
0.000000000000000e+00 0.000000000000000e+00 0.000000000000000e+00
0.000000000000000e+00 0.000000000000000e+00 0.000000000000000e+00
0.000000000000000e+00 0.000000000000000e+00 0.000000000000000e+00
0.000000000000000e+00 0.000000000000000e+00 0.000000000000000e+00
0.000000000000000e+00 0.000000000000000e+00 0.000000000000000e+00
0.000000000000000e+00 0.000000000000000e+00 0.000000000000000e+00
0.000000000000000e+00 0.000000000000000e+00 0.000000000000000e+00
0.000000000000000e+00 0.000000000000000e+00 0.000000000000000e+00
0.000000000000000e+00 0.000000000000000e+00 0.000000000000000e+00
0.000000000000000e+00 0.000000000000000e+00 0.000000000000000e+00
0.000000000000000e+00 0.000000000000000e+00 0.000000000000000e+00
0.000000000000000e+00 0.000000000000000e+00 0.000000000000000e+00
0.000000000000000e+00 0.000000000000000e+00 0.000000000000000e+00
0.000000000000000e+00 0.000000000000000e+00 0.000000000000000e+00
0.000000000000000e+00 0.000000000000000e+00 0.000000000000000e+00
0.000000000000000e+00 0.000000000000000e+00 0.000000000000000e+00
0.000000000000000e+00 0.000000000000000e+00 0.000000000000000e+00
0.000000000000000e+00 0.000000000000000e+00 0.000000000000000e+00
0.000000000000000e+00 0.000000000000000e+00 0.000000000000000e+00
0.000000000000000e+00 0.000000000000000e+00 0.000000000000000e+00
0.000000000000000e+00 0.000000000000000e+00 0.000000000000000e+00
0.000000000000000e+00 0.000000000000000e+00 0.000000000000000e+00
0.000000000000000e+00 0.000000000000000e+00 0.000000000000000e+00
0.000000000000000e+00 0.000000000000000e+00 0.000000000000000e+00
0.000000000000000e+00 0.000000000000000e+00 0.000000000000000e+00
0.000000000000000e+00 0.000000000000000e+00 0.000000000000000e+00
0.000000000000000e+00 0.000000000000000e+00 0.000000000000000e+00
0.000000000000000e+00 0.000000000000000e+00 0.000000000000000e+00
0.000000000000000e+00 0.000000000000000e+00 0.000000000000000e+00
0.000000000000000e+00 0.000000000000000e+00 0.000000000000000e+00
0.000000000000000e+00 0.000000000000000e+00 0.000000000000000e+00
0.000000000000000e+00 0.000000000000000e+00 0.000000000000000e+00
0.000000000000000e+00 0.000000000000000e+00 0.000000000000000e+00
0.000000000000000e+00 0.000000000000000e+00 0.000000000000000e+00
0.000000000000000e+00 0.000000000000000e+00 0.000000000000000e+00
0.000000000000000e+00 0.000000000000000e+00 0.000000000000000e+00
0.000000000000000e+00 0.000000000000000e+00 0.000000000000000e+00
0.000000000000000e+00 0.000000000000000e+00 0.000000000000000e+00
0.000000000000000e+00 0.000000000000000e+00 0.000000000000000e+00
0.000000000000000e+00 0.000000000000000e+00 0.000000000000000e+00
0.000000000000000e+00 0.000000000000000e+00 0.000000000000000e+00
0.000000000000000e+00 0.000000000000000e+00 0.000000000000000e+00
0.000000000000000e+00 0.000000000000000e+00 0.000000000000000e+00
0.000000000000000e+00 0.000000000000000e+00 0.000000000000000e+00
0.000000000000000e+00 0.000000000000000e+00 0.000000000000000e+00
0.000000000000000e+00 0.000000000000000e+00 0.000000000000000e+00
0.000000000000000e+00 0.000000000000000e+00 0.000000000000000e+00
0.000000000000000e+00 0.000000000000000e+00 0.000000000000000e+00
0.000000000000000e+00 0.000000000000000e+00 0.000000000000000e+00
0.000000000000000e+00 0.000000000000000e+00 0.000000000000000e+00
0.000000000000000e+00 0.000000000000000e+00 0.000000000000000e+00
0.000000000000000e+00 0.000000000000000e+00 0.000000000000000e+00
0.000000000000000e+00 0.000000000000000e+00 0.000000000000000e+00
0.000000000000000e+00 0.000000000000000e+00 0.000000000000000e+00
0.000000000000000e+00 0.000000000000000e+00 0.000000000000000e+00
0.000000000000000e+00 0.000000000000000e+00 0.000000000000000e+00
0.000000000000000e+00 0.000000000000000e+00 0.000000000000000e+00
0.000000000000000e+00 0.000000000000000e+00 0.000000000000000e+00
0.000000000000000e+00 0.000000000000000e+00 0.000000000000000e+00
0.000000000000000e+00 0.000000000000000e+00 0.000000000000000e+00
0.000000000000000e+00 0.000000000000000e+00 0.000000000000000e+00
0.000000000000000e+00 0.000000000000000e+00 0.000000000000000e+00
0.000000000000000e+00 0.000000000000000e+00 0.000000000000000e+00
0.000000000000000e+00 0.000000000000000e+00 0.000000000000000e+00
0.000000000000000e+00 0.000000000000000e+00 0.000000000000000e+00
0.000000000000000e+00 0.000000000000000e+00 0.000000000000000e+00
0.000000000000000e+00 0.000000000000000e+00 0.000000000000000e+00
0.000000000000000e+00 0.000000000000000e+00 0.000000000000000e+00
0.000000000000000e+00 0.000000000000000e+00 0.000000000000000e+00
0.000000000000000e+00 0.000000000000000e+00 0.000000000000000e+00
0.000000000000000e+00 0.000000000000000e+00 0.000000000000000e+00
0.000000000000000e+00 0.000000000000000e+00 0.000000000000000e+00
0.000000000000000e+00 0.000000000000000e+00 0.000000000000000e+00
0.000000000000000e+00 0.000000000000000e+00 0.000000000000000e+00
0.000000000000000e+00 0.000000000000000e+00 0.000000000000000e+00
0.000000000000000e+00 0.000000000000000e+00 0.000000000000000e+00
0.000000000000000e+00 0.000000000000000e+00 0.000000000000000e+00
0.000000000000000e+00 0.000000000000000e+00 0.000000000000000e+00
0.000000000000000e+00 0.000000000000000e+00 0.000000000000000e+00
0.000000000000000e+00 0.000000000000000e+00 0.000000000000000e+00
0.000000000000000e+00 0.000000000000000e+00 0.000000000000000e+00
0.000000000000000e+00 0.000000000000000e+00 0.000000000000000e+00
0.000000000000000e+00 0.000000000000000e+00 0.000000000000000e+00
0.000000000000000e+00 0.000000000000000e+00 0.000000000000000e+00
0.000000000000000e+00 0.000000000000000e+00 0.000000000000000e+00
0.000000000000000e+00 0.000000000000000e+00 0.000000000000000e+00
0.000000000000000e+00 0.000000000000000e+00 0.000000000000000e+00
0.000000000000000e+00 0.000000000000000e+00 0.000000000000000e+00
0.000000000000000e+00 0.000000000000000e+00 0.000000000000000e+00
0.000000000000000e+00 0.000000000000000e+00 0.000000000000000e+00
0.000000000000000e+00 0.000000000000000e+00 0.000000000000000e+00
0.000000000000000e+00 0.000000000000000e+00 0.000000000000000e+00
0.000000000000000e+00 0.000000000000000e+00 0.000000000000000e+00
0.000000000000000e+00 0.000000000000000e+00 0.000000000000000e+00
0.000000000000000e+00 0.000000000000000e+00 0.000000000000000e+00
0.000000000000000e+00 0.000000000000000e+00 0.000000000000000e+00
0.000000000000000e+00 0.000000000000000e+00 0.000000000000000e+00
0.000000000000000e+00 0.000000000000000e+00 0.000000000000000e+00
0.000000000000000e+00 0.000000000000000e+00 0.000000000000000e+00
0.000000000000000e+00 0.000000000000000e+00 0.000000000000000e+00
0.000000000000000e+00 0.000000000000000e+00 0.000000000000000e+00
0.000000000000000e+00 0.000000000000000e+00 0.000000000000000e+00
0.000000000000000e+00 0.000000000000000e+00 0.000000000000000e+00
0.000000000000000e+00 0.000000000000000e+00 0.000000000000000e+00
0.000000000000000e+00 0.000000000000000e+00 0.000000000000000e+00
0.000000000000000e+00 0.000000000000000e+00 0.000000000000000e+00
0.000000000000000e+00 0.000000000000000e+00 0.000000000000000e+00
0.000000000000000e+00 0.000000000000000e+00 0.000000000000000e+00
0.000000000000000e+00 0.000000000000000e+00 0.000000000000000e+00
0.000000000000000e+00 0.000000000000000e+00 0.000000000000000e+00
0.000000000000000e+00 0.000000000000000e+00 0.000000000000000e+00
0.000000000000000e+00 0.000000000000000e+00 0.000000000000000e+00
0.000000000000000e+00 0.000000000000000e+00 0.000000000000000e+00
0.000000000000000e+00 0.000000000000000e+00 0.000000000000000e+00
0.000000000000000e+00 0.000000000000000e+00 0.000000000000000e+00
0.000000000000000e+00 0.000000000000000e+00 0.000000000000000e+00
0.000000000000000e+00 0.000000000000000e+00 0.000000000000000e+00
0.000000000000000e+00 0.000000000000000e+00 0.000000000000000e+00
0.000000000000000e+00 0.000000000000000e+00 0.000000000000000e+00
0.000000000000000e+00 0.000000000000000e+00 0.000000000000000e+00
0.000000000000000e+00 0.000000000000000e+00 0.000000000000000e+00
0.000000000000000e+00 0.000000000000000e+00 0.000000000000000e+00
0.000000000000000e+00 0.000000000000000e+00 0.000000000000000e+00
0.000000000000000e+00 0.000000000000000e+00 0.000000000000000e+00
0.000000000000000e+00 0.000000000000000e+00 0.000000000000000e+00
0.000000000000000e+00 0.000000000000000e+00 0.000000000000000e+00
0.000000000000000e+00 0.000000000000000e+00 0.000000000000000e+00
0.000000000000000e+00 0.000000000000000e+00 0.000000000000000e+00
0.000000000000000e+00 0.000000000000000e+00 0.000000000000000e+00
0.000000000000000e+00 0.000000000000000e+00 0.000000000000000e+00
0.000000000000000e+00 0.000000000000000e+00 0.000000000000000e+00
0.000000000000000e+00 0.000000000000000e+00 0.000000000000000e+00
0.000000000000000e+00 0.000000000000000e+00 0.000000000000000e+00
0.000000000000000e+00 0.000000000000000e+00 0.000000000000000e+00
0.000000000000000e+00 0.000000000000000e+00 0.000000000000000e+00
0.000000000000000e+00 0.000000000000000e+00 0.000000000000000e+00
0.000000000000000e+00 0.000000000000000e+00 0.000000000000000e+00
0.000000000000000e+00 0.000000000000000e+00 0.000000000000000e+00
0.000000000000000e+00 0.000000000000000e+00 0.000000000000000e+00
0.000000000000000e+00 0.000000000000000e+00 0.000000000000000e+00
0.000000000000000e+00 0.000000000000000e+00 0.000000000000000e+00
0.000000000000000e+00 0.000000000000000e+00 0.000000000000000e+00
0.000000000000000e+00 0.000000000000000e+00 0.000000000000000e+00
0.000000000000000e+00 0.000000000000000e+00 0.000000000000000e+00
0.000000000000000e+00 0.000000000000000e+00 0.000000000000000e+00
0.000000000000000e+00 0.000000000000000e+00 0.000000000000000e+00
0.000000000000000e+00 0.000000000000000e+00 0.000000000000000e+00
0.000000000000000e+00 0.000000000000000e+00 0.000000000000000e+00
0.000000000000000e+00 0.000000000000000e+00 0.000000000000000e+00
0.000000000000000e+00 0.000000000000000e+00 0.000000000000000e+00
0.000000000000000e+00 0.000000000000000e+00 0.000000000000000e+00
0.000000000000000e+00 0.000000000000000e+00 0.000000000000000e+00
0.000000000000000e+00 0.000000000000000e+00 0.000000000000000e+00
0.000000000000000e+00 0.000000000000000e+00 0.000000000000000e+00
0.000000000000000e+00 0.000000000000000e+00 0.000000000000000e+00
0.000000000000000e+00 0.000000000000000e+00 0.000000000000000e+00
0.000000000000000e+00 0.000000000000000e+00 0.000000000000000e+00
0.000000000000000e+00 0.000000000000000e+00 0.000000000000000e+00
0.000000000000000e+00 0.000000000000000e+00 0.000000000000000e+00
0.000000000000000e+00 0.000000000000000e+00 0.000000000000000e+00
0.000000000000000e+00 0.000000000000000e+00 0.000000000000000e+00
0.000000000000000e+00 0.000000000000000e+00 0.000000000000000e+00
0.000000000000000e+00 0.000000000000000e+00 0.000000000000000e+00
0.000000000000000e+00 0.000000000000000e+00 0.000000000000000e+00
0.000000000000000e+00 0.000000000000000e+00 0.000000000000000e+00
0.000000000000000e+00 0.000000000000000e+00 0.000000000000000e+00
0.000000000000000e+00 0.000000000000000e+00 0.000000000000000e+00
0.000000000000000e+00 0.000000000000000e+00 0.000000000000000e+00
0.000000000000000e+00 0.000000000000000e+00 0.000000000000000e+00
0.000000000000000e+00 0.000000000000000e+00 0.000000000000000e+00
0.000000000000000e+00 0.000000000000000e+00 0.000000000000000e+00
0.000000000000000e+00 0.000000000000000e+00 0.000000000000000e+00
0.000000000000000e+00 0.000000000000000e+00 0.000000000000000e+00
0.000000000000000e+00 0.000000000000000e+00 0.000000000000000e+00
0.000000000000000e+00 0.000000000000000e+00 0.000000000000000e+00
0.000000000000000e+00 0.000000000000000e+00 0.000000000000000e+00
0.000000000000000e+00 0.000000000000000e+00 0.000000000000000e+00
0.000000000000000e+00 0.000000000000000e+00 0.000000000000000e+00
0.000000000000000e+00 0.000000000000000e+00 0.000000000000000e+00
0.000000000000000e+00 0.000000000000000e+00 0.000000000000000e+00
0.000000000000000e+00 0.000000000000000e+00 0.000000000000000e+00
0.000000000000000e+00 0.000000000000000e+00 0.000000000000000e+00
0.000000000000000e+00 0.000000000000000e+00 0.000000000000000e+00
0.000000000000000e+00 0.000000000000000e+00 0.000000000000000e+00
0.000000000000000e+00 0.000000000000000e+00 0.000000000000000e+00
0.000000000000000e+00 0.000000000000000e+00 0.000000000000000e+00
0.000000000000000e+00 0.000000000000000e+00 0.000000000000000e+00
0.000000000000000e+00 0.000000000000000e+00 0.000000000000000e+00
0.000000000000000e+00 0.000000000000000e+00 0.000000000000000e+00
0.000000000000000e+00 0.000000000000000e+00 0.000000000000000e+00
0.000000000000000e+00 0.000000000000000e+00 0.000000000000000e+00
0.000000000000000e+00 0.000000000000000e+00 0.000000000000000e+00
0.000000000000000e+00 0.000000000000000e+00 0.000000000000000e+00
0.000000000000000e+00 0.000000000000000e+00 0.000000000000000e+00
0.000000000000000e+00 0.000000000000000e+00 0.000000000000000e+00
0.000000000000000e+00 0.000000000000000e+00 0.000000000000000e+00
0.000000000000000e+00 0.000000000000000e+00 0.000000000000000e+00
0.000000000000000e+00 0.000000000000000e+00 0.000000000000000e+00
0.000000000000000e+00 0.000000000000000e+00 0.000000000000000e+00
0.000000000000000e+00 0.000000000000000e+00 0.000000000000000e+00
0.000000000000000e+00 0.000000000000000e+00 0.000000000000000e+00
0.000000000000000e+00 0.000000000000000e+00 0.000000000000000e+00
0.000000000000000e+00 0.000000000000000e+00 0.000000000000000e+00
0.000000000000000e+00 0.000000000000000e+00 0.000000000000000e+00
0.000000000000000e+00 0.000000000000000e+00 0.000000000000000e+00
0.000000000000000e+00 0.000000000000000e+00 0.000000000000000e+00
0.000000000000000e+00 0.000000000000000e+00 0.000000000000000e+00
0.000000000000000e+00 0.000000000000000e+00 0.000000000000000e+00
0.000000000000000e+00 0.000000000000000e+00 0.000000000000000e+00
0.000000000000000e+00 0.000000000000000e+00 0.000000000000000e+00
0.000000000000000e+00 0.000000000000000e+00 0.000000000000000e+00
0.000000000000000e+00 0.000000000000000e+00 0.000000000000000e+00
0.000000000000000e+00 0.000000000000000e+00 0.000000000000000e+00
0.000000000000000e+00 0.000000000000000e+00 0.000000000000000e+00
0.000000000000000e+00 0.000000000000000e+00 0.000000000000000e+00
0.000000000000000e+00 0.000000000000000e+00 0.000000000000000e+00
0.000000000000000e+00 0.000000000000000e+00 0.000000000000000e+00
0.000000000000000e+00 0.000000000000000e+00 0.000000000000000e+00
0.000000000000000e+00 0.000000000000000e+00 0.000000000000000e+00
0.000000000000000e+00 0.000000000000000e+00 0.000000000000000e+00
0.000000000000000e+00 0.000000000000000e+00 0.000000000000000e+00
0.000000000000000e+00 0.000000000000000e+00 0.000000000000000e+00
0.000000000000000e+00 0.000000000000000e+00 0.000000000000000e+00
0.000000000000000e+00 0.000000000000000e+00 0.000000000000000e+00
0.000000000000000e+00 0.000000000000000e+00 0.000000000000000e+00
0.000000000000000e+00 0.000000000000000e+00 0.000000000000000e+00
0.000000000000000e+00 0.000000000000000e+00 0.000000000000000e+00
0.000000000000000e+00 0.000000000000000e+00 0.000000000000000e+00
0.000000000000000e+00 0.000000000000000e+00 0.000000000000000e+00
0.000000000000000e+00 0.000000000000000e+00 0.000000000000000e+00
0.000000000000000e+00 0.000000000000000e+00 0.000000000000000e+00
0.000000000000000e+00 0.000000000000000e+00 0.000000000000000e+00
0.000000000000000e+00 0.000000000000000e+00 0.000000000000000e+00
0.000000000000000e+00 0.000000000000000e+00 0.000000000000000e+00
0.000000000000000e+00 0.000000000000000e+00 0.000000000000000e+00
0.000000000000000e+00 0.000000000000000e+00 0.000000000000000e+00
0.000000000000000e+00 0.000000000000000e+00 0.000000000000000e+00
0.000000000000000e+00 0.000000000000000e+00 0.000000000000000e+00
0.000000000000000e+00 0.000000000000000e+00 0.000000000000000e+00
0.000000000000000e+00 0.000000000000000e+00 0.000000000000000e+00
0.000000000000000e+00 0.000000000000000e+00 0.000000000000000e+00
0.000000000000000e+00 0.000000000000000e+00 0.000000000000000e+00
0.000000000000000e+00 0.000000000000000e+00 0.000000000000000e+00
0.000000000000000e+00 0.000000000000000e+00 0.000000000000000e+00
0.000000000000000e+00 0.000000000000000e+00 0.000000000000000e+00
0.000000000000000e+00 0.000000000000000e+00 0.000000000000000e+00
0.000000000000000e+00 0.000000000000000e+00 0.000000000000000e+00
0.000000000000000e+00 0.000000000000000e+00 0.000000000000000e+00
0.000000000000000e+00 0.000000000000000e+00 0.000000000000000e+00
0.000000000000000e+00 0.000000000000000e+00 0.000000000000000e+00
0.000000000000000e+00 0.000000000000000e+00 0.000000000000000e+00
0.000000000000000e+00 0.000000000000000e+00 0.000000000000000e+00
0.000000000000000e+00 0.000000000000000e+00 0.000000000000000e+00
0.000000000000000e+00 0.000000000000000e+00 0.000000000000000e+00
0.000000000000000e+00 0.000000000000000e+00 0.000000000000000e+00
0.000000000000000e+00 0.000000000000000e+00 0.000000000000000e+00
0.000000000000000e+00 0.000000000000000e+00 0.000000000000000e+00
0.000000000000000e+00 0.000000000000000e+00 0.000000000000000e+00
0.000000000000000e+00 0.000000000000000e+00 0.000000000000000e+00
0.000000000000000e+00 0.000000000000000e+00 0.000000000000000e+00
0.000000000000000e+00 0.000000000000000e+00 0.000000000000000e+00
0.000000000000000e+00 0.000000000000000e+00 0.000000000000000e+00
0.000000000000000e+00 0.000000000000000e+00 0.000000000000000e+00
0.000000000000000e+00 0.000000000000000e+00 0.000000000000000e+00
0.000000000000000e+00 0.000000000000000e+00 0.000000000000000e+00
0.000000000000000e+00 0.000000000000000e+00 0.000000000000000e+00
0.000000000000000e+00 0.000000000000000e+00 0.000000000000000e+00
0.000000000000000e+00 0.000000000000000e+00 0.000000000000000e+00
0.000000000000000e+00 0.000000000000000e+00 0.000000000000000e+00
0.000000000000000e+00 0.000000000000000e+00 0.000000000000000e+00
0.000000000000000e+00 0.000000000000000e+00 0.000000000000000e+00
0.000000000000000e+00 0.000000000000000e+00 0.000000000000000e+00
0.000000000000000e+00 0.000000000000000e+00 0.000000000000000e+00
0.000000000000000e+00 0.000000000000000e+00 0.000000000000000e+00
0.000000000000000e+00 0.000000000000000e+00 0.000000000000000e+00
0.000000000000000e+00 0.000000000000000e+00 0.000000000000000e+00
0.000000000000000e+00 0.000000000000000e+00 0.000000000000000e+00
0.000000000000000e+00 0.000000000000000e+00 0.000000000000000e+00
0.000000000000000e+00 0.000000000000000e+00 0.000000000000000e+00
0.000000000000000e+00 0.000000000000000e+00 0.000000000000000e+00
0.000000000000000e+00 0.000000000000000e+00 0.000000000000000e+00
0.000000000000000e+00 0.000000000000000e+00 0.000000000000000e+00
0.000000000000000e+00 0.000000000000000e+00 0.000000000000000e+00
0.000000000000000e+00 0.000000000000000e+00 0.000000000000000e+00
0.000000000000000e+00 0.000000000000000e+00 0.000000000000000e+00
0.000000000000000e+00 0.000000000000000e+00 0.000000000000000e+00
0.000000000000000e+00 0.000000000000000e+00 0.000000000000000e+00
0.000000000000000e+00 0.000000000000000e+00 0.000000000000000e+00
0.000000000000000e+00 0.000000000000000e+00 0.000000000000000e+00
0.000000000000000e+00 0.000000000000000e+00 0.000000000000000e+00
0.000000000000000e+00 0.000000000000000e+00 0.000000000000000e+00
0.000000000000000e+00 0.000000000000000e+00 0.000000000000000e+00
0.000000000000000e+00 0.000000000000000e+00 0.000000000000000e+00
0.000000000000000e+00 0.000000000000000e+00 0.000000000000000e+00
0.000000000000000e+00 0.000000000000000e+00 0.000000000000000e+00
0.000000000000000e+00 0.000000000000000e+00 0.000000000000000e+00
0.000000000000000e+00 0.000000000000000e+00 0.000000000000000e+00
0.000000000000000e+00 0.000000000000000e+00 0.000000000000000e+00
0.000000000000000e+00 0.000000000000000e+00 0.000000000000000e+00
0.000000000000000e+00 0.000000000000000e+00 0.000000000000000e+00
0.000000000000000e+00 0.000000000000000e+00 0.000000000000000e+00
0.000000000000000e+00 0.000000000000000e+00 0.000000000000000e+00
0.000000000000000e+00 0.000000000000000e+00 0.000000000000000e+00
0.000000000000000e+00 0.000000000000000e+00 0.000000000000000e+00
0.000000000000000e+00 0.000000000000000e+00 0.000000000000000e+00
0.000000000000000e+00 0.000000000000000e+00 0.000000000000000e+00
0.000000000000000e+00 0.000000000000000e+00 0.000000000000000e+00
0.000000000000000e+00 0.000000000000000e+00 0.000000000000000e+00
0.000000000000000e+00 0.000000000000000e+00 0.000000000000000e+00
0.000000000000000e+00 0.000000000000000e+00 0.000000000000000e+00
0.000000000000000e+00 0.000000000000000e+00 0.000000000000000e+00
0.000000000000000e+00 0.000000000000000e+00 0.000000000000000e+00
0.000000000000000e+00 0.000000000000000e+00 0.000000000000000e+00
0.000000000000000e+00 0.000000000000000e+00 0.000000000000000e+00
0.000000000000000e+00 0.000000000000000e+00 0.000000000000000e+00
0.000000000000000e+00 0.000000000000000e+00 0.000000000000000e+00
0.000000000000000e+00 0.000000000000000e+00 0.000000000000000e+00
0.000000000000000e+00 0.000000000000000e+00 0.000000000000000e+00
0.000000000000000e+00 0.000000000000000e+00 0.000000000000000e+00
0.000000000000000e+00 0.000000000000000e+00 0.000000000000000e+00
0.000000000000000e+00 0.000000000000000e+00 0.000000000000000e+00
0.000000000000000e+00 0.000000000000000e+00 0.000000000000000e+00
0.000000000000000e+00 0.000000000000000e+00 0.000000000000000e+00
0.000000000000000e+00 0.000000000000000e+00 0.000000000000000e+00
0.000000000000000e+00 0.000000000000000e+00 0.000000000000000e+00
0.000000000000000e+00 0.000000000000000e+00 0.000000000000000e+00
0.000000000000000e+00 0.000000000000000e+00 0.000000000000000e+00
0.000000000000000e+00 0.000000000000000e+00 0.000000000000000e+00
0.000000000000000e+00 0.000000000000000e+00 0.000000000000000e+00
0.000000000000000e+00 0.000000000000000e+00 0.000000000000000e+00
0.000000000000000e+00 0.000000000000000e+00 0.000000000000000e+00
0.000000000000000e+00 0.000000000000000e+00 0.000000000000000e+00
0.000000000000000e+00 0.000000000000000e+00 0.000000000000000e+00
0.000000000000000e+00 0.000000000000000e+00 0.000000000000000e+00
0.000000000000000e+00 0.000000000000000e+00 0.000000000000000e+00
0.000000000000000e+00 0.000000000000000e+00 0.000000000000000e+00
0.000000000000000e+00 0.000000000000000e+00 0.000000000000000e+00
0.000000000000000e+00 0.000000000000000e+00 0.000000000000000e+00
0.000000000000000e+00 0.000000000000000e+00 0.000000000000000e+00
0.000000000000000e+00 0.000000000000000e+00 0.000000000000000e+00
0.000000000000000e+00 0.000000000000000e+00 0.000000000000000e+00
0.000000000000000e+00 0.000000000000000e+00 0.000000000000000e+00
0.000000000000000e+00 0.000000000000000e+00 0.000000000000000e+00
0.000000000000000e+00 0.000000000000000e+00 0.000000000000000e+00
0.000000000000000e+00 0.000000000000000e+00 0.000000000000000e+00
0.000000000000000e+00 0.000000000000000e+00 0.000000000000000e+00
0.000000000000000e+00 0.000000000000000e+00 0.000000000000000e+00
0.000000000000000e+00 0.000000000000000e+00 0.000000000000000e+00
0.000000000000000e+00 0.000000000000000e+00 0.000000000000000e+00
0.000000000000000e+00 0.000000000000000e+00 0.000000000000000e+00
0.000000000000000e+00 0.000000000000000e+00 0.000000000000000e+00
0.000000000000000e+00 0.000000000000000e+00 0.000000000000000e+00
0.000000000000000e+00 0.000000000000000e+00 0.000000000000000e+00
0.000000000000000e+00 0.000000000000000e+00 0.000000000000000e+00
0.000000000000000e+00 0.000000000000000e+00 0.000000000000000e+00
0.000000000000000e+00 0.000000000000000e+00 0.000000000000000e+00
0.000000000000000e+00 0.000000000000000e+00 0.000000000000000e+00
0.000000000000000e+00 0.000000000000000e+00 0.000000000000000e+00
0.000000000000000e+00 0.000000000000000e+00 0.000000000000000e+00
0.000000000000000e+00 0.000000000000000e+00 0.000000000000000e+00
0.000000000000000e+00 0.000000000000000e+00 0.000000000000000e+00
0.000000000000000e+00 0.000000000000000e+00 0.000000000000000e+00
0.000000000000000e+00 0.000000000000000e+00 0.000000000000000e+00
0.000000000000000e+00 0.000000000000000e+00 0.000000000000000e+00
0.000000000000000e+00 0.000000000000000e+00 0.000000000000000e+00
0.000000000000000e+00 0.000000000000000e+00 0.000000000000000e+00
0.000000000000000e+00 0.000000000000000e+00 0.000000000000000e+00
0.000000000000000e+00 0.000000000000000e+00 0.000000000000000e+00
0.000000000000000e+00 0.000000000000000e+00 0.000000000000000e+00
0.000000000000000e+00 0.000000000000000e+00 0.000000000000000e+00
0.000000000000000e+00 0.000000000000000e+00 0.000000000000000e+00
0.000000000000000e+00 0.000000000000000e+00 0.000000000000000e+00
0.000000000000000e+00 0.000000000000000e+00 0.000000000000000e+00
0.000000000000000e+00 0.000000000000000e+00 0.000000000000000e+00
0.000000000000000e+00 0.000000000000000e+00 0.000000000000000e+00
0.000000000000000e+00 0.000000000000000e+00 0.000000000000000e+00
0.000000000000000e+00 0.000000000000000e+00 0.000000000000000e+00
0.000000000000000e+00 0.000000000000000e+00 0.000000000000000e+00
0.000000000000000e+00 0.000000000000000e+00 0.000000000000000e+00
0.000000000000000e+00 0.000000000000000e+00 0.000000000000000e+00
0.000000000000000e+00 0.000000000000000e+00 0.000000000000000e+00
0.000000000000000e+00 0.000000000000000e+00 0.000000000000000e+00
0.000000000000000e+00 0.000000000000000e+00 0.000000000000000e+00
0.000000000000000e+00 0.000000000000000e+00 0.000000000000000e+00
0.000000000000000e+00 0.000000000000000e+00 0.000000000000000e+00
0.000000000000000e+00 0.000000000000000e+00 0.000000000000000e+00
0.000000000000000e+00 0.000000000000000e+00 0.000000000000000e+00
0.000000000000000e+00 0.000000000000000e+00 0.000000000000000e+00
0.000000000000000e+00 0.000000000000000e+00 0.000000000000000e+00
0.000000000000000e+00 0.000000000000000e+00 0.000000000000000e+00
0.000000000000000e+00 0.000000000000000e+00 0.000000000000000e+00
0.000000000000000e+00 0.000000000000000e+00 0.000000000000000e+00
0.000000000000000e+00 0.000000000000000e+00 0.000000000000000e+00
0.000000000000000e+00 0.000000000000000e+00 0.000000000000000e+00
0.000000000000000e+00 0.000000000000000e+00 0.000000000000000e+00
0.000000000000000e+00 0.000000000000000e+00 0.000000000000000e+00
0.000000000000000e+00 0.000000000000000e+00 0.000000000000000e+00
0.000000000000000e+00 0.000000000000000e+00 0.000000000000000e+00
0.000000000000000e+00 0.000000000000000e+00 0.000000000000000e+00
0.000000000000000e+00 0.000000000000000e+00 0.000000000000000e+00
0.000000000000000e+00 0.000000000000000e+00 0.000000000000000e+00
0.000000000000000e+00 0.000000000000000e+00 0.000000000000000e+00
0.000000000000000e+00 0.000000000000000e+00 0.000000000000000e+00
0.000000000000000e+00 0.000000000000000e+00 0.000000000000000e+00
0.000000000000000e+00 0.000000000000000e+00 0.000000000000000e+00
0.000000000000000e+00 0.000000000000000e+00 0.000000000000000e+00
0.000000000000000e+00 0.000000000000000e+00 0.000000000000000e+00
0.000000000000000e+00 0.000000000000000e+00 0.000000000000000e+00
0.000000000000000e+00 0.000000000000000e+00 0.000000000000000e+00
0.000000000000000e+00 0.000000000000000e+00 0.000000000000000e+00
0.000000000000000e+00 0.000000000000000e+00 0.000000000000000e+00
0.000000000000000e+00 0.000000000000000e+00 0.000000000000000e+00
0.000000000000000e+00 0.000000000000000e+00 0.000000000000000e+00
0.000000000000000e+00 0.000000000000000e+00 0.000000000000000e+00
0.000000000000000e+00 0.000000000000000e+00 0.000000000000000e+00
0.000000000000000e+00 0.000000000000000e+00 0.000000000000000e+00
0.000000000000000e+00 0.000000000000000e+00 0.000000000000000e+00
0.000000000000000e+00 0.000000000000000e+00 0.000000000000000e+00
0.000000000000000e+00 0.000000000000000e+00 0.000000000000000e+00
0.000000000000000e+00 0.000000000000000e+00 0.000000000000000e+00
0.000000000000000e+00 0.000000000000000e+00 0.000000000000000e+00
0.000000000000000e+00 0.000000000000000e+00 0.000000000000000e+00
0.000000000000000e+00 0.000000000000000e+00 0.000000000000000e+00
0.000000000000000e+00 0.000000000000000e+00 0.000000000000000e+00
0.000000000000000e+00 0.000000000000000e+00 0.000000000000000e+00
0.000000000000000e+00 0.000000000000000e+00 0.000000000000000e+00
0.000000000000000e+00 0.000000000000000e+00 0.000000000000000e+00
0.000000000000000e+00 0.000000000000000e+00 0.000000000000000e+00
0.000000000000000e+00 0.000000000000000e+00 0.000000000000000e+00
0.000000000000000e+00 0.000000000000000e+00 0.000000000000000e+00
0.000000000000000e+00 0.000000000000000e+00 0.000000000000000e+00
0.000000000000000e+00 0.000000000000000e+00 0.000000000000000e+00
0.000000000000000e+00 0.000000000000000e+00 0.000000000000000e+00
0.000000000000000e+00 0.000000000000000e+00 0.000000000000000e+00
0.000000000000000e+00 0.000000000000000e+00 0.000000000000000e+00
0.000000000000000e+00 0.000000000000000e+00 0.000000000000000e+00
0.000000000000000e+00 0.000000000000000e+00 0.000000000000000e+00
0.000000000000000e+00 0.000000000000000e+00 0.000000000000000e+00
0.000000000000000e+00 0.000000000000000e+00 0.000000000000000e+00
0.000000000000000e+00 0.000000000000000e+00 0.000000000000000e+00
0.000000000000000e+00 0.000000000000000e+00 0.000000000000000e+00
0.000000000000000e+00 0.000000000000000e+00 0.000000000000000e+00
0.000000000000000e+00 0.000000000000000e+00 0.000000000000000e+00
0.000000000000000e+00 0.000000000000000e+00 0.000000000000000e+00
0.000000000000000e+00 0.000000000000000e+00 0.000000000000000e+00
0.000000000000000e+00 0.000000000000000e+00 0.000000000000000e+00
0.000000000000000e+00 0.000000000000000e+00 0.000000000000000e+00
0.000000000000000e+00 0.000000000000000e+00 0.000000000000000e+00
0.000000000000000e+00 0.000000000000000e+00 0.000000000000000e+00
0.000000000000000e+00 0.000000000000000e+00 0.000000000000000e+00
0.000000000000000e+00 0.000000000000000e+00 0.000000000000000e+00
0.000000000000000e+00 0.000000000000000e+00 0.000000000000000e+00
0.000000000000000e+00 0.000000000000000e+00 0.000000000000000e+00
0.000000000000000e+00 0.000000000000000e+00 0.000000000000000e+00
0.000000000000000e+00 0.000000000000000e+00 0.000000000000000e+00
0.000000000000000e+00 0.000000000000000e+00 0.000000000000000e+00
0.000000000000000e+00 0.000000000000000e+00 0.000000000000000e+00
0.000000000000000e+00 0.000000000000000e+00 0.000000000000000e+00
0.000000000000000e+00 0.000000000000000e+00 0.000000000000000e+00
0.000000000000000e+00 0.000000000000000e+00 0.000000000000000e+00
0.000000000000000e+00 0.000000000000000e+00 0.000000000000000e+00
0.000000000000000e+00 0.000000000000000e+00 0.000000000000000e+00
0.000000000000000e+00 0.000000000000000e+00 0.000000000000000e+00
0.000000000000000e+00 0.000000000000000e+00 0.000000000000000e+00
0.000000000000000e+00 0.000000000000000e+00 0.000000000000000e+00
0.000000000000000e+00 0.000000000000000e+00 0.000000000000000e+00
0.000000000000000e+00 0.000000000000000e+00 0.000000000000000e+00
0.000000000000000e+00 0.000000000000000e+00 0.000000000000000e+00
0.000000000000000e+00 0.000000000000000e+00 0.000000000000000e+00
0.000000000000000e+00 0.000000000000000e+00 0.000000000000000e+00
0.000000000000000e+00 0.000000000000000e+00 0.000000000000000e+00
0.000000000000000e+00 0.000000000000000e+00 0.000000000000000e+00
0.000000000000000e+00 0.000000000000000e+00 0.000000000000000e+00
0.000000000000000e+00 0.000000000000000e+00 0.000000000000000e+00
0.000000000000000e+00 0.000000000000000e+00 0.000000000000000e+00
0.000000000000000e+00 0.000000000000000e+00 0.000000000000000e+00
0.000000000000000e+00 0.000000000000000e+00 0.000000000000000e+00
0.000000000000000e+00 0.000000000000000e+00 0.000000000000000e+00
0.000000000000000e+00 0.000000000000000e+00 0.000000000000000e+00
0.000000000000000e+00 0.000000000000000e+00 0.000000000000000e+00
0.000000000000000e+00 0.000000000000000e+00 0.000000000000000e+00
0.000000000000000e+00 0.000000000000000e+00 0.000000000000000e+00
0.000000000000000e+00 0.000000000000000e+00 0.000000000000000e+00
0.000000000000000e+00 0.000000000000000e+00 0.000000000000000e+00
0.000000000000000e+00 0.000000000000000e+00 0.000000000000000e+00
0.000000000000000e+00 0.000000000000000e+00 0.000000000000000e+00
0.000000000000000e+00 0.000000000000000e+00 0.000000000000000e+00
0.000000000000000e+00 0.000000000000000e+00 0.000000000000000e+00
0.000000000000000e+00 0.000000000000000e+00 0.000000000000000e+00
0.000000000000000e+00 0.000000000000000e+00 0.000000000000000e+00
0.000000000000000e+00 0.000000000000000e+00 0.000000000000000e+00
0.000000000000000e+00 0.000000000000000e+00 0.000000000000000e+00
0.000000000000000e+00 0.000000000000000e+00 0.000000000000000e+00
0.000000000000000e+00 0.000000000000000e+00 0.000000000000000e+00
0.000000000000000e+00 0.000000000000000e+00 0.000000000000000e+00
0.000000000000000e+00 0.000000000000000e+00 0.000000000000000e+00
0.000000000000000e+00 0.000000000000000e+00 0.000000000000000e+00
0.000000000000000e+00 0.000000000000000e+00 0.000000000000000e+00
0.000000000000000e+00 0.000000000000000e+00 0.000000000000000e+00
0.000000000000000e+00 0.000000000000000e+00 0.000000000000000e+00
0.000000000000000e+00 0.000000000000000e+00 0.000000000000000e+00
0.000000000000000e+00 0.000000000000000e+00 0.000000000000000e+00
0.000000000000000e+00 0.000000000000000e+00 0.000000000000000e+00
0.000000000000000e+00 0.000000000000000e+00 0.000000000000000e+00
0.000000000000000e+00 0.000000000000000e+00 0.000000000000000e+00
0.000000000000000e+00 0.000000000000000e+00 0.000000000000000e+00
0.000000000000000e+00 0.000000000000000e+00 0.000000000000000e+00
0.000000000000000e+00 0.000000000000000e+00 0.000000000000000e+00
0.000000000000000e+00 0.000000000000000e+00 0.000000000000000e+00
0.000000000000000e+00 0.000000000000000e+00 0.000000000000000e+00
0.000000000000000e+00 0.000000000000000e+00 0.000000000000000e+00
0.000000000000000e+00 0.000000000000000e+00 0.000000000000000e+00
0.000000000000000e+00 0.000000000000000e+00 0.000000000000000e+00
0.000000000000000e+00 0.000000000000000e+00 0.000000000000000e+00
0.000000000000000e+00 0.000000000000000e+00 0.000000000000000e+00
0.000000000000000e+00 0.000000000000000e+00 0.000000000000000e+00
0.000000000000000e+00 0.000000000000000e+00 0.000000000000000e+00
0.000000000000000e+00 0.000000000000000e+00 0.000000000000000e+00
0.000000000000000e+00 0.000000000000000e+00 0.000000000000000e+00
0.000000000000000e+00 0.000000000000000e+00 0.000000000000000e+00
0.000000000000000e+00 0.000000000000000e+00 0.000000000000000e+00
0.000000000000000e+00 0.000000000000000e+00 0.000000000000000e+00
0.000000000000000e+00 0.000000000000000e+00 0.000000000000000e+00
0.000000000000000e+00 0.000000000000000e+00 0.000000000000000e+00
0.000000000000000e+00 0.000000000000000e+00 0.000000000000000e+00
0.000000000000000e+00 0.000000000000000e+00 0.000000000000000e+00
0.000000000000000e+00 0.000000000000000e+00 0.000000000000000e+00
0.000000000000000e+00 0.000000000000000e+00 0.000000000000000e+00
0.000000000000000e+00 0.000000000000000e+00 0.000000000000000e+00
0.000000000000000e+00 0.000000000000000e+00 0.000000000000000e+00
0.000000000000000e+00 0.000000000000000e+00 0.000000000000000e+00
0.000000000000000e+00 0.000000000000000e+00 0.000000000000000e+00
0.000000000000000e+00 0.000000000000000e+00 0.000000000000000e+00
0.000000000000000e+00 0.000000000000000e+00 0.000000000000000e+00
0.000000000000000e+00 0.000000000000000e+00 0.000000000000000e+00
0.000000000000000e+00 0.000000000000000e+00 0.000000000000000e+00
0.000000000000000e+00 0.000000000000000e+00 0.000000000000000e+00
0.000000000000000e+00 0.000000000000000e+00 0.000000000000000e+00
0.000000000000000e+00 0.000000000000000e+00 0.000000000000000e+00
0.000000000000000e+00 0.000000000000000e+00 0.000000000000000e+00
0.000000000000000e+00 0.000000000000000e+00 0.000000000000000e+00
0.000000000000000e+00 0.000000000000000e+00 0.000000000000000e+00
0.000000000000000e+00 0.000000000000000e+00 0.000000000000000e+00
0.000000000000000e+00 0.000000000000000e+00 0.000000000000000e+00
0.000000000000000e+00 0.000000000000000e+00 0.000000000000000e+00
0.000000000000000e+00 0.000000000000000e+00 0.000000000000000e+00
0.000000000000000e+00 0.000000000000000e+00 0.000000000000000e+00
0.000000000000000e+00 0.000000000000000e+00 0.000000000000000e+00
0.000000000000000e+00 0.000000000000000e+00 0.000000000000000e+00
0.000000000000000e+00 0.000000000000000e+00 0.000000000000000e+00
0.000000000000000e+00 0.000000000000000e+00 0.000000000000000e+00
0.000000000000000e+00 0.000000000000000e+00 0.000000000000000e+00
0.000000000000000e+00 0.000000000000000e+00 0.000000000000000e+00
0.000000000000000e+00 0.000000000000000e+00 0.000000000000000e+00
0.000000000000000e+00 0.000000000000000e+00 0.000000000000000e+00
0.000000000000000e+00 0.000000000000000e+00 0.000000000000000e+00
0.000000000000000e+00 0.000000000000000e+00 0.000000000000000e+00
0.000000000000000e+00 0.000000000000000e+00 0.000000000000000e+00
0.000000000000000e+00 0.000000000000000e+00 0.000000000000000e+00
0.000000000000000e+00 0.000000000000000e+00 0.000000000000000e+00
0.000000000000000e+00 0.000000000000000e+00 0.000000000000000e+00
0.000000000000000e+00 0.000000000000000e+00 0.000000000000000e+00
0.000000000000000e+00 0.000000000000000e+00 0.000000000000000e+00
0.000000000000000e+00 0.000000000000000e+00 0.000000000000000e+00
0.000000000000000e+00 0.000000000000000e+00 0.000000000000000e+00
0.000000000000000e+00 0.000000000000000e+00 0.000000000000000e+00
0.000000000000000e+00 0.000000000000000e+00 0.000000000000000e+00
0.000000000000000e+00 0.000000000000000e+00 0.000000000000000e+00
0.000000000000000e+00 0.000000000000000e+00 0.000000000000000e+00
0.000000000000000e+00 0.000000000000000e+00 0.000000000000000e+00
0.000000000000000e+00 0.000000000000000e+00 0.000000000000000e+00
0.000000000000000e+00 0.000000000000000e+00 0.000000000000000e+00
0.000000000000000e+00 0.000000000000000e+00 0.000000000000000e+00
0.000000000000000e+00 0.000000000000000e+00 0.000000000000000e+00
0.000000000000000e+00 0.000000000000000e+00 0.000000000000000e+00
0.000000000000000e+00 0.000000000000000e+00 0.000000000000000e+00
0.000000000000000e+00 0.000000000000000e+00 0.000000000000000e+00
0.000000000000000e+00 0.000000000000000e+00 0.000000000000000e+00
0.000000000000000e+00 0.000000000000000e+00 0.000000000000000e+00
0.000000000000000e+00 0.000000000000000e+00 0.000000000000000e+00
0.000000000000000e+00 0.000000000000000e+00 0.000000000000000e+00
0.000000000000000e+00 0.000000000000000e+00 0.000000000000000e+00
0.000000000000000e+00 0.000000000000000e+00 0.000000000000000e+00
0.000000000000000e+00 0.000000000000000e+00 0.000000000000000e+00
0.000000000000000e+00 0.000000000000000e+00 0.000000000000000e+00
0.000000000000000e+00 0.000000000000000e+00 0.000000000000000e+00
0.000000000000000e+00 0.000000000000000e+00 0.000000000000000e+00
0.000000000000000e+00 0.000000000000000e+00 0.000000000000000e+00
0.000000000000000e+00 0.000000000000000e+00 0.000000000000000e+00
0.000000000000000e+00 0.000000000000000e+00 0.000000000000000e+00
0.000000000000000e+00 0.000000000000000e+00 0.000000000000000e+00
0.000000000000000e+00 0.000000000000000e+00 0.000000000000000e+00
0.000000000000000e+00 0.000000000000000e+00 0.000000000000000e+00
0.000000000000000e+00 0.000000000000000e+00 0.000000000000000e+00
0.000000000000000e+00 0.000000000000000e+00 0.000000000000000e+00
0.000000000000000e+00 0.000000000000000e+00 0.000000000000000e+00
0.000000000000000e+00 0.000000000000000e+00 0.000000000000000e+00
0.000000000000000e+00 0.000000000000000e+00 0.000000000000000e+00
0.000000000000000e+00 0.000000000000000e+00 0.000000000000000e+00
0.000000000000000e+00 0.000000000000000e+00 0.000000000000000e+00
0.000000000000000e+00 0.000000000000000e+00 0.000000000000000e+00
0.000000000000000e+00 0.000000000000000e+00 0.000000000000000e+00
0.000000000000000e+00 0.000000000000000e+00 0.000000000000000e+00
0.000000000000000e+00 0.000000000000000e+00 0.000000000000000e+00
0.000000000000000e+00 0.000000000000000e+00 0.000000000000000e+00
0.000000000000000e+00 0.000000000000000e+00 0.000000000000000e+00
0.000000000000000e+00 0.000000000000000e+00 0.000000000000000e+00
0.000000000000000e+00 0.000000000000000e+00 0.000000000000000e+00
0.000000000000000e+00 0.000000000000000e+00 0.000000000000000e+00
0.000000000000000e+00 0.000000000000000e+00 0.000000000000000e+00
0.000000000000000e+00 0.000000000000000e+00 0.000000000000000e+00
0.000000000000000e+00 0.000000000000000e+00 0.000000000000000e+00
0.000000000000000e+00 0.000000000000000e+00 0.000000000000000e+00
0.000000000000000e+00 0.000000000000000e+00 0.000000000000000e+00
0.000000000000000e+00 0.000000000000000e+00 0.000000000000000e+00
0.000000000000000e+00 0.000000000000000e+00 0.000000000000000e+00
0.000000000000000e+00 0.000000000000000e+00 0.000000000000000e+00
0.000000000000000e+00 0.000000000000000e+00 0.000000000000000e+00
0.000000000000000e+00 0.000000000000000e+00 0.000000000000000e+00
0.000000000000000e+00 0.000000000000000e+00 0.000000000000000e+00
0.000000000000000e+00 0.000000000000000e+00 0.000000000000000e+00
0.000000000000000e+00 0.000000000000000e+00 0.000000000000000e+00
0.000000000000000e+00 0.000000000000000e+00 0.000000000000000e+00
0.000000000000000e+00 0.000000000000000e+00 0.000000000000000e+00
0.000000000000000e+00 0.000000000000000e+00 0.000000000000000e+00
0.000000000000000e+00 0.000000000000000e+00 0.000000000000000e+00
0.000000000000000e+00 0.000000000000000e+00 0.000000000000000e+00
0.000000000000000e+00 0.000000000000000e+00 0.000000000000000e+00
0.000000000000000e+00 0.000000000000000e+00 0.000000000000000e+00
0.000000000000000e+00 0.000000000000000e+00 0.000000000000000e+00
0.000000000000000e+00 0.000000000000000e+00 0.000000000000000e+00
0.000000000000000e+00 0.000000000000000e+00 0.000000000000000e+00
0.000000000000000e+00 0.000000000000000e+00 0.000000000000000e+00
0.000000000000000e+00 0.000000000000000e+00 0.000000000000000e+00
0.000000000000000e+00 0.000000000000000e+00 0.000000000000000e+00
0.000000000000000e+00 0.000000000000000e+00 0.000000000000000e+00
0.000000000000000e+00 0.000000000000000e+00 0.000000000000000e+00
0.000000000000000e+00 0.000000000000000e+00 0.000000000000000e+00
0.000000000000000e+00 0.000000000000000e+00 0.000000000000000e+00
0.000000000000000e+00 0.000000000000000e+00 0.000000000000000e+00
0.000000000000000e+00 0.000000000000000e+00 0.000000000000000e+00
0.000000000000000e+00 0.000000000000000e+00 0.000000000000000e+00
0.000000000000000e+00 0.000000000000000e+00 0.000000000000000e+00
0.000000000000000e+00 0.000000000000000e+00 0.000000000000000e+00
0.000000000000000e+00 0.000000000000000e+00 0.000000000000000e+00
0.000000000000000e+00 0.000000000000000e+00 0.000000000000000e+00
0.000000000000000e+00 0.000000000000000e+00 0.000000000000000e+00
0.000000000000000e+00 0.000000000000000e+00 0.000000000000000e+00
0.000000000000000e+00 0.000000000000000e+00 0.000000000000000e+00
0.000000000000000e+00 0.000000000000000e+00 0.000000000000000e+00
0.000000000000000e+00 0.000000000000000e+00 0.000000000000000e+00
0.000000000000000e+00 0.000000000000000e+00 0.000000000000000e+00
0.000000000000000e+00 0.000000000000000e+00 0.000000000000000e+00
0.000000000000000e+00 0.000000000000000e+00 0.000000000000000e+00
0.000000000000000e+00 0.000000000000000e+00 0.000000000000000e+00
0.000000000000000e+00 0.000000000000000e+00 0.000000000000000e+00
0.000000000000000e+00 0.000000000000000e+00 0.000000000000000e+00
0.000000000000000e+00 0.000000000000000e+00 0.000000000000000e+00
0.000000000000000e+00 0.000000000000000e+00 0.000000000000000e+00
0.000000000000000e+00 0.000000000000000e+00 0.000000000000000e+00
0.000000000000000e+00 0.000000000000000e+00 0.000000000000000e+00
0.000000000000000e+00 0.000000000000000e+00 0.000000000000000e+00
0.000000000000000e+00 0.000000000000000e+00 0.000000000000000e+00
0.000000000000000e+00 0.000000000000000e+00 0.000000000000000e+00
0.000000000000000e+00 0.000000000000000e+00 0.000000000000000e+00
0.000000000000000e+00 0.000000000000000e+00 0.000000000000000e+00
0.000000000000000e+00 0.000000000000000e+00 0.000000000000000e+00
0.000000000000000e+00 0.000000000000000e+00 0.000000000000000e+00
0.000000000000000e+00 0.000000000000000e+00 0.000000000000000e+00
0.000000000000000e+00 0.000000000000000e+00 0.000000000000000e+00
0.000000000000000e+00 0.000000000000000e+00 0.000000000000000e+00
0.000000000000000e+00 0.000000000000000e+00 0.000000000000000e+00
0.000000000000000e+00 0.000000000000000e+00 0.000000000000000e+00
0.000000000000000e+00 0.000000000000000e+00 0.000000000000000e+00
0.000000000000000e+00 0.000000000000000e+00 0.000000000000000e+00
0.000000000000000e+00 0.000000000000000e+00 0.000000000000000e+00
0.000000000000000e+00 0.000000000000000e+00 0.000000000000000e+00
0.000000000000000e+00 0.000000000000000e+00 0.000000000000000e+00
0.000000000000000e+00 0.000000000000000e+00 0.000000000000000e+00
0.000000000000000e+00 0.000000000000000e+00 0.000000000000000e+00
0.000000000000000e+00 0.000000000000000e+00 0.000000000000000e+00
0.000000000000000e+00 0.000000000000000e+00 0.000000000000000e+00
0.000000000000000e+00 0.000000000000000e+00 0.000000000000000e+00
0.000000000000000e+00 0.000000000000000e+00 0.000000000000000e+00
0.000000000000000e+00 0.000000000000000e+00 0.000000000000000e+00
0.000000000000000e+00 0.000000000000000e+00 0.000000000000000e+00
0.000000000000000e+00 0.000000000000000e+00 0.000000000000000e+00
0.000000000000000e+00 0.000000000000000e+00 0.000000000000000e+00
0.000000000000000e+00 0.000000000000000e+00 0.000000000000000e+00
0.000000000000000e+00 0.000000000000000e+00 0.000000000000000e+00
0.000000000000000e+00 0.000000000000000e+00 0.000000000000000e+00
0.000000000000000e+00 0.000000000000000e+00 0.000000000000000e+00
0.000000000000000e+00 0.000000000000000e+00 0.000000000000000e+00
0.000000000000000e+00 0.000000000000000e+00 0.000000000000000e+00
0.000000000000000e+00 0.000000000000000e+00 0.000000000000000e+00
0.000000000000000e+00 0.000000000000000e+00 0.000000000000000e+00
0.000000000000000e+00 0.000000000000000e+00 0.000000000000000e+00
0.000000000000000e+00 0.000000000000000e+00 0.000000000000000e+00
0.000000000000000e+00 0.000000000000000e+00 0.000000000000000e+00
0.000000000000000e+00 0.000000000000000e+00 0.000000000000000e+00
0.000000000000000e+00 0.000000000000000e+00 0.000000000000000e+00
0.000000000000000e+00 0.000000000000000e+00 0.000000000000000e+00
0.000000000000000e+00 0.000000000000000e+00 0.000000000000000e+00
0.000000000000000e+00 0.000000000000000e+00 0.000000000000000e+00
0.000000000000000e+00 0.000000000000000e+00 0.000000000000000e+00
0.000000000000000e+00 0.000000000000000e+00 0.000000000000000e+00
0.000000000000000e+00 0.000000000000000e+00 0.000000000000000e+00
0.000000000000000e+00 0.000000000000000e+00 0.000000000000000e+00
0.000000000000000e+00 0.000000000000000e+00 0.000000000000000e+00
0.000000000000000e+00 0.000000000000000e+00 0.000000000000000e+00
0.000000000000000e+00 0.000000000000000e+00 0.000000000000000e+00
0.000000000000000e+00 0.000000000000000e+00 0.000000000000000e+00
0.000000000000000e+00 0.000000000000000e+00 0.000000000000000e+00
0.000000000000000e+00 0.000000000000000e+00 0.000000000000000e+00
0.000000000000000e+00 0.000000000000000e+00 0.000000000000000e+00
0.000000000000000e+00 0.000000000000000e+00 0.000000000000000e+00
0.000000000000000e+00 0.000000000000000e+00 0.000000000000000e+00
0.000000000000000e+00 0.000000000000000e+00 0.000000000000000e+00
0.000000000000000e+00 0.000000000000000e+00 0.000000000000000e+00
0.000000000000000e+00 0.000000000000000e+00 0.000000000000000e+00
0.000000000000000e+00 0.000000000000000e+00 0.000000000000000e+00
0.000000000000000e+00 0.000000000000000e+00 0.000000000000000e+00
0.000000000000000e+00 0.000000000000000e+00 0.000000000000000e+00
0.000000000000000e+00 0.000000000000000e+00 0.000000000000000e+00
0.000000000000000e+00 0.000000000000000e+00 0.000000000000000e+00
0.000000000000000e+00 0.000000000000000e+00 0.000000000000000e+00
0.000000000000000e+00 0.000000000000000e+00 0.000000000000000e+00
0.000000000000000e+00 0.000000000000000e+00 0.000000000000000e+00
0.000000000000000e+00 0.000000000000000e+00 0.000000000000000e+00
0.000000000000000e+00 0.000000000000000e+00 0.000000000000000e+00
0.000000000000000e+00 0.000000000000000e+00 0.000000000000000e+00
0.000000000000000e+00 0.000000000000000e+00 0.000000000000000e+00
0.000000000000000e+00 0.000000000000000e+00 0.000000000000000e+00
0.000000000000000e+00 0.000000000000000e+00 0.000000000000000e+00
0.000000000000000e+00 0.000000000000000e+00 0.000000000000000e+00
0.000000000000000e+00 0.000000000000000e+00 0.000000000000000e+00
0.000000000000000e+00 0.000000000000000e+00 0.000000000000000e+00
0.000000000000000e+00 0.000000000000000e+00 0.000000000000000e+00
0.000000000000000e+00 0.000000000000000e+00 0.000000000000000e+00
0.000000000000000e+00 0.000000000000000e+00 0.000000000000000e+00
0.000000000000000e+00 0.000000000000000e+00 0.000000000000000e+00
0.000000000000000e+00 0.000000000000000e+00 0.000000000000000e+00
0.000000000000000e+00 0.000000000000000e+00 0.000000000000000e+00
0.000000000000000e+00 0.000000000000000e+00 0.000000000000000e+00
0.000000000000000e+00 0.000000000000000e+00 0.000000000000000e+00
0.000000000000000e+00 0.000000000000000e+00 0.000000000000000e+00
0.000000000000000e+00 0.000000000000000e+00 0.000000000000000e+00
0.000000000000000e+00 0.000000000000000e+00 0.000000000000000e+00
0.000000000000000e+00 0.000000000000000e+00 0.000000000000000e+00
0.000000000000000e+00 0.000000000000000e+00 0.000000000000000e+00
0.000000000000000e+00 0.000000000000000e+00 0.000000000000000e+00
0.000000000000000e+00 0.000000000000000e+00 0.000000000000000e+00
0.000000000000000e+00 0.000000000000000e+00 0.000000000000000e+00
0.000000000000000e+00 0.000000000000000e+00 0.000000000000000e+00
0.000000000000000e+00 0.000000000000000e+00 0.000000000000000e+00
0.000000000000000e+00 0.000000000000000e+00 0.000000000000000e+00
0.000000000000000e+00 0.000000000000000e+00 0.000000000000000e+00
0.000000000000000e+00 0.000000000000000e+00 0.000000000000000e+00
0.000000000000000e+00 0.000000000000000e+00 0.000000000000000e+00
0.000000000000000e+00 0.000000000000000e+00 0.000000000000000e+00
0.000000000000000e+00 0.000000000000000e+00 0.000000000000000e+00
0.000000000000000e+00 0.000000000000000e+00 0.000000000000000e+00
0.000000000000000e+00 0.000000000000000e+00 0.000000000000000e+00
0.000000000000000e+00 0.000000000000000e+00 0.000000000000000e+00
0.000000000000000e+00 0.000000000000000e+00 0.000000000000000e+00
0.000000000000000e+00 0.000000000000000e+00 0.000000000000000e+00
0.000000000000000e+00 0.000000000000000e+00 0.000000000000000e+00
0.000000000000000e+00 0.000000000000000e+00 0.000000000000000e+00
0.000000000000000e+00 0.000000000000000e+00 0.000000000000000e+00
0.000000000000000e+00 0.000000000000000e+00 0.000000000000000e+00
0.000000000000000e+00 0.000000000000000e+00 0.000000000000000e+00
0.000000000000000e+00 0.000000000000000e+00 0.000000000000000e+00
0.000000000000000e+00 0.000000000000000e+00 0.000000000000000e+00
0.000000000000000e+00 0.000000000000000e+00 0.000000000000000e+00
0.000000000000000e+00 0.000000000000000e+00 0.000000000000000e+00
0.000000000000000e+00 0.000000000000000e+00 0.000000000000000e+00
0.000000000000000e+00 0.000000000000000e+00 0.000000000000000e+00
0.000000000000000e+00 0.000000000000000e+00 0.000000000000000e+00
0.000000000000000e+00 0.000000000000000e+00 0.000000000000000e+00
0.000000000000000e+00 0.000000000000000e+00 0.000000000000000e+00
0.000000000000000e+00 0.000000000000000e+00 0.000000000000000e+00
0.000000000000000e+00 0.000000000000000e+00 0.000000000000000e+00
0.000000000000000e+00 0.000000000000000e+00 0.000000000000000e+00
0.000000000000000e+00 0.000000000000000e+00 0.000000000000000e+00
0.000000000000000e+00 0.000000000000000e+00 0.000000000000000e+00
0.000000000000000e+00 0.000000000000000e+00 0.000000000000000e+00
0.000000000000000e+00 0.000000000000000e+00 0.000000000000000e+00
0.000000000000000e+00 0.000000000000000e+00 0.000000000000000e+00
0.000000000000000e+00 0.000000000000000e+00 0.000000000000000e+00
0.000000000000000e+00 0.000000000000000e+00 0.000000000000000e+00
0.000000000000000e+00 0.000000000000000e+00 0.000000000000000e+00
0.000000000000000e+00 0.000000000000000e+00 0.000000000000000e+00
0.000000000000000e+00 0.000000000000000e+00 0.000000000000000e+00
0.000000000000000e+00 0.000000000000000e+00 0.000000000000000e+00
0.000000000000000e+00 0.000000000000000e+00 0.000000000000000e+00
0.000000000000000e+00 0.000000000000000e+00 0.000000000000000e+00
0.000000000000000e+00 0.000000000000000e+00 0.000000000000000e+00
0.000000000000000e+00 0.000000000000000e+00 0.000000000000000e+00
0.000000000000000e+00 0.000000000000000e+00 0.000000000000000e+00
0.000000000000000e+00 0.000000000000000e+00 0.000000000000000e+00
0.000000000000000e+00 0.000000000000000e+00 0.000000000000000e+00
0.000000000000000e+00 0.000000000000000e+00 0.000000000000000e+00
0.000000000000000e+00 0.000000000000000e+00 0.000000000000000e+00
0.000000000000000e+00 0.000000000000000e+00 0.000000000000000e+00
0.000000000000000e+00 0.000000000000000e+00 0.000000000000000e+00
0.000000000000000e+00 0.000000000000000e+00 0.000000000000000e+00
0.000000000000000e+00 0.000000000000000e+00 0.000000000000000e+00
0.000000000000000e+00 0.000000000000000e+00 0.000000000000000e+00
0.000000000000000e+00 0.000000000000000e+00 0.000000000000000e+00
0.000000000000000e+00 0.000000000000000e+00 0.000000000000000e+00
0.000000000000000e+00 0.000000000000000e+00 0.000000000000000e+00
0.000000000000000e+00 0.000000000000000e+00 0.000000000000000e+00
0.000000000000000e+00 0.000000000000000e+00 0.000000000000000e+00
0.000000000000000e+00 0.000000000000000e+00 0.000000000000000e+00
0.000000000000000e+00 0.000000000000000e+00 0.000000000000000e+00
0.000000000000000e+00 0.000000000000000e+00 0.000000000000000e+00
0.000000000000000e+00 0.000000000000000e+00 0.000000000000000e+00
0.000000000000000e+00 0.000000000000000e+00 0.000000000000000e+00
0.000000000000000e+00 0.000000000000000e+00 0.000000000000000e+00
0.000000000000000e+00 0.000000000000000e+00 0.000000000000000e+00
0.000000000000000e+00 0.000000000000000e+00 0.000000000000000e+00
0.000000000000000e+00 0.000000000000000e+00 0.000000000000000e+00
0.000000000000000e+00 0.000000000000000e+00 0.000000000000000e+00
0.000000000000000e+00 0.000000000000000e+00 0.000000000000000e+00
0.000000000000000e+00 0.000000000000000e+00 0.000000000000000e+00
0.000000000000000e+00 0.000000000000000e+00 0.000000000000000e+00
0.000000000000000e+00 0.000000000000000e+00 0.000000000000000e+00
0.000000000000000e+00 0.000000000000000e+00 0.000000000000000e+00
0.000000000000000e+00 0.000000000000000e+00 0.000000000000000e+00
0.000000000000000e+00 0.000000000000000e+00 0.000000000000000e+00
0.000000000000000e+00 0.000000000000000e+00 0.000000000000000e+00
0.000000000000000e+00 0.000000000000000e+00 0.000000000000000e+00
0.000000000000000e+00 0.000000000000000e+00 0.000000000000000e+00
0.000000000000000e+00 0.000000000000000e+00 0.000000000000000e+00
0.000000000000000e+00 0.000000000000000e+00 0.000000000000000e+00
0.000000000000000e+00 0.000000000000000e+00 0.000000000000000e+00
0.000000000000000e+00 0.000000000000000e+00 0.000000000000000e+00
0.000000000000000e+00 0.000000000000000e+00 0.000000000000000e+00
0.000000000000000e+00 0.000000000000000e+00 0.000000000000000e+00
0.000000000000000e+00 0.000000000000000e+00 0.000000000000000e+00
0.000000000000000e+00 0.000000000000000e+00 0.000000000000000e+00
0.000000000000000e+00 0.000000000000000e+00 0.000000000000000e+00
0.000000000000000e+00 0.000000000000000e+00 0.000000000000000e+00
0.000000000000000e+00 0.000000000000000e+00 0.000000000000000e+00
0.000000000000000e+00 0.000000000000000e+00 0.000000000000000e+00
0.000000000000000e+00 0.000000000000000e+00 0.000000000000000e+00
0.000000000000000e+00 0.000000000000000e+00 0.000000000000000e+00
0.000000000000000e+00 0.000000000000000e+00 0.000000000000000e+00
0.000000000000000e+00 0.000000000000000e+00 0.000000000000000e+00
0.000000000000000e+00 0.000000000000000e+00 0.000000000000000e+00
0.000000000000000e+00 0.000000000000000e+00 0.000000000000000e+00
0.000000000000000e+00 0.000000000000000e+00 0.000000000000000e+00
0.000000000000000e+00 0.000000000000000e+00 0.000000000000000e+00
0.000000000000000e+00 0.000000000000000e+00 0.000000000000000e+00
0.000000000000000e+00 0.000000000000000e+00 0.000000000000000e+00
0.000000000000000e+00 0.000000000000000e+00 0.000000000000000e+00
0.000000000000000e+00 0.000000000000000e+00 0.000000000000000e+00
0.000000000000000e+00 0.000000000000000e+00 0.000000000000000e+00
0.000000000000000e+00 0.000000000000000e+00 0.000000000000000e+00
0.000000000000000e+00 0.000000000000000e+00 0.000000000000000e+00
0.000000000000000e+00 0.000000000000000e+00 0.000000000000000e+00
0.000000000000000e+00 0.000000000000000e+00 0.000000000000000e+00
0.000000000000000e+00 0.000000000000000e+00 0.000000000000000e+00
0.000000000000000e+00 0.000000000000000e+00 0.000000000000000e+00
0.000000000000000e+00 0.000000000000000e+00 0.000000000000000e+00
0.000000000000000e+00 0.000000000000000e+00 0.000000000000000e+00
0.000000000000000e+00 0.000000000000000e+00 0.000000000000000e+00
0.000000000000000e+00 0.000000000000000e+00 0.000000000000000e+00
0.000000000000000e+00 0.000000000000000e+00 0.000000000000000e+00
0.000000000000000e+00 0.000000000000000e+00 0.000000000000000e+00
0.000000000000000e+00 0.000000000000000e+00 0.000000000000000e+00
0.000000000000000e+00 0.000000000000000e+00 0.000000000000000e+00
0.000000000000000e+00 0.000000000000000e+00 0.000000000000000e+00
0.000000000000000e+00 0.000000000000000e+00 0.000000000000000e+00
0.000000000000000e+00 0.000000000000000e+00 0.000000000000000e+00
0.000000000000000e+00 0.000000000000000e+00 0.000000000000000e+00
0.000000000000000e+00 0.000000000000000e+00 0.000000000000000e+00
0.000000000000000e+00 0.000000000000000e+00 0.000000000000000e+00
0.000000000000000e+00 0.000000000000000e+00 0.000000000000000e+00
0.000000000000000e+00 0.000000000000000e+00 0.000000000000000e+00
0.000000000000000e+00 0.000000000000000e+00 0.000000000000000e+00
0.000000000000000e+00 0.000000000000000e+00 0.000000000000000e+00
0.000000000000000e+00 0.000000000000000e+00 0.000000000000000e+00
0.000000000000000e+00 0.000000000000000e+00 0.000000000000000e+00
0.000000000000000e+00 0.000000000000000e+00 0.000000000000000e+00
0.000000000000000e+00 0.000000000000000e+00 0.000000000000000e+00
0.000000000000000e+00 0.000000000000000e+00 0.000000000000000e+00
0.000000000000000e+00 0.000000000000000e+00 0.000000000000000e+00
0.000000000000000e+00 0.000000000000000e+00 0.000000000000000e+00
0.000000000000000e+00 0.000000000000000e+00 0.000000000000000e+00
0.000000000000000e+00 0.000000000000000e+00 0.000000000000000e+00
0.000000000000000e+00 0.000000000000000e+00 0.000000000000000e+00
0.000000000000000e+00 0.000000000000000e+00 0.000000000000000e+00
0.000000000000000e+00 0.000000000000000e+00 0.000000000000000e+00
0.000000000000000e+00 0.000000000000000e+00 0.000000000000000e+00
0.000000000000000e+00 0.000000000000000e+00 0.000000000000000e+00
0.000000000000000e+00 0.000000000000000e+00 0.000000000000000e+00
0.000000000000000e+00 0.000000000000000e+00 0.000000000000000e+00
0.000000000000000e+00 0.000000000000000e+00 0.000000000000000e+00
0.000000000000000e+00 0.000000000000000e+00 0.000000000000000e+00
0.000000000000000e+00 0.000000000000000e+00 0.000000000000000e+00
0.000000000000000e+00 0.000000000000000e+00 0.000000000000000e+00
0.000000000000000e+00 0.000000000000000e+00 0.000000000000000e+00
0.000000000000000e+00 0.000000000000000e+00 0.000000000000000e+00
0.000000000000000e+00 0.000000000000000e+00 0.000000000000000e+00
0.000000000000000e+00 0.000000000000000e+00 0.000000000000000e+00
0.000000000000000e+00 0.000000000000000e+00 0.000000000000000e+00
0.000000000000000e+00 0.000000000000000e+00 0.000000000000000e+00
0.000000000000000e+00 0.000000000000000e+00 0.000000000000000e+00
0.000000000000000e+00 0.000000000000000e+00 0.000000000000000e+00
0.000000000000000e+00 0.000000000000000e+00 0.000000000000000e+00
0.000000000000000e+00 0.000000000000000e+00 0.000000000000000e+00
0.000000000000000e+00 0.000000000000000e+00 0.000000000000000e+00
0.000000000000000e+00 0.000000000000000e+00 0.000000000000000e+00
0.000000000000000e+00 0.000000000000000e+00 0.000000000000000e+00
0.000000000000000e+00 0.000000000000000e+00 0.000000000000000e+00
0.000000000000000e+00 0.000000000000000e+00 0.000000000000000e+00
0.000000000000000e+00 0.000000000000000e+00 0.000000000000000e+00
0.000000000000000e+00 0.000000000000000e+00 0.000000000000000e+00
0.000000000000000e+00 0.000000000000000e+00 0.000000000000000e+00
0.000000000000000e+00 0.000000000000000e+00 0.000000000000000e+00
0.000000000000000e+00 0.000000000000000e+00 0.000000000000000e+00
0.000000000000000e+00 0.000000000000000e+00 0.000000000000000e+00
0.000000000000000e+00 0.000000000000000e+00 0.000000000000000e+00
0.000000000000000e+00 0.000000000000000e+00 0.000000000000000e+00
0.000000000000000e+00 0.000000000000000e+00 0.000000000000000e+00
0.000000000000000e+00 0.000000000000000e+00 0.000000000000000e+00
0.000000000000000e+00 0.000000000000000e+00 0.000000000000000e+00
0.000000000000000e+00 0.000000000000000e+00 0.000000000000000e+00
0.000000000000000e+00 0.000000000000000e+00 0.000000000000000e+00
0.000000000000000e+00 0.000000000000000e+00 0.000000000000000e+00
0.000000000000000e+00 0.000000000000000e+00 0.000000000000000e+00
0.000000000000000e+00 0.000000000000000e+00 0.000000000000000e+00
0.000000000000000e+00 0.000000000000000e+00 0.000000000000000e+00
0.000000000000000e+00 0.000000000000000e+00 0.000000000000000e+00
0.000000000000000e+00 0.000000000000000e+00 0.000000000000000e+00
0.000000000000000e+00 0.000000000000000e+00 0.000000000000000e+00
0.000000000000000e+00 0.000000000000000e+00 0.000000000000000e+00
0.000000000000000e+00 0.000000000000000e+00 0.000000000000000e+00
0.000000000000000e+00 0.000000000000000e+00 0.000000000000000e+00
0.000000000000000e+00 0.000000000000000e+00 0.000000000000000e+00
0.000000000000000e+00 0.000000000000000e+00 0.000000000000000e+00
0.000000000000000e+00 0.000000000000000e+00 0.000000000000000e+00
0.000000000000000e+00 0.000000000000000e+00 0.000000000000000e+00
0.000000000000000e+00 0.000000000000000e+00 0.000000000000000e+00
0.000000000000000e+00 0.000000000000000e+00 0.000000000000000e+00
0.000000000000000e+00 0.000000000000000e+00 0.000000000000000e+00
0.000000000000000e+00 0.000000000000000e+00 0.000000000000000e+00
0.000000000000000e+00 0.000000000000000e+00 0.000000000000000e+00
0.000000000000000e+00 0.000000000000000e+00 0.000000000000000e+00
0.000000000000000e+00 0.000000000000000e+00 0.000000000000000e+00
0.000000000000000e+00 0.000000000000000e+00 0.000000000000000e+00
0.000000000000000e+00 0.000000000000000e+00 0.000000000000000e+00
0.000000000000000e+00 0.000000000000000e+00 0.000000000000000e+00
0.000000000000000e+00 0.000000000000000e+00 0.000000000000000e+00
0.000000000000000e+00 0.000000000000000e+00 0.000000000000000e+00
0.000000000000000e+00 0.000000000000000e+00 0.000000000000000e+00
0.000000000000000e+00 0.000000000000000e+00 0.000000000000000e+00
0.000000000000000e+00 0.000000000000000e+00 0.000000000000000e+00
0.000000000000000e+00 0.000000000000000e+00 0.000000000000000e+00
0.000000000000000e+00 0.000000000000000e+00 0.000000000000000e+00
0.000000000000000e+00 0.000000000000000e+00 0.000000000000000e+00
0.000000000000000e+00 0.000000000000000e+00 0.000000000000000e+00
0.000000000000000e+00 0.000000000000000e+00 0.000000000000000e+00
0.000000000000000e+00 0.000000000000000e+00 0.000000000000000e+00
0.000000000000000e+00 0.000000000000000e+00 0.000000000000000e+00
0.000000000000000e+00 0.000000000000000e+00 0.000000000000000e+00
0.000000000000000e+00 0.000000000000000e+00 0.000000000000000e+00
0.000000000000000e+00 0.000000000000000e+00 0.000000000000000e+00
0.000000000000000e+00 0.000000000000000e+00 0.000000000000000e+00
0.000000000000000e+00 0.000000000000000e+00 0.000000000000000e+00
0.000000000000000e+00 0.000000000000000e+00 0.000000000000000e+00
0.000000000000000e+00 0.000000000000000e+00 0.000000000000000e+00
0.000000000000000e+00 0.000000000000000e+00 0.000000000000000e+00
0.000000000000000e+00 0.000000000000000e+00 0.000000000000000e+00
0.000000000000000e+00 0.000000000000000e+00 0.000000000000000e+00
0.000000000000000e+00 0.000000000000000e+00 0.000000000000000e+00
0.000000000000000e+00 0.000000000000000e+00 0.000000000000000e+00
0.000000000000000e+00 0.000000000000000e+00 0.000000000000000e+00
0.000000000000000e+00 0.000000000000000e+00 0.000000000000000e+00
0.000000000000000e+00 0.000000000000000e+00 0.000000000000000e+00
0.000000000000000e+00 0.000000000000000e+00 0.000000000000000e+00
0.000000000000000e+00 0.000000000000000e+00 0.000000000000000e+00
0.000000000000000e+00 0.000000000000000e+00 0.000000000000000e+00
0.000000000000000e+00 0.000000000000000e+00 0.000000000000000e+00
0.000000000000000e+00 0.000000000000000e+00 0.000000000000000e+00
0.000000000000000e+00 0.000000000000000e+00 0.000000000000000e+00
0.000000000000000e+00 0.000000000000000e+00 0.000000000000000e+00
0.000000000000000e+00 0.000000000000000e+00 0.000000000000000e+00
0.000000000000000e+00 0.000000000000000e+00 0.000000000000000e+00
0.000000000000000e+00 0.000000000000000e+00 0.000000000000000e+00
0.000000000000000e+00 0.000000000000000e+00 0.000000000000000e+00
0.000000000000000e+00 0.000000000000000e+00 0.000000000000000e+00
0.000000000000000e+00 0.000000000000000e+00 0.000000000000000e+00
0.000000000000000e+00 0.000000000000000e+00 0.000000000000000e+00
0.000000000000000e+00 0.000000000000000e+00 0.000000000000000e+00
0.000000000000000e+00 0.000000000000000e+00 0.000000000000000e+00
0.000000000000000e+00 0.000000000000000e+00 0.000000000000000e+00
0.000000000000000e+00 0.000000000000000e+00 0.000000000000000e+00
0.000000000000000e+00 0.000000000000000e+00 0.000000000000000e+00
0.000000000000000e+00 0.000000000000000e+00 0.000000000000000e+00
0.000000000000000e+00 0.000000000000000e+00 0.000000000000000e+00
0.000000000000000e+00 0.000000000000000e+00 0.000000000000000e+00
0.000000000000000e+00 0.000000000000000e+00 0.000000000000000e+00
0.000000000000000e+00 0.000000000000000e+00 0.000000000000000e+00
0.000000000000000e+00 0.000000000000000e+00 0.000000000000000e+00
0.000000000000000e+00 0.000000000000000e+00 0.000000000000000e+00
0.000000000000000e+00 0.000000000000000e+00 0.000000000000000e+00
0.000000000000000e+00 0.000000000000000e+00 0.000000000000000e+00
0.000000000000000e+00 0.000000000000000e+00 0.000000000000000e+00
0.000000000000000e+00 0.000000000000000e+00 0.000000000000000e+00
0.000000000000000e+00 0.000000000000000e+00 0.000000000000000e+00
0.000000000000000e+00 0.000000000000000e+00 0.000000000000000e+00
0.000000000000000e+00 0.000000000000000e+00 0.000000000000000e+00
0.000000000000000e+00 0.000000000000000e+00 0.000000000000000e+00
0.000000000000000e+00 0.000000000000000e+00 0.000000000000000e+00
0.000000000000000e+00 0.000000000000000e+00 0.000000000000000e+00
0.000000000000000e+00 0.000000000000000e+00 0.000000000000000e+00
0.000000000000000e+00 0.000000000000000e+00 0.000000000000000e+00
0.000000000000000e+00 0.000000000000000e+00 0.000000000000000e+00
0.000000000000000e+00 0.000000000000000e+00 0.000000000000000e+00
0.000000000000000e+00 0.000000000000000e+00 0.000000000000000e+00
0.000000000000000e+00 0.000000000000000e+00 0.000000000000000e+00
0.000000000000000e+00 0.000000000000000e+00 0.000000000000000e+00
0.000000000000000e+00 0.000000000000000e+00 0.000000000000000e+00
0.000000000000000e+00 0.000000000000000e+00 0.000000000000000e+00
0.000000000000000e+00 0.000000000000000e+00 0.000000000000000e+00
0.000000000000000e+00 0.000000000000000e+00 0.000000000000000e+00
0.000000000000000e+00 0.000000000000000e+00 0.000000000000000e+00
0.000000000000000e+00 0.000000000000000e+00 0.000000000000000e+00
0.000000000000000e+00 0.000000000000000e+00 0.000000000000000e+00
0.000000000000000e+00 0.000000000000000e+00 0.000000000000000e+00
0.000000000000000e+00 0.000000000000000e+00 0.000000000000000e+00
0.000000000000000e+00 0.000000000000000e+00 0.000000000000000e+00
0.000000000000000e+00 0.000000000000000e+00 0.000000000000000e+00
0.000000000000000e+00 0.000000000000000e+00 0.000000000000000e+00
0.000000000000000e+00 0.000000000000000e+00 0.000000000000000e+00
0.000000000000000e+00 0.000000000000000e+00 0.000000000000000e+00
0.000000000000000e+00 0.000000000000000e+00 0.000000000000000e+00
0.000000000000000e+00 0.000000000000000e+00 0.000000000000000e+00
0.000000000000000e+00 0.000000000000000e+00 0.000000000000000e+00
0.000000000000000e+00 0.000000000000000e+00 0.000000000000000e+00
0.000000000000000e+00 0.000000000000000e+00 0.000000000000000e+00
0.000000000000000e+00 0.000000000000000e+00 0.000000000000000e+00
0.000000000000000e+00 0.000000000000000e+00 0.000000000000000e+00
0.000000000000000e+00 0.000000000000000e+00 0.000000000000000e+00
0.000000000000000e+00 0.000000000000000e+00 0.000000000000000e+00
0.000000000000000e+00 0.000000000000000e+00 0.000000000000000e+00
0.000000000000000e+00 0.000000000000000e+00 0.000000000000000e+00
0.000000000000000e+00 0.000000000000000e+00 0.000000000000000e+00
0.000000000000000e+00 0.000000000000000e+00 0.000000000000000e+00
0.000000000000000e+00 0.000000000000000e+00 0.000000000000000e+00
0.000000000000000e+00 0.000000000000000e+00 0.000000000000000e+00
0.000000000000000e+00 0.000000000000000e+00 0.000000000000000e+00
0.000000000000000e+00 0.000000000000000e+00 0.000000000000000e+00
0.000000000000000e+00 0.000000000000000e+00 0.000000000000000e+00
0.000000000000000e+00 0.000000000000000e+00 0.000000000000000e+00
0.000000000000000e+00 0.000000000000000e+00 0.000000000000000e+00
0.000000000000000e+00 0.000000000000000e+00 0.000000000000000e+00
0.000000000000000e+00 0.000000000000000e+00 0.000000000000000e+00
0.000000000000000e+00 0.000000000000000e+00 0.000000000000000e+00
0.000000000000000e+00 0.000000000000000e+00 0.000000000000000e+00
0.000000000000000e+00 0.000000000000000e+00 0.000000000000000e+00
0.000000000000000e+00 0.000000000000000e+00 0.000000000000000e+00
0.000000000000000e+00 0.000000000000000e+00 0.000000000000000e+00
0.000000000000000e+00 0.000000000000000e+00 0.000000000000000e+00
0.000000000000000e+00 0.000000000000000e+00 0.000000000000000e+00
0.000000000000000e+00 0.000000000000000e+00 0.000000000000000e+00
0.000000000000000e+00 0.000000000000000e+00 0.000000000000000e+00
0.000000000000000e+00 0.000000000000000e+00 0.000000000000000e+00
0.000000000000000e+00 0.000000000000000e+00 0.000000000000000e+00
0.000000000000000e+00 0.000000000000000e+00 0.000000000000000e+00
0.000000000000000e+00 0.000000000000000e+00 0.000000000000000e+00
0.000000000000000e+00 0.000000000000000e+00 0.000000000000000e+00
0.000000000000000e+00 0.000000000000000e+00 0.000000000000000e+00
0.000000000000000e+00 0.000000000000000e+00 0.000000000000000e+00
0.000000000000000e+00 0.000000000000000e+00 0.000000000000000e+00
0.000000000000000e+00 0.000000000000000e+00 0.000000000000000e+00
0.000000000000000e+00 0.000000000000000e+00 0.000000000000000e+00
0.000000000000000e+00 0.000000000000000e+00 0.000000000000000e+00
0.000000000000000e+00 0.000000000000000e+00 0.000000000000000e+00
0.000000000000000e+00 0.000000000000000e+00 0.000000000000000e+00
0.000000000000000e+00 0.000000000000000e+00 0.000000000000000e+00
0.000000000000000e+00 0.000000000000000e+00 0.000000000000000e+00
0.000000000000000e+00 0.000000000000000e+00 0.000000000000000e+00
0.000000000000000e+00 0.000000000000000e+00 0.000000000000000e+00
0.000000000000000e+00 0.000000000000000e+00 0.000000000000000e+00
0.000000000000000e+00 0.000000000000000e+00 0.000000000000000e+00
0.000000000000000e+00 0.000000000000000e+00 0.000000000000000e+00
0.000000000000000e+00 0.000000000000000e+00 0.000000000000000e+00
0.000000000000000e+00 0.000000000000000e+00 0.000000000000000e+00
0.000000000000000e+00 0.000000000000000e+00 0.000000000000000e+00
0.000000000000000e+00 0.000000000000000e+00 0.000000000000000e+00
0.000000000000000e+00 0.000000000000000e+00 0.000000000000000e+00
0.000000000000000e+00 0.000000000000000e+00 0.000000000000000e+00
0.000000000000000e+00 0.000000000000000e+00 0.000000000000000e+00
0.000000000000000e+00 0.000000000000000e+00 0.000000000000000e+00
0.000000000000000e+00 0.000000000000000e+00 0.000000000000000e+00
0.000000000000000e+00 0.000000000000000e+00 0.000000000000000e+00
0.000000000000000e+00 0.000000000000000e+00 0.000000000000000e+00
0.000000000000000e+00 0.000000000000000e+00 0.000000000000000e+00
0.000000000000000e+00 0.000000000000000e+00 0.000000000000000e+00
0.000000000000000e+00 0.000000000000000e+00 0.000000000000000e+00
0.000000000000000e+00 0.000000000000000e+00 0.000000000000000e+00
0.000000000000000e+00 0.000000000000000e+00 0.000000000000000e+00
0.000000000000000e+00 0.000000000000000e+00 0.000000000000000e+00
0.000000000000000e+00 0.000000000000000e+00 0.000000000000000e+00
0.000000000000000e+00 0.000000000000000e+00 0.000000000000000e+00
0.000000000000000e+00 0.000000000000000e+00 0.000000000000000e+00
0.000000000000000e+00 0.000000000000000e+00 0.000000000000000e+00
0.000000000000000e+00 0.000000000000000e+00 0.000000000000000e+00
0.000000000000000e+00 0.000000000000000e+00 0.000000000000000e+00
0.000000000000000e+00 0.000000000000000e+00 0.000000000000000e+00
0.000000000000000e+00 0.000000000000000e+00 0.000000000000000e+00
0.000000000000000e+00 0.000000000000000e+00 0.000000000000000e+00
0.000000000000000e+00 0.000000000000000e+00 0.000000000000000e+00
0.000000000000000e+00 0.000000000000000e+00 0.000000000000000e+00
0.000000000000000e+00 0.000000000000000e+00 0.000000000000000e+00
0.000000000000000e+00 0.000000000000000e+00 0.000000000000000e+00
0.000000000000000e+00 0.000000000000000e+00 0.000000000000000e+00
0.000000000000000e+00 0.000000000000000e+00 0.000000000000000e+00
0.000000000000000e+00 0.000000000000000e+00 0.000000000000000e+00
0.000000000000000e+00 0.000000000000000e+00 0.000000000000000e+00
0.000000000000000e+00 0.000000000000000e+00 0.000000000000000e+00
0.000000000000000e+00 0.000000000000000e+00 0.000000000000000e+00
0.000000000000000e+00 0.000000000000000e+00 0.000000000000000e+00
0.000000000000000e+00 0.000000000000000e+00 0.000000000000000e+00
0.000000000000000e+00 0.000000000000000e+00 0.000000000000000e+00
0.000000000000000e+00 0.000000000000000e+00 0.000000000000000e+00
0.000000000000000e+00 0.000000000000000e+00 0.000000000000000e+00
0.000000000000000e+00 0.000000000000000e+00 0.000000000000000e+00
0.000000000000000e+00 0.000000000000000e+00 0.000000000000000e+00
0.000000000000000e+00 0.000000000000000e+00 0.000000000000000e+00
0.000000000000000e+00 0.000000000000000e+00 0.000000000000000e+00
0.000000000000000e+00 0.000000000000000e+00 0.000000000000000e+00
0.000000000000000e+00 0.000000000000000e+00 0.000000000000000e+00
0.000000000000000e+00 0.000000000000000e+00 0.000000000000000e+00
0.000000000000000e+00 0.000000000000000e+00 0.000000000000000e+00
0.000000000000000e+00 0.000000000000000e+00 0.000000000000000e+00
0.000000000000000e+00 0.000000000000000e+00 0.000000000000000e+00
0.000000000000000e+00 0.000000000000000e+00 0.000000000000000e+00
6.843854495135770e-03 5.085155984407709e-05 3.106160850635916e-19
 6.864353161654539e-03 -3.729048194025942e-05  3.120811001644420e-19
6.943566081237040e-03 2.518595522638091e-04 3.117639938705657e-19
 6.885981781684838e-03 -1.072275598182921e-04  3.142382863124323e-19
6.861032569809342e-03 1.187322815545865e-04 3.074275981798640e-19
 6.897938029809044e-03 -2.321261310112358e-05  3.135978662290678e-19
6.866498604555465e-03 9.423546124667116e-05 3.138713485377554e-19
6.859890612542502e-03 1.680478395803794e-05 3.107246839968532e-19
6.838988056838502e-03 1.675357863238241e-05 3.108772219147435e-19
6.865724318130750e-03 1.215206143547744e-04 3.232209262868950e-19
 6.859191918288281e-03 -1.309931662333503e-05  4.081166948089692e-19
6.830336780170275e-03 1.337204630374864e-04 1.544813154751325e-18
6.822504943629169e-03 2.237927770883381e-05 3.758323324565472e-19
6.817596490351885e-03 1.897483939682103e-04 3.033824783858271e-19
6.801608527983817e-03 1.014895950574803e-04 3.089245623772116e-19
6.785273099971267e-03 1.739318375782590e-04 3.044816176944818e-19
6.769575860225365e-03 1.735294588215479e-04 3.042248963942166e-19
6.841664005979084e-03 3.981397934548287e-04 3.057024744374707e-19
6.786088583048144e-03 3.492793134707445e-06 3.083209614372846e-19
6.866052509101181e-03 4.621810470414947e-04 3.034132197911170e-19
 6.764525151952036e-03 -4.721257414247790e-04  3.155933021555558e-19
6.692013307330794e-03 4.633360027665758e-04 3.055691971442072e-19
 6.774450130001535e-03 -1.681478961628615e-05  3.065842625753339e-19
6.684242968692176e-03 2.347425406731993e-04 3.063737320601552e-19
6.702642186924975e-03 2.353886989972755e-04 3.063207816735761e-19
 6.187235263463968e-03 -4.124667897349321e-04  2.920304046953273e-19
6.512266052145641e-03 8.587650923062894e-04 2.892617435175555e-19
 6.600850604075043e-03 -6.841821913119968e-04  3.015337995527194e-19
5.871752098631567e-03 3.638851673819210e-05 2.789419337408610e-19
6.542177067419767e-03 2.337805245207226e-04 3.001082800674813e-19
 6.715566894190949e-03 -7.626316179349356e-05  3.061298266163176e-19
6.712243409127670e-03 1.520491070164067e-04 3.034411439304805e-19
 6.696630029187132e-03 -1.764363514611430e-04  3.061168751777915e-19
6.694554347031510e-03 9.715648925037585e-05 3.033765709704992e-19
 6.714255331744399e-03 -3.258167307602438e-04  3.073255431769722e-19
6.796002153155439e-03 2.525331268683702e-05 3.078345383231709e-19
 6.762826656359361e-03 -6.364507801680891e-04  3.065920171651862e-19
6.854981215327251e-03 1.016861062203061e-04 3.112201334079628e-19
 6.747489054174151e-03 -5.688484555835989e-04  3.066718013488053e-19
6.861686674248359e-03 3.107798553483818e-04 3.099447670150146e-19
 6.832196050447941e-03 -3.868616625814611e-04  3.131134538801133e-19
6.928848148531281e-03 6.860155565745578e-04 3.054142596142560e-19
 6.970001549667823e-03 -6.400139058281142e-04  3.137187589942266e-19
6.850953592388221e-03 3.362795353595323e-04 3.046282835648500e-19
 6.829680426237793e-03 -4.167916739650527e-04  3.039982497092528e-19
6.850163459956450e-03 6.306933766590024e-04 3.202395306038846e-19
 6.947414272562057e-03 -3.154822159212974e-04  3.105050587645955e-19
6.866101701099601e-03 4.350282219662020e-04 3.145420308437052e-19
 6.916940930942071e-03 -1.760394664421958e-04  3.113931251208565e-19
6.919117429448700e-03 3.010031572018222e-04 3.131831800813945e-19
 6.902498833623434e-03 -3.075628558504296e-04  3.124491384712848e-19
6.826799161158571e-03 2.452977707437255e-04 3.052826732398449e-19
 6.855337677054373e-03 -7.204698986901570e-05  3.114195482306921e-19
6.851382125424241e-03 4.183661050358643e-04 3.129434356288637e-19
 6.908002861188523e-03 -4.257442968605682e-05  3.131759630680918e-19
6.923229626815036e-03 2.114751317703637e-04 3.139088030151486e-19
 6.888459512134961e-03 -1.838357822027807e-04  3.108597700313285e-19
6.895471400006186e-03 2.302153966285731e-04 3.107014626153494e-19
 6.863361903628111e-03 -2.622046668995676e-04  3.110192686865855e-19
6.888260090263932e-03 2.718292516821383e-04 3.131238820104597e-19
 6.860746514896422e-03 -3.500548481270189e-04  3.105053919189881e-19
6.852147113280276e-03 2.823731307802429e-04 3.075571741019998e-19
 6.678288953912744e-03 -5.593275703904703e-04  2.974178178165544e-19
6.709837553661172e-03 4.655855558201023e-04 2.980895933242214e-19
 6.845274994263748e-03 -2.996395805665169e-04  3.106019652108085e-19
6.459186178416420e-03 2.170367865935941e-03 2.764459438876106e-19
 6.797714575816663e-03 -3.128079183470616e-04  3.059509148130693e-19
6.856847874221726e-03 2.519458859699565e-04 3.071138839904782e-19
 6.815339356740165e-03 -2.087564551953306e-04  3.092734450361091e-19
6.785749907062773e-03 3.071928137181441e-04 3.069586277881564e-19
 6.853166210643909e-03 -1.181135717454064e-04  3.070022010419834e-19
6.782580526800356e-03 1.097165608432351e-04 3.069325336667218e-19
6.813580026814734e-03 2.002255092672815e-05 3.069098565557056e-19
6.794908325352929e-03 1.996768181358404e-05 3.060422309148450e-19
 6.749048061540835e-03 -1.475927854737736e-04  3.058514301320159e-19
6.734409256159015e-03 5.530604830240757e-05 3.038759382818939e-19
6.768680906933579e-03 2.655629318114725e-06 3.043437281082946e-19
 6.703514243040731e-03 -3.373535522489869e-04  2.972762124220920e-19
6.729777581111632e-03 2.937231612634648e-05 3.024424570574762e-19
 6.757600833596053e-03 -1.472430523689791e-04  3.024221005557314e-19
 6.767090459053381e-03 -4.631681321506991e-05  3.049883819279740e-19
 6.826327971235307e-03 -6.502344546597116e-05  3.053675329980381e-19
 6.785737976620697e-03 -1.280739710605847e-04  3.057482533772251e-19
6.836746090864894e-03 2.309304356444664e-05 3.065188270773291e-19
 6.790416721025001e-03 -1.847036025825592e-04  3.063716531649777e-19
6.839035962385728e-03 1.680245469920164e-04 3.086725544092904e-19
 6.830666504935268e-03 -2.215689465786988e-04  3.051213640055822e-19
6.905664538015346e-03 3.053412907732779e-04 3.026102660945810e-19
 6.921054229003939e-03 -3.106102803662667e-04  3.168857777335006e-19
6.883198673376111e-03 7.942051571201206e-05 3.085235101527149e-19
 5.881993067383099e-03 -3.527518439883933e-03  2.471894608937036e-19
6.835737719406545e-03 1.023838729855021e-04 3.048449708862780e-19
 6.814190715826039e-03 -1.022325357759287e-04  3.062015483593989e-19
6.870597563863943e-03 1.605970634237372e-04 3.042045087423977e-19
 6.834706739822384e-03 -2.248683255501289e-04  3.021355367379045e-19
6.792849175068856e-03 5.096718771773038e-05 3.029827972301718e-19
 6.843077054292142e-03 -1.053976616754166e-04  3.060511441263540e-19
 6.861984967262049e-03 -1.056888829781112e-04  3.056349176052193e-19
 6.884696066940094e-03 -1.060386812897701e-04  3.054620987701748e-19
6.848925961308373e-03 1.183990718180269e-05 3.037694371244236e-19
 6.792615533227956e-03 -1.077374469228681e-04  3.002245554409365e-19
 6.771520318131137e-03 -7.422034808568922e-05  2.977904685323172e-19
 6.810231886257637e-03 -4.425841735008964e-05  2.998398621066457e-19
 6.775297396992889e-03 -1.273714080206969e-04  3.047902979554920e-19
6.750265941247421e-03 1.312936743687160e-05 2.987394309733282e-19
6.755984034556898e-03 1.037112599815428e-06 2.978497991718002e-19
6.749721617007954e-03 1.036151254715721e-06 2.971020334404515e-19
 6.716505043654017e-03 -1.210855112623444e-04  2.966390895221760e-19
6.713916328340827e-03 4.790432600503394e-05 2.978883152711182e-19
6.754261744575282e-03 7.671299588312138e-05 2.944690202488151e-19
 6.699987532036478e-03 -1.731616734935498e-04  2.966314752191633e-19
6.715928555101798e-03 1.090974330949410e-04 2.904546997754854e-19
 6.753760862559566e-03 -4.801416185536298e-05  2.957263521639352e-19
6.864572278003172e-03 3.240465608510812e-04 2.978255448628407e-19
 6.785431100276024e-03 -2.159261678392068e-04  2.875682529814671e-19
6.762958394910127e-03 4.768464285549643e-04 3.008992245709039e-19
 6.850014654929674e-03 -1.153685062026723e-04  2.982705825181771e-19
6.827926235288617e-03 2.752336950313957e-04 3.030381996937249e-19
 6.832305186958080e-03 -1.136025161912422e-04  2.957103688184770e-19
6.792609293210045e-03 4.801023605885896e-04 3.098001332421207e-19
 6.894304859877528e-03 -1.319675925666253e-05  2.979865908676341e-19
6.813667431430115e-03 1.527770800850801e-04 2.933040018992832e-19
6.809896265035580e-03 7.436774556772022e-07 2.941101877335951e-19
6.822686516912852e-03 2.758357097305556e-04 2.929630576923248e-19
 6.797333807924196e-03 -3.814347618316362e-05  2.932615461194627e-19
6.733674909667414e-03 2.891624937050766e-04 2.926299735503355e-19
6.740918013627526e-03 1.356525970204317e-04 2.860300209161178e-19
6.659879765310446e-03 2.495990449369995e-04 2.865090868663882e-19
6.524316266234578e-03 2.445183946715248e-04 2.814937951623260e-19
6.382674893300396e-03 5.890390799100942e-04 2.523201644094758e-19
6.175670808301885e-03 2.341616160512271e-04 2.660271056418768e-19
6.148403403653214e-03 7.200364654651038e-04 2.532375785405863e-19
7.381217779279527e-03 1.499912586817388e-03 2.853484923292969e-19
 6.222333871279412e-03 -1.093866215928594e-03  2.659509780052068e-19
 6.306003548149228e-03 -1.649890544829530e-04  2.718025385539816e-19
 6.561602513674906e-03 -5.670792030838161e-04  2.748956963441937e-19
6.718637609368598e-03 1.930652616347198e-04 2.792720487760577e-19
 6.826886168808811e-03 -4.852129773949707e-04  2.953811529584261e-19
6.861137131296692e-03 1.423963583327006e-04 2.865473922859339e-19
 6.976296475706543e-03 -3.696173470498025e-04  3.030294736255826e-19
6.491045795348266e-03 2.151988835866426e-03 2.593900284288363e-19
 7.013802124053321e-03 -1.272015473804392e-04  2.961517464465718e-19
7.160152062804162e-03 6.869187553801182e-04 2.883283912323507e-19
 7.155619471576055e-03 -7.091436434078146e-04  2.840490754030931e-19
6.897995128136048e-03 1.479646725591173e-04 2.886082188394139e-19
 6.950731691341881e-03 -6.830219377169732e-05  2.861126200740362e-19
6.949501831151687e-03 9.482189560772258e-05 2.836181526569962e-19
 6.845314448042363e-03 -9.111931340324257e-04  3.054879703180814e-19
6.848225000772841e-03 9.279333313709308e-05 2.806374304531425e-19
6.940110315437486e-03 8.431060415614702e-05 2.816777386646910e-19
 6.879439771604995e-03 -3.690142078824871e-05  2.804900525163146e-19
6.882425805454576e-03 1.441257745335270e-09 2.783886971169388e-19
 6.889988078366761e-03 -5.858408794828982e-06  2.764739458200895e-19
 6.884023879549224e-03 -5.853337564747107e-06  2.745502297623498e-19
6.897328878204574e-03 2.790687167368567e-05 2.716938069678254e-19
 6.874302853964743e-03 -2.131874438458183e-04  2.668651935021281e-19
6.895564700107415e-03 1.506047204255750e-04 2.700854851535231e-19
 6.929059040576607e-03 -1.242392133004565e-04  2.641977429211798e-19
6.921721053275087e-03 2.665949079784213e-05 2.620057612057536e-19
 6.912123072819241e-03 -1.589949632974957e-04  2.587124823149264e-19
6.889609061241636e-03 2.127076800641798e-05 2.541256490618401e-19
 6.900235022839069e-03 -1.948619959232404e-05  2.511323050372966e-19
 6.874264833959791e-03 -1.941286002022586e-05  2.455745669500195e-19
 6.877781896290015e-03 -1.942279217156831e-05  2.407813209190550e-19
 6.892115097763674e-03 -9.764764868414428e-05  2.364779645214179e-19
6.852241507167096e-03 4.524380366775913e-04 2.136677633690130e-19
 6.781571892265389e-03 -2.745683824867059e-04  2.299112356688193e-19
6.800717330488731e-03 1.182398857855201e-03 2.197265152527583e-19
 6.979256843131707e-03 -3.307540777322012e-04  2.151581943454142e-19
6.883636934164238e-03 3.891100747477059e-04 1.870406126860436e-19
 6.887063536821910e-03 -2.678686869349370e-04  1.783590422566519e-19
7.017251622216395e-03 2.085061951288508e-04 1.552971787751633e-19
6.820511767053482e-03 2.776889639617246e-04 1.199784409777891e-19
6.656488704193450e-03 2.710109614969464e-04 9.041111860106591e-20
6.432762256037226e-03 1.397761346020463e-04 5.789941811420114e-20
 6.727117284387909e-03  2.301261109416178e-03 -6.954667426898430e-20
 6.791446805503670e-03 -6.976938188110734e-04  6.816578059617485e-20
 6.665256098923741e-03  9.335159218251011e-04 -8.603620011354746e-20
 6.128903596880134e-03 -3.121542574234129e-03  9.386002281488376e-20
 6.562903631763294e-03  2.165348568121472e-04 -1.743102571868133e-19
 6.711522447369584e-03 -3.111416654353438e-04 -2.070227561394103e-19
 6.833059688926999e-03 -3.167760501888975e-04 -2.834768002394793e-19
 7.103586290218575e-03 -3.751963266427464e-04 -4.337292394189428e-19
 7.118952557074307e-03  1.537723404543928e-03 -8.737205285323045e-19
 7.481714082055462e-03 -5.963775072647441e-04 -6.918016224523425e-19
 7.368730812974382e-03 -5.873714586991082e-04 -9.172564984652509e-19
 6.365754655669795e-03  3.047187251330868e-03 -2.034430428959158e-18
 6.289992070281736e-03  1.704580115662162e-04 -1.939025677803034e-18
 6.202151472181392e-03  1.444192283486057e-03 -3.083911757751863e-18
 6.177285413684070e-03 -9.336726666183306e-04 -2.722974757928241e-18
 6.655519477858225e-03 -1.861372182837502e-04 -4.629988139013379e-18
 6.869076803295619e-03 -1.921098499668637e-04 -6.663469934830517e-18
 6.905946792330237e-03 -1.931410057196020e-04 -9.857201969426262e-18
 6.938798909615536e-03 -1.858017759031443e-04 -1.452752751910141e-17
 6.983364309002241e-03 -5.078949154652093e-05 -2.181493158214268e-17
 6.869909531975239e-03 -4.806762544314513e-04 -2.675035847159158e-17
 6.966085529304371e-03  7.086081194099706e-05 -3.458217071673708e-17
 6.942316571081669e-03 -2.844509636307900e-04 -4.549232594296473e-17
 6.936091981902473e-03  9.779108505631327e-05 -6.486778831731120e-17
 6.899812845058285e-03 -5.522447964865526e-04 -8.355190914932989e-17
 6.860794166959007e-03  8.706132298391273e-05 -1.186293543862728e-16
 6.849438523561244e-03 -5.369220547658313e-05  2.512446890507327e-16
 6.850100294195799e-03 -3.813368063800000e-05 -6.513460017523083e-15
 6.888258623628346e-03 -2.812721431765953e-05  1.943620688805220e-16
 6.888095626642477e-03 -2.812654874288873e-05 -1.261221660726044e-16
 6.887007383327093e-03 -3.833913794713174e-05 -6.545115846210394e-15
 6.889514700387861e-03 -3.105301257127975e-05 -8.216373155256517e-17
 6.880506132631349e-03 -2.285421510115606e-05 -6.467285764128859e-17
 6.885792075524335e-03 -1.884548512199562e-05 -4.624460361897368e-17
 6.881414092408591e-03 -2.128493950019802e-05 -2.772915017672856e-17
 6.881212553375660e-03 -2.128431611871491e-05 -1.735042685127733e-17
 6.883971457187039e-03 -2.199167366782447e-05 -1.087594621887539e-17
 6.889694806379823e-03 -2.200995759426396e-05 -6.893852760934374e-18
 6.889036351314783e-03 -2.200785408047031e-05 -4.518955156551961e-18
 6.901937202245976e-03  3.343060252013331e-05 -3.216532103202470e-18
 6.916612404466826e-03 -1.296653074610997e-04 -2.152166173142226e-18
 6.995362230317014e-03  1.940002426803203e-04 -1.689254283344223e-18
 6.937113558995560e-03 -3.126157763066240e-04 -1.340447756005968e-18
 6.924537002949235e-03  3.286772607123679e-04 -1.063571539734792e-18
 6.905843107949714e-03 -2.357121645643473e-04 -7.732455512045069e-19
 6.879268076727347e-03  5.402476391316370e-04 -6.167094584263084e-19
 6.890354307358178e-03 -1.308508831228745e-04 -4.587340187722771e-19
 6.844755211519870e-03  7.368584197209111e-04 -3.695159476737597e-19
 6.975154174018475e-03 -1.007835726946437e-04 -2.866337467479883e-19
 6.901000665028650e-03  1.308355168296910e-04 -1.959498972348702e-19
 6.878948290290066e-03  1.304174276298355e-04 -1.135437492704314e-19
 6.826653748300065e-03  1.294259796122593e-04 -4.918259422346174e-20
 6.764498626269559e-03  2.825422979843699e-04 -8.554820916574718e-21
6.593961987845251e-03 5.127702521828099e-05 1.757798036315424e-20
6.508648373419047e-03 4.603258379615403e-04 3.496229062689469e-20
7.420895477360992e-03 1.031019745506618e-03 7.423464428466624e-20
 6.416398990495703e-03 -7.140099778708230e-04  8.647328270616206e-20
6.568348386245895e-03 1.282000240220642e-03 7.511685807620014e-20
 6.976853535991681e-03 -7.277104580576191e-04  1.368178814885915e-19
6.971672043784149e-03 4.982199224261332e-04 1.435187331084277e-19
 6.663706039092086e-03 -1.179197283053312e-03  1.809979146415030e-19
6.690499744004388e-03 7.111626111348165e-04 1.556183411342185e-19
 6.830341408117404e-03 -4.285757315004048e-04  1.885434126361191e-19
6.838453158697389e-03 5.034137978731788e-04 1.869895806739485e-19
 6.922407365688352e-03 -3.442503959714413e-04  2.080260130826406e-19
6.771394900202648e-03 1.556062023133999e-04 2.056777612493018e-19
6.786680546565688e-03 3.440499036899392e-05 2.130651168914894e-19
6.755119341988703e-03 3.424499124540847e-05 2.184728243767681e-19
 6.729706631968847e-03 -5.406069447436402e-04  2.298545718230965e-19
 6.690717953085907e-03 -1.487961619647794e-05  2.247086951607759e-19
 6.705119867808134e-03 -2.922997109373189e-05  2.301982144306739e-19
 6.688638305704639e-03 -2.915812217926616e-05  2.340843363930482e-19
 6.675799590929332e-03 -3.115406906125222e-05  2.375907439652235e-19
 6.690019896648769e-03 -1.345817276934649e-05  2.415200030524001e-19
 6.708636727565837e-03 -2.724926640348870e-05  2.576953822441824e-19
6.732496633248473e-03 2.511846223996020e-05 2.139773183412077e-19
 6.762340580950454e-03 -6.470460972826171e-06  1.462163171432874e-19
 6.767636946706980e-03 -2.585893478492826e-05 -4.307931171337779e-19
6.820176276558139e-03 5.278453766258419e-05 4.085499086933346e-19
 6.768390513107268e-03 -2.668709945449023e-04  3.110593316294389e-19
6.788808407354349e-03 1.013699794530911e-04 2.532426037895607e-19
 6.816972522815762e-03 -7.432875462543514e-05  2.655884095957108e-19
6.870988288761603e-03 2.215089248018831e-04 2.674953649292407e-19
 6.874550892639037e-03 -1.420689877534427e-04  2.699725084009710e-19
6.865736036724913e-03 1.107707825801250e-04 2.697247629081503e-19
 6.858605207058815e-03 -1.954241756608430e-04  2.746214588159774e-19
6.834003172671680e-03 1.067073513871382e-04 2.724906507205682e-19
 6.831716090307007e-03 -8.303925646024459e-05  2.744619952802964e-19
6.830481401103012e-03 1.666297768088095e-04 2.743992183198809e-19
 6.861536737096651e-03 -4.380519670960603e-05  2.771958230609986e-19
6.823330018770787e-03 8.838811171832819e-05 2.769119002073587e-19
6.840065803909871e-03 3.589685216021229e-05 2.787367736910741e-19
6.811793786203287e-03 3.574847983910042e-05 2.793483635593623e-19
6.912259368561993e-03 2.459458025810512e-04 2.820254388901322e-19
 6.794108454576086e-03 -3.272861648435292e-04  2.827741909303546e-19
6.823041864405540e-03 2.466953107302464e-04 2.794690143857210e-19
 6.794663725235782e-03 -3.195913773300473e-04  2.839567279747505e-19
6.895468717768794e-03 3.948315002722035e-04 2.834592566615069e-19
 6.643545183664452e-03 -1.698541968958715e-03  2.429278984988086e-19
6.811298784845121e-03 3.737435326488371e-04 4.067905146383337e-19
 6.492659951669132e-03 -9.561736389407445e-04 -4.165491890049915e-19
6.646737209268195e-03 8.027228812158612e-04 1.308402826710645e-19
 6.753125651704054e-03 -3.265449837122698e-04  2.265755686082052e-19
6.835474093859953e-03 1.227912894806542e-03 2.749181308150986e-19
 6.921066407732672e-03 -6.397680117426207e-04  2.928580745539597e-19
6.769752615672414e-03 7.137452324139394e-04 2.876545028182070e-19
 6.673803123765647e-03 -5.069145398823330e-04  2.816378051040327e-19
6.549974283884704e-03 1.095998158204576e-03 2.749613069052524e-19
 6.761674427934582e-03 -1.561810669853986e-04  2.873009407799273e-19
6.642681636576158e-03 1.090892603720023e-03 2.916990450029399e-19
 6.738904001384671e-03 -1.148848573739643e-04  2.872311691564019e-19
6.476683941879884e-03 8.620056457726812e-04 2.805514179929150e-19
6.568512447671710e-03 1.886020378938530e-04 2.786679878747416e-19
6.112512941076699e-03 5.142886066985141e-04 2.557612616202969e-19
6.939001622687489e-03 1.840442507778555e-03 2.736744947728305e-19
 6.040550075705673e-03 -1.244811720497282e-03  2.492456816455150e-19
6.163827487646942e-03 6.827599101397121e-04 2.625099581181051e-19
 6.281602009519932e-03 -1.348313196915440e-03  2.956109341499913e-19
6.489927128785127e-03 5.780983738957459e-04 2.793935312339121e-19
 6.482833703100542e-03 -1.387631587610053e-03  2.929232550483996e-19
6.587259557858043e-03 4.976588892015546e-04 2.816861592375018e-19
 6.608677417538900e-03 -1.008292986431013e-03  2.734424827224761e-19
6.629269442687386e-03 5.744907604565234e-04 2.909950436135186e-19
 6.957360191465564e-03 -8.214707499394660e-04  2.949829533758985e-19
 6.668697252653004e-03 -2.684743646756254e-05  2.908080791316815e-19
 6.823096572150210e-03 -2.746903102550819e-05  2.954100432561005e-19
 6.845573370471835e-03 -1.620953621448830e-04  2.982164003969077e-19
6.844287473714517e-03 1.257756005462724e-04 2.987872433232363e-19
 6.747587788596922e-03 -2.673448165608059e-04  2.948543108818542e-19
6.823924006841530e-03 5.926886888164836e-04 2.951870424080151e-19
 6.824139600265355e-03 -2.685565849721363e-04  2.988583348590348e-19
6.766393280036026e-03 7.023244405657646e-04 2.970657840698637e-19
 6.800192941211628e-03 -1.951097355636015e-04  2.954075270325689e-19
6.623997140136928e-03 6.573429759207097e-04 2.908916902100784e-19
6.680051892360673e-03 6.342005274741795e-05 2.935417948028527e-19
6.425683259314222e-03 4.574358193331503e-04 2.776060257001713e-19
6.507298768678437e-03 3.074282675891213e-04 2.768536285656707e-19
6.327606920418897e-03 1.990943424174231e-04 2.811724434733502e-19
6.632103819468336e-03 1.324300885042191e-03 2.767725798834946e-19
 6.367295962216599e-03 -3.878862215946066e-04  2.830645484134755e-19
 6.505555446327090e-03 -1.670979579756915e-05  2.891192405141304e-19
 6.602191389074948e-03 -3.015264650677752e-04  2.947715885284746e-19
6.630396300582361e-03 7.689395880183107e-05 2.929168647469662e-19
 6.696947033201913e-03 -1.950633784265617e-04  2.971079582855862e-19
6.696751981667649e-03 7.350893874587811e-05 2.959518936016076e-19
 6.691883276098848e-03 -1.358977653943535e-04  2.985992710588802e-19
6.658979546153967e-03 2.102101549310351e-04 2.955285686552153e-19
 6.674284309815846e-03 -5.028235955531084e-05  2.958882975758607e-19
6.663404836364368e-03 2.180762611563821e-04 2.929535732815367e-19
 6.671055404857101e-03 -8.315839639290044e-05  2.951578035772450e-19
 6.646920291022887e-03 -2.117908054078658e-05  2.955289509181679e-19
 6.641243465911568e-03 -2.116099247428592e-05  2.954166618143849e-19
6.656797000695065e-03 1.725364301677989e-05 2.958248812257735e-19
 6.601654968364792e-03 -8.802438475974292e-05  2.954977070465046e-19
6.653293269788511e-03 1.694276818190555e-04 2.955922728311594e-19
 6.696359628000405e-03 -1.511956176089289e-04  2.969626133347870e-19
 6.619638362931833e-03 -7.505638370337727e-05  2.969790750234224e-19
 6.629302457505483e-03 -2.175071275239923e-05  2.970731103729856e-19
6.581863602886964e-03 1.187111921480617e-04 2.945771925136752e-19
6.628625953610484e-03 7.799426042882872e-05 2.950944700783806e-19
 6.599059946528182e-03 -9.411329052188430e-04  3.017150829868899e-19
 6.493774117013659e-03 -8.361712668526012e-05  2.925771983643397e-19
6.613127345352394e-03 5.158083426629685e-06 2.961503032066136e-19
 6.522564345053806e-03 -4.959079403032865e-04  2.961591747533434e-19
6.596153667098802e-03 3.995520147945038e-06 2.949348373739639e-19
 6.576727530195601e-03 -6.337961697688766e-04  3.022115453831507e-19
6.643990931431393e-03 2.084190167407087e-05 2.985653980206993e-19
 6.713604228898407e-03 -5.035392659264695e-04  3.063780901063892e-19
 6.663306219851005e-03 -7.153198697346094e-05  3.004191022292108e-19
 6.769112453595212e-03 -2.188658482804041e-04  3.030803375678557e-19
 6.760641008043148e-03 -1.389690279754432e-04  3.034330411076723e-19
 6.752825981415260e-03 -1.388083854190957e-04  3.030762249341451e-19
6.866965193305066e-03 2.999437558047740e-05 3.070675704709650e-19
 6.809382674388470e-03 -3.141475822453117e-04  3.070935917348456e-19
6.832468550237961e-03 2.434097936068601e-05 3.070866348817821e-19
 6.762465050989545e-03 -3.651422254138593e-04  3.059134120391432e-19
6.889497590080074e-03 4.669624131824521e-04 3.087189113260729e-19
 6.821390053279454e-03 -5.175181701651651e-04  3.096094974347234e-19
6.820703293824101e-03 5.573578780472097e-04 3.037565720181273e-19
 6.859944976659328e-03 -4.070398987090900e-04  3.106573198359968e-19
6.951893333922991e-03 6.773794755474210e-04 3.135562078627839e-19
 6.832083225837595e-03 -6.856216815111947e-04  3.105482303906967e-19
6.781119279691362e-03 6.880841696827709e-04 3.033776211775207e-19
 6.895861685435309e-03 -5.027615762188089e-04  3.130895165496516e-19
7.101587698383007e-03 6.423165990215175e-04 3.184702769723653e-19
 6.951912054311425e-03 -9.486147072338832e-04  3.163633110136139e-19
6.803374686781543e-03 5.712317703246485e-04 3.121582387002560e-19
 7.043351272935365e-03 -1.515497166945007e-04  3.170738650282753e-19
6.866146080862524e-03 4.795126094607653e-05 3.101920934082518e-19
 6.967133073617013e-03 -3.233583450947612e-04  3.169662693056737e-19
7.053719481325613e-03 1.152086775847329e-04 3.180706389614903e-19
6.970999403431710e-03 8.987362876070658e-05 3.142440568655859e-19
 6.857717684299531e-03 -6.981968665555888e-06  3.118298738671967e-19
6.911768205882364e-03 2.851358754829404e-04 3.129822901210949e-19
 6.906171750930004e-03 -2.177481532321770e-04  3.138686263839330e-19
6.871261010732712e-03 4.697912877689694e-04 3.118866999893950e-19
 6.802226563777409e-03 -1.620455516751199e-04  3.090594713949323e-19
6.815987765717972e-03 4.797839441157318e-04 3.081584654723182e-19
 6.877840987689136e-03 -2.129242886712793e-04  3.140865901760225e-19
6.941653677582310e-03 5.070713421982739e-04 3.105933018970479e-19
 7.091673643623223e-03 -2.432344607467338e-04  3.206115282659046e-19
 7.094150287514093e-03 -1.404068234513706e-05  3.221616131244217e-19
 7.053311568738364e-03 -7.254048001986867e-05  3.210209669194502e-19
 6.951871906064100e-03 -7.149721378219687e-05  3.176972026606806e-19
6.948784137265570e-03 1.102273064411368e-04 3.143484679417154e-19
 6.721288749654283e-03 -6.035804477516934e-04  3.112435512751822e-19
6.901104280908544e-03 6.499653156173978e-04 3.141767331301133e-19
 6.851869420461646e-03 -8.340654439112688e-04  3.127715071209867e-19
6.762215868020822e-03 6.275170192808976e-04 3.054615269332546e-19
 6.562067446956091e-03 -1.196763094857571e-03  3.130858136176804e-19
6.907901599559206e-03 1.244914625550969e-03 3.092004507164950e-19
 5.802755671932553e-03 -3.475007168464739e-03  3.263669643892415e-19
6.330560498216320e-03 9.973441073768794e-04 2.817090755732521e-19
 6.613736951509606e-03 -1.361705334246138e-03  2.998845988420810e-19
6.784099815542202e-03 4.726517909001237e-04 3.073674764263736e-19
 6.583103767683603e-03 -5.396512450783632e-04  2.986709179253859e-19
6.602108595997322e-03 4.990610091736127e-05 3.027566207450783e-19
6.478735439823396e-03 4.897350898964862e-05 2.949007744124867e-19
 6.834535528277787e-03 -1.594684573179525e-04  3.047500258719683e-19
 6.405402302587382e-03 -5.046755520189592e-04  2.954609618125924e-19
6.446116283596803e-03 1.678664735715629e-04 2.972921597770823e-19
 6.623401003537129e-03 -2.931745076129895e-04  3.039288537710744e-19
6.624166033278278e-03 8.735828927104644e-06 3.019897867709767e-19
 6.721346599289070e-03 -1.660674011960689e-04  3.027097973431968e-19
 6.775921034344795e-03 -3.792751895481172e-05  3.074115481085079e-19
 6.805676689189225e-03 -3.809407316307428e-05  3.084316519922206e-19
 6.806057206017020e-03 -5.906784770572305e-05  3.099742811469713e-19
6.832114528576567e-03 5.574502856464422e-05 3.107709058595923e-19
-6.575293953189805e-03  1.001752863029454e-03 -3.096518365671578e-19
-6.757643648785799e-03 -4.433852880737492e-04 -3.072812906925870e-19
-6.820623835581514e-03 -4.353854123631287e-05 -3.104234933782507e-19
-6.639118877154899e-03  2.451387047450450e-04 -3.053368066766139e-19
-6.694609874146040e-03  7.746698315633744e-05 -3.072904734551608e-19
-6.632133528107360e-03  7.674403527181036e-05 -3.053873910651457e-19
-6.657903685149181e-03  2.244179100927895e-04 -3.056531967514726e-19
-6.659858320488255e-03  7.213599275913290e-05 -3.064581859428498e-19
-6.653126917699646e-03  2.356848592490262e-04 -3.057200975276538e-19
-6.722440193324054e-03  1.829212324682239e-04 -3.107993392422164e-19
-6.765021920537659e-03  2.663498825730182e-04 -3.103474709507769e-19
-6.798870245294423e-03  2.676825460041431e-04 -3.119667819004322e-19
-6.818676138997486e-03  2.671767398325733e-04 -3.140777601600267e-19
-6.834537869351723e-03  2.652269307277814e-04 -3.142895007088730e-19
-6.837533146019082e-03  2.429148888784368e-04 -3.156243094264292e-19
-6.842820655586753e-03  2.566381372714747e-04 -3.155062460218121e-19
-6.836475513188061e-03  8.838765357128933e-05 -3.146275493841963e-19
-6.817030091718957e-03  2.347470225651946e-04 -3.148670262547263e-19
-6.831949570272489e-03  1.797147517592287e-04 -3.134896213469520e-19
-6.802342614495343e-03  1.669429229504724e-04 -3.129643909892229e-19
-6.831907822612436e-03  1.676685115514037e-04 -3.138905665485482e-19
-6.775592105156934e-03 -1.047643826860370e-04 -3.116062445577465e-19
-6.768060449626081e-03  2.656634113757788e-04 -3.132670032566227e-19
-6.717913922254536e-03  5.961743719259837e-06 -3.091043483769432e-19
-6.965758802907784e-03  8.401754907620232e-04 -3.202097836236115e-19
-6.803483128022730e-03 -4.463407073718086e-04 -3.087495588476390e-19
-6.876419706296922e-03  4.088942302712295e-04 -3.156329068497223e-19
-6.822943107789327e-03 -9.486536188240517e-04 -3.146614878758101e-19
-6.834361315857050e-03  3.198889235905707e-04 -3.301826013562091e-19
-6.494347704870816e-03 -1.081971400538599e-03 -2.833181430678637e-19
-6.664149254451417e-03  1.107671523870342e-03 -1.434227681001274e-19
-6.907227900373856e-03 -7.401143248554047e-04  6.147971850338737e-19
-6.888920412807747e-03  8.933307687743595e-04 -2.887953144194110e-21
-6.908390701521766e-03 -8.282319597777772e-04 -3.636285757027376e-19
-7.231727162381474e-03  9.140872425848293e-04 -3.662613268118004e-19
-6.465867282391361e-03 -1.942709897216348e-03 -3.030754623399343e-19
-5.864806784456817e-03  2.164186493410203e-03 -2.849453859582151e-19
-7.341314100805888e-03 -1.419898934651885e-04 -3.288823994044707e-19
-6.975166514960471e-03  2.243783811860347e-04 -3.178643538377346e-19
-6.965721452319294e-03 -1.087181094610707e-04 -3.163025767729586e-19
-6.887548370888988e-03  1.136968566807875e-06 -3.154117113033491e-19
-6.900567360573179e-03  1.139117688853258e-06 -3.152106217931608e-19
-6.910642525814074e-03 -1.161972458117495e-04 -3.154118618196053e-19
-6.968419528155115e-03  6.567434213897467e-05 -3.172652233905730e-19
-6.940193593957436e-03 -3.205442030437023e-04 -3.163363828860254e-19
-7.045025172331754e-03  1.041195269608641e-04 -3.211661152352277e-19
-7.043016657975518e-03 -5.563621661557255e-04 -3.173684263966446e-19
-6.624454831765718e-03  1.776788331223449e-03 -3.060621396253853e-19
-6.872582552276809e-03 -2.784220772627543e-04 -3.170131330101149e-19
-7.014397428310701e-03  4.596731865489047e-04 -3.215506066210361e-19
-7.095603273522752e-03 -1.385049646924797e-04 -3.223794940134722e-19
-6.944608402915903e-03  1.724317550784639e-04 -3.152225267776875e-19
-6.953389279805589e-03  4.427220724901727e-06 -3.160006633783817e-19
-6.910884304054584e-03  4.400157820469955e-06 -3.145297628016784e-19
-6.911575302959460e-03 -5.775558457862035e-05 -3.144794342299858e-19
-6.945828788452704e-03  1.988037152057365e-05 -3.154392006929954e-19
-6.978222042332657e-03 -1.007434446651039e-04 -3.147090030353734e-19
-7.022316764163130e-03 -1.309795920078286e-04 -3.189303332270768e-19
-7.019026157207128e-03 -9.755817349468654e-05 -3.181965743483373e-19
-6.918284288387874e-03 -3.017021703931659e-04 -3.142334567936872e-19
-7.047683712643706e-03  1.167745445646724e-04 -3.202040586087876e-19
-6.694376599984205e-03 -3.393494733174933e-04 -3.079611799891158e-19
-6.904153570235356e-03  7.929139058882559e-04 -3.099200203319264e-19
-7.038602406184649e-03 -1.977746793335629e-04 -3.157814035575188e-19
-6.671841601781980e-03 -6.920029565077657e-04 -3.050040356559085e-19
-6.896872845632118e-03  1.534890216430646e-04 -3.154404004553153e-19
-6.963216471232186e-03  1.549654905317228e-04 -3.153754779696660e-19
-6.955496210900149e-03  1.021655273125208e-05 -3.144653665789611e-19
-6.946178664637707e-03  1.020286669076989e-05 -3.167611558405891e-19
-6.203935234854629e-03  2.982635070433017e-04 -2.959702782091826e-19
-7.980714822145255e-03  3.451430523774374e-03 -3.008771434430869e-19
-1.907068399037125e-03 -7.867914976639854e-03 -1.410382645931101e-19
-6.269602866705605e-03  4.510961481121287e-04 -3.000207886397629e-19
-7.217462470102042e-03 -6.238812789157856e-04 -3.175482676666058e-19
-7.043616483270933e-03  3.700539203642912e-04 -3.257140082338460e-19
-7.183942380838539e-03  7.927771450923228e-05 -3.211334797538763e-19
-7.047959320934197e-03  7.777708635414821e-05 -3.157051134044990e-19
-6.994474673562654e-03 -6.655206262063724e-05 -3.158184008495873e-19
-6.916328649980549e-03  3.976788007890314e-04 -3.123038866450073e-19
-6.860719212380059e-03 -2.466886725786791e-06 -3.082312272048187e-19
-6.889410445642992e-03 -1.280495381700866e-04 -3.094891078048895e-19
-6.915334337820089e-03 -5.945976863945434e-06 -3.109892777542282e-19
-6.937911762408677e-03 -2.465251853542156e-05 -3.115472953439528e-19
-6.925761537553928e-03  4.112760283673681e-05 -3.112176747747548e-19
-6.915585302419324e-03  3.160936225906352e-05 -3.100636421766780e-19
-6.900057127724426e-03  3.153838696518908e-05 -3.090669393034543e-19
-6.905052272057819e-03 -1.638763544712548e-05 -3.086621557998877e-19
-6.940165963229944e-03  7.428869674259738e-05 -3.094824033753493e-19
-6.924604851249932e-03 -1.140148772313042e-04 -3.091913039301622e-19
-6.975503134081107e-03  1.177254438984655e-04 -3.109788543222090e-19
-6.960872179782670e-03 -2.206771712320000e-04 -3.071330054221863e-19
-6.892990743538924e-03  3.788700237014700e-04 -3.112274004149097e-19
-6.983331012406252e-03 -4.473646195215627e-05 -3.109159815535171e-19
-6.992931088069828e-03  2.525734015600714e-04 -3.123757296764198e-19
-6.955247298224500e-03 -8.046058573860020e-06 -3.090034462601879e-19
-6.820789351191355e-03  3.022175241097101e-04 -3.062472111784780e-19
-6.708083202750748e-03  2.972237072096598e-04 -2.991880050629615e-19
-6.612457432218454e-03 -6.001164282391010e-05 -2.943972773532906e-19
-6.657099722926926e-03  4.068467657787273e-04 -2.960177866642267e-19
-6.712218432317412e-03 -4.148218749029006e-04 -2.884582436962145e-19
-6.623839197661992e-03 -1.477017125996943e-05 -2.933706048683446e-19
-6.638801127312893e-03 -4.137851886319321e-04 -2.923100636234608e-19
-6.814068609523011e-03  2.465757690955421e-04 -3.006807945456502e-19
-6.900360915082851e-03 -6.089808070734464e-04 -3.031010139612967e-19
-6.837260476851134e-03 -1.168165937692928e-05 -3.015071278777007e-19
-6.910995514001840e-03 -1.180763784316675e-05 -3.024686243382959e-19
-6.884632875916909e-03 -2.477145370470110e-05 -3.007244471122659e-19
-6.859747193470116e-03  2.175432663681240e-05 -2.992705125726581e-19
-6.870009297462093e-03 -3.381673413793555e-05 -2.982092200575789e-19
-6.888178945627741e-03  6.126029036122219e-05 -2.993615439459739e-19
-6.900941365523792e-03 -8.617826133236685e-06 -2.990299383214984e-19
-6.881085663917185e-03  2.674071161477619e-05 -2.978652348781422e-19
-6.897252004992888e-03  2.680353592560237e-05 -2.975950491797028e-19
-6.914831820376162e-03 -6.477271307174043e-05 -2.984982543913855e-19
-6.903532937899018e-03  4.831382715560928e-05 -2.975715948231550e-19
-6.897383624039023e-03  8.650271904190695e-05 -2.971986526470324e-19
-6.860137271673663e-03  8.603559832924032e-05 -2.942235837065416e-19
-6.902589101787197e-03 -1.211474637234788e-04 -2.926033563247200e-19
-6.923679836999426e-03 -6.708530136783725e-05 -2.945466217740362e-19
-6.913063691496564e-03  3.550909784371464e-04 -2.944460692809361e-19
-6.860721941770395e-03 -8.148967648192673e-05 -2.893708832644366e-19
-6.865746988706887e-03  3.334956023840087e-04 -2.924001380346638e-19
-6.842613553685468e-03 -1.804731600183934e-04 -2.866271922155157e-19
-6.841244200815755e-03  2.326486215859737e-04 -2.853738895058731e-19
-6.833850048233759e-03 -2.791094511721376e-04 -2.820292785404260e-19
-6.703374759110499e-03  2.750150792850425e-04 -2.826250382759346e-19
-6.629238013732473e-03 -4.182154169698398e-04 -2.671100033847737e-19
-6.807278175595361e-03  3.146036775141761e-05 -2.800630170946591e-19
-7.084329690178103e-03 -4.783551013019675e-04 -2.813692068410798e-19
-7.263255994597205e-03 -9.768821323931120e-04 -3.072151162861902e-19
-6.832830739366268e-03  3.039323115848728e-03 -2.585554616409715e-19
-7.123732850128453e-03 -2.844800508450412e-03 -2.383928123227854e-19
-6.227386671529991e-03  4.926880100270162e-04 -2.540963864234852e-19
-6.806585596350757e-03  4.131572279814320e-05 -2.692785925863227e-19
-6.678131121390280e-03  4.053600888659063e-05 -2.623984143481204e-19
-6.693639969715926e-03 -1.060309754535389e-04 -2.583820543832060e-19
-6.787778348490175e-03 -5.979917832501763e-04 -2.525278118996627e-19
-6.838177480438285e-03 -1.385175177758953e-04 -2.601175053707194e-19
-6.935507545278027e-03  3.155074166600345e-04 -2.645877232320866e-19
-6.951147574932474e-03 -1.759219980421989e-04 -2.596717836797005e-19
-6.920778641589766e-03 -2.554450761746237e-05 -2.565883919105684e-19
-6.895702678796305e-03 -4.533332597028681e-07 -2.513412874404713e-19
-6.868005823896623e-03 -4.515124292378600e-07 -2.461193332397372e-19
-6.881198889258416e-03 -7.452204868354465e-05 -2.408501974218144e-19
-6.876572703587197e-03 -2.109359638658396e-04 -2.361222329627402e-19
-6.946509308147359e-03  2.425014019162893e-04 -2.344782267110103e-19
-6.877665482509571e-03 -3.193140828578343e-04 -2.185415771830205e-19
-6.852334470977641e-03  5.422916589452059e-04 -2.328684828608154e-19
-6.900009601974153e-03 -4.029872081319316e-04 -2.102470069265125e-19
-6.734955474454760e-03  1.225993520727876e-03 -2.295423989516083e-19
-7.108736741115970e-03 -5.951528944996984e-05 -2.055235380327127e-19
-6.960552330163590e-03  3.288053294305945e-04 -2.038527045525889e-19
-6.997085934163164e-03  1.468034284699860e-04 -1.856777882998191e-19
-6.945065307797485e-03  1.457120017855786e-04 -1.720284229607510e-19
-6.859498225846561e-03 -9.856192407126495e-05 -1.560202655632530e-19
-6.933053310054776e-03  4.485109807131921e-04 -1.489574436390972e-19
-6.704095401066615e-03 -4.831948954182605e-04 -1.173723783397318e-19
-6.694618871518574e-03  8.123865529189599e-04 -1.236683914999196e-19
-6.800309951524041e-03 -2.313300155897624e-04 -9.416731294493872e-20
-6.793138338433074e-03  1.048439549798166e-03 -1.118279486280518e-19
-6.848503766511041e-03 -3.383815223576662e-04 -5.772705987058643e-20
-6.732393275056292e-03  6.774167874410863e-04 -4.535264429886767e-20
-6.717686021421926e-03 -2.615552839694761e-04  4.269921501080216e-21
-6.454124581834583e-03  2.337208867604335e-03 -5.634416131784714e-20
-6.953338104573339e-03 -3.312633494955462e-04  4.277467176656282e-20
-6.849805909327189e-03  5.229281510608538e-04  9.582603613284901e-20
-6.862797499700720e-03 -3.385691519668128e-04  1.704436970160167e-19
-6.881547687750668e-03  3.972035643810680e-04  2.600068255277706e-19
-6.472681209226679e-03 -9.864606163882072e-04  4.081913888174922e-19
-6.629829067686416e-03  8.541513689674349e-04  3.882933787786742e-19
-6.735363440722016e-03 -6.066975116226934e-04  5.646854275814400e-19
-6.627190451715313e-03  1.056960479129079e-03  6.278952316874519e-19
-6.784745098340517e-03 -4.882283275640274e-04  8.093726200912168e-19
-6.747296465463595e-03  9.191670148910528e-04  1.278101507161024e-18
-6.668698288491414e-03 -8.728070283557764e-04  1.772007983093476e-18
-6.477649119658336e-03  6.086443607228367e-04  2.346749733021357e-18
-6.525705462534183e-03 -5.594882068843889e-04  3.452227292618356e-18
-5.849858455075459e-03 -1.662282725757266e-03  4.408173277561932e-18
-6.468225080209160e-03  2.534958342614970e-04  5.022257393608495e-18
-6.779709674419448e-03 -1.295029948341370e-04  6.797078890189916e-18
-6.729604667061049e-03 -1.285459112980112e-04  9.851956542982698e-18
-6.755775540056768e-03 -1.484382058891411e-04  1.348412438998494e-17
-6.791253536379521e-03 -1.050525632293597e-04  2.013296210627507e-17
-6.784261382245807e-03 -2.883832777699585e-04  2.698027507741173e-17
-6.810353831682532e-03 -8.991676328992876e-05  3.850226417810743e-17
-6.835373841440691e-03 -1.360948117460183e-04  7.275795944655330e-17
-6.831656292187962e-03 -4.711384388902888e-05  1.349922316163192e-16
-6.878523391649930e-03 -4.743705821848915e-05  1.341924995969732e-16
-6.821578239344366e-03 -6.263574000689934e-04 -1.287603557613844e-15
-6.860197865771869e-03 -2.526805124731096e-05  6.237294309450363e-15
-6.838814386455714e-03 -6.412159193392610e-05  6.666092932457561e-18
-6.868050329569013e-03 -2.529697409551154e-05  6.521092221530340e-15
-6.835739412811881e-03 -1.321405096088246e-04  1.383578882885173e-16
-6.920477394784097e-03  2.308529262341623e-04  8.809286944606761e-17
-6.910040147114695e-03 -2.466461802818895e-04  6.900668143546304e-17
-6.863008921994448e-03  4.580266456592323e-05  4.419178282550275e-17
-6.860395510294420e-03 -2.705812088533748e-04  3.226957746423699e-17
-6.823415651066218e-03  1.394192677987284e-05  2.432798614092317e-17
-6.875945166067972e-03 -9.995244263351447e-05  1.550642647128798e-17
-6.864232255954938e-03 -3.426598599465175e-05  9.607679564643494e-18
-6.856586160686949e-03  3.375366529558318e-05  6.657813047230726e-18
-6.863072771613604e-03 -2.358491622780850e-04  4.724129832561732e-18
-6.961893313036826e-03  6.769602890148576e-05  3.383759625437883e-18
-6.847431856660511e-03 -4.718054228204577e-04  3.093990974068940e-18
-6.968812547225088e-03  2.373522710124184e-04  2.322952444455612e-18
-6.940519393319271e-03 -6.347199927146590e-04  2.172362258590711e-18
-7.010757729298973e-03  1.927084928399210e-04  1.521718206034026e-18
-7.021223443498368e-03 -7.572421669274321e-04  1.515351940761502e-18
-7.060614411350040e-03  5.617714180230028e-05  1.044724422228580e-18
-6.984940030269778e-03 -8.758362890391899e-04  1.012960561639554e-18
-7.066852238225793e-03  2.122248815325898e-04  6.726614611004230e-19
-6.996674807681134e-03 -8.013851725593372e-04  6.982958192296180e-19
-6.987630646141587e-03  2.048015265466870e-04  4.627215943666270e-19
-6.990634403262644e-03 -7.161714770425045e-04  4.661405765501173e-19
-6.976139060821225e-03  7.455606565529965e-05  3.009685098383742e-19
-7.109563367338534e-03 -4.907125430682762e-04  2.547218893924530e-19
-7.429720550446410e-03 -3.454382693820624e-04  1.238710032213679e-19
-7.826405925846606e-03 -1.051152787361971e-03  4.726897312657291e-20
-6.384267988551975e-03  1.667522598131140e-04 -1.897784819208325e-22
-7.584476732704158e-03  1.590059198268061e-03 -1.123837992127311e-19
-7.231505518192243e-03 -7.244669046262950e-04 -9.239386747031741e-21
-6.904421153950267e-03  1.327239656994505e-03 -1.258941320532157e-19
-6.749007969587777e-03 -6.436712967249783e-04 -6.281488728632627e-20
-6.462975894297206e-03  1.758947100970624e-03 -1.665454901353656e-19
-6.953523698544273e-03 -4.635773548644555e-04 -8.962522686780627e-20
-6.851090448102747e-03  6.671269997942275e-04 -1.583653627403730e-19
-6.812066771660463e-03 -6.591815109875811e-04 -1.146900660017165e-19
-6.475417995650557e-03  1.317631855994842e-03 -1.846939690031698e-19
-6.977847735297235e-03 -1.841701074638642e-04 -1.605861075158026e-19
-6.940736344367951e-03  4.008821217984111e-04 -1.883080357063538e-19
-7.054530244186786e-03 -1.123670229535318e-04 -1.819725327495387e-19
-6.917548274449779e-03  4.986777886581540e-05 -1.901277652287783e-19
-6.953662555767343e-03  5.012812240418927e-05 -2.004060786666539e-19
-7.004485028597983e-03  1.248395520378430e-04 -2.096086399284351e-19
-6.970460034854646e-03 -1.574204071004516e-05 -2.122234647196828e-19
-6.959587070096950e-03  1.971596561132417e-04 -2.233897140866933e-19
-6.969393867862871e-03  3.087481146527984e-05 -2.233653076597310e-19
-6.934925460550564e-03  1.134635153983795e-04 -2.259111787153713e-19
-6.939047431587468e-03  6.466160594286585e-05 -2.324394198915301e-19
-6.925007367744840e-03  1.018162774522754e-04 -2.384471302381304e-19
-6.924007771394669e-03  1.018015806911133e-04 -2.434331343066479e-19
-6.923493400764922e-03  1.460979159932828e-04 -2.489929042844977e-19
-6.946161455318502e-03  1.408623881719142e-04 -2.500694932684978e-19
-6.934629349634093e-03  1.061973995473445e-04 -2.579133520744278e-19
-6.912190238045615e-03  2.923475337709640e-04 -2.594785475034950e-19
-6.895576893494195e-03  9.493480806057339e-05 -2.632067390326101e-19
-6.873760006358911e-03  2.740240016880528e-04 -2.764624841089951e-19
-6.820506050522108e-03  2.267744146905813e-04 -2.669205523224776e-19
-6.840498676772352e-03  2.274391477884546e-04 -2.694991371783222e-19
-6.747210308655788e-03  1.640207542015159e-05 -2.686308938357803e-19
-6.704557018116936e-03  4.673720802919154e-04 -2.827690647842244e-19
-6.650608739945324e-03  3.344454905435003e-05 -2.689250047069017e-19
-6.678244972719398e-03  1.969124425313777e-04 -2.782958317262775e-19
-6.743559783210178e-03  8.410648351154256e-05 -2.802487197292952e-19
-6.728600849185198e-03  8.391991389870180e-05 -2.812428788826213e-19
-6.756131204493743e-03  1.347454470032465e-04 -2.851883564057321e-19
-6.713499898251094e-03 -8.612249846695783e-05 -2.776544122752538e-19
-6.937777951316903e-03  2.220075546826679e-04 -2.840935375277693e-19
-6.547059834717766e-03 -6.522463774417062e-04 -2.697030234797632e-19
-6.566986512387366e-03  1.124058138336260e-03 -3.119275529655103e-19
-7.005173101671013e-03 -3.921428440005080e-04 -2.807760445925300e-19
-6.682542623872342e-03  1.655645914907748e-04 -2.760005575912385e-19
-6.753109625557742e-03 -5.824721517413511e-04 -2.855418354719397e-19
-6.652411542882764e-03 -9.850388294083145e-05 -2.814895880923293e-19
-6.795954753992162e-03 -1.351265445082589e-04 -2.856002119225327e-19
-6.834840686612038e-03 -1.358997282469851e-04 -2.878441631523044e-19
-6.862515959325810e-03 -1.590971522867808e-04 -2.859309034455428e-19
-6.889686647405871e-03 -1.389204414009858e-04 -2.916053149315101e-19
-6.934208660315405e-03 -1.888718834519339e-04 -2.991277515966303e-19
-6.976405113096236e-03 -9.747969475288644e-05 -2.981929868130947e-19
-6.933073864896456e-03 -2.022659256091393e-04 -2.998018369221237e-19
-6.944674828148211e-03  1.640193663349316e-05 -2.986972664714097e-19
-6.948288410096310e-03 -1.762289248477548e-04 -2.971537900882384e-19
-6.921328592045581e-03 -1.369578173801220e-04 -2.983255210758759e-19
-6.945576413812175e-03 -7.811521731126071e-05 -3.014237070954552e-19
-6.961661873131419e-03 -7.829612658004015e-05 -3.020100794547332e-19
-6.979253945704139e-03 -1.635021628970667e-04 -3.032939678123476e-19
-6.986295414205903e-03  2.349706436735813e-05 -3.043385545880059e-19
-6.959967242216798e-03 -1.010513185819590e-04 -3.040394943005850e-19
-7.217830670924142e-03  2.434210940313606e-04 -3.186748715543139e-19
-6.963285630244008e-03 -7.031177905503013e-04 -2.956119065970548e-19
-6.513815171351589e-03  2.590653701813340e-03 -2.870665448530735e-19
-7.046662555355070e-03 -6.127051334737572e-04 -3.125262055236079e-19
-7.033272650302280e-03  1.124636049334976e-03 -3.231672782059299e-19
-7.146369630896443e-03 -5.015120814485397e-04 -3.163796229605738e-19
-7.045570068742187e-03  7.456180927590800e-04 -3.028870167795532e-19
-7.277994849377079e-03 -3.935838100821103e-04 -3.168521769190436e-19
-6.964395638665641e-03  9.598927355452627e-05 -3.074266135883038e-19
-6.981988922816286e-03  9.623175928518795e-05 -3.074893747032708e-19
-6.973105511916082e-03 -1.967479306271976e-05 -3.076186680707710e-19
-6.993158545070441e-03  6.637068026440591e-05 -3.105846907874212e-19
-6.963778699173568e-03 -3.624350476614808e-05 -3.087655794416930e-19
-6.973681748820819e-03  1.646367961913212e-04 -3.093808711966996e-19
-7.094226352465036e-03 -1.732911849581819e-04 -3.125377838075963e-19
-6.994299124517429e-03 -1.920964603139828e-04 -3.154091286117144e-19
-7.103309144300606e-03  2.690000113205462e-04 -3.171532338694888e-19
-7.139067973768378e-03  2.703541865839665e-04 -3.155752724981401e-19
-7.076447562355292e-03 -8.343874946464510e-05 -3.147918544189886e-19
-7.069065118131374e-03  1.039544135757653e-03 -3.460993770856831e-19
-6.944760380903039e-03 -3.482502286336117e-04 -3.000807912745972e-19
-7.101327570950903e-03  2.921685001191879e-03 -3.275084446004486e-19
-6.471131638183059e-03 -1.910672940687770e-03 -3.148993744929317e-19
-6.005410879043373e-03  2.845816808862911e-03 -2.499971466477825e-19
-5.589481398595607e-03 -1.477035576683026e-03 -2.628242922043404e-19
-4.817955744264417e-03  4.999214828525803e-03 -8.550384312084094e-20
-7.726346227375593e-03 -3.137508898030096e-03 -3.524611695981180e-19
-6.375555936056597e-03 -2.419674346140325e-04 -2.925987491785307e-19
-7.055158058403588e-03 -2.677599433382620e-04 -3.178603504295575e-19
-7.004633017924576e-03 -3.458631128468103e-04 -3.151136890695964e-19
-6.093369972144284e-03  2.057942155610598e-03 -2.826685743052731e-19
-6.139611393554407e-03 -1.541340432490113e-03 -2.820696964052144e-19
-6.698769801502979e-03 -1.681716330424425e-03 -3.145419802655155e-19
-7.826018607220460e-03 -1.605704300101137e-03 -3.660445116186440e-19
-7.098499951053472e-03 -1.952208860276934e-03 -3.214507276937569e-19
-5.875722715882397e-03  1.670431155136134e-03 -3.014977143627694e-19
-7.517103328934417e-03  1.414179078539620e-03 -3.655940345569854e-19
-8.150689896700907e-03  7.784795761348001e-04 -3.633366854069231e-19
-7.676799591502734e-03  4.215797030279173e-04 -3.374205108971875e-19
-7.274891201259171e-03  2.527814988242496e-04 -3.269566156456032e-19
-7.130439678349598e-03  2.477622247954906e-04 -3.220553649333565e-19
-7.057137878198971e-03 -2.902468020417506e-05 -3.212781733985479e-19
-7.106593277055041e-03  2.524135350057027e-04 -3.276131618303086e-19
-7.109773565444174e-03 -2.125595303810497e-04 -3.223303693575813e-19
-7.326732327591053e-03  2.536009070105446e-04 -3.303348486970700e-19
-7.496104539923283e-03 -4.991500191368215e-04 -3.315323689147103e-19
-7.440133613347119e-03  5.846799573970387e-04 -3.450621390545938e-19
-7.243535860608794e-03 -5.340606986614460e-04 -3.377207711030104e-19
-6.414798312109208e-03  1.857979750888531e-03 -3.234684229886330e-19
-7.190302929209673e-03  5.881679199921782e-04 -3.333769450919781e-19
-7.417475347229558e-03  6.632399174207633e-04 -3.317077469228306e-19
-7.308031617947278e-03  3.059710896759273e-04 -3.277467254146557e-19
-7.093393492914469e-03  2.282471847520323e-04 -3.282698111184393e-19
-7.038467887385412e-03  2.264798198306685e-04 -3.274633841513081e-19
-6.920911527661260e-03  2.341395926232689e-04 -3.210624987690511e-19
-7.060400278265590e-03  7.272511994627240e-05 -3.216323764981703e-19
-6.907819107539702e-03 -6.928863979609649e-04 -3.192233431207019e-19
-7.022125407336239e-03  1.897428918020029e-05 -3.226574025845529e-19
-7.090470612571496e-03 -6.966104702991991e-04 -3.138482953014995e-19
-7.078139533473287e-03 -2.427522247565906e-04 -3.233684249956806e-19
-7.079752027650692e-03 -1.286891740984664e-03 -3.130783255892628e-19
-7.187192547387417e-03 -3.320212903470961e-04 -3.281295442570530e-19
-7.184422150431260e-03 -3.318933084172822e-04 -3.267592120117230e-19
-7.085813137101524e-03 -3.332230830129390e-04 -3.214171594727865e-19
-7.016166641438133e-03 -3.749260656927753e-04 -3.194322910491398e-19
-6.983287322521164e-03 -3.731690786777590e-04 -3.177855763392891e-19
-6.958578416677177e-03 -3.718486977163172e-04 -3.163528884443611e-19
-6.926497022576514e-03 -3.701343497700951e-04 -3.144696047159896e-19
-7.061146228629937e-03 -4.108206564607087e-04 -3.214674292853218e-19
-3.307285908910995e-03 -5.934362176488417e-03 -1.216328401621253e-19
-6.900570550733947e-03 -2.185369802456510e-05 -3.193779015868475e-19
-7.230932840570500e-03 -5.177244798780458e-04 -3.244565032023938e-19
-7.399520916326456e-03 -7.081910733057275e-04 -3.352583430276097e-19
-7.121502471298180e-03 -6.815825694296264e-04 -3.349358656635453e-19
-7.118228733008743e-03  4.433557064350006e-03 -2.715359958451937e-19
-4.450938964027594e-03 -6.972815374581508e-03 -2.319994179282619e-19
-7.065951531538370e-03  8.762848915446907e-04 -3.470405626368288e-19
-7.467715050259654e-03  9.261096461949178e-04 -3.302908835631725e-19
-7.537298035895817e-03 -1.164432645664441e-03 -3.333945457017123e-19
-7.450493672304430e-03 -1.151022291679425e-03 -3.448711434866712e-19
-5.536813259655266e-03  2.324685658913809e-03 -3.215797571282924e-19
-7.758460094105862e-03  2.609403172952177e-03 -3.401153606844885e-19
-7.248037667242787e-03 -1.183615085231581e-03 -3.236022593630449e-19
-6.711159354665283e-03  1.493074180075464e-03 -3.174955161296764e-19
-6.991109729186542e-03 -3.567808567692831e-04 -3.146742277763644e-19
-6.528710803795738e-03  7.088321666520029e-04 -3.042730814194481e-19
-6.956074628918403e-03 -2.341074909539128e-04 -3.154772726140448e-19
-6.632275426335503e-03 -7.355647374055903e-07 -3.085704767315529e-19
-6.809705342506646e-03  4.853459497754093e-04 -3.151037955569820e-19
-6.729907091227340e-03 -9.271537947678908e-04 -3.091051053191991e-19
-6.642488314935473e-03  3.077144521816452e-04 -3.092288735666932e-19
-6.744803414790222e-03 -3.147264643355005e-04 -3.099045600322929e-19
-6.739233788271359e-03  2.364279798682786e-04 -3.106224227156022e-19
-6.793989254459238e-03 -2.127604721905602e-04 -3.103689153540186e-19
-6.790511748112574e-03 -8.391003463086881e-05 -3.120078828479627e-19
-6.846066292413721e-03 -8.459651952466301e-05 -3.135622034932006e-19
-6.828594557664949e-03 -9.323088248949158e-05 -3.128674650461924e-19
-6.789959544571090e-03  4.505499398424915e-05 -3.111717096869170e-19
-6.821853438415712e-03 -2.139385205905743e-04 -3.126587696459323e-19
-6.927229537445809e-03 -6.270713926128214e-06 -3.171864025316578e-19
-6.906790146307671e-03  1.169172758007945e-04 -3.168156600334325e-19
-6.934065564669833e-03  1.173789906558397e-04 -3.161616981782576e-19
-6.989530968464309e-03 -8.937795751142961e-05 -3.188864366672649e-19
-6.825408105917630e-03  4.330102877738415e-05 -3.162793332509340e-19
-6.996356667981925e-03  4.027024715611100e-04 -3.181083459758461e-19
-6.921000391592946e-03  5.798700709722797e-05 -3.179621313940902e-19
-6.859999193966985e-03  9.602298404624990e-04 -3.214829953613816e-19
-6.816704500694653e-03 -7.381786274732520e-05 -3.251306763537265e-19
-6.856290175588496e-03 -7.424653468341631e-05 -3.257086668075098e-19
-6.797662915092768e-03 -6.341377033843579e-05 -3.246180583503897e-19
-6.789751366664007e-03 -6.333996539674492e-05 -3.242728565432708e-19
-6.947365507679823e-03 -1.194852300638246e-04 -3.281749416584226e-19
-6.931803592290229e-03 -1.192175863018110e-04 -3.291324994064222e-19
-6.572241753029727e-03  1.299359079425032e-03 -3.073183072234109e-19
-6.896958354827538e-03  2.553443901402491e-04 -3.135302725687315e-19
-6.780056761072122e-03  1.286200175773281e-05 -2.723979237366186e-19
-6.617496790000441e-03  1.601170953867947e-04 -2.444353333324680e-19
-6.463021227378548e-03  2.069465985133000e-04 -5.724178225882013e-19
-6.584045930845259e-03  2.108218218550429e-04 -5.736460070373404e-19
-6.281841772148976e-03 -1.929600653522446e-03 -3.395991370735889e-19
-6.532555613212473e-03 -3.943394764212999e-05 -3.193000798738954e-19
-6.607991848930875e-03 -2.138427668318705e-04 -3.063834003720347e-19
-6.671647344237813e-03 -3.115861887211360e-04 -3.137333959972070e-19
-6.690814285599981e-03 -3.124813430811214e-04 -3.196688302293920e-19
-6.833804749226312e-03  3.154309568123054e-05 -3.246427351904586e-19
-6.745665307262796e-03 -5.280276713898914e-04 -3.224195314039248e-19
-6.747025713907490e-03  1.272495701351380e-04 -3.227825451504200e-19
-6.770955829035252e-03 -3.608726236544588e-04 -3.196559079024460e-19
-6.940086021974949e-03  1.366244606134406e-03 -3.503576098374855e-19
-6.903083961869793e-03 -8.711106117409520e-04 -3.127985235047765e-19
-6.867059889302782e-03  3.849375330646164e-04 -3.328706164374360e-19
-6.722772031499183e-03 -1.552776328282059e-03 -3.108554324949904e-19
-6.788852207750382e-03  3.469566179260888e-04 -3.246173733065855e-19
-6.760128883199903e-03 -4.899419668772398e-04 -3.132379654313238e-19
-6.810075750486468e-03  7.938779932077549e-04 -3.317266504994540e-19
-6.962971189892564e-03 -5.211785410081403e-04 -3.237063742815901e-19
-6.890367811822390e-03  1.379336905719032e-04 -3.260740418298981e-19
-6.863984248371938e-03 -4.133042631449378e-04 -3.254675934193896e-19
-6.820428811108462e-03  1.147447672230363e-04 -3.289126776178900e-19
-6.822261910906891e-03 -1.526367228744818e-04 -3.236611202390906e-19
-6.791850639823122e-03  2.099971554843942e-04 -3.269378440634027e-19
-6.847368900569226e-03 -5.769196015152145e-05 -3.264670589083803e-19
-6.847205524002776e-03  8.591688093448722e-05 -3.281447346761603e-19
-6.826518340952359e-03 -1.221500797141663e-04 -3.254296941561991e-19
-6.793953797828692e-03  8.772017172013729e-05 -3.280143938286584e-19
-6.825891394847330e-03  8.588877919973914e-06 -3.271663366281846e-19
-6.743862040904150e-03 -2.161402500602197e-04 -3.280333329522214e-19
-6.834606880360133e-03  1.157804752881844e-04 -3.295305298675024e-19
-6.805810361139789e-03 -2.314893357770552e-04 -3.268457623356692e-19
-6.844363141672271e-03  1.617355693843581e-04 -3.303923563357933e-19
-6.771005326193753e-03 -4.383441218329368e-04 -3.286552114833645e-19
-6.761368291387516e-03  4.647819235682736e-04 -3.374399344518329e-19
-6.870943098642334e-03 -2.153656441946693e-04 -3.276421561539755e-19
-6.874611181668502e-03  1.621415524453654e-04 -3.303350563249513e-19
-6.873155991783088e-03 -3.258060726876493e-04 -3.354576138145919e-19
-6.821301057494886e-03  9.612156035812462e-05 -3.286179382628200e-19
-6.849115042906049e-03 -1.541959498849112e-04 -3.274564683945088e-19
-6.792341237891479e-03  3.491776005172651e-05 -3.298162029337216e-19
-6.874608544565080e-03 -4.165256038447215e-05 -3.303346199965524e-19
-6.827252291616948e-03 -1.061976047311600e-04 -3.293619583301387e-19
-6.931433565602884e-03  1.814736055146580e-04 -3.331962981557809e-19
-6.886308512260887e-03 -2.632061743831261e-04 -3.322219696492430e-19
-6.867289279492510e-03  7.627448476833043e-05 -3.308297406180100e-19
-6.786292174542601e-03 -4.715075604642029e-04 -3.270666622777891e-19
-6.816585608805171e-03  2.076558308027344e-04 -3.338888387607612e-19
-6.806789883272368e-03 -4.052430951042525e-04 -3.331577005801244e-19
-6.515508583461365e-03  2.120902164791799e-03 -3.289086024661390e-19
-6.982504648401729e-03 -3.376859710355117e-04 -3.314468965735710e-19
-6.965229081516996e-03  2.535644306618560e-04 -3.368004040615476e-19
-6.971151989194563e-03 -3.011659260065454e-04 -3.311999881241853e-19
-6.841240866873324e-03  3.456521720347650e-04 -3.334034234255202e-19
-6.970579614619738e-03 -9.273442062485009e-05 -3.346649619070823e-19
-6.950431188467411e-03  1.226318723354679e-05 -3.341604413068696e-19
-6.851844732184413e-03 -5.027337787914960e-05 -3.323165437680906e-19
-6.855428548905376e-03  6.531760821041695e-04 -3.389713117799786e-19
-6.905737686912015e-03 -5.126536662090394e-05 -3.311406334697725e-19
-6.860714712323988e-03 -5.093113450794756e-05 -3.310509085260572e-19
-6.877714291287276e-03 -9.799520933319535e-05 -3.330269691811519e-19
-6.905249358548659e-03  2.138206872462133e-04 -3.371771661399794e-19
-6.921537891369245e-03 -6.356004207969480e-05 -3.333855247943378e-19
-6.940395996424422e-03  2.138732584093645e-04 -3.330690702134044e-19
-6.878219789263905e-03 -1.940565632600646e-04 -3.288061231157981e-19
-6.864877343187132e-03  2.442901020534447e-04 -3.286098376122423e-19
-6.877448819280317e-03 -1.257720434969324e-04 -3.308550358956897e-19
-6.901119990172281e-03  2.747277645395872e-04 -3.327370038496795e-19
-6.828960471156427e-03 -3.309990787636580e-04 -3.310463605565723e-19
-6.801506010874518e-03  4.645235481577094e-04 -3.270599480626373e-19
-6.869884841258421e-03 -1.458813029077180e-04 -3.326700154326263e-19
-6.823498141515626e-03  3.290735615942293e-04 -3.432313138935384e-19
-6.891285304013109e-03 -4.365401345643811e-05 -3.329737156798641e-19
-6.868914499853656e-03  1.700958669813081e-04 -3.343476991241659e-19
-6.839300597922752e-03 -6.073241382338354e-05 -3.341878646211645e-19
-6.856057005806249e-03  2.196947667603671e-04 -3.351764310955705e-19
-6.693197850825495e-03 -2.213526261673713e-04 -3.267923449761616e-19
-6.851823893005697e-03  7.161674086179136e-04 -3.403781641359003e-19
-6.908592427076516e-03 -3.854424142699817e-04 -3.254736092173114e-19
-6.778416491333933e-03  2.868479319231925e-04 -3.347553164138786e-19
-6.802093092318509e-03 -3.219523906293007e-04 -3.342951692640510e-19
-6.981752873880066e-03  1.086314360583220e-03 -3.461115625994839e-19
-7.010669723917578e-03 -6.368050432047624e-04 -3.458095027240909e-19
-6.816797103625536e-03  9.797978567277483e-04 -3.264138865040848e-19
-7.080559532523598e-03 -3.327700838349760e-04 -3.333429041044909e-19
-6.652874314218085e-03  4.116372553766024e-04 -3.368019407872791e-19
-6.595043802406705e-03 -4.284644399896288e-04 -3.261820807877061e-19
-6.844469337690513e-03  3.306308614147303e-04 -3.290512158029087e-19
-6.720733812363565e-03 -1.142020093153643e-03 -3.636336124612263e-19
-6.962860236283470e-03  3.644981370570176e-04 -3.363941105756051e-19
-7.093317660445226e-03 -7.174016049267780e-04 -3.440574675918980e-19
-6.702166019839335e-03  8.167190919215295e-04 -3.440990752801847e-19
-7.042904057908963e-03  4.774761187513319e-04 -3.325271800031154e-19
-6.621831103612091e-03  4.303898862033386e-04 -3.352832665472139e-19
-6.482518286567607e-03  4.213351660607888e-04 -3.293735987815746e-19
-6.239114273425747e-03 -5.353133241060875e-04 -3.374384229746152e-19
-6.503648260681122e-03  1.723196500857086e-03 -3.696038357267595e-19
-6.627818143292425e-03 -1.540173780220352e-03 -2.969784215657857e-19
-6.200213892237003e-03  5.726739577174942e-04 -3.349435606521167e-19
-6.450765800985329e-03 -6.965564784216674e-04 -2.936159095258051e-19
-6.603803142015353e-03 -1.540434170669511e-04 -3.335080646031158e-19
-6.763724241619409e-03 -2.927243409513369e-04 -3.349263480074427e-19
-6.760649522555571e-03  3.896929851481767e-05 -3.347159650882010e-19
-6.860788052201431e-03 -5.794016330710982e-05 -3.372206580168134e-19
-6.784781132384237e-03 -8.512821863421912e-05 -3.396394200297389e-19
-6.791403775415594e-03  6.690947425471652e-07 -3.364912928652594e-19
-6.809010422597189e-03 -4.956165936347933e-05 -3.361309066469285e-19
-6.759615897518536e-03 -1.086661722794045e-04 -3.377521087843926e-19
-6.787819815849982e-03 -1.317242426785482e-05 -3.363070768636087e-19
-6.775514790980160e-03 -1.374237573729187e-04 -3.411818750757673e-19
-6.848196360708803e-03  1.561380744354856e-04 -3.468998801217527e-19
-6.821916301748391e-03 -2.521172644686395e-04 -3.398204145923218e-19
-6.792679665028648e-03  9.535230219802591e-05 -3.380564270736428e-19
-6.701739020002500e-03 -5.069494332167486e-04 -3.272390350227338e-19
-6.662081369642297e-03  1.221969639104276e-04 -3.386439850286125e-19
-6.643866526341673e-03 -1.209291537807736e-04 -3.335011212079933e-19
-6.634549884841099e-03  3.361395413420951e-04 -3.523621572845404e-19
-6.667542298559765e-03 -1.352297757437533e-04 -3.364370445990392e-19
-6.653371154241972e-03 -1.109961079540374e-04 -3.377528444202858e-19
-6.703492891614584e-03 -4.578133288932085e-05 -3.356277830201880e-19
-6.700079867057082e-03 -1.504472449610402e-04 -3.369088741914215e-19
-6.673264599374570e-03 -7.434996844733730e-05 -3.377000733682162e-19
-6.729179015797749e-03  2.990541998274932e-05 -3.383606213011850e-19
-6.685806288943787e-03 -3.042046373891393e-04 -3.399181723224790e-19
-6.659341648741633e-03  4.909657702151459e-07 -3.395056688975846e-19
-6.654927430874771e-03  4.906403281535708e-07 -3.408034693117588e-19
-6.699934495953912e-03  4.939585132741492e-07 -3.431395763217824e-19
-6.858405063176426e-03 -3.687278696896294e-04 -3.429698684921417e-19
-6.781193221314031e-03  7.770231962939553e-04 -3.417120863019238e-19
-6.501716373922758e-03 -8.407620587494454e-04 -3.409701149177436e-19
-6.531023452749910e-03  1.990054419759945e-03 -4.284154508797168e-19
-7.032967767336139e-03 -9.993837596602036e-04 -3.387024121779334e-19
-6.832667010081841e-03  4.904914775223126e-04 -3.522914493196625e-19
-6.911216380537673e-03 -7.463648244135657e-04 -3.571419430442321e-19
-6.990986605665881e-03  2.753390118774463e-04 -3.696041286943065e-19
-6.369786901369855e-03 -1.663438878087191e-03 -3.276248586751408e-19
-6.787871859587081e-03  1.005284469847771e-03 -3.920681229677457e-19
-6.715106308144087e-03 -1.092376847889687e-03 -3.278400062557133e-19
-6.901188161834442e-03  1.534176109064634e-03 -3.948393596429875e-19
-6.193344619384158e-03 -2.156625706582271e-03 -4.038989163385990e-19
-6.406530479703827e-03  2.471784367285842e-03 -3.265238030939237e-19
-6.570782769965134e-03 -2.347605385449666e-03 -2.913960242362756e-19
-6.613236853589143e-03  1.942987908936938e-03 -3.203395473179607e-19
-6.789295312995870e-03 -2.115500428429542e-03 -3.333117020748983e-19
-6.893454572927489e-03  1.608909452563516e-03 -4.115590828562554e-19
-6.394902700802991e-03 -2.254194517526921e-03 -3.608601021574026e-19
-6.221317238925143e-03  2.440992433032100e-03 -3.682701135583960e-19
-7.138189565948673e-03 -1.294101349490206e-03 -3.621574431517981e-19
-6.710616953222842e-03  1.288777517002399e-03 -4.232506052703305e-19
-6.901269422220140e-03 -5.847340016345758e-04 -3.830246783612563e-19
-7.063909063881415e-03  1.333763374079368e-03 -3.618539480915460e-19
-6.788340756420312e-03 -2.327700443726415e-03 -3.358937409852944e-19
-6.732966129777549e-03  6.176135002495872e-04 -4.104144609222840e-19
-6.696668289277540e-03 -1.377025923829020e-03 -3.838882816106759e-19
-6.909579060424194e-03  6.171435749535223e-04 -4.235675250963113e-19
-4.525968329616272e-04 -6.811216178239285e-03  7.474322476315986e-20
-6.459109870446447e-03  4.934272777118354e-04 -3.889132220211893e-19
-6.759939030838626e-03 -7.418815390904004e-04 -4.183211080802618e-19
-6.649581232450609e-03  2.773944895002159e-04 -4.199859865837106e-19
-6.704886687187914e-03 -4.255831147645445e-04 -4.169949881117178e-19
-6.676725334623287e-03  1.645226130415847e-04 -4.356996663023114e-19
-6.777431007050573e-03 -2.643163540697961e-04 -4.445698993512788e-19
-6.788878501281102e-03 -5.025147885265855e-05 -4.571379567316801e-19
-6.827624268843165e-03 -5.053827616666373e-05 -4.716400968032209e-19
-6.779176015791061e-03 -2.505558997808962e-04 -4.758038899193785e-19
-6.988642986078653e-03  3.009046038682860e-04 -5.105733391911730e-19
-6.640993227378825e-03 -8.074912565093625e-04 -4.921905105130087e-19
-6.798575454350944e-03  9.058733820328252e-04 -5.368706503484905e-19
-6.657177974685478e-03 -8.371582624085240e-04 -4.529071870417924e-19
-6.611638039266623e-03  1.898263238337073e-03 -5.831676241542996e-19
-6.677305286815360e-03 -9.547682183729575e-04 -5.260025202742325e-19
-6.323687871316716e-03  2.263664462747767e-03 -6.367113488251685e-19
-6.918181659396819e-03 -7.772572764106363e-04 -5.607703284959503e-19
-6.565317442315428e-03  9.759140582616519e-04 -6.455066784360495e-19
-6.945639837476468e-03 -4.820596935566380e-04 -6.035118940744240e-19
-6.682987259617908e-03  1.707246148333537e-04 -6.899067452564929e-19
-6.381770292206646e-03 -1.558817190482002e-03 -6.048150454455375e-19
-6.536972233107137e-03  4.901759077465364e-04 -7.754645959605973e-19
-6.872571872257286e-03 -5.634628808256362e-04 -7.271246659561730e-19
-6.939111597314852e-03  3.040644468969086e-04 -9.073025335983944e-19
-6.769903468002853e-03 -8.212119930468596e-04 -8.501472141602325e-19
-6.671062139348336e-03  6.691283093733335e-04 -1.086669776705233e-18
-7.019815093355354e-03 -1.311533984265394e-04 -1.098365127088401e-18
-7.417205769982885e-03 -1.385779725854878e-04 -1.247347325988609e-18
-1.019316420614980e-03 -6.738897829023579e-03  9.277474988800299e-19
-6.904227299579051e-03  3.566430229057290e-04 -1.517362068425976e-18
-7.139898554277059e-03  3.688167977599560e-04 -1.802580735668506e-18
-6.807408108199934e-03  1.387812608016036e-04 -2.294948832385510e-18
-6.765570130290961e-03 -2.042875286900032e-04 -2.817968464207583e-18
-6.763710099081732e-03  1.558842919722615e-04 -3.812947859247198e-18
-6.738700354883536e-03 -2.035623582800675e-04 -4.664283348410275e-18
-6.734528067393586e-03  1.612215825920058e-04 -5.734397774035852e-18
-6.799254906739815e-03 -4.415091379271356e-05 -7.395368313345537e-18
-6.826528563040811e-03  1.238983603853201e-04 -1.209416623588206e-17
-6.806020366323946e-03 -1.051144843218547e-04 -1.839646064385728e-17
-6.813543484767463e-03  2.140896440758223e-04 -2.474760834989899e-17
-6.830943776123245e-03 -2.501627295018027e-05 -3.566537920657657e-17
-6.828054967256920e-03  2.578359882997566e-04 -4.991554510893752e-17
-6.848811082804036e-03 -2.501745337790572e-05 -6.622326463045212e-17
-6.827045796907142e-03  2.453077717871999e-04 -8.886691046835522e-17
-6.867301136695678e-03 -7.336135402426281e-06 -1.218869179703391e-16
-6.856766215937697e-03  5.195514406863484e-05  3.331921551389136e-16
-6.854012224386564e-03  4.181187181009787e-05 -6.268538232640960e-15
-6.867454838180912e-03  3.416807414464761e-05  8.701257669513305e-16
-6.860738218819566e-03  4.185290272187696e-05 -6.594164294901439e-15
-6.855556044226224e-03  3.023930530747783e-05 -1.436110703528378e-16
-6.865725678863265e-03  6.675544333194043e-05 -8.871199874588946e-17
-6.865743038599218e-03  2.902583033243725e-06 -6.876314875296757e-17
-6.843715520264438e-03  3.559893781277785e-05 -4.687677885166896e-17
-6.848492929343422e-03  8.415445131289491e-06 -2.433156761548105e-17
-6.856902138369921e-03  1.675569285200768e-05 -1.368277679597464e-17
-6.857228148632172e-03  1.675648949861437e-05 -9.133821341285200e-18
-6.855946743920978e-03  1.322948293240000e-05 -5.750754609677660e-18
-6.844983578815146e-03  1.822601931405508e-05 -3.613312434725397e-18
-6.858177128707989e-03 -8.102672115110595e-07 -2.824792858964377e-18
-6.844305920537901e-03 -1.992565426875878e-05 -2.449492293268270e-18
-6.845565130137158e-03 -1.093602114318519e-05 -1.954104182904565e-18
-6.837624494805795e-03 -1.092333571046732e-05 -1.551592182882105e-18
-6.837264899642758e-03 -4.609364089544141e-05 -1.133159403979524e-18
-6.841488166270520e-03 -3.841844675988464e-05 -1.046665890669725e-18
-6.835642528232273e-03 -3.838562051970239e-05 -9.240190647223100e-19
-6.827999437565803e-03 -4.612216707920068e-05 -8.292520532062866e-19
-6.814759758001411e-03 -4.704373477456898e-05 -7.499812826342957e-19
-6.799982154844859e-03 -4.694172183967651e-05 -6.899349223364077e-19
-6.789775880849047e-03 -4.687126576140731e-05 -6.410245086707582e-19
-6.779327581947400e-03 -8.790136234254922e-05 -6.095581770833576e-19
-6.782598408674957e-03 -2.673266016120610e-05 -5.869411922903208e-19
-6.788039996015392e-03 -7.938806863750724e-05 -5.584083069829972e-19
-6.800317538456664e-03 -8.807009511999324e-06 -5.387632020166876e-19
-6.820213280300552e-03 -7.020506632653543e-05 -5.204674513230487e-19
-6.836150049512431e-03 -5.955988350415194e-05 -5.014598194156305e-19
-6.859783036217548e-03 -5.976578564568150e-05 -4.844258935659088e-19
-6.874232478986182e-03 -8.074003862798996e-05 -4.700166145627736e-19
-6.876575090363280e-03 -3.277061835191166e-05 -4.585751858387805e-19
-6.842918087866021e-03 -1.276292843410596e-05 -4.455877116654746e-19
-7.340377172971205e-03 -1.369075405185690e-05 -4.427151223428443e-19
-3.927526318780275e-03 -5.524474550885305e-03 -1.858233338060211e-19
-6.745334257535475e-03  4.948706833394095e-04 -4.333136449990534e-19
-7.173387456271026e-03  5.262747577523620e-04 -4.271429613661804e-19
-6.778014384872471e-03 -2.325139604006960e-04 -4.086375336704651e-19
-6.661727649101602e-03  1.938010119386576e-03 -4.099163077642040e-19
-6.728385040370625e-03 -4.669840515870834e-04 -3.956744087056652e-19
-6.122249630842650e-03  1.565180834615794e-03 -3.833792318271931e-19
-5.902147221643388e-03 -4.189778514110855e-04 -3.648788657362400e-19
1.769955821082910e-03 7.107212729457404e-03 2.690620260180571e-20
-7.384820406368314e-03 -2.130633468555850e-03 -3.575347047686692e-19
-5.889452313418655e-03 -3.572491322924562e-04 -3.617762716786404e-19
-6.335730082431894e-03 -3.549339213967284e-04 -3.732213148406751e-19
-6.604282165050439e-03 -8.589055979081244e-05 -4.623013679775090e-19
-6.786873189656047e-03 -3.380977274057758e-04 -1.435948940040060e-19
-6.788708114726644e-03  6.600557108296725e-04 -3.920538108586014e-19
-6.934852640198667e-03 -1.875974106613088e-04 -3.940410889687999e-19
-6.932533588572763e-03  3.162027331955115e-04 -3.792184331919516e-19
-6.872989372287798e-03 -2.292474903928645e-04 -3.699648651799929e-19
-6.979910722560208e-03  8.065874313622207e-04 -3.762211933891148e-19
-6.981375468224088e-03 -4.483370675173242e-04 -3.670311680328547e-19
-6.891425834412148e-03  2.598545451780879e-04 -3.697337056309340e-19
-6.695957294056160e-03 -6.964318803984002e-04 -3.565197325113402e-19
-6.768221050832073e-03  5.613898657511014e-04 -3.647682835961486e-19
-6.636605056524515e-03 -5.784722216341231e-04 -3.527375153765106e-19
-6.610076672396844e-03  1.541690786634297e-03 -3.566526859651826e-19
-6.784069062122379e-03 -5.647748486449143e-04 -3.521024235744548e-19
-6.782517255162615e-03  1.671854874017873e-03 -3.592776927234209e-19
-6.739882654489038e-03 -9.340493319074805e-04 -3.467717841933453e-19
-6.463473732223109e-03  1.453259932979578e-03 -3.542629063339957e-19
-6.662675156897065e-03 -5.194183213080963e-04 -3.465166350562284e-19
-6.547092333481024e-03  1.470803934183356e-03 -3.427940636556383e-19
-6.661665517815629e-03 -3.344382018785046e-03 -2.931780332044852e-19
-6.433523135516567e-03 -1.980936741629359e-05 -3.407983663134183e-19
-6.389854481440206e-03 -9.198074573130295e-04 -3.698997516855930e-19
-6.585941639508246e-03  2.113431587047043e-04 -5.165197486175170e-19
-6.788458039635427e-03 -6.654987792094157e-04  4.097052078871902e-20
-6.728369567910559e-03 -6.946247876492974e-06 -8.783566508882269e-19
-6.823696552827172e-03 -3.836795659451232e-04 -4.782909315725197e-19
-6.729718710788853e-03 -1.214576810023075e-04 -2.607697669617689e-19
-6.787803519048506e-03 -1.260436293541151e-04 -3.468057659747957e-19
-6.726120731780560e-03 -2.454525789431937e-04 -3.424437043960920e-19
-6.761421366430606e-03  1.224340453449090e-05 -3.435314917994979e-19
-6.683282819693618e-03 -3.164721089473362e-04 -3.401964602684589e-19
-6.731703710927386e-03  3.965005722883990e-04 -3.419986605903105e-19
-6.728142475621963e-03 -3.178683221387382e-04 -3.372582623439093e-19
-6.793085204390418e-03  3.820728555390438e-04 -3.417511732525046e-19
-6.665978220077618e-03 -7.584341543058540e-04 -3.330687366548287e-19
-6.604746411620217e-03  2.793367687036575e-04 -3.376247448805467e-19
-6.607577216910834e-03 -4.036436769439304e-04 -3.318090102673903e-19
-6.731640099543329e-03  6.670528856135401e-04 -3.438273460964952e-19
-6.787340675968797e-03 -6.276853465323041e-04 -3.309670514739052e-19
-6.660179695190334e-03  1.576137745929380e-04 -3.336528281460344e-19
-6.553316326073600e-03 -5.770278249176537e-04 -3.278878007239208e-19
-6.605654417435949e-03  3.224998569286549e-04 -3.357487512533015e-19
-6.512329929091087e-03 -4.635295221046403e-04 -3.279598571946178e-19
-6.473421788984443e-03  1.002698660606017e-03 -3.342274929173350e-19
-6.722641976090597e-03 -3.102869452197747e-04 -3.303021692089399e-19
-6.733466741267116e-03  2.890548667229969e-04 -3.344410941260749e-19
-6.503393216385309e-03 -8.268886991831299e-04 -3.256950467568885e-19
-6.445732374076548e-03  5.614435178002450e-04 -3.328625167839730e-19
-6.746074705869990e-03 -1.783509285247429e-04 -3.337565227507522e-19
-6.626922466528335e-03 -1.528209148344603e-04 -3.312912749554431e-19
-6.769887461690481e-03  1.822366052120760e-05 -3.348657655764994e-19
-6.861989016710306e-03 -2.266905110293330e-04 -3.361313185016344e-19
-6.944269209159539e-03  3.461377669863670e-05 -3.393186523202197e-19
-6.727859185242504e-03  3.353507885188121e-05 -3.352691103326544e-19
-6.909235466154468e-03  1.655758148545112e-03 -3.400235924146331e-19
-6.730407058475754e-03 -7.048104830539036e-04 -3.275341378157905e-19
-6.597546237356363e-03  9.931437587380795e-04 -3.390279170824121e-19
-6.654398954406148e-03 -7.186272640348160e-04 -3.235182222946971e-19
-6.441877538537701e-03  8.084115007927702e-04 -3.270754531086290e-19
-6.616387245613668e-03 -3.507760352301311e-04 -3.231167555382586e-19
-6.583137741866802e-03  6.105788946462623e-04 -3.271121473508640e-19
-6.720477270774517e-03 -3.677402343457597e-04 -3.259652605146433e-19
-6.688231113535469e-03  1.040245845624288e-04 -3.287493792774001e-19
-6.670372037565733e-03 -3.884062217988343e-04 -3.249452014116406e-19
-6.650104635380574e-03  1.368555725032576e-04 -3.285100865887801e-19
-6.728043901189360e-03  8.931814188128213e-06 -3.274258796194726e-19
-6.587154063332543e-03 -1.103478225791897e-04 -3.262622668461057e-19
-6.679424715695636e-03  2.017283633114200e-04 -3.253628742586838e-19
-6.632293098618437e-03 -2.365360776070733e-04 -3.229660732212750e-19
-6.674777883655406e-03  3.274746794349426e-04 -3.278306432914720e-19
-6.687849503591205e-03 -2.569808109901464e-04 -3.258164446021644e-19
-6.663837077282846e-03  2.460083646727844e-04 -3.272066408766186e-19
-6.737493798930651e-03 -3.574190357532495e-04 -3.233422242050301e-19
-6.604765507348707e-03  5.363170678712132e-05 -3.250332219499008e-19
-6.694071301139837e-03 -3.221257115677638e-05 -3.261029167146215e-19
-6.701811360197087e-03  2.231429811337565e-04 -3.272417831788433e-19
-6.609964997396803e-03 -1.672980244555398e-05 -3.242277164507208e-19
-6.795355223328482e-03  6.063639034888084e-04 -3.274385602710023e-19
-6.786267409458428e-03 -1.340858673732314e-03 -3.195742039051472e-19
-6.522647400754752e-03 -3.515994077991428e-05 -3.236558900812827e-19
-6.732467698255465e-03  1.702461014883668e-04 -3.271545492148795e-19
-6.782095530315141e-03  6.553280710272448e-05 -3.264791563202459e-19
-6.718510841520598e-03  6.018629696073585e-05 -3.255453069300572e-19
-6.675239342899121e-03  5.205512430147423e-05 -3.249100803667994e-19
-6.683230999408648e-03  1.013975980209976e-04 -3.245691181536771e-19
-6.716481197500431e-03  2.448518727337327e-05 -3.250746387129648e-19
-6.700343276715180e-03 -2.780075724057515e-05 -3.254852551667443e-19
-6.792338920884509e-03  3.746503781341351e-04 -3.261505519031944e-19
-6.764127952372550e-03 -1.596174871652151e-04 -3.260106575167087e-19
-6.842818900740432e-03  4.428641339368562e-04 -3.273739695219555e-19
-6.669917989154352e-03 -7.710207386793582e-04 -3.197558858628118e-19
-6.704220729613753e-03  4.943498017006941e-04 -3.271536058124632e-19
-6.583032201230164e-03 -7.042988754086256e-04 -3.143443549119063e-19
-6.652945886815122e-03  8.098896814738678e-04 -3.282838153799649e-19
-6.806095866511303e-03 -5.839687290595219e-04 -3.238916074518020e-19
-6.748816977383543e-03  4.922716679712755e-04 -3.312340132191504e-19
-6.651288548759701e-03 -7.290421227401178e-04 -3.238433265601782e-19
-6.559625135510470e-03  5.974641605332631e-04 -3.243572824409916e-19
-6.745616878898710e-03 -1.752844414473250e-04 -3.266256365030461e-19
-6.782312287509890e-03  6.513655183208890e-04 -3.328443221668952e-19
-6.827442796025278e-03 -2.352990513475534e-04 -3.288921715204609e-19
-6.861952523894838e-03  4.296630036261007e-04 -3.336068567190358e-19
-6.840324679709666e-03 -5.304639034363895e-04 -3.287187264344757e-19
-6.775517735640870e-03  3.331055680709439e-04 -3.288072673363687e-19
-6.783798343469426e-03 -3.313302152544800e-04 -3.277331642059743e-19
-6.822137197481572e-03  3.905324441473332e-04 -3.305535559208720e-19
-6.851363445984923e-03 -3.768971345927983e-04 -3.271345762219466e-19
-6.865166209154560e-03  3.087353334538237e-04 -3.332076129381981e-19
-6.803295032119073e-03 -6.151284585433035e-04 -3.271173819324619e-19
-6.829206552009716e-03  3.276987443584009e-04 -3.312292786104431e-19
-6.770844852477214e-03 -5.146948491956664e-04 -3.257348677407819e-19
-6.729279774423295e-03  4.433206450612812e-04 -3.298307652839531e-19
-6.836029153632717e-03 -1.895406191815838e-04 -3.297187642262463e-19
-6.977184728517766e-03  6.465386046567058e-04 -3.356982048773227e-19
-6.880363464111258e-03 -5.204064367306206e-04 -3.273550912310306e-19
-6.814445786008806e-03  6.360428284538781e-04 -3.335471481067821e-19
-6.867732122724243e-03 -1.252694206639526e-03 -3.289897482511368e-19
-6.789364861225133e-03  3.799435492758047e-04 -3.283516680244792e-19
-6.849935414116716e-03 -2.116237685676240e-04 -3.283098921755516e-19
-6.855020463764344e-03  8.847789963444604e-06 -3.307365157246359e-19
-6.761445623194498e-03  3.134209857174750e-05 -3.284172000618323e-19
-6.614815627320955e-03  3.066240786056607e-05 -3.249575221561616e-19
-6.665146022447049e-03 -1.676838340587771e-04 -3.236163199615091e-19
-6.709491720737321e-03 -4.971745475398233e-04 -3.255065325550581e-19
-6.949112071544489e-03 -7.049705246136034e-04 -3.345089103271114e-19
-8.151728604044516e-03 -5.360585076719140e-04 -3.536035561757701e-19
-5.449795933627558e-03 -5.146596032063247e-03 -2.246985065642415e-19
-7.734626702317668e-03  2.535319510962013e-03 -3.640304451993178e-19
-7.005335267548329e-03  2.296266370466669e-03 -3.257807255403976e-19
-6.615943389495098e-03 -4.971508803377679e-04 -3.185344801639526e-19
-6.523407677267838e-03  5.307081567867927e-04 -3.224386593043038e-19
-6.719962339580361e-03 -4.995821092919835e-04 -3.246403092904378e-19
-6.796606124947929e-03  1.058989270674681e-03 -3.317854989460860e-19
-7.065656181275009e-03 -3.597391935149516e-04 -3.277155333384081e-19
-6.806248146999144e-03  4.976528102608863e-04 -3.302811730364735e-19
-6.955353433740949e-03  8.665544506035949e-05 -3.305620026166026e-19
-6.894012498210142e-03  4.703283967109142e-04 -3.328623194794025e-19
-6.839866603352614e-03 -2.506481274557953e-04 -3.291297642228546e-19
-6.728417557687807e-03  4.195535017493390e-04 -3.216923429266182e-19
-6.718838524036181e-03  6.616459127213959e-05 -3.223002154238845e-19
-6.710492652646960e-03  5.154798043078492e-04 -3.203214034834331e-19
-6.733055884817099e-03  7.612006450950853e-05 -3.212217669531704e-19
-6.621625276537093e-03  4.114502161540047e-04 -3.235659704499429e-19
-6.564829759845823e-03  1.066752225204206e-04 -3.148357351095643e-19
-6.443998817372034e-03  3.889444832826146e-04 -3.107135568802765e-19
-6.181139054800407e-03  3.730788915240322e-04 -3.005308357333250e-19
-6.013123199677734e-03  7.692508529712098e-04 -3.015106991470687e-19
-6.966351387269592e-03  5.039371830680386e-04 -3.111469579536608e-19
-5.985815335445232e-03 -4.433043081942897e-04 -3.049801147042949e-19
-6.217335812460264e-03 -3.521218776025356e-04 -2.939699660830776e-19
-6.457693984481979e-03 -1.681224744245584e-04 -3.225860558323600e-19
-6.559309581727550e-03 -2.827732798184166e-04 -3.034155544098085e-19
-6.606420418118069e-03 -1.139280720926665e-04 -3.152808850556673e-19
-6.691700856220446e-03 -1.418478926613715e-04 -3.151718610518394e-19
-6.718709069970295e-03 -1.283843670221898e-04 -3.209243039164246e-19
-6.754389435448573e-03 -1.290661648332489e-04 -3.235230510368177e-19
6.907242114482895e-03 2.861192196434070e-03 2.929597165044428e-19
 7.235884693039231e-03 -8.828201343458528e-04  3.408129737576249e-19
 7.284196062912578e-03 -7.339235454238555e-04  3.488211978374082e-19
8.172063481819581e-04 1.670769208251664e-04 2.388909831879718e-19
-4.930832922921588e-03  7.885354323221292e-03 -1.954972659871906e-19
 6.485568785338100e-03 -1.277558441040147e-03  2.901504541170825e-19
 5.497135734080097e-03 -5.651836607712808e-04  3.006623426832232e-19
 6.114330041616008e-03 -6.286400051321710e-04  3.137121815946525e-19
 6.405245510002763e-03 -6.585502488211656e-04  3.208780883666957e-19
 6.613246191978488e-03 -6.004630571790871e-04  3.251813148271365e-19
 6.772390177654179e-03 -6.149128570801404e-04  3.279006607308121e-19
 6.952715700676231e-03 -6.245188829918175e-04  3.326269602241479e-19
 7.250293168994500e-03 -6.512484022355829e-04  3.413056537117084e-19
 6.352671013364085e-03 -2.737364693277591e-03  3.274956318936840e-19
 7.301082868458483e-03 -1.904752071082092e-05  3.441701724798070e-19
 7.147774892867709e-03 -1.220659775137977e-04  3.399397513212871e-19
 7.054908855362185e-03 -1.204800596840049e-04  3.380668412763579e-19
 7.023080035589758e-03 -1.164989165660201e-04  3.368514210619239e-19
 7.040754953229060e-03 -1.476857444830646e-04  3.376624378298105e-19
 7.025476933999133e-03 -1.473652752068028e-04  3.385495927935827e-19
6.935545833205208e-03 2.656753704957081e-04 3.317778910268226e-19
 6.929460243663498e-03 -5.347836367608505e-04  3.363763948582056e-19
7.082469931313013e-03 8.837130695611517e-04 3.319756375245352e-19
 7.005873285986374e-03 -9.349521895744337e-04  3.368197229838135e-19
6.940986828569509e-03 6.619543096322636e-04 3.315921300616349e-19
 6.964162802701515e-03 -6.852029877547232e-04  2.988442154286357e-19
6.969811531122873e-03 7.131336722111113e-04 5.680695845855906e-19
 6.956613414622221e-03 -9.582021778021870e-04  2.713706995441625e-20
 6.738834658059023e-03  5.905474266372545e-04 -5.476768053733268e-20
 7.162210930137137e-03 -1.138545887498556e-04 -2.176113365277826e-19
7.075777061343348e-03 1.983659232932445e-04 3.312265128859334e-19
 7.096900640738047e-03 -2.022801961339380e-04  3.220266727600293e-19
7.009493704907097e-03 8.206008027386183e-05 3.424181021229343e-19
7.071783620163280e-03 1.612972673830690e-04 3.378663801374289e-19
 6.974631417839087e-03 -2.900520411828106e-04  3.382012638979288e-19
6.948828083072787e-03 2.127658927223326e-04 3.365187401681401e-19
 6.964514962413841e-03 -1.272270495526792e-05  3.371697370686557e-19
6.968809228500176e-03 1.545812235361244e-04 3.360780557114396e-19
 6.994354058541983e-03 -1.091198915296425e-04  3.380629498970913e-19
6.946121444772242e-03 5.485882570531444e-05 3.369624533942717e-19
6.986195965322432e-03 1.389129987562677e-04 3.375711187697134e-19
 6.950180704878852e-03 -2.088620128428363e-05  3.374245964911457e-19
6.994959553938194e-03 2.022694047482215e-04 3.361403503325648e-19
 6.936660001987244e-03 -2.149274195986132e-04  3.381300621545377e-19
6.910546258262531e-03 2.513631976658721e-04 3.356217548340344e-19
 6.882927146290007e-03 -1.255387357892707e-04  3.362606449170489e-19
6.893807192415490e-03 7.370634868479744e-04 3.307158057476314e-19
 6.993019714214212e-03 -1.352305105953616e-04  3.383900636364013e-19
6.942618387029784e-03 1.582011964626488e-04 3.366638209111023e-19
6.924068526602296e-03 9.698912512257223e-06 3.363022613583423e-19
6.800190610761490e-03 3.695752844604255e-06 3.352252474918272e-19
6.802956783548028e-03 1.436160108274227e-04 3.327689897325601e-19
 6.773094851035181e-03 -1.197182241167228e-04  3.330733504474458e-19
6.685610524552435e-03 1.841737164867175e-05 3.315428184906578e-19
6.804031379729901e-03 6.380873014704781e-06 3.324276311363949e-19
 6.916654843703952e-03 -5.761484720180175e-04  3.398078049224894e-19
7.043296023959813e-03 1.569944597868890e-04 3.410368982409958e-19
6.638933449244718e-03 2.493080784157544e-04 3.309560105331781e-19
7.132096575750061e-03 2.678275518152864e-04 3.330581616298865e-19
 5.519585164989559e-03 -4.377969037447157e-03  2.934178774756360e-19
7.314810721181344e-03 8.411006361148923e-04 3.553547106942495e-19
7.184620241502270e-03 3.887587443927933e-04 3.438931442658927e-19
6.927455383500847e-03 4.968035901367687e-05 3.392903384012788e-19
6.905002799756921e-03 4.951933994398505e-05 3.394333758111142e-19
6.919999405561414e-03 4.962688834655266e-05 3.395759004574498e-19
6.900137969007989e-03 4.948445173110341e-05 3.391991202312805e-19
6.865024855163832e-03 1.451931424378373e-04 3.369947081916385e-19
 6.834121786644606e-03 -3.358681423674177e-05  3.375425574684566e-19
6.818852708251954e-03 8.939913296681736e-05 3.366901623357225e-19
6.852625476623298e-03 8.619718043953328e-06 3.374618253186235e-19
 6.853122688305084e-03 -7.363291903934132e-05  3.381349693006786e-19
 6.926725198323132e-03 -1.339654873059274e-04  3.410243580604910e-19
6.947999440509396e-03 1.603437738113179e-04 3.404731362134797e-19
 6.842804019367927e-03 -2.400699055533856e-04  3.395409470106863e-19
7.031511142769960e-03 5.820166420514543e-04 3.396362503862970e-19
 6.908170460987379e-03 -6.042027399317160e-04  3.436812021224857e-19
6.889254220820622e-03 3.717540524887621e-04 3.386611809912942e-19
 6.895108495579440e-03 -5.864975424476210e-04  3.425593138318257e-19
6.790741998243880e-03 2.634028241434557e-04 3.362639338780550e-19
 6.789739660153542e-03 -2.659959799919188e-04  3.378439687156589e-19
6.829493912070524e-03 2.468618894880863e-04 3.370168303602234e-19
 6.847591459555645e-03 -3.666712317843886e-04  3.417503578920380e-19
6.773223962878164e-03 2.884840036105478e-04 3.342799349773017e-19
 6.789837938324272e-03 -5.132140674458953e-04  3.390976865474406e-19
6.803045298832300e-03 4.506484047042373e-04 3.349486436419074e-19
 6.696985825302752e-03 -5.309995583268544e-04  3.365585463078085e-19
6.688918964865450e-03 6.782335577324047e-04 3.346644922593582e-19
 6.790509753845365e-03 -3.987237739384705e-04  3.413671847679147e-19
6.806799103691085e-03 3.990589063083738e-04 3.391473153837189e-19
 6.842161564519679e-03 -3.176883146267115e-04  3.433741737887474e-19
6.798284430401337e-03 4.168159410677547e-04 3.401189965983335e-19
 6.690053852839066e-03 -1.550373371022903e-04  3.406504071738208e-19
 6.757485959221459e-03 -1.566000291879882e-04  3.442730904324226e-19
 6.882666715366704e-03 -1.595010059986567e-04  3.482286003052668e-19
 6.930165010892693e-03 -1.578991869240508e-05  3.490675594469046e-19
 6.915095418751398e-03 -7.396010922121362e-06  3.495387398564236e-19
 6.873923716123490e-03 -7.351975902518793e-06  3.493192126739631e-19
 6.893753638834358e-03 -7.335305410145347e-05  3.511257039382005e-19
 6.933908764689233e-03 -1.495565093757124e-04  3.541416874505979e-19
7.042320709219726e-03 3.969595663511329e-04 3.530877852373276e-19
 7.037758176502333e-03 -2.803539286837215e-04  3.578958930577623e-19
6.967682735616178e-03 1.621742187031386e-04 3.543294511899919e-19
 6.900533888728399e-03 -2.347054879703778e-04  3.567583302147166e-19
6.867513496877036e-03 2.985703466615281e-04 3.536974241093777e-19
 6.936273015090633e-03 -6.792889281066975e-05  3.566894916345090e-19
6.917189791836798e-03 3.833926167414703e-05 3.574955487634725e-19
6.919992378584909e-03 3.835479530990573e-05 3.581167696041619e-19
 6.920693044327039e-03 -9.909348580917611e-06  3.597634605000845e-19
6.927809531891343e-03 6.315391403751301e-05 3.605642872887838e-19
6.942935052956181e-03 3.602646331713657e-05 3.628994511397349e-19
6.965494183433216e-03 6.661544200831521e-05 3.656387231813844e-19
6.980002529284406e-03 6.675419452841434e-05 3.676017179709341e-19
6.983736141371058e-03 8.734301060806313e-05 3.690117352547829e-19
 6.977187639599654e-03 -3.799945277753849e-07  3.710027784003067e-19
6.960855784625798e-03 9.290318125034342e-05 3.714315004105343e-19
 6.926455625107585e-03 -6.331893197749703e-05  3.729554364338431e-19
6.903376850531310e-03 1.148532260199324e-04 3.722659717033329e-19
6.879435853919293e-03 1.144549136063762e-04 3.728847403233941e-19
6.823372909181011e-03 1.648555440582375e-04 3.734835674221937e-19
6.797337436193270e-03 8.415127733282791e-05 3.757576901491057e-19
 6.818071177031966e-03 -8.781637027954687e-05  3.797831531491702e-19
6.776392206270979e-03 5.746713776759443e-05 3.804366404277743e-19
6.778825628229291e-03 1.839843778938074e-04 3.813544886687748e-19
 6.711178889945752e-03 -2.314986210579871e-04  3.870826071342084e-19
6.695804879147360e-03 5.683147536073395e-04 3.816299369925278e-19
 6.852412015498153e-03 -1.056973456826815e-04  3.946728745652660e-19
6.865963810268748e-03 8.502803176826440e-05 3.991970267411664e-19
 6.870413746702971e-03 -8.278343500950931e-06  4.050383187152488e-19
 6.884365396834984e-03 -8.295154213734179e-06  4.112761737190468e-19
6.887651317728912e-03 4.524467842096558e-05 4.186209395220015e-19
6.874611709480964e-03 1.166753839162198e-04 4.245412764358819e-19
 6.884046035684324e-03 -1.449223622366235e-05  4.298004482688905e-19
 6.627979633992453e-03 -4.434077424914107e-04  4.311683352152948e-19
6.754772782686966e-03 3.186318673751509e-04 4.272056968834125e-19
 6.847924085892791e-03 -7.032918395412340e-05  4.382591857595480e-19
 6.863184868737647e-03 -7.048591443047184e-05  4.474539838469897e-19
 6.746811806175635e-03 -2.884445372236592e-04  4.545497899469843e-19
6.812438320935785e-03 1.200643227784958e-04 4.585929659139031e-19
 6.678478273555528e-03 -1.973879844045586e-04  4.739608601135528e-19
6.834748064561841e-03 7.010199540896567e-04 4.679269937766010e-19
 6.781403455581266e-03 -6.156025839428031e-04  4.916438047697392e-19
6.669338980728618e-03 7.129535373506475e-04 4.774270019881631e-19
 6.777843379752901e-03 -3.809701146340873e-04  5.018314388658054e-19
6.742976925768118e-03 2.247272768756284e-04 5.050562685418358e-19
 6.849705118316005e-03 -2.202674587188041e-04  5.295708532383236e-19
 6.865667056569284e-03 -3.846735175389519e-05  5.605239578493155e-19
 6.845057833865317e-03 -1.029327239830959e-04  5.963247392378062e-19
 6.840505789060533e-03 -1.028642724984156e-04  6.281669280558641e-19
 6.852754401277892e-03 -4.345358504583669e-05  6.645454255644158e-19
 6.851558141065629e-03 -1.413452603588266e-04  7.196663018315490e-19
6.883718933189236e-03 9.793641288001565e-05 7.585074266836975e-19
 6.902591993716677e-03 -1.595094530509715e-04  8.089536011014263e-19
 6.892698021489120e-03 -2.079294065967756e-05  9.103025537114642e-19
 6.884547884261885e-03 -1.078194686144292e-04  1.004044085908778e-18
 6.856459140945845e-03 -3.782883161199686e-05  1.081240505639076e-18
 6.867129475362769e-03 -3.788770256500685e-05  1.211033279287655e-18
 6.868724799125590e-03 -6.353158841136145e-05  1.403456109190659e-18
6.855874013355382e-03 2.285417315685597e-05 1.732668803154490e-18
 6.830199875727158e-03 -8.174703017819114e-05  2.203371114347800e-18
6.834467207562183e-03 1.526744664894140e-04 2.650227482591268e-18
 6.820518738901963e-03 -8.494489775395624e-05  3.280699952091978e-18
6.786689547631794e-03 1.883460441627190e-04 4.281464058019375e-18
 6.756717913673587e-03 -2.716019352171538e-05  6.102448866524974e-18
6.778217843049308e-03 3.155025095969943e-04 8.263388021151729e-18
 6.764488232009624e-03 -1.427634802600320e-04  1.007672771206897e-17
6.707177795009985e-03 3.097139645880630e-04 1.167345600613834e-17
 6.784342880555804e-03 -6.006174912884386e-05  1.466135614174591e-17
6.773081005648622e-03 9.007677270107079e-05 2.033110325461643e-17
6.814814070522464e-03 1.457882005934842e-05 3.266656697925896e-17
6.813322212911958e-03 1.420014436323163e-04 5.120701557699371e-17
6.812262684790941e-03 3.853189064522716e-05 7.715919850588919e-17
6.818220986348646e-03 3.856559231450737e-05 1.335139520767076e-16
 6.832687270379452e-03  5.142768247066880e-05 -1.474284709844474e-16
 6.839846094496818e-03  4.257228166865454e-05 -1.654323400617757e-15
6.839083235208838e-03 4.166296132939623e-05 6.348266123616536e-15
 6.833420103239242e-03  1.178837659233831e-05 -1.843714096143445e-15
6.842897561855073e-03 4.168619779785877e-05 6.645609450418466e-15
6.839378717349887e-03 5.132371228922422e-05 9.873056925561310e-17
 6.835500444950843e-03 -2.175483429979882e-05  1.377694471733301e-16
6.825120769840313e-03 5.247726310506525e-05 1.054484764691334e-16
6.843648460369159e-03 5.261971955725112e-05 6.750231779690764e-17
 6.845168375833973e-03 -6.760211927351491e-05  4.203351995695139e-17
7.027119041492136e-03 5.173599047653943e-04 2.790650339097227e-17
 6.941075099963334e-03 -4.563984377998234e-04  2.424403725748568e-17
6.894801055138541e-03 2.877426183889622e-04 1.528037822806804e-17
 6.512155749229393e-03 -9.634419234622860e-04  1.244035453382505e-17
6.610440240831798e-03 8.591803329283811e-04 8.263761540981457e-18
 6.888613696027327e-03 -4.432198270813806e-04  7.138635200352480e-18
 6.902581256293328e-03 -7.949099233585131e-05  5.051095614434733e-18
7.191738945819517e-03 2.398910797054849e-04 3.726928249313670e-18
 7.195264987180474e-03 -8.416974880938864e-04  3.527925812307899e-18
7.418265431233010e-03 1.074394273894114e-04 2.553631771894183e-18
7.327879187494096e-03 1.081935609771144e-04 2.179603269918324e-18
7.323532770678283e-03 5.322192925344398e-04 1.853791565252743e-18
7.211769408383406e-03 3.108751247903625e-04 1.630955185100965e-18
7.084280601760873e-03 3.053795111033688e-04 1.378070912576365e-18
7.037047872215302e-03 1.435589716321399e-04 1.235467180419486e-18
7.010450944482887e-03 3.888375411342911e-04 1.099952589994180e-18
7.037731476925803e-03 2.072701797442835e-04 1.039703128069280e-18
6.982402946347987e-03 2.346643752264000e-04 9.323864862586270e-19
6.915572228009995e-03 2.324183305788450e-04 8.479853921685130e-19
6.485035291695218e-03 2.179488589730797e-04 7.722410766376570e-19
7.149030458616964e-03 1.764286404605679e-03 6.154697567472744e-19
 7.149795340619400e-03 -2.116487304333932e-03  8.160691491859859e-19
9.048764951866807e-03 6.154102269858868e-04 6.853609398285724e-19
 3.787018406972768e-03 -1.692093816423691e-03  6.848903787055115e-19
 1.112918204284022e-04  5.888066913840004e-03 -3.034077866140768e-19
 6.931519301838778e-03 -6.887473212608781e-04  6.155745819983420e-19
5.709891984702707e-03 6.780993385853675e-04 5.061136130064597e-19
 6.020785344445415e-03 -4.338714486644611e-04  5.326833542057882e-19
 6.587171878153201e-03 -1.244827915624340e-03  5.417725238103457e-19
 7.145361459704284e-03 -2.992062490096266e-04  5.156509205462897e-19
 7.272891485492847e-03 -8.559244296009053e-06  4.918084033290890e-19
7.119569476447142e-03 2.475873494656198e-05 4.715083974357469e-19
7.014707742594009e-03 2.439407190294740e-05 4.546482436950416e-19
6.958533583260404e-03 6.953544623638312e-05 4.409468123934069e-19
6.925817757871841e-03 3.347165908426218e-06 4.334194367220436e-19
6.854336025688230e-03 3.312619631668026e-06 4.247590970352844e-19
6.814379843533844e-03 3.321755850199288e-04 4.121413316728643e-19
6.753023907187479e-03 9.719698743196592e-06 4.107921814589338e-19
6.634001654921125e-03 9.548388756490577e-06 4.017170261070404e-19
6.783067556204879e-03 4.510163430985997e-04 3.935005709378421e-19
 6.652769414813795e-03 -2.344863960886829e-04  3.983653565450452e-19
 6.745533299790669e-03 -2.377559922101084e-04  3.959153026958505e-19
 6.774768852054380e-03 -1.151487882459536e-04  3.903553278834300e-19
 6.784996791114039e-03 -2.046547208854451e-04  3.878514083773999e-19
 6.819476067935959e-03 -3.827547717902147e-04  3.875194134098331e-19
 6.878467045328029e-03 -1.783693704695560e-04  3.817849992886370e-19
 6.901081018057033e-03 -3.200029773356653e-04  3.814775576281334e-19
 6.911003205150358e-03 -6.201161745162417e-05  3.751216338433960e-19
 6.713661831969007e-03 -1.040844264550197e-03  3.868197888169123e-19
6.817464671858527e-03 6.948690910311331e-05 3.683654531237724e-19
 6.852451510560548e-03 -5.670350773499852e-04  3.737863279413249e-19
7.049006337227564e-03 5.075180193735537e-04 3.673365054793759e-19
 6.924966606358506e-03 -9.029321960515256e-04  3.688232957127407e-19
7.008955748939322e-03 6.038024865635296e-04 3.569224708577568e-19
 6.834361800524039e-03 -1.371918546055476e-03  3.766259735730655e-19
6.848242774170290e-03 5.773674468957898e-04 3.581725202572261e-19
 6.878650836006255e-03 -7.132955120520265e-04  3.690184865429599e-19
6.728787547581475e-03 1.550993607754586e-03 3.370849227757220e-19
 6.989289259512962e-03 -5.737396251388253e-04  3.749271993854924e-19
6.922680516648817e-03 1.047320059647100e-03 3.563943316932664e-19
 7.082099153407830e-03 -4.008433963560891e-04  3.670619892483738e-19
7.020156221591898e-03 6.085720219165959e-04 3.582779455484398e-19
 6.954378178218120e-03 -4.863949476710515e-04  3.635364232564363e-19
6.896182417419372e-03 6.895896955932933e-04 3.473057002610974e-19
 7.020829665176582e-03 -3.471834881028915e-04  3.619975887100893e-19
6.997318489260988e-03 4.151357878282847e-04 3.540084024282565e-19
 7.063784602403312e-03 -7.085245206105421e-04  3.568964419337774e-19
6.906418776775014e-03 1.812853825244115e-04 3.533644582362805e-19
 6.915268122079000e-03 -2.996842905164329e-04  3.570514007771201e-19
6.878597103419847e-03 2.650734554355493e-04 3.542954763696133e-19
7.061447083879586e-03 1.904046678524427e-04 3.567524027008359e-19
 6.925135453953940e-03 -5.120501795907679e-05  3.539474638005585e-19
6.874182909560702e-03 2.249635440052990e-04 3.495633142482367e-19
6.864078648419855e-03 1.112078258254292e-05 3.503484472702407e-19
6.894480750942900e-03 6.880559935808166e-05 3.500609752997094e-19
6.902463831999469e-03 6.888526898030034e-05 3.496548306837756e-19
6.936383420937816e-03 6.922377999094661e-05 3.495205003365475e-19
 6.934208034223805e-03 -2.122406202345066e-04  3.513232015714891e-19
6.942023451912600e-03 1.018157917761797e-04 3.501004067385734e-19
6.913366477832631e-03 1.013954917691178e-04 3.482019855914460e-19
 6.911618917661531e-03 -6.783613694549957e-05  3.486411903908751e-19
6.899737680919830e-03 6.587567993861081e-05 3.478170638597914e-19
6.851039381720118e-03 6.541072986079752e-05 3.455356053001582e-19
 6.799584463868132e-03 -9.828191197598540e-05  3.441402838796936e-19
6.978455015263980e-03 2.364990645003106e-03 3.127778358213113e-19
 7.009108619964885e-03 -7.124417652304538e-04  3.507432399163759e-19
6.933988302103282e-03 5.733404459973881e-04 3.513160220271162e-19
 6.838683563863098e-03 -1.434381392699912e-04  3.424735243858147e-19
6.780333744007399e-03 1.104340389602309e-04 3.408054825004261e-19
 6.730320182285283e-03 -1.761991037858694e-04  3.412114636779524e-19
 6.744997760704510e-03 -1.765833613090141e-04  3.409134325694110e-19
 6.984508800288166e-03 -6.929200274830484e-04  3.483175559263338e-19
 7.577470378089288e-03 -7.517466342688248e-04  3.690291009061256e-19
 7.486231935827567e-03 -7.426950394140956e-04  3.818467881377694e-19
5.984199504089914e-03 3.572904819235843e-03 3.037647505894110e-19
 6.572621887740269e-03 -6.641733352813632e-04  3.271977053000419e-19
 6.229315054298665e-03 -6.294816629949802e-04  3.287087084733858e-19
 6.891000863958787e-03 -6.963460100723694e-04  3.443860439324665e-19
 7.104748407596258e-03 -5.569095702721234e-04  3.463051466863274e-19
7.323480674589546e-03 3.817543751163760e-05 3.541962840150862e-19
7.240928945063811e-03 3.774511639357661e-05 3.516175781266462e-19
7.274192884036654e-03 3.910202405325758e-04 3.526087354589704e-19
 7.272966344843242e-03 -1.361135844638766e-04  3.524211338054181e-19
 7.168668498599563e-03 -2.451142026249351e-04  3.526301908628648e-19
7.355264648607055e-03 2.049707567993099e-04 3.597121573647745e-19
 7.224091985890154e-03 -1.844618574439566e-04  3.583854108181073e-19
7.204381055945423e-03 7.637418048192608e-04 3.400394622046117e-19
7.267333842356645e-03 8.138985270845303e-05 3.539340360376065e-19
7.226099576276396e-03 1.013603758897598e-04 3.531622260034885e-19
 7.114201451996958e-03 -4.301484487051407e-04  3.572441886940257e-19
7.103889215471750e-03 1.587223750626381e-04 3.505609008685966e-19
 7.060803018721792e-03 -2.068460515833175e-05  3.486869736303657e-19
 7.040990790219586e-03 -2.062656528343534e-05  3.480386017904104e-19
 7.050420178999091e-03 -1.661042480909700e-04  3.477413043835831e-19
 6.997914895831971e-03 -1.807676559674882e-05  3.483518743527011e-19
7.165771962606855e-03 5.593891046207709e-05 3.499356067887192e-19
 7.100740846482875e-03 -3.114952895514266e-04  3.492802478379725e-19
 7.056583387005522e-03 -1.469044467843165e-04  3.474458324935170e-19
 7.037631632771443e-03 -4.956600371903597e-04  3.527209036713793e-19
7.182976305316851e-03 8.416274200381237e-05 3.522165934715563e-19
 7.239217391879736e-03 -6.196930628475894e-04  3.540294615209131e-19
 7.430462110694034e-03 -3.090746530750463e-04  3.631475362274482e-19
 7.714448863774760e-03 -1.551470668435766e-03  3.605810868081312e-19
 8.596672037624485e-03 -2.195511131567926e-04  3.865841289577364e-19
 8.274588180258051e-03 -2.300214757807010e-03  3.995363099858956e-19
5.304009510977013e-03 2.942060141257933e-03 2.228851939449555e-19
7.968944950707071e-03 2.224442797280205e-03 3.739570257287310e-19
8.640169585556932e-03 1.714685081126704e-03 3.798180837508273e-19
8.109653554999862e-03 1.504948370186528e-03 3.485958119314324e-19
7.437907368607723e-03 1.199506709600724e-03 3.482059452997386e-19
7.180523346951564e-03 4.820378336447766e-04 3.429039113630488e-19
6.938410217322408e-03 9.886974491638441e-04 3.429743855873667e-19
 4.999012131699550e-03 -5.164702953257230e-03  2.774911041501977e-19
6.786603092110281e-03 6.137528361534959e-04 3.337157769124197e-19
6.840898297404628e-03 2.400163762003115e-04 3.367481098324292e-19
6.870349057748948e-03 5.200496326560972e-04 3.360211560271070e-19
6.879315472617401e-03 3.446889077511556e-04 3.353387187797090e-19
6.835980376663060e-03 4.359225045871934e-04 3.332945410152741e-19
6.781230237399427e-03 4.744717349875590e-04 3.307256328227548e-19
6.808219066155109e-03 2.851432714365154e-04 3.332273390046366e-19
6.796855834753835e-03 2.298234431945193e-04 3.335467016224896e-19
6.854830164760127e-03 2.317837407884176e-04 3.353010687825026e-19
6.851374235058038e-03 2.316668847474947e-04 3.353965518879733e-19
6.888096145953485e-03 2.329085700513849e-04 3.350818456223657e-19
 6.844343035700928e-03 -3.772665200624938e-04  3.385308097063382e-19
6.791601444329266e-03 4.634567305547823e-04 3.348920619544326e-19
 6.712938717709824e-03 -3.299380201355993e-04  3.341146424743718e-19
6.687779583975803e-03 6.144442651466521e-05 3.339629485321660e-19
 6.923022287760488e-03 -4.667341988092487e-05  3.375127430958435e-19
 6.739099081983333e-03 -3.233851694672596e-04  3.339437721564151e-19
6.975078388424018e-03 1.075911621515639e-04 3.373593590855344e-19
 6.811828341427523e-03 -7.323683107561233e-04  3.388371627621246e-19
7.124317892819077e-03 7.674531873593997e-04 3.362263098066188e-19
 7.004305710135482e-03 -1.269207304743652e-03  3.409239654298922e-19
4.617509055646082e-03 4.865595469645314e-03 2.185549738908760e-19
 7.524017007726141e-03 -3.999248203735710e-04  3.523062546748044e-19
7.412974953972984e-03 7.926045551983591e-04 3.401786515237333e-19
 6.680135582066362e-03 -2.034151172043997e-03  3.349658182229603e-19
6.887096128931624e-03 1.296632509196951e-03 3.222929971812351e-19
 7.188563391823014e-03 -6.252103666982180e-04  3.407793953816991e-19
6.975409059576824e-03 5.078205904014641e-04 3.332901292660220e-19
 6.814970367730472e-03 -5.895308537616826e-04  3.334876887662027e-19
6.784246121886562e-03 6.908888336861547e-04 3.248932679659483e-19
 6.855926361131468e-03 -2.770773322607175e-04  3.305743380943737e-19
6.723023516000977e-03 6.034524802167710e-04 3.254244805858544e-19
 6.769177037221837e-03 -3.327368834877803e-05  3.268016318777808e-19
6.604609477075538e-03 3.383665935334380e-04 3.225898151617039e-19
6.325987258647870e-03 3.240922520664171e-04 3.135365855549363e-19
6.893280159383585e-03 4.508864245469111e-04 3.228531591564488e-19
 6.350522193999080e-03 -4.339582062464878e-04  3.144165391445066e-19
 6.624752417710334e-03 -4.266514349315268e-05  3.240266820723533e-19
 6.685350625827881e-03 -5.192164677017974e-04  3.220505142903550e-19
 6.694397023784156e-03 -1.019709890207285e-04  3.263177937197784e-19
 6.798043550265098e-03 -3.703984515421996e-04  3.286731265597735e-19
 6.785549106888987e-03 -2.584692823722250e-04  3.276362307525882e-19
 7.019740620301088e-03 -2.673899034532569e-04  3.311004470756012e-19
 7.210138642650722e-03 -1.139767210273990e-03  3.422791232108954e-19
 6.925242443101442e-03 -5.311997866656912e-04  3.383566027309906e-19
7.369975473943902e-03 1.228930918801675e-03 3.309545179364948e-19

VECTORS velocity double
0.000000000000000e+00 0.000000000000000e+00 0.000000000000000e+00
0.000000000000000e+00 0.000000000000000e+00 0.000000000000000e+00
0.000000000000000e+00 0.000000000000000e+00 0.000000000000000e+00
0.000000000000000e+00 0.000000000000000e+00 0.000000000000000e+00
0.000000000000000e+00 0.000000000000000e+00 0.000000000000000e+00
0.000000000000000e+00 0.000000000000000e+00 0.000000000000000e+00
0.000000000000000e+00 0.000000000000000e+00 0.000000000000000e+00
0.000000000000000e+00 0.000000000000000e+00 0.000000000000000e+00
0.000000000000000e+00 0.000000000000000e+00 0.000000000000000e+00
0.000000000000000e+00 0.000000000000000e+00 0.000000000000000e+00
0.000000000000000e+00 0.000000000000000e+00 0.000000000000000e+00
0.000000000000000e+00 0.000000000000000e+00 0.000000000000000e+00
0.000000000000000e+00 0.000000000000000e+00 0.000000000000000e+00
0.000000000000000e+00 0.000000000000000e+00 0.000000000000000e+00
0.000000000000000e+00 0.000000000000000e+00 0.000000000000000e+00
0.000000000000000e+00 0.000000000000000e+00 0.000000000000000e+00
0.000000000000000e+00 0.000000000000000e+00 0.000000000000000e+00
0.000000000000000e+00 0.000000000000000e+00 0.000000000000000e+00
0.000000000000000e+00 0.000000000000000e+00 0.000000000000000e+00
0.000000000000000e+00 0.000000000000000e+00 0.000000000000000e+00
0.000000000000000e+00 0.000000000000000e+00 0.000000000000000e+00
0.000000000000000e+00 0.000000000000000e+00 0.000000000000000e+00
0.000000000000000e+00 0.000000000000000e+00 0.000000000000000e+00
0.000000000000000e+00 0.000000000000000e+00 0.000000000000000e+00
0.000000000000000e+00 0.000000000000000e+00 0.000000000000000e+00
0.000000000000000e+00 0.000000000000000e+00 0.000000000000000e+00
0.000000000000000e+00 0.000000000000000e+00 0.000000000000000e+00
0.000000000000000e+00 0.000000000000000e+00 0.000000000000000e+00
0.000000000000000e+00 0.000000000000000e+00 0.000000000000000e+00
0.000000000000000e+00 0.000000000000000e+00 0.000000000000000e+00
0.000000000000000e+00 0.000000000000000e+00 0.000000000000000e+00
0.000000000000000e+00 0.000000000000000e+00 0.000000000000000e+00
0.000000000000000e+00 0.000000000000000e+00 0.000000000000000e+00
0.000000000000000e+00 0.000000000000000e+00 0.000000000000000e+00
0.000000000000000e+00 0.000000000000000e+00 0.000000000000000e+00
0.000000000000000e+00 0.000000000000000e+00 0.000000000000000e+00
0.000000000000000e+00 0.000000000000000e+00 0.000000000000000e+00
0.000000000000000e+00 0.000000000000000e+00 0.000000000000000e+00
0.000000000000000e+00 0.000000000000000e+00 0.000000000000000e+00
0.000000000000000e+00 0.000000000000000e+00 0.000000000000000e+00
0.000000000000000e+00 0.000000000000000e+00 0.000000000000000e+00
0.000000000000000e+00 0.000000000000000e+00 0.000000000000000e+00
0.000000000000000e+00 0.000000000000000e+00 0.000000000000000e+00
0.000000000000000e+00 0.000000000000000e+00 0.000000000000000e+00
0.000000000000000e+00 0.000000000000000e+00 0.000000000000000e+00
0.000000000000000e+00 0.000000000000000e+00 0.000000000000000e+00
0.000000000000000e+00 0.000000000000000e+00 0.000000000000000e+00
0.000000000000000e+00 0.000000000000000e+00 0.000000000000000e+00
0.000000000000000e+00 0.000000000000000e+00 0.000000000000000e+00
0.000000000000000e+00 0.000000000000000e+00 0.000000000000000e+00
0.000000000000000e+00 0.000000000000000e+00 0.000000000000000e+00
0.000000000000000e+00 0.000000000000000e+00 0.000000000000000e+00
0.000000000000000e+00 0.000000000000000e+00 0.000000000000000e+00
0.000000000000000e+00 0.000000000000000e+00 0.000000000000000e+00
0.000000000000000e+00 0.000000000000000e+00 0.000000000000000e+00
0.000000000000000e+00 0.000000000000000e+00 0.000000000000000e+00
0.000000000000000e+00 0.000000000000000e+00 0.000000000000000e+00
0.000000000000000e+00 0.000000000000000e+00 0.000000000000000e+00
0.000000000000000e+00 0.000000000000000e+00 0.000000000000000e+00
0.000000000000000e+00 0.000000000000000e+00 0.000000000000000e+00
0.000000000000000e+00 0.000000000000000e+00 0.000000000000000e+00
0.000000000000000e+00 0.000000000000000e+00 0.000000000000000e+00
0.000000000000000e+00 0.000000000000000e+00 0.000000000000000e+00
0.000000000000000e+00 0.000000000000000e+00 0.000000000000000e+00
0.000000000000000e+00 0.000000000000000e+00 0.000000000000000e+00
0.000000000000000e+00 0.000000000000000e+00 0.000000000000000e+00
0.000000000000000e+00 0.000000000000000e+00 0.000000000000000e+00
0.000000000000000e+00 0.000000000000000e+00 0.000000000000000e+00
0.000000000000000e+00 0.000000000000000e+00 0.000000000000000e+00
0.000000000000000e+00 0.000000000000000e+00 0.000000000000000e+00
0.000000000000000e+00 0.000000000000000e+00 0.000000000000000e+00
0.000000000000000e+00 0.000000000000000e+00 0.000000000000000e+00
0.000000000000000e+00 0.000000000000000e+00 0.000000000000000e+00
0.000000000000000e+00 0.000000000000000e+00 0.000000000000000e+00
0.000000000000000e+00 0.000000000000000e+00 0.000000000000000e+00
0.000000000000000e+00 0.000000000000000e+00 0.000000000000000e+00
0.000000000000000e+00 0.000000000000000e+00 0.000000000000000e+00
0.000000000000000e+00 0.000000000000000e+00 0.000000000000000e+00
0.000000000000000e+00 0.000000000000000e+00 0.000000000000000e+00
0.000000000000000e+00 0.000000000000000e+00 0.000000000000000e+00
0.000000000000000e+00 0.000000000000000e+00 0.000000000000000e+00
0.000000000000000e+00 0.000000000000000e+00 0.000000000000000e+00
0.000000000000000e+00 0.000000000000000e+00 0.000000000000000e+00
0.000000000000000e+00 0.000000000000000e+00 0.000000000000000e+00
0.000000000000000e+00 0.000000000000000e+00 0.000000000000000e+00
0.000000000000000e+00 0.000000000000000e+00 0.000000000000000e+00
0.000000000000000e+00 0.000000000000000e+00 0.000000000000000e+00
0.000000000000000e+00 0.000000000000000e+00 0.000000000000000e+00
0.000000000000000e+00 0.000000000000000e+00 0.000000000000000e+00
0.000000000000000e+00 0.000000000000000e+00 0.000000000000000e+00
0.000000000000000e+00 0.000000000000000e+00 0.000000000000000e+00
0.000000000000000e+00 0.000000000000000e+00 0.000000000000000e+00
0.000000000000000e+00 0.000000000000000e+00 0.000000000000000e+00
0.000000000000000e+00 0.000000000000000e+00 0.000000000000000e+00
0.000000000000000e+00 0.000000000000000e+00 0.000000000000000e+00
0.000000000000000e+00 0.000000000000000e+00 0.000000000000000e+00
0.000000000000000e+00 0.000000000000000e+00 0.000000000000000e+00
0.000000000000000e+00 0.000000000000000e+00 0.000000000000000e+00
0.000000000000000e+00 0.000000000000000e+00 0.000000000000000e+00
0.000000000000000e+00 0.000000000000000e+00 0.000000000000000e+00
0.000000000000000e+00 0.000000000000000e+00 0.000000000000000e+00
0.000000000000000e+00 0.000000000000000e+00 0.000000000000000e+00
0.000000000000000e+00 0.000000000000000e+00 0.000000000000000e+00
0.000000000000000e+00 0.000000000000000e+00 0.000000000000000e+00
0.000000000000000e+00 0.000000000000000e+00 0.000000000000000e+00
0.000000000000000e+00 0.000000000000000e+00 0.000000000000000e+00
0.000000000000000e+00 0.000000000000000e+00 0.000000000000000e+00
0.000000000000000e+00 0.000000000000000e+00 0.000000000000000e+00
0.000000000000000e+00 0.000000000000000e+00 0.000000000000000e+00
0.000000000000000e+00 0.000000000000000e+00 0.000000000000000e+00
0.000000000000000e+00 0.000000000000000e+00 0.000000000000000e+00
0.000000000000000e+00 0.000000000000000e+00 0.000000000000000e+00
0.000000000000000e+00 0.000000000000000e+00 0.000000000000000e+00
0.000000000000000e+00 0.000000000000000e+00 0.000000000000000e+00
0.000000000000000e+00 0.000000000000000e+00 0.000000000000000e+00
0.000000000000000e+00 0.000000000000000e+00 0.000000000000000e+00
0.000000000000000e+00 0.000000000000000e+00 0.000000000000000e+00
0.000000000000000e+00 0.000000000000000e+00 0.000000000000000e+00
0.000000000000000e+00 0.000000000000000e+00 0.000000000000000e+00
0.000000000000000e+00 0.000000000000000e+00 0.000000000000000e+00
0.000000000000000e+00 0.000000000000000e+00 0.000000000000000e+00
0.000000000000000e+00 0.000000000000000e+00 0.000000000000000e+00
0.000000000000000e+00 0.000000000000000e+00 0.000000000000000e+00
0.000000000000000e+00 0.000000000000000e+00 0.000000000000000e+00
0.000000000000000e+00 0.000000000000000e+00 0.000000000000000e+00
0.000000000000000e+00 0.000000000000000e+00 0.000000000000000e+00
0.000000000000000e+00 0.000000000000000e+00 0.000000000000000e+00
0.000000000000000e+00 0.000000000000000e+00 0.000000000000000e+00
0.000000000000000e+00 0.000000000000000e+00 0.000000000000000e+00
0.000000000000000e+00 0.000000000000000e+00 0.000000000000000e+00
0.000000000000000e+00 0.000000000000000e+00 0.000000000000000e+00
0.000000000000000e+00 0.000000000000000e+00 0.000000000000000e+00
0.000000000000000e+00 0.000000000000000e+00 0.000000000000000e+00
0.000000000000000e+00 0.000000000000000e+00 0.000000000000000e+00
0.000000000000000e+00 0.000000000000000e+00 0.000000000000000e+00
0.000000000000000e+00 0.000000000000000e+00 0.000000000000000e+00
0.000000000000000e+00 0.000000000000000e+00 0.000000000000000e+00
0.000000000000000e+00 0.000000000000000e+00 0.000000000000000e+00
0.000000000000000e+00 0.000000000000000e+00 0.000000000000000e+00
0.000000000000000e+00 0.000000000000000e+00 0.000000000000000e+00
0.000000000000000e+00 0.000000000000000e+00 0.000000000000000e+00
0.000000000000000e+00 0.000000000000000e+00 0.000000000000000e+00
0.000000000000000e+00 0.000000000000000e+00 0.000000000000000e+00
0.000000000000000e+00 0.000000000000000e+00 0.000000000000000e+00
0.000000000000000e+00 0.000000000000000e+00 0.000000000000000e+00
0.000000000000000e+00 0.000000000000000e+00 0.000000000000000e+00
0.000000000000000e+00 0.000000000000000e+00 0.000000000000000e+00
0.000000000000000e+00 0.000000000000000e+00 0.000000000000000e+00
0.000000000000000e+00 0.000000000000000e+00 0.000000000000000e+00
0.000000000000000e+00 0.000000000000000e+00 0.000000000000000e+00
0.000000000000000e+00 0.000000000000000e+00 0.000000000000000e+00
0.000000000000000e+00 0.000000000000000e+00 0.000000000000000e+00
0.000000000000000e+00 0.000000000000000e+00 0.000000000000000e+00
0.000000000000000e+00 0.000000000000000e+00 0.000000000000000e+00
0.000000000000000e+00 0.000000000000000e+00 0.000000000000000e+00
0.000000000000000e+00 0.000000000000000e+00 0.000000000000000e+00
0.000000000000000e+00 0.000000000000000e+00 0.000000000000000e+00
0.000000000000000e+00 0.000000000000000e+00 0.000000000000000e+00
0.000000000000000e+00 0.000000000000000e+00 0.000000000000000e+00
0.000000000000000e+00 0.000000000000000e+00 0.000000000000000e+00
0.000000000000000e+00 0.000000000000000e+00 0.000000000000000e+00
0.000000000000000e+00 0.000000000000000e+00 0.000000000000000e+00
0.000000000000000e+00 0.000000000000000e+00 0.000000000000000e+00
0.000000000000000e+00 0.000000000000000e+00 0.000000000000000e+00
0.000000000000000e+00 0.000000000000000e+00 0.000000000000000e+00
0.000000000000000e+00 0.000000000000000e+00 0.000000000000000e+00
0.000000000000000e+00 0.000000000000000e+00 0.000000000000000e+00
0.000000000000000e+00 0.000000000000000e+00 0.000000000000000e+00
0.000000000000000e+00 0.000000000000000e+00 0.000000000000000e+00
0.000000000000000e+00 0.000000000000000e+00 0.000000000000000e+00
0.000000000000000e+00 0.000000000000000e+00 0.000000000000000e+00
0.000000000000000e+00 0.000000000000000e+00 0.000000000000000e+00
0.000000000000000e+00 0.000000000000000e+00 0.000000000000000e+00
0.000000000000000e+00 0.000000000000000e+00 0.000000000000000e+00
0.000000000000000e+00 0.000000000000000e+00 0.000000000000000e+00
0.000000000000000e+00 0.000000000000000e+00 0.000000000000000e+00
0.000000000000000e+00 0.000000000000000e+00 0.000000000000000e+00
0.000000000000000e+00 0.000000000000000e+00 0.000000000000000e+00
0.000000000000000e+00 0.000000000000000e+00 0.000000000000000e+00
0.000000000000000e+00 0.000000000000000e+00 0.000000000000000e+00
0.000000000000000e+00 0.000000000000000e+00 0.000000000000000e+00
0.000000000000000e+00 0.000000000000000e+00 0.000000000000000e+00
0.000000000000000e+00 0.000000000000000e+00 0.000000000000000e+00
0.000000000000000e+00 0.000000000000000e+00 0.000000000000000e+00
0.000000000000000e+00 0.000000000000000e+00 0.000000000000000e+00
0.000000000000000e+00 0.000000000000000e+00 0.000000000000000e+00
0.000000000000000e+00 0.000000000000000e+00 0.000000000000000e+00
0.000000000000000e+00 0.000000000000000e+00 0.000000000000000e+00
0.000000000000000e+00 0.000000000000000e+00 0.000000000000000e+00
0.000000000000000e+00 0.000000000000000e+00 0.000000000000000e+00
0.000000000000000e+00 0.000000000000000e+00 0.000000000000000e+00
0.000000000000000e+00 0.000000000000000e+00 0.000000000000000e+00
0.000000000000000e+00 0.000000000000000e+00 0.000000000000000e+00
0.000000000000000e+00 0.000000000000000e+00 0.000000000000000e+00
0.000000000000000e+00 0.000000000000000e+00 0.000000000000000e+00
0.000000000000000e+00 0.000000000000000e+00 0.000000000000000e+00
0.000000000000000e+00 0.000000000000000e+00 0.000000000000000e+00
0.000000000000000e+00 0.000000000000000e+00 0.000000000000000e+00
0.000000000000000e+00 0.000000000000000e+00 0.000000000000000e+00
0.000000000000000e+00 0.000000000000000e+00 0.000000000000000e+00
0.000000000000000e+00 0.000000000000000e+00 0.000000000000000e+00
0.000000000000000e+00 0.000000000000000e+00 0.000000000000000e+00
0.000000000000000e+00 0.000000000000000e+00 0.000000000000000e+00
0.000000000000000e+00 0.000000000000000e+00 0.000000000000000e+00
0.000000000000000e+00 0.000000000000000e+00 0.000000000000000e+00
0.000000000000000e+00 0.000000000000000e+00 0.000000000000000e+00
0.000000000000000e+00 0.000000000000000e+00 0.000000000000000e+00
0.000000000000000e+00 0.000000000000000e+00 0.000000000000000e+00
0.000000000000000e+00 0.000000000000000e+00 0.000000000000000e+00
0.000000000000000e+00 0.000000000000000e+00 0.000000000000000e+00
0.000000000000000e+00 0.000000000000000e+00 0.000000000000000e+00
0.000000000000000e+00 0.000000000000000e+00 0.000000000000000e+00
0.000000000000000e+00 0.000000000000000e+00 0.000000000000000e+00
0.000000000000000e+00 0.000000000000000e+00 0.000000000000000e+00
0.000000000000000e+00 0.000000000000000e+00 0.000000000000000e+00
0.000000000000000e+00 0.000000000000000e+00 0.000000000000000e+00
0.000000000000000e+00 0.000000000000000e+00 0.000000000000000e+00
0.000000000000000e+00 0.000000000000000e+00 0.000000000000000e+00
0.000000000000000e+00 0.000000000000000e+00 0.000000000000000e+00
0.000000000000000e+00 0.000000000000000e+00 0.000000000000000e+00
0.000000000000000e+00 0.000000000000000e+00 0.000000000000000e+00
0.000000000000000e+00 0.000000000000000e+00 0.000000000000000e+00
0.000000000000000e+00 0.000000000000000e+00 0.000000000000000e+00
0.000000000000000e+00 0.000000000000000e+00 0.000000000000000e+00
0.000000000000000e+00 0.000000000000000e+00 0.000000000000000e+00
0.000000000000000e+00 0.000000000000000e+00 0.000000000000000e+00
0.000000000000000e+00 0.000000000000000e+00 0.000000000000000e+00
0.000000000000000e+00 0.000000000000000e+00 0.000000000000000e+00
0.000000000000000e+00 0.000000000000000e+00 0.000000000000000e+00
0.000000000000000e+00 0.000000000000000e+00 0.000000000000000e+00
0.000000000000000e+00 0.000000000000000e+00 0.000000000000000e+00
0.000000000000000e+00 0.000000000000000e+00 0.000000000000000e+00
0.000000000000000e+00 0.000000000000000e+00 0.000000000000000e+00
0.000000000000000e+00 0.000000000000000e+00 0.000000000000000e+00
0.000000000000000e+00 0.000000000000000e+00 0.000000000000000e+00
0.000000000000000e+00 0.000000000000000e+00 0.000000000000000e+00
0.000000000000000e+00 0.000000000000000e+00 0.000000000000000e+00
0.000000000000000e+00 0.000000000000000e+00 0.000000000000000e+00
0.000000000000000e+00 0.000000000000000e+00 0.000000000000000e+00
0.000000000000000e+00 0.000000000000000e+00 0.000000000000000e+00
0.000000000000000e+00 0.000000000000000e+00 0.000000000000000e+00
0.000000000000000e+00 0.000000000000000e+00 0.000000000000000e+00
0.000000000000000e+00 0.000000000000000e+00 0.000000000000000e+00
0.000000000000000e+00 0.000000000000000e+00 0.000000000000000e+00
0.000000000000000e+00 0.000000000000000e+00 0.000000000000000e+00
0.000000000000000e+00 0.000000000000000e+00 0.000000000000000e+00
0.000000000000000e+00 0.000000000000000e+00 0.000000000000000e+00
0.000000000000000e+00 0.000000000000000e+00 0.000000000000000e+00
0.000000000000000e+00 0.000000000000000e+00 0.000000000000000e+00
0.000000000000000e+00 0.000000000000000e+00 0.000000000000000e+00
0.000000000000000e+00 0.000000000000000e+00 0.000000000000000e+00
0.000000000000000e+00 0.000000000000000e+00 0.000000000000000e+00
0.000000000000000e+00 0.000000000000000e+00 0.000000000000000e+00
0.000000000000000e+00 0.000000000000000e+00 0.000000000000000e+00
0.000000000000000e+00 0.000000000000000e+00 0.000000000000000e+00
0.000000000000000e+00 0.000000000000000e+00 0.000000000000000e+00
0.000000000000000e+00 0.000000000000000e+00 0.000000000000000e+00
0.000000000000000e+00 0.000000000000000e+00 0.000000000000000e+00
0.000000000000000e+00 0.000000000000000e+00 0.000000000000000e+00
0.000000000000000e+00 0.000000000000000e+00 0.000000000000000e+00
0.000000000000000e+00 0.000000000000000e+00 0.000000000000000e+00
0.000000000000000e+00 0.000000000000000e+00 0.000000000000000e+00
0.000000000000000e+00 0.000000000000000e+00 0.000000000000000e+00
0.000000000000000e+00 0.000000000000000e+00 0.000000000000000e+00
0.000000000000000e+00 0.000000000000000e+00 0.000000000000000e+00
0.000000000000000e+00 0.000000000000000e+00 0.000000000000000e+00
0.000000000000000e+00 0.000000000000000e+00 0.000000000000000e+00
0.000000000000000e+00 0.000000000000000e+00 0.000000000000000e+00
0.000000000000000e+00 0.000000000000000e+00 0.000000000000000e+00
0.000000000000000e+00 0.000000000000000e+00 0.000000000000000e+00
0.000000000000000e+00 0.000000000000000e+00 0.000000000000000e+00
0.000000000000000e+00 0.000000000000000e+00 0.000000000000000e+00
0.000000000000000e+00 0.000000000000000e+00 0.000000000000000e+00
0.000000000000000e+00 0.000000000000000e+00 0.000000000000000e+00
0.000000000000000e+00 0.000000000000000e+00 0.000000000000000e+00
0.000000000000000e+00 0.000000000000000e+00 0.000000000000000e+00
0.000000000000000e+00 0.000000000000000e+00 0.000000000000000e+00
0.000000000000000e+00 0.000000000000000e+00 0.000000000000000e+00
0.000000000000000e+00 0.000000000000000e+00 0.000000000000000e+00
0.000000000000000e+00 0.000000000000000e+00 0.000000000000000e+00
0.000000000000000e+00 0.000000000000000e+00 0.000000000000000e+00
0.000000000000000e+00 0.000000000000000e+00 0.000000000000000e+00
0.000000000000000e+00 0.000000000000000e+00 0.000000000000000e+00
0.000000000000000e+00 0.000000000000000e+00 0.000000000000000e+00
0.000000000000000e+00 0.000000000000000e+00 0.000000000000000e+00
0.000000000000000e+00 0.000000000000000e+00 0.000000000000000e+00
0.000000000000000e+00 0.000000000000000e+00 0.000000000000000e+00
0.000000000000000e+00 0.000000000000000e+00 0.000000000000000e+00
0.000000000000000e+00 0.000000000000000e+00 0.000000000000000e+00
0.000000000000000e+00 0.000000000000000e+00 0.000000000000000e+00
0.000000000000000e+00 0.000000000000000e+00 0.000000000000000e+00
0.000000000000000e+00 0.000000000000000e+00 0.000000000000000e+00
0.000000000000000e+00 0.000000000000000e+00 0.000000000000000e+00
0.000000000000000e+00 0.000000000000000e+00 0.000000000000000e+00
0.000000000000000e+00 0.000000000000000e+00 0.000000000000000e+00
0.000000000000000e+00 0.000000000000000e+00 0.000000000000000e+00
0.000000000000000e+00 0.000000000000000e+00 0.000000000000000e+00
0.000000000000000e+00 0.000000000000000e+00 0.000000000000000e+00
0.000000000000000e+00 0.000000000000000e+00 0.000000000000000e+00
0.000000000000000e+00 0.000000000000000e+00 0.000000000000000e+00
0.000000000000000e+00 0.000000000000000e+00 0.000000000000000e+00
0.000000000000000e+00 0.000000000000000e+00 0.000000000000000e+00
0.000000000000000e+00 0.000000000000000e+00 0.000000000000000e+00
0.000000000000000e+00 0.000000000000000e+00 0.000000000000000e+00
0.000000000000000e+00 0.000000000000000e+00 0.000000000000000e+00
0.000000000000000e+00 0.000000000000000e+00 0.000000000000000e+00
0.000000000000000e+00 0.000000000000000e+00 0.000000000000000e+00
0.000000000000000e+00 0.000000000000000e+00 0.000000000000000e+00
0.000000000000000e+00 0.000000000000000e+00 0.000000000000000e+00
0.000000000000000e+00 0.000000000000000e+00 0.000000000000000e+00
0.000000000000000e+00 0.000000000000000e+00 0.000000000000000e+00
0.000000000000000e+00 0.000000000000000e+00 0.000000000000000e+00
0.000000000000000e+00 0.000000000000000e+00 0.000000000000000e+00
0.000000000000000e+00 0.000000000000000e+00 0.000000000000000e+00
0.000000000000000e+00 0.000000000000000e+00 0.000000000000000e+00
0.000000000000000e+00 0.000000000000000e+00 0.000000000000000e+00
0.000000000000000e+00 0.000000000000000e+00 0.000000000000000e+00
0.000000000000000e+00 0.000000000000000e+00 0.000000000000000e+00
0.000000000000000e+00 0.000000000000000e+00 0.000000000000000e+00
0.000000000000000e+00 0.000000000000000e+00 0.000000000000000e+00
0.000000000000000e+00 0.000000000000000e+00 0.000000000000000e+00
0.000000000000000e+00 0.000000000000000e+00 0.000000000000000e+00
0.000000000000000e+00 0.000000000000000e+00 0.000000000000000e+00
0.000000000000000e+00 0.000000000000000e+00 0.000000000000000e+00
0.000000000000000e+00 0.000000000000000e+00 0.000000000000000e+00
0.000000000000000e+00 0.000000000000000e+00 0.000000000000000e+00
0.000000000000000e+00 0.000000000000000e+00 0.000000000000000e+00
0.000000000000000e+00 0.000000000000000e+00 0.000000000000000e+00
0.000000000000000e+00 0.000000000000000e+00 0.000000000000000e+00
0.000000000000000e+00 0.000000000000000e+00 0.000000000000000e+00
0.000000000000000e+00 0.000000000000000e+00 0.000000000000000e+00
0.000000000000000e+00 0.000000000000000e+00 0.000000000000000e+00
0.000000000000000e+00 0.000000000000000e+00 0.000000000000000e+00
0.000000000000000e+00 0.000000000000000e+00 0.000000000000000e+00
0.000000000000000e+00 0.000000000000000e+00 0.000000000000000e+00
0.000000000000000e+00 0.000000000000000e+00 0.000000000000000e+00
0.000000000000000e+00 0.000000000000000e+00 0.000000000000000e+00
0.000000000000000e+00 0.000000000000000e+00 0.000000000000000e+00
0.000000000000000e+00 0.000000000000000e+00 0.000000000000000e+00
0.000000000000000e+00 0.000000000000000e+00 0.000000000000000e+00
0.000000000000000e+00 0.000000000000000e+00 0.000000000000000e+00
0.000000000000000e+00 0.000000000000000e+00 0.000000000000000e+00
0.000000000000000e+00 0.000000000000000e+00 0.000000000000000e+00
0.000000000000000e+00 0.000000000000000e+00 0.000000000000000e+00
0.000000000000000e+00 0.000000000000000e+00 0.000000000000000e+00
0.000000000000000e+00 0.000000000000000e+00 0.000000000000000e+00
0.000000000000000e+00 0.000000000000000e+00 0.000000000000000e+00
0.000000000000000e+00 0.000000000000000e+00 0.000000000000000e+00
0.000000000000000e+00 0.000000000000000e+00 0.000000000000000e+00
0.000000000000000e+00 0.000000000000000e+00 0.000000000000000e+00
0.000000000000000e+00 0.000000000000000e+00 0.000000000000000e+00
0.000000000000000e+00 0.000000000000000e+00 0.000000000000000e+00
0.000000000000000e+00 0.000000000000000e+00 0.000000000000000e+00
0.000000000000000e+00 0.000000000000000e+00 0.000000000000000e+00
0.000000000000000e+00 0.000000000000000e+00 0.000000000000000e+00
0.000000000000000e+00 0.000000000000000e+00 0.000000000000000e+00
0.000000000000000e+00 0.000000000000000e+00 0.000000000000000e+00
0.000000000000000e+00 0.000000000000000e+00 0.000000000000000e+00
0.000000000000000e+00 0.000000000000000e+00 0.000000000000000e+00
0.000000000000000e+00 0.000000000000000e+00 0.000000000000000e+00
0.000000000000000e+00 0.000000000000000e+00 0.000000000000000e+00
0.000000000000000e+00 0.000000000000000e+00 0.000000000000000e+00
0.000000000000000e+00 0.000000000000000e+00 0.000000000000000e+00
0.000000000000000e+00 0.000000000000000e+00 0.000000000000000e+00
0.000000000000000e+00 0.000000000000000e+00 0.000000000000000e+00
0.000000000000000e+00 0.000000000000000e+00 0.000000000000000e+00
0.000000000000000e+00 0.000000000000000e+00 0.000000000000000e+00
0.000000000000000e+00 0.000000000000000e+00 0.000000000000000e+00
0.000000000000000e+00 0.000000000000000e+00 0.000000000000000e+00
0.000000000000000e+00 0.000000000000000e+00 0.000000000000000e+00
0.000000000000000e+00 0.000000000000000e+00 0.000000000000000e+00
0.000000000000000e+00 0.000000000000000e+00 0.000000000000000e+00
0.000000000000000e+00 0.000000000000000e+00 0.000000000000000e+00
0.000000000000000e+00 0.000000000000000e+00 0.000000000000000e+00
0.000000000000000e+00 0.000000000000000e+00 0.000000000000000e+00
0.000000000000000e+00 0.000000000000000e+00 0.000000000000000e+00
0.000000000000000e+00 0.000000000000000e+00 0.000000000000000e+00
0.000000000000000e+00 0.000000000000000e+00 0.000000000000000e+00
0.000000000000000e+00 0.000000000000000e+00 0.000000000000000e+00
0.000000000000000e+00 0.000000000000000e+00 0.000000000000000e+00
0.000000000000000e+00 0.000000000000000e+00 0.000000000000000e+00
0.000000000000000e+00 0.000000000000000e+00 0.000000000000000e+00
0.000000000000000e+00 0.000000000000000e+00 0.000000000000000e+00
0.000000000000000e+00 0.000000000000000e+00 0.000000000000000e+00
0.000000000000000e+00 0.000000000000000e+00 0.000000000000000e+00
0.000000000000000e+00 0.000000000000000e+00 0.000000000000000e+00
0.000000000000000e+00 0.000000000000000e+00 0.000000000000000e+00
0.000000000000000e+00 0.000000000000000e+00 0.000000000000000e+00
0.000000000000000e+00 0.000000000000000e+00 0.000000000000000e+00
0.000000000000000e+00 0.000000000000000e+00 0.000000000000000e+00
0.000000000000000e+00 0.000000000000000e+00 0.000000000000000e+00
0.000000000000000e+00 0.000000000000000e+00 0.000000000000000e+00
0.000000000000000e+00 0.000000000000000e+00 0.000000000000000e+00
0.000000000000000e+00 0.000000000000000e+00 0.000000000000000e+00
0.000000000000000e+00 0.000000000000000e+00 0.000000000000000e+00
0.000000000000000e+00 0.000000000000000e+00 0.000000000000000e+00
0.000000000000000e+00 0.000000000000000e+00 0.000000000000000e+00
0.000000000000000e+00 0.000000000000000e+00 0.000000000000000e+00
0.000000000000000e+00 0.000000000000000e+00 0.000000000000000e+00
0.000000000000000e+00 0.000000000000000e+00 0.000000000000000e+00
0.000000000000000e+00 0.000000000000000e+00 0.000000000000000e+00
0.000000000000000e+00 0.000000000000000e+00 0.000000000000000e+00
0.000000000000000e+00 0.000000000000000e+00 0.000000000000000e+00
0.000000000000000e+00 0.000000000000000e+00 0.000000000000000e+00
0.000000000000000e+00 0.000000000000000e+00 0.000000000000000e+00
0.000000000000000e+00 0.000000000000000e+00 0.000000000000000e+00
0.000000000000000e+00 0.000000000000000e+00 0.000000000000000e+00
0.000000000000000e+00 0.000000000000000e+00 0.000000000000000e+00
0.000000000000000e+00 0.000000000000000e+00 0.000000000000000e+00
0.000000000000000e+00 0.000000000000000e+00 0.000000000000000e+00
0.000000000000000e+00 0.000000000000000e+00 0.000000000000000e+00
0.000000000000000e+00 0.000000000000000e+00 0.000000000000000e+00
0.000000000000000e+00 0.000000000000000e+00 0.000000000000000e+00
0.000000000000000e+00 0.000000000000000e+00 0.000000000000000e+00
0.000000000000000e+00 0.000000000000000e+00 0.000000000000000e+00
0.000000000000000e+00 0.000000000000000e+00 0.000000000000000e+00
0.000000000000000e+00 0.000000000000000e+00 0.000000000000000e+00
0.000000000000000e+00 0.000000000000000e+00 0.000000000000000e+00
0.000000000000000e+00 0.000000000000000e+00 0.000000000000000e+00
0.000000000000000e+00 0.000000000000000e+00 0.000000000000000e+00
0.000000000000000e+00 0.000000000000000e+00 0.000000000000000e+00
0.000000000000000e+00 0.000000000000000e+00 0.000000000000000e+00
0.000000000000000e+00 0.000000000000000e+00 0.000000000000000e+00
0.000000000000000e+00 0.000000000000000e+00 0.000000000000000e+00
0.000000000000000e+00 0.000000000000000e+00 0.000000000000000e+00
0.000000000000000e+00 0.000000000000000e+00 0.000000000000000e+00
0.000000000000000e+00 0.000000000000000e+00 0.000000000000000e+00
0.000000000000000e+00 0.000000000000000e+00 0.000000000000000e+00
0.000000000000000e+00 0.000000000000000e+00 0.000000000000000e+00
0.000000000000000e+00 0.000000000000000e+00 0.000000000000000e+00
0.000000000000000e+00 0.000000000000000e+00 0.000000000000000e+00
0.000000000000000e+00 0.000000000000000e+00 0.000000000000000e+00
0.000000000000000e+00 0.000000000000000e+00 0.000000000000000e+00
0.000000000000000e+00 0.000000000000000e+00 0.000000000000000e+00
0.000000000000000e+00 0.000000000000000e+00 0.000000000000000e+00
0.000000000000000e+00 0.000000000000000e+00 0.000000000000000e+00
0.000000000000000e+00 0.000000000000000e+00 0.000000000000000e+00
0.000000000000000e+00 0.000000000000000e+00 0.000000000000000e+00
0.000000000000000e+00 0.000000000000000e+00 0.000000000000000e+00
0.000000000000000e+00 0.000000000000000e+00 0.000000000000000e+00
0.000000000000000e+00 0.000000000000000e+00 0.000000000000000e+00
0.000000000000000e+00 0.000000000000000e+00 0.000000000000000e+00
0.000000000000000e+00 0.000000000000000e+00 0.000000000000000e+00
0.000000000000000e+00 0.000000000000000e+00 0.000000000000000e+00
0.000000000000000e+00 0.000000000000000e+00 0.000000000000000e+00
0.000000000000000e+00 0.000000000000000e+00 0.000000000000000e+00
0.000000000000000e+00 0.000000000000000e+00 0.000000000000000e+00
0.000000000000000e+00 0.000000000000000e+00 0.000000000000000e+00
0.000000000000000e+00 0.000000000000000e+00 0.000000000000000e+00
0.000000000000000e+00 0.000000000000000e+00 0.000000000000000e+00
0.000000000000000e+00 0.000000000000000e+00 0.000000000000000e+00
0.000000000000000e+00 0.000000000000000e+00 0.000000000000000e+00
0.000000000000000e+00 0.000000000000000e+00 0.000000000000000e+00
0.000000000000000e+00 0.000000000000000e+00 0.000000000000000e+00
0.000000000000000e+00 0.000000000000000e+00 0.000000000000000e+00
0.000000000000000e+00 0.000000000000000e+00 0.000000000000000e+00
0.000000000000000e+00 0.000000000000000e+00 0.000000000000000e+00
0.000000000000000e+00 0.000000000000000e+00 0.000000000000000e+00
0.000000000000000e+00 0.000000000000000e+00 0.000000000000000e+00
0.000000000000000e+00 0.000000000000000e+00 0.000000000000000e+00
0.000000000000000e+00 0.000000000000000e+00 0.000000000000000e+00
0.000000000000000e+00 0.000000000000000e+00 0.000000000000000e+00
0.000000000000000e+00 0.000000000000000e+00 0.000000000000000e+00
0.000000000000000e+00 0.000000000000000e+00 0.000000000000000e+00
0.000000000000000e+00 0.000000000000000e+00 0.000000000000000e+00
0.000000000000000e+00 0.000000000000000e+00 0.000000000000000e+00
0.000000000000000e+00 0.000000000000000e+00 0.000000000000000e+00
0.000000000000000e+00 0.000000000000000e+00 0.000000000000000e+00
0.000000000000000e+00 0.000000000000000e+00 0.000000000000000e+00
0.000000000000000e+00 0.000000000000000e+00 0.000000000000000e+00
0.000000000000000e+00 0.000000000000000e+00 0.000000000000000e+00
0.000000000000000e+00 0.000000000000000e+00 0.000000000000000e+00
0.000000000000000e+00 0.000000000000000e+00 0.000000000000000e+00
0.000000000000000e+00 0.000000000000000e+00 0.000000000000000e+00
0.000000000000000e+00 0.000000000000000e+00 0.000000000000000e+00
0.000000000000000e+00 0.000000000000000e+00 0.000000000000000e+00
0.000000000000000e+00 0.000000000000000e+00 0.000000000000000e+00
0.000000000000000e+00 0.000000000000000e+00 0.000000000000000e+00
0.000000000000000e+00 0.000000000000000e+00 0.000000000000000e+00
0.000000000000000e+00 0.000000000000000e+00 0.000000000000000e+00
0.000000000000000e+00 0.000000000000000e+00 0.000000000000000e+00
0.000000000000000e+00 0.000000000000000e+00 0.000000000000000e+00
0.000000000000000e+00 0.000000000000000e+00 0.000000000000000e+00
0.000000000000000e+00 0.000000000000000e+00 0.000000000000000e+00
0.000000000000000e+00 0.000000000000000e+00 0.000000000000000e+00
0.000000000000000e+00 0.000000000000000e+00 0.000000000000000e+00
0.000000000000000e+00 0.000000000000000e+00 0.000000000000000e+00
0.000000000000000e+00 0.000000000000000e+00 0.000000000000000e+00
0.000000000000000e+00 0.000000000000000e+00 0.000000000000000e+00
0.000000000000000e+00 0.000000000000000e+00 0.000000000000000e+00
0.000000000000000e+00 0.000000000000000e+00 0.000000000000000e+00
0.000000000000000e+00 0.000000000000000e+00 0.000000000000000e+00
0.000000000000000e+00 0.000000000000000e+00 0.000000000000000e+00
0.000000000000000e+00 0.000000000000000e+00 0.000000000000000e+00
0.000000000000000e+00 0.000000000000000e+00 0.000000000000000e+00
0.000000000000000e+00 0.000000000000000e+00 0.000000000000000e+00
0.000000000000000e+00 0.000000000000000e+00 0.000000000000000e+00
0.000000000000000e+00 0.000000000000000e+00 0.000000000000000e+00
0.000000000000000e+00 0.000000000000000e+00 0.000000000000000e+00
0.000000000000000e+00 0.000000000000000e+00 0.000000000000000e+00
0.000000000000000e+00 0.000000000000000e+00 0.000000000000000e+00
0.000000000000000e+00 0.000000000000000e+00 0.000000000000000e+00
0.000000000000000e+00 0.000000000000000e+00 0.000000000000000e+00
0.000000000000000e+00 0.000000000000000e+00 0.000000000000000e+00
0.000000000000000e+00 0.000000000000000e+00 0.000000000000000e+00
0.000000000000000e+00 0.000000000000000e+00 0.000000000000000e+00
0.000000000000000e+00 0.000000000000000e+00 0.000000000000000e+00
0.000000000000000e+00 0.000000000000000e+00 0.000000000000000e+00
0.000000000000000e+00 0.000000000000000e+00 0.000000000000000e+00
0.000000000000000e+00 0.000000000000000e+00 0.000000000000000e+00
0.000000000000000e+00 0.000000000000000e+00 0.000000000000000e+00
0.000000000000000e+00 0.000000000000000e+00 0.000000000000000e+00
0.000000000000000e+00 0.000000000000000e+00 0.000000000000000e+00
0.000000000000000e+00 0.000000000000000e+00 0.000000000000000e+00
0.000000000000000e+00 0.000000000000000e+00 0.000000000000000e+00
0.000000000000000e+00 0.000000000000000e+00 0.000000000000000e+00
0.000000000000000e+00 0.000000000000000e+00 0.000000000000000e+00
0.000000000000000e+00 0.000000000000000e+00 0.000000000000000e+00
0.000000000000000e+00 0.000000000000000e+00 0.000000000000000e+00
0.000000000000000e+00 0.000000000000000e+00 0.000000000000000e+00
0.000000000000000e+00 0.000000000000000e+00 0.000000000000000e+00
0.000000000000000e+00 0.000000000000000e+00 0.000000000000000e+00
0.000000000000000e+00 0.000000000000000e+00 0.000000000000000e+00
0.000000000000000e+00 0.000000000000000e+00 0.000000000000000e+00
0.000000000000000e+00 0.000000000000000e+00 0.000000000000000e+00
0.000000000000000e+00 0.000000000000000e+00 0.000000000000000e+00
0.000000000000000e+00 0.000000000000000e+00 0.000000000000000e+00
0.000000000000000e+00 0.000000000000000e+00 0.000000000000000e+00
0.000000000000000e+00 0.000000000000000e+00 0.000000000000000e+00
0.000000000000000e+00 0.000000000000000e+00 0.000000000000000e+00
0.000000000000000e+00 0.000000000000000e+00 0.000000000000000e+00
0.000000000000000e+00 0.000000000000000e+00 0.000000000000000e+00
0.000000000000000e+00 0.000000000000000e+00 0.000000000000000e+00
0.000000000000000e+00 0.000000000000000e+00 0.000000000000000e+00
0.000000000000000e+00 0.000000000000000e+00 0.000000000000000e+00
0.000000000000000e+00 0.000000000000000e+00 0.000000000000000e+00
0.000000000000000e+00 0.000000000000000e+00 0.000000000000000e+00
0.000000000000000e+00 0.000000000000000e+00 0.000000000000000e+00
0.000000000000000e+00 0.000000000000000e+00 0.000000000000000e+00
0.000000000000000e+00 0.000000000000000e+00 0.000000000000000e+00
0.000000000000000e+00 0.000000000000000e+00 0.000000000000000e+00
0.000000000000000e+00 0.000000000000000e+00 0.000000000000000e+00
0.000000000000000e+00 0.000000000000000e+00 0.000000000000000e+00
0.000000000000000e+00 0.000000000000000e+00 0.000000000000000e+00
0.000000000000000e+00 0.000000000000000e+00 0.000000000000000e+00
0.000000000000000e+00 0.000000000000000e+00 0.000000000000000e+00
0.000000000000000e+00 0.000000000000000e+00 0.000000000000000e+00
0.000000000000000e+00 0.000000000000000e+00 0.000000000000000e+00
0.000000000000000e+00 0.000000000000000e+00 0.000000000000000e+00
0.000000000000000e+00 0.000000000000000e+00 0.000000000000000e+00
0.000000000000000e+00 0.000000000000000e+00 0.000000000000000e+00
0.000000000000000e+00 0.000000000000000e+00 0.000000000000000e+00
0.000000000000000e+00 0.000000000000000e+00 0.000000000000000e+00
0.000000000000000e+00 0.000000000000000e+00 0.000000000000000e+00
0.000000000000000e+00 0.000000000000000e+00 0.000000000000000e+00
0.000000000000000e+00 0.000000000000000e+00 0.000000000000000e+00
0.000000000000000e+00 0.000000000000000e+00 0.000000000000000e+00
0.000000000000000e+00 0.000000000000000e+00 0.000000000000000e+00
0.000000000000000e+00 0.000000000000000e+00 0.000000000000000e+00
0.000000000000000e+00 0.000000000000000e+00 0.000000000000000e+00
0.000000000000000e+00 0.000000000000000e+00 0.000000000000000e+00
0.000000000000000e+00 0.000000000000000e+00 0.000000000000000e+00
0.000000000000000e+00 0.000000000000000e+00 0.000000000000000e+00
0.000000000000000e+00 0.000000000000000e+00 0.000000000000000e+00
0.000000000000000e+00 0.000000000000000e+00 0.000000000000000e+00
0.000000000000000e+00 0.000000000000000e+00 0.000000000000000e+00
0.000000000000000e+00 0.000000000000000e+00 0.000000000000000e+00
0.000000000000000e+00 0.000000000000000e+00 0.000000000000000e+00
0.000000000000000e+00 0.000000000000000e+00 0.000000000000000e+00
0.000000000000000e+00 0.000000000000000e+00 0.000000000000000e+00
0.000000000000000e+00 0.000000000000000e+00 0.000000000000000e+00
0.000000000000000e+00 0.000000000000000e+00 0.000000000000000e+00
0.000000000000000e+00 0.000000000000000e+00 0.000000000000000e+00
0.000000000000000e+00 0.000000000000000e+00 0.000000000000000e+00
0.000000000000000e+00 0.000000000000000e+00 0.000000000000000e+00
0.000000000000000e+00 0.000000000000000e+00 0.000000000000000e+00
0.000000000000000e+00 0.000000000000000e+00 0.000000000000000e+00
0.000000000000000e+00 0.000000000000000e+00 0.000000000000000e+00
0.000000000000000e+00 0.000000000000000e+00 0.000000000000000e+00
0.000000000000000e+00 0.000000000000000e+00 0.000000000000000e+00
0.000000000000000e+00 0.000000000000000e+00 0.000000000000000e+00
0.000000000000000e+00 0.000000000000000e+00 0.000000000000000e+00
0.000000000000000e+00 0.000000000000000e+00 0.000000000000000e+00
0.000000000000000e+00 0.000000000000000e+00 0.000000000000000e+00
0.000000000000000e+00 0.000000000000000e+00 0.000000000000000e+00
0.000000000000000e+00 0.000000000000000e+00 0.000000000000000e+00
0.000000000000000e+00 0.000000000000000e+00 0.000000000000000e+00
0.000000000000000e+00 0.000000000000000e+00 0.000000000000000e+00
0.000000000000000e+00 0.000000000000000e+00 0.000000000000000e+00
0.000000000000000e+00 0.000000000000000e+00 0.000000000000000e+00
0.000000000000000e+00 0.000000000000000e+00 0.000000000000000e+00
0.000000000000000e+00 0.000000000000000e+00 0.000000000000000e+00
0.000000000000000e+00 0.000000000000000e+00 0.000000000000000e+00
0.000000000000000e+00 0.000000000000000e+00 0.000000000000000e+00
0.000000000000000e+00 0.000000000000000e+00 0.000000000000000e+00
0.000000000000000e+00 0.000000000000000e+00 0.000000000000000e+00
0.000000000000000e+00 0.000000000000000e+00 0.000000000000000e+00
0.000000000000000e+00 0.000000000000000e+00 0.000000000000000e+00
0.000000000000000e+00 0.000000000000000e+00 0.000000000000000e+00
0.000000000000000e+00 0.000000000000000e+00 0.000000000000000e+00
0.000000000000000e+00 0.000000000000000e+00 0.000000000000000e+00
0.000000000000000e+00 0.000000000000000e+00 0.000000000000000e+00
0.000000000000000e+00 0.000000000000000e+00 0.000000000000000e+00
0.000000000000000e+00 0.000000000000000e+00 0.000000000000000e+00
0.000000000000000e+00 0.000000000000000e+00 0.000000000000000e+00
0.000000000000000e+00 0.000000000000000e+00 0.000000000000000e+00
0.000000000000000e+00 0.000000000000000e+00 0.000000000000000e+00
0.000000000000000e+00 0.000000000000000e+00 0.000000000000000e+00
0.000000000000000e+00 0.000000000000000e+00 0.000000000000000e+00
0.000000000000000e+00 0.000000000000000e+00 0.000000000000000e+00
0.000000000000000e+00 0.000000000000000e+00 0.000000000000000e+00
0.000000000000000e+00 0.000000000000000e+00 0.000000000000000e+00
0.000000000000000e+00 0.000000000000000e+00 0.000000000000000e+00
0.000000000000000e+00 0.000000000000000e+00 0.000000000000000e+00
0.000000000000000e+00 0.000000000000000e+00 0.000000000000000e+00
0.000000000000000e+00 0.000000000000000e+00 0.000000000000000e+00
0.000000000000000e+00 0.000000000000000e+00 0.000000000000000e+00
0.000000000000000e+00 0.000000000000000e+00 0.000000000000000e+00
0.000000000000000e+00 0.000000000000000e+00 0.000000000000000e+00
0.000000000000000e+00 0.000000000000000e+00 0.000000000000000e+00
0.000000000000000e+00 0.000000000000000e+00 0.000000000000000e+00
0.000000000000000e+00 0.000000000000000e+00 0.000000000000000e+00
0.000000000000000e+00 0.000000000000000e+00 0.000000000000000e+00
0.000000000000000e+00 0.000000000000000e+00 0.000000000000000e+00
0.000000000000000e+00 0.000000000000000e+00 0.000000000000000e+00
0.000000000000000e+00 0.000000000000000e+00 0.000000000000000e+00
0.000000000000000e+00 0.000000000000000e+00 0.000000000000000e+00
0.000000000000000e+00 0.000000000000000e+00 0.000000000000000e+00
0.000000000000000e+00 0.000000000000000e+00 0.000000000000000e+00
0.000000000000000e+00 0.000000000000000e+00 0.000000000000000e+00
0.000000000000000e+00 0.000000000000000e+00 0.000000000000000e+00
0.000000000000000e+00 0.000000000000000e+00 0.000000000000000e+00
0.000000000000000e+00 0.000000000000000e+00 0.000000000000000e+00
0.000000000000000e+00 0.000000000000000e+00 0.000000000000000e+00
0.000000000000000e+00 0.000000000000000e+00 0.000000000000000e+00
0.000000000000000e+00 0.000000000000000e+00 0.000000000000000e+00
0.000000000000000e+00 0.000000000000000e+00 0.000000000000000e+00
0.000000000000000e+00 0.000000000000000e+00 0.000000000000000e+00
0.000000000000000e+00 0.000000000000000e+00 0.000000000000000e+00
0.000000000000000e+00 0.000000000000000e+00 0.000000000000000e+00
0.000000000000000e+00 0.000000000000000e+00 0.000000000000000e+00
0.000000000000000e+00 0.000000000000000e+00 0.000000000000000e+00
0.000000000000000e+00 0.000000000000000e+00 0.000000000000000e+00
0.000000000000000e+00 0.000000000000000e+00 0.000000000000000e+00
0.000000000000000e+00 0.000000000000000e+00 0.000000000000000e+00
0.000000000000000e+00 0.000000000000000e+00 0.000000000000000e+00
0.000000000000000e+00 0.000000000000000e+00 0.000000000000000e+00
0.000000000000000e+00 0.000000000000000e+00 0.000000000000000e+00
0.000000000000000e+00 0.000000000000000e+00 0.000000000000000e+00
0.000000000000000e+00 0.000000000000000e+00 0.000000000000000e+00
0.000000000000000e+00 0.000000000000000e+00 0.000000000000000e+00
0.000000000000000e+00 0.000000000000000e+00 0.000000000000000e+00
0.000000000000000e+00 0.000000000000000e+00 0.000000000000000e+00
0.000000000000000e+00 0.000000000000000e+00 0.000000000000000e+00
0.000000000000000e+00 0.000000000000000e+00 0.000000000000000e+00
0.000000000000000e+00 0.000000000000000e+00 0.000000000000000e+00
0.000000000000000e+00 0.000000000000000e+00 0.000000000000000e+00
0.000000000000000e+00 0.000000000000000e+00 0.000000000000000e+00
0.000000000000000e+00 0.000000000000000e+00 0.000000000000000e+00
0.000000000000000e+00 0.000000000000000e+00 0.000000000000000e+00
0.000000000000000e+00 0.000000000000000e+00 0.000000000000000e+00
0.000000000000000e+00 0.000000000000000e+00 0.000000000000000e+00
0.000000000000000e+00 0.000000000000000e+00 0.000000000000000e+00
0.000000000000000e+00 0.000000000000000e+00 0.000000000000000e+00
0.000000000000000e+00 0.000000000000000e+00 0.000000000000000e+00
0.000000000000000e+00 0.000000000000000e+00 0.000000000000000e+00
0.000000000000000e+00 0.000000000000000e+00 0.000000000000000e+00
0.000000000000000e+00 0.000000000000000e+00 0.000000000000000e+00
0.000000000000000e+00 0.000000000000000e+00 0.000000000000000e+00
0.000000000000000e+00 0.000000000000000e+00 0.000000000000000e+00
0.000000000000000e+00 0.000000000000000e+00 0.000000000000000e+00
0.000000000000000e+00 0.000000000000000e+00 0.000000000000000e+00
0.000000000000000e+00 0.000000000000000e+00 0.000000000000000e+00
0.000000000000000e+00 0.000000000000000e+00 0.000000000000000e+00
0.000000000000000e+00 0.000000000000000e+00 0.000000000000000e+00
0.000000000000000e+00 0.000000000000000e+00 0.000000000000000e+00
0.000000000000000e+00 0.000000000000000e+00 0.000000000000000e+00
0.000000000000000e+00 0.000000000000000e+00 0.000000000000000e+00
0.000000000000000e+00 0.000000000000000e+00 0.000000000000000e+00
0.000000000000000e+00 0.000000000000000e+00 0.000000000000000e+00
0.000000000000000e+00 0.000000000000000e+00 0.000000000000000e+00
0.000000000000000e+00 0.000000000000000e+00 0.000000000000000e+00
0.000000000000000e+00 0.000000000000000e+00 0.000000000000000e+00
0.000000000000000e+00 0.000000000000000e+00 0.000000000000000e+00
0.000000000000000e+00 0.000000000000000e+00 0.000000000000000e+00
0.000000000000000e+00 0.000000000000000e+00 0.000000000000000e+00
0.000000000000000e+00 0.000000000000000e+00 0.000000000000000e+00
0.000000000000000e+00 0.000000000000000e+00 0.000000000000000e+00
0.000000000000000e+00 0.000000000000000e+00 0.000000000000000e+00
0.000000000000000e+00 0.000000000000000e+00 0.000000000000000e+00
0.000000000000000e+00 0.000000000000000e+00 0.000000000000000e+00
0.000000000000000e+00 0.000000000000000e+00 0.000000000000000e+00
0.000000000000000e+00 0.000000000000000e+00 0.000000000000000e+00
0.000000000000000e+00 0.000000000000000e+00 0.000000000000000e+00
0.000000000000000e+00 0.000000000000000e+00 0.000000000000000e+00
0.000000000000000e+00 0.000000000000000e+00 0.000000000000000e+00
0.000000000000000e+00 0.000000000000000e+00 0.000000000000000e+00
0.000000000000000e+00 0.000000000000000e+00 0.000000000000000e+00
0.000000000000000e+00 0.000000000000000e+00 0.000000000000000e+00
0.000000000000000e+00 0.000000000000000e+00 0.000000000000000e+00
0.000000000000000e+00 0.000000000000000e+00 0.000000000000000e+00
0.000000000000000e+00 0.000000000000000e+00 0.000000000000000e+00
0.000000000000000e+00 0.000000000000000e+00 0.000000000000000e+00
0.000000000000000e+00 0.000000000000000e+00 0.000000000000000e+00
0.000000000000000e+00 0.000000000000000e+00 0.000000000000000e+00
0.000000000000000e+00 0.000000000000000e+00 0.000000000000000e+00
0.000000000000000e+00 0.000000000000000e+00 0.000000000000000e+00
0.000000000000000e+00 0.000000000000000e+00 0.000000000000000e+00
0.000000000000000e+00 0.000000000000000e+00 0.000000000000000e+00
0.000000000000000e+00 0.000000000000000e+00 0.000000000000000e+00
0.000000000000000e+00 0.000000000000000e+00 0.000000000000000e+00
0.000000000000000e+00 0.000000000000000e+00 0.000000000000000e+00
0.000000000000000e+00 0.000000000000000e+00 0.000000000000000e+00
0.000000000000000e+00 0.000000000000000e+00 0.000000000000000e+00
0.000000000000000e+00 0.000000000000000e+00 0.000000000000000e+00
0.000000000000000e+00 0.000000000000000e+00 0.000000000000000e+00
0.000000000000000e+00 0.000000000000000e+00 0.000000000000000e+00
0.000000000000000e+00 0.000000000000000e+00 0.000000000000000e+00
0.000000000000000e+00 0.000000000000000e+00 0.000000000000000e+00
0.000000000000000e+00 0.000000000000000e+00 0.000000000000000e+00
0.000000000000000e+00 0.000000000000000e+00 0.000000000000000e+00
0.000000000000000e+00 0.000000000000000e+00 0.000000000000000e+00
0.000000000000000e+00 0.000000000000000e+00 0.000000000000000e+00
0.000000000000000e+00 0.000000000000000e+00 0.000000000000000e+00
0.000000000000000e+00 0.000000000000000e+00 0.000000000000000e+00
0.000000000000000e+00 0.000000000000000e+00 0.000000000000000e+00
0.000000000000000e+00 0.000000000000000e+00 0.000000000000000e+00
0.000000000000000e+00 0.000000000000000e+00 0.000000000000000e+00
0.000000000000000e+00 0.000000000000000e+00 0.000000000000000e+00
0.000000000000000e+00 0.000000000000000e+00 0.000000000000000e+00
0.000000000000000e+00 0.000000000000000e+00 0.000000000000000e+00
0.000000000000000e+00 0.000000000000000e+00 0.000000000000000e+00
0.000000000000000e+00 0.000000000000000e+00 0.000000000000000e+00
0.000000000000000e+00 0.000000000000000e+00 0.000000000000000e+00
0.000000000000000e+00 0.000000000000000e+00 0.000000000000000e+00
0.000000000000000e+00 0.000000000000000e+00 0.000000000000000e+00
0.000000000000000e+00 0.000000000000000e+00 0.000000000000000e+00
0.000000000000000e+00 0.000000000000000e+00 0.000000000000000e+00
0.000000000000000e+00 0.000000000000000e+00 0.000000000000000e+00
0.000000000000000e+00 0.000000000000000e+00 0.000000000000000e+00
0.000000000000000e+00 0.000000000000000e+00 0.000000000000000e+00
0.000000000000000e+00 0.000000000000000e+00 0.000000000000000e+00
0.000000000000000e+00 0.000000000000000e+00 0.000000000000000e+00
0.000000000000000e+00 0.000000000000000e+00 0.000000000000000e+00
0.000000000000000e+00 0.000000000000000e+00 0.000000000000000e+00
0.000000000000000e+00 0.000000000000000e+00 0.000000000000000e+00
0.000000000000000e+00 0.000000000000000e+00 0.000000000000000e+00
0.000000000000000e+00 0.000000000000000e+00 0.000000000000000e+00
0.000000000000000e+00 0.000000000000000e+00 0.000000000000000e+00
0.000000000000000e+00 0.000000000000000e+00 0.000000000000000e+00
0.000000000000000e+00 0.000000000000000e+00 0.000000000000000e+00
0.000000000000000e+00 0.000000000000000e+00 0.000000000000000e+00
0.000000000000000e+00 0.000000000000000e+00 0.000000000000000e+00
0.000000000000000e+00 0.000000000000000e+00 0.000000000000000e+00
0.000000000000000e+00 0.000000000000000e+00 0.000000000000000e+00
0.000000000000000e+00 0.000000000000000e+00 0.000000000000000e+00
0.000000000000000e+00 0.000000000000000e+00 0.000000000000000e+00
0.000000000000000e+00 0.000000000000000e+00 0.000000000000000e+00
0.000000000000000e+00 0.000000000000000e+00 0.000000000000000e+00
0.000000000000000e+00 0.000000000000000e+00 0.000000000000000e+00
0.000000000000000e+00 0.000000000000000e+00 0.000000000000000e+00
0.000000000000000e+00 0.000000000000000e+00 0.000000000000000e+00
0.000000000000000e+00 0.000000000000000e+00 0.000000000000000e+00
0.000000000000000e+00 0.000000000000000e+00 0.000000000000000e+00
0.000000000000000e+00 0.000000000000000e+00 0.000000000000000e+00
0.000000000000000e+00 0.000000000000000e+00 0.000000000000000e+00
0.000000000000000e+00 0.000000000000000e+00 0.000000000000000e+00
0.000000000000000e+00 0.000000000000000e+00 0.000000000000000e+00
0.000000000000000e+00 0.000000000000000e+00 0.000000000000000e+00
0.000000000000000e+00 0.000000000000000e+00 0.000000000000000e+00
0.000000000000000e+00 0.000000000000000e+00 0.000000000000000e+00
0.000000000000000e+00 0.000000000000000e+00 0.000000000000000e+00
0.000000000000000e+00 0.000000000000000e+00 0.000000000000000e+00
0.000000000000000e+00 0.000000000000000e+00 0.000000000000000e+00
0.000000000000000e+00 0.000000000000000e+00 0.000000000000000e+00
0.000000000000000e+00 0.000000000000000e+00 0.000000000000000e+00
0.000000000000000e+00 0.000000000000000e+00 0.000000000000000e+00
0.000000000000000e+00 0.000000000000000e+00 0.000000000000000e+00
0.000000000000000e+00 0.000000000000000e+00 0.000000000000000e+00
0.000000000000000e+00 0.000000000000000e+00 0.000000000000000e+00
0.000000000000000e+00 0.000000000000000e+00 0.000000000000000e+00
0.000000000000000e+00 0.000000000000000e+00 0.000000000000000e+00
0.000000000000000e+00 0.000000000000000e+00 0.000000000000000e+00
0.000000000000000e+00 0.000000000000000e+00 0.000000000000000e+00
0.000000000000000e+00 0.000000000000000e+00 0.000000000000000e+00
0.000000000000000e+00 0.000000000000000e+00 0.000000000000000e+00
0.000000000000000e+00 0.000000000000000e+00 0.000000000000000e+00
0.000000000000000e+00 0.000000000000000e+00 0.000000000000000e+00
0.000000000000000e+00 0.000000000000000e+00 0.000000000000000e+00
0.000000000000000e+00 0.000000000000000e+00 0.000000000000000e+00
0.000000000000000e+00 0.000000000000000e+00 0.000000000000000e+00
0.000000000000000e+00 0.000000000000000e+00 0.000000000000000e+00
0.000000000000000e+00 0.000000000000000e+00 0.000000000000000e+00
0.000000000000000e+00 0.000000000000000e+00 0.000000000000000e+00
0.000000000000000e+00 0.000000000000000e+00 0.000000000000000e+00
0.000000000000000e+00 0.000000000000000e+00 0.000000000000000e+00
0.000000000000000e+00 0.000000000000000e+00 0.000000000000000e+00
0.000000000000000e+00 0.000000000000000e+00 0.000000000000000e+00
0.000000000000000e+00 0.000000000000000e+00 0.000000000000000e+00
0.000000000000000e+00 0.000000000000000e+00 0.000000000000000e+00
0.000000000000000e+00 0.000000000000000e+00 0.000000000000000e+00
0.000000000000000e+00 0.000000000000000e+00 0.000000000000000e+00
0.000000000000000e+00 0.000000000000000e+00 0.000000000000000e+00
0.000000000000000e+00 0.000000000000000e+00 0.000000000000000e+00
0.000000000000000e+00 0.000000000000000e+00 0.000000000000000e+00
0.000000000000000e+00 0.000000000000000e+00 0.000000000000000e+00
0.000000000000000e+00 0.000000000000000e+00 0.000000000000000e+00
0.000000000000000e+00 0.000000000000000e+00 0.000000000000000e+00
0.000000000000000e+00 0.000000000000000e+00 0.000000000000000e+00
0.000000000000000e+00 0.000000000000000e+00 0.000000000000000e+00
0.000000000000000e+00 0.000000000000000e+00 0.000000000000000e+00
0.000000000000000e+00 0.000000000000000e+00 0.000000000000000e+00
0.000000000000000e+00 0.000000000000000e+00 0.000000000000000e+00
0.000000000000000e+00 0.000000000000000e+00 0.000000000000000e+00
0.000000000000000e+00 0.000000000000000e+00 0.000000000000000e+00
0.000000000000000e+00 0.000000000000000e+00 0.000000000000000e+00
0.000000000000000e+00 0.000000000000000e+00 0.000000000000000e+00
0.000000000000000e+00 0.000000000000000e+00 0.000000000000000e+00
0.000000000000000e+00 0.000000000000000e+00 0.000000000000000e+00
0.000000000000000e+00 0.000000000000000e+00 0.000000000000000e+00
0.000000000000000e+00 0.000000000000000e+00 0.000000000000000e+00
0.000000000000000e+00 0.000000000000000e+00 0.000000000000000e+00
0.000000000000000e+00 0.000000000000000e+00 0.000000000000000e+00
0.000000000000000e+00 0.000000000000000e+00 0.000000000000000e+00
0.000000000000000e+00 0.000000000000000e+00 0.000000000000000e+00
0.000000000000000e+00 0.000000000000000e+00 0.000000000000000e+00
0.000000000000000e+00 0.000000000000000e+00 0.000000000000000e+00
0.000000000000000e+00 0.000000000000000e+00 0.000000000000000e+00
0.000000000000000e+00 0.000000000000000e+00 0.000000000000000e+00
0.000000000000000e+00 0.000000000000000e+00 0.000000000000000e+00
0.000000000000000e+00 0.000000000000000e+00 0.000000000000000e+00
0.000000000000000e+00 0.000000000000000e+00 0.000000000000000e+00
0.000000000000000e+00 0.000000000000000e+00 0.000000000000000e+00
0.000000000000000e+00 0.000000000000000e+00 0.000000000000000e+00
0.000000000000000e+00 0.000000000000000e+00 0.000000000000000e+00
0.000000000000000e+00 0.000000000000000e+00 0.000000000000000e+00
0.000000000000000e+00 0.000000000000000e+00 0.000000000000000e+00
0.000000000000000e+00 0.000000000000000e+00 0.000000000000000e+00
0.000000000000000e+00 0.000000000000000e+00 0.000000000000000e+00
0.000000000000000e+00 0.000000000000000e+00 0.000000000000000e+00
0.000000000000000e+00 0.000000000000000e+00 0.000000000000000e+00
0.000000000000000e+00 0.000000000000000e+00 0.000000000000000e+00
0.000000000000000e+00 0.000000000000000e+00 0.000000000000000e+00
0.000000000000000e+00 0.000000000000000e+00 0.000000000000000e+00
0.000000000000000e+00 0.000000000000000e+00 0.000000000000000e+00
0.000000000000000e+00 0.000000000000000e+00 0.000000000000000e+00
0.000000000000000e+00 0.000000000000000e+00 0.000000000000000e+00
0.000000000000000e+00 0.000000000000000e+00 0.000000000000000e+00
0.000000000000000e+00 0.000000000000000e+00 0.000000000000000e+00
0.000000000000000e+00 0.000000000000000e+00 0.000000000000000e+00
0.000000000000000e+00 0.000000000000000e+00 0.000000000000000e+00
0.000000000000000e+00 0.000000000000000e+00 0.000000000000000e+00
0.000000000000000e+00 0.000000000000000e+00 0.000000000000000e+00
0.000000000000000e+00 0.000000000000000e+00 0.000000000000000e+00
0.000000000000000e+00 0.000000000000000e+00 0.000000000000000e+00
0.000000000000000e+00 0.000000000000000e+00 0.000000000000000e+00
0.000000000000000e+00 0.000000000000000e+00 0.000000000000000e+00
0.000000000000000e+00 0.000000000000000e+00 0.000000000000000e+00
0.000000000000000e+00 0.000000000000000e+00 0.000000000000000e+00
0.000000000000000e+00 0.000000000000000e+00 0.000000000000000e+00
0.000000000000000e+00 0.000000000000000e+00 0.000000000000000e+00
0.000000000000000e+00 0.000000000000000e+00 0.000000000000000e+00
0.000000000000000e+00 0.000000000000000e+00 0.000000000000000e+00
0.000000000000000e+00 0.000000000000000e+00 0.000000000000000e+00
0.000000000000000e+00 0.000000000000000e+00 0.000000000000000e+00
0.000000000000000e+00 0.000000000000000e+00 0.000000000000000e+00
0.000000000000000e+00 0.000000000000000e+00 0.000000000000000e+00
0.000000000000000e+00 0.000000000000000e+00 0.000000000000000e+00
0.000000000000000e+00 0.000000000000000e+00 0.000000000000000e+00
0.000000000000000e+00 0.000000000000000e+00 0.000000000000000e+00
0.000000000000000e+00 0.000000000000000e+00 0.000000000000000e+00
0.000000000000000e+00 0.000000000000000e+00 0.000000000000000e+00
0.000000000000000e+00 0.000000000000000e+00 0.000000000000000e+00
0.000000000000000e+00 0.000000000000000e+00 0.000000000000000e+00
0.000000000000000e+00 0.000000000000000e+00 0.000000000000000e+00
0.000000000000000e+00 0.000000000000000e+00 0.000000000000000e+00
0.000000000000000e+00 0.000000000000000e+00 0.000000000000000e+00
0.000000000000000e+00 0.000000000000000e+00 0.000000000000000e+00
0.000000000000000e+00 0.000000000000000e+00 0.000000000000000e+00
0.000000000000000e+00 0.000000000000000e+00 0.000000000000000e+00
0.000000000000000e+00 0.000000000000000e+00 0.000000000000000e+00
0.000000000000000e+00 0.000000000000000e+00 0.000000000000000e+00
0.000000000000000e+00 0.000000000000000e+00 0.000000000000000e+00
0.000000000000000e+00 0.000000000000000e+00 0.000000000000000e+00
0.000000000000000e+00 0.000000000000000e+00 0.000000000000000e+00
0.000000000000000e+00 0.000000000000000e+00 0.000000000000000e+00
0.000000000000000e+00 0.000000000000000e+00 0.000000000000000e+00
0.000000000000000e+00 0.000000000000000e+00 0.000000000000000e+00
0.000000000000000e+00 0.000000000000000e+00 0.000000000000000e+00
0.000000000000000e+00 0.000000000000000e+00 0.000000000000000e+00
0.000000000000000e+00 0.000000000000000e+00 0.000000000000000e+00
0.000000000000000e+00 0.000000000000000e+00 0.000000000000000e+00
0.000000000000000e+00 0.000000000000000e+00 0.000000000000000e+00
0.000000000000000e+00 0.000000000000000e+00 0.000000000000000e+00
0.000000000000000e+00 0.000000000000000e+00 0.000000000000000e+00
0.000000000000000e+00 0.000000000000000e+00 0.000000000000000e+00
0.000000000000000e+00 0.000000000000000e+00 0.000000000000000e+00
0.000000000000000e+00 0.000000000000000e+00 0.000000000000000e+00
0.000000000000000e+00 0.000000000000000e+00 0.000000000000000e+00
0.000000000000000e+00 0.000000000000000e+00 0.000000000000000e+00
0.000000000000000e+00 0.000000000000000e+00 0.000000000000000e+00
0.000000000000000e+00 0.000000000000000e+00 0.000000000000000e+00
0.000000000000000e+00 0.000000000000000e+00 0.000000000000000e+00
0.000000000000000e+00 0.000000000000000e+00 0.000000000000000e+00
0.000000000000000e+00 0.000000000000000e+00 0.000000000000000e+00
0.000000000000000e+00 0.000000000000000e+00 0.000000000000000e+00
0.000000000000000e+00 0.000000000000000e+00 0.000000000000000e+00
0.000000000000000e+00 0.000000000000000e+00 0.000000000000000e+00
0.000000000000000e+00 0.000000000000000e+00 0.000000000000000e+00
0.000000000000000e+00 0.000000000000000e+00 0.000000000000000e+00
0.000000000000000e+00 0.000000000000000e+00 0.000000000000000e+00
0.000000000000000e+00 0.000000000000000e+00 0.000000000000000e+00
0.000000000000000e+00 0.000000000000000e+00 0.000000000000000e+00
0.000000000000000e+00 0.000000000000000e+00 0.000000000000000e+00
0.000000000000000e+00 0.000000000000000e+00 0.000000000000000e+00
0.000000000000000e+00 0.000000000000000e+00 0.000000000000000e+00
0.000000000000000e+00 0.000000000000000e+00 0.000000000000000e+00
0.000000000000000e+00 0.000000000000000e+00 0.000000000000000e+00
0.000000000000000e+00 0.000000000000000e+00 0.000000000000000e+00
0.000000000000000e+00 0.000000000000000e+00 0.000000000000000e+00
0.000000000000000e+00 0.000000000000000e+00 0.000000000000000e+00
0.000000000000000e+00 0.000000000000000e+00 0.000000000000000e+00
0.000000000000000e+00 0.000000000000000e+00 0.000000000000000e+00
0.000000000000000e+00 0.000000000000000e+00 0.000000000000000e+00
0.000000000000000e+00 0.000000000000000e+00 0.000000000000000e+00
0.000000000000000e+00 0.000000000000000e+00 0.000000000000000e+00
0.000000000000000e+00 0.000000000000000e+00 0.000000000000000e+00
0.000000000000000e+00 0.000000000000000e+00 0.000000000000000e+00
0.000000000000000e+00 0.000000000000000e+00 0.000000000000000e+00
0.000000000000000e+00 0.000000000000000e+00 0.000000000000000e+00
0.000000000000000e+00 0.000000000000000e+00 0.000000000000000e+00
0.000000000000000e+00 0.000000000000000e+00 0.000000000000000e+00
0.000000000000000e+00 0.000000000000000e+00 0.000000000000000e+00
0.000000000000000e+00 0.000000000000000e+00 0.000000000000000e+00
0.000000000000000e+00 0.000000000000000e+00 0.000000000000000e+00
0.000000000000000e+00 0.000000000000000e+00 0.000000000000000e+00
0.000000000000000e+00 0.000000000000000e+00 0.000000000000000e+00
0.000000000000000e+00 0.000000000000000e+00 0.000000000000000e+00
0.000000000000000e+00 0.000000000000000e+00 0.000000000000000e+00
0.000000000000000e+00 0.000000000000000e+00 0.000000000000000e+00
0.000000000000000e+00 0.000000000000000e+00 0.000000000000000e+00
0.000000000000000e+00 0.000000000000000e+00 0.000000000000000e+00
0.000000000000000e+00 0.000000000000000e+00 0.000000000000000e+00
0.000000000000000e+00 0.000000000000000e+00 0.000000000000000e+00
0.000000000000000e+00 0.000000000000000e+00 0.000000000000000e+00
0.000000000000000e+00 0.000000000000000e+00 0.000000000000000e+00
0.000000000000000e+00 0.000000000000000e+00 0.000000000000000e+00
0.000000000000000e+00 0.000000000000000e+00 0.000000000000000e+00
0.000000000000000e+00 0.000000000000000e+00 0.000000000000000e+00
0.000000000000000e+00 0.000000000000000e+00 0.000000000000000e+00
0.000000000000000e+00 0.000000000000000e+00 0.000000000000000e+00
0.000000000000000e+00 0.000000000000000e+00 0.000000000000000e+00
0.000000000000000e+00 0.000000000000000e+00 0.000000000000000e+00
0.000000000000000e+00 0.000000000000000e+00 0.000000000000000e+00
0.000000000000000e+00 0.000000000000000e+00 0.000000000000000e+00
0.000000000000000e+00 0.000000000000000e+00 0.000000000000000e+00
0.000000000000000e+00 0.000000000000000e+00 0.000000000000000e+00
0.000000000000000e+00 0.000000000000000e+00 0.000000000000000e+00
0.000000000000000e+00 0.000000000000000e+00 0.000000000000000e+00
0.000000000000000e+00 0.000000000000000e+00 0.000000000000000e+00
0.000000000000000e+00 0.000000000000000e+00 0.000000000000000e+00
0.000000000000000e+00 0.000000000000000e+00 0.000000000000000e+00
0.000000000000000e+00 0.000000000000000e+00 0.000000000000000e+00
0.000000000000000e+00 0.000000000000000e+00 0.000000000000000e+00
0.000000000000000e+00 0.000000000000000e+00 0.000000000000000e+00
0.000000000000000e+00 0.000000000000000e+00 0.000000000000000e+00
0.000000000000000e+00 0.000000000000000e+00 0.000000000000000e+00
0.000000000000000e+00 0.000000000000000e+00 0.000000000000000e+00
0.000000000000000e+00 0.000000000000000e+00 0.000000000000000e+00
0.000000000000000e+00 0.000000000000000e+00 0.000000000000000e+00
0.000000000000000e+00 0.000000000000000e+00 0.000000000000000e+00
0.000000000000000e+00 0.000000000000000e+00 0.000000000000000e+00
0.000000000000000e+00 0.000000000000000e+00 0.000000000000000e+00
0.000000000000000e+00 0.000000000000000e+00 0.000000000000000e+00
0.000000000000000e+00 0.000000000000000e+00 0.000000000000000e+00
0.000000000000000e+00 0.000000000000000e+00 0.000000000000000e+00
0.000000000000000e+00 0.000000000000000e+00 0.000000000000000e+00
0.000000000000000e+00 0.000000000000000e+00 0.000000000000000e+00
0.000000000000000e+00 0.000000000000000e+00 0.000000000000000e+00
0.000000000000000e+00 0.000000000000000e+00 0.000000000000000e+00
0.000000000000000e+00 0.000000000000000e+00 0.000000000000000e+00
0.000000000000000e+00 0.000000000000000e+00 0.000000000000000e+00
0.000000000000000e+00 0.000000000000000e+00 0.000000000000000e+00
0.000000000000000e+00 0.000000000000000e+00 0.000000000000000e+00
0.000000000000000e+00 0.000000000000000e+00 0.000000000000000e+00
0.000000000000000e+00 0.000000000000000e+00 0.000000000000000e+00
0.000000000000000e+00 0.000000000000000e+00 0.000000000000000e+00
0.000000000000000e+00 0.000000000000000e+00 0.000000000000000e+00
0.000000000000000e+00 0.000000000000000e+00 0.000000000000000e+00
0.000000000000000e+00 0.000000000000000e+00 0.000000000000000e+00
0.000000000000000e+00 0.000000000000000e+00 0.000000000000000e+00
0.000000000000000e+00 0.000000000000000e+00 0.000000000000000e+00
0.000000000000000e+00 0.000000000000000e+00 0.000000000000000e+00
0.000000000000000e+00 0.000000000000000e+00 0.000000000000000e+00
0.000000000000000e+00 0.000000000000000e+00 0.000000000000000e+00
0.000000000000000e+00 0.000000000000000e+00 0.000000000000000e+00
0.000000000000000e+00 0.000000000000000e+00 0.000000000000000e+00
0.000000000000000e+00 0.000000000000000e+00 0.000000000000000e+00
0.000000000000000e+00 0.000000000000000e+00 0.000000000000000e+00
0.000000000000000e+00 0.000000000000000e+00 0.000000000000000e+00
0.000000000000000e+00 0.000000000000000e+00 0.000000000000000e+00
0.000000000000000e+00 0.000000000000000e+00 0.000000000000000e+00
0.000000000000000e+00 0.000000000000000e+00 0.000000000000000e+00
0.000000000000000e+00 0.000000000000000e+00 0.000000000000000e+00
0.000000000000000e+00 0.000000000000000e+00 0.000000000000000e+00
0.000000000000000e+00 0.000000000000000e+00 0.000000000000000e+00
0.000000000000000e+00 0.000000000000000e+00 0.000000000000000e+00
0.000000000000000e+00 0.000000000000000e+00 0.000000000000000e+00
0.000000000000000e+00 0.000000000000000e+00 0.000000000000000e+00
0.000000000000000e+00 0.000000000000000e+00 0.000000000000000e+00
0.000000000000000e+00 0.000000000000000e+00 0.000000000000000e+00
0.000000000000000e+00 0.000000000000000e+00 0.000000000000000e+00
0.000000000000000e+00 0.000000000000000e+00 0.000000000000000e+00
0.000000000000000e+00 0.000000000000000e+00 0.000000000000000e+00
0.000000000000000e+00 0.000000000000000e+00 0.000000000000000e+00
0.000000000000000e+00 0.000000000000000e+00 0.000000000000000e+00
0.000000000000000e+00 0.000000000000000e+00 0.000000000000000e+00
0.000000000000000e+00 0.000000000000000e+00 0.000000000000000e+00
0.000000000000000e+00 0.000000000000000e+00 0.000000000000000e+00
0.000000000000000e+00 0.000000000000000e+00 0.000000000000000e+00
0.000000000000000e+00 0.000000000000000e+00 0.000000000000000e+00
0.000000000000000e+00 0.000000000000000e+00 0.000000000000000e+00
0.000000000000000e+00 0.000000000000000e+00 0.000000000000000e+00
0.000000000000000e+00 0.000000000000000e+00 0.000000000000000e+00
0.000000000000000e+00 0.000000000000000e+00 0.000000000000000e+00
0.000000000000000e+00 0.000000000000000e+00 0.000000000000000e+00
0.000000000000000e+00 0.000000000000000e+00 0.000000000000000e+00
0.000000000000000e+00 0.000000000000000e+00 0.000000000000000e+00
0.000000000000000e+00 0.000000000000000e+00 0.000000000000000e+00
0.000000000000000e+00 0.000000000000000e+00 0.000000000000000e+00
0.000000000000000e+00 0.000000000000000e+00 0.000000000000000e+00
0.000000000000000e+00 0.000000000000000e+00 0.000000000000000e+00
0.000000000000000e+00 0.000000000000000e+00 0.000000000000000e+00
0.000000000000000e+00 0.000000000000000e+00 0.000000000000000e+00
0.000000000000000e+00 0.000000000000000e+00 0.000000000000000e+00
0.000000000000000e+00 0.000000000000000e+00 0.000000000000000e+00
0.000000000000000e+00 0.000000000000000e+00 0.000000000000000e+00
0.000000000000000e+00 0.000000000000000e+00 0.000000000000000e+00
0.000000000000000e+00 0.000000000000000e+00 0.000000000000000e+00
0.000000000000000e+00 0.000000000000000e+00 0.000000000000000e+00
0.000000000000000e+00 0.000000000000000e+00 0.000000000000000e+00
0.000000000000000e+00 0.000000000000000e+00 0.000000000000000e+00
0.000000000000000e+00 0.000000000000000e+00 0.000000000000000e+00
0.000000000000000e+00 0.000000000000000e+00 0.000000000000000e+00
0.000000000000000e+00 0.000000000000000e+00 0.000000000000000e+00
0.000000000000000e+00 0.000000000000000e+00 0.000000000000000e+00
0.000000000000000e+00 0.000000000000000e+00 0.000000000000000e+00
0.000000000000000e+00 0.000000000000000e+00 0.000000000000000e+00
0.000000000000000e+00 0.000000000000000e+00 0.000000000000000e+00
0.000000000000000e+00 0.000000000000000e+00 0.000000000000000e+00
0.000000000000000e+00 0.000000000000000e+00 0.000000000000000e+00
0.000000000000000e+00 0.000000000000000e+00 0.000000000000000e+00
0.000000000000000e+00 0.000000000000000e+00 0.000000000000000e+00
0.000000000000000e+00 0.000000000000000e+00 0.000000000000000e+00
0.000000000000000e+00 0.000000000000000e+00 0.000000000000000e+00
0.000000000000000e+00 0.000000000000000e+00 0.000000000000000e+00
0.000000000000000e+00 0.000000000000000e+00 0.000000000000000e+00
0.000000000000000e+00 0.000000000000000e+00 0.000000000000000e+00
0.000000000000000e+00 0.000000000000000e+00 0.000000000000000e+00
0.000000000000000e+00 0.000000000000000e+00 0.000000000000000e+00
0.000000000000000e+00 0.000000000000000e+00 0.000000000000000e+00
0.000000000000000e+00 0.000000000000000e+00 0.000000000000000e+00
0.000000000000000e+00 0.000000000000000e+00 0.000000000000000e+00
0.000000000000000e+00 0.000000000000000e+00 0.000000000000000e+00
0.000000000000000e+00 0.000000000000000e+00 0.000000000000000e+00
0.000000000000000e+00 0.000000000000000e+00 0.000000000000000e+00
0.000000000000000e+00 0.000000000000000e+00 0.000000000000000e+00
0.000000000000000e+00 0.000000000000000e+00 0.000000000000000e+00
0.000000000000000e+00 0.000000000000000e+00 0.000000000000000e+00
0.000000000000000e+00 0.000000000000000e+00 0.000000000000000e+00
0.000000000000000e+00 0.000000000000000e+00 0.000000000000000e+00
0.000000000000000e+00 0.000000000000000e+00 0.000000000000000e+00
0.000000000000000e+00 0.000000000000000e+00 0.000000000000000e+00
0.000000000000000e+00 0.000000000000000e+00 0.000000000000000e+00
0.000000000000000e+00 0.000000000000000e+00 0.000000000000000e+00
0.000000000000000e+00 0.000000000000000e+00 0.000000000000000e+00
0.000000000000000e+00 0.000000000000000e+00 0.000000000000000e+00
0.000000000000000e+00 0.000000000000000e+00 0.000000000000000e+00
0.000000000000000e+00 0.000000000000000e+00 0.000000000000000e+00
0.000000000000000e+00 0.000000000000000e+00 0.000000000000000e+00
0.000000000000000e+00 0.000000000000000e+00 0.000000000000000e+00
0.000000000000000e+00 0.000000000000000e+00 0.000000000000000e+00
0.000000000000000e+00 0.000000000000000e+00 0.000000000000000e+00
0.000000000000000e+00 0.000000000000000e+00 0.000000000000000e+00
0.000000000000000e+00 0.000000000000000e+00 0.000000000000000e+00
0.000000000000000e+00 0.000000000000000e+00 0.000000000000000e+00
0.000000000000000e+00 0.000000000000000e+00 0.000000000000000e+00
0.000000000000000e+00 0.000000000000000e+00 0.000000000000000e+00
0.000000000000000e+00 0.000000000000000e+00 0.000000000000000e+00
0.000000000000000e+00 0.000000000000000e+00 0.000000000000000e+00
0.000000000000000e+00 0.000000000000000e+00 0.000000000000000e+00
0.000000000000000e+00 0.000000000000000e+00 0.000000000000000e+00
0.000000000000000e+00 0.000000000000000e+00 0.000000000000000e+00
0.000000000000000e+00 0.000000000000000e+00 0.000000000000000e+00
0.000000000000000e+00 0.000000000000000e+00 0.000000000000000e+00
0.000000000000000e+00 0.000000000000000e+00 0.000000000000000e+00
0.000000000000000e+00 0.000000000000000e+00 0.000000000000000e+00
0.000000000000000e+00 0.000000000000000e+00 0.000000000000000e+00
0.000000000000000e+00 0.000000000000000e+00 0.000000000000000e+00
0.000000000000000e+00 0.000000000000000e+00 0.000000000000000e+00
0.000000000000000e+00 0.000000000000000e+00 0.000000000000000e+00
0.000000000000000e+00 0.000000000000000e+00 0.000000000000000e+00
0.000000000000000e+00 0.000000000000000e+00 0.000000000000000e+00
0.000000000000000e+00 0.000000000000000e+00 0.000000000000000e+00
0.000000000000000e+00 0.000000000000000e+00 0.000000000000000e+00
0.000000000000000e+00 0.000000000000000e+00 0.000000000000000e+00
0.000000000000000e+00 0.000000000000000e+00 0.000000000000000e+00
0.000000000000000e+00 0.000000000000000e+00 0.000000000000000e+00
0.000000000000000e+00 0.000000000000000e+00 0.000000000000000e+00
0.000000000000000e+00 0.000000000000000e+00 0.000000000000000e+00
0.000000000000000e+00 0.000000000000000e+00 0.000000000000000e+00
0.000000000000000e+00 0.000000000000000e+00 0.000000000000000e+00
0.000000000000000e+00 0.000000000000000e+00 0.000000000000000e+00
0.000000000000000e+00 0.000000000000000e+00 0.000000000000000e+00
0.000000000000000e+00 0.000000000000000e+00 0.000000000000000e+00
0.000000000000000e+00 0.000000000000000e+00 0.000000000000000e+00
0.000000000000000e+00 0.000000000000000e+00 0.000000000000000e+00
0.000000000000000e+00 0.000000000000000e+00 0.000000000000000e+00
0.000000000000000e+00 0.000000000000000e+00 0.000000000000000e+00
0.000000000000000e+00 0.000000000000000e+00 0.000000000000000e+00
0.000000000000000e+00 0.000000000000000e+00 0.000000000000000e+00
0.000000000000000e+00 0.000000000000000e+00 0.000000000000000e+00
0.000000000000000e+00 0.000000000000000e+00 0.000000000000000e+00
0.000000000000000e+00 0.000000000000000e+00 0.000000000000000e+00
0.000000000000000e+00 0.000000000000000e+00 0.000000000000000e+00
0.000000000000000e+00 0.000000000000000e+00 0.000000000000000e+00
0.000000000000000e+00 0.000000000000000e+00 0.000000000000000e+00
0.000000000000000e+00 0.000000000000000e+00 0.000000000000000e+00
0.000000000000000e+00 0.000000000000000e+00 0.000000000000000e+00
0.000000000000000e+00 0.000000000000000e+00 0.000000000000000e+00
0.000000000000000e+00 0.000000000000000e+00 0.000000000000000e+00
0.000000000000000e+00 0.000000000000000e+00 0.000000000000000e+00
0.000000000000000e+00 0.000000000000000e+00 0.000000000000000e+00
0.000000000000000e+00 0.000000000000000e+00 0.000000000000000e+00
0.000000000000000e+00 0.000000000000000e+00 0.000000000000000e+00
0.000000000000000e+00 0.000000000000000e+00 0.000000000000000e+00
0.000000000000000e+00 0.000000000000000e+00 0.000000000000000e+00
0.000000000000000e+00 0.000000000000000e+00 0.000000000000000e+00
0.000000000000000e+00 0.000000000000000e+00 0.000000000000000e+00
0.000000000000000e+00 0.000000000000000e+00 0.000000000000000e+00
0.000000000000000e+00 0.000000000000000e+00 0.000000000000000e+00
0.000000000000000e+00 0.000000000000000e+00 0.000000000000000e+00
0.000000000000000e+00 0.000000000000000e+00 0.000000000000000e+00
0.000000000000000e+00 0.000000000000000e+00 0.000000000000000e+00
0.000000000000000e+00 0.000000000000000e+00 0.000000000000000e+00
0.000000000000000e+00 0.000000000000000e+00 0.000000000000000e+00
0.000000000000000e+00 0.000000000000000e+00 0.000000000000000e+00
0.000000000000000e+00 0.000000000000000e+00 0.000000000000000e+00
0.000000000000000e+00 0.000000000000000e+00 0.000000000000000e+00
0.000000000000000e+00 0.000000000000000e+00 0.000000000000000e+00
0.000000000000000e+00 0.000000000000000e+00 0.000000000000000e+00
0.000000000000000e+00 0.000000000000000e+00 0.000000000000000e+00
0.000000000000000e+00 0.000000000000000e+00 0.000000000000000e+00
0.000000000000000e+00 0.000000000000000e+00 0.000000000000000e+00
0.000000000000000e+00 0.000000000000000e+00 0.000000000000000e+00
0.000000000000000e+00 0.000000000000000e+00 0.000000000000000e+00
0.000000000000000e+00 0.000000000000000e+00 0.000000000000000e+00
0.000000000000000e+00 0.000000000000000e+00 0.000000000000000e+00
0.000000000000000e+00 0.000000000000000e+00 0.000000000000000e+00
0.000000000000000e+00 0.000000000000000e+00 0.000000000000000e+00
0.000000000000000e+00 0.000000000000000e+00 0.000000000000000e+00
0.000000000000000e+00 0.000000000000000e+00 0.000000000000000e+00
0.000000000000000e+00 0.000000000000000e+00 0.000000000000000e+00
0.000000000000000e+00 0.000000000000000e+00 0.000000000000000e+00
0.000000000000000e+00 0.000000000000000e+00 0.000000000000000e+00
0.000000000000000e+00 0.000000000000000e+00 0.000000000000000e+00
0.000000000000000e+00 0.000000000000000e+00 0.000000000000000e+00
0.000000000000000e+00 0.000000000000000e+00 0.000000000000000e+00
0.000000000000000e+00 0.000000000000000e+00 0.000000000000000e+00
0.000000000000000e+00 0.000000000000000e+00 0.000000000000000e+00
0.000000000000000e+00 0.000000000000000e+00 0.000000000000000e+00
0.000000000000000e+00 0.000000000000000e+00 0.000000000000000e+00
0.000000000000000e+00 0.000000000000000e+00 0.000000000000000e+00
0.000000000000000e+00 0.000000000000000e+00 0.000000000000000e+00
0.000000000000000e+00 0.000000000000000e+00 0.000000000000000e+00
0.000000000000000e+00 0.000000000000000e+00 0.000000000000000e+00
0.000000000000000e+00 0.000000000000000e+00 0.000000000000000e+00
0.000000000000000e+00 0.000000000000000e+00 0.000000000000000e+00
0.000000000000000e+00 0.000000000000000e+00 0.000000000000000e+00
0.000000000000000e+00 0.000000000000000e+00 0.000000000000000e+00
0.000000000000000e+00 0.000000000000000e+00 0.000000000000000e+00
0.000000000000000e+00 0.000000000000000e+00 0.000000000000000e+00
0.000000000000000e+00 0.000000000000000e+00 0.000000000000000e+00
0.000000000000000e+00 0.000000000000000e+00 0.000000000000000e+00
0.000000000000000e+00 0.000000000000000e+00 0.000000000000000e+00
0.000000000000000e+00 0.000000000000000e+00 0.000000000000000e+00
0.000000000000000e+00 0.000000000000000e+00 0.000000000000000e+00
0.000000000000000e+00 0.000000000000000e+00 0.000000000000000e+00
0.000000000000000e+00 0.000000000000000e+00 0.000000000000000e+00
0.000000000000000e+00 0.000000000000000e+00 0.000000000000000e+00
0.000000000000000e+00 0.000000000000000e+00 0.000000000000000e+00
0.000000000000000e+00 0.000000000000000e+00 0.000000000000000e+00
0.000000000000000e+00 0.000000000000000e+00 0.000000000000000e+00
0.000000000000000e+00 0.000000000000000e+00 0.000000000000000e+00
0.000000000000000e+00 0.000000000000000e+00 0.000000000000000e+00
0.000000000000000e+00 0.000000000000000e+00 0.000000000000000e+00
0.000000000000000e+00 0.000000000000000e+00 0.000000000000000e+00
0.000000000000000e+00 0.000000000000000e+00 0.000000000000000e+00
0.000000000000000e+00 0.000000000000000e+00 0.000000000000000e+00
0.000000000000000e+00 0.000000000000000e+00 0.000000000000000e+00
0.000000000000000e+00 0.000000000000000e+00 0.000000000000000e+00
0.000000000000000e+00 0.000000000000000e+00 0.000000000000000e+00
0.000000000000000e+00 0.000000000000000e+00 0.000000000000000e+00
0.000000000000000e+00 0.000000000000000e+00 0.000000000000000e+00
0.000000000000000e+00 0.000000000000000e+00 0.000000000000000e+00
0.000000000000000e+00 0.000000000000000e+00 0.000000000000000e+00
0.000000000000000e+00 0.000000000000000e+00 0.000000000000000e+00
0.000000000000000e+00 0.000000000000000e+00 0.000000000000000e+00
0.000000000000000e+00 0.000000000000000e+00 0.000000000000000e+00
0.000000000000000e+00 0.000000000000000e+00 0.000000000000000e+00
0.000000000000000e+00 0.000000000000000e+00 0.000000000000000e+00
0.000000000000000e+00 0.000000000000000e+00 0.000000000000000e+00
0.000000000000000e+00 0.000000000000000e+00 0.000000000000000e+00
0.000000000000000e+00 0.000000000000000e+00 0.000000000000000e+00
0.000000000000000e+00 0.000000000000000e+00 0.000000000000000e+00
0.000000000000000e+00 0.000000000000000e+00 0.000000000000000e+00
0.000000000000000e+00 0.000000000000000e+00 0.000000000000000e+00
0.000000000000000e+00 0.000000000000000e+00 0.000000000000000e+00
0.000000000000000e+00 0.000000000000000e+00 0.000000000000000e+00
0.000000000000000e+00 0.000000000000000e+00 0.000000000000000e+00
0.000000000000000e+00 0.000000000000000e+00 0.000000000000000e+00
0.000000000000000e+00 0.000000000000000e+00 0.000000000000000e+00
0.000000000000000e+00 0.000000000000000e+00 0.000000000000000e+00
0.000000000000000e+00 0.000000000000000e+00 0.000000000000000e+00
0.000000000000000e+00 0.000000000000000e+00 0.000000000000000e+00
0.000000000000000e+00 0.000000000000000e+00 0.000000000000000e+00
0.000000000000000e+00 0.000000000000000e+00 0.000000000000000e+00
0.000000000000000e+00 0.000000000000000e+00 0.000000000000000e+00
0.000000000000000e+00 0.000000000000000e+00 0.000000000000000e+00
0.000000000000000e+00 0.000000000000000e+00 0.000000000000000e+00
0.000000000000000e+00 0.000000000000000e+00 0.000000000000000e+00
0.000000000000000e+00 0.000000000000000e+00 0.000000000000000e+00
0.000000000000000e+00 0.000000000000000e+00 0.000000000000000e+00
0.000000000000000e+00 0.000000000000000e+00 0.000000000000000e+00
0.000000000000000e+00 0.000000000000000e+00 0.000000000000000e+00
0.000000000000000e+00 0.000000000000000e+00 0.000000000000000e+00
0.000000000000000e+00 0.000000000000000e+00 0.000000000000000e+00
0.000000000000000e+00 0.000000000000000e+00 0.000000000000000e+00
0.000000000000000e+00 0.000000000000000e+00 0.000000000000000e+00
0.000000000000000e+00 0.000000000000000e+00 0.000000000000000e+00
0.000000000000000e+00 0.000000000000000e+00 0.000000000000000e+00
0.000000000000000e+00 0.000000000000000e+00 0.000000000000000e+00
0.000000000000000e+00 0.000000000000000e+00 0.000000000000000e+00
0.000000000000000e+00 0.000000000000000e+00 0.000000000000000e+00
0.000000000000000e+00 0.000000000000000e+00 0.000000000000000e+00
0.000000000000000e+00 0.000000000000000e+00 0.000000000000000e+00
0.000000000000000e+00 0.000000000000000e+00 0.000000000000000e+00
0.000000000000000e+00 0.000000000000000e+00 0.000000000000000e+00
0.000000000000000e+00 0.000000000000000e+00 0.000000000000000e+00
0.000000000000000e+00 0.000000000000000e+00 0.000000000000000e+00
0.000000000000000e+00 0.000000000000000e+00 0.000000000000000e+00
0.000000000000000e+00 0.000000000000000e+00 0.000000000000000e+00
0.000000000000000e+00 0.000000000000000e+00 0.000000000000000e+00
0.000000000000000e+00 0.000000000000000e+00 0.000000000000000e+00
0.000000000000000e+00 0.000000000000000e+00 0.000000000000000e+00
0.000000000000000e+00 0.000000000000000e+00 0.000000000000000e+00
0.000000000000000e+00 0.000000000000000e+00 0.000000000000000e+00
0.000000000000000e+00 0.000000000000000e+00 0.000000000000000e+00
0.000000000000000e+00 0.000000000000000e+00 0.000000000000000e+00
0.000000000000000e+00 0.000000000000000e+00 0.000000000000000e+00
0.000000000000000e+00 0.000000000000000e+00 0.000000000000000e+00
0.000000000000000e+00 0.000000000000000e+00 0.000000000000000e+00
0.000000000000000e+00 0.000000000000000e+00 0.000000000000000e+00
0.000000000000000e+00 0.000000000000000e+00 0.000000000000000e+00
0.000000000000000e+00 0.000000000000000e+00 0.000000000000000e+00
0.000000000000000e+00 0.000000000000000e+00 0.000000000000000e+00
0.000000000000000e+00 0.000000000000000e+00 0.000000000000000e+00
0.000000000000000e+00 0.000000000000000e+00 0.000000000000000e+00
0.000000000000000e+00 0.000000000000000e+00 0.000000000000000e+00
0.000000000000000e+00 0.000000000000000e+00 0.000000000000000e+00
0.000000000000000e+00 0.000000000000000e+00 0.000000000000000e+00
0.000000000000000e+00 0.000000000000000e+00 0.000000000000000e+00
0.000000000000000e+00 0.000000000000000e+00 0.000000000000000e+00
0.000000000000000e+00 0.000000000000000e+00 0.000000000000000e+00
0.000000000000000e+00 0.000000000000000e+00 0.000000000000000e+00
0.000000000000000e+00 0.000000000000000e+00 0.000000000000000e+00
0.000000000000000e+00 0.000000000000000e+00 0.000000000000000e+00
0.000000000000000e+00 0.000000000000000e+00 0.000000000000000e+00
0.000000000000000e+00 0.000000000000000e+00 0.000000000000000e+00
0.000000000000000e+00 0.000000000000000e+00 0.000000000000000e+00
0.000000000000000e+00 0.000000000000000e+00 0.000000000000000e+00
0.000000000000000e+00 0.000000000000000e+00 0.000000000000000e+00
0.000000000000000e+00 0.000000000000000e+00 0.000000000000000e+00
0.000000000000000e+00 0.000000000000000e+00 0.000000000000000e+00
0.000000000000000e+00 0.000000000000000e+00 0.000000000000000e+00
0.000000000000000e+00 0.000000000000000e+00 0.000000000000000e+00
0.000000000000000e+00 0.000000000000000e+00 0.000000000000000e+00
0.000000000000000e+00 0.000000000000000e+00 0.000000000000000e+00
0.000000000000000e+00 0.000000000000000e+00 0.000000000000000e+00
0.000000000000000e+00 0.000000000000000e+00 0.000000000000000e+00
0.000000000000000e+00 0.000000000000000e+00 0.000000000000000e+00
0.000000000000000e+00 0.000000000000000e+00 0.000000000000000e+00
0.000000000000000e+00 0.000000000000000e+00 0.000000000000000e+00
0.000000000000000e+00 0.000000000000000e+00 0.000000000000000e+00
0.000000000000000e+00 0.000000000000000e+00 0.000000000000000e+00
0.000000000000000e+00 0.000000000000000e+00 0.000000000000000e+00
0.000000000000000e+00 0.000000000000000e+00 0.000000000000000e+00
0.000000000000000e+00 0.000000000000000e+00 0.000000000000000e+00
0.000000000000000e+00 0.000000000000000e+00 0.000000000000000e+00
0.000000000000000e+00 0.000000000000000e+00 0.000000000000000e+00
0.000000000000000e+00 0.000000000000000e+00 0.000000000000000e+00
0.000000000000000e+00 0.000000000000000e+00 0.000000000000000e+00
0.000000000000000e+00 0.000000000000000e+00 0.000000000000000e+00
0.000000000000000e+00 0.000000000000000e+00 0.000000000000000e+00
0.000000000000000e+00 0.000000000000000e+00 0.000000000000000e+00
0.000000000000000e+00 0.000000000000000e+00 0.000000000000000e+00
0.000000000000000e+00 0.000000000000000e+00 0.000000000000000e+00
0.000000000000000e+00 0.000000000000000e+00 0.000000000000000e+00
0.000000000000000e+00 0.000000000000000e+00 0.000000000000000e+00
0.000000000000000e+00 0.000000000000000e+00 0.000000000000000e+00
0.000000000000000e+00 0.000000000000000e+00 0.000000000000000e+00
0.000000000000000e+00 0.000000000000000e+00 0.000000000000000e+00
0.000000000000000e+00 0.000000000000000e+00 0.000000000000000e+00
0.000000000000000e+00 0.000000000000000e+00 0.000000000000000e+00
0.000000000000000e+00 0.000000000000000e+00 0.000000000000000e+00
0.000000000000000e+00 0.000000000000000e+00 0.000000000000000e+00
0.000000000000000e+00 0.000000000000000e+00 0.000000000000000e+00
0.000000000000000e+00 0.000000000000000e+00 0.000000000000000e+00
0.000000000000000e+00 0.000000000000000e+00 0.000000000000000e+00
0.000000000000000e+00 0.000000000000000e+00 0.000000000000000e+00
0.000000000000000e+00 0.000000000000000e+00 0.000000000000000e+00
0.000000000000000e+00 0.000000000000000e+00 0.000000000000000e+00
0.000000000000000e+00 0.000000000000000e+00 0.000000000000000e+00
0.000000000000000e+00 0.000000000000000e+00 0.000000000000000e+00
0.000000000000000e+00 0.000000000000000e+00 0.000000000000000e+00
0.000000000000000e+00 0.000000000000000e+00 0.000000000000000e+00
0.000000000000000e+00 0.000000000000000e+00 0.000000000000000e+00
0.000000000000000e+00 0.000000000000000e+00 0.000000000000000e+00
0.000000000000000e+00 0.000000000000000e+00 0.000000000000000e+00
0.000000000000000e+00 0.000000000000000e+00 0.000000000000000e+00
0.000000000000000e+00 0.000000000000000e+00 0.000000000000000e+00
0.000000000000000e+00 0.000000000000000e+00 0.000000000000000e+00
0.000000000000000e+00 0.000000000000000e+00 0.000000000000000e+00
0.000000000000000e+00 0.000000000000000e+00 0.000000000000000e+00
0.000000000000000e+00 0.000000000000000e+00 0.000000000000000e+00
0.000000000000000e+00 0.000000000000000e+00 0.000000000000000e+00
0.000000000000000e+00 0.000000000000000e+00 0.000000000000000e+00
0.000000000000000e+00 0.000000000000000e+00 0.000000000000000e+00
0.000000000000000e+00 0.000000000000000e+00 0.000000000000000e+00
0.000000000000000e+00 0.000000000000000e+00 0.000000000000000e+00
0.000000000000000e+00 0.000000000000000e+00 0.000000000000000e+00
0.000000000000000e+00 0.000000000000000e+00 0.000000000000000e+00
0.000000000000000e+00 0.000000000000000e+00 0.000000000000000e+00
0.000000000000000e+00 0.000000000000000e+00 0.000000000000000e+00
0.000000000000000e+00 0.000000000000000e+00 0.000000000000000e+00
0.000000000000000e+00 0.000000000000000e+00 0.000000000000000e+00
0.000000000000000e+00 0.000000000000000e+00 0.000000000000000e+00
0.000000000000000e+00 0.000000000000000e+00 0.000000000000000e+00
0.000000000000000e+00 0.000000000000000e+00 0.000000000000000e+00
0.000000000000000e+00 0.000000000000000e+00 0.000000000000000e+00
0.000000000000000e+00 0.000000000000000e+00 0.000000000000000e+00
0.000000000000000e+00 0.000000000000000e+00 0.000000000000000e+00
0.000000000000000e+00 0.000000000000000e+00 0.000000000000000e+00
0.000000000000000e+00 0.000000000000000e+00 0.000000000000000e+00
0.000000000000000e+00 0.000000000000000e+00 0.000000000000000e+00
0.000000000000000e+00 0.000000000000000e+00 0.000000000000000e+00
0.000000000000000e+00 0.000000000000000e+00 0.000000000000000e+00
0.000000000000000e+00 0.000000000000000e+00 0.000000000000000e+00
0.000000000000000e+00 0.000000000000000e+00 0.000000000000000e+00
0.000000000000000e+00 0.000000000000000e+00 0.000000000000000e+00
0.000000000000000e+00 0.000000000000000e+00 0.000000000000000e+00
0.000000000000000e+00 0.000000000000000e+00 0.000000000000000e+00
0.000000000000000e+00 0.000000000000000e+00 0.000000000000000e+00
0.000000000000000e+00 0.000000000000000e+00 0.000000000000000e+00
0.000000000000000e+00 0.000000000000000e+00 0.000000000000000e+00
0.000000000000000e+00 0.000000000000000e+00 0.000000000000000e+00
0.000000000000000e+00 0.000000000000000e+00 0.000000000000000e+00
0.000000000000000e+00 0.000000000000000e+00 0.000000000000000e+00
0.000000000000000e+00 0.000000000000000e+00 0.000000000000000e+00
0.000000000000000e+00 0.000000000000000e+00 0.000000000000000e+00
0.000000000000000e+00 0.000000000000000e+00 0.000000000000000e+00
0.000000000000000e+00 0.000000000000000e+00 0.000000000000000e+00
0.000000000000000e+00 0.000000000000000e+00 0.000000000000000e+00
0.000000000000000e+00 0.000000000000000e+00 0.000000000000000e+00
0.000000000000000e+00 0.000000000000000e+00 0.000000000000000e+00
0.000000000000000e+00 0.000000000000000e+00 0.000000000000000e+00
0.000000000000000e+00 0.000000000000000e+00 0.000000000000000e+00
0.000000000000000e+00 0.000000000000000e+00 0.000000000000000e+00
0.000000000000000e+00 0.000000000000000e+00 0.000000000000000e+00
0.000000000000000e+00 0.000000000000000e+00 0.000000000000000e+00
0.000000000000000e+00 0.000000000000000e+00 0.000000000000000e+00
0.000000000000000e+00 0.000000000000000e+00 0.000000000000000e+00
0.000000000000000e+00 0.000000000000000e+00 0.000000000000000e+00
0.000000000000000e+00 0.000000000000000e+00 0.000000000000000e+00
0.000000000000000e+00 0.000000000000000e+00 0.000000000000000e+00
0.000000000000000e+00 0.000000000000000e+00 0.000000000000000e+00
0.000000000000000e+00 0.000000000000000e+00 0.000000000000000e+00
0.000000000000000e+00 0.000000000000000e+00 0.000000000000000e+00
0.000000000000000e+00 0.000000000000000e+00 0.000000000000000e+00
0.000000000000000e+00 0.000000000000000e+00 0.000000000000000e+00
0.000000000000000e+00 0.000000000000000e+00 0.000000000000000e+00
0.000000000000000e+00 0.000000000000000e+00 0.000000000000000e+00
0.000000000000000e+00 0.000000000000000e+00 0.000000000000000e+00
0.000000000000000e+00 0.000000000000000e+00 0.000000000000000e+00
0.000000000000000e+00 0.000000000000000e+00 0.000000000000000e+00
0.000000000000000e+00 0.000000000000000e+00 0.000000000000000e+00
0.000000000000000e+00 0.000000000000000e+00 0.000000000000000e+00
0.000000000000000e+00 0.000000000000000e+00 0.000000000000000e+00
0.000000000000000e+00 0.000000000000000e+00 0.000000000000000e+00
0.000000000000000e+00 0.000000000000000e+00 0.000000000000000e+00
0.000000000000000e+00 0.000000000000000e+00 0.000000000000000e+00
0.000000000000000e+00 0.000000000000000e+00 0.000000000000000e+00
0.000000000000000e+00 0.000000000000000e+00 0.000000000000000e+00
0.000000000000000e+00 0.000000000000000e+00 0.000000000000000e+00
0.000000000000000e+00 0.000000000000000e+00 0.000000000000000e+00
0.000000000000000e+00 0.000000000000000e+00 0.000000000000000e+00
0.000000000000000e+00 0.000000000000000e+00 0.000000000000000e+00
0.000000000000000e+00 0.000000000000000e+00 0.000000000000000e+00
0.000000000000000e+00 0.000000000000000e+00 0.000000000000000e+00
0.000000000000000e+00 0.000000000000000e+00 0.000000000000000e+00
0.000000000000000e+00 0.000000000000000e+00 0.000000000000000e+00
0.000000000000000e+00 0.000000000000000e+00 0.000000000000000e+00
0.000000000000000e+00 0.000000000000000e+00 0.000000000000000e+00
0.000000000000000e+00 0.000000000000000e+00 0.000000000000000e+00
0.000000000000000e+00 0.000000000000000e+00 0.000000000000000e+00
0.000000000000000e+00 0.000000000000000e+00 0.000000000000000e+00
0.000000000000000e+00 0.000000000000000e+00 0.000000000000000e+00
0.000000000000000e+00 0.000000000000000e+00 0.000000000000000e+00
0.000000000000000e+00 0.000000000000000e+00 0.000000000000000e+00
0.000000000000000e+00 0.000000000000000e+00 0.000000000000000e+00
0.000000000000000e+00 0.000000000000000e+00 0.000000000000000e+00
0.000000000000000e+00 0.000000000000000e+00 0.000000000000000e+00
0.000000000000000e+00 0.000000000000000e+00 0.000000000000000e+00
0.000000000000000e+00 0.000000000000000e+00 0.000000000000000e+00
0.000000000000000e+00 0.000000000000000e+00 0.000000000000000e+00
0.000000000000000e+00 0.000000000000000e+00 0.000000000000000e+00
0.000000000000000e+00 0.000000000000000e+00 0.000000000000000e+00
0.000000000000000e+00 0.000000000000000e+00 0.000000000000000e+00
0.000000000000000e+00 0.000000000000000e+00 0.000000000000000e+00
0.000000000000000e+00 0.000000000000000e+00 0.000000000000000e+00
0.000000000000000e+00 0.000000000000000e+00 0.000000000000000e+00
0.000000000000000e+00 0.000000000000000e+00 0.000000000000000e+00
0.000000000000000e+00 0.000000000000000e+00 0.000000000000000e+00
0.000000000000000e+00 0.000000000000000e+00 0.000000000000000e+00
0.000000000000000e+00 0.000000000000000e+00 0.000000000000000e+00
0.000000000000000e+00 0.000000000000000e+00 0.000000000000000e+00
 4.374115907730108e+00  2.919491226947372e-02 -7.814257734335868e-17
 1.554713371806255e-01 -1.214331045942081e-03 -2.754321087688094e-18
-1.383839925245068e+01 -7.213458464129380e-01  2.536823882649333e-16
-4.857670502135769e-01  1.305902458479018e-02  8.510627363002113e-18
 4.723996836585108e+00  1.162589428908856e-01 -8.526367706890360e-17
-2.449068816143680e-02  2.289153480458489e-03  4.123207840972642e-19
-3.104782015209461e-01 -5.461334530434068e-03  5.581443161849204e-18
-1.432177312279508e+00 -2.902405137809216e-03  2.551712479354626e-17
 1.286029778994549e+00  2.218222886980427e-03 -2.290922538350138e-17
-1.961204637942981e+00 -4.973766049537437e-02  3.541301227480714e-17
 1.124969736472466e+00 -7.054620774256810e-03 -1.994769470641523e-17
 5.489626193786054e-02  3.094416028559730e-03 -1.008738462209295e-18
 7.134703738354373e-01 -4.642529652083086e-03 -1.264935607006086e-17
 4.458396567158078e-01  1.589871767060192e-02 -8.097602056582265e-18
-9.568735546453511e-01 -1.323372360267895e-02  1.716467797324203e-17
-3.287386477921100e-01 -1.027322187872218e-02  5.955849994317734e-18
 8.758673459706070e-01  2.734180425139135e-02 -1.586803130526276e-17
-7.826265216818148e+00 -5.965200257574430e-01  1.454067516156740e-16
 1.396253967015267e+00 -2.727341425378101e-02 -2.456778043774750e-17
-3.935595101739165e+00 -3.566000843459258e-01  7.370254571090102e-17
 4.944748005052234e+00 -6.222262599702745e-01 -8.160454039836581e-17
 1.742758874778714e+00  1.926337803337065e-01 -3.299371514126941e-17
-5.368952898163594e+00  8.470122846200880e-02  9.467664678559216e-17
 3.044172422071067e+00  1.333307083373530e-01 -5.554460406555064e-17
-1.069853798065997e+01 -3.706598104530360e-01  1.942016399442573e-16
 2.464279367609610e+01 -3.399517308677635e+00 -4.036191031312680e-16
-1.610559633019005e+01 -2.744276065100747e+00  3.148147377951590e-16
-1.840347615690566e+01  2.417776145109853e+00  3.026700390972463e-16
 3.253141350119144e+01  8.927825446842159e-01 -5.881083244526101e-16
-9.761531747750537e+00 -3.987596096183774e-01  1.778152115549736e-16
-2.912609162084914e+00  4.345067500786828e-02  5.138691444097992e-17
-2.491452569751005e+00 -6.419830203954130e-02  4.499798462440032e-17
-3.623554459782399e+00  1.179872560567089e-01  6.327319761424968e-17
-4.066878310995541e+00 -8.159279228915051e-02  7.321328702594248e-17
-5.513396435205761e+00  3.394957474875833e-01  9.462927080289608e-17
-5.675083216846574e+00 -9.268974721907838e-02  1.019472288093107e-16
 6.492012679741754e+00 -8.584063040452153e-01 -1.067132966458587e-16
 1.996440313622437e+00  6.481723389740285e-02 -3.619501035594417e-17
 7.508857970510616e+00 -9.885622863416021e-01 -1.234719660341910e-16
-3.916281963016626e+00 -2.779158625973440e-01  7.255039354613354e-17
 3.655771288287620e+00 -3.111408395465428e-01 -6.186195174729900e-17
 3.804790742118626e+00  5.070450585243562e-01 -7.292049355572340e-17
-2.457471366318571e+00  4.127669731046115e-01  3.949260370843853e-17
-2.321557365681662e-02  3.028830996147145e-04  4.100367996804867e-19
 1.333811193016775e+00 -1.289802609270709e-01 -2.241153588113615e-17
 4.718607047203331e+00  6.392392911884920e-01 -9.054119246279437e-17
-7.518053583245712e-02  3.145385786720771e-02  1.014750340055467e-18
 2.419336488090500e+00  2.162705800638361e-01 -4.527708034010152e-17
-8.605238108548909e-01  4.691231480206188e-02  1.483204069354947e-17
 2.835141361370315e+00  1.616168030372509e-01 -5.211527632846781e-17
-4.424785615713727e+00  3.313534675803452e-01  7.533980158534115e-17
 7.697308327682068e-01  4.495301965141752e-02 -1.416015429346818e-17
 1.123423061178385e-01 -3.472259444022999e-03 -1.963589139366156e-18
 2.957128097503753e+00  2.640077938857593e-01 -5.533820599793330e-17
-1.393923633183953e-01  6.415405965020037e-03  2.414737411332369e-18
 1.642787589605038e-01 -1.260323018064592e-03 -2.910587113327937e-18
 1.307649752934285e+00 -5.293888396294679e-02 -2.272725937303411e-17
-7.739348654106164e-01 -4.119420987628306e-02  1.419634965788724e-17
 3.094585503842744e+00 -1.905491576477957e-01 -5.311401697642805e-17
-1.488544903497065e+00 -8.848150379002089e-02  2.739954746316702e-17
 3.523896833649867e+00 -2.825635920516290e-01 -5.980870934549351e-17
-1.565049493824127e+00 -9.138494560449673e-02  2.879086972293115e-17
 4.865583789793725e+00 -7.313921863440287e-01 -7.907407839702011e-17
-2.331596376684992e+00 -1.825508106537152e-01  4.336918201649083e-17
-1.965734066563436e+00  1.321628679581116e-01  3.362465706688646e-17
 2.784467435407904e+01  1.625502758753847e+01 -6.625436979353666e-16
-1.801973663681500e+00  1.113882400798180e-01  3.092379710624714e-17
 1.018843712368943e+00  5.427400870123991e-02 -1.868918490489371e-17
-2.542359475209559e+00  1.133691833304805e-01  4.407949233469110e-17
 2.131523487428469e+00  1.576860746540043e-01 -3.955317019724400e-17
-3.078361500431418e+00  8.183100629783167e-02  5.394233103985065e-17
 3.914609698355926e+00  1.002620116417258e-01 -7.069530481223800e-17
-1.814006109512488e+00 -8.764947595472403e-03  3.237245919590563e-17
-3.118644158243664e+00 -2.891430860540367e-03  5.552970124314395e-17
-3.156493564639268e+00  8.903889481881275e-02  5.525872590855860e-17
 5.600906010228857e-01  1.243370249638392e-02 -1.009523210600203e-17
-5.280222765831907e+00 -1.198737401036357e-02  9.409102850878395e-17
-5.678516808479834e+00  3.773369760612659e-01  9.717898031366153e-17
-2.331504038194225e+00 -1.624902806990436e-02  4.165884833129865e-17
-2.037761083108201e+00  4.767134501122666e-02  3.577458344312145e-17
 1.764273070982757e+00 -5.049070090432482e-03 -3.134546645767092e-17
-4.087081240565700e+00  3.533214920224471e-02  7.237146094336646e-17
 5.011693804396392e-01 -1.395459319585688e-02 -8.775528569138925e-18
-4.172152031451786e+00 -4.678968732962477e-02  7.472916912853570e-17
 1.522362446002474e+00 -5.998281204775773e-02 -2.647595405460014e-17
-4.288908281281051e+00 -1.776915854807042e-01  7.815195534947152e-17
 3.095920301493676e-01 -1.740663392854487e-02 -5.330712637515134e-18
-1.211835763704390e+00 -1.063400865601659e-01  2.265866876219893e-17
 2.138001641442393e-01 -1.471552590149441e-03 -3.789709287332304e-18
-5.027597512552582e+00 -1.596101071606540e-01  9.111203072083677e-17
-1.104675540292757e+01  1.279186547974784e+01  6.515841999229312e-17
 7.190703714728537e+00  2.494013355640300e-01 -1.305296581331180e-16
-5.964391220934133e-01  8.925573081330667e-03  1.052263861674408e-17
-2.889875256250149e+00 -1.165440732489178e-01  5.262622537255072e-17
-1.429731474827155e+00  5.832391759829479e-02  2.484452002473142e-17
 3.521246240605460e-01  1.535418110864272e-02 -6.424236347067755e-18
-3.258922039190620e+00  4.596941121801706e-02  5.752408606924712e-17
-1.700623984535652e-02  2.096468553095101e-04  3.004922799959050e-19
 2.496730184152385e+00 -3.605069461513721e-02 -4.406188404114565e-17
 4.735476281036762e-01  4.057911963487753e-03 -8.469038481346368e-18
-2.531999434695340e+00  4.504610445749493e-02  4.459711785241689e-17
 3.828758810982524e-01 -3.921477850263901e-03 -6.773441258582767e-18
-3.575876564756168e+00  1.563340886005034e-02  6.347636126450278e-17
 4.814906029297688e-01 -1.464187498736794e-02 -8.418259659759898e-18
 2.830375001509022e+00  1.898920183169809e-02 -5.056500650408977e-17
-1.346446812314239e+00 -3.003826875497241e-04  2.396471344670019e-17
-3.026514554919619e+00  1.442492181352114e-03  5.384561558777449e-17
-8.658124740948623e-01  7.796494155603101e-03  1.532805961860345e-17
 1.658638866361714e+00  1.767549453620098e-02 -2.969906640780884e-17
-3.400878973663898e+00 -4.525401420231866e-02  6.098766660264452e-17
 3.578712545851975e+00 -1.824608556712562e-01 -6.181273970583923e-17
-3.076392186802122e+00 -5.919029516400787e-02  5.535622735161924e-17
-3.227763610314928e-01 -3.801306438253725e-03  5.783247408821842e-18
-4.670314868390429e+00 -3.318661760291620e-01  8.652362837840708e-17
 1.399341833660181e+00 -8.408054440999765e-02 -2.403906007883007e-17
 5.740386475549150e+00  6.094480306818103e-01 -1.084188818718771e-16
-3.197052650293465e+00  9.587102408143520e-02  5.591032554266382e-17
-2.211339913395307e+00 -1.233988037269072e-01  4.062130939156433e-17
 1.368148314321595e+00 -4.390652643481694e-02 -2.389670763933133e-17
 9.985692860464702e+00  1.006418720671610e+00 -1.880479025203269e-16
-2.865963087186219e+00  3.782788123077956e-02  5.061456403952069e-17
-6.180398121586366e-01 -1.397526554364001e-02  1.114234644331623e-17
 7.126383682564699e-01 -1.016297533562220e-02 -1.257782894461185e-17
 9.291076629608718e-01  5.172119788481871e-02 -1.706599563641150e-17
 9.069341546069376e-02 -1.335020906605987e-02 -1.476828962740821e-18
 1.502048044092609e+00  8.727313222423855e-02 -2.762743638607943e-17
-1.177165785997129e+00 -2.537759703173135e-02  2.120981488093862e-17
-8.990681582761344e-01 -4.178498326546826e-02  1.642931584354186e-17
 1.456816148547907e+00  8.063245371956988e-02 -2.675425028222775e-17
 7.543335254927385e+00  9.648570233504420e-01 -1.441562042963998e-16
-1.329660481434546e+00 -1.456897338733826e-01  2.515980344321074e-17
 7.685804661450466e+00  9.718597093668470e-01 -1.467635673669188e-16
-3.086025648319375e+01 -1.033123882781850e+01  6.553448015260128e-16
 1.238912716576145e+00 -4.894339953425951e-01 -1.701917310616629e-17
 1.716139279922313e+00  1.390982176931236e-01 -3.196992922129906e-17
 1.559867017339778e-01 -7.755495004716788e-02 -1.979120471643191e-18
 4.346157391510279e+00  3.255035588934982e-01 -8.068948592397687e-17
-1.772019965083023e-01  1.104734767136615e-02  3.040013421984345e-18
 3.232963941184526e+00  1.489136688660820e-01 -5.906448357865540e-17
 2.002709515871466e+00 -1.153373914074910e-01 -3.445555492819680e-17
 2.768264155296634e+01  1.711026833256409e+01 -6.684474188808154e-16
 3.500514352749535e+00 -9.300737627403549e-02 -6.134021146942283e-17
-1.655611862363995e+00 -3.906762887408614e-01  3.347764477981649e-17
-9.675474339012972e+00  1.581833918199886e+00  1.559338383143508e-16
 6.899411160212603e+00  2.361152061144984e-01 -1.252092494783431e-16
-1.331884179170783e+00  3.246127606086512e-02  2.336893985127975e-17
-3.594617309363825e+00 -9.494315567224931e-02  6.494600927973314e-17
 5.145491760090964e+00 -1.035528784252280e+00 -8.093048134961018e-17
 5.586370893320849e+00  1.196790796977693e-01 -1.006457927817961e-16
-1.036169233897282e+01 -1.590657496491597e-01  1.860330177391684e-16
-4.996115192604957e-01  4.095008586777154e-03  8.849108214653719e-18
 6.922863136002120e-01  3.957597519758392e-04 -1.232412702732086e-17
 7.794068775365044e-02  5.659698667369743e-05 -1.387629019818808e-18
 8.983733372413525e-01 -5.765059428913254e-04 -1.598170177233990e-17
-2.188077963490368e+00 -2.049369310246335e-02  3.915002264792015e-17
 2.420320151180512e+00 -1.026534402604122e-01 -4.201775734918961e-17
 1.132149651932029e+00  3.412875109969921e-02 -2.049861407445886e-17
-1.523438555080352e-01  9.438866719093090e-03  2.614159703985135e-18
 7.513447745963998e-01  3.301985576275332e-03 -1.340500320658531e-17
-1.599551313794004e+00  5.483593610175846e-02  2.790250431558069e-17
 2.667716700886485e+00  1.848656688970632e-02 -4.766514362123960e-17
 4.771604403251405e-03 -8.986093051581538e-04 -7.568350996501396e-20
-3.647125899415065e-01  7.529547929543675e-04  6.482759246926436e-18
-1.055306041592564e+00  5.894271355374453e-03  1.871986833012692e-17
 3.966477758804245e+00 -9.184711194140027e-02 -6.964450739185917e-17
-6.189574460968372e+00 -5.976334354774162e-01  1.162913271916664e-16
 1.028365552048617e+00 -8.721589308031084e-02 -1.740488005871603e-17
-6.409539606761699e-01 -2.140860641000688e-01  1.360619684996139e-17
 8.224289185584391e-01 -2.221196314097082e-02 -1.440788378310984e-17
 9.429600200963253e-01  6.811665344174357e-02 -1.748097223330294e-17
-1.633719229738394e+00  1.050596329033841e-01  2.799453289244834e-17
 6.786458175299356e+00  2.355421894294882e-01 -1.231932288378236e-16
 1.591090720509604e+00  6.808163211668262e-02 -2.901487132784340e-17
-5.101350691169015e+00 -2.078648136775257e-01  9.292035610855618e-17
 2.097115491922628e+00 -7.848389589367594e-02 -3.651427819496576e-17
-2.824029705039098e+01 -1.617321431280844e+01  6.687436740503443e-16
 5.713245893015380e+00 -8.624996449688065e-01 -9.281215514271008e-17
-5.409552886237359e+00 -1.032238793738322e+00  1.068753249937868e-16
-1.844673437505506e+01  1.484253485084430e+01  1.757799885421236e-16
 8.409615591464897e+00  7.893760642674142e-01 -1.577696930989616e-16
-1.198531114813419e+01  4.705098646275647e-01  2.084585905403032e-16
 1.019229438359152e+00 -6.351279877696091e-02 -1.748583270407006e-17
 1.078542789570270e+01 -7.396677778439283e-01 -1.843397370074388e-16
-2.006070618629491e+01 -7.225786775450757e+00  4.312465300699042e-16
-1.490806766588822e+01  1.996938217674913e+00  2.447890323450084e-16
 2.696875350376870e+01 -1.985496569980457e+00 -4.595408821106598e-16
 2.091526076807226e+01  1.410764381096458e+01 -5.171629292520140e-16
-1.519512765911804e+01  1.242161652906989e-01  2.691391461294403e-16
-2.815644321403197e+01 -9.371066554766283e+00  5.973617978142025e-16
-1.168235989619877e+01  2.080011977481699e+00  1.865301621174573e-16
 9.742818197772063e+00 -5.138297880712632e-01 -1.681056570709092e-16
 3.200136377648664e+00 -5.649170538282466e-02 -5.636981234898164e-17
-2.551977826080288e+00  3.129302244041451e-02  4.509396508652396e-17
 4.178906833409926e+00 -1.202415301774959e-01 -7.313319383525968e-17
 4.442632885893283e-01 -8.771669391774959e-03 -7.816069458699588e-18
 2.196196013611445e+01 -2.273282798504786e+00 -3.674821228578234e-16
 4.891414598303459e-01 -1.900702961272325e-03 -8.685326728567307e-18
 2.673168895919946e+00 -1.376948308921882e-01 -4.615746483597086e-17
 8.276746377995550e-01  1.154085496404748e-02 -1.484803556167185e-17
 3.445345948845549e+00 -3.981475318999655e-01 -5.722321966568412e-17
 1.976316093869350e+00  4.217663725045450e-02 -3.560425194712413e-17
-1.410716407724508e+00  1.407820722864278e-02  2.496073277358017e-17
 5.180295448058303e+00 -2.571264928728048e-02 -9.192534849265979e-17
 4.747002959038424e-01 -1.953964339317066e-03 -8.427781738678347e-18
 1.897569120251324e-01 -7.898530030809359e-04 -3.368835136996639e-18
 4.179540712945118e-01 -2.357349206376578e-03 -7.413770331092406e-18
 3.597412088182451e-01 -1.637009690489446e-03 -6.385204206873417e-18
 1.305723151657328e+00 -4.245381889699246e-03 -2.319328131788961e-17
 2.294503382120525e-01 -6.290038042883240e-04 -4.076879678482817e-18
 1.366461875078967e-01 -4.252274870227114e-04 -2.427412846785075e-18
 1.800505821020808e-01 -5.566009035620289e-04 -3.198496007012309e-18
 4.837977572448775e-02 -4.400236940660064e-05 -8.605237101244968e-19
 4.401418108067762e-01 -1.502596303685528e-03 -7.817409912934813e-18
 1.149278518296575e+00 -2.572753025415380e-03 -2.042634803747723e-17
-1.569547925747594e+00 -1.741576607826673e-02  2.811091823301740e-17
 2.409558505791689e+00 -5.900629124452572e-02 -4.227469962848543e-17
-1.072169346587374e+00 -7.062451974556859e-02  1.980617372058821e-17
 6.008425020998144e+00 -3.880184571084386e-01 -1.029403416669583e-16
 3.404494250571902e-01  6.938815875542723e-03 -6.129997436168155e-18
 1.679691449089987e+00 -8.212845831999031e-02 -2.904827286433918e-17
 3.298144257884228e+00  3.549688561505339e-01 -6.234158728774166e-17
 2.107309978625769e-01 -2.193682860407768e-03 -3.727670188276016e-18
 1.020449984659665e+01  1.572337257585701e+00 -1.977564411827443e-16
-2.452315478917965e+00  9.928688346887680e-02  4.262174251415257e-17
 3.185170856427177e+00  4.138224634242459e-02 -5.710910234702987e-17
 1.167675813161145e+00  2.295385185680138e-02 -2.101602643797997e-17
 1.201579515906642e+00  3.313205157606424e-02 -2.172396057200128e-17
-1.430475833402544e-01  2.503808372940953e-03  2.519976670503780e-18
 3.987472365719889e+00 -6.520760544039285e-02 -7.029184270231728e-17
 2.339724583861360e+00  1.918462223692523e-01 -4.360934013137297e-17
-3.153141245491151e+01 -8.053567813346884e+00  6.438865803163622e-16
 9.029197985558367e+00 -1.376467840342394e+00 -1.465426415421755e-16
-7.628008246858262e+00 -2.153000906032428e+00  1.578708079542996e-16
 3.092996888111703e+00 -3.890900014621804e-01 -5.104581066225849e-17
 1.534138660025002e+00  1.132389143491495e-01 -2.846531614809618e-17
-5.141073950798038e+00  1.283740663424834e+00  7.830157448497340e-17
 3.574749297070758e+00  6.380403516341394e-01 -7.017256069518716e-17
-3.838870357575364e+00  3.667150846186616e-01  6.454941289843985e-17
 5.523540472162547e+00  5.904277014301800e-01 -1.043644215687559e-16
-8.609835800428188e+00  6.807202485481426e-01  1.462281449912682e-16
 4.621833161431323e+00  1.703919389224776e-01 -8.400174950336362e-17
-2.264896414123965e+00 -1.897888203726040e-02  4.050153447354098e-17
-7.138276205800111e+00 -2.876067366228338e-03  1.270636904764805e-16
-2.886050668379044e+01  3.573694639501254e+00  4.768887280553989e-16
 1.504153297577423e+00  1.392953921833686e-02 -2.691132310886888e-17
-2.100662672600845e+00  9.115912688317211e-03  3.729013533019078e-17
-2.069460188383702e+00  9.028075546270784e-03  3.673575240113858e-17
 4.362631243525963e-01 -3.737905706619911e-03 -7.725417084143281e-18
-2.132376939481166e+00  4.242230008387062e-03  3.790460385426153e-17
-1.506871739678326e+00  5.825784093709382e-03  2.675672224937792e-17
 5.600615737265614e-02  3.591207364001763e-03 -1.033594795482104e-18
-2.263268056936936e+00  2.317866503034090e-03  4.025373957124830e-17
 7.616744232124215e-02 -2.440617828729558e-03 -1.330414048153807e-18
-2.956469207738506e+00 -3.546121531513872e-02  5.297824726019021e-17
 2.791765283377281e+00 -1.836277635895141e-01 -4.779608501389654e-17
-6.814415580413120e-02  5.986085627593849e-03  1.151201678595232e-18
 2.034164567208790e-01 -6.984784007627517e-03 -3.548272355140099e-18
-2.421149626199082e+00 -1.199322341099250e-01  4.431950578532502e-17
 5.156839440512621e-01 -1.462460690588605e-02 -9.026948397266524e-18
-3.728347662198420e-02 -9.996257896989036e-04  6.737747537989655e-19
-6.070393285356406e-02  1.872803016854845e-03  1.061056544123144e-18
 4.124267095978201e-01  1.204306369191398e-02 -7.463363359294030e-18
-7.091435835320928e-01  1.090981826374768e-02  1.250796153994111e-17
 2.180963949888173e+00  8.041621908927470e-02 -3.963910247433360e-17
-1.161811764507420e+00  1.313898771407952e-02  2.054082788156376e-17
 2.048707568527468e+00  3.762964538363978e-02 -3.684582593436609e-17
-1.242199381724065e+00 -4.261990633378191e-03  2.215021015667754e-17
 2.247714912022872e+00  1.455603617740022e-02 -4.015032601579978e-17
-5.346259008651195e+00 -2.830446338902925e-01  9.805123709132034e-17
 9.203278400019048e+00 -7.118968031266349e-01 -1.564688361833351e-16
-2.000377715828299e+00 -9.603343197257411e-02  3.658581621628894e-17
 4.467698998499462e+00 -3.558921528674046e-01 -7.585137040799216e-17
-5.197383102335052e+00 -4.560974796123333e-01  9.717986787284673e-17
 1.695873133188481e+01 -7.019571910350301e+00 -2.296773018747682e-16
 4.979501018586930e-01  5.714360129536408e-02 -9.448745812986827e-18
 1.098511339340557e+01 -2.835144720930205e+00 -1.663631142754688e-16
-3.670456740771520e+00 -5.283017038111867e-01  7.074826407918471e-17
 4.692798007143001e-01 -8.666879357384401e-02 -7.460903478674841e-18
 2.499668884047768e+00  5.760725010841032e-01 -5.040352519615672e-17
 9.463027846981937e-01 -8.455605332266367e-02 -1.597180409864405e-17
 9.038722589963696e-01  1.587243712086312e-01 -1.771632028080028e-17
-1.448382500255259e+00  8.006527774678297e-02  2.495305264410434e-17
 2.886649636842390e+00  8.432945041500071e-01 -6.003591820414895e-17
-1.678790295199517e+00  5.522061982785281e-02  2.930870403778480e-17
 6.009755513406710e+00  1.442028032691012e+00 -1.217670821801452e-16
-4.072356374651407e+00  1.554196213955195e-01  7.087555924683642e-17
 6.996352152807181e+00  1.371274625768966e+00 -1.385977807594946e-16
-4.111967599082453e+00 -1.045558042431041e-01  7.425164126275397e-17
 3.615288487209014e-02 -2.475812468231368e-02 -3.890029762446162e-19
-3.009974684725466e+01 -1.236365612437613e+01  6.626929747129908e-16
-4.068849235465673e+00  5.828332640510543e-01  6.642162553916311e-17
-5.888205371289145e-01  3.722051501378690e-01  6.654491125989588e-18
-5.221820504834311e+00  1.164908264544461e+00  8.095951542142425e-17
-2.639585296929275e+00 -1.471680688925640e-01  4.848666741591108e-17
-5.847019484371001e-01 -5.757102954425144e-02  1.099699004650245e-17
 1.490354172076001e+00  3.485578951065442e-01 -3.010393599879329e-17
-2.550579528197678e+00  4.222679027753119e-01  4.105195582852654e-17
 6.671138191350167e+00  1.000493417614762e+00 -1.290005681580368e-16
-1.450485627164609e+01  2.601965327969148e+00  2.313969708187569e-16
 1.021761261808678e+01 -9.207964352386933e-02 -1.808885196612679e-16
-4.291761937245699e+00 -1.639749686064238e-02  7.654550139601559e-17
 3.309291406126095e+00 -1.115463481805695e-01 -5.774668983950505e-17
-8.653255656411153e-01 -2.197160027660586e-02  1.562525085020462e-17
 2.839132512795187e+00 -2.056751689254183e-01 -4.841251206630866e-17
 3.738132807560515e-01  5.405272940976439e-02 -7.207825413475487e-18
 8.399362066391701e-01 -6.710335102690006e-02 -1.425820415424749e-17
 3.594758109610258e+00  5.600518316731651e-01 -6.972733771171719e-17
-8.190749367138471e-01  2.554321104585991e-02  1.431396831240558e-17
 6.888954066414317e+00  1.007915304143414e+00 -1.329531186379696e-16
-3.332877532588365e+00 -1.478577873383597e-02  5.946444979816274e-17
 6.788986822575910e+00  6.098545307676632e-01 -1.270841525012437e-16
-2.120620640604109e+01 -9.795102648225543e-01  3.874538507743661e-16
-1.949602973173407e+00 -9.228573861902058e-02  3.564371289162958e-17
-3.085916320783482e+01 -1.033450395704276e+01  6.553588934355266e-16
-6.496879815599495e+00  4.143037870889076e-01  1.113629051551634e-16
 8.750958966952166e-01  6.829911046392938e-02 -1.627512388276262e-17
-1.914238365946396e+00  7.505922290617116e-02  3.329494886156837e-17
 2.754822454745459e+00  1.089105060324418e-01 -5.014436753885411e-17
-1.962322767765932e+00  5.750608554447595e-02  3.433102025248625e-17
 3.987687691197601e-01  2.973901023730384e-02 -7.402123434623002e-18
-8.630832223580301e-02 -1.371167045619640e-02  1.676841972513986e-18
 2.672286459786166e+00  1.612854461831884e-01 -4.921367451960801e-17
-2.698132719986525e+00  2.342249975595748e-02  4.777583251148110e-17
-5.949010741532761e+00 -2.604222717822994e-01  1.085454866732191e-16
-3.931129788331540e+00  5.782061692567467e-02  6.936505796187156e-17
-1.559763933634294e+00  3.731883236963396e-03  2.771951601016282e-17
-2.057818970231712e+00  7.371644857682106e-03  3.654560225723675e-17
-4.142920813504421e+00 -1.670246049973287e-02  7.389982942273584e-17
-5.967742613829738e-01 -6.196909432147734e-03  1.068398080978643e-17
-6.123351132130237e+00 -2.090343319276779e-01  1.111200892933257e-16
-6.459565904294733e+00  1.738493583570075e-01  1.131694415133735e-16
 3.462373639524325e+00 -3.679268343786114e-02 -6.123903752785886e-17
 5.617366821180730e-01 -6.039795658578023e-03 -9.934717611533654e-18
 3.101602592164168e+00  8.425339268139703e-02 -5.606239084190405e-17
-8.583077849530051e+00 -1.443018435776347e-01  1.542287576314861e-16
-3.040992705608486e+01  6.548046819999795e+00  4.739021238450320e-16
 3.205105029182086e+00 -1.373944886652520e-03 -5.702455039981492e-17
-8.272350870431127e+00 -5.370660953433710e-02  1.477681672627554e-16
 6.500994336474244e+00 -7.975426899024780e-01 -1.074984874630173e-16
-6.483873794857827e+00 -5.459866239390435e-02  1.159492498423256e-16
-9.729603168113955e-01  2.789053369090190e-02  1.702842431795870e-17
-9.132223902844214e-01  2.481858846280232e-02  1.599687978988125e-17
-8.293323935900691e+00  7.745074336484778e-01  1.396318095637873e-16
 3.469505773983460e+00  1.877922034374007e-02 -6.193694351672236e-17
-1.993285713127262e+00  6.885736500071665e-02  3.476541251505854e-17
-9.276706436304816e-02 -1.529067226392682e-03  1.666611176047223e-18
 1.348068228515016e+00 -2.021692013332387e-02 -2.378276066768304e-17
-9.534287569752374e+00 -1.778527416838948e-01  1.715013925284626e-16
 1.795125450499624e+00 -1.087222876802211e-01 -3.082931668975195e-17
-7.838329531787211e-01 -7.449537935310702e-03  1.402578370522735e-17
 2.227126466389967e+00 -1.852342563032681e-01 -3.773115737809918e-17
-3.921603009288016e+00 -4.486580696633184e-01  7.439940209752727e-17
 2.276660122224988e+00 -2.524032876538683e-01 -3.792253048828042e-17
-3.227103238913565e+00 -4.057705153826124e-01  6.159929624327816e-17
 2.128578858815155e+00 -1.812469571718772e-01 -3.601835321028917e-17
-2.548569298020183e+00 -4.563113293018137e-01  5.004326380872369e-17
 1.462188751345792e+00 -2.126794118268593e-01 -2.383618930230131e-17
-2.469770316179923e+00 -3.564363767648558e-01  4.761476308698053e-17
-7.412902391618507e-01  9.522160477738595e-02  1.221377665310672e-17
-4.374611951229225e+00 -8.145652112726103e-01  8.622079952931727e-17
 6.422163082843023e+00 -1.147607962655847e+00 -1.024987977615576e-16
 1.384602432074139e+01  1.726383852747260e+00 -2.641444858737231e-16
-7.795740677983347e+00  3.360238824057813e-01  1.352819811369626e-16
-2.010212589212215e+00 -3.128359021356493e-02  3.609555842489636e-17
 2.050595496599626e+00 -1.077510866837983e-01 -3.538568963833595e-17
 6.972578739941091e+00  1.529456624854797e-01 -1.256568169920942e-16
 2.398305181597666e-02 -8.228903626510898e-04 -4.183521156209911e-19
 5.918899640462572e+00 -5.583625759341822e-02 -1.047601821551178e-16
-6.395668407133720e+00 -3.679626672655558e-01  1.175992310780848e-16
 3.634083043538805e+00 -1.758582878828685e-01 -6.286596261257431e-17
 2.575051730731679e+00  2.328573227360138e-01 -4.821864157944349e-17
-3.825322927856202e+00  1.562911826472676e-01  6.647034938557971e-17
-5.353280439922251e+00 -5.376908946696279e-01  1.007925896690221e-16
-1.021261120923605e+00  5.171558687563216e-02  1.764320098286095e-17
 6.572890617004304e+00  6.986045669526185e-01 -1.241503370996777e-16
-2.438680428127181e+00  1.582873464854182e-01  4.177288219797073e-17
 3.737053468018879e+00 -2.126257259281387e-03 -6.648347766117899e-17
 1.204371425475420e+00 -1.023830416402270e-02 -2.132803128716570e-17
 3.274607066820300e+00 -3.215267279083010e-02 -5.794518180861160e-17
-7.452950541510472e+00 -2.669178073336011e-01  1.353766285997846e-16
 8.312945387851359e+00 -1.095694105673691e+00 -1.366809203242048e-16
-6.853247969537034e+00 -1.042851624829324e+00  1.326766440617843e-16
 6.131956151184969e+00 -1.065180110334088e+00 -9.818113549644136e-17
-5.960650626632056e+00 -8.284660969477211e-01  1.145890762146139e-16
 3.044249528468996e-02 -9.513864365491843e-02  4.357544855524265e-19
-2.739785231346463e+00 -9.492076192933645e-01  5.851050978782792e-17
 1.065825497344265e+01 -1.050461970494720e+01 -8.174520941621517e-17
-6.290549840434069e+00 -1.125022610648375e+00  1.235070366934691e-16
-3.379158531621707e+00  8.752354780750026e-01  5.114343028724376e-17
 6.588226235994709e+00  7.886656827825149e-01 -1.253485979809402e-16
-8.600552383657154e+00  9.255584879961370e-01  1.435473115430937e-16
 4.257197984043730e+00  1.834503127533330e-03 -7.578076514847081e-17
-5.770176335346418e+00 -6.029009942489634e-02  1.033066296381942e-16
-3.251810750080231e+01  6.122196347153248e-01  5.724081776397566e-16
 4.720748239127424e+00 -5.079013446367625e-01 -7.879284421841928e-17
 5.179560149412286e+00  3.922805799594511e-01 -9.620699172522872e-17
-4.520945621177452e+00  2.226803540364634e-01  7.816766036694487e-17
 1.379272332744748e+00  4.657965216153210e-02 -2.502438541135328e-17
-1.150166578013137e+00  2.553494708074012e-02  2.020622391678674e-17
 8.348503336909253e-01 -6.701276546583709e-03 -1.478830435078524e-17
-1.162151637824295e+00  5.463011509775395e-03  2.062574420073030e-17
 1.366800887414838e+00 -1.709504946041488e-02 -2.414820672116059e-17
-1.321193015494024e+00 -1.564278727723057e-02  2.367292959608704e-17
-1.475229069420568e+01  3.317183392781268e+00  2.284517557372583e-16
 2.861173080475077e+00  2.605086671876942e-01 -5.359461981968375e-17
 8.622180679369450e+00  1.988837002770489e-01 -1.554854478838179e-16
-4.836001468145015e+00  2.748891198731097e-01  8.323802882014335e-17
 4.715628367605695e+00 -5.247116911211618e-02 -8.338110960353772e-17
 3.617383915818898e-02 -3.351644770075224e-03 -6.093196844147821e-19
-2.196920647717778e-01  2.853884691064846e-02  3.616456009308997e-18
 1.554386952134509e+00 -2.119111313909950e-02 -2.744443896364221e-17
-5.208795232375069e-01  3.236900819144745e-02  8.937092650942604e-18
 1.051780595779177e+00 -3.004279324250209e-02 -1.840901152277531e-17
-7.368075714270599e-01  2.712944149494123e-02  1.283362447559670e-17
 1.042874794452123e+00 -4.163511560447943e-02 -1.813141526380166e-17
 5.805186297586377e-01 -2.274823746789014e-02 -1.009729162424516e-17
 7.539630263040232e-01 -2.940427916435713e-02 -1.311555312238174e-17
 5.825715288473620e-01 -2.047824796505931e-02 -1.015714872031681e-17
 1.549571171867454e+00 -6.055050865022538e-02 -2.695433298461419e-17
 8.069268368952331e+00 -2.694564804772956e-02 -1.433253993477747e-16
-1.241032199728178e-01  5.879935580644279e-03  2.148150693534460e-18
 2.882192144499808e+00 -7.372498276336964e-02 -5.053454978642007e-17
 5.674062123897016e-01 -1.329693238413974e-02 -9.961049221412837e-18
 4.408916467365706e+00 -9.778991334128198e-02 -7.745717183802282e-17
-1.705973507174324e+00 -7.428990003282984e-02  3.112313525486793e-17
 1.294045961859717e+00 -5.292150784304026e-02 -2.248534220657150e-17
-1.763804278542657e-01 -2.261941100954705e-02  3.371306336629028e-18
 2.243365244962812e+01 -4.169361823533272e+00 -3.563949269684003e-16
-2.910798994660002e+00 -2.996502216168906e-01  5.487993741849676e-17
 4.374451081660944e+00 -4.139492020091802e-01 -7.359539735756688e-17
-7.141340402099416e+00 -1.454505284301453e+00  1.420331843445992e-16
 2.355626226333429e+00 -1.777179852529104e-01 -4.009519085913926e-17
-3.797419645339072e+00 -1.184292433469894e+00  7.974778681705862e-17
 3.100177954833522e+00 -6.721141903353101e-01 -4.826563559541737e-17
-3.603574688080681e-01 -6.824062613734121e-03  6.483105795617445e-18
-9.961779120651284e-01  1.325709394848969e-01  1.636605598518273e-17
 2.318428371874445e+00  4.667141927827997e-01 -4.605451718894987e-17
 1.053532313071036e+01 -2.539715938620728e+00 -1.613939834489112e-16
-8.465220385383326e+00 -3.772049982756185e+00  1.894051377117230e-16
-2.423786204181260e+01  1.365391307034470e+01  2.910526702269568e-16
 2.158678501094683e+01  1.430010204171857e+00 -3.988554242863658e-16
-1.661366677044047e+00  5.767367928352142e-02  2.897342567342290e-17
 3.611756458630786e+00  9.889970499347123e-02 -6.529167298116914e-17
-2.712455774635751e+00  3.963967139808698e-03  4.823065772208349e-17
 2.231758642780092e+00 -1.227993547438163e-03 -3.970418999825177e-17
-7.102191707124036e-01 -1.275887536421633e-02  1.277029012549500e-17
 1.733576584636500e+00 -4.752076251492499e-02 -3.036280463514863e-17
-1.340480840851781e+00 -6.776571894515332e-02  2.455172364465572e-17
 1.112033475598384e+00 -7.205645689453813e-02 -1.904960825081781e-17
-5.149358818331092e+00 -4.948633492092924e-01  9.672352368227737e-17
-2.966231859685086e+01  1.332884890604762e+01  3.909272620120873e-16
 6.070266842721399e-01  4.469220004569040e-02 -1.126196005550927e-17
-4.125770116463101e+00  3.297636242828282e-01  7.003479916020411e-17
 3.006548418582418e+00  1.399876102955594e-01 -5.494343731113541e-17
-3.278049708348456e+00  1.059342747153872e-01  5.724836852084851e-17
 2.175797405576869e+00 -1.098161674250018e-02 -3.860807809537293e-17
 3.390477949740099e-01  2.633292996764272e-03 -6.060816068623418e-18
-3.443079662441466e-01 -2.421355223365964e-03  6.152249504873357e-18
 5.479398912970944e-01 -8.436632942781287e-03 -9.664560633294136e-18
 7.713313211626757e-01  1.393720566278101e-02 -1.386996066203883e-17
-1.703432631190989e+00 -3.159099853265026e-02  3.063920156575832e-17
-4.844206756693673e-01 -9.399508096811129e-03  8.717420287726947e-18
-3.243933823069233e+01 -2.171603950948962e+00  5.996091605727962e-16
 4.460472735461050e+00 -1.348423687832344e-01 -7.799397667596894e-17
-2.534021869720334e+01 -2.193328718659573e+00  4.734950744575190e-16
 8.344333913308212e+00 -1.325865718465975e+00 -1.348745868599801e-16
 1.133211645011853e+01  4.311207198550003e-01 -2.060981384491601e-16
-3.211563690298066e+01 -5.110295114884328e+00  6.240424933184503e-16
-1.095022546721269e+01  2.278411310614218e-01  1.925313392346168e-16
 2.524258811217545e+00 -7.376555601873691e-02 -4.416428229931253e-17
 2.875494460424592e+00  1.055836750268268e-02 -5.128133732845691e-17
-7.347459967438177e+00  1.325072162689991e-02  1.306206681426778e-16
-2.504817887794425e+01  1.533196995949110e-01  4.441869174636482e-16
 4.829496164476473e+00 -5.532769647252572e+00 -2.909944685079134e-17
-1.666836979137944e+00 -2.530881918383693e+01  2.897022754585097e-16
-1.980619383783261e+01  3.773910433081344e+00  3.136992862765760e-16
 3.164645429622559e+00  5.431424361959573e-01 -6.189923157060393e-17
-1.755683957214108e+01  1.377720751081676e+00  2.982893225118065e-16
 1.601044738548157e+00 -4.891444866881339e-02 -2.798992272827691e-17
 2.981123399121485e-02  1.200821327455778e-02 -6.539064985847140e-19
-3.630396728137701e+00 -5.419093896232481e-02  6.516403246982366e-17
-2.894198616697470e+00  2.143753029205279e-01  4.930308831519493e-17
 3.873865741699865e+00  1.345063569780283e-02 -6.907826217570605e-17
 6.390790133350239e-01  1.674038276869261e-02 -1.154517471666368e-17
-2.752211732357497e+00  3.009017654624428e-03  4.894797416971992e-17
-1.893285059609558e+00 -8.292570367534202e-03  3.377846918033744e-17
-2.372382689344945e+00  1.671023466519259e-02  4.204768823697017e-17
-5.332926687909720e-01  2.368377008529190e-03  9.466244961188790e-18
 5.563187114045731e-01 -1.846389344797567e-03 -9.881384090520076e-18
-6.498817292547752e-01 -1.941269423471350e-03  1.158536641465892e-17
 8.057112082055627e-01 -1.789536595235134e-02 -1.415472366988584e-17
-1.901283572779424e+00 -4.070909919020076e-02  3.425388027021118e-17
 2.573865973330410e-01 -1.893643115429058e-02 -4.385936575827987e-18
-1.582354055840876e+00 -5.634524303489108e-02  2.873880481448771e-17
-1.646629300671442e+01  1.349076295496474e+00  2.791760569495853e-16
-2.243103273747990e+00 -2.288249763550773e-02  4.015380774192374e-17
-2.823618338237708e+00  1.153763096790610e-01  4.906420680141448e-17
-7.287673335390910e+00 -9.003222263793170e-02  1.306178884332741e-16
-5.688298071124699e+00  2.809811060722799e-01  9.834307062754983e-17
 8.275289536444252e+00 -3.696461996468557e-01 -1.434706680121665e-16
 3.442488378525958e+00  3.948061915407382e-02 -6.166883605960482e-17
 5.313617103457431e+00 -4.042819010267439e-01 -9.040830501465010e-17
 1.201335067406622e+01  1.048580426804467e+00 -2.245656882540658e-16
 3.054173430642966e+00  3.830882381049074e-03 -5.439202027727700e-17
-3.059414180499325e-01 -8.221430847016487e-02  6.289314621930797e-18
 3.286373158752523e+00 -1.930491722632899e-01 -5.650142030120192e-17
-8.351989114778227e-01 -7.747476892621938e-02  1.565938595399644e-17
-9.706463619068121e+00 -7.191448942102628e-02  1.734769936479624e-16
 1.141565396141224e+00 -1.211356559967433e-02 -2.019105544673444e-17
-6.416547425463540e-01 -2.779347663390905e-03  1.144756831696626e-17
 1.720983162885355e-01 -7.304956084480952e-04 -3.055189243855102e-18
-1.676604362703133e-01 -1.085138608368816e-03  2.994866861392488e-18
-2.003941873591602e+00  2.408515542093002e-02  3.541506981242275e-17
 9.537492429348202e-02  1.243856382508654e-03 -1.710090734067843e-18
-1.039943271318705e+00  5.149061079726129e-03  1.845412627025140e-17
 1.422067654522992e+00 -4.838811712012623e-03 -2.525767318353647e-17
-2.019606332977754e-01 -3.250245023524056e-04  3.597469900321890e-18
-5.256555952293366e+00  4.356181688484408e-02  9.309910158103214e-17
-1.277183262023650e+00  1.846516642779773e-02  2.253927674938999e-17
 3.245194558019163e+00 -3.663954736390816e-02 -5.737565012928701e-17
 7.964725661144545e+00  1.994770989680962e-01 -1.437913485363043e-16
-3.979394065342826e+00 -5.320611278863828e-02  7.136473766852395e-17
-1.950895778089575e+00  1.278036658810294e-01  3.340538121264842e-17
 4.016370517881818e-01  8.736543495320255e-03 -7.237375219762861e-18
 4.446567977197882e+00 -3.176001339914419e-01 -7.586875519313221e-17
 2.466175600572830e-01  6.511968004717986e-03 -4.455761780772791e-18
 2.265923480989390e+00 -1.137737599255608e-01 -3.915582718722942e-17
-2.634887084838315e+00 -1.675683293245115e-01  4.861266239095664e-17
 3.848687865054353e+00 -2.018700978908617e-01 -6.641784951700569e-17
 8.314467426003514e+00  6.360282645825810e-01 -1.545008250622431e-16
 6.995318821938978e+00 -2.071753539240181e-01 -1.223613912540616e-16
 3.506717775249889e+00  2.287121366162744e-01 -6.475615989311788e-17
-2.662131926231312e+01 -5.389708797710514e+00  5.291354313011414e-16
-4.405665257036075e+00  1.652517850775104e+00  6.142504790925081e-17
 2.398687597969745e+01  1.511470039822057e+01 -5.821731265081445e-16
-2.195973903112175e+01  3.424964945137465e+00  3.556094799642139e-16
 8.383326599787296e+00 -1.154485948908423e-01 -1.480051044642766e-16
 3.671512744493116e+00 -6.824399667891061e-03 -6.526883059523295e-17
 7.667079812374350e+00  1.025469294680053e-01 -1.374984633487075e-16
 4.790630163359431e+00  5.310061315054747e-01 -9.071087335613807e-17
-7.172125737832476e+00 -1.389446757675236e-01  1.290641387927039e-16
 1.656937044558007e+00 -1.452315955274258e-01 -2.799496931709147e-17
 1.226401313836703e+00  4.945212191591142e-02 -2.233337688011711e-17
-3.502152999358104e+00 -6.671959084394172e-03  6.239354210524113e-17
-1.132247878483006e+00  8.978487441537927e-04  2.014047652187250e-17
 1.620260452339543e+00  8.062924141873244e-04 -2.884275182559070e-17
 2.308504547141760e+00  2.341323024667342e-02 -4.132315453657111e-17
-7.367328298612163e+00 -3.120235233607000e-01  1.343163234955198e-16
 2.213693663203013e+00 -1.357338944906297e-01 -3.800070286602303e-17
-4.711906383469771e+00 -3.272956354556176e-01  8.721683841238001e-17
 5.645438065568750e+00 -6.695955160683386e-01 -9.358745381078846e-17
 3.207877425216099e-01  4.034133037743747e-02 -6.123293040242731e-18
-2.957087001368789e+01  8.632174492139660e+00  4.375564482103512e-16
 4.338905056597854e-01  5.004588897620596e-02 -8.235802441275835e-18
-1.311970387315154e+01  8.174271863396793e-01  2.250820127434821e-16
 1.149865411402879e+00 -4.010997202648636e-02 -2.005111121411451e-17
 2.981601700785000e+00 -4.363327985137127e-02 -5.261284274584865e-17
-5.554324595989176e+00 -1.726397521579194e-01  1.006196423621636e-16
 3.770669297472276e+00 -3.545476021818154e-01 -6.346071014564224e-17
-6.260572046925198e+00 -8.063023671649860e-01  1.196988113728293e-16
 4.923325429201720e+00 -7.745786206215632e-01 -7.965793482320243e-17
-5.233006253583009e-01 -5.532360122203988e-02  9.881188752987387e-18
 5.927432169722405e-01 -1.377346231182042e-01 -9.133399387369494e-18
 2.006419567228200e+00  1.664355235103105e-01 -3.741669408916297e-17
 1.344483656771791e-01  2.742778073189331e-02 -2.674479523802756e-18
-1.405332827654359e+00 -1.590186433593648e-01  2.664343280521644e-17
 8.004806216038261e+00 -4.672414863624373e+00 -9.444770995714387e-17
 2.041510718082288e+00  2.082507739888564e-01 -3.847081947696444e-17
 1.105726827615228e-01 -1.338824622578483e-02 -1.830213424090566e-18
 7.186801834120448e-01  5.957257348806531e-02 -1.340185770649981e-17
 1.526651030077551e+00 -1.379698949592234e-01 -2.575098558787529e-17
-4.054223600164624e+00 -1.276340704084516e+00  8.526368212179473e-17
 6.406198504410870e+00 -1.083440222261246e+00 -1.028739892765278e-16
-2.419085642386142e+00 -4.045118830052797e-01  4.720672724962610e-17
 4.566002006193383e+00 -9.358397560856743e-01 -7.164203869196611e-17
 2.812640811209308e-01 -6.534122634298083e-04 -4.998716250411646e-18
 8.866254387956126e-01 -1.346559684295652e-01 -1.439501613701242e-17
 3.631774644095310e+00  6.249001243129501e-01 -7.105238369823203e-17
 2.652406903395871e+00 -1.891641938036990e-01 -4.525915137798166e-17
 2.250024513615298e+01  2.124435759430326e+00 -4.222465071430733e-16
-2.963690846883587e+01 -1.208392874199659e+01  6.515821164677920e-16
-8.980450719142638e+00  7.942102856224071e-01  1.516576106517230e-16
 7.112209435459983e+00  1.091230974872745e-01 -1.276914508401184e-16
 1.218036666947981e+00  2.076215743069340e-02 -2.188973904221641e-17
 5.160822390544754e-01  1.017561921882267e-02 -9.288849844739835e-18
 1.425888066960249e+00  2.085877588100975e-02 -2.558969535197375e-17
-8.441585982251199e+00 -4.906571189299831e-01  1.552694158853655e-16
 2.765439494566237e-01  4.457490987235186e-03 -4.967228564088015e-18
-8.299908284085890e-01 -2.001651550673933e-02  1.497633927089055e-17
-1.684006497819475e+00 -1.017416091293787e-03  2.997935796509734e-17
 7.229708594496913e+00  6.788208640550736e-02 -1.293587521257366e-16
-4.670858863273139e-01 -7.029566731859122e-02  9.034612881212625e-18
-4.120843652793227e+00  9.992475327347860e-03  7.323265926856157e-17
 1.641253786485715e+00  1.487884972958188e-02 -2.936094366820224e-17
 1.658456197138825e+00  4.525928550013416e-03 -2.956070857374873e-17
-2.590290255088275e+00 -6.794574370432355e-02  4.679542272494290e-17
 2.086182730305802e+00 -1.236393851600817e-01 -3.585576033960849e-17
 5.291761018243676e-01  3.414624491178862e-02 -9.768160186830887e-18
-4.648645536465261e-01  6.974521451102654e-03  8.201158569629527e-18
 6.427504808759677e+00  3.500812393701079e-01 -1.179820727526376e-16
-1.432719817781226e+00  1.645960509973104e-02  2.532784170453266e-17
 1.985933260405322e-01  3.665531658162629e-03 -3.571867129299136e-18
-3.983642841391478e+00 -1.966369128567277e-02  7.109571349281905e-17
 3.320890495986383e+00 -3.513982604972017e-02 -5.873815872843991e-17
 2.347390426099952e-01  1.051308671492987e-02 -4.285479417830378e-18
 1.110085301342489e+00 -4.326691054723984e-02 -1.931074030324011e-17
-7.979857749187448e+00 -7.685315823735127e-01  1.499074702024112e-16
 5.320999934355999e+00 -3.508706086570653e-01 -9.108847293692340e-17
-1.534852914276108e+00 -1.507737711111986e-01  2.886368417663101e-17
-1.409070943952187e+00  2.984441368955125e-02  2.476945773338011e-17
 2.027504930514664e+00  3.819834967645514e-01 -4.000661042750623e-17
-5.649017085079300e-01 -3.838047030008647e-02  1.044744513168653e-17
-6.932054688090051e+00 -1.095024929402495e+00  1.346151653882751e-16
-4.534424868820063e+00  2.030681518709016e-01  7.860904790681237e-17
 3.051370164629141e-01  1.400834319200615e-01 -6.869583622240126e-18
 5.389668967307636e-01 -7.590948017713338e-02 -8.811616487749028e-18
 2.279367562193265e+00  3.632816203788403e-01 -4.429665135341576e-17
-3.263563927435799e+00  8.834493117989313e-02  5.717130092134345e-17
 5.126578992461565e-01  7.350597701539133e-02 -9.878606046773997e-18
-8.302541280510330e-01 -1.163260472901640e-01  1.597057044961681e-17
-8.181939590473037e+00 -1.050329867263940e+00  1.563991326159518e-16
-3.253637779252220e+01  6.885099812645040e-01  5.719494636797158e-16
 8.916919417790991e+00 -2.687424137012845e+00 -1.310749107807252e-16
-5.121883925674541e-01  2.122257644947367e-01  6.934460773413551e-18
-5.035881460907224e+00  1.212565089783353e+00  7.716085179872162e-17
 7.550675619727245e+00  1.155855141500007e+00 -1.462492711067153e-16
-1.107588793702983e+00  6.961083322332556e-01  1.255860351109371e-17
 2.867593720469518e+00  3.787097677056564e-01 -5.492335615083952e-17
-2.713427863002912e-01  2.883854258046110e-02  4.532563010061823e-18
 9.760516722096082e+00  1.417539529785101e+00 -1.882647415947154e-16
-2.683726358383390e+01  8.536867448696460e+00  3.898879061195048e-16
 4.573030494960423e+00  2.742315216165092e-01 -8.420016185055461e-17
-4.014661210813290e+00  2.885624604401796e-01  6.848081067014781e-17
 9.209037427422636e+00  3.159108225021888e-01 -1.671316748982915e-16
-2.968750485009957e+00  1.628916824618595e-02  5.266509084961184e-17
-1.967699351855461e+00  1.705207822407329e-02  3.484235319618467e-17
 7.507357975359228e+00 -1.962125239626025e-01 -1.315863778922831e-16
-2.638786062685203e+00 -1.205164310078165e-02  4.708417189287698e-17
-3.471342964716226e+00  1.178992835441976e-01  6.056531650849960e-17
 1.777854460691042e-01  4.726424369072981e-03 -3.212466377962744e-18
-1.957752289041672e+00  3.500414749191426e-02  3.448088238205413e-17
-1.023777707344868e+00  9.267268624323304e-03  1.812412769316047e-17
-1.284560606322841e+00  1.821972540611968e-02  2.267308721609688e-17
-1.411821128625115e+00  2.154175415941078e-02  2.490370737303020e-17
-1.941220007574449e+00  4.238066709421754e-02  3.411087964644725e-17
-2.440125242743875e-02 -1.274988083892920e-05  4.343803960079499e-19
-4.673464263737351e+00  5.394251846688006e-02  8.261563150057136e-17
-5.560893757804094e-01  2.313323727155718e-02  9.658588159392737e-18
-1.541255178914428e-01  3.919028101470197e-03  2.702580843499669e-18
-1.099075490832979e+00  4.702419133557660e-02  1.907620290122984e-17
 8.645608696008235e-01 -3.018402909437347e-02 -1.507576202675880e-17
 4.342735823656725e+00 -1.310053381536914e-01 -7.593813192840562e-17
-6.985945240545671e+00 -1.172678889991726e-01  1.255281136369352e-16
 3.592916450943765e+00 -2.809370985195586e-01 -6.105370740694780e-17
 5.531717225428086e+00 -1.434444570928264e-03 -9.842876810513416e-17
-4.502631606188941e+00  1.945731533955050e-01  7.813053189725928e-17
 3.163380018412393e+00 -3.939085281152552e-02 -5.589139414292956e-17
 5.967114217692066e-01 -8.287581914084534e-03 -1.053403963957048e-17
 4.330675732529096e+00 -1.024037702950926e-01 -7.601737894952195e-17
-3.939855803619269e-01 -2.764896608254888e-02  7.295526407429748e-18
 1.403038259816828e+01 -7.759252745836824e-01 -2.417150440658489e-16
-1.537267677805785e+01 -2.381101717891364e+00  2.980400756232509e-16
-9.616997440831474e+00  2.394057305704753e+00  1.465478719093395e-16
 2.180675912599233e+01  2.141449183536430e+00 -4.100799031431534e-16
 4.174843720163871e+00 -1.459922417995753e-01 -7.279630665172107e-17
 1.559811762763959e+01  1.784924583548484e+00 -2.959265610657108e-16
-5.035186777770908e+00 -1.529463118749753e-02  8.976430166112727e-17
 1.391180908906771e+00  2.723773877366828e-02 -2.503758160588757e-17
 6.971841314502026e-01  1.414663890109244e-02 -1.255257482666415e-17
 2.808564485307090e-01  6.788955283192212e-03 -5.067929633357981e-18
 2.617033486239546e-01  4.602103150659866e-03 -4.704608194424273e-18
-1.103224082078093e+00 -3.059943220644965e-02  1.994758656078100e-17
-2.152823573794263e+00 -2.652447064695989e-02  3.858459276083751e-17
-7.739189306122928e+00 -2.746155286075920e-01  1.405496800799116e-16
-6.181209047862253e-01 -4.834325929576545e-04  1.100516591942733e-17
 2.789733076414917e+00  8.683298988599286e-02 -5.053880525172742e-17
-4.325904008356978e+00 -8.797679777764536e-02  7.788855159052101e-17
-2.392028511528976e+00 -2.521246911969664e-02  4.282804964032600e-17
 8.481626322817154e-01  9.605787784029034e-03 -1.519276174461728e-17
-1.985060085919191e+00 -4.931094171478725e-02  3.583316411049219e-17
-4.096628469607038e+00  3.283466151658020e-02  7.256702601992554e-17
-3.233585078506100e+00 -6.017912223462629e-02  5.816382225495231e-17
 1.717335173863680e+01 -1.138434076292686e+00 -2.939232827214053e-16
-1.471149508726699e+01 -2.055256438509028e+00  2.829256168481791e-16
-1.792126787804741e+01  1.139110317544954e+01  2.018908922656732e-16
 2.176959308225005e+00  4.121457777279427e-01 -4.297623580838607e-17
-1.174852161983918e+01  2.604702824168596e+00  1.823165810351726e-16
-3.301054599748004e+00 -2.285071528296436e-01  6.109403224246823e-17
-7.922621309520825e+00  1.069767728738445e+00  1.300010218252103e-16
 1.160985752340965e+01  1.193514810017621e+00 -2.188741944324746e-16
-8.387564751185542e+00  1.023295596121902e-01  1.482153207459579e-16
 1.588098389887509e+00 -3.643578446519139e-02 -2.788774075099101e-17
-6.907176309772269e-01  4.280554380666971e-04  1.228774604816164e-17
-1.558681104178817e+00  1.497222306112764e-02  2.758475535882015e-17
-3.917245864929490e+00 -3.984390864258144e-02  7.012144453728818e-17
 7.519695697166742e-01 -3.469068605017025e-02 -1.302576127698795e-17
 5.909654442730657e+00  1.957197415892498e-01 -1.071802993448180e-16
-1.941677753698590e+01 -7.625179215222331e-01  3.533793120910350e-16
-1.005441974953735e+01  4.009755357336294e-01  1.748105148243247e-16
 3.956628917476567e+00 -1.690835208654826e-01 -6.867565946255823e-17
-8.752559254959449e+00 -2.603368635596960e-01  1.584370990798699e-16
 3.981684413266442e+00 -9.687176523030513e-01 -6.090560169082821e-17
-9.144474204727397e+00 -8.885516619688013e-01  1.718663719225266e-16
 9.807550625370137e+00 -7.601001359899898e+00 -9.643953450206351e-17
-1.754528266886904e+01 -8.046359416928199e+00  3.949126538666697e-16
 9.783844528479495e-01 -1.906982812618427e-01 -1.545216283292360e-17
-1.334778576091471e+01 -7.614881496311033e+00  3.157799105466297e-16
-2.778476404151603e-02 -4.597040109467258e-02  9.667921852374577e-19
 1.856605850928063e+01  1.357348932975502e+01 -4.698678295782071e-16
-1.772216583714107e+01 -1.072530915753488e+00  3.264069463741720e-16
 1.470613532063570e+00 -5.322563315632281e-02 -2.562444796931169e-17
-2.483728406504471e+01 -2.428438393823118e+00  4.669604192372094e-16
 1.804671428779167e+01 -8.185785235720685e+00 -2.370568380172793e-16
 2.997928301841058e+01  6.420723953247878e+00 -5.994877080505022e-16
-1.164228082277187e+01 -3.791654163803667e+00  2.461461437870480e-16
-1.175218454467853e+01 -2.391174754318646e+00  2.337125944107789e-16
-2.049347706148397e+01 -6.228511263331118e+00  4.287015604305650e-16
-2.948181693159041e+01  1.378087066691053e+01  3.830706596567439e-16
 1.627933138450895e+01 -3.238043396572446e+00 -2.564404010668820e-16
-3.148609492990389e-01  1.026041294231641e-01  4.549106029538760e-18
 7.496521053608112e+00 -3.709924953610815e-01 -1.295977211952251e-16
-2.634524368224116e+00  7.663339175335136e-02  4.609712344546633e-17
 2.078219574045039e+00 -4.499814790766523e-02 -3.652205668777968e-17
-9.200695862408805e-01  8.628389623248153e-03  1.628508222554374e-17
 2.128231527232933e+00 -1.532962547517028e-01 -3.629935538037457e-17
-1.804002645847023e+00 -3.994609645028892e-02  3.251481062655180e-17
 1.356464049485946e+00 -2.099394375719766e-01 -2.198284435568909e-17
-5.012235760533430e-01  9.845284547236004e-02  7.908304210673673e-18
 1.446204576346801e+01 -2.560699116469531e+00 -2.310591021204186e-16
-5.204645235170849e+00 -3.981986440887281e-01  9.671421674490029e-17
-2.914980065859072e+01  1.446993598777652e+01  3.700821379320744e-16
 1.938787946800474e+00 -1.187337090098714e-01 -3.328309847882724e-17
-7.018187584437813e-02 -3.235844324376853e-02  1.581441441308770e-18
 8.092474305865686e+00 -2.757560194028143e-01 -1.411819404026627e-16
-1.343382330577995e+00  4.263860756868918e-02  2.346899481397269e-17
-2.423347293328352e+00  7.762690488914654e-02  4.232876750929498e-17
 6.689675594028078e-01 -2.613484006261507e-02 -1.163654969083452e-17
 1.712367972059424e+01 -3.707037170011711e-01 -3.009274604591754e-16
-1.323362464097159e+00 -1.451969538413077e-01  2.504265955834522e-17
-1.637074603169518e+00  1.977171494371187e-04  2.913166387252388e-17
 2.827922183968149e+00  4.176643023148144e-01 -5.461759753610535e-17
 2.238053322907244e+00 -1.404470089849387e-02 -3.968452432872112e-17
-5.881836697310905e+00 -1.192409931451248e+00  1.169258790309424e-16
-1.464039918352618e+01 -7.750147035044022e-01  2.685063617085807e-16
-2.233239149151450e+00 -1.241560464088161e-01  4.101881283830059e-17
-1.416204018284863e-01 -9.713247920952307e-03  2.620104088512749e-18
-1.270641456353835e+00 -6.891109816090749e-02  2.332061689106748e-17
-1.296035382251298e+00 -6.932820863088367e-02  2.377681775252769e-17
-1.038682393802286e+00 -5.543174665379967e-02  1.905413324103919e-17
-4.607363292943689e-01 -2.408346241348632e-02  8.446801401927787e-18
 1.467036551243084e+01  2.422784299167007e-01 -2.635659765699130e-16
 4.448802148487260e+00  2.896954793224127e+01 -3.768233222082174e-16
-1.746415554100778e+01  7.680941355794439e-01  3.029035916400054e-16
 1.089011413475373e+01  8.605243453349791e-01 -2.026441462739231e-16
 2.616264758921353e+00  8.779692816912521e-01 -5.558036760623145e-17
-2.914501640290122e+01 -1.646617585330655e+00  5.355887298444236e-16
-1.276305754129423e+01  8.346695441914580e+00  1.413745697238272e-16
-9.916398378493049e+00 -2.241382365548124e+01  4.067680336097577e-16
-3.168312633547248e+01  3.193848993831048e+00  5.310233879628310e-16
 1.970856372196457e+01 -4.221632126196759e+00 -3.073616641604046e-16
 2.267973211824017e+01  3.949407494176863e+00 -4.441916137042546e-16
-2.976085524339549e+01 -5.150203678936424e+00  5.825463909636380e-16
-2.812904708633801e+01  1.636541594976882e+01  3.324412426480580e-16
 2.197367678944819e+01 -8.981716746929219e+00 -2.987639128384598e-16
 4.179080683445663e+00  1.745943802247962e+00 -9.231066400539842e-17
-1.055279040943643e+01  3.068700562865125e+00  1.562697096485950e-16
 2.517097574523815e+01  2.978967641002368e+00 -4.785553487474277e-16
-2.908917619159933e+00  5.121850890630630e-01  4.650514318762544e-17
 2.800852071040369e+01  1.806059307432224e+00 -5.170016391094578e-16
-5.036189834439913e+00 -3.535871460824046e-02  8.998830343793858e-17
 7.009037288911757e+00 -6.800294356533807e-01 -1.177471238238075e-16
 2.018380616066722e+01  4.210084822522004e+00 -4.024519988924022e-16
-7.878867157661160e-01  1.297978914098022e-01  1.268775772218716e-17
 1.458435013205290e+00  7.083674708559642e-02 -2.668241257291709e-17
-4.818211688399447e-01  5.245312762362686e-02  8.035645639096732e-18
 6.374033126197685e+00  2.649496321975656e-01 -1.161557839230600e-16
-1.656354526729378e+00 -2.361141379995349e-02  2.971940327635693e-17
 7.017613580260368e-01  7.587489274793348e-03 -1.256663915991586e-17
-3.790680782884584e+00 -6.633711894256292e-02  6.814127601710681e-17
 2.400828235298981e+00 -2.552435835587712e-02 -4.246334874837976e-17
 1.534988054319298e+00  5.787262578329227e-02 -2.791156363104510e-17
-5.172027358327421e+00  1.107615552412675e-03  9.203101591267812e-17
-3.581195449210863e+00  6.712547225533264e-02  6.304195498197154e-17
 3.759182230227163e+00 -6.510598479599332e-02 -6.623019155186026e-17
 2.359314040131943e+00  5.467889170308524e-02 -4.254861338565325e-17
-2.005019693894575e+01  2.172120127523477e-02  3.565939938183030e-16
 1.144936678013237e+00 -9.947936094277628e-02 -1.935339961512045e-17
-5.529566324054484e+00 -4.111034451401435e-02  9.882762249680313e-17
 1.065140167213375e+01 -2.075703305113657e+00 -1.682273007899974e-16
 6.193306511371279e-01  6.662566513841518e-03 -1.109018315116712e-17
 7.448567035923805e-01  8.558892042500163e-03 -1.334355304590718e-17
 1.173170104249927e+00  1.049135994608583e-02 -2.098575632141300e-17
-3.062608662618869e-01 -3.585958977349681e-03  5.487121866524524e-18
 1.051763146113652e+00  3.199789289061232e-02 -1.904614649482001e-17
-1.383502148057450e+01 -1.674385883506771e-01  2.479310809849035e-16
-3.095459953748455e+01  1.004503320883110e+01  4.476649555225544e-16
 4.260271562070415e+00 -1.457017864214184e-01 -7.431958134974471e-17
 7.664611100799699e+00  5.109907704295868e-02 -1.369259217191146e-16
-1.852352254215687e+00  5.059840272030156e-02  3.244493773132909e-17
 9.031479498199703e-01  6.619275926416077e-02 -1.675270163995884e-17
 2.268430715089769e+01 -3.881514608393865e-01 -3.997061893192217e-16
 2.305110018096905e+01  1.033811089116614e+01 -5.164421578951606e-16
-5.277985152644264e+00  1.677075699444431e-01  9.220490724101246e-17
 7.724076982721956e+00  2.580771201197057e-01 -1.401108121773740e-16
 4.806255286586504e+00  2.369167980264341e-01 -8.796727996715536e-17
-5.126637647482410e+00 -2.280525055117975e-01  9.357778885862832e-17
 2.115782074269604e+00 -4.393853679344984e-02 -3.720141330397190e-17
 2.138450357650200e-01 -3.997014089048162e-03 -3.764559602773415e-18
 6.676454384547036e-01  6.319424395996547e-03 -1.194647677221655e-17
-5.507156602957890e+00 -4.428529453629717e-01  1.025565740774036e-16
 1.676342241838502e+01 -5.374166622803500e+00 -2.431074882999212e-16
 3.637585185826698e+00  6.755059096004818e-01 -7.167574526716740e-17
-7.410730813843085e+00  7.385352203227145e-01  1.242946135876913e-16
 3.215078416692331e+00  1.172403701666070e+00 -6.926217730937522e-17
-2.042831840469777e+00  2.068124688092109e-01  3.422970637730342e-17
 3.753849399884476e-02 -2.146758838585519e-02 -4.474706084175606e-19
-6.370281142716468e+00  1.184481803338568e+00  1.011966314387493e-16
 1.589163448285439e+00  2.101677465205785e-01 -3.044045645271844e-17
-2.631144174492724e+00  9.099473791492275e-02  4.588941124685007e-17
 3.403335035243670e+00  3.001935296518142e-01 -6.365078607695248e-17
-2.058158434163967e+00  6.423002469276820e-02  3.596744424853503e-17
 9.239843258447629e-01  2.523331581003178e-02 -1.670266640021244e-17
-4.437586724939564e+00  2.165163624363624e-01  7.674752214942630e-17
 1.645400071221508e+00  2.196671829072070e-02 -2.950755703042803e-17
 5.717422702933534e-01 -9.535926770766170e-03 -1.007685751551785e-17
-9.012989704952997e-01 -2.829936365940211e-02  1.633045608697128e-17
-1.251807894764176e+00  2.627257424871591e-02  2.200747354374778e-17
 3.498274433878379e+00 -8.069043852673043e-03 -6.217305995504040e-17
-7.432964592619649e+00 -3.747851664203443e-01  1.361292525655922e-16
 3.374596725946802e+00 -8.772064489717343e-02 -5.915367632868234e-17
-2.464729568126245e+00 -1.303017493162043e-01  4.520160585320057e-17
 2.359869318300599e+00 -8.620950103505419e-02 -4.111091813573262e-17
 7.073437792889786e-01  3.860829962995601e-02 -1.298471247579755e-17
-1.337230577908594e+00  1.789810441248210e-01  2.195864788305413e-17
 1.696241199949530e+00  8.022366442033320e-02 -3.101090451467251e-17
-5.961440921060767e-01  2.041576600533509e-02  1.039933063724549e-17
 2.486684949414377e+00  1.772191789440059e-01 -4.607438760126320e-17
-1.014477729486331e+00  2.835100704053307e-02  1.776254501080332e-17
 4.001911562757803e+00  1.222358731652729e-01 -7.247471910396510e-17
-4.471549604433107e+00  5.134197811806503e-02  7.904903889485387e-17
 4.596662842293787e+00  2.766564173221688e-02 -8.208735277831560e-17
-1.851582390587525e+00 -3.893272059850261e-02  3.335113683474707e-17
 7.084755811624640e+00 -3.239533877392262e-01 -1.227531772017332e-16
-3.082366582374919e+00 -1.575973523804264e-01  5.647364564942996e-17
 1.592808214502798e+00 -3.624160164709512e-02 -2.797355284829028e-17
-3.024444584250054e+00 -3.228049253707497e-01  5.714030239923651e-17
 1.863501397256760e+00 -8.400541859301885e-02 -3.230010506233545e-17
-3.275568819044213e+00 -3.014550215980126e-01  6.138999522850664e-17
-2.345275011373802e+01  1.281030052831741e+01  2.857484789706567e-16
 3.996431839486173e+00  3.324661057419097e-01 -7.453724016588234e-17
-4.877062477432844e+00  2.544509913362292e-01  8.417875286037529e-17
 3.195457431939164e+00  2.232920084958654e-01 -5.916122093142306e-17
-1.212439175103389e+01  9.695559334336460e-01  2.058061787120048e-16
 1.469205653710322e+00  3.582614988756568e-02 -2.651436782427551e-17
-3.019559140211393e+00  1.284913679762156e-02  5.360463657059480e-17
-7.270300718757182e+00 -1.228638292601599e-01  1.306460548247150e-16
 1.832078633651079e+01 -2.547785504845754e+00 -2.998626760929317e-16
 8.686716577228278e+00  8.478465961660032e-03 -1.546775965416474e-16
-4.308724987359424e-02 -1.138177428938681e-03  7.784833715807157e-19
-3.081807120257542e+00 -5.926349267386273e-02  5.545334468194961e-17
-3.423851494886478e+00  1.506757144860009e-01  5.938338320913099e-17
-1.384808941684544e+00 -1.807925201551671e-02  2.483008472356249e-17
 1.031845996980146e+00 -5.748669403646289e-02 -1.777227535850643e-17
-2.564273676346761e+00 -1.118192726538680e-01  4.678321127993018e-17
 1.490751342027130e+00 -7.638220409419257e-02 -2.574489894081785e-17
-8.755716776266890e-01 -2.457061089879233e-02  1.583429652046974e-17
 3.176638391277981e-02 -9.838265889775502e-03 -4.642360891175047e-19
-3.936223094157567e-01 -3.952392849466948e-02  7.411072584290986e-18
-2.152354510882509e-01  3.833244200746988e-02  3.436519688139322e-18
 1.355057676135197e+00  5.036706683147090e-02 -2.463237102409487e-17
-3.764722257793082e+00  2.628191972132272e-01  6.429735152210597e-17
 1.229497972853071e+00  2.109691059851824e-02 -2.209714613391345e-17
-1.323852847769667e+00  4.215469471678149e-02  2.312641640636257e-17
-3.714764289385552e+00 -8.133258053687384e-02  6.694432440889631e-17
 3.456093016476427e+00 -1.466392737980428e-01 -5.999863254398668e-17
-7.737731834395812e+00 -4.958538753397137e-01  1.427968863323280e-16
 1.059927375823182e+01 -1.575728640671818e+00 -1.724366804455490e-16
-4.480172806317830e-01 -1.885284959070433e-02  8.166708066171387e-18
 1.892263890460175e+00 -9.862387208593583e-02 -3.266176864131442e-17
-2.555249291775279e+00 -2.131925651776298e-01  4.766418531883986e-17
 5.577017203592518e+00 -1.465191851111340e+00 -8.419535959123650e-17
-4.664524574524147e+00 -5.582882760279637e-01  8.874698807479497e-17
-1.584405941552829e+01  3.011918901219165e+00  2.510175642120919e-16
 2.686942918421310e+01  2.823244634071151e+00 -5.071813563593187e-16
 6.093798961705564e+00 -4.578136701347388e-01 -1.037425523262696e-16
 1.010911204785407e+01  9.247248894747513e-01 -1.894049197624957e-16
 1.522203438190370e+01 -1.310299532368556e+00 -2.574314076217910e-16
-9.104852140567875e+00 -2.171217154059983e+00  1.843401720010495e-16
-4.320380495878492e+00  3.464332048998708e-01  7.332684913801281e-17
-1.896203522769127e+00 -1.443613545846855e-01  3.522846405618493e-17
-2.985503206624966e+01  5.146626155373656e+00  4.784261938813601e-16
 1.768435045081522e-01 -2.784846356488031e-03 -3.118527826716540e-18
 3.380342485211268e-01  2.016394839010155e-02 -6.222899920739787e-18
 1.713302500446562e+01 -9.490304636014101e-01 -2.951516737102914e-16
-2.578847204301505e+00 -7.921152021389096e-01  5.403235810599098e-17
 8.265286583703306e+00 -2.979509172472580e+00 -1.164772595639553e-16
 1.236864347639962e+01  4.307729584143321e+00 -2.643751211358049e-16
 1.969192859675182e+00  9.258185309002402e-02 -3.599538078568766e-17
 1.623425173506607e+01  2.285345930085533e+00 -3.123889737733241e-16
-1.311677653927974e+00  1.625861535194036e-02  2.317581711287592e-17
-7.031702762878035e-01 -4.442349456390737e-02  1.297018910712287e-17
-1.020337757744271e+01  1.692476163343263e-01  1.798423171939909e-16
 2.370513071520867e+00  2.261437930707423e-02 -4.241846229205747e-17
-7.421592429426344e+00 -1.201392619224961e-01  1.333104773772817e-16
 7.183176692927987e-01  1.915812410348568e-04 -1.278528819324618e-17
 4.656526444592992e+00  3.395073228563777e-02 -8.321727401263831e-17
-1.025252655198694e+00 -2.387442176586602e-02  1.849089500144656e-17
 2.567263552590422e+00 -1.770944971727687e-03 -4.566932143083753e-17
-1.150368044811995e+00 -3.703324931614308e-02  2.085267475264642e-17
 2.602329570267838e+00 -9.498264562081038e-02 -4.533564670162917e-17
-1.395828643400459e+00 -7.954389390557184e-02  2.565772031475501e-17
 1.389289550482496e+00 -2.523632293759649e-02 -2.446477070711954e-17
 4.579834713444380e-01 -1.456070547156165e-02 -8.000756215802057e-18
 7.807920751221962e-01  3.002709439759897e-03 -1.392597809330021e-17
 4.134005585440774e+00  8.741350930389168e-02 -7.446770270091103e-17
 9.191911513413579e+00 -7.334822999023852e-01 -1.560447657189567e-16
 4.482283138307020e+00  9.922427067167423e-02 -8.078706844023286e-17
-3.708072127468469e-02 -2.211805333282441e-03  6.826211446111135e-19
 3.587926726419166e+00  1.819938161164972e-02 -6.403842800496898e-17
 1.932728733371410e+00  4.351214878217077e-02 -3.484228475707044e-17
-3.307854651608758e-01 -4.893582272242490e-03  5.937001711612873e-18
 4.793711007038699e+00 -4.426802213743538e-02 -8.485496769277758e-17
-1.380851677787162e+01 -9.455454598045525e-01  2.554541635527392e-16
-2.219352413032750e+00  5.233211569296015e-03  3.944225417966750e-17
 2.948518373630634e+00 -3.499780471322607e-03 -5.243644260587583e-17
 6.310210661047034e+00  2.489075422129463e-02 -1.125534692608753e-16
-7.706844122195714e+00 -6.505480620659208e-01  1.438366292207024e-16
 5.956311510931772e+00 -9.628243870076396e-01 -9.610699747320383e-17
 5.572113643741585e-01 -1.246198738136162e-01 -8.635816959239005e-18
-5.347976873682520e+00  2.525326951804217e+00  6.922681068215328e-17
 6.357568778983664e+00  1.534934527365426e+00 -1.289114146822253e-16
-2.614504516789099e+00  3.074676298571090e-01  4.336910835948996e-17
 1.308487848761824e+00  2.536850671217366e-01 -2.589262397167896e-17
 1.694865733827146e+00 -1.766659584100757e-01 -2.834697889548887e-17
-6.766638841290010e+00 -3.062374269187095e+00  1.518851928625237e-16
 1.719615233136765e+00 -3.795205339181582e-01 -2.670316868793703e-17
-7.727322324097407e+00 -1.990813000305579e+00  1.579717986231187e-16
 1.020226397302081e+01 -3.593113425246835e+00 -1.446435219319683e-16
-6.994752070835654e-01 -8.615009677514806e-01  2.129960516549210e-17
 5.379804434415992e+00 -3.131740293472015e+00 -6.356254332244268e-17
-8.331934233967182e-01 -2.279033056385324e-01  1.716929451692272e-17
-1.395659163283003e+00  5.783340628093872e-01  1.889524718603345e-17
-2.143093357232277e+00 -5.839959793212856e-01  4.413924918060845e-17
-3.932901206102386e+00  1.117038048612566e+00  5.851350816381441e-17
 6.333491983894892e-01  1.681767410366120e-01 -1.299915937398892e-17
-2.769915629617693e+00  1.984049615723833e+00  2.890856364757573e-17
 4.889679557110974e-01  5.117844898627267e-01 -1.396016774748760e-17
-1.542398913369950e+00  4.665366502236873e-01  2.265533390781600e-17
-6.775780460708403e-01 -5.558700522655174e-02  1.262944585343794e-17
-5.232908285869498e-01 -1.528068446716934e-01  1.088261931778905e-17
-1.268201066933534e+00 -5.621860145230581e-02  2.314677642879118e-17
-1.170697011719269e+00  2.393735424402958e-01  1.837447359052826e-17
 1.510749684163888e+00  4.332518619315121e-01 -3.133709820269837e-17
 3.467134144725847e+00 -5.689610744482259e-01 -5.585591951772725e-17
-8.342080224211617e+00  2.980537328434144e+01 -1.577821147492067e-16
-1.475257967637738e+01  2.214785797475781e+00  2.397836333536840e-16
 1.799278269105723e+01  3.059207955443979e+00 -3.516352809791345e-16
 1.165082088913679e+00 -1.781894643698979e-02 -2.055094233548608e-17
 5.490632049934913e+00  4.584068989799877e-01 -1.024223111530487e-16
 4.522462546063020e-01  1.880962644040911e-02 -8.241523638163041e-18
 4.083637861646329e+00  2.035386430399111e-01 -7.476449248980631e-17
-2.589200923524716e+00 -1.501068137889709e-02  4.623214824285098e-17
 3.653763806589780e+00  2.198580180434996e-02 -6.524898143205056e-17
-3.995130696603078e+00 -2.210616798003833e-01  7.336944474518031e-17
 9.725483222315241e+00 -7.504025478261461e-01 -1.653664613410701e-16
-1.164988311290785e+01 -2.141476045494587e+00  2.293264549081646e-16
 5.108273277012606e+00 -1.013088560465779e+00 -8.049869938993910e-17
-4.973752877409058e+00 -1.070676593615005e+00  9.951467841368212e-17
 9.788477919671804e+00 -4.269662585295001e+00 -1.303284087507329e-16
-4.074221290618757e+00 -1.012896902434285e+00  8.291277549460527e-17
-6.541444395344744e+00  3.748247044018078e+00  7.790092919790208e-17
 1.058374562702651e+01  1.940633229237226e+00 -2.082896796307844e-16
-1.698584340013207e+01  3.834024054263280e+00  2.628901402994239e-16
 1.234557702566300e+01  1.427144821242416e+00 -2.343676641076498e-16
 6.610874539069698e+00 -2.832232492245993e-01 -1.147383821681248e-16
 2.220012448069534e+01  7.692900128895473e+00 -4.741194506336576e-16
-9.695114560326351e+00  1.434121784018569e+00  1.578010479490897e-16
-2.849223312607839e+00 -3.182255276377424e-01  5.397497921504995e-17
 7.069024568496219e-01 -7.930549161921464e-02 -1.176533732392609e-17
 1.097860108707596e-01 -9.513467468222342e-03 -1.856025618488908e-18
-8.798808276264072e+00  1.419839711050484e+00  1.419969516414437e-16
 5.559449012438807e+00 -2.732671084736763e-01 -9.612930646400482e-17
 2.934315237582429e+01  2.095019559564588e+00 -5.437219631990801e-16
-2.523388244349200e+00  1.163322335232804e+01 -7.462044012254049e-17
-3.067795509480987e+01  6.198979995137068e-01  5.395815781439776e-16
 5.315275969734353e+00 -6.138713066279752e-01 -8.828437149831753e-17
 4.649685101359279e+00 -9.589404997217989e-02 -8.176141619589016e-17
 1.236182828176358e+00  3.929100695728587e-02 -2.240304879452613e-17
 6.176009625381907e-01 -9.995463294919318e-03 -1.088824607472697e-17
 9.273452072115740e+00  4.520661956996797e-01 -1.696769574719583e-16
 1.260659078027556e+00 -2.796684495382902e-02 -2.214758290272710e-17
 5.403296220782871e-01  1.793358851097707e-03 -9.634236267725272e-18
 6.159336634141970e-01 -1.208681491683895e-02 -1.083708661784134e-17
 3.251845968294814e-01  5.322890354056998e-04 -5.792516860763083e-18
-9.338041842612520e-02  1.024779907953269e-02  1.556523497196773e-18
 7.463184611698302e-01  5.055611985571890e-03 -1.333357183205454e-17
-9.979612753162684e-01  5.849024349177807e-02  1.715894529251121e-17
 1.148068920894542e+00  9.872213713487130e-03 -2.053268931861912e-17
-3.916770739904992e+00  2.119205960910055e-01  6.752620021404218e-17
 1.119050358150167e+00  5.512229896299087e-03 -1.997147213536319e-17
-3.825603577282981e-01  3.427975242295568e-03  6.772896700229558e-18
 5.423953443632014e+00 -3.092937646007382e-02 -9.620793309096089e-17
 9.151605997188509e-01 -4.454885495116951e-03 -1.624060221402187e-17
 1.185794523973909e-01 -7.285813149484456e-04 -2.102776891794901e-18
-1.105448610954586e-01  3.828549206149998e-04  1.963343971339952e-18
 2.903442402305511e-01 -3.450236030655551e-03 -5.131572151898999e-18
 9.236055247441221e-01  1.551294411203853e-03 -1.645260099960598e-17
 4.056976171696008e-01 -2.247332988230916e-03 -7.196782499204147e-18
 3.677273143431180e-01 -3.521672162361106e-04 -6.540527811669291e-18
-8.397041898978878e-02  1.992082808239932e-04  1.492306978186362e-18
 2.051109012138059e-01 -5.151608898952779e-04 -3.644900058067114e-18
 1.041323268093717e-01 -2.027978394923546e-04 -1.851075295718531e-18
 3.186529108402847e-01 -8.713157154589823e-04 -5.661856198245592e-18
 2.631641902191022e+00  4.480602146528148e-04 -4.683781045961561e-17
 2.917258679907554e-01  8.687828641814398e-04 -5.200536228872879e-18
 4.050877274336270e-02  1.886378534207452e-04 -7.228401169109403e-19
 8.769707801844845e-01  1.541252239710887e-03 -1.562257692883423e-17
 7.689042101954460e-01  5.585566919123485e-03 -1.374095727159626e-17
 1.162686388254348e-01  6.614251138863889e-04 -2.075935021080650e-18
 5.266889330260118e-01  2.945170638304971e-03 -9.403318381057244e-18
 6.642281325387127e-01  4.522015720255236e-03 -1.186719399301069e-17
 5.170343933278777e-01  3.608258673307458e-03 -9.238317317787609e-18
 8.764504315449871e-01  6.012833802738672e-03 -1.565926058058759e-17
 1.544467438023312e+00  1.121358728908976e-02 -2.760085590313333e-17
 1.020858112605477e+00  1.326846893118055e-02 -1.830371647231987e-17
 1.094682339892658e+00  4.083464120859889e-03 -1.952313412234676e-17
 7.671186285815575e-01  8.685304665840353e-03 -1.374102939565261e-17
 3.715163552906413e-01  1.662636614039626e-03 -6.628659734798889e-18
 1.222228434452536e+00  1.344104828138737e-02 -2.188911480155305e-17
 1.157883868296287e-01  1.063839820364738e-03 -2.071523029762373e-18
 4.500930672718562e-01  3.928336767540480e-03 -8.050305262510518e-18
-7.131035659304216e-01 -9.300812018840048e-03  1.278609104203227e-17
-1.229843968455777e+00 -5.426236946958778e-03  2.194229303919699e-17
-4.613809725182141e+00  2.082078116939176e-01  7.996898797980198e-17
 2.831869199168096e+01  1.102337102032212e+00 -5.152910170386795e-16
-1.022512923262894e+00 -4.952869887214804e+00  6.908577613248732e-17
-3.009765055238935e+01  1.531741649913813e+00  5.198855043445884e-16
 1.117683389379137e+01 -1.421217116453429e+00 -1.843026017661904e-16
-9.145646555079903e+00 -7.806486076161242e-01  1.707785706290780e-16
 1.151663906234847e+01 -4.811372641067057e+00 -1.555172236093673e-16
-9.076292792048378e-01 -2.129691912335242e-01  1.834052676137957e-17
-7.691916815792524e+00  3.085279748769013e+00  1.051867063586844e-16
-1.148384255756908e+01 -3.032442570150508e+00  2.355259225482917e-16
 1.224351767633288e+01  2.555539984871767e+01 -4.804604515961431e-16
 1.938065061470287e+01  8.162172544845212e+00 -4.287651535778485e-16
-2.044068867844981e+01 -5.523377689864507e-01  3.694415074856342e-16
-5.001572135972634e-01 -6.029196123392955e-02  9.520372230831651e-18
 3.328698005431925e+00  3.926705530108060e-02 -5.964160634365353e-17
-4.169066489299679e-01 -3.342764007322362e-02  7.762807978319758e-18
-3.129831187982516e+01  5.252006202641019e+00  5.030283380745334e-16
-1.427072982485542e+00 -4.675184111130199e-02  2.587682418887699e-17
 9.002650720713163e-01 -8.219131180315209e-02 -1.517680494124448e-17
-2.640510418137442e+00 -1.352183877813918e-01  4.838035241909250e-17
 7.794934070558742e+00 -1.485891396118928e+00 -1.234531556289338e-16
-3.953109322196226e+00 -3.331993510915349e-01  7.377379814358807e-17
 1.317196440378350e+00 -8.530954175188020e-02 -2.256455731352939e-17
-4.404191892710564e+00 -7.739018094048500e-01  8.632940820503118e-17
 2.554824608799747e+00 -2.792703872618144e-01 -4.259674963966427e-17
-2.944007636244568e+00 -5.149739608479841e-01  5.768329798517109e-17
 7.171679289838786e+00 -2.419074716161350e+00 -1.027734736037069e-16
-1.901524479816003e+00 -2.940140900328759e-01  3.686078432105821e-17
 3.970422672283394e+00 -1.609531218552520e+00 -5.412105897147620e-17
-1.030143849041113e+00 -2.754307006973112e-01  2.116258898730746e-17
-1.447716025459343e-01  2.465949546879413e-01  4.270979971575015e-20
 1.810012912325386e-01 -8.301840328945151e-02 -2.368149917534814e-18
-8.121075358937626e+00  2.671758187231379e+00  1.170728783602639e-16
 2.439815458368415e+01  2.095903814991589e+01 -6.495407671800653e-16
-7.963152512222982e-01  1.976597908513529e-01  1.214049722763445e-17
 1.961838093525586e+00  1.551048610360675e-01 -3.650689510330768e-17
-5.004907503166511e+00  4.355540597810754e-01  8.459313941021987e-17
 6.827243861684594e+00  8.842760888624789e-01 -1.305845639527706e-16
-3.330021103579877e+00  6.536902176168953e-02  5.859005478758396e-17
 1.064016357993914e+01  7.600790807881973e-01 -1.971639393939659e-16
-4.093876329893900e+00 -5.081080443575392e-02  7.337747519471123e-17
 1.984571350729972e+00  3.521932642154126e-02 -3.567968025385525e-17
-5.029964866269622e+00 -2.447427099578763e-01  9.202886715623098e-17
 2.977177497953775e+00 -2.164776828395875e-02 -5.276000194169414e-17
-5.137087599781990e-01 -6.514809539663187e-02  9.811433200531876e-18
 6.418062916396268e+00 -5.784770839488852e-01 -1.082734434464685e-16
-7.420320983394685e-01 -7.696325527375464e-02  1.399611580489568e-17
 4.369427804170236e+00 -3.701021170725021e-01 -7.395651502820386e-17
 2.032032043811804e+00  2.427529711942925e-01 -3.865663271749052e-17
 3.493642797146994e+00 -1.662402659673787e-01 -6.046548258741463e-17
 5.571866302964460e-01 -2.299504944518692e-02 -9.679534938778912e-18
-2.125903782029801e+00  3.930085281875424e-01  3.379497382174980e-17
 3.113890015952598e+00  3.915517380610958e-01 -5.943843901886954e-17
 1.694371757463699e+00 -2.651857259679275e-02 -2.988089783452275e-17
-1.018049154385860e+00 -2.675360221715808e-01  2.086623451496338e-17
 3.800525218590406e+00 -2.123130355275283e-01 -6.545344038119841e-17
-1.176292292092688e+00 -2.673123794739756e-01  2.368006206134500e-17
-6.677099744226312e+00  1.764209263014897e+00  1.007003453600738e-16
 8.347483163880536e+00  5.796995206438244e-01 -1.545096221299669e-16
 7.546389097305280e+00 -5.051774977879628e-01 -1.291064803776582e-16
-2.416340084256774e+00 -6.358496650739547e-01  4.953477843674689e-17
-8.049669718570922e+00  1.234404361188542e+00  1.305704182481099e-16
 9.162706829907005e+00  3.267509492321418e-01 -1.664185450144344e-16
-9.367225942338152e+00 -2.584452821198647e-01  1.693563907408838e-16
 4.594062696520186e+00 -3.912870536887209e-02 -8.135479244629362e-17
-1.531455665312080e+00 -6.471013246809892e-02  2.791895343724830e-17
-2.857134980407030e+00 -2.863385727061987e-02  5.114032757413967e-17
-1.729884668623279e+01  4.315994409770659e-01  3.034190841230235e-16
 1.328781489916571e+01 -4.953006293651493e+00 -1.855821759959525e-16
 4.040399614628495e+00  5.890658939790235e-01 -7.795616877564992e-17
-5.830934712403271e+00  1.440336431096025e+00  8.896950500080258e-17
 5.825859049193921e+00  8.659544829095481e-01 -1.125754788578395e-16
-3.207800454343782e-01  2.704839738250605e-01  2.929538972790006e-18
 8.369701553510602e+00  6.106303856748052e-01 -1.552228282978079e-16
-9.925156222270410e+00  1.592044413160269e+00  1.602723162185712e-16
 3.442815956640777e+00  2.354747482007324e-01 -6.368843421133625e-17
 1.538404799989493e+00 -1.755738600528775e-02 -2.719735272679979e-17
 3.411944319676489e+00  2.351469988497501e-01 -6.313566909133004e-17
-2.157970227824535e+00  8.747438606403400e-02  3.750488678014915e-17
 6.868009332384485e+00 -5.520278943343480e-03 -1.221676996757828e-16
-9.248686672307763e+00 -2.819945301302632e-01  1.674888029230525e-16
 4.903142885482033e+00 -1.806529981932727e-01 -8.540113238963127e-17
 2.184330235434695e+00  6.893511790618682e-02 -3.958104543159417e-17
 3.294005672196457e+00 -1.900671363930564e-01 -5.666788938845531e-17
-3.602380461481500e-01 -6.488762228055987e-02  7.077562488263294e-18
 1.917495781114706e+00 -6.523680369927747e-02 -3.345384023761116e-17
 1.729870359427120e+01  1.336845271199611e+00 -3.215866645790462e-16
-3.517332552047950e+00  8.273418564089292e-02  6.174506470144855e-17
 3.531168897364378e-01 -6.099921722476732e-03 -6.221461783557606e-18
 3.479239273147533e-01  7.638854434715039e-03 -6.270207764768684e-18
-2.935318149892686e+00 -8.397540492922943e-02  5.310030463125890e-17
 1.442923181197480e+01 -1.854354615801336e+00 -2.377325718832686e-16
 2.104253805141164e+01  5.932074793525425e+00 -4.354269786142506e-16
-1.275042850535954e+01  1.428857728089100e-01  2.254409851051467e-16
-3.068814631474892e+00  1.040534288068467e-01  5.354410582566646e-17
 8.020932269971269e+00 -6.110580405006532e-02 -1.421142174560123e-16
 2.148129362134838e+00 -1.928328146949805e-02 -3.803039567371675e-17
 1.747359566257323e+00 -1.397051135013502e-02 -3.095280589416769e-17
 3.539366927334890e+00 -5.835792309879413e-02 -6.238764989143469e-17
 5.182335997680757e+00 -1.855609753188587e-02 -9.203519362510756e-17
-1.374950597829943e+00 -2.525526711288065e-02  2.472837468393651e-17
 6.317082571712823e+00 -4.797100242898983e-01 -1.074911734330763e-16
-1.477803440632676e+00 -8.070490006313558e-02  2.712848855248540e-17
 4.028253550781931e+00 -3.691824302235183e-01 -6.789436164708034e-17
-8.863716922683489e+00 -1.721079663726365e+00  1.754238838804833e-16
 3.856892326825104e+00 -3.570179361183891e-01 -6.496977002435808e-17
 1.995491574130764e+00  1.654054355182948e-01 -3.721163365210364e-17
 1.118165468095691e+00 -9.240987062632834e-02 -1.894961041270832e-17
 1.559390407212425e+00  1.896011407026834e-01 -2.969929529576202e-17
 9.706959459303106e-01 -6.457007499360354e-02 -1.661125817852605e-17
 6.950763847730819e+00  1.066975050401788e+00 -1.346599148829255e-16
-1.083321527740129e+00  2.765083733424492e-01  1.643797572653224e-17
 1.758477095528411e+00  5.385334800004795e-02 -3.184752109129177e-17
-1.033233527658356e+00  1.696129447352242e-01  1.664491174614928e-17
 2.114631391172695e+00  1.123337230258728e-01 -3.878657622610507e-17
 4.289427933563979e-01 -4.212010784754359e-02 -7.200779883474183e-18
 2.827349737945932e-01  3.154925904845070e-02 -5.355763357253855e-18
-5.230913550287400e-01  5.785807272531401e-02  8.714563956743087e-18
 3.191617958244040e+00  2.220915953205225e-01 -5.908055912405264e-17
 2.719894131786916e+00 -2.201243641282739e-01 -4.614206259693377e-17
-1.455788661537614e+00 -1.225688161931573e-01  2.716684580147061e-17
 4.986671448952785e-01 -3.494713013403713e-02 -8.515307613314865e-18
-1.876751407726762e-01 -4.610462883514185e-02  3.813611071340117e-18
 1.708427044499517e+00 -1.155991749557399e-01 -2.921575759740451e-17
-1.977085782254937e+00 -2.598385735146347e-01  3.785434680063389e-17
 1.304800281453012e+00 -8.224439974043568e-02 -2.237544608884517e-17
-2.255127186596027e-01 -1.612077332644479e-02  4.178902920677844e-18
 2.000513688242020e+00 -3.545786815471563e-01 -3.195836021966608e-17
-7.914911051046880e-01 -7.409209355873120e-02  1.484679768339690e-17
-5.662100497385293e+00  7.881665884882156e-01  9.266570702153548e-17
 2.382041798136274e+01  6.824828984523158e+00 -4.940353906933252e-16
-6.090594268153839e+00  5.559774130208490e-01  1.026769241660806e-16
 3.856293567556995e+00  1.687735536668235e-01 -7.036143093833221e-17
-2.671671749028488e+00  1.240210010940351e-02  4.741815858985968e-17
 4.618996586162512e-01  5.170997043743077e-05 -8.220586700813399e-18
 5.791630477451728e+00 -2.209351790268030e-02 -1.028419699800109e-16
 1.665303683684237e+01  3.875826537580170e-01 -3.003429259332587e-16
 8.383009807800494e+00  6.364836244690285e-01 -1.557252971768556e-16
-2.935765333734548e+00 -3.116223038808686e-01  5.544725199260345e-17
 1.772563961857300e+01 -6.013715136998924e-01 -3.092700270727379e-16
-1.570013053991361e+01 -2.292159865535194e+01  5.149136501744958e-16
-3.042410025968798e+01  9.722087464721763e+00  4.415422383579746e-16
 2.269579677005966e+01 -9.110478812439831e+00 -3.102919158315507e-16
 2.568830354687496e+01  3.976651911996490e+00 -4.980126575265065e-16
 4.669665014149480e+00 -4.217575546156667e-01 -7.876885345022735e-17
-5.360778489143138e-03 -2.073039358309482e-02  3.083987081882972e-19
-1.386653845533530e+01  3.071805662258818e+00  2.152099051301838e-16
 8.636193001651870e+00  8.414222256371932e-01 -1.623366637744011e-16
-1.188400141084277e+01  1.194633735955611e+00  1.992155531978947e-16
-1.655436160029482e+00  1.302599931606875e-02  2.932662373600261e-17
-2.753179259627008e-01  1.501999527901060e-02  4.745285984425513e-18
 3.273504332549106e-01  1.512551283718392e-02 -5.981000554977165e-18
 1.343246591900015e+00 -8.235212968705642e-02 -2.305853715580728e-17
 1.292234305486353e+00 -1.856428194475300e-02 -2.280610963001186e-17
-7.549824817507026e-01  1.006144720482631e-01  1.240203670124842e-17
 1.482101367277244e+00 -1.774815673962531e-02 -2.619340588219546e-17
 1.868341694026987e+00 -1.090824286189962e-01 -3.212858675510339e-17
 1.223232178979970e+00 -5.991229144366273e-02 -2.115329866637644e-17
 7.864473964400766e-01 -8.952299007901995e-02 -1.307595332558061e-17
 1.056325381578977e+00 -5.312203746928600e-03 -1.874398923261680e-17
-3.318312333751222e+00  5.449629300764370e-01  5.345403003908628e-17
 3.234034841008764e+01 -3.632050473226862e+00 -5.382170781410149e-16
 8.396350135858587e+00  6.204010802103774e-01 -1.557974619606229e-16
 4.186217181345876e-01  1.647645743531674e-02 -7.619162438987152e-18
-2.951055391043051e-01  2.581145113429415e-02  4.986551831268159e-18
 8.893364447610513e-01  2.362727586602972e-02 -1.606956448885773e-17
-1.480188671710214e+00 -9.620742966802940e-03  2.644057268508928e-17
 2.225019979329370e+00  4.738065737738808e-02 -4.008370367554765e-17
 1.607865404110467e+00  3.054396465413601e-02 -2.892771094313200e-17
-2.088327449367473e-01 -2.302327484456745e-03  3.740083379662369e-18
 9.638038008200926e+00  4.904098171212730e+00 -2.219082101797954e-16
 1.020700699585731e+01 -1.659595422995588e+00 -1.645941247640893e-16
 1.665308419535885e+00  7.319925367334208e-02 -3.038824553394960e-17
 3.045544121287523e+01  2.537122043554501e+00 -5.680589122819540e-16
-1.269171170238088e+01  1.859666318931127e+01  3.479019034407166e-17
-1.549156978370207e+01  4.048092099315560e+00  2.340982875498476e-16
-3.602262429155942e+00  1.579670708447945e-01  6.248350259465498e-17
-4.571721244550518e+00  4.973541735067487e-01  7.624909943508508e-17
-6.090945147274360e+00  6.076359385524489e-01  1.021523959064316e-16
-4.853691603386027e-01  4.103785288827408e-02  8.216074147705838e-18
-1.111519704714920e+00  1.001521251942932e-01  1.875179231055033e-17
 2.772145324860974e+00 -2.315650949882351e-01 -4.695438555911839e-17
-1.245407346521066e+01  1.278948527737011e+00  2.084943615565396e-16
 2.656410135205723e+01 -1.879621973073401e+01 -2.796155407661398e-16
 1.032233659345324e+01  7.618170294710293e-02 -1.844810319340682e-16
 1.019911650309837e+00 -2.012470754367290e-02 -1.794377035355350e-17
 2.630731269583213e+00 -4.584917815407678e-02 -4.634591733964075e-17
 1.333685019453365e+00 -2.250230492238658e-02 -2.350331279469318e-17
 3.153690331131543e-01  6.788438278773570e-03 -5.682116865326022e-18
 8.697001504011610e+00 -1.532440343386616e-01 -1.531989891393147e-16
-3.748721716058931e+00 -2.529736461434239e-01  6.931218689347377e-17
 5.223392755232948e+00 -5.515235702203038e-01 -8.728980043672998e-17
 1.888045478712554e+00  1.568470473087384e-01 -3.521156786890399e-17
 5.392101853361412e-01  4.131215430873254e-02 -1.002035582851317e-17
 3.669830482595141e+00  4.740370545435104e-01 -7.017956949510039e-17
 3.428174391631931e+00 -4.358941673297932e-01 -5.652979832071187e-17
-9.731649998408907e-01 -2.317565404386268e-01  1.969984626807552e-17
-9.715027094481471e+00  1.986609542802741e+00  1.524788042742292e-16
 2.156242921606861e+01  2.950142998182646e+00 -4.140407960796408e-16
-3.890967269083696e+00  1.816109268956309e-01  6.737841755445724e-17
 2.177213370715586e+00  5.788869531457064e-02 -3.934089431939495e-17
-1.321797959617878e+00  1.019475082310623e-01  2.247549776889176e-17
 5.084724224155053e+00  6.769584386399283e-02 -9.118428304987266e-17
-3.964812667203412e+00 -1.437470097463696e-01  7.203551915329144e-17
 6.296861447055884e+00 -3.713363063371455e-01 -1.082448148987321e-16
 2.858078814609070e+00  1.090600143207709e-01 -5.198347377063730e-17
 6.242470155088742e-01  2.178715506773467e-03 -1.113160578192828e-17
 1.228523409914520e+00  2.724306594156272e-02 -2.214295212111953e-17
-3.912220061979593e+00  1.171782043831170e-01  6.841865923155053e-17
 3.196466209940875e+00  2.744119224139969e-02 -5.716687737899048e-17
-2.822654267919705e+00 -8.129273073609851e-02  5.106775295851963e-17
 1.925254282528171e+00 -1.071817570228744e-02 -3.415207112611915e-17
-1.888395303759390e+00 -9.625483260799390e-02  3.459523039255253e-17
 3.899533768274826e+00 -1.742193901864366e-01 -6.760681398396876e-17
 6.554897657368072e-01  2.486205200862517e-02 -1.192067081391477e-17
 1.378622001463440e+00 -4.194116982632976e-02 -2.410329273857746e-17
 1.476015343949215e+00  1.957254828015988e-01 -2.827846193398667e-17
-6.372334277992594e-01  4.263045140416374e-02  1.090231656511931e-17
 2.916331683495250e+00  8.011017224734376e-02 -5.272270395170101e-17
-4.832862074744285e+00  1.019362085527906e-02  8.590180971539635e-17
 9.357731445277738e+00 -3.318759976787729e-02 -1.661910028347282e-16
-2.421299336314916e+00 -6.039778918617458e-02  4.371047526725296e-17
-6.156798894268177e+00  1.523974195609638e-01  1.080017522947055e-16
 1.501539556456030e+00  1.438824590683447e-02 -2.686952149012642e-17
-1.140490307891443e+01 -1.271979121144027e-01  2.042707668896522e-16
 5.009234399990994e+00 -5.182893907360643e-01 -8.382006617475634e-17
 1.030165014708041e+01  3.175841366684964e-01 -1.865932142554098e-16
 6.850456689064418e+00  8.075197853840187e-01 -1.302090207478486e-16
-3.004370649782178e+01  1.372218765604064e-01  5.332536896262763e-16
-8.952369929287794e+00  1.169079812075405e+01  3.919939790663318e-17
 2.435542754348175e+01  4.394424415723288e+00 -4.785849998376246e-16
-5.680887887653110e+00 -3.103360859499191e-01  1.042867669137203e-16
-4.257013467666331e+00 -7.693976830515356e-02  7.654916077541934e-17
-9.347023405777108e-01 -3.118132659419820e-03  1.666618078359928e-17
 6.739503610561615e-01  4.671404892879068e-03 -1.204174758174475e-17
 3.217371186771039e+00  1.946711205020441e-02 -5.745697559448891e-17
-7.975025132901828e-01 -2.206930270865189e-02  1.441926258761545e-17
-1.268198669127486e+00  1.054111937520998e-02  2.246080190620558e-17
 1.331020232963425e+00  2.514594202970951e-02 -2.394545815302349e-17
-4.857389235587578e+00 -6.400787587174770e-03  8.650880133469286e-17
-3.457725882910632e+00  3.782741501611347e-02  6.114569365672850e-17
 3.267890083123234e+00 -7.732149189312615e-02 -5.736155187800347e-17
 1.411233850958742e+00  3.745159513638644e-02 -2.549939129341419e-17
 5.744923852156042e+00 -3.327985065086819e-01 -9.881838895429569e-17
-1.517718980723285e+01 -1.962272994153929e+00  2.902578387154173e-16
 6.313378015228323e+00 -7.710389731692239e-01 -1.044319473016200e-16
 2.837593872019176e+00  2.192077443662549e-01 -5.275064769243565e-17
-4.812962584282871e+00  6.556494427009912e-01  7.891585047725353e-17
 6.802773553737770e-01  5.577272504705871e-02 -1.267939150688302e-17
-2.977447698272494e+00  1.588805212959121e-01  5.135479376395196e-17
-4.458624580632101e+00 -2.535281848069679e-01  8.195145284464051e-17
 4.887161136293206e+00 -3.816899307817340e-01 -8.305113666425752e-17
-2.952253164032628e+00 -1.708559544290427e-01  5.429434949226124e-17
 1.991799777311346e+00 -2.456531734487256e-01 -3.292245579251189e-17
-2.156812934229257e-01 -3.084413931055479e-03  3.869997126353438e-18
-1.151174344217869e+00  6.683518622958143e-02  1.979981336918763e-17
-1.746166223482672e+00 -1.817188861980547e-01  3.294220639332139e-17
-2.617116185129199e+00  2.118072821900811e-01  4.439846144081682e-17
 3.403372621003099e-01  4.647535115455118e-02 -6.534224898002012e-18
 2.911763546624273e-01 -2.552389705823479e-02 -4.919581791353551e-18
-9.562870445321385e-01 -6.766045792244643e-02  1.771345528086723e-17
-1.022477245352857e+01  1.345945353502695e-01  1.805791124042877e-16
-2.845753591304419e+00  8.047421804883173e-02  4.981673633761729e-17
 4.568258555418428e+00 -1.296445669211474e-01 -7.996555937859270e-17
 5.519364228704505e+00  5.161281930836595e-03 -9.827670051294803e-17
 7.754689734086100e-01 -6.321247474668050e-04 -1.379390054487256e-17
-7.495159602167732e-01  1.246714710804767e-03  1.332572102404403e-17
-2.859389908763606e+00  3.065068229862038e-02  5.057132959443700e-17
 4.038332023611718e+00 -1.107130513634730e-01 -7.072939905812703e-17
 2.214650897800876e+00  1.263628828826076e-01 -4.071068721066625e-17
 3.420570847313521e+00 -1.633654883281549e-01 -5.919461736007447e-17
 1.538515158667493e+00  3.960466991076310e-02 -2.778663605958903e-17
 5.421629114532073e-01 -1.991194192129977e-02 -9.443847755167831e-18
 3.506575034930283e+00  2.170526927813081e-01 -6.463382310997789e-17
-1.641761797484366e+00  3.528183221978164e-02  2.885460154649231e-17
 2.447825746133951e+00  1.292684171551269e-02 -4.369479762815111e-17
-3.892769442257598e-01 -3.685787889089104e-03  6.965517699477429e-18
 9.788108307863291e-01 -2.294388123621673e-03 -1.739553229556445e-17
 1.335910204544677e+00  1.321170764565536e-02 -2.390986112505296e-17
 1.067286665816668e+00  5.361765083817833e-03 -1.904872951347918e-17
 1.684351913741096e+00  1.573127621401490e-02 -3.013668461977465e-17
 1.638875455117818e+00  1.592250979808034e-02 -2.932934164923075e-17
 5.715727697107978e-01  5.593956558303632e-03 -1.022929511473525e-17
 1.740462950348374e+00 -1.837124436451163e-03 -3.095473852827571e-17
 1.050783395359351e+00  1.381697765466799e-02 -1.884190837509341e-17
 5.598847593153286e+00 -1.046866981456483e-01 -9.856255371877367e-17
 3.363110815904875e+00  4.861842917154859e-02 -6.035010533113519e-17
 8.691086453760423e-01  1.624554151629265e-02 -1.563374209001884e-17
-8.478323800843078e-01 -2.146351190521402e-02  1.530871832340240e-17
-3.247730306962097e+00 -4.182111059040933e-02  5.822693156360708e-17
-4.865013655625189e+00  1.000859124046591e-01  8.555037477152355e-17
 4.314658671004925e+00  3.383073464988378e-02 -7.713209627254587e-17
-4.083671593670787e+00 -1.370864631503430e-01  7.408232079844809e-17
-7.172329043262878e-01  4.305334292658413e-03  1.271977933480862e-17
-7.216033055937005e-01 -1.933624580935872e-02  1.304046436996404e-17
-2.543060578025668e+00  6.365480573899961e-02  4.460276645831345e-17
 1.605450769507478e+00  2.946362837706010e-02 -2.887363956946748e-17
-1.827793878419684e+00  2.303018155935954e-03  3.250410966235500e-17
 1.470916762281309e+00 -3.092018077296788e-03 -2.614494899979638e-17
 1.546578664999508e+00  1.023529869972846e-02 -2.762837613758566e-17
-2.597840934161277e-01 -5.869204807440857e-03  4.683471841394737e-18
-1.512904486462604e+01 -1.502126936939547e-02  2.693937379983943e-16
 3.066629892812186e+01 -3.113786999757717e+00 -5.137503389971443e-16
-7.734301707010999e+00 -4.986385958453123e-01  1.427644551235439e-16
-5.590110709223019e+00  2.694320041084410e-02  9.920585659860596e-17
-2.904201113401291e+00  5.056751502042459e-02  5.116416023234002e-17
 2.125645650267659e+01 -1.390594653770186e+00 -3.639961442250310e-16
-1.341400890775314e+00 -2.959377899004860e-02  2.417589425479180e-17
 1.831026558838738e+00 -1.261672832170060e-01 -3.128897875448023e-17
-1.258161485256207e+01 -1.961513345092833e+00  2.440586811822612e-16
-4.615688847048816e+00  5.733937380039665e-01  7.625027651934032e-17
-8.680320941746966e-01 -2.937095654089692e-02  1.574944247977255e-17
-4.125400469626700e+00  3.013146777115799e-01  7.032052347078825e-17
 2.576051555415770e+00  1.855658386103612e-01 -4.775053178715609e-17
-1.550684666405621e+00  6.259218333113205e-02  2.695317142266482e-17
 1.246752642181203e+00 -1.455880893633736e-03 -2.217249179670410e-17
-1.844599917009145e+00  2.822093342203324e-02  3.253689600186373e-17
 1.262394384755918e+00 -2.008841320217478e-02 -2.225941276816926e-17
-7.390454495382460e-01  2.753007360716612e-03  1.312390918835093e-17
 6.027232485883038e-01 -1.570291085650089e-02 -1.056483746094187e-17
-1.374344347526739e-01 -6.850382764613653e-03  2.516195182019593e-18
 3.515869700682895e-01 -7.476185499646676e-03 -6.180094440020558e-18
 1.064710954909862e+00 -9.351525230113070e-04 -1.893819312766184e-17
-8.698367644016619e-01  1.858758557852885e-02  1.528880212268721e-17
 1.292406097871351e+00 -7.289672963384048e-03 -2.292500940867900e-17
-6.512611551528028e-01  3.141811525688494e-03  1.155768813545469e-17
 1.272778401368147e+00 -1.469445430274705e-02 -2.249962969596976e-17
-2.202776134539120e-01 -1.036012933643733e-03  3.930747542671275e-18
 1.783770969159360e+00 -3.590086187702459e-02 -3.137546380634813e-17
-5.151584232461592e-01 -1.297342129648925e-02  9.301155815696534e-18
 9.031119125205664e-01 -2.506386826036805e-02 -1.581443160728343e-17
-4.191980027111087e-01 -7.437832011992593e-03  7.536549520427086e-18
-5.628754382159799e-01 -4.140705029290224e-03  1.005958409344639e-17
-5.197505778132748e-01 -1.736323572789017e-02  9.427982427777788e-18
-4.520361451578286e+00  1.513271798549681e-01  7.889039234464580e-17
-8.430045841289721e-01 -2.116883195102452e-02  1.521977419160392e-17
-3.400062477134986e+00  4.949175183864792e-02  5.999965773863518e-17
 2.987157536134796e-01  1.023758762050369e-02 -5.421190644396480e-18
-1.372250122034515e-01 -1.678249468294245e-03  2.459326179925243e-18
-3.395435319066749e-01 -5.552010603721540e-03  6.099627072155576e-18
-2.198082707053078e+00 -1.369701458985804e-02  3.925823558915396e-17
-2.083707503010352e-01 -1.730047437400381e-03  3.725981666292657e-18
-5.365556363277135e-02 -2.694625819317151e-04  9.576333769289247e-19
-2.328002284852421e+00 -1.399614700290986e-02  4.157338292719453e-17
-3.215155956533511e-01 -1.958580865432615e-03  5.741877253716036e-18
-8.861626669943970e-02 -6.735350218643658e-04  1.583952426598275e-18
-1.453275130417981e+00 -9.531797687872715e-03  2.596070023415731e-17
-4.117722767431590e-01 -3.212634792502079e-03  7.360987483342316e-18
 3.053999851697021e+00 -2.728711598664184e-02 -5.406920543951007e-17
 7.214920992038488e-01  8.154508328237260e-03 -1.292359714614066e-17
-2.465309723351338e+00 -1.760596753761704e-02  4.405402217719247e-17
 2.835819138183905e+00 -5.724132344980680e-02 -4.987865044794406e-17
-7.734178662338392e+00 -9.096621677232740e-01  1.469853833726233e-16
 5.475807148484802e+00 -5.086697026461487e-01 -9.222212357222367e-17
-2.797504750804840e+00 -1.952984975592953e-01  5.179155513981592e-17
 9.694032008865129e+00 -2.403407137258615e+00 -1.478227278635473e-16
-4.732414143627834e-01  4.081272770130461e-02  8.002559520926232e-18
-1.233792438754392e+01  1.169238429142080e+00  2.075545815769297e-16
 7.103936269029206e+00 -7.297278787023223e-02 -1.256732509024307e-16
-1.374516287299488e+01 -9.268549956595099e-01  2.541346675251141e-16
 5.192675177879521e+00 -6.454719110269579e-01 -8.577785943297606e-17
 1.499010494111883e+01  3.594126975981857e-01 -2.704596331695614e-16
 1.977205738931588e+01  1.465150635993741e-01 -3.533727352158985e-16
 5.723238633623954e+00  4.221799213869717e-01 -1.061896037394413e-16
 1.196404779750909e+00  3.782894967279960e-02 -2.168012889466101e-17
 4.913221219146292e-01  3.163856479561231e-02 -9.068737994098301e-18
 1.429355013378805e+00  3.346737124656128e-02 -2.578094253270363e-17
 4.697652543481225e+00  2.894729063200628e-01 -8.657455947250550e-17
 1.692687599026192e-01  1.158142616406313e-02 -3.131334443583514e-18
-1.645575652061265e+00 -7.709295579644131e-03  2.936419185361736e-17
 4.094979571460609e+00  9.476161342731246e-02 -7.384868729388766e-17
 1.472395092258474e+01  1.005923992218255e+00 -2.723657736298758e-16
-2.767385831102062e+01 -1.129417426147222e+01  6.085328568977480e-16
-9.726650328651016e-01  8.278004617940269e-01  8.804385469929508e-18
 6.712891054342390e+00 -1.615328926308726e+00 -1.028669858239252e-16
 3.780137209580973e+00 -5.976009413941386e+00 -5.870724941397368e-18
 2.165380932835434e+00 -2.036255627185264e+01  1.706823318918819e-16
-2.102677424916359e+01  4.508327142993346e+00  3.278751057627411e-16
-4.558415628608190e+00 -4.494663161872536e-02  8.158425389770238e-17
-2.117859235700171e+01  1.630404982280368e+00  3.601464948187739e-16
 6.905300563319716e-01 -2.227869773218741e-01 -9.999750789982633e-18
 1.893558877699938e+01 -5.833662158902775e-01 -3.309875135322460e-16
 8.578008373672231e+00  8.850941381077964e-03 -1.527468314422476e-16
 3.226429651150594e+00  1.086977779869375e-02 -5.752984728373667e-17
 2.241436989421259e+00  8.317459648770533e-03 -3.997450378186318e-17
 5.219372455861582e-01  3.543938873465521e-03 -9.324908548100845e-18
-7.985300668294074e-01  5.103221315577100e-03  1.415836131457411e-17
 4.698932938980118e+00  1.009135052241909e-02 -8.372680169889128e-17
-1.007364230432225e+00 -5.956475403812576e-02  1.853925425208282e-17
-4.413155435940953e+00 -4.808322721939114e-03  7.858676895545776e-17
 3.243845865872425e-01 -7.048452292192698e-03 -5.700390375693617e-18
-3.228525347520043e+01 -3.890173460651810e+00  6.145247159079278e-16
-6.758682499545503e+00  2.343174867849191e-01  1.178712900678181e-16
 2.678924521108885e-01 -1.449021408227587e-02 -4.618584045064518e-18
 1.063541189149262e+00 -7.062111931818522e-03 -1.885442342771731e-17
-4.237316451716204e+00  1.232508020089711e-01  7.414174348726118e-17
 1.383079054264368e+00 -9.337474044482859e-02 -2.365415002751383e-17
 5.428331149840887e-01 -1.229957567773561e-02 -9.533989123915763e-18
 2.898795689556198e+00 -1.548560993354440e-01 -4.999643693791875e-17
-1.943503982904734e+00 -1.394875985150264e-02  3.473029012010162e-17
 9.854186410798462e+00 -2.272640564125098e+00 -1.520164454929910e-16
-1.036583619063621e+00 -2.064006261669486e-02  1.865931112858038e-17
 3.298524583427313e+00 -3.631216837035858e-01 -5.497023619225557e-17
 3.599752973807572e-01 -6.750259485962126e-02 -5.712625168331662e-18
 3.909202361543547e+00 -6.493772511720006e-01 -6.289680372394261e-17
 2.114814960964321e+00  1.908919299633812e-01 -3.959700007755797e-17
 3.662714481506384e+00 -9.766260563090229e-01 -5.514789523001501e-17
 2.194402691708091e+00  2.891535869073565e-01 -4.202296154146061e-17
 1.633955719256019e+00 -2.195639002826150e-01 -2.682225176334172e-17
 1.530097694294821e+01  5.466737697098357e+00 -3.284678803203867e-16
 1.531082725379979e+00 -1.174772970105016e-01 -2.604040685452788e-17
 4.640569869071610e+00  9.309911402906592e-01 -9.215007205720297e-17
 2.849318128746676e-01  6.412686577194161e-02 -5.729581739367129e-18
 2.252641458828171e+00  2.021549403570606e-01 -4.216551039726865e-17
 3.314471515328597e+00 -3.176697667659781e-01 -5.572103280107164e-17
 2.644539495325010e-01  4.683110479431447e-03 -4.754390716345439e-18
 1.296996162590340e-01  4.404092807448502e-02 -2.760663921599052e-18
 5.259304847656996e+00  3.880922550137005e-01 -9.758311022672265e-17
-2.967079298069052e+01  5.180445230110775e+00  4.747999608617006e-16
 4.520177434221682e-01  1.111020259758351e-02 -8.158348225184987e-18
 1.208043978355318e+00 -6.525622862683349e-02 -2.082809955767252e-17
 8.388026662695546e+00  4.052025855651194e-01 -1.534382494270705e-16
-8.475466907402055e+00 -2.565021779257795e-01  1.534665102281658e-16
 6.421207475452412e+00 -1.132343561239453e-01 -1.131096046162568e-16
-2.575050313259917e-01 -1.135109395681620e-02  4.699237563460843e-18
-2.074325275198501e+00  7.823047240706786e-03  3.683471364618902e-17
 1.853481045502428e+00  2.053678395037024e-02 -3.319591411134986e-17
 1.237067801027437e-02 -1.183065251335728e-03 -2.079954053828643e-19
-3.828417204844628e+00 -1.809006637760676e-02  6.831711971336645e-17
 2.055019916820174e+00 -8.694435444524704e-02 -3.567820904458392e-17
 4.824146896376940e+00  7.325332284555217e-02 -8.660409975494838e-17
-2.121098738789198e+00 -3.677454200283997e-02  3.812532725482612e-17
-4.024163793592238e-01  1.061301509434031e-02  7.052434621272657e-18
 3.267004863205587e+00  3.630420441691887e-02 -5.851326107748605e-17
-3.519372437827996e+00 -3.544893349326023e-02  6.299565550477053e-17
 4.614215709349680e+00 -1.575201019772642e-01 -8.049701075416864e-17
-2.792154411206570e+01 -1.650767054314971e+01  6.665075015670955e-16
 6.473256020726719e+00 -8.403453207858289e-01 -1.065650695432173e-16
 8.336174853160491e+00  9.704652510088765e-01 -1.583233531730843e-16
-5.188535973196317e+00  1.834364534954580e-01  9.045144382218640e-17
-3.429210909348841e+00 -8.766191139963291e-02  6.192759293726564e-17
-4.895574033152820e+00  7.244454485946444e-02  8.637823819033533e-17
-8.249935272302460e+00  2.954325889002623e-01  1.437819765193230e-16
-1.424204552750800e+01  1.950608174264507e+00  2.334123982993447e-16
 1.436189282484618e+01 -1.833070079802166e+00 -2.367528851364528e-16
 2.997743762287293e+01 -5.576007535745404e-01 -5.277551156977119e-16
 2.856361629463103e+00  2.328060668125088e+00 -7.475234002924626e-17
-2.978617275830579e+01  4.068617739117126e-01  5.259001175413290e-16
-1.513115684301590e+01  1.982190439995174e+00  2.489106984209151e-16
 1.300147896395474e+01 -1.975562545291274e+00 -2.110786394016989e-16
 2.395055308241930e+01 -2.125965439291920e+00 -4.043851387686748e-16
 1.195616290332208e+01 -9.869123180023313e-03 -2.126727790386296e-16
 8.069335724075399e+00  9.276614701777758e-02 -1.445565931268459e-16
-3.830307945199254e+00 -4.103428914505471e-01  7.238102310954139e-17
-1.786465576525131e+00  6.354026428738274e-02  3.113943275242283e-17
 1.773355720620401e+01 -7.986825977614457e-01 -3.073836303025017e-16
 5.481127972161057e+00  1.540195780147553e-01 -9.912570558751563e-17
 1.428486604921768e+01 -6.120266092636532e-01 -2.479278798435549e-16
 4.843710357628446e+00  5.382855015272530e-01 -9.173029160684653e-17
-1.804982973443416e-01  3.655908898489334e-02  2.836551149056848e-18
-2.003041164944769e-01 -2.779861037654172e-02  3.850271303397901e-18
 1.666446832861079e+01 -1.513524817041361e+00 -2.810131743026069e-16
 3.260456121541590e+00  7.781575203152223e-02 -5.882323448172493e-17
-3.681841856578313e-02 -9.475250548969395e-03  7.525824344324423e-19
 2.619285784638710e-01  7.459320281211280e-03 -4.737973292165219e-18
 3.602522308780748e-01  1.688134814209039e-03 -6.428463147890915e-18
 1.010008624411105e+01 -9.571911448830534e-03 -1.796447346292106e-16
-1.043576194726163e+01 -1.964416113992891e-01  1.877351982744718e-16
-9.079250265836858e-01  7.659897997048964e-02  1.537058217496822e-17
-2.084264476176550e-02 -1.320584920745329e-02  5.066050271459709e-19
 3.641007830675306e+00 -2.809739201577748e-01 -6.190917254909277e-17
-4.332129702934522e+00 -2.683383269768334e-01  7.985249435699844e-17
 1.473510083550627e+00 -7.624358704868392e-02 -2.543949444023014e-17
-1.070395222200144e-01 -9.329939826665566e-02  2.863513402754251e-18
 2.223294890755363e+00 -1.399589343616513e-02 -3.942238188391782e-17
-7.747347344651532e-01 -7.964854273952386e-01  2.197092719456430e-17
 5.406855470401666e+00 -9.510402586099395e-01 -8.644984951610675e-17
 2.277388898292972e+01  2.324736343156183e+01 -6.441467343454593e-16
 9.085179681603767e-01  2.289625706678520e-01 -1.852066822202282e-17
 2.098087597412958e+00  5.927886952948122e-01 -4.342865998683883e-17
 1.720733801181630e+00  2.863610883519146e-01 -3.356476671327828e-17
-5.044658425803629e-01 -1.461130974446601e-01  1.047883041363017e-17
 2.457741142378876e-01  9.936972243266493e-02 -5.394831333836773e-18
-2.261288490192769e-01 -7.082461913117662e-02  4.751929833756102e-18
-1.005881587762262e+01  3.094197632559899e+01 -1.389089385961219e-16
 2.130257346873324e+00  2.405682127421195e-01 -4.038222154492657e-17
-2.042835338393753e+00 -4.697512650111205e-02  3.683734399800797e-17
 1.380048377060870e+00  1.117139437587207e-01 -2.570742723793612e-17
-2.690135448235873e+00 -1.164949237059517e-01  4.907111226906485e-17
 1.299887394980062e+00  8.393348550733200e-02 -2.399543282792132e-17
-2.857132776854787e+00 -2.082202550103322e-01  5.298547336162945e-17
-9.015327768774918e+00 -3.542405126724091e-01  1.640782041002186e-16
-4.607824162286139e-02  3.765914361374516e-03  7.813238718281201e-19
-6.874695451451757e-01 -2.732410637187854e-02  1.251508586609654e-17
-1.899638108265176e+00 -6.601917145454339e-02  3.448464911022200e-17
-7.727819505566306e+00 -1.287673989752552e-01  1.388488044290619e-16
-9.203587069237708e-01  8.305238447387517e-02  1.552554795563104e-17
-2.028742584316236e+00 -1.722200725316807e-01  3.787339294757544e-17
-9.396514813178046e+00  6.270261241829787e-01  1.607797240204921e-16
 1.034237552140023e+01  2.246918569419447e-01 -1.863635364395154e-16
-1.631453928626065e+01  3.985501629475258e-02  2.899271915254317e-16
 6.773123688820597e-01 -5.269195663075886e-02 -1.151219079027040e-17
-2.128873974057764e+01 -1.049604903048238e+00  3.896428269023767e-16
 7.013912350177495e+00 -9.658032646083704e-01 -1.148976590712862e-16
-1.305500722712794e+01 -2.699969442639843e+00  2.600706314096758e-16
 6.972813398642546e+00 -1.532881959389155e+00 -1.083397266136468e-16
-3.517392298170092e+00 -6.870693908078898e+00  1.331900753657468e-16
 1.703826237897874e+00  1.674991787240927e-01 -3.204261347844508e-17
 2.362311897344676e+00  1.741004346582896e-02 -4.221903993506494e-17
 4.678592597692553e+00 -2.017716899616330e+00 -6.252982794171117e-17
 4.567863476574352e+00  1.112430188279987e+00 -9.272039541480931e-17
-1.321622291268536e+00  4.025594465649249e-01  1.938369310393406e-17
 2.405845486425606e+00  2.030712059123638e-01 -4.490137309808172e-17
-1.581796005123843e+00  2.054350192065842e-01  2.603917654658377e-17
 2.599974943594753e+00  3.877376586791773e-01 -5.025351908100302e-17
-2.148958990031296e+00  1.559481623628484e-01  3.664097788876431e-17
 2.800148568542210e+00  3.781891491221742e-01 -5.371774002437658e-17
-1.922523421295887e+00  2.504133969845678e-02  3.395630687532348e-17
 1.108729639066881e+00  4.159016731913755e-02 -2.015849033780438e-17
-4.759875066883260e+00 -2.348576183857120e-01  8.712073124652294e-17
-3.230175610019187e+01 -3.960615958363420e+00  6.155421709321297e-16
-3.742917064129047e+00  2.416337151537320e-01  6.412697521870363e-17
 1.619211172648319e+00  6.756023141716160e-02 -2.950995113036315e-17
-3.772220922440882e+00  3.324919712157888e-01  6.371493665096543e-17
 4.660367999161413e-01  1.943992829394239e-02 -8.493418963291351e-18
-5.079265683387968e+00  3.157448647038624e-01  8.714742778505679e-17
 1.913051994704855e+00 -4.392401638754850e-02 -3.359373890552241e-17
-9.636750247182096e+00  4.264303699604535e-01  1.671160486438323e-16
-1.856486793787010e+01  3.738125771920608e+00  2.919760856525838e-16
 2.563351618839402e+01 -2.452474903746700e+00 -4.309807086153179e-16
-6.147653561866182e+00 -1.963637840443427e+00  1.295804937666866e-16
VECTORS SF_force double
0.000000000000000e+00 0.000000000000000e+00 0.000000000000000e+00
0.000000000000000e+00 0.000000000000000e+00 0.000000000000000e+00
0.000000000000000e+00 0.000000000000000e+00 0.000000000000000e+00
0.000000000000000e+00 0.000000000000000e+00 0.000000000000000e+00
0.000000000000000e+00 0.000000000000000e+00 0.000000000000000e+00
0.000000000000000e+00 0.000000000000000e+00 0.000000000000000e+00
0.000000000000000e+00 0.000000000000000e+00 0.000000000000000e+00
0.000000000000000e+00 0.000000000000000e+00 0.000000000000000e+00
0.000000000000000e+00 0.000000000000000e+00 0.000000000000000e+00
0.000000000000000e+00 0.000000000000000e+00 0.000000000000000e+00
0.000000000000000e+00 0.000000000000000e+00 0.000000000000000e+00
0.000000000000000e+00 0.000000000000000e+00 0.000000000000000e+00
0.000000000000000e+00 0.000000000000000e+00 0.000000000000000e+00
0.000000000000000e+00 0.000000000000000e+00 0.000000000000000e+00
0.000000000000000e+00 0.000000000000000e+00 0.000000000000000e+00
0.000000000000000e+00 0.000000000000000e+00 0.000000000000000e+00
0.000000000000000e+00 0.000000000000000e+00 0.000000000000000e+00
0.000000000000000e+00 0.000000000000000e+00 0.000000000000000e+00
0.000000000000000e+00 0.000000000000000e+00 0.000000000000000e+00
0.000000000000000e+00 0.000000000000000e+00 0.000000000000000e+00
0.000000000000000e+00 0.000000000000000e+00 0.000000000000000e+00
0.000000000000000e+00 0.000000000000000e+00 0.000000000000000e+00
0.000000000000000e+00 0.000000000000000e+00 0.000000000000000e+00
0.000000000000000e+00 0.000000000000000e+00 0.000000000000000e+00
0.000000000000000e+00 0.000000000000000e+00 0.000000000000000e+00
0.000000000000000e+00 0.000000000000000e+00 0.000000000000000e+00
0.000000000000000e+00 0.000000000000000e+00 0.000000000000000e+00
0.000000000000000e+00 0.000000000000000e+00 0.000000000000000e+00
0.000000000000000e+00 0.000000000000000e+00 0.000000000000000e+00
0.000000000000000e+00 0.000000000000000e+00 0.000000000000000e+00
0.000000000000000e+00 0.000000000000000e+00 0.000000000000000e+00
0.000000000000000e+00 0.000000000000000e+00 0.000000000000000e+00
0.000000000000000e+00 0.000000000000000e+00 0.000000000000000e+00
0.000000000000000e+00 0.000000000000000e+00 0.000000000000000e+00
0.000000000000000e+00 0.000000000000000e+00 0.000000000000000e+00
0.000000000000000e+00 0.000000000000000e+00 0.000000000000000e+00
0.000000000000000e+00 0.000000000000000e+00 0.000000000000000e+00
0.000000000000000e+00 0.000000000000000e+00 0.000000000000000e+00
0.000000000000000e+00 0.000000000000000e+00 0.000000000000000e+00
0.000000000000000e+00 0.000000000000000e+00 0.000000000000000e+00
0.000000000000000e+00 0.000000000000000e+00 0.000000000000000e+00
0.000000000000000e+00 0.000000000000000e+00 0.000000000000000e+00
0.000000000000000e+00 0.000000000000000e+00 0.000000000000000e+00
0.000000000000000e+00 0.000000000000000e+00 0.000000000000000e+00
0.000000000000000e+00 0.000000000000000e+00 0.000000000000000e+00
0.000000000000000e+00 0.000000000000000e+00 0.000000000000000e+00
0.000000000000000e+00 0.000000000000000e+00 0.000000000000000e+00
0.000000000000000e+00 0.000000000000000e+00 0.000000000000000e+00
0.000000000000000e+00 0.000000000000000e+00 0.000000000000000e+00
0.000000000000000e+00 0.000000000000000e+00 0.000000000000000e+00
0.000000000000000e+00 0.000000000000000e+00 0.000000000000000e+00
0.000000000000000e+00 0.000000000000000e+00 0.000000000000000e+00
0.000000000000000e+00 0.000000000000000e+00 0.000000000000000e+00
0.000000000000000e+00 0.000000000000000e+00 0.000000000000000e+00
0.000000000000000e+00 0.000000000000000e+00 0.000000000000000e+00
0.000000000000000e+00 0.000000000000000e+00 0.000000000000000e+00
0.000000000000000e+00 0.000000000000000e+00 0.000000000000000e+00
0.000000000000000e+00 0.000000000000000e+00 0.000000000000000e+00
0.000000000000000e+00 0.000000000000000e+00 0.000000000000000e+00
0.000000000000000e+00 0.000000000000000e+00 0.000000000000000e+00
0.000000000000000e+00 0.000000000000000e+00 0.000000000000000e+00
0.000000000000000e+00 0.000000000000000e+00 0.000000000000000e+00
0.000000000000000e+00 0.000000000000000e+00 0.000000000000000e+00
0.000000000000000e+00 0.000000000000000e+00 0.000000000000000e+00
0.000000000000000e+00 0.000000000000000e+00 0.000000000000000e+00
0.000000000000000e+00 0.000000000000000e+00 0.000000000000000e+00
0.000000000000000e+00 0.000000000000000e+00 0.000000000000000e+00
0.000000000000000e+00 0.000000000000000e+00 0.000000000000000e+00
0.000000000000000e+00 0.000000000000000e+00 0.000000000000000e+00
0.000000000000000e+00 0.000000000000000e+00 0.000000000000000e+00
0.000000000000000e+00 0.000000000000000e+00 0.000000000000000e+00
0.000000000000000e+00 0.000000000000000e+00 0.000000000000000e+00
0.000000000000000e+00 0.000000000000000e+00 0.000000000000000e+00
0.000000000000000e+00 0.000000000000000e+00 0.000000000000000e+00
0.000000000000000e+00 0.000000000000000e+00 0.000000000000000e+00
0.000000000000000e+00 0.000000000000000e+00 0.000000000000000e+00
0.000000000000000e+00 0.000000000000000e+00 0.000000000000000e+00
0.000000000000000e+00 0.000000000000000e+00 0.000000000000000e+00
0.000000000000000e+00 0.000000000000000e+00 0.000000000000000e+00
0.000000000000000e+00 0.000000000000000e+00 0.000000000000000e+00
0.000000000000000e+00 0.000000000000000e+00 0.000000000000000e+00
0.000000000000000e+00 0.000000000000000e+00 0.000000000000000e+00
0.000000000000000e+00 0.000000000000000e+00 0.000000000000000e+00
0.000000000000000e+00 0.000000000000000e+00 0.000000000000000e+00
0.000000000000000e+00 0.000000000000000e+00 0.000000000000000e+00
0.000000000000000e+00 0.000000000000000e+00 0.000000000000000e+00
0.000000000000000e+00 0.000000000000000e+00 0.000000000000000e+00
0.000000000000000e+00 0.000000000000000e+00 0.000000000000000e+00
0.000000000000000e+00 0.000000000000000e+00 0.000000000000000e+00
0.000000000000000e+00 0.000000000000000e+00 0.000000000000000e+00
0.000000000000000e+00 0.000000000000000e+00 0.000000000000000e+00
0.000000000000000e+00 0.000000000000000e+00 0.000000000000000e+00
0.000000000000000e+00 0.000000000000000e+00 0.000000000000000e+00
0.000000000000000e+00 0.000000000000000e+00 0.000000000000000e+00
0.000000000000000e+00 0.000000000000000e+00 0.000000000000000e+00
0.000000000000000e+00 0.000000000000000e+00 0.000000000000000e+00
0.000000000000000e+00 0.000000000000000e+00 0.000000000000000e+00
0.000000000000000e+00 0.000000000000000e+00 0.000000000000000e+00
0.000000000000000e+00 0.000000000000000e+00 0.000000000000000e+00
0.000000000000000e+00 0.000000000000000e+00 0.000000000000000e+00
0.000000000000000e+00 0.000000000000000e+00 0.000000000000000e+00
0.000000000000000e+00 0.000000000000000e+00 0.000000000000000e+00
0.000000000000000e+00 0.000000000000000e+00 0.000000000000000e+00
0.000000000000000e+00 0.000000000000000e+00 0.000000000000000e+00
0.000000000000000e+00 0.000000000000000e+00 0.000000000000000e+00
0.000000000000000e+00 0.000000000000000e+00 0.000000000000000e+00
0.000000000000000e+00 0.000000000000000e+00 0.000000000000000e+00
0.000000000000000e+00 0.000000000000000e+00 0.000000000000000e+00
0.000000000000000e+00 0.000000000000000e+00 0.000000000000000e+00
0.000000000000000e+00 0.000000000000000e+00 0.000000000000000e+00
0.000000000000000e+00 0.000000000000000e+00 0.000000000000000e+00
0.000000000000000e+00 0.000000000000000e+00 0.000000000000000e+00
0.000000000000000e+00 0.000000000000000e+00 0.000000000000000e+00
0.000000000000000e+00 0.000000000000000e+00 0.000000000000000e+00
0.000000000000000e+00 0.000000000000000e+00 0.000000000000000e+00
0.000000000000000e+00 0.000000000000000e+00 0.000000000000000e+00
0.000000000000000e+00 0.000000000000000e+00 0.000000000000000e+00
0.000000000000000e+00 0.000000000000000e+00 0.000000000000000e+00
0.000000000000000e+00 0.000000000000000e+00 0.000000000000000e+00
0.000000000000000e+00 0.000000000000000e+00 0.000000000000000e+00
0.000000000000000e+00 0.000000000000000e+00 0.000000000000000e+00
0.000000000000000e+00 0.000000000000000e+00 0.000000000000000e+00
0.000000000000000e+00 0.000000000000000e+00 0.000000000000000e+00
0.000000000000000e+00 0.000000000000000e+00 0.000000000000000e+00
0.000000000000000e+00 0.000000000000000e+00 0.000000000000000e+00
0.000000000000000e+00 0.000000000000000e+00 0.000000000000000e+00
0.000000000000000e+00 0.000000000000000e+00 0.000000000000000e+00
0.000000000000000e+00 0.000000000000000e+00 0.000000000000000e+00
0.000000000000000e+00 0.000000000000000e+00 0.000000000000000e+00
0.000000000000000e+00 0.000000000000000e+00 0.000000000000000e+00
0.000000000000000e+00 0.000000000000000e+00 0.000000000000000e+00
0.000000000000000e+00 0.000000000000000e+00 0.000000000000000e+00
0.000000000000000e+00 0.000000000000000e+00 0.000000000000000e+00
0.000000000000000e+00 0.000000000000000e+00 0.000000000000000e+00
0.000000000000000e+00 0.000000000000000e+00 0.000000000000000e+00
0.000000000000000e+00 0.000000000000000e+00 0.000000000000000e+00
0.000000000000000e+00 0.000000000000000e+00 0.000000000000000e+00
0.000000000000000e+00 0.000000000000000e+00 0.000000000000000e+00
0.000000000000000e+00 0.000000000000000e+00 0.000000000000000e+00
0.000000000000000e+00 0.000000000000000e+00 0.000000000000000e+00
0.000000000000000e+00 0.000000000000000e+00 0.000000000000000e+00
0.000000000000000e+00 0.000000000000000e+00 0.000000000000000e+00
0.000000000000000e+00 0.000000000000000e+00 0.000000000000000e+00
0.000000000000000e+00 0.000000000000000e+00 0.000000000000000e+00
0.000000000000000e+00 0.000000000000000e+00 0.000000000000000e+00
0.000000000000000e+00 0.000000000000000e+00 0.000000000000000e+00
0.000000000000000e+00 0.000000000000000e+00 0.000000000000000e+00
0.000000000000000e+00 0.000000000000000e+00 0.000000000000000e+00
0.000000000000000e+00 0.000000000000000e+00 0.000000000000000e+00
0.000000000000000e+00 0.000000000000000e+00 0.000000000000000e+00
0.000000000000000e+00 0.000000000000000e+00 0.000000000000000e+00
0.000000000000000e+00 0.000000000000000e+00 0.000000000000000e+00
0.000000000000000e+00 0.000000000000000e+00 0.000000000000000e+00
0.000000000000000e+00 0.000000000000000e+00 0.000000000000000e+00
0.000000000000000e+00 0.000000000000000e+00 0.000000000000000e+00
0.000000000000000e+00 0.000000000000000e+00 0.000000000000000e+00
0.000000000000000e+00 0.000000000000000e+00 0.000000000000000e+00
0.000000000000000e+00 0.000000000000000e+00 0.000000000000000e+00
0.000000000000000e+00 0.000000000000000e+00 0.000000000000000e+00
0.000000000000000e+00 0.000000000000000e+00 0.000000000000000e+00
0.000000000000000e+00 0.000000000000000e+00 0.000000000000000e+00
0.000000000000000e+00 0.000000000000000e+00 0.000000000000000e+00
0.000000000000000e+00 0.000000000000000e+00 0.000000000000000e+00
0.000000000000000e+00 0.000000000000000e+00 0.000000000000000e+00
0.000000000000000e+00 0.000000000000000e+00 0.000000000000000e+00
0.000000000000000e+00 0.000000000000000e+00 0.000000000000000e+00
0.000000000000000e+00 0.000000000000000e+00 0.000000000000000e+00
0.000000000000000e+00 0.000000000000000e+00 0.000000000000000e+00
0.000000000000000e+00 0.000000000000000e+00 0.000000000000000e+00
0.000000000000000e+00 0.000000000000000e+00 0.000000000000000e+00
0.000000000000000e+00 0.000000000000000e+00 0.000000000000000e+00
0.000000000000000e+00 0.000000000000000e+00 0.000000000000000e+00
0.000000000000000e+00 0.000000000000000e+00 0.000000000000000e+00
0.000000000000000e+00 0.000000000000000e+00 0.000000000000000e+00
0.000000000000000e+00 0.000000000000000e+00 0.000000000000000e+00
0.000000000000000e+00 0.000000000000000e+00 0.000000000000000e+00
0.000000000000000e+00 0.000000000000000e+00 0.000000000000000e+00
0.000000000000000e+00 0.000000000000000e+00 0.000000000000000e+00
0.000000000000000e+00 0.000000000000000e+00 0.000000000000000e+00
0.000000000000000e+00 0.000000000000000e+00 0.000000000000000e+00
0.000000000000000e+00 0.000000000000000e+00 0.000000000000000e+00
0.000000000000000e+00 0.000000000000000e+00 0.000000000000000e+00
0.000000000000000e+00 0.000000000000000e+00 0.000000000000000e+00
0.000000000000000e+00 0.000000000000000e+00 0.000000000000000e+00
0.000000000000000e+00 0.000000000000000e+00 0.000000000000000e+00
0.000000000000000e+00 0.000000000000000e+00 0.000000000000000e+00
0.000000000000000e+00 0.000000000000000e+00 0.000000000000000e+00
0.000000000000000e+00 0.000000000000000e+00 0.000000000000000e+00
0.000000000000000e+00 0.000000000000000e+00 0.000000000000000e+00
0.000000000000000e+00 0.000000000000000e+00 0.000000000000000e+00
0.000000000000000e+00 0.000000000000000e+00 0.000000000000000e+00
0.000000000000000e+00 0.000000000000000e+00 0.000000000000000e+00
0.000000000000000e+00 0.000000000000000e+00 0.000000000000000e+00
0.000000000000000e+00 0.000000000000000e+00 0.000000000000000e+00
0.000000000000000e+00 0.000000000000000e+00 0.000000000000000e+00
0.000000000000000e+00 0.000000000000000e+00 0.000000000000000e+00
0.000000000000000e+00 0.000000000000000e+00 0.000000000000000e+00
0.000000000000000e+00 0.000000000000000e+00 0.000000000000000e+00
0.000000000000000e+00 0.000000000000000e+00 0.000000000000000e+00
0.000000000000000e+00 0.000000000000000e+00 0.000000000000000e+00
0.000000000000000e+00 0.000000000000000e+00 0.000000000000000e+00
0.000000000000000e+00 0.000000000000000e+00 0.000000000000000e+00
0.000000000000000e+00 0.000000000000000e+00 0.000000000000000e+00
0.000000000000000e+00 0.000000000000000e+00 0.000000000000000e+00
0.000000000000000e+00 0.000000000000000e+00 0.000000000000000e+00
0.000000000000000e+00 0.000000000000000e+00 0.000000000000000e+00
0.000000000000000e+00 0.000000000000000e+00 0.000000000000000e+00
0.000000000000000e+00 0.000000000000000e+00 0.000000000000000e+00
0.000000000000000e+00 0.000000000000000e+00 0.000000000000000e+00
0.000000000000000e+00 0.000000000000000e+00 0.000000000000000e+00
0.000000000000000e+00 0.000000000000000e+00 0.000000000000000e+00
0.000000000000000e+00 0.000000000000000e+00 0.000000000000000e+00
0.000000000000000e+00 0.000000000000000e+00 0.000000000000000e+00
0.000000000000000e+00 0.000000000000000e+00 0.000000000000000e+00
0.000000000000000e+00 0.000000000000000e+00 0.000000000000000e+00
0.000000000000000e+00 0.000000000000000e+00 0.000000000000000e+00
0.000000000000000e+00 0.000000000000000e+00 0.000000000000000e+00
0.000000000000000e+00 0.000000000000000e+00 0.000000000000000e+00
0.000000000000000e+00 0.000000000000000e+00 0.000000000000000e+00
0.000000000000000e+00 0.000000000000000e+00 0.000000000000000e+00
0.000000000000000e+00 0.000000000000000e+00 0.000000000000000e+00
0.000000000000000e+00 0.000000000000000e+00 0.000000000000000e+00
0.000000000000000e+00 0.000000000000000e+00 0.000000000000000e+00
0.000000000000000e+00 0.000000000000000e+00 0.000000000000000e+00
0.000000000000000e+00 0.000000000000000e+00 0.000000000000000e+00
0.000000000000000e+00 0.000000000000000e+00 0.000000000000000e+00
0.000000000000000e+00 0.000000000000000e+00 0.000000000000000e+00
0.000000000000000e+00 0.000000000000000e+00 0.000000000000000e+00
0.000000000000000e+00 0.000000000000000e+00 0.000000000000000e+00
0.000000000000000e+00 0.000000000000000e+00 0.000000000000000e+00
0.000000000000000e+00 0.000000000000000e+00 0.000000000000000e+00
0.000000000000000e+00 0.000000000000000e+00 0.000000000000000e+00
0.000000000000000e+00 0.000000000000000e+00 0.000000000000000e+00
0.000000000000000e+00 0.000000000000000e+00 0.000000000000000e+00
0.000000000000000e+00 0.000000000000000e+00 0.000000000000000e+00
0.000000000000000e+00 0.000000000000000e+00 0.000000000000000e+00
0.000000000000000e+00 0.000000000000000e+00 0.000000000000000e+00
0.000000000000000e+00 0.000000000000000e+00 0.000000000000000e+00
0.000000000000000e+00 0.000000000000000e+00 0.000000000000000e+00
0.000000000000000e+00 0.000000000000000e+00 0.000000000000000e+00
0.000000000000000e+00 0.000000000000000e+00 0.000000000000000e+00
0.000000000000000e+00 0.000000000000000e+00 0.000000000000000e+00
0.000000000000000e+00 0.000000000000000e+00 0.000000000000000e+00
0.000000000000000e+00 0.000000000000000e+00 0.000000000000000e+00
0.000000000000000e+00 0.000000000000000e+00 0.000000000000000e+00
0.000000000000000e+00 0.000000000000000e+00 0.000000000000000e+00
0.000000000000000e+00 0.000000000000000e+00 0.000000000000000e+00
0.000000000000000e+00 0.000000000000000e+00 0.000000000000000e+00
0.000000000000000e+00 0.000000000000000e+00 0.000000000000000e+00
0.000000000000000e+00 0.000000000000000e+00 0.000000000000000e+00
0.000000000000000e+00 0.000000000000000e+00 0.000000000000000e+00
0.000000000000000e+00 0.000000000000000e+00 0.000000000000000e+00
0.000000000000000e+00 0.000000000000000e+00 0.000000000000000e+00
0.000000000000000e+00 0.000000000000000e+00 0.000000000000000e+00
0.000000000000000e+00 0.000000000000000e+00 0.000000000000000e+00
0.000000000000000e+00 0.000000000000000e+00 0.000000000000000e+00
0.000000000000000e+00 0.000000000000000e+00 0.000000000000000e+00
0.000000000000000e+00 0.000000000000000e+00 0.000000000000000e+00
0.000000000000000e+00 0.000000000000000e+00 0.000000000000000e+00
0.000000000000000e+00 0.000000000000000e+00 0.000000000000000e+00
0.000000000000000e+00 0.000000000000000e+00 0.000000000000000e+00
0.000000000000000e+00 0.000000000000000e+00 0.000000000000000e+00
0.000000000000000e+00 0.000000000000000e+00 0.000000000000000e+00
0.000000000000000e+00 0.000000000000000e+00 0.000000000000000e+00
0.000000000000000e+00 0.000000000000000e+00 0.000000000000000e+00
0.000000000000000e+00 0.000000000000000e+00 0.000000000000000e+00
0.000000000000000e+00 0.000000000000000e+00 0.000000000000000e+00
0.000000000000000e+00 0.000000000000000e+00 0.000000000000000e+00
0.000000000000000e+00 0.000000000000000e+00 0.000000000000000e+00
0.000000000000000e+00 0.000000000000000e+00 0.000000000000000e+00
0.000000000000000e+00 0.000000000000000e+00 0.000000000000000e+00
0.000000000000000e+00 0.000000000000000e+00 0.000000000000000e+00
0.000000000000000e+00 0.000000000000000e+00 0.000000000000000e+00
0.000000000000000e+00 0.000000000000000e+00 0.000000000000000e+00
0.000000000000000e+00 0.000000000000000e+00 0.000000000000000e+00
0.000000000000000e+00 0.000000000000000e+00 0.000000000000000e+00
0.000000000000000e+00 0.000000000000000e+00 0.000000000000000e+00
0.000000000000000e+00 0.000000000000000e+00 0.000000000000000e+00
0.000000000000000e+00 0.000000000000000e+00 0.000000000000000e+00
0.000000000000000e+00 0.000000000000000e+00 0.000000000000000e+00
0.000000000000000e+00 0.000000000000000e+00 0.000000000000000e+00
0.000000000000000e+00 0.000000000000000e+00 0.000000000000000e+00
0.000000000000000e+00 0.000000000000000e+00 0.000000000000000e+00
0.000000000000000e+00 0.000000000000000e+00 0.000000000000000e+00
0.000000000000000e+00 0.000000000000000e+00 0.000000000000000e+00
0.000000000000000e+00 0.000000000000000e+00 0.000000000000000e+00
0.000000000000000e+00 0.000000000000000e+00 0.000000000000000e+00
0.000000000000000e+00 0.000000000000000e+00 0.000000000000000e+00
0.000000000000000e+00 0.000000000000000e+00 0.000000000000000e+00
0.000000000000000e+00 0.000000000000000e+00 0.000000000000000e+00
0.000000000000000e+00 0.000000000000000e+00 0.000000000000000e+00
0.000000000000000e+00 0.000000000000000e+00 0.000000000000000e+00
0.000000000000000e+00 0.000000000000000e+00 0.000000000000000e+00
0.000000000000000e+00 0.000000000000000e+00 0.000000000000000e+00
0.000000000000000e+00 0.000000000000000e+00 0.000000000000000e+00
0.000000000000000e+00 0.000000000000000e+00 0.000000000000000e+00
0.000000000000000e+00 0.000000000000000e+00 0.000000000000000e+00
0.000000000000000e+00 0.000000000000000e+00 0.000000000000000e+00
0.000000000000000e+00 0.000000000000000e+00 0.000000000000000e+00
0.000000000000000e+00 0.000000000000000e+00 0.000000000000000e+00
0.000000000000000e+00 0.000000000000000e+00 0.000000000000000e+00
0.000000000000000e+00 0.000000000000000e+00 0.000000000000000e+00
0.000000000000000e+00 0.000000000000000e+00 0.000000000000000e+00
0.000000000000000e+00 0.000000000000000e+00 0.000000000000000e+00
0.000000000000000e+00 0.000000000000000e+00 0.000000000000000e+00
0.000000000000000e+00 0.000000000000000e+00 0.000000000000000e+00
0.000000000000000e+00 0.000000000000000e+00 0.000000000000000e+00
0.000000000000000e+00 0.000000000000000e+00 0.000000000000000e+00
0.000000000000000e+00 0.000000000000000e+00 0.000000000000000e+00
0.000000000000000e+00 0.000000000000000e+00 0.000000000000000e+00
0.000000000000000e+00 0.000000000000000e+00 0.000000000000000e+00
0.000000000000000e+00 0.000000000000000e+00 0.000000000000000e+00
0.000000000000000e+00 0.000000000000000e+00 0.000000000000000e+00
0.000000000000000e+00 0.000000000000000e+00 0.000000000000000e+00
0.000000000000000e+00 0.000000000000000e+00 0.000000000000000e+00
0.000000000000000e+00 0.000000000000000e+00 0.000000000000000e+00
0.000000000000000e+00 0.000000000000000e+00 0.000000000000000e+00
0.000000000000000e+00 0.000000000000000e+00 0.000000000000000e+00
0.000000000000000e+00 0.000000000000000e+00 0.000000000000000e+00
0.000000000000000e+00 0.000000000000000e+00 0.000000000000000e+00
0.000000000000000e+00 0.000000000000000e+00 0.000000000000000e+00
0.000000000000000e+00 0.000000000000000e+00 0.000000000000000e+00
0.000000000000000e+00 0.000000000000000e+00 0.000000000000000e+00
0.000000000000000e+00 0.000000000000000e+00 0.000000000000000e+00
0.000000000000000e+00 0.000000000000000e+00 0.000000000000000e+00
0.000000000000000e+00 0.000000000000000e+00 0.000000000000000e+00
0.000000000000000e+00 0.000000000000000e+00 0.000000000000000e+00
0.000000000000000e+00 0.000000000000000e+00 0.000000000000000e+00
0.000000000000000e+00 0.000000000000000e+00 0.000000000000000e+00
0.000000000000000e+00 0.000000000000000e+00 0.000000000000000e+00
0.000000000000000e+00 0.000000000000000e+00 0.000000000000000e+00
0.000000000000000e+00 0.000000000000000e+00 0.000000000000000e+00
0.000000000000000e+00 0.000000000000000e+00 0.000000000000000e+00
0.000000000000000e+00 0.000000000000000e+00 0.000000000000000e+00
0.000000000000000e+00 0.000000000000000e+00 0.000000000000000e+00
0.000000000000000e+00 0.000000000000000e+00 0.000000000000000e+00
0.000000000000000e+00 0.000000000000000e+00 0.000000000000000e+00
0.000000000000000e+00 0.000000000000000e+00 0.000000000000000e+00
0.000000000000000e+00 0.000000000000000e+00 0.000000000000000e+00
0.000000000000000e+00 0.000000000000000e+00 0.000000000000000e+00
0.000000000000000e+00 0.000000000000000e+00 0.000000000000000e+00
0.000000000000000e+00 0.000000000000000e+00 0.000000000000000e+00
0.000000000000000e+00 0.000000000000000e+00 0.000000000000000e+00
0.000000000000000e+00 0.000000000000000e+00 0.000000000000000e+00
0.000000000000000e+00 0.000000000000000e+00 0.000000000000000e+00
0.000000000000000e+00 0.000000000000000e+00 0.000000000000000e+00
0.000000000000000e+00 0.000000000000000e+00 0.000000000000000e+00
0.000000000000000e+00 0.000000000000000e+00 0.000000000000000e+00
0.000000000000000e+00 0.000000000000000e+00 0.000000000000000e+00
0.000000000000000e+00 0.000000000000000e+00 0.000000000000000e+00
0.000000000000000e+00 0.000000000000000e+00 0.000000000000000e+00
0.000000000000000e+00 0.000000000000000e+00 0.000000000000000e+00
0.000000000000000e+00 0.000000000000000e+00 0.000000000000000e+00
0.000000000000000e+00 0.000000000000000e+00 0.000000000000000e+00
0.000000000000000e+00 0.000000000000000e+00 0.000000000000000e+00
0.000000000000000e+00 0.000000000000000e+00 0.000000000000000e+00
0.000000000000000e+00 0.000000000000000e+00 0.000000000000000e+00
0.000000000000000e+00 0.000000000000000e+00 0.000000000000000e+00
0.000000000000000e+00 0.000000000000000e+00 0.000000000000000e+00
0.000000000000000e+00 0.000000000000000e+00 0.000000000000000e+00
0.000000000000000e+00 0.000000000000000e+00 0.000000000000000e+00
0.000000000000000e+00 0.000000000000000e+00 0.000000000000000e+00
0.000000000000000e+00 0.000000000000000e+00 0.000000000000000e+00
0.000000000000000e+00 0.000000000000000e+00 0.000000000000000e+00
0.000000000000000e+00 0.000000000000000e+00 0.000000000000000e+00
0.000000000000000e+00 0.000000000000000e+00 0.000000000000000e+00
0.000000000000000e+00 0.000000000000000e+00 0.000000000000000e+00
0.000000000000000e+00 0.000000000000000e+00 0.000000000000000e+00
0.000000000000000e+00 0.000000000000000e+00 0.000000000000000e+00
0.000000000000000e+00 0.000000000000000e+00 0.000000000000000e+00
0.000000000000000e+00 0.000000000000000e+00 0.000000000000000e+00
0.000000000000000e+00 0.000000000000000e+00 0.000000000000000e+00
0.000000000000000e+00 0.000000000000000e+00 0.000000000000000e+00
0.000000000000000e+00 0.000000000000000e+00 0.000000000000000e+00
0.000000000000000e+00 0.000000000000000e+00 0.000000000000000e+00
0.000000000000000e+00 0.000000000000000e+00 0.000000000000000e+00
0.000000000000000e+00 0.000000000000000e+00 0.000000000000000e+00
0.000000000000000e+00 0.000000000000000e+00 0.000000000000000e+00
0.000000000000000e+00 0.000000000000000e+00 0.000000000000000e+00
0.000000000000000e+00 0.000000000000000e+00 0.000000000000000e+00
0.000000000000000e+00 0.000000000000000e+00 0.000000000000000e+00
0.000000000000000e+00 0.000000000000000e+00 0.000000000000000e+00
0.000000000000000e+00 0.000000000000000e+00 0.000000000000000e+00
0.000000000000000e+00 0.000000000000000e+00 0.000000000000000e+00
0.000000000000000e+00 0.000000000000000e+00 0.000000000000000e+00
0.000000000000000e+00 0.000000000000000e+00 0.000000000000000e+00
0.000000000000000e+00 0.000000000000000e+00 0.000000000000000e+00
0.000000000000000e+00 0.000000000000000e+00 0.000000000000000e+00
0.000000000000000e+00 0.000000000000000e+00 0.000000000000000e+00
0.000000000000000e+00 0.000000000000000e+00 0.000000000000000e+00
0.000000000000000e+00 0.000000000000000e+00 0.000000000000000e+00
0.000000000000000e+00 0.000000000000000e+00 0.000000000000000e+00
0.000000000000000e+00 0.000000000000000e+00 0.000000000000000e+00
0.000000000000000e+00 0.000000000000000e+00 0.000000000000000e+00
0.000000000000000e+00 0.000000000000000e+00 0.000000000000000e+00
0.000000000000000e+00 0.000000000000000e+00 0.000000000000000e+00
0.000000000000000e+00 0.000000000000000e+00 0.000000000000000e+00
0.000000000000000e+00 0.000000000000000e+00 0.000000000000000e+00
0.000000000000000e+00 0.000000000000000e+00 0.000000000000000e+00
0.000000000000000e+00 0.000000000000000e+00 0.000000000000000e+00
0.000000000000000e+00 0.000000000000000e+00 0.000000000000000e+00
0.000000000000000e+00 0.000000000000000e+00 0.000000000000000e+00
0.000000000000000e+00 0.000000000000000e+00 0.000000000000000e+00
0.000000000000000e+00 0.000000000000000e+00 0.000000000000000e+00
0.000000000000000e+00 0.000000000000000e+00 0.000000000000000e+00
0.000000000000000e+00 0.000000000000000e+00 0.000000000000000e+00
0.000000000000000e+00 0.000000000000000e+00 0.000000000000000e+00
0.000000000000000e+00 0.000000000000000e+00 0.000000000000000e+00
0.000000000000000e+00 0.000000000000000e+00 0.000000000000000e+00
0.000000000000000e+00 0.000000000000000e+00 0.000000000000000e+00
0.000000000000000e+00 0.000000000000000e+00 0.000000000000000e+00
0.000000000000000e+00 0.000000000000000e+00 0.000000000000000e+00
0.000000000000000e+00 0.000000000000000e+00 0.000000000000000e+00
0.000000000000000e+00 0.000000000000000e+00 0.000000000000000e+00
0.000000000000000e+00 0.000000000000000e+00 0.000000000000000e+00
0.000000000000000e+00 0.000000000000000e+00 0.000000000000000e+00
0.000000000000000e+00 0.000000000000000e+00 0.000000000000000e+00
0.000000000000000e+00 0.000000000000000e+00 0.000000000000000e+00
0.000000000000000e+00 0.000000000000000e+00 0.000000000000000e+00
0.000000000000000e+00 0.000000000000000e+00 0.000000000000000e+00
0.000000000000000e+00 0.000000000000000e+00 0.000000000000000e+00
0.000000000000000e+00 0.000000000000000e+00 0.000000000000000e+00
0.000000000000000e+00 0.000000000000000e+00 0.000000000000000e+00
0.000000000000000e+00 0.000000000000000e+00 0.000000000000000e+00
0.000000000000000e+00 0.000000000000000e+00 0.000000000000000e+00
0.000000000000000e+00 0.000000000000000e+00 0.000000000000000e+00
0.000000000000000e+00 0.000000000000000e+00 0.000000000000000e+00
0.000000000000000e+00 0.000000000000000e+00 0.000000000000000e+00
0.000000000000000e+00 0.000000000000000e+00 0.000000000000000e+00
0.000000000000000e+00 0.000000000000000e+00 0.000000000000000e+00
0.000000000000000e+00 0.000000000000000e+00 0.000000000000000e+00
0.000000000000000e+00 0.000000000000000e+00 0.000000000000000e+00
0.000000000000000e+00 0.000000000000000e+00 0.000000000000000e+00
0.000000000000000e+00 0.000000000000000e+00 0.000000000000000e+00
0.000000000000000e+00 0.000000000000000e+00 0.000000000000000e+00
0.000000000000000e+00 0.000000000000000e+00 0.000000000000000e+00
0.000000000000000e+00 0.000000000000000e+00 0.000000000000000e+00
0.000000000000000e+00 0.000000000000000e+00 0.000000000000000e+00
0.000000000000000e+00 0.000000000000000e+00 0.000000000000000e+00
0.000000000000000e+00 0.000000000000000e+00 0.000000000000000e+00
0.000000000000000e+00 0.000000000000000e+00 0.000000000000000e+00
0.000000000000000e+00 0.000000000000000e+00 0.000000000000000e+00
0.000000000000000e+00 0.000000000000000e+00 0.000000000000000e+00
0.000000000000000e+00 0.000000000000000e+00 0.000000000000000e+00
0.000000000000000e+00 0.000000000000000e+00 0.000000000000000e+00
0.000000000000000e+00 0.000000000000000e+00 0.000000000000000e+00
0.000000000000000e+00 0.000000000000000e+00 0.000000000000000e+00
0.000000000000000e+00 0.000000000000000e+00 0.000000000000000e+00
0.000000000000000e+00 0.000000000000000e+00 0.000000000000000e+00
0.000000000000000e+00 0.000000000000000e+00 0.000000000000000e+00
0.000000000000000e+00 0.000000000000000e+00 0.000000000000000e+00
0.000000000000000e+00 0.000000000000000e+00 0.000000000000000e+00
0.000000000000000e+00 0.000000000000000e+00 0.000000000000000e+00
0.000000000000000e+00 0.000000000000000e+00 0.000000000000000e+00
0.000000000000000e+00 0.000000000000000e+00 0.000000000000000e+00
0.000000000000000e+00 0.000000000000000e+00 0.000000000000000e+00
0.000000000000000e+00 0.000000000000000e+00 0.000000000000000e+00
0.000000000000000e+00 0.000000000000000e+00 0.000000000000000e+00
0.000000000000000e+00 0.000000000000000e+00 0.000000000000000e+00
0.000000000000000e+00 0.000000000000000e+00 0.000000000000000e+00
0.000000000000000e+00 0.000000000000000e+00 0.000000000000000e+00
0.000000000000000e+00 0.000000000000000e+00 0.000000000000000e+00
0.000000000000000e+00 0.000000000000000e+00 0.000000000000000e+00
0.000000000000000e+00 0.000000000000000e+00 0.000000000000000e+00
0.000000000000000e+00 0.000000000000000e+00 0.000000000000000e+00
0.000000000000000e+00 0.000000000000000e+00 0.000000000000000e+00
0.000000000000000e+00 0.000000000000000e+00 0.000000000000000e+00
0.000000000000000e+00 0.000000000000000e+00 0.000000000000000e+00
0.000000000000000e+00 0.000000000000000e+00 0.000000000000000e+00
0.000000000000000e+00 0.000000000000000e+00 0.000000000000000e+00
0.000000000000000e+00 0.000000000000000e+00 0.000000000000000e+00
0.000000000000000e+00 0.000000000000000e+00 0.000000000000000e+00
0.000000000000000e+00 0.000000000000000e+00 0.000000000000000e+00
0.000000000000000e+00 0.000000000000000e+00 0.000000000000000e+00
0.000000000000000e+00 0.000000000000000e+00 0.000000000000000e+00
0.000000000000000e+00 0.000000000000000e+00 0.000000000000000e+00
0.000000000000000e+00 0.000000000000000e+00 0.000000000000000e+00
0.000000000000000e+00 0.000000000000000e+00 0.000000000000000e+00
0.000000000000000e+00 0.000000000000000e+00 0.000000000000000e+00
0.000000000000000e+00 0.000000000000000e+00 0.000000000000000e+00
0.000000000000000e+00 0.000000000000000e+00 0.000000000000000e+00
0.000000000000000e+00 0.000000000000000e+00 0.000000000000000e+00
0.000000000000000e+00 0.000000000000000e+00 0.000000000000000e+00
0.000000000000000e+00 0.000000000000000e+00 0.000000000000000e+00
0.000000000000000e+00 0.000000000000000e+00 0.000000000000000e+00
0.000000000000000e+00 0.000000000000000e+00 0.000000000000000e+00
0.000000000000000e+00 0.000000000000000e+00 0.000000000000000e+00
0.000000000000000e+00 0.000000000000000e+00 0.000000000000000e+00
0.000000000000000e+00 0.000000000000000e+00 0.000000000000000e+00
0.000000000000000e+00 0.000000000000000e+00 0.000000000000000e+00
0.000000000000000e+00 0.000000000000000e+00 0.000000000000000e+00
0.000000000000000e+00 0.000000000000000e+00 0.000000000000000e+00
0.000000000000000e+00 0.000000000000000e+00 0.000000000000000e+00
0.000000000000000e+00 0.000000000000000e+00 0.000000000000000e+00
0.000000000000000e+00 0.000000000000000e+00 0.000000000000000e+00
0.000000000000000e+00 0.000000000000000e+00 0.000000000000000e+00
0.000000000000000e+00 0.000000000000000e+00 0.000000000000000e+00
0.000000000000000e+00 0.000000000000000e+00 0.000000000000000e+00
0.000000000000000e+00 0.000000000000000e+00 0.000000000000000e+00
0.000000000000000e+00 0.000000000000000e+00 0.000000000000000e+00
0.000000000000000e+00 0.000000000000000e+00 0.000000000000000e+00
0.000000000000000e+00 0.000000000000000e+00 0.000000000000000e+00
0.000000000000000e+00 0.000000000000000e+00 0.000000000000000e+00
0.000000000000000e+00 0.000000000000000e+00 0.000000000000000e+00
0.000000000000000e+00 0.000000000000000e+00 0.000000000000000e+00
0.000000000000000e+00 0.000000000000000e+00 0.000000000000000e+00
0.000000000000000e+00 0.000000000000000e+00 0.000000000000000e+00
0.000000000000000e+00 0.000000000000000e+00 0.000000000000000e+00
0.000000000000000e+00 0.000000000000000e+00 0.000000000000000e+00
0.000000000000000e+00 0.000000000000000e+00 0.000000000000000e+00
0.000000000000000e+00 0.000000000000000e+00 0.000000000000000e+00
0.000000000000000e+00 0.000000000000000e+00 0.000000000000000e+00
0.000000000000000e+00 0.000000000000000e+00 0.000000000000000e+00
0.000000000000000e+00 0.000000000000000e+00 0.000000000000000e+00
0.000000000000000e+00 0.000000000000000e+00 0.000000000000000e+00
0.000000000000000e+00 0.000000000000000e+00 0.000000000000000e+00
0.000000000000000e+00 0.000000000000000e+00 0.000000000000000e+00
0.000000000000000e+00 0.000000000000000e+00 0.000000000000000e+00
0.000000000000000e+00 0.000000000000000e+00 0.000000000000000e+00
0.000000000000000e+00 0.000000000000000e+00 0.000000000000000e+00
0.000000000000000e+00 0.000000000000000e+00 0.000000000000000e+00
0.000000000000000e+00 0.000000000000000e+00 0.000000000000000e+00
0.000000000000000e+00 0.000000000000000e+00 0.000000000000000e+00
0.000000000000000e+00 0.000000000000000e+00 0.000000000000000e+00
0.000000000000000e+00 0.000000000000000e+00 0.000000000000000e+00
0.000000000000000e+00 0.000000000000000e+00 0.000000000000000e+00
0.000000000000000e+00 0.000000000000000e+00 0.000000000000000e+00
0.000000000000000e+00 0.000000000000000e+00 0.000000000000000e+00
0.000000000000000e+00 0.000000000000000e+00 0.000000000000000e+00
0.000000000000000e+00 0.000000000000000e+00 0.000000000000000e+00
0.000000000000000e+00 0.000000000000000e+00 0.000000000000000e+00
0.000000000000000e+00 0.000000000000000e+00 0.000000000000000e+00
0.000000000000000e+00 0.000000000000000e+00 0.000000000000000e+00
0.000000000000000e+00 0.000000000000000e+00 0.000000000000000e+00
0.000000000000000e+00 0.000000000000000e+00 0.000000000000000e+00
0.000000000000000e+00 0.000000000000000e+00 0.000000000000000e+00
0.000000000000000e+00 0.000000000000000e+00 0.000000000000000e+00
0.000000000000000e+00 0.000000000000000e+00 0.000000000000000e+00
0.000000000000000e+00 0.000000000000000e+00 0.000000000000000e+00
0.000000000000000e+00 0.000000000000000e+00 0.000000000000000e+00
0.000000000000000e+00 0.000000000000000e+00 0.000000000000000e+00
0.000000000000000e+00 0.000000000000000e+00 0.000000000000000e+00
0.000000000000000e+00 0.000000000000000e+00 0.000000000000000e+00
0.000000000000000e+00 0.000000000000000e+00 0.000000000000000e+00
0.000000000000000e+00 0.000000000000000e+00 0.000000000000000e+00
0.000000000000000e+00 0.000000000000000e+00 0.000000000000000e+00
0.000000000000000e+00 0.000000000000000e+00 0.000000000000000e+00
0.000000000000000e+00 0.000000000000000e+00 0.000000000000000e+00
0.000000000000000e+00 0.000000000000000e+00 0.000000000000000e+00
0.000000000000000e+00 0.000000000000000e+00 0.000000000000000e+00
0.000000000000000e+00 0.000000000000000e+00 0.000000000000000e+00
0.000000000000000e+00 0.000000000000000e+00 0.000000000000000e+00
0.000000000000000e+00 0.000000000000000e+00 0.000000000000000e+00
0.000000000000000e+00 0.000000000000000e+00 0.000000000000000e+00
0.000000000000000e+00 0.000000000000000e+00 0.000000000000000e+00
0.000000000000000e+00 0.000000000000000e+00 0.000000000000000e+00
0.000000000000000e+00 0.000000000000000e+00 0.000000000000000e+00
0.000000000000000e+00 0.000000000000000e+00 0.000000000000000e+00
0.000000000000000e+00 0.000000000000000e+00 0.000000000000000e+00
0.000000000000000e+00 0.000000000000000e+00 0.000000000000000e+00
0.000000000000000e+00 0.000000000000000e+00 0.000000000000000e+00
0.000000000000000e+00 0.000000000000000e+00 0.000000000000000e+00
0.000000000000000e+00 0.000000000000000e+00 0.000000000000000e+00
0.000000000000000e+00 0.000000000000000e+00 0.000000000000000e+00
0.000000000000000e+00 0.000000000000000e+00 0.000000000000000e+00
0.000000000000000e+00 0.000000000000000e+00 0.000000000000000e+00
0.000000000000000e+00 0.000000000000000e+00 0.000000000000000e+00
0.000000000000000e+00 0.000000000000000e+00 0.000000000000000e+00
0.000000000000000e+00 0.000000000000000e+00 0.000000000000000e+00
0.000000000000000e+00 0.000000000000000e+00 0.000000000000000e+00
0.000000000000000e+00 0.000000000000000e+00 0.000000000000000e+00
0.000000000000000e+00 0.000000000000000e+00 0.000000000000000e+00
0.000000000000000e+00 0.000000000000000e+00 0.000000000000000e+00
0.000000000000000e+00 0.000000000000000e+00 0.000000000000000e+00
0.000000000000000e+00 0.000000000000000e+00 0.000000000000000e+00
0.000000000000000e+00 0.000000000000000e+00 0.000000000000000e+00
0.000000000000000e+00 0.000000000000000e+00 0.000000000000000e+00
0.000000000000000e+00 0.000000000000000e+00 0.000000000000000e+00
0.000000000000000e+00 0.000000000000000e+00 0.000000000000000e+00
0.000000000000000e+00 0.000000000000000e+00 0.000000000000000e+00
0.000000000000000e+00 0.000000000000000e+00 0.000000000000000e+00
0.000000000000000e+00 0.000000000000000e+00 0.000000000000000e+00
0.000000000000000e+00 0.000000000000000e+00 0.000000000000000e+00
0.000000000000000e+00 0.000000000000000e+00 0.000000000000000e+00
0.000000000000000e+00 0.000000000000000e+00 0.000000000000000e+00
0.000000000000000e+00 0.000000000000000e+00 0.000000000000000e+00
0.000000000000000e+00 0.000000000000000e+00 0.000000000000000e+00
0.000000000000000e+00 0.000000000000000e+00 0.000000000000000e+00
0.000000000000000e+00 0.000000000000000e+00 0.000000000000000e+00
0.000000000000000e+00 0.000000000000000e+00 0.000000000000000e+00
0.000000000000000e+00 0.000000000000000e+00 0.000000000000000e+00
0.000000000000000e+00 0.000000000000000e+00 0.000000000000000e+00
0.000000000000000e+00 0.000000000000000e+00 0.000000000000000e+00
0.000000000000000e+00 0.000000000000000e+00 0.000000000000000e+00
0.000000000000000e+00 0.000000000000000e+00 0.000000000000000e+00
0.000000000000000e+00 0.000000000000000e+00 0.000000000000000e+00
0.000000000000000e+00 0.000000000000000e+00 0.000000000000000e+00
0.000000000000000e+00 0.000000000000000e+00 0.000000000000000e+00
0.000000000000000e+00 0.000000000000000e+00 0.000000000000000e+00
0.000000000000000e+00 0.000000000000000e+00 0.000000000000000e+00
0.000000000000000e+00 0.000000000000000e+00 0.000000000000000e+00
0.000000000000000e+00 0.000000000000000e+00 0.000000000000000e+00
0.000000000000000e+00 0.000000000000000e+00 0.000000000000000e+00
0.000000000000000e+00 0.000000000000000e+00 0.000000000000000e+00
0.000000000000000e+00 0.000000000000000e+00 0.000000000000000e+00
0.000000000000000e+00 0.000000000000000e+00 0.000000000000000e+00
0.000000000000000e+00 0.000000000000000e+00 0.000000000000000e+00
0.000000000000000e+00 0.000000000000000e+00 0.000000000000000e+00
0.000000000000000e+00 0.000000000000000e+00 0.000000000000000e+00
0.000000000000000e+00 0.000000000000000e+00 0.000000000000000e+00
0.000000000000000e+00 0.000000000000000e+00 0.000000000000000e+00
0.000000000000000e+00 0.000000000000000e+00 0.000000000000000e+00
0.000000000000000e+00 0.000000000000000e+00 0.000000000000000e+00
0.000000000000000e+00 0.000000000000000e+00 0.000000000000000e+00
0.000000000000000e+00 0.000000000000000e+00 0.000000000000000e+00
0.000000000000000e+00 0.000000000000000e+00 0.000000000000000e+00
0.000000000000000e+00 0.000000000000000e+00 0.000000000000000e+00
0.000000000000000e+00 0.000000000000000e+00 0.000000000000000e+00
0.000000000000000e+00 0.000000000000000e+00 0.000000000000000e+00
0.000000000000000e+00 0.000000000000000e+00 0.000000000000000e+00
0.000000000000000e+00 0.000000000000000e+00 0.000000000000000e+00
0.000000000000000e+00 0.000000000000000e+00 0.000000000000000e+00
0.000000000000000e+00 0.000000000000000e+00 0.000000000000000e+00
0.000000000000000e+00 0.000000000000000e+00 0.000000000000000e+00
0.000000000000000e+00 0.000000000000000e+00 0.000000000000000e+00
0.000000000000000e+00 0.000000000000000e+00 0.000000000000000e+00
0.000000000000000e+00 0.000000000000000e+00 0.000000000000000e+00
0.000000000000000e+00 0.000000000000000e+00 0.000000000000000e+00
0.000000000000000e+00 0.000000000000000e+00 0.000000000000000e+00
0.000000000000000e+00 0.000000000000000e+00 0.000000000000000e+00
0.000000000000000e+00 0.000000000000000e+00 0.000000000000000e+00
0.000000000000000e+00 0.000000000000000e+00 0.000000000000000e+00
0.000000000000000e+00 0.000000000000000e+00 0.000000000000000e+00
0.000000000000000e+00 0.000000000000000e+00 0.000000000000000e+00
0.000000000000000e+00 0.000000000000000e+00 0.000000000000000e+00
0.000000000000000e+00 0.000000000000000e+00 0.000000000000000e+00
0.000000000000000e+00 0.000000000000000e+00 0.000000000000000e+00
0.000000000000000e+00 0.000000000000000e+00 0.000000000000000e+00
0.000000000000000e+00 0.000000000000000e+00 0.000000000000000e+00
0.000000000000000e+00 0.000000000000000e+00 0.000000000000000e+00
0.000000000000000e+00 0.000000000000000e+00 0.000000000000000e+00
0.000000000000000e+00 0.000000000000000e+00 0.000000000000000e+00
0.000000000000000e+00 0.000000000000000e+00 0.000000000000000e+00
0.000000000000000e+00 0.000000000000000e+00 0.000000000000000e+00
0.000000000000000e+00 0.000000000000000e+00 0.000000000000000e+00
0.000000000000000e+00 0.000000000000000e+00 0.000000000000000e+00
0.000000000000000e+00 0.000000000000000e+00 0.000000000000000e+00
0.000000000000000e+00 0.000000000000000e+00 0.000000000000000e+00
0.000000000000000e+00 0.000000000000000e+00 0.000000000000000e+00
0.000000000000000e+00 0.000000000000000e+00 0.000000000000000e+00
0.000000000000000e+00 0.000000000000000e+00 0.000000000000000e+00
0.000000000000000e+00 0.000000000000000e+00 0.000000000000000e+00
0.000000000000000e+00 0.000000000000000e+00 0.000000000000000e+00
0.000000000000000e+00 0.000000000000000e+00 0.000000000000000e+00
0.000000000000000e+00 0.000000000000000e+00 0.000000000000000e+00
0.000000000000000e+00 0.000000000000000e+00 0.000000000000000e+00
0.000000000000000e+00 0.000000000000000e+00 0.000000000000000e+00
0.000000000000000e+00 0.000000000000000e+00 0.000000000000000e+00
0.000000000000000e+00 0.000000000000000e+00 0.000000000000000e+00
0.000000000000000e+00 0.000000000000000e+00 0.000000000000000e+00
0.000000000000000e+00 0.000000000000000e+00 0.000000000000000e+00
0.000000000000000e+00 0.000000000000000e+00 0.000000000000000e+00
0.000000000000000e+00 0.000000000000000e+00 0.000000000000000e+00
0.000000000000000e+00 0.000000000000000e+00 0.000000000000000e+00
0.000000000000000e+00 0.000000000000000e+00 0.000000000000000e+00
0.000000000000000e+00 0.000000000000000e+00 0.000000000000000e+00
0.000000000000000e+00 0.000000000000000e+00 0.000000000000000e+00
0.000000000000000e+00 0.000000000000000e+00 0.000000000000000e+00
0.000000000000000e+00 0.000000000000000e+00 0.000000000000000e+00
0.000000000000000e+00 0.000000000000000e+00 0.000000000000000e+00
0.000000000000000e+00 0.000000000000000e+00 0.000000000000000e+00
0.000000000000000e+00 0.000000000000000e+00 0.000000000000000e+00
0.000000000000000e+00 0.000000000000000e+00 0.000000000000000e+00
0.000000000000000e+00 0.000000000000000e+00 0.000000000000000e+00
0.000000000000000e+00 0.000000000000000e+00 0.000000000000000e+00
0.000000000000000e+00 0.000000000000000e+00 0.000000000000000e+00
0.000000000000000e+00 0.000000000000000e+00 0.000000000000000e+00
0.000000000000000e+00 0.000000000000000e+00 0.000000000000000e+00
0.000000000000000e+00 0.000000000000000e+00 0.000000000000000e+00
0.000000000000000e+00 0.000000000000000e+00 0.000000000000000e+00
0.000000000000000e+00 0.000000000000000e+00 0.000000000000000e+00
0.000000000000000e+00 0.000000000000000e+00 0.000000000000000e+00
0.000000000000000e+00 0.000000000000000e+00 0.000000000000000e+00
0.000000000000000e+00 0.000000000000000e+00 0.000000000000000e+00
0.000000000000000e+00 0.000000000000000e+00 0.000000000000000e+00
0.000000000000000e+00 0.000000000000000e+00 0.000000000000000e+00
0.000000000000000e+00 0.000000000000000e+00 0.000000000000000e+00
0.000000000000000e+00 0.000000000000000e+00 0.000000000000000e+00
0.000000000000000e+00 0.000000000000000e+00 0.000000000000000e+00
0.000000000000000e+00 0.000000000000000e+00 0.000000000000000e+00
0.000000000000000e+00 0.000000000000000e+00 0.000000000000000e+00
0.000000000000000e+00 0.000000000000000e+00 0.000000000000000e+00
0.000000000000000e+00 0.000000000000000e+00 0.000000000000000e+00
0.000000000000000e+00 0.000000000000000e+00 0.000000000000000e+00
0.000000000000000e+00 0.000000000000000e+00 0.000000000000000e+00
0.000000000000000e+00 0.000000000000000e+00 0.000000000000000e+00
0.000000000000000e+00 0.000000000000000e+00 0.000000000000000e+00
0.000000000000000e+00 0.000000000000000e+00 0.000000000000000e+00
0.000000000000000e+00 0.000000000000000e+00 0.000000000000000e+00
0.000000000000000e+00 0.000000000000000e+00 0.000000000000000e+00
0.000000000000000e+00 0.000000000000000e+00 0.000000000000000e+00
0.000000000000000e+00 0.000000000000000e+00 0.000000000000000e+00
0.000000000000000e+00 0.000000000000000e+00 0.000000000000000e+00
0.000000000000000e+00 0.000000000000000e+00 0.000000000000000e+00
0.000000000000000e+00 0.000000000000000e+00 0.000000000000000e+00
0.000000000000000e+00 0.000000000000000e+00 0.000000000000000e+00
0.000000000000000e+00 0.000000000000000e+00 0.000000000000000e+00
0.000000000000000e+00 0.000000000000000e+00 0.000000000000000e+00
0.000000000000000e+00 0.000000000000000e+00 0.000000000000000e+00
0.000000000000000e+00 0.000000000000000e+00 0.000000000000000e+00
0.000000000000000e+00 0.000000000000000e+00 0.000000000000000e+00
0.000000000000000e+00 0.000000000000000e+00 0.000000000000000e+00
0.000000000000000e+00 0.000000000000000e+00 0.000000000000000e+00
0.000000000000000e+00 0.000000000000000e+00 0.000000000000000e+00
0.000000000000000e+00 0.000000000000000e+00 0.000000000000000e+00
0.000000000000000e+00 0.000000000000000e+00 0.000000000000000e+00
0.000000000000000e+00 0.000000000000000e+00 0.000000000000000e+00
0.000000000000000e+00 0.000000000000000e+00 0.000000000000000e+00
0.000000000000000e+00 0.000000000000000e+00 0.000000000000000e+00
0.000000000000000e+00 0.000000000000000e+00 0.000000000000000e+00
0.000000000000000e+00 0.000000000000000e+00 0.000000000000000e+00
0.000000000000000e+00 0.000000000000000e+00 0.000000000000000e+00
0.000000000000000e+00 0.000000000000000e+00 0.000000000000000e+00
0.000000000000000e+00 0.000000000000000e+00 0.000000000000000e+00
0.000000000000000e+00 0.000000000000000e+00 0.000000000000000e+00
0.000000000000000e+00 0.000000000000000e+00 0.000000000000000e+00
0.000000000000000e+00 0.000000000000000e+00 0.000000000000000e+00
0.000000000000000e+00 0.000000000000000e+00 0.000000000000000e+00
0.000000000000000e+00 0.000000000000000e+00 0.000000000000000e+00
0.000000000000000e+00 0.000000000000000e+00 0.000000000000000e+00
0.000000000000000e+00 0.000000000000000e+00 0.000000000000000e+00
0.000000000000000e+00 0.000000000000000e+00 0.000000000000000e+00
0.000000000000000e+00 0.000000000000000e+00 0.000000000000000e+00
0.000000000000000e+00 0.000000000000000e+00 0.000000000000000e+00
0.000000000000000e+00 0.000000000000000e+00 0.000000000000000e+00
0.000000000000000e+00 0.000000000000000e+00 0.000000000000000e+00
0.000000000000000e+00 0.000000000000000e+00 0.000000000000000e+00
0.000000000000000e+00 0.000000000000000e+00 0.000000000000000e+00
0.000000000000000e+00 0.000000000000000e+00 0.000000000000000e+00
0.000000000000000e+00 0.000000000000000e+00 0.000000000000000e+00
0.000000000000000e+00 0.000000000000000e+00 0.000000000000000e+00
0.000000000000000e+00 0.000000000000000e+00 0.000000000000000e+00
0.000000000000000e+00 0.000000000000000e+00 0.000000000000000e+00
0.000000000000000e+00 0.000000000000000e+00 0.000000000000000e+00
0.000000000000000e+00 0.000000000000000e+00 0.000000000000000e+00
0.000000000000000e+00 0.000000000000000e+00 0.000000000000000e+00
0.000000000000000e+00 0.000000000000000e+00 0.000000000000000e+00
0.000000000000000e+00 0.000000000000000e+00 0.000000000000000e+00
0.000000000000000e+00 0.000000000000000e+00 0.000000000000000e+00
0.000000000000000e+00 0.000000000000000e+00 0.000000000000000e+00
0.000000000000000e+00 0.000000000000000e+00 0.000000000000000e+00
0.000000000000000e+00 0.000000000000000e+00 0.000000000000000e+00
0.000000000000000e+00 0.000000000000000e+00 0.000000000000000e+00
0.000000000000000e+00 0.000000000000000e+00 0.000000000000000e+00
0.000000000000000e+00 0.000000000000000e+00 0.000000000000000e+00
0.000000000000000e+00 0.000000000000000e+00 0.000000000000000e+00
0.000000000000000e+00 0.000000000000000e+00 0.000000000000000e+00
0.000000000000000e+00 0.000000000000000e+00 0.000000000000000e+00
0.000000000000000e+00 0.000000000000000e+00 0.000000000000000e+00
0.000000000000000e+00 0.000000000000000e+00 0.000000000000000e+00
0.000000000000000e+00 0.000000000000000e+00 0.000000000000000e+00
0.000000000000000e+00 0.000000000000000e+00 0.000000000000000e+00
0.000000000000000e+00 0.000000000000000e+00 0.000000000000000e+00
0.000000000000000e+00 0.000000000000000e+00 0.000000000000000e+00
0.000000000000000e+00 0.000000000000000e+00 0.000000000000000e+00
0.000000000000000e+00 0.000000000000000e+00 0.000000000000000e+00
0.000000000000000e+00 0.000000000000000e+00 0.000000000000000e+00
0.000000000000000e+00 0.000000000000000e+00 0.000000000000000e+00
0.000000000000000e+00 0.000000000000000e+00 0.000000000000000e+00
0.000000000000000e+00 0.000000000000000e+00 0.000000000000000e+00
0.000000000000000e+00 0.000000000000000e+00 0.000000000000000e+00
0.000000000000000e+00 0.000000000000000e+00 0.000000000000000e+00
0.000000000000000e+00 0.000000000000000e+00 0.000000000000000e+00
0.000000000000000e+00 0.000000000000000e+00 0.000000000000000e+00
0.000000000000000e+00 0.000000000000000e+00 0.000000000000000e+00
0.000000000000000e+00 0.000000000000000e+00 0.000000000000000e+00
0.000000000000000e+00 0.000000000000000e+00 0.000000000000000e+00
0.000000000000000e+00 0.000000000000000e+00 0.000000000000000e+00
0.000000000000000e+00 0.000000000000000e+00 0.000000000000000e+00
0.000000000000000e+00 0.000000000000000e+00 0.000000000000000e+00
0.000000000000000e+00 0.000000000000000e+00 0.000000000000000e+00
0.000000000000000e+00 0.000000000000000e+00 0.000000000000000e+00
0.000000000000000e+00 0.000000000000000e+00 0.000000000000000e+00
0.000000000000000e+00 0.000000000000000e+00 0.000000000000000e+00
0.000000000000000e+00 0.000000000000000e+00 0.000000000000000e+00
0.000000000000000e+00 0.000000000000000e+00 0.000000000000000e+00
0.000000000000000e+00 0.000000000000000e+00 0.000000000000000e+00
0.000000000000000e+00 0.000000000000000e+00 0.000000000000000e+00
0.000000000000000e+00 0.000000000000000e+00 0.000000000000000e+00
0.000000000000000e+00 0.000000000000000e+00 0.000000000000000e+00
0.000000000000000e+00 0.000000000000000e+00 0.000000000000000e+00
0.000000000000000e+00 0.000000000000000e+00 0.000000000000000e+00
0.000000000000000e+00 0.000000000000000e+00 0.000000000000000e+00
0.000000000000000e+00 0.000000000000000e+00 0.000000000000000e+00
0.000000000000000e+00 0.000000000000000e+00 0.000000000000000e+00
0.000000000000000e+00 0.000000000000000e+00 0.000000000000000e+00
0.000000000000000e+00 0.000000000000000e+00 0.000000000000000e+00
0.000000000000000e+00 0.000000000000000e+00 0.000000000000000e+00
0.000000000000000e+00 0.000000000000000e+00 0.000000000000000e+00
0.000000000000000e+00 0.000000000000000e+00 0.000000000000000e+00
0.000000000000000e+00 0.000000000000000e+00 0.000000000000000e+00
0.000000000000000e+00 0.000000000000000e+00 0.000000000000000e+00
0.000000000000000e+00 0.000000000000000e+00 0.000000000000000e+00
0.000000000000000e+00 0.000000000000000e+00 0.000000000000000e+00
0.000000000000000e+00 0.000000000000000e+00 0.000000000000000e+00
0.000000000000000e+00 0.000000000000000e+00 0.000000000000000e+00
0.000000000000000e+00 0.000000000000000e+00 0.000000000000000e+00
0.000000000000000e+00 0.000000000000000e+00 0.000000000000000e+00
0.000000000000000e+00 0.000000000000000e+00 0.000000000000000e+00
0.000000000000000e+00 0.000000000000000e+00 0.000000000000000e+00
0.000000000000000e+00 0.000000000000000e+00 0.000000000000000e+00
0.000000000000000e+00 0.000000000000000e+00 0.000000000000000e+00
0.000000000000000e+00 0.000000000000000e+00 0.000000000000000e+00
0.000000000000000e+00 0.000000000000000e+00 0.000000000000000e+00
0.000000000000000e+00 0.000000000000000e+00 0.000000000000000e+00
0.000000000000000e+00 0.000000000000000e+00 0.000000000000000e+00
0.000000000000000e+00 0.000000000000000e+00 0.000000000000000e+00
0.000000000000000e+00 0.000000000000000e+00 0.000000000000000e+00
0.000000000000000e+00 0.000000000000000e+00 0.000000000000000e+00
0.000000000000000e+00 0.000000000000000e+00 0.000000000000000e+00
0.000000000000000e+00 0.000000000000000e+00 0.000000000000000e+00
0.000000000000000e+00 0.000000000000000e+00 0.000000000000000e+00
0.000000000000000e+00 0.000000000000000e+00 0.000000000000000e+00
0.000000000000000e+00 0.000000000000000e+00 0.000000000000000e+00
0.000000000000000e+00 0.000000000000000e+00 0.000000000000000e+00
0.000000000000000e+00 0.000000000000000e+00 0.000000000000000e+00
0.000000000000000e+00 0.000000000000000e+00 0.000000000000000e+00
0.000000000000000e+00 0.000000000000000e+00 0.000000000000000e+00
0.000000000000000e+00 0.000000000000000e+00 0.000000000000000e+00
0.000000000000000e+00 0.000000000000000e+00 0.000000000000000e+00
0.000000000000000e+00 0.000000000000000e+00 0.000000000000000e+00
0.000000000000000e+00 0.000000000000000e+00 0.000000000000000e+00
0.000000000000000e+00 0.000000000000000e+00 0.000000000000000e+00
0.000000000000000e+00 0.000000000000000e+00 0.000000000000000e+00
0.000000000000000e+00 0.000000000000000e+00 0.000000000000000e+00
0.000000000000000e+00 0.000000000000000e+00 0.000000000000000e+00
0.000000000000000e+00 0.000000000000000e+00 0.000000000000000e+00
0.000000000000000e+00 0.000000000000000e+00 0.000000000000000e+00
0.000000000000000e+00 0.000000000000000e+00 0.000000000000000e+00
0.000000000000000e+00 0.000000000000000e+00 0.000000000000000e+00
0.000000000000000e+00 0.000000000000000e+00 0.000000000000000e+00
0.000000000000000e+00 0.000000000000000e+00 0.000000000000000e+00
0.000000000000000e+00 0.000000000000000e+00 0.000000000000000e+00
0.000000000000000e+00 0.000000000000000e+00 0.000000000000000e+00
0.000000000000000e+00 0.000000000000000e+00 0.000000000000000e+00
0.000000000000000e+00 0.000000000000000e+00 0.000000000000000e+00
0.000000000000000e+00 0.000000000000000e+00 0.000000000000000e+00
0.000000000000000e+00 0.000000000000000e+00 0.000000000000000e+00
0.000000000000000e+00 0.000000000000000e+00 0.000000000000000e+00
0.000000000000000e+00 0.000000000000000e+00 0.000000000000000e+00
0.000000000000000e+00 0.000000000000000e+00 0.000000000000000e+00
0.000000000000000e+00 0.000000000000000e+00 0.000000000000000e+00
0.000000000000000e+00 0.000000000000000e+00 0.000000000000000e+00
0.000000000000000e+00 0.000000000000000e+00 0.000000000000000e+00
0.000000000000000e+00 0.000000000000000e+00 0.000000000000000e+00
0.000000000000000e+00 0.000000000000000e+00 0.000000000000000e+00
0.000000000000000e+00 0.000000000000000e+00 0.000000000000000e+00
0.000000000000000e+00 0.000000000000000e+00 0.000000000000000e+00
0.000000000000000e+00 0.000000000000000e+00 0.000000000000000e+00
0.000000000000000e+00 0.000000000000000e+00 0.000000000000000e+00
0.000000000000000e+00 0.000000000000000e+00 0.000000000000000e+00
0.000000000000000e+00 0.000000000000000e+00 0.000000000000000e+00
0.000000000000000e+00 0.000000000000000e+00 0.000000000000000e+00
0.000000000000000e+00 0.000000000000000e+00 0.000000000000000e+00
0.000000000000000e+00 0.000000000000000e+00 0.000000000000000e+00
0.000000000000000e+00 0.000000000000000e+00 0.000000000000000e+00
0.000000000000000e+00 0.000000000000000e+00 0.000000000000000e+00
0.000000000000000e+00 0.000000000000000e+00 0.000000000000000e+00
0.000000000000000e+00 0.000000000000000e+00 0.000000000000000e+00
0.000000000000000e+00 0.000000000000000e+00 0.000000000000000e+00
0.000000000000000e+00 0.000000000000000e+00 0.000000000000000e+00
0.000000000000000e+00 0.000000000000000e+00 0.000000000000000e+00
0.000000000000000e+00 0.000000000000000e+00 0.000000000000000e+00
0.000000000000000e+00 0.000000000000000e+00 0.000000000000000e+00
0.000000000000000e+00 0.000000000000000e+00 0.000000000000000e+00
0.000000000000000e+00 0.000000000000000e+00 0.000000000000000e+00
0.000000000000000e+00 0.000000000000000e+00 0.000000000000000e+00
0.000000000000000e+00 0.000000000000000e+00 0.000000000000000e+00
0.000000000000000e+00 0.000000000000000e+00 0.000000000000000e+00
0.000000000000000e+00 0.000000000000000e+00 0.000000000000000e+00
0.000000000000000e+00 0.000000000000000e+00 0.000000000000000e+00
0.000000000000000e+00 0.000000000000000e+00 0.000000000000000e+00
0.000000000000000e+00 0.000000000000000e+00 0.000000000000000e+00
0.000000000000000e+00 0.000000000000000e+00 0.000000000000000e+00
0.000000000000000e+00 0.000000000000000e+00 0.000000000000000e+00
0.000000000000000e+00 0.000000000000000e+00 0.000000000000000e+00
0.000000000000000e+00 0.000000000000000e+00 0.000000000000000e+00
0.000000000000000e+00 0.000000000000000e+00 0.000000000000000e+00
0.000000000000000e+00 0.000000000000000e+00 0.000000000000000e+00
0.000000000000000e+00 0.000000000000000e+00 0.000000000000000e+00
0.000000000000000e+00 0.000000000000000e+00 0.000000000000000e+00
0.000000000000000e+00 0.000000000000000e+00 0.000000000000000e+00
0.000000000000000e+00 0.000000000000000e+00 0.000000000000000e+00
0.000000000000000e+00 0.000000000000000e+00 0.000000000000000e+00
0.000000000000000e+00 0.000000000000000e+00 0.000000000000000e+00
0.000000000000000e+00 0.000000000000000e+00 0.000000000000000e+00
0.000000000000000e+00 0.000000000000000e+00 0.000000000000000e+00
0.000000000000000e+00 0.000000000000000e+00 0.000000000000000e+00
0.000000000000000e+00 0.000000000000000e+00 0.000000000000000e+00
0.000000000000000e+00 0.000000000000000e+00 0.000000000000000e+00
0.000000000000000e+00 0.000000000000000e+00 0.000000000000000e+00
0.000000000000000e+00 0.000000000000000e+00 0.000000000000000e+00
0.000000000000000e+00 0.000000000000000e+00 0.000000000000000e+00
0.000000000000000e+00 0.000000000000000e+00 0.000000000000000e+00
0.000000000000000e+00 0.000000000000000e+00 0.000000000000000e+00
0.000000000000000e+00 0.000000000000000e+00 0.000000000000000e+00
0.000000000000000e+00 0.000000000000000e+00 0.000000000000000e+00
0.000000000000000e+00 0.000000000000000e+00 0.000000000000000e+00
0.000000000000000e+00 0.000000000000000e+00 0.000000000000000e+00
0.000000000000000e+00 0.000000000000000e+00 0.000000000000000e+00
0.000000000000000e+00 0.000000000000000e+00 0.000000000000000e+00
0.000000000000000e+00 0.000000000000000e+00 0.000000000000000e+00
0.000000000000000e+00 0.000000000000000e+00 0.000000000000000e+00
0.000000000000000e+00 0.000000000000000e+00 0.000000000000000e+00
0.000000000000000e+00 0.000000000000000e+00 0.000000000000000e+00
0.000000000000000e+00 0.000000000000000e+00 0.000000000000000e+00
0.000000000000000e+00 0.000000000000000e+00 0.000000000000000e+00
0.000000000000000e+00 0.000000000000000e+00 0.000000000000000e+00
0.000000000000000e+00 0.000000000000000e+00 0.000000000000000e+00
0.000000000000000e+00 0.000000000000000e+00 0.000000000000000e+00
0.000000000000000e+00 0.000000000000000e+00 0.000000000000000e+00
0.000000000000000e+00 0.000000000000000e+00 0.000000000000000e+00
0.000000000000000e+00 0.000000000000000e+00 0.000000000000000e+00
0.000000000000000e+00 0.000000000000000e+00 0.000000000000000e+00
0.000000000000000e+00 0.000000000000000e+00 0.000000000000000e+00
0.000000000000000e+00 0.000000000000000e+00 0.000000000000000e+00
0.000000000000000e+00 0.000000000000000e+00 0.000000000000000e+00
0.000000000000000e+00 0.000000000000000e+00 0.000000000000000e+00
0.000000000000000e+00 0.000000000000000e+00 0.000000000000000e+00
0.000000000000000e+00 0.000000000000000e+00 0.000000000000000e+00
0.000000000000000e+00 0.000000000000000e+00 0.000000000000000e+00
0.000000000000000e+00 0.000000000000000e+00 0.000000000000000e+00
0.000000000000000e+00 0.000000000000000e+00 0.000000000000000e+00
0.000000000000000e+00 0.000000000000000e+00 0.000000000000000e+00
0.000000000000000e+00 0.000000000000000e+00 0.000000000000000e+00
0.000000000000000e+00 0.000000000000000e+00 0.000000000000000e+00
0.000000000000000e+00 0.000000000000000e+00 0.000000000000000e+00
0.000000000000000e+00 0.000000000000000e+00 0.000000000000000e+00
0.000000000000000e+00 0.000000000000000e+00 0.000000000000000e+00
0.000000000000000e+00 0.000000000000000e+00 0.000000000000000e+00
0.000000000000000e+00 0.000000000000000e+00 0.000000000000000e+00
0.000000000000000e+00 0.000000000000000e+00 0.000000000000000e+00
0.000000000000000e+00 0.000000000000000e+00 0.000000000000000e+00
0.000000000000000e+00 0.000000000000000e+00 0.000000000000000e+00
0.000000000000000e+00 0.000000000000000e+00 0.000000000000000e+00
0.000000000000000e+00 0.000000000000000e+00 0.000000000000000e+00
0.000000000000000e+00 0.000000000000000e+00 0.000000000000000e+00
0.000000000000000e+00 0.000000000000000e+00 0.000000000000000e+00
0.000000000000000e+00 0.000000000000000e+00 0.000000000000000e+00
0.000000000000000e+00 0.000000000000000e+00 0.000000000000000e+00
0.000000000000000e+00 0.000000000000000e+00 0.000000000000000e+00
0.000000000000000e+00 0.000000000000000e+00 0.000000000000000e+00
0.000000000000000e+00 0.000000000000000e+00 0.000000000000000e+00
0.000000000000000e+00 0.000000000000000e+00 0.000000000000000e+00
0.000000000000000e+00 0.000000000000000e+00 0.000000000000000e+00
0.000000000000000e+00 0.000000000000000e+00 0.000000000000000e+00
0.000000000000000e+00 0.000000000000000e+00 0.000000000000000e+00
0.000000000000000e+00 0.000000000000000e+00 0.000000000000000e+00
0.000000000000000e+00 0.000000000000000e+00 0.000000000000000e+00
0.000000000000000e+00 0.000000000000000e+00 0.000000000000000e+00
0.000000000000000e+00 0.000000000000000e+00 0.000000000000000e+00
0.000000000000000e+00 0.000000000000000e+00 0.000000000000000e+00
0.000000000000000e+00 0.000000000000000e+00 0.000000000000000e+00
0.000000000000000e+00 0.000000000000000e+00 0.000000000000000e+00
0.000000000000000e+00 0.000000000000000e+00 0.000000000000000e+00
0.000000000000000e+00 0.000000000000000e+00 0.000000000000000e+00
0.000000000000000e+00 0.000000000000000e+00 0.000000000000000e+00
0.000000000000000e+00 0.000000000000000e+00 0.000000000000000e+00
0.000000000000000e+00 0.000000000000000e+00 0.000000000000000e+00
0.000000000000000e+00 0.000000000000000e+00 0.000000000000000e+00
0.000000000000000e+00 0.000000000000000e+00 0.000000000000000e+00
0.000000000000000e+00 0.000000000000000e+00 0.000000000000000e+00
0.000000000000000e+00 0.000000000000000e+00 0.000000000000000e+00
0.000000000000000e+00 0.000000000000000e+00 0.000000000000000e+00
0.000000000000000e+00 0.000000000000000e+00 0.000000000000000e+00
0.000000000000000e+00 0.000000000000000e+00 0.000000000000000e+00
0.000000000000000e+00 0.000000000000000e+00 0.000000000000000e+00
0.000000000000000e+00 0.000000000000000e+00 0.000000000000000e+00
0.000000000000000e+00 0.000000000000000e+00 0.000000000000000e+00
0.000000000000000e+00 0.000000000000000e+00 0.000000000000000e+00
0.000000000000000e+00 0.000000000000000e+00 0.000000000000000e+00
0.000000000000000e+00 0.000000000000000e+00 0.000000000000000e+00
0.000000000000000e+00 0.000000000000000e+00 0.000000000000000e+00
0.000000000000000e+00 0.000000000000000e+00 0.000000000000000e+00
0.000000000000000e+00 0.000000000000000e+00 0.000000000000000e+00
0.000000000000000e+00 0.000000000000000e+00 0.000000000000000e+00
0.000000000000000e+00 0.000000000000000e+00 0.000000000000000e+00
0.000000000000000e+00 0.000000000000000e+00 0.000000000000000e+00
0.000000000000000e+00 0.000000000000000e+00 0.000000000000000e+00
0.000000000000000e+00 0.000000000000000e+00 0.000000000000000e+00
0.000000000000000e+00 0.000000000000000e+00 0.000000000000000e+00
0.000000000000000e+00 0.000000000000000e+00 0.000000000000000e+00
0.000000000000000e+00 0.000000000000000e+00 0.000000000000000e+00
0.000000000000000e+00 0.000000000000000e+00 0.000000000000000e+00
0.000000000000000e+00 0.000000000000000e+00 0.000000000000000e+00
0.000000000000000e+00 0.000000000000000e+00 0.000000000000000e+00
0.000000000000000e+00 0.000000000000000e+00 0.000000000000000e+00
0.000000000000000e+00 0.000000000000000e+00 0.000000000000000e+00
0.000000000000000e+00 0.000000000000000e+00 0.000000000000000e+00
0.000000000000000e+00 0.000000000000000e+00 0.000000000000000e+00
0.000000000000000e+00 0.000000000000000e+00 0.000000000000000e+00
0.000000000000000e+00 0.000000000000000e+00 0.000000000000000e+00
0.000000000000000e+00 0.000000000000000e+00 0.000000000000000e+00
0.000000000000000e+00 0.000000000000000e+00 0.000000000000000e+00
0.000000000000000e+00 0.000000000000000e+00 0.000000000000000e+00
0.000000000000000e+00 0.000000000000000e+00 0.000000000000000e+00
0.000000000000000e+00 0.000000000000000e+00 0.000000000000000e+00
0.000000000000000e+00 0.000000000000000e+00 0.000000000000000e+00
0.000000000000000e+00 0.000000000000000e+00 0.000000000000000e+00
0.000000000000000e+00 0.000000000000000e+00 0.000000000000000e+00
0.000000000000000e+00 0.000000000000000e+00 0.000000000000000e+00
0.000000000000000e+00 0.000000000000000e+00 0.000000000000000e+00
0.000000000000000e+00 0.000000000000000e+00 0.000000000000000e+00
0.000000000000000e+00 0.000000000000000e+00 0.000000000000000e+00
0.000000000000000e+00 0.000000000000000e+00 0.000000000000000e+00
0.000000000000000e+00 0.000000000000000e+00 0.000000000000000e+00
0.000000000000000e+00 0.000000000000000e+00 0.000000000000000e+00
0.000000000000000e+00 0.000000000000000e+00 0.000000000000000e+00
0.000000000000000e+00 0.000000000000000e+00 0.000000000000000e+00
0.000000000000000e+00 0.000000000000000e+00 0.000000000000000e+00
0.000000000000000e+00 0.000000000000000e+00 0.000000000000000e+00
0.000000000000000e+00 0.000000000000000e+00 0.000000000000000e+00
0.000000000000000e+00 0.000000000000000e+00 0.000000000000000e+00
0.000000000000000e+00 0.000000000000000e+00 0.000000000000000e+00
0.000000000000000e+00 0.000000000000000e+00 0.000000000000000e+00
0.000000000000000e+00 0.000000000000000e+00 0.000000000000000e+00
0.000000000000000e+00 0.000000000000000e+00 0.000000000000000e+00
0.000000000000000e+00 0.000000000000000e+00 0.000000000000000e+00
0.000000000000000e+00 0.000000000000000e+00 0.000000000000000e+00
0.000000000000000e+00 0.000000000000000e+00 0.000000000000000e+00
0.000000000000000e+00 0.000000000000000e+00 0.000000000000000e+00
0.000000000000000e+00 0.000000000000000e+00 0.000000000000000e+00
0.000000000000000e+00 0.000000000000000e+00 0.000000000000000e+00
0.000000000000000e+00 0.000000000000000e+00 0.000000000000000e+00
0.000000000000000e+00 0.000000000000000e+00 0.000000000000000e+00
0.000000000000000e+00 0.000000000000000e+00 0.000000000000000e+00
0.000000000000000e+00 0.000000000000000e+00 0.000000000000000e+00
0.000000000000000e+00 0.000000000000000e+00 0.000000000000000e+00
0.000000000000000e+00 0.000000000000000e+00 0.000000000000000e+00
0.000000000000000e+00 0.000000000000000e+00 0.000000000000000e+00
0.000000000000000e+00 0.000000000000000e+00 0.000000000000000e+00
0.000000000000000e+00 0.000000000000000e+00 0.000000000000000e+00
0.000000000000000e+00 0.000000000000000e+00 0.000000000000000e+00
0.000000000000000e+00 0.000000000000000e+00 0.000000000000000e+00
0.000000000000000e+00 0.000000000000000e+00 0.000000000000000e+00
0.000000000000000e+00 0.000000000000000e+00 0.000000000000000e+00
0.000000000000000e+00 0.000000000000000e+00 0.000000000000000e+00
0.000000000000000e+00 0.000000000000000e+00 0.000000000000000e+00
0.000000000000000e+00 0.000000000000000e+00 0.000000000000000e+00
0.000000000000000e+00 0.000000000000000e+00 0.000000000000000e+00
0.000000000000000e+00 0.000000000000000e+00 0.000000000000000e+00
0.000000000000000e+00 0.000000000000000e+00 0.000000000000000e+00
0.000000000000000e+00 0.000000000000000e+00 0.000000000000000e+00
0.000000000000000e+00 0.000000000000000e+00 0.000000000000000e+00
0.000000000000000e+00 0.000000000000000e+00 0.000000000000000e+00
0.000000000000000e+00 0.000000000000000e+00 0.000000000000000e+00
0.000000000000000e+00 0.000000000000000e+00 0.000000000000000e+00
0.000000000000000e+00 0.000000000000000e+00 0.000000000000000e+00
0.000000000000000e+00 0.000000000000000e+00 0.000000000000000e+00
0.000000000000000e+00 0.000000000000000e+00 0.000000000000000e+00
0.000000000000000e+00 0.000000000000000e+00 0.000000000000000e+00
0.000000000000000e+00 0.000000000000000e+00 0.000000000000000e+00
0.000000000000000e+00 0.000000000000000e+00 0.000000000000000e+00
0.000000000000000e+00 0.000000000000000e+00 0.000000000000000e+00
0.000000000000000e+00 0.000000000000000e+00 0.000000000000000e+00
0.000000000000000e+00 0.000000000000000e+00 0.000000000000000e+00
0.000000000000000e+00 0.000000000000000e+00 0.000000000000000e+00
0.000000000000000e+00 0.000000000000000e+00 0.000000000000000e+00
0.000000000000000e+00 0.000000000000000e+00 0.000000000000000e+00
0.000000000000000e+00 0.000000000000000e+00 0.000000000000000e+00
0.000000000000000e+00 0.000000000000000e+00 0.000000000000000e+00
0.000000000000000e+00 0.000000000000000e+00 0.000000000000000e+00
0.000000000000000e+00 0.000000000000000e+00 0.000000000000000e+00
0.000000000000000e+00 0.000000000000000e+00 0.000000000000000e+00
0.000000000000000e+00 0.000000000000000e+00 0.000000000000000e+00
0.000000000000000e+00 0.000000000000000e+00 0.000000000000000e+00
0.000000000000000e+00 0.000000000000000e+00 0.000000000000000e+00
0.000000000000000e+00 0.000000000000000e+00 0.000000000000000e+00
0.000000000000000e+00 0.000000000000000e+00 0.000000000000000e+00
0.000000000000000e+00 0.000000000000000e+00 0.000000000000000e+00
0.000000000000000e+00 0.000000000000000e+00 0.000000000000000e+00
0.000000000000000e+00 0.000000000000000e+00 0.000000000000000e+00
0.000000000000000e+00 0.000000000000000e+00 0.000000000000000e+00
0.000000000000000e+00 0.000000000000000e+00 0.000000000000000e+00
0.000000000000000e+00 0.000000000000000e+00 0.000000000000000e+00
0.000000000000000e+00 0.000000000000000e+00 0.000000000000000e+00
0.000000000000000e+00 0.000000000000000e+00 0.000000000000000e+00
0.000000000000000e+00 0.000000000000000e+00 0.000000000000000e+00
0.000000000000000e+00 0.000000000000000e+00 0.000000000000000e+00
0.000000000000000e+00 0.000000000000000e+00 0.000000000000000e+00
0.000000000000000e+00 0.000000000000000e+00 0.000000000000000e+00
0.000000000000000e+00 0.000000000000000e+00 0.000000000000000e+00
0.000000000000000e+00 0.000000000000000e+00 0.000000000000000e+00
0.000000000000000e+00 0.000000000000000e+00 0.000000000000000e+00
0.000000000000000e+00 0.000000000000000e+00 0.000000000000000e+00
0.000000000000000e+00 0.000000000000000e+00 0.000000000000000e+00
0.000000000000000e+00 0.000000000000000e+00 0.000000000000000e+00
0.000000000000000e+00 0.000000000000000e+00 0.000000000000000e+00
0.000000000000000e+00 0.000000000000000e+00 0.000000000000000e+00
0.000000000000000e+00 0.000000000000000e+00 0.000000000000000e+00
0.000000000000000e+00 0.000000000000000e+00 0.000000000000000e+00
0.000000000000000e+00 0.000000000000000e+00 0.000000000000000e+00
0.000000000000000e+00 0.000000000000000e+00 0.000000000000000e+00
0.000000000000000e+00 0.000000000000000e+00 0.000000000000000e+00
0.000000000000000e+00 0.000000000000000e+00 0.000000000000000e+00
0.000000000000000e+00 0.000000000000000e+00 0.000000000000000e+00
0.000000000000000e+00 0.000000000000000e+00 0.000000000000000e+00
0.000000000000000e+00 0.000000000000000e+00 0.000000000000000e+00
0.000000000000000e+00 0.000000000000000e+00 0.000000000000000e+00
0.000000000000000e+00 0.000000000000000e+00 0.000000000000000e+00
0.000000000000000e+00 0.000000000000000e+00 0.000000000000000e+00
0.000000000000000e+00 0.000000000000000e+00 0.000000000000000e+00
0.000000000000000e+00 0.000000000000000e+00 0.000000000000000e+00
0.000000000000000e+00 0.000000000000000e+00 0.000000000000000e+00
0.000000000000000e+00 0.000000000000000e+00 0.000000000000000e+00
0.000000000000000e+00 0.000000000000000e+00 0.000000000000000e+00
0.000000000000000e+00 0.000000000000000e+00 0.000000000000000e+00
0.000000000000000e+00 0.000000000000000e+00 0.000000000000000e+00
0.000000000000000e+00 0.000000000000000e+00 0.000000000000000e+00
0.000000000000000e+00 0.000000000000000e+00 0.000000000000000e+00
0.000000000000000e+00 0.000000000000000e+00 0.000000000000000e+00
0.000000000000000e+00 0.000000000000000e+00 0.000000000000000e+00
0.000000000000000e+00 0.000000000000000e+00 0.000000000000000e+00
0.000000000000000e+00 0.000000000000000e+00 0.000000000000000e+00
0.000000000000000e+00 0.000000000000000e+00 0.000000000000000e+00
0.000000000000000e+00 0.000000000000000e+00 0.000000000000000e+00
0.000000000000000e+00 0.000000000000000e+00 0.000000000000000e+00
0.000000000000000e+00 0.000000000000000e+00 0.000000000000000e+00
0.000000000000000e+00 0.000000000000000e+00 0.000000000000000e+00
0.000000000000000e+00 0.000000000000000e+00 0.000000000000000e+00
0.000000000000000e+00 0.000000000000000e+00 0.000000000000000e+00
0.000000000000000e+00 0.000000000000000e+00 0.000000000000000e+00
0.000000000000000e+00 0.000000000000000e+00 0.000000000000000e+00
0.000000000000000e+00 0.000000000000000e+00 0.000000000000000e+00
0.000000000000000e+00 0.000000000000000e+00 0.000000000000000e+00
0.000000000000000e+00 0.000000000000000e+00 0.000000000000000e+00
0.000000000000000e+00 0.000000000000000e+00 0.000000000000000e+00
0.000000000000000e+00 0.000000000000000e+00 0.000000000000000e+00
0.000000000000000e+00 0.000000000000000e+00 0.000000000000000e+00
0.000000000000000e+00 0.000000000000000e+00 0.000000000000000e+00
0.000000000000000e+00 0.000000000000000e+00 0.000000000000000e+00
0.000000000000000e+00 0.000000000000000e+00 0.000000000000000e+00
0.000000000000000e+00 0.000000000000000e+00 0.000000000000000e+00
0.000000000000000e+00 0.000000000000000e+00 0.000000000000000e+00
0.000000000000000e+00 0.000000000000000e+00 0.000000000000000e+00
0.000000000000000e+00 0.000000000000000e+00 0.000000000000000e+00
0.000000000000000e+00 0.000000000000000e+00 0.000000000000000e+00
0.000000000000000e+00 0.000000000000000e+00 0.000000000000000e+00
0.000000000000000e+00 0.000000000000000e+00 0.000000000000000e+00
0.000000000000000e+00 0.000000000000000e+00 0.000000000000000e+00
0.000000000000000e+00 0.000000000000000e+00 0.000000000000000e+00
0.000000000000000e+00 0.000000000000000e+00 0.000000000000000e+00
0.000000000000000e+00 0.000000000000000e+00 0.000000000000000e+00
0.000000000000000e+00 0.000000000000000e+00 0.000000000000000e+00
0.000000000000000e+00 0.000000000000000e+00 0.000000000000000e+00
0.000000000000000e+00 0.000000000000000e+00 0.000000000000000e+00
0.000000000000000e+00 0.000000000000000e+00 0.000000000000000e+00
0.000000000000000e+00 0.000000000000000e+00 0.000000000000000e+00
0.000000000000000e+00 0.000000000000000e+00 0.000000000000000e+00
0.000000000000000e+00 0.000000000000000e+00 0.000000000000000e+00
0.000000000000000e+00 0.000000000000000e+00 0.000000000000000e+00
0.000000000000000e+00 0.000000000000000e+00 0.000000000000000e+00
0.000000000000000e+00 0.000000000000000e+00 0.000000000000000e+00
0.000000000000000e+00 0.000000000000000e+00 0.000000000000000e+00
0.000000000000000e+00 0.000000000000000e+00 0.000000000000000e+00
0.000000000000000e+00 0.000000000000000e+00 0.000000000000000e+00
0.000000000000000e+00 0.000000000000000e+00 0.000000000000000e+00
0.000000000000000e+00 0.000000000000000e+00 0.000000000000000e+00
0.000000000000000e+00 0.000000000000000e+00 0.000000000000000e+00
0.000000000000000e+00 0.000000000000000e+00 0.000000000000000e+00
0.000000000000000e+00 0.000000000000000e+00 0.000000000000000e+00
0.000000000000000e+00 0.000000000000000e+00 0.000000000000000e+00
0.000000000000000e+00 0.000000000000000e+00 0.000000000000000e+00
0.000000000000000e+00 0.000000000000000e+00 0.000000000000000e+00
0.000000000000000e+00 0.000000000000000e+00 0.000000000000000e+00
0.000000000000000e+00 0.000000000000000e+00 0.000000000000000e+00
0.000000000000000e+00 0.000000000000000e+00 0.000000000000000e+00
0.000000000000000e+00 0.000000000000000e+00 0.000000000000000e+00
0.000000000000000e+00 0.000000000000000e+00 0.000000000000000e+00
0.000000000000000e+00 0.000000000000000e+00 0.000000000000000e+00
0.000000000000000e+00 0.000000000000000e+00 0.000000000000000e+00
0.000000000000000e+00 0.000000000000000e+00 0.000000000000000e+00
0.000000000000000e+00 0.000000000000000e+00 0.000000000000000e+00
0.000000000000000e+00 0.000000000000000e+00 0.000000000000000e+00
0.000000000000000e+00 0.000000000000000e+00 0.000000000000000e+00
0.000000000000000e+00 0.000000000000000e+00 0.000000000000000e+00
0.000000000000000e+00 0.000000000000000e+00 0.000000000000000e+00
0.000000000000000e+00 0.000000000000000e+00 0.000000000000000e+00
0.000000000000000e+00 0.000000000000000e+00 0.000000000000000e+00
0.000000000000000e+00 0.000000000000000e+00 0.000000000000000e+00
0.000000000000000e+00 0.000000000000000e+00 0.000000000000000e+00
0.000000000000000e+00 0.000000000000000e+00 0.000000000000000e+00
0.000000000000000e+00 0.000000000000000e+00 0.000000000000000e+00
0.000000000000000e+00 0.000000000000000e+00 0.000000000000000e+00
0.000000000000000e+00 0.000000000000000e+00 0.000000000000000e+00
0.000000000000000e+00 0.000000000000000e+00 0.000000000000000e+00
0.000000000000000e+00 0.000000000000000e+00 0.000000000000000e+00
0.000000000000000e+00 0.000000000000000e+00 0.000000000000000e+00
0.000000000000000e+00 0.000000000000000e+00 0.000000000000000e+00
0.000000000000000e+00 0.000000000000000e+00 0.000000000000000e+00
0.000000000000000e+00 0.000000000000000e+00 0.000000000000000e+00
0.000000000000000e+00 0.000000000000000e+00 0.000000000000000e+00
0.000000000000000e+00 0.000000000000000e+00 0.000000000000000e+00
0.000000000000000e+00 0.000000000000000e+00 0.000000000000000e+00
0.000000000000000e+00 0.000000000000000e+00 0.000000000000000e+00
0.000000000000000e+00 0.000000000000000e+00 0.000000000000000e+00
0.000000000000000e+00 0.000000000000000e+00 0.000000000000000e+00
0.000000000000000e+00 0.000000000000000e+00 0.000000000000000e+00
0.000000000000000e+00 0.000000000000000e+00 0.000000000000000e+00
0.000000000000000e+00 0.000000000000000e+00 0.000000000000000e+00
0.000000000000000e+00 0.000000000000000e+00 0.000000000000000e+00
0.000000000000000e+00 0.000000000000000e+00 0.000000000000000e+00
0.000000000000000e+00 0.000000000000000e+00 0.000000000000000e+00
0.000000000000000e+00 0.000000000000000e+00 0.000000000000000e+00
0.000000000000000e+00 0.000000000000000e+00 0.000000000000000e+00
0.000000000000000e+00 0.000000000000000e+00 0.000000000000000e+00
0.000000000000000e+00 0.000000000000000e+00 0.000000000000000e+00
0.000000000000000e+00 0.000000000000000e+00 0.000000000000000e+00
0.000000000000000e+00 0.000000000000000e+00 0.000000000000000e+00
0.000000000000000e+00 0.000000000000000e+00 0.000000000000000e+00
0.000000000000000e+00 0.000000000000000e+00 0.000000000000000e+00
0.000000000000000e+00 0.000000000000000e+00 0.000000000000000e+00
0.000000000000000e+00 0.000000000000000e+00 0.000000000000000e+00
0.000000000000000e+00 0.000000000000000e+00 0.000000000000000e+00
0.000000000000000e+00 0.000000000000000e+00 0.000000000000000e+00
0.000000000000000e+00 0.000000000000000e+00 0.000000000000000e+00
0.000000000000000e+00 0.000000000000000e+00 0.000000000000000e+00
0.000000000000000e+00 0.000000000000000e+00 0.000000000000000e+00
0.000000000000000e+00 0.000000000000000e+00 0.000000000000000e+00
0.000000000000000e+00 0.000000000000000e+00 0.000000000000000e+00
0.000000000000000e+00 0.000000000000000e+00 0.000000000000000e+00
0.000000000000000e+00 0.000000000000000e+00 0.000000000000000e+00
0.000000000000000e+00 0.000000000000000e+00 0.000000000000000e+00
0.000000000000000e+00 0.000000000000000e+00 0.000000000000000e+00
0.000000000000000e+00 0.000000000000000e+00 0.000000000000000e+00
0.000000000000000e+00 0.000000000000000e+00 0.000000000000000e+00
0.000000000000000e+00 0.000000000000000e+00 0.000000000000000e+00
0.000000000000000e+00 0.000000000000000e+00 0.000000000000000e+00
0.000000000000000e+00 0.000000000000000e+00 0.000000000000000e+00
0.000000000000000e+00 0.000000000000000e+00 0.000000000000000e+00
0.000000000000000e+00 0.000000000000000e+00 0.000000000000000e+00
0.000000000000000e+00 0.000000000000000e+00 0.000000000000000e+00
0.000000000000000e+00 0.000000000000000e+00 0.000000000000000e+00
0.000000000000000e+00 0.000000000000000e+00 0.000000000000000e+00
0.000000000000000e+00 0.000000000000000e+00 0.000000000000000e+00
0.000000000000000e+00 0.000000000000000e+00 0.000000000000000e+00
0.000000000000000e+00 0.000000000000000e+00 0.000000000000000e+00
0.000000000000000e+00 0.000000000000000e+00 0.000000000000000e+00
0.000000000000000e+00 0.000000000000000e+00 0.000000000000000e+00
0.000000000000000e+00 0.000000000000000e+00 0.000000000000000e+00
0.000000000000000e+00 0.000000000000000e+00 0.000000000000000e+00
0.000000000000000e+00 0.000000000000000e+00 0.000000000000000e+00
0.000000000000000e+00 0.000000000000000e+00 0.000000000000000e+00
0.000000000000000e+00 0.000000000000000e+00 0.000000000000000e+00
0.000000000000000e+00 0.000000000000000e+00 0.000000000000000e+00
0.000000000000000e+00 0.000000000000000e+00 0.000000000000000e+00
0.000000000000000e+00 0.000000000000000e+00 0.000000000000000e+00
0.000000000000000e+00 0.000000000000000e+00 0.000000000000000e+00
0.000000000000000e+00 0.000000000000000e+00 0.000000000000000e+00
0.000000000000000e+00 0.000000000000000e+00 0.000000000000000e+00
0.000000000000000e+00 0.000000000000000e+00 0.000000000000000e+00
0.000000000000000e+00 0.000000000000000e+00 0.000000000000000e+00
0.000000000000000e+00 0.000000000000000e+00 0.000000000000000e+00
0.000000000000000e+00 0.000000000000000e+00 0.000000000000000e+00
0.000000000000000e+00 0.000000000000000e+00 0.000000000000000e+00
0.000000000000000e+00 0.000000000000000e+00 0.000000000000000e+00
0.000000000000000e+00 0.000000000000000e+00 0.000000000000000e+00
0.000000000000000e+00 0.000000000000000e+00 0.000000000000000e+00
0.000000000000000e+00 0.000000000000000e+00 0.000000000000000e+00
0.000000000000000e+00 0.000000000000000e+00 0.000000000000000e+00
0.000000000000000e+00 0.000000000000000e+00 0.000000000000000e+00
0.000000000000000e+00 0.000000000000000e+00 0.000000000000000e+00
0.000000000000000e+00 0.000000000000000e+00 0.000000000000000e+00
0.000000000000000e+00 0.000000000000000e+00 0.000000000000000e+00
0.000000000000000e+00 0.000000000000000e+00 0.000000000000000e+00
0.000000000000000e+00 0.000000000000000e+00 0.000000000000000e+00
0.000000000000000e+00 0.000000000000000e+00 0.000000000000000e+00
0.000000000000000e+00 0.000000000000000e+00 0.000000000000000e+00
0.000000000000000e+00 0.000000000000000e+00 0.000000000000000e+00
0.000000000000000e+00 0.000000000000000e+00 0.000000000000000e+00
0.000000000000000e+00 0.000000000000000e+00 0.000000000000000e+00
0.000000000000000e+00 0.000000000000000e+00 0.000000000000000e+00
0.000000000000000e+00 0.000000000000000e+00 0.000000000000000e+00
0.000000000000000e+00 0.000000000000000e+00 0.000000000000000e+00
0.000000000000000e+00 0.000000000000000e+00 0.000000000000000e+00
0.000000000000000e+00 0.000000000000000e+00 0.000000000000000e+00
0.000000000000000e+00 0.000000000000000e+00 0.000000000000000e+00
0.000000000000000e+00 0.000000000000000e+00 0.000000000000000e+00
0.000000000000000e+00 0.000000000000000e+00 0.000000000000000e+00
0.000000000000000e+00 0.000000000000000e+00 0.000000000000000e+00
0.000000000000000e+00 0.000000000000000e+00 0.000000000000000e+00
0.000000000000000e+00 0.000000000000000e+00 0.000000000000000e+00
0.000000000000000e+00 0.000000000000000e+00 0.000000000000000e+00
0.000000000000000e+00 0.000000000000000e+00 0.000000000000000e+00
0.000000000000000e+00 0.000000000000000e+00 0.000000000000000e+00
0.000000000000000e+00 0.000000000000000e+00 0.000000000000000e+00
0.000000000000000e+00 0.000000000000000e+00 0.000000000000000e+00
0.000000000000000e+00 0.000000000000000e+00 0.000000000000000e+00
0.000000000000000e+00 0.000000000000000e+00 0.000000000000000e+00
0.000000000000000e+00 0.000000000000000e+00 0.000000000000000e+00
0.000000000000000e+00 0.000000000000000e+00 0.000000000000000e+00
0.000000000000000e+00 0.000000000000000e+00 0.000000000000000e+00
0.000000000000000e+00 0.000000000000000e+00 0.000000000000000e+00
0.000000000000000e+00 0.000000000000000e+00 0.000000000000000e+00
0.000000000000000e+00 0.000000000000000e+00 0.000000000000000e+00
0.000000000000000e+00 0.000000000000000e+00 0.000000000000000e+00
0.000000000000000e+00 0.000000000000000e+00 0.000000000000000e+00
0.000000000000000e+00 0.000000000000000e+00 0.000000000000000e+00
0.000000000000000e+00 0.000000000000000e+00 0.000000000000000e+00
0.000000000000000e+00 0.000000000000000e+00 0.000000000000000e+00
0.000000000000000e+00 0.000000000000000e+00 0.000000000000000e+00
0.000000000000000e+00 0.000000000000000e+00 0.000000000000000e+00
0.000000000000000e+00 0.000000000000000e+00 0.000000000000000e+00
0.000000000000000e+00 0.000000000000000e+00 0.000000000000000e+00
0.000000000000000e+00 0.000000000000000e+00 0.000000000000000e+00
0.000000000000000e+00 0.000000000000000e+00 0.000000000000000e+00
0.000000000000000e+00 0.000000000000000e+00 0.000000000000000e+00
0.000000000000000e+00 0.000000000000000e+00 0.000000000000000e+00
0.000000000000000e+00 0.000000000000000e+00 0.000000000000000e+00
0.000000000000000e+00 0.000000000000000e+00 0.000000000000000e+00
0.000000000000000e+00 0.000000000000000e+00 0.000000000000000e+00
0.000000000000000e+00 0.000000000000000e+00 0.000000000000000e+00
0.000000000000000e+00 0.000000000000000e+00 0.000000000000000e+00
0.000000000000000e+00 0.000000000000000e+00 0.000000000000000e+00
0.000000000000000e+00 0.000000000000000e+00 0.000000000000000e+00
0.000000000000000e+00 0.000000000000000e+00 0.000000000000000e+00
0.000000000000000e+00 0.000000000000000e+00 0.000000000000000e+00
0.000000000000000e+00 0.000000000000000e+00 0.000000000000000e+00
0.000000000000000e+00 0.000000000000000e+00 0.000000000000000e+00
0.000000000000000e+00 0.000000000000000e+00 0.000000000000000e+00
0.000000000000000e+00 0.000000000000000e+00 0.000000000000000e+00
0.000000000000000e+00 0.000000000000000e+00 0.000000000000000e+00
0.000000000000000e+00 0.000000000000000e+00 0.000000000000000e+00
0.000000000000000e+00 0.000000000000000e+00 0.000000000000000e+00
0.000000000000000e+00 0.000000000000000e+00 0.000000000000000e+00
0.000000000000000e+00 0.000000000000000e+00 0.000000000000000e+00
0.000000000000000e+00 0.000000000000000e+00 0.000000000000000e+00
0.000000000000000e+00 0.000000000000000e+00 0.000000000000000e+00
0.000000000000000e+00 0.000000000000000e+00 0.000000000000000e+00
0.000000000000000e+00 0.000000000000000e+00 0.000000000000000e+00
0.000000000000000e+00 0.000000000000000e+00 0.000000000000000e+00
0.000000000000000e+00 0.000000000000000e+00 0.000000000000000e+00
0.000000000000000e+00 0.000000000000000e+00 0.000000000000000e+00
0.000000000000000e+00 0.000000000000000e+00 0.000000000000000e+00
0.000000000000000e+00 0.000000000000000e+00 0.000000000000000e+00
0.000000000000000e+00 0.000000000000000e+00 0.000000000000000e+00
0.000000000000000e+00 0.000000000000000e+00 0.000000000000000e+00
0.000000000000000e+00 0.000000000000000e+00 0.000000000000000e+00
0.000000000000000e+00 0.000000000000000e+00 0.000000000000000e+00
0.000000000000000e+00 0.000000000000000e+00 0.000000000000000e+00
0.000000000000000e+00 0.000000000000000e+00 0.000000000000000e+00
0.000000000000000e+00 0.000000000000000e+00 0.000000000000000e+00
0.000000000000000e+00 0.000000000000000e+00 0.000000000000000e+00
0.000000000000000e+00 0.000000000000000e+00 0.000000000000000e+00
0.000000000000000e+00 0.000000000000000e+00 0.000000000000000e+00
0.000000000000000e+00 0.000000000000000e+00 0.000000000000000e+00
0.000000000000000e+00 0.000000000000000e+00 0.000000000000000e+00
0.000000000000000e+00 0.000000000000000e+00 0.000000000000000e+00
0.000000000000000e+00 0.000000000000000e+00 0.000000000000000e+00
0.000000000000000e+00 0.000000000000000e+00 0.000000000000000e+00
0.000000000000000e+00 0.000000000000000e+00 0.000000000000000e+00
0.000000000000000e+00 0.000000000000000e+00 0.000000000000000e+00
0.000000000000000e+00 0.000000000000000e+00 0.000000000000000e+00
0.000000000000000e+00 0.000000000000000e+00 0.000000000000000e+00
0.000000000000000e+00 0.000000000000000e+00 0.000000000000000e+00
0.000000000000000e+00 0.000000000000000e+00 0.000000000000000e+00
0.000000000000000e+00 0.000000000000000e+00 0.000000000000000e+00
0.000000000000000e+00 0.000000000000000e+00 0.000000000000000e+00
0.000000000000000e+00 0.000000000000000e+00 0.000000000000000e+00
0.000000000000000e+00 0.000000000000000e+00 0.000000000000000e+00
0.000000000000000e+00 0.000000000000000e+00 0.000000000000000e+00
0.000000000000000e+00 0.000000000000000e+00 0.000000000000000e+00
0.000000000000000e+00 0.000000000000000e+00 0.000000000000000e+00
0.000000000000000e+00 0.000000000000000e+00 0.000000000000000e+00
0.000000000000000e+00 0.000000000000000e+00 0.000000000000000e+00
0.000000000000000e+00 0.000000000000000e+00 0.000000000000000e+00
0.000000000000000e+00 0.000000000000000e+00 0.000000000000000e+00
0.000000000000000e+00 0.000000000000000e+00 0.000000000000000e+00
0.000000000000000e+00 0.000000000000000e+00 0.000000000000000e+00
0.000000000000000e+00 0.000000000000000e+00 0.000000000000000e+00
0.000000000000000e+00 0.000000000000000e+00 0.000000000000000e+00
0.000000000000000e+00 0.000000000000000e+00 0.000000000000000e+00
0.000000000000000e+00 0.000000000000000e+00 0.000000000000000e+00
0.000000000000000e+00 0.000000000000000e+00 0.000000000000000e+00
0.000000000000000e+00 0.000000000000000e+00 0.000000000000000e+00
0.000000000000000e+00 0.000000000000000e+00 0.000000000000000e+00
0.000000000000000e+00 0.000000000000000e+00 0.000000000000000e+00
0.000000000000000e+00 0.000000000000000e+00 0.000000000000000e+00
0.000000000000000e+00 0.000000000000000e+00 0.000000000000000e+00
0.000000000000000e+00 0.000000000000000e+00 0.000000000000000e+00
0.000000000000000e+00 0.000000000000000e+00 0.000000000000000e+00
0.000000000000000e+00 0.000000000000000e+00 0.000000000000000e+00
0.000000000000000e+00 0.000000000000000e+00 0.000000000000000e+00
0.000000000000000e+00 0.000000000000000e+00 0.000000000000000e+00
0.000000000000000e+00 0.000000000000000e+00 0.000000000000000e+00
0.000000000000000e+00 0.000000000000000e+00 0.000000000000000e+00
0.000000000000000e+00 0.000000000000000e+00 0.000000000000000e+00
0.000000000000000e+00 0.000000000000000e+00 0.000000000000000e+00
0.000000000000000e+00 0.000000000000000e+00 0.000000000000000e+00
0.000000000000000e+00 0.000000000000000e+00 0.000000000000000e+00
0.000000000000000e+00 0.000000000000000e+00 0.000000000000000e+00
0.000000000000000e+00 0.000000000000000e+00 0.000000000000000e+00
0.000000000000000e+00 0.000000000000000e+00 0.000000000000000e+00
0.000000000000000e+00 0.000000000000000e+00 0.000000000000000e+00
0.000000000000000e+00 0.000000000000000e+00 0.000000000000000e+00
0.000000000000000e+00 0.000000000000000e+00 0.000000000000000e+00
0.000000000000000e+00 0.000000000000000e+00 0.000000000000000e+00
0.000000000000000e+00 0.000000000000000e+00 0.000000000000000e+00
0.000000000000000e+00 0.000000000000000e+00 0.000000000000000e+00
0.000000000000000e+00 0.000000000000000e+00 0.000000000000000e+00
0.000000000000000e+00 0.000000000000000e+00 0.000000000000000e+00
0.000000000000000e+00 0.000000000000000e+00 0.000000000000000e+00
0.000000000000000e+00 0.000000000000000e+00 0.000000000000000e+00
0.000000000000000e+00 0.000000000000000e+00 0.000000000000000e+00
0.000000000000000e+00 0.000000000000000e+00 0.000000000000000e+00
0.000000000000000e+00 0.000000000000000e+00 0.000000000000000e+00
0.000000000000000e+00 0.000000000000000e+00 0.000000000000000e+00
0.000000000000000e+00 0.000000000000000e+00 0.000000000000000e+00
0.000000000000000e+00 0.000000000000000e+00 0.000000000000000e+00
0.000000000000000e+00 0.000000000000000e+00 0.000000000000000e+00
0.000000000000000e+00 0.000000000000000e+00 0.000000000000000e+00
0.000000000000000e+00 0.000000000000000e+00 0.000000000000000e+00
0.000000000000000e+00 0.000000000000000e+00 0.000000000000000e+00
0.000000000000000e+00 0.000000000000000e+00 0.000000000000000e+00
0.000000000000000e+00 0.000000000000000e+00 0.000000000000000e+00
0.000000000000000e+00 0.000000000000000e+00 0.000000000000000e+00
0.000000000000000e+00 0.000000000000000e+00 0.000000000000000e+00
0.000000000000000e+00 0.000000000000000e+00 0.000000000000000e+00
0.000000000000000e+00 0.000000000000000e+00 0.000000000000000e+00
0.000000000000000e+00 0.000000000000000e+00 0.000000000000000e+00
0.000000000000000e+00 0.000000000000000e+00 0.000000000000000e+00
0.000000000000000e+00 0.000000000000000e+00 0.000000000000000e+00
0.000000000000000e+00 0.000000000000000e+00 0.000000000000000e+00
0.000000000000000e+00 0.000000000000000e+00 0.000000000000000e+00
0.000000000000000e+00 0.000000000000000e+00 0.000000000000000e+00
0.000000000000000e+00 0.000000000000000e+00 0.000000000000000e+00
-1.099969636507031e-01 -8.173050995935202e-04  1.965924690286722e-18
-1.099983768829832e-01  5.975643137836520e-04  1.951412571200110e-18
-1.099277086874886e-01 -3.987337798401832e-03  1.997263150003921e-18
-1.099866658657446e-01  1.712697211122741e-03  1.939746574254716e-18
-1.099835326459614e-01 -1.903298903134522e-03  1.976843861357111e-18
-1.099993771714816e-01  3.701646742275610e-04  1.953766821215772e-18
-1.099896423937922e-01 -1.509491995885499e-03  1.972906368694550e-18
-1.099996699405123e-01 -2.694679541137269e-04  1.960344024285839e-18
-1.099996699405123e-01 -2.694679541137269e-04  1.960344024285839e-18
-1.099827738646833e-01 -1.946651748481114e-03  1.977275792676246e-18
-1.099997994083399e-01  2.100717137118349e-04  1.955419232436426e-18
-1.099789258834062e-01 -2.153105090833875e-03  1.979328546353453e-18
-1.099994082154834e-01 -3.608216226446874e-04  1.961277992334730e-18
-1.099574201529455e-01 -3.060351827573803e-03  1.988267456870116e-18
-1.099877563769388e-01 -1.641172497659935e-03  1.974225774094889e-18
-1.099638779630322e-01 -2.818784016434443e-03  1.985900359798991e-18
-1.099638779630322e-01 -2.818784016434443e-03  1.985900359798991e-18
-1.098142156864742e-01 -6.390464237005461e-03  2.019934657840966e-18
-1.099999854296731e-01 -5.661688456092994e-05  1.958162671374846e-18
-1.097516295788637e-01 -7.387814614879747e-03  2.029068276224374e-18
-1.097330559285765e-01  7.658749021597735e-03  1.874139760584104e-18
-1.097372860237302e-01 -7.597898140009513e-03  2.030971547454527e-18
-1.099996611593870e-01  2.730289727968573e-04  1.954769909164873e-18
-1.099322295544383e-01 -3.860687139642881e-03  1.996042314713794e-18
-1.099322295544383e-01 -3.860687139642881e-03  1.996042314713794e-18
-1.097563856852561e-01  7.316816336988852e-03  1.878068175552935e-18
-1.090558788077742e-01 -1.438107428059471e-02  2.088539763944986e-18
-1.094138292239805e-01  1.134081013620961e-02  1.830626900223428e-18
-1.099978877590230e-01 -6.816806828097899e-04  1.964547644282614e-18
-1.099298352351726e-01 -3.928272542444520e-03  1.996694120408355e-18
-1.099929077352270e-01  1.249098855080203e-03  1.944620960464021e-18
-1.099717883853379e-01 -2.491136152519380e-03  1.982674672423199e-18
-1.099618407191180e-01  2.897168559689347e-03  1.927134768336081e-18
-1.099884177115666e-01 -1.596235980636720e-03  1.973775836945197e-18
-1.098707151690990e-01  5.331599031308409e-03  1.900500191738180e-18
-1.099992405697556e-01 -4.087469595831234e-04  1.961767424306166e-18
-1.095160921702140e-01  1.030657827628183e-02  1.843073147989171e-18
-1.099878995444482e-01 -1.631549508993247e-03  1.974129449218701e-18
-1.096111662371980e-01  9.240791963963955e-03  1.855715671608942e-18
-1.098873479504591e-01 -4.977023248354883e-03  2.006713541018259e-18
-1.098240818527923e-01  6.218604762412832e-03  1.890556634585021e-18
-1.094647830698128e-01 -1.083795494910200e-02  2.059412439029597e-18
-1.095391708425701e-01  1.005833242253260e-02  1.846034496459629e-18
-1.098677250496547e-01 -5.392864954122010e-03  2.010636950554744e-18
-1.097957373332316e-01  6.700452481135096e-03  1.885101399780515e-18
-1.095367163834778e-01 -1.008502671912508e-02  2.052956514105739e-18
-1.098867612578799e-01  4.989959945092780e-03  1.904295968531647e-18
-1.097798736995312e-01 -6.955525178942950e-03  2.025129297126616e-18
-1.099643923159901e-01  2.798646561278447e-03  1.928192454789518e-18
-1.098960588568271e-01 -4.780820822487167e-03  2.004852653336769e-18
-1.098909635592766e-01  4.896542455003117e-03  1.905330584272454e-18
-1.099290593184618e-01 -3.949926247163420e-03  1.996902795994752e-18
-1.099939256376891e-01  1.155994295160233e-03  1.945595690783484e-18
-1.097954936252096e-01 -6.704444764219706e-03  2.022827512285248e-18
-1.099979109781702e-01  6.779236228844752e-04  1.950578617159442e-18
-1.099487185798199e-01 -3.358464329941146e-03  1.991175599662799e-18
-1.099608486579386e-01  2.934580451420626e-03  1.926732719827152e-18
-1.099387451308820e-01 -3.670465780647121e-03  1.994203811806976e-18
-1.099198147201054e-01  4.199325171693453e-03  1.913007679401192e-18
-1.099144482081898e-01 -4.337519462675020e-03  2.000625153346535e-18
-1.098570957363022e-01  5.605222242236885e-03  1.897446438592921e-18
-1.099067168172170e-01 -4.529194018807066e-03  2.002456950456202e-18
-1.096162156617851e-01  9.180700626255825e-03  1.856422948808125e-18
-1.097361404267547e-01 -7.614426061069940e-03  2.031120978574604e-18
-1.098947660948317e-01  4.810445401639055e-03  1.906282870875200e-18
-1.042710492698526e-01 -3.503638514692800e-02  2.215613830433442e-18
-1.098837204721114e-01  5.056478538153704e-03  1.903558399742320e-18
-1.099258196770548e-01 -4.039080133836680e-03  1.997761166510038e-18
-1.099484341620942e-01  3.367762655465821e-03  1.922060999281215e-18
-1.098874560409160e-01 -4.974636153095345e-03  2.006690938080246e-18
-1.099836663582572e-01  1.895556487022410e-03  1.937814381808720e-18
-1.099856109565980e-01 -1.779152186799412e-03  1.975605284962602e-18
-1.099995250499162e-01 -3.232472626079192e-04  1.960894008643141e-18
-1.099995250499162e-01 -3.232472626079192e-04  1.960894008643141e-18
-1.099737062718984e-01  2.404980004519099e-03  1.932402988607881e-18
-1.099962907426262e-01 -9.033398383583043e-04  1.966796690771664e-18
-1.099999915337813e-01 -4.315747876521189e-05  1.958024489499598e-18
-1.098609713745311e-01  5.528740240269994e-03  1.898301234984716e-18
-1.099989523132526e-01 -4.800937270170640e-04  1.962495356554990e-18
-1.099738968671074e-01  2.396248706363316e-03  1.932496091393694e-18
-1.099974235554012e-01  7.528686296986685e-04  1.949799910170215e-18
-1.099950100201352e-01  1.047745517899417e-03  1.946727205525276e-18
-1.099804127143494e-01  2.075769539545851e-03  1.935904855685870e-18
-1.099993724874424e-01 -3.715539917898204e-04  1.961387627705826e-18
-1.099593294864152e-01  2.990962871368194e-03  1.926126375474923e-18
-1.099668165277817e-01 -2.701714778640986e-03  1.984749811173539e-18
-1.099421755170870e-01  3.566236471403053e-03  1.919910372868842e-18
-1.098926291045752e-01 -4.859019292429104e-03  2.005595077675673e-18
-1.098893899986274e-01  4.931730500493993e-03  1.904941036499081e-18
-1.099926784316063e-01 -1.269130190789474e-03  1.970490768378187e-18
-9.433608843576313e-02  5.657475071655028e-02  1.097538210252606e-18
-1.099876637843272e-01 -1.647366160187360e-03  1.974287763931405e-18
-1.099876223248907e-01  1.650131909006255e-03  1.940406431337188e-18
-1.099699620045168e-01 -2.570497369200170e-03  1.983457577469634e-18
-1.099405123130234e-01  3.617146990361632e-03  1.919357687080627e-18
-1.099969038517261e-01 -8.253139003227222e-04  1.966005913610718e-18
-1.099869549868814e-01  1.694028545703075e-03  1.939943533265616e-18
-1.099869549868814e-01  1.694028545703075e-03  1.939943533265616e-18
-1.099869549868814e-01  1.694028545703075e-03  1.939943533265616e-18
-1.099998356334764e-01 -1.901594281017916e-04  1.959532106695532e-18
-1.099861662459861e-01  1.744486890242932e-03  1.939411055520469e-18
-1.099933931086849e-01  1.205600447183734e-03  1.945076528603085e-18
-1.099976771728518e-01  7.148542347993006e-04  1.950195007693319e-18
-1.099805672275033e-01  2.067566762294362e-03  1.935991885988179e-18
-1.099997919310397e-01 -2.139512278200933e-04  1.959775781057766e-18
-1.099999987039034e-01 -1.688612407192895e-05  1.957754688474633e-18
-1.099999987039034e-01 -1.688612407192895e-05  1.957754688474633e-18
-1.099821287672179e-01  1.982763685122541e-03  1.936890996261476e-18
-1.099972000922226e-01 -7.848387550818589e-04  1.965595318149836e-18
-1.099929058104411e-01 -1.249268336008129e-03  1.970290741513146e-18
-1.099632801630055e-01  2.842009111930154e-03  1.927727128244963e-18
-1.099854891224758e-01 -1.786667985298688e-03  1.975680338878373e-18
-1.099972203278636e-01  7.819975341058339e-04  1.949497004582680e-18
-1.098776439435598e-01 -5.186845034529582e-03  2.008696689270810e-18
-1.099443469886905e-01  3.498651916145205e-03  1.920643423549988e-18
-1.097275852006374e-01 -7.736733550847133e-03  2.032225393147444e-18
-1.099844022539050e-01  1.852366284281638e-03  1.938271241592975e-18
-1.099107394865448e-01 -4.430501723373718e-03  2.001514511171817e-18
-1.099847975341297e-01  1.828745847962386e-03  1.938520967478631e-18
-1.097262629266035e-01 -7.755464148701423e-03  2.032394311792410e-18
-1.099997984814091e-01  2.105565228611511e-04  1.955414234702693e-18
-1.099723590149238e-01 -2.465816840849510e-03  1.982424680727729e-18
-1.099999993440796e-01 -1.201259409144195e-05  1.957704626117198e-18
-1.099102114754414e-01 -4.443581148541737e-03  2.001639500926618e-18
-1.099982681280582e-01  6.172591252824090e-04  1.951208278742905e-18
-1.098987156901659e-01 -4.719352672985395e-03  2.004268371948711e-18
-1.099777336545164e-01 -2.213165203091999e-03  1.979924425053546e-18
-1.099228282165526e-01 -4.119688929301030e-03  1.998536155992580e-18
-1.099228282165526e-01 -4.119688929301030e-03  1.998536155992580e-18
-1.095345402939202e-01 -1.010863406200272e-02  2.053160344868523e-18
-1.099210125939654e-01 -4.167852002796070e-03  1.998998702906783e-18
-1.092533661803490e-01 -1.279460738993180e-02  2.075753916327971e-18
-1.077968876972580e-01 -2.190504514454790e-02  2.143440582737777e-18
-1.083386616634413e-01  1.904558712600705e-02  1.732329226332609e-18
-1.099623693573871e-01  2.877034116846521e-03  1.927351050170604e-18
-1.095914871286864e-01  9.471322448469913e-03  1.852996841415728e-18
-1.099546121436843e-01 -3.159631043630519e-03  1.989237542875476e-18
-1.097232162405505e-01  7.798449706789113e-03  1.872529277807403e-18
-1.099763174760202e-01 -2.282453595045197e-03  1.980611135524753e-18
-1.098459348636452e-01  5.819844837427727e-03  1.895042648351493e-18
-1.044114521316645e-01 -3.461572856025246e-02  2.213790373222410e-18
-1.099819143824374e-01  1.994619957316986e-03  1.936765362138828e-18
-1.094972597507554e-01 -1.050476592197755e-02  2.056567004090912e-18
-1.094637690017635e-01  1.084819228850981e-02  1.836577107570520e-18
-1.099747021764621e-01 -2.359000042048988e-03  1.981368876278143e-18
-1.099946894500833e-01  1.080875931671426e-03  1.946381097632638e-18
-1.099897620742830e-01 -1.500746095292060e-03  1.972818637600183e-18
-1.090382288849727e-01  1.451429094472891e-02  1.791336281685890e-18
-1.099899032779776e-01 -1.490361332380026e-03  1.972714450821928e-18
-1.099918839207763e-01 -1.336215386231777e-03  1.971165905123273e-18
-1.099984175377894e-01  5.900332042090752e-04  1.951490674115923e-18
-1.099999999999973e-01 -2.303524316400598e-08  1.957581449428333e-18
-1.099999602364763e-01  9.353060225221296e-05  1.956619512149146e-18
-1.099999602364763e-01  9.353060225221296e-05  1.956619512149146e-18
-1.099990996366691e-01 -4.450608071599686e-04  1.962138027825848e-18
-1.099471414209102e-01  3.409705760077171e-03  1.921607043246658e-18
-1.099737732280017e-01 -2.401916317439640e-03  1.981793293671582e-18
-1.099823222555951e-01  1.972001842382247e-03  1.937005013642636e-18
-1.099991841066911e-01 -4.236695200357603e-04  1.961919743366291e-18
-1.099709106378179e-01  2.529587612438231e-03  1.931072939059681e-18
-1.099994757520170e-01 -3.396090124636308e-04  1.961061242364232e-18
-1.099995613818294e-01  3.106377393030456e-04  1.954381717090557e-18
-1.099995613818294e-01  3.106377393030456e-04  1.954381717090557e-18
-1.099995613818294e-01  3.106377393030456e-04  1.954381717090557e-18
-1.099889613528890e-01  1.558326189416911e-03  1.941373531356051e-18
-1.097609997354103e-01 -7.247271009364858e-03  2.027790994846062e-18
-1.099099529543675e-01  4.449970962674512e-03  1.910256883066472e-18
-1.083741929773108e-01 -1.884235379448460e-02  2.122246377797380e-18
-1.098766827150611e-01  5.207167707469897e-03  1.901884877987017e-18
-1.098246795890679e-01 -6.208039397306400e-03  2.018246526511241e-18
-1.099168913925711e-01  4.275159247751762e-03  1.912176487717504e-18
-1.099514734898848e-01 -3.267028834138563e-03  1.990285160070113e-18
-1.099089444346462e-01 -4.474810974978899e-03  2.001937827546024e-18
-1.099089444346462e-01 -4.474810974978899e-03  2.001937827546024e-18
-1.099740414764420e-01 -2.389602757309367e-03  1.981671550115382e-18
-1.040786122349860e-01 -3.560396712782644e-02  2.218020882518192e-18
-1.094241003864256e-01  1.124127459950113e-02  1.831832379292285e-18
-1.089367390266928e-01 -1.525735528294921e-02  2.095422998396899e-18
-9.801906026793444e-02  4.992257830071435e-02  1.231429742242380e-18
-1.099401764928141e-01 -3.627339621376954e-03  1.993786178979950e-18
-1.098819848961491e-01  5.094054895894541e-03  1.903141429672432e-18
-1.098819848961491e-01  5.094054895894541e-03  1.903141429672432e-18
-1.098468852563767e-01  5.801878960503436e-03  1.895244154582727e-18
-1.075202655061716e-01 -2.322482519809992e-02  2.152078021492347e-18
-1.096521921410023e-01  8.740523935819786e-03  1.861585848760702e-18
-1.096521921410023e-01  8.740523935819786e-03  1.861585848760702e-18
-9.921840341951256e-02 -4.749429884610127e-02  2.253696508167255e-18
-1.099596300511084e-01 -2.979892451633750e-03  1.987480093784795e-18
-1.071338989800067e-01 -2.494649653441667e-02  2.162891715831194e-18
-1.087646435060265e-01  1.643935287676795e-02  1.766688191491410e-18
-1.099570057346945e-01  3.075205661459925e-03  1.925219457475989e-18
-1.099570057346945e-01  3.075205661459925e-03  1.925219457475989e-18
-1.099570057346945e-01  3.075205661459925e-03  1.925219457475989e-18
-1.099605851084300e-01  2.944439269479733e-03  1.926626733875143e-18
-1.099970908655509e-01  8.000006972937087e-04  1.949309724684675e-18
-1.097317282343095e-01  7.677748283941728e-03  1.873920922162195e-18
-1.099943093269966e-01 -1.118890377531510e-03  1.968976132603666e-18
-1.099077806042874e-01  4.503305745756260e-03  1.909670227984361e-18
-1.099890688264019e-01 -1.550721993441205e-03  1.973319784625868e-18
-1.096493524101065e-01  8.776076346762135e-03  1.861170024254801e-18
-1.099911445224218e-01 -1.395753075460834e-03  1.971764474776055e-18
-1.099966204784671e-01  8.622547860154949e-04  1.948661715438938e-18
-1.099982955817118e-01  6.123472203744971e-04  1.951259235351992e-18
-1.099990829525361e-01  4.491654494996680e-04  1.952949880971481e-18
-1.099990829525361e-01  4.491654494996680e-04  1.952949880971481e-18
-1.099982955817115e-01  6.123472204293284e-04  1.951259235351422e-18
-1.099988826575766e-01  4.957964144847756e-04  1.952467200258235e-18
-1.099993931924933e-01  3.653728002792232e-04  1.953816341092852e-18
-1.099995880285841e-01  3.010540511362271e-04  1.954480660215777e-18
-1.099994738021992e-01  3.402399729899014e-04  1.954076006309083e-18
-1.099994738021992e-01  3.402399729899014e-04  1.954076006309083e-18
-1.099994386964247e-01  3.514064191724768e-04  1.953960650381875e-18
-1.099994386964247e-01  3.514064191724768e-04  1.953960650381875e-18
-1.099994386964247e-01  3.514064191724768e-04  1.953960650381875e-18
-1.099987096680565e-01 -5.327957981773137e-04  1.963032533030301e-18
-1.099806754698244e-01  2.061800960592281e-03  1.936053053807335e-18
-1.099577237559962e-01 -3.049423945594903e-03  1.988160579831006e-18
-1.098884765978761e-01  4.952041094130707e-03  1.904716097471810e-18
-1.098762949470259e-01 -5.215343585431252e-03  2.008965494526153e-18
-1.099359802461209e-01  3.752365563805852e-03  1.917887711822959e-18
-1.096623546393667e-01 -8.612083078425191e-03  2.040058435906185e-18
-1.099801703317008e-01  2.088572194108964e-03  1.935768999572717e-18
-1.093680830300670e-01 -1.177380203368089e-02  2.067307035301867e-18
-1.099885193475146e-01  1.589217336087961e-03  1.941048270032999e-18
-1.099802360930029e-01 -2.085106454662214e-03  1.978653201811400e-18
-1.099802360930029e-01 -2.085106454662214e-03  1.978653201811400e-18
-1.099802360930029e-01 -2.085106454662214e-03  1.978653201811400e-18
-1.099041724000342e-01 -4.590521654832639e-03  2.003041788698927e-18
-1.099966742028339e-01 -8.553737870225240e-04  1.966310681150691e-18
-1.097259143978071e-01 -7.760393647557518e-03  2.032438758116736e-18
-1.089534701086393e-01 -1.513741560788294e-02  2.094488411367044e-18
-1.093251957030746e-01  1.216559018232830e-02  1.820575245638182e-18
-1.079628178503983e-01 -2.107201845580160e-02  2.137834461129498e-18
-1.094064809442773e-01  1.141148226083775e-02  1.829769998413375e-18
-1.097201847460403e-01 -7.840985862421861e-03  2.033164847859853e-18
-1.083171406570268e-01  1.916760391613432e-02  1.730692556158934e-18
-1.093837993252721e-01 -1.162688458567203e-02  2.066077202114739e-18
-1.097840998488860e-01  6.888499137676056e-03  1.882962185780912e-18
-1.097031504522227e-01 -8.075814563059142e-03  2.035274481874615e-18
-1.098642334865294e-01  5.463533693249473e-03  1.899029261741874e-18
-1.099709672450666e-01 -2.527125478566312e-03  1.983029836503819e-18
-1.099985865437007e-01 -5.576364298676273e-04  1.963285570352249e-18
-1.099985865437007e-01 -5.576364298676273e-04  1.963285570352249e-18
-1.096467859787268e-01  8.808082909191777e-03  1.860795495745155e-18
-1.099997279810923e-01  2.446305083478707e-04  1.955062882242691e-18
-1.099989547981274e-01  4.795240551219316e-04  1.952635676666558e-18
-1.099989547981274e-01  4.795240551219316e-04  1.952635676666558e-18
-1.099988022158234e-01  5.133333070008670e-04  1.952285583501332e-18
-1.099997774237856e-01  2.212842460902903e-04  1.955303636498060e-18
-1.099990926007948e-01  4.467963760960202e-04  1.952974394042361e-18
-1.099992344175620e-01 -4.103992570151338e-04  1.961784291576424e-18
-1.099999496454454e-01  1.052520754720198e-04  1.956498889789861e-18
-1.099991970193302e-01  4.203035837348521e-04  1.953248456112190e-18
-1.099967056827221e-01 -8.513160097967353e-04  1.966269549185930e-18
-1.099145939569693e-01  4.333824555112607e-03  1.911532837388786e-18
-1.099877391187599e-01 -1.642328695339580e-03  1.974237346476154e-18
-1.099934618543131e-01  1.199312012657844e-03  1.945142363393887e-18
-1.099428826081564e-01 -3.544370721164732e-03  1.992981862220990e-18
-1.099765180847096e-01  2.272767027977441e-03  1.933811468475676e-18
-1.099856862259516e-01 -1.774492999831719e-03  1.975558753016989e-18
-1.099553744775667e-01  3.132989546423021e-03  1.924596718882805e-18
-1.099865933085241e-01 -1.717350396760019e-03  1.974987776145088e-18
-1.099918750283603e-01  1.336947173782911e-03  1.943699972651588e-18
-1.099672831487691e-01 -2.682654819086625e-03  1.984562281090134e-18
-1.099977584011344e-01  7.022440641214541e-04  1.950326018170301e-18
-1.099907720975407e-01 -1.424799419843096e-03  1.972056287667873e-18
-1.099984852328020e-01 -5.772750548674717e-04  1.963485547141680e-18
-1.099984852328020e-01 -5.772750548674717e-04  1.963485547141680e-18
-1.099304352322135e-01 -3.911445980201363e-03  1.996531911256960e-18
-1.098725916224602e-01  5.292788505504949e-03  1.900932349517934e-18
-1.099281704979784e-01 -3.974585634668247e-03  1.997140344622587e-18
-1.098785221824058e-01  5.168206943463812e-03  1.902317921199443e-18
-1.098201160701250e-01 -6.288251453639452e-03  2.018989462988164e-18
-1.065720309391043e-01  2.724705895164691e-02  1.616622781631659e-18
-1.098347768656106e-01 -6.026756248717915e-03  2.016563601095030e-18
-1.088261954175486e-01  1.602682722629315e-02  1.772022132378565e-18
-1.092064803247105e-01 -1.318880794797459e-02  2.078969794131494e-18
-1.098716256417534e-01  5.312803293771631e-03  1.900709514060353e-18
-1.082669867486687e-01 -1.944889663614650e-02  2.126570522436861e-18
-1.095330296134692e-01  1.012499005899749e-02  1.845240322962395e-18
-1.093936809681802e-01 -1.153354083670527e-02  2.065293984626024e-18
-1.096840552263793e-01  8.331148125948361e-03  1.866359078104540e-18
-1.084916632155690e-01 -1.815376029145153e-02  2.117261852713446e-18
-1.099706683014022e-01  2.540101049742009e-03  1.930960604645030e-18
-1.085460082151255e-01 -1.782593898121038e-02  2.114860741931007e-18
-1.099840185906455e-01  1.875007907310370e-03  1.938031779396056e-18
-1.090384895040410e-01 -1.451233291642250e-02  2.089578935342957e-18
-1.099546838546109e-01 -3.157134528732552e-03  1.989213168273289e-18
-1.096127079606135e-01 -9.222486299323098e-03  2.045446585389737e-18
-1.063237350075167e-01 -2.820041443048810e-02  2.181906705868862e-18
-1.077361546685707e-01  2.220182373657047e-02  1.689177711059609e-18
-1.093313119571639e-01 -1.211050063891824e-02  2.070112106053260e-18
-1.075503468981544e-01  2.308512252699967e-02  1.676795465951082e-18
-1.095661781338836e-01 -9.759744317040837e-03  2.050138662581850e-18
-1.075635217534922e-01  2.302365713751705e-02  1.677661462765669e-18
-1.096874191066302e-01 -8.286741804013686e-03  2.037161724591732e-18
-1.087416406439779e-01  1.659082849214877e-02  1.764722471201176e-18
-1.095892669129803e-01 -9.496977280982094e-03  2.047849719107423e-18
-1.092411677260711e-01  1.289834384114233e-02  1.811551089899368e-18
-1.099991085827092e-01  4.428442268822343e-04  1.953015285357060e-18
-1.099991085827092e-01  4.428442268822343e-04  1.953015285357060e-18
-1.099691751034695e-01  2.603944519835351e-03  1.930278062943967e-18
-1.099814309783070e-01 -2.021098702145481e-03  1.978016809815777e-18
-1.099137620970854e-01  4.354871027393273e-03  1.911301788592773e-18
-1.095874287928794e-01 -9.518164243462067e-03  2.048034695910502e-18
-1.099149186446268e-01  4.325581966046438e-03  1.911623305201311e-18
-1.094121969945741e-01 -1.135654651821780e-02  2.063804947076941e-18
-1.099547508879226e-01  3.154799070433702e-03  1.924361536424810e-18
-1.094623332367261e-01 -1.086267013085798e-02  2.059622780841777e-18
-1.099950429093912e-01 -1.044287010890700e-03  1.968222665086466e-18
-1.097223245245534e-01 -7.810985912707975e-03  2.032894689185726e-18
-1.098774473974492e-01 -5.191006975598393e-03  2.008735953930890e-18
-1.099455899377598e-01 -3.459371798162331e-03  1.992156709324530e-18
-1.078704999262493e-01 -2.153962036947234e-02  2.140995993345005e-18
-1.097964577359286e-01  6.688637278427254e-03  1.885235617121534e-18
-1.099996371442071e-01  2.825387454846985e-04  1.954671772326363e-18
-1.098854596253218e-01  5.018541912916797e-03  1.903979135091253e-18
-1.099926035325288e-01 -1.275605007772092e-03  1.970555961852140e-18
-1.099533679817207e-01  3.202634770972471e-03  1.923845431513666e-18
-1.099933736355032e-01 -1.207375782641902e-03  1.969868636250698e-18
-1.099773245297882e-01  2.233403069212032e-03  1.934230270504324e-18
-1.099452315728943e-01 -3.470742626956293e-03  1.992267162929439e-18
-1.099968784801855e-01  8.286884910743527e-04  1.949011188374116e-18
-1.099411375449797e-01 -3.598093288921353e-03  1.993502786607997e-18
-1.099914545449130e-01  1.371104333838687e-03  1.943341537235818e-18
-1.099994416164119e-01  3.504911946336921e-04  1.953970105946192e-18
-1.099994416164119e-01  3.504911946336921e-04  1.953970105946192e-18
-1.099996305195267e-01 -2.851062390461105e-04  1.960504000439116e-18
-1.099902230107666e-01  1.466574935604035e-03  1.942338694865262e-18
-1.099643510344175e-01 -2.800268126327528e-03  1.985718534624040e-18
-1.099719716492721e-01  2.483032736721216e-03  1.931570155460064e-18
-1.099929298673764e-01  1.247148423547420e-03  1.944641394307483e-18
-1.099994079334825e-01  3.609075826954276e-04  1.953862481914926e-18
-1.099821128015831e-01 -1.983649086850085e-03  1.977644162481500e-18
-1.099923862982452e-01 -1.294201073068691e-03  1.970743163724440e-18
-1.088981144979372e-01  1.553063613616928e-02  1.778400201401235e-18
-1.099908818903219e-01  1.416298340459689e-03  1.942866994163943e-18
-1.099999665400376e-01 -8.579738068082727e-05  1.958462154208440e-18
-1.096834442472957e-01  8.339188092991983e-03  1.866265597262261e-18
-1.099999798196963e-01 -6.663082120651282e-05  1.958265461099873e-18
-1.094927407056205e-01  1.055176443878847e-02  1.840138382071469e-18
-1.099994587771699e-01 -3.450633704493731e-04  1.961116981823470e-18
-1.096919009972515e-01  8.227202173831154e-03  1.867566709853393e-18
-1.099936620882603e-01  1.180804985402071e-03  1.945336079777804e-18
-1.099425467133746e-01  3.554774560695993e-03  1.920034745718290e-18
-1.099767680653521e-01  2.260638383215452e-03  1.933940534598336e-18
-1.099767680653521e-01  2.260638383215452e-03  1.933940534598336e-18
-1.099989506836650e-01 -4.804669526330136e-04  1.962499162312156e-18
-1.098831248817924e-01  5.069404916984608e-03  1.903414986655443e-18
-1.099993019615117e-01 -3.918775065041131e-04  1.961595189343499e-18
-1.098399969122895e-01  5.930858142643705e-03  1.893796354040941e-18
-1.097481985531011e-01 -7.438609705383081e-03  2.029529118130771e-18
-1.096847912445936e-01  8.321452375027355e-03  1.866471796745140e-18
-1.096345699064386e-01 -8.958854917351421e-03  2.043126928113562e-18
-1.098068696803397e-01  6.515471664032761e-03  1.887200123873928e-18
-1.094815086955007e-01 -1.066767330569059e-02  2.057960509462168e-18
-1.094502562977142e-01  1.098368773976258e-02  1.834944466343431e-18
-1.094380404380186e-01 -1.110474245926122e-02  2.061677666747658e-18
-1.097088058896891e-01  7.998619272002057e-03  1.870216158857859e-18
-1.095528065802012e-01 -9.908711843673942e-03  2.051431287054411e-18
-1.089900027151364e-01  1.487209831040934e-02  1.786801698766227e-18
-1.096142999089531e-01 -9.203545809632526e-03  2.045280309358355e-18
-1.099745455637113e-01  2.366289934711858e-03  1.932815451219106e-18
-1.099973176169893e-01 -7.681907751892945e-04  1.965426357697590e-18
-1.098817171742712e-01  5.099826549343748e-03  1.903077363599751e-18
-1.099853306853898e-01 -1.796394729834363e-03  1.975777458068093e-18
-1.099908592250461e-01 -1.418057451589592e-03  1.971988566931121e-18
-1.099999429889630e-01  1.119929677070573e-04  1.956429511110874e-18
-1.099065166678294e-01 -4.534048295295982e-03  2.002503264486605e-18
-1.099453647108270e-01  3.466522551947377e-03  1.920991652674842e-18
-1.097437992607157e-01 -7.503234224230586e-03  2.030114820930021e-18
-1.099688003350873e-01  2.619723813999890e-03  1.930109266978191e-18
-1.097284897379017e-01 -7.723894085183638e-03  2.032109569621554e-18
-1.099473259387540e-01  3.403750713155715e-03  1.921671512905610e-18
-1.097076917040826e-01 -8.013886757490721e-03  2.034719013162851e-18
-1.099353553711429e-01  3.770628517958517e-03  1.917688946207839e-18
-1.099997845546758e-01  2.177106447383883e-04  1.955340480856461e-18
-1.099941829479226e-01  1.131246047005800e-03  1.945854549185474e-18
-1.099941829479226e-01  1.131246047005800e-03  1.945854549185474e-18
-1.099861630144689e-01 -1.744690618588049e-03  1.975261029396465e-18
-1.095591296766029e-01  9.838551951646349e-03  1.848647852217389e-18
-1.095153499300724e-01 -1.031446216211619e-02  2.054933638409951e-18
-1.091939707263053e-01  1.329198092921824e-02  1.806666684907049e-18
-1.095294110235470e-01 -1.016406025340404e-02  2.053638547365712e-18
-1.082150517232111e-01  1.973581973323306e-02  1.723037550701485e-18
-1.082560857313424e-01 -1.950948236443428e-02  2.126999022179426e-18
-9.437187493948172e-02  5.651503534818630e-02  1.098788627491017e-18
-1.086597849490704e-01 -1.711873636755050e-02  2.109619284680515e-18
-1.077401022675016e-01  2.218265906937745e-02  1.689444873284882e-18
-1.097339989749522e-01 -7.645225239658160e-03  2.031399319256895e-18
-1.096322560428745e-01  8.987126067299551e-03  1.858697314796436e-18
-1.099968574222453e-01 -8.314789415059477e-04  1.966068430901300e-18
-1.099968574222453e-01 -8.314789415059477e-04  1.966068430901300e-18
-1.099700692926421e-01  2.565903305160665e-03  1.930684835768415e-18
-1.096601571414165e-01  8.640019428205969e-03  1.862760242749383e-18
-1.099627202037078e-01 -2.863593092775099e-03  1.986340153072333e-18
-1.098923992242535e-01  4.864215531533608e-03  1.905688281038441e-18
-1.099999043449403e-01 -1.450658605970519e-04  1.959070009473088e-18
-1.099664401429396e-01  2.716991403962509e-03  1.929067875391256e-18
-1.099982768436672e-01  6.157040067082523e-04  1.951224412125982e-18
-1.099982768436672e-01  6.157040067082523e-04  1.951224412125982e-18
-1.099958576264523e-01  9.546229733120212e-04  1.947699090007623e-18
-1.099963386350936e-01 -8.974892053656896e-04  1.966737429946617e-18
 1.087452057104066e-01 -1.656744503540862e-02 -1.765026172334301e-18
 1.097639873893268e-01  7.201879782087140e-03 -2.027377785340366e-18
 1.099977589633015e-01  7.021560021448381e-04 -1.964755728677187e-18
 1.099250931069689e-01 -4.058805911119422e-03 -1.914545398947479e-18
 1.099926362028405e-01 -1.272784800941594e-03 -1.944372763732011e-18
 1.099926362028405e-01 -1.272784800941594e-03 -1.944372763732011e-18
 1.099375643235453e-01 -3.705664664572095e-03 -1.918395737144807e-18
 1.099935479381266e-01 -1.191390776768707e-03 -1.945225283179236e-18
 1.099310449741527e-01 -3.894271548150439e-03 -1.916341850332531e-18
 1.099592998559302e-01 -2.992052003819167e-03 -1.926114657724814e-18
 1.099148421392656e-01 -4.327525563213325e-03 -1.911601973942311e-18
 1.099148421392656e-01 -4.327525563213325e-03 -1.911601973942311e-18
 1.099156548485451e-01 -4.306834012989843e-03 -1.911829035235271e-18
 1.099172649693979e-01 -4.265543534780492e-03 -1.912281933920419e-18
 1.099306476470737e-01 -3.905471532971050e-03 -1.916219703647814e-18
 1.099227182589402e-01 -4.122621807245449e-03 -1.913847450543785e-18
 1.099908076419450e-01 -1.422052837478673e-03 -1.942806547459085e-18
 1.099348391975538e-01 -3.785647977285343e-03 -1.917525440794663e-18
 1.099619621880250e-01 -2.892554538687909e-03 -1.927184337409823e-18
 1.099668879872318e-01 -2.698804624929589e-03 -1.929262707862469e-18
 1.099668879872318e-01 -2.698804624929589e-03 -1.929262707862469e-18
 1.099868532732452e-01  1.700619607544155e-03 -1.974820499746022e-18
 1.099153559922935e-01 -4.314454436811229e-03 -1.911745419645303e-18
 1.099999566848151e-01 -9.761833189200302e-05 -1.956577449006005e-18
 1.092084860702939e-01 -1.317218927264389e-02 -1.808155818522269e-18
 1.097640424264766e-01  7.201040910769653e-03 -2.027370145694049e-18
 1.098060409469460e-01 -6.529423524136743e-03 -1.887042025280380e-18
 1.089519237587329e-01  1.514854148989857e-02 -2.094575206621903e-18
 1.098797036775339e-01 -5.143026320880047e-03 -1.902597669064232e-18
 1.085044690093370e-01  1.807706295286273e-02 -2.116701709796803e-18
 1.085112953138087e-01 -1.803604139824830e-02 -1.745774163679360e-18
 1.093739160294035e-01  1.171949198527420e-02 -2.066852824464826e-18
 1.090866244274693e-01 -1.414596659900628e-02 -1.795981936943494e-18
 1.092179008323899e-01  1.309389696638022e-02 -2.078197859831091e-18
 1.091316643137722e-01 -1.379419602971010e-02 -1.800397790257093e-18
 1.053476548083246e-01  3.165235577940465e-02 -2.200003637782041e-18
 1.031979323023107e-01 -3.808131784126736e-02 -1.445258597305356e-18
 1.099794312396206e-01  2.127135211850084e-03 -1.979070708697657e-18
 1.099431305985517e-01 -3.536669929430010e-03 -1.920231155160861e-18
 1.099866046233469e-01  1.716625593277372e-03 -1.974980530413373e-18
 1.099999985012459e-01 -1.815835387428103e-05 -1.957394615587863e-18
 1.099999985012459e-01 -1.815835387428103e-05 -1.957394615587863e-18
 1.099844537579311e-01  1.849305699295427e-03 -1.976305493088096e-18
 1.099951150891370e-01 -1.036656417253969e-03 -1.946843011834271e-18
 1.098828610781113e-01  5.075119829958598e-03 -2.007641598512984e-18
 1.099879886775547e-01 -1.625529657077652e-03 -1.940665730221114e-18
 1.096583875676844e-01  8.662449772174464e-03 -2.040505336614997e-18
 1.062447366116168e-01 -2.849659527606932e-02 -1.597959656850633e-18
 1.099098437334026e-01  4.452667795709604e-03 -2.001726318517110e-18
 1.097645578494296e-01 -7.193180111684994e-03 -1.879483926264000e-18
 1.099790496812577e-01  2.146772276552678e-03 -1.979265682117683e-18
 1.099661077102264e-01 -2.730412983928672e-03 -1.928924057496109e-18
 1.099999777037500e-01 -7.003695053333555e-05 -1.956861211736954e-18
 1.099999777037500e-01 -7.003695053333555e-05 -1.956861211736954e-18
 1.099961596233070e-01  9.191670815952912e-04 -1.966956976521649e-18
 1.099995494314589e-01 -3.148410328553838e-04 -1.954338317105145e-18
 1.099885385693043e-01  1.587886453301845e-03 -1.973692199392584e-18
 1.099808708432320e-01  2.051352861953805e-03 -1.978317692045522e-18
 1.099893763593886e-01  1.528753764569418e-03 -1.973099541970978e-18
 1.098955511073328e-01  4.792478149717882e-03 -2.004963392131375e-18
 1.099849034805414e-01 -1.822362855173007e-03 -1.938588435853557e-18
 1.098589410122751e-01  5.568938827227179e-03 -2.012289723215139e-18
 1.092816708274564e-01 -1.255055461560935e-02 -1.815845298852826e-18
 1.099566015591673e-01  3.089623530214523e-03 -1.988553645128438e-18
 1.094130511616223e-01  1.134831421419771e-02 -2.063735564065206e-18
 1.099727697517525e-01 -2.447429902562953e-03 -1.931950164833198e-18
 1.099727697517525e-01 -2.447429902562953e-03 -1.931950164833198e-18
 1.099998813372215e-01 -1.615728848147493e-04 -1.955918998307280e-18
 1.099998813372215e-01 -1.615728848147493e-04 -1.955918998307280e-18
 1.098730956934594e-01 -5.282314145886373e-03 -1.901048940302687e-18
 1.009628424040694e-01 -4.366353688938828e-02 -1.348127233595727e-18
 2.591208959287980e-02  1.069044602106502e-01 -1.559541036691785e-18
 1.097163788128106e-01 -7.894062338477302e-03 -1.871425212567535e-18
 1.095913306670655e-01  9.473132672026900e-03 -2.047641451378157e-18
 1.098485032239231e-01 -5.771164480733504e-03 -1.895588528367140e-18
 1.099933027025568e-01 -1.213820655471770e-03 -1.944990460064203e-18
 1.099933027025568e-01 -1.213820655471770e-03 -1.944990460064203e-18
 1.099950209551561e-01  1.046596901728030e-03 -1.968246007673900e-18
 1.098186151145240e-01 -6.314410053833827e-03 -1.889474982890551e-18
 1.099999928891455e-01  3.955234340522407e-05 -1.957987472163740e-18
 1.099810048774486e-01  2.044154139625363e-03 -1.978246113087454e-18
 1.099999593385821e-01  9.458070735424845e-05 -1.958552271540787e-18
 1.099993055777606e-01  3.908611139063817e-04 -1.961584810634248e-18
 1.099980605306126e-01 -6.532070909146781e-04 -1.950835232010726e-18
 1.099988509750290e-01 -5.027764645364225e-04 -1.952394918950879e-18
 1.099988509750290e-01 -5.027764645364225e-04 -1.952394918950879e-18
 1.099996902156295e-01  2.610602717440771e-04 -1.960257999223657e-18
 1.099936986857656e-01 -1.177390939720491e-03 -1.945371809153220e-18
 1.099850924095385e-01  1.810924533272630e-03 -1.975922506117158e-18
 1.099843375563065e-01 -1.856203733524737e-03 -1.938230661825099e-18
 1.099447639043376e-01  3.485525788082614e-03 -1.992410731819889e-18
 1.098342150457201e-01 -6.036986441133662e-03 -1.892603029114876e-18
 1.099977429180139e-01  7.046651278784501e-04 -1.964781223487574e-18
 1.099283205346206e-01 -3.970433784566093e-03 -1.915510826369623e-18
 1.099999263956498e-01  1.272515286588911e-04 -1.958887366102540e-18
 1.098921813690300e-01 -4.869134826244499e-03 -1.905633860078756e-18
 1.098921813690300e-01 -4.869134826244499e-03 -1.905633860078756e-18
 1.099954701782221e-01  9.982686370759606e-04 -1.967757446771192e-18
 1.097951481891433e-01 -6.710099412377294e-03 -1.884991796544649e-18
 1.097905347650582e-01  6.785165878773334e-03 -2.023568643582074e-18
 1.099997265281865e-01  2.452829470776690e-04 -1.960096539169429e-18
 1.097869555940449e-01  6.842834309783699e-03 -2.024097470143839e-18
 1.099280510898463e-01 -3.977886824440169e-03 -1.915429454001229e-18
 1.095741090958122e-01  9.670295541449998e-03 -2.049360749834751e-18
 1.099998394513840e-01  1.879379409836040e-04 -1.959509349666616e-18
 1.099998394513840e-01  1.879379409836040e-04 -1.959509349666616e-18
 1.099992879673842e-01  3.957861397324318e-04 -1.961635100087834e-18
 1.099994468607420e-01 -3.488414119918538e-04 -1.953987150192628e-18
 1.099986673887532e-01  5.414542440265440e-04 -1.963120743005402e-18
 1.099956500307444e-01 -9.782506396167228e-04 -1.947452629906350e-18
 1.099999142289031e-01  1.373667859622052e-04 -1.958991080174977e-18
 1.099991694041393e-01 -4.274697643026469e-04 -1.953174334764861e-18
 1.099991694041393e-01 -4.274697643026469e-04 -1.953174334764861e-18
 1.099951743586272e-01  1.030348395027175e-03 -1.968081790167923e-18
 1.099973063149449e-01 -7.698074149408217e-04 -1.949623783871459e-18
 1.099913502766699e-01 -1.379443480113573e-03 -1.943253999959457e-18
 1.099913502766699e-01 -1.379443480113573e-03 -1.943253999959457e-18
 1.099830618108175e-01  1.930314668082053e-03 -1.977113059454875e-18
 1.099948368718134e-01  1.065768053141176e-03 -1.968439708307672e-18
 1.098551753422429e-01 -5.642734312811840e-03 -1.897026839991815e-18
 1.099922414191397e-01  1.306456120047147e-03 -1.970866501583734e-18
 1.098704612682093e-01 -5.336828712901855e-03 -1.900441940190404e-18
 1.099617600427689e-01  2.900229007586451e-03 -1.986699486579007e-18
 1.099364497904146e-01 -3.738583619445388e-03 -1.918037672395474e-18
 1.099083699402495e-01  4.488899316890307e-03 -2.002072356328202e-18
 1.099075427683376e-01 -4.509106632801389e-03 -1.909606393402843e-18
 1.097817563770442e-01  6.925746658032084e-03 -2.024856838134026e-18
 1.099988252746893e-01 -5.083681621491829e-04 -1.952337008921012e-18
 1.097500897905854e-01  7.410653881970260e-03 -2.029275539027739e-18
 1.090183864276631e-01  1.466258574429026e-02 -2.090764970342774e-18
 1.005055662887116e-01 -4.470605266611354e-02 -1.329277988774596e-18
 1.021556240704560e-01  4.079495643796666e-02 -2.237134543730594e-18
 1.096573410960260e-01 -8.675686932441763e-03 -1.862343657213522e-18
 1.099979736111932e-01 -6.676836310578489e-04 -1.950684943984919e-18
 1.099979736111932e-01 -6.676836310578489e-04 -1.950684943984919e-18
 1.099862018207334e-01  1.742242534442301e-03 -1.975236566824953e-18
 1.095755967062498e-01  9.653424597997871e-03 -2.049213880821736e-18
 1.099774390321329e-01  2.227757602030611e-03 -1.980069113494887e-18
 1.098863545895977e-01 -4.998907381530745e-03 -1.904196799725422e-18
 1.099647887532453e-01  2.783026132479595e-03 -1.985549169129446e-18
 1.099992507212661e-01  4.060058619818939e-04 -1.961739441182315e-18
 1.099999997622933e-01  7.231555764852049e-06 -1.957655510127818e-18
 1.099999997622933e-01  7.231555764852049e-06 -1.957655510127818e-18
 1.099935499090349e-01  1.191208801418670e-03 -1.969705663389395e-18
 1.099482853575049e-01  3.372617224738049e-03 -1.991313305807633e-18
 1.099330329420285e-01 -3.837742587357370e-03 -1.916958043129004e-18
 1.098816371729747e-01  5.101549978845881e-03 -2.007891377839653e-18
 1.096571396648088e-01 -8.678232569626909e-03 -1.862313917007417e-18
 1.098128729735469e-01  6.413495871642686e-03 -2.020147404341941e-18
 1.082215695982719e-01 -1.970004755543295e-02 -1.723521090194880e-18
 1.099961451090458e-01  9.209023562065475e-04 -1.966974547539313e-18
 1.098774743860560e-01 -5.190435679356459e-03 -1.902070882227308e-18
 1.099757976620328e-01 -2.307363993727879e-03 -1.933443176439793e-18
 1.099757976620328e-01 -2.307363993727879e-03 -1.933443176439793e-18
 1.099886465174292e-01  1.580391490722217e-03 -1.973617112440431e-18
 1.097705440987973e-01 -7.101242726025325e-03 -1.880535081951581e-18
 1.097153973291040e-01  7.907691756560446e-03 -2.033765028894760e-18
 1.091989270707422e-01 -1.325120094929709e-02 -1.807173888447933e-18
 1.099364094582113e-01  3.739769436266794e-03 -1.994874315611163e-18
 1.087128378437067e-01 -1.677852460640860e-02 -1.762281381623743e-18
 1.098659736235240e-01  5.428428847747399e-03 -2.010971187925224e-18
 1.094473462856020e-01 -1.101264686800768e-02 -1.834595134684013e-18
 1.099167169069687e-01  4.279643021706658e-03 -2.000070868141414e-18
 1.034273420087497e-01 -3.745377050451729e-02 -1.455789037596324e-18
 1.098753809988605e-01  5.234563052937463e-03 -2.009146702775095e-18
 1.096808484793427e-01 -8.373259631194712e-03 -1.865869329797376e-18
 1.098663825368512e-01  5.420146517041382e-03 -2.010893367086382e-18
 1.098172180968192e-01 -6.338659911652437e-03 -1.889200962814263e-18
 1.087443527718132e-01  1.657304257640639e-02 -2.105517464493336e-18
 1.090983001869322e-01 -1.405563574947600e-02 -1.797117837674793e-18
 1.095564403808137e-01  9.868453327910462e-03 -2.051082313246164e-18
 1.086271246118108e-01 -1.732477412753340e-02 -1.755143497027005e-18
 1.097163002796913e-01  7.895153762691563e-03 -2.033652274645232e-18
 1.089933046101090e-01 -1.484788032575382e-02 -1.787109290920541e-18
 1.090697904454361e-01  1.427518168671020e-02 -2.087699330197172e-18
 1.095176181441278e-01 -1.029035062750300e-02 -1.843267037711375e-18
 1.095979284083267e-01  9.396493420591182e-03 -2.046971425586319e-18
 1.058110294165620e-01  3.006702602199562e-02 -2.191961254316515e-18
 1.099156210410784e-01 -4.307696734214101e-03 -1.911819569443899e-18
 1.099799376734839e-01  2.100787789501844e-03 -1.978809011098988e-18
 1.099799376734839e-01  2.100787789501844e-03 -1.978809011098988e-18
 1.099734572176784e-01  2.416341778679227e-03 -1.981935886264807e-18
 1.099868417486885e-01  1.701364790065169e-03 -1.974827951132490e-18
 1.099007547720308e-01  4.671627183099345e-03 -2.003814297771531e-18
 1.099904137689292e-01  1.452197968483344e-03 -1.972331420916970e-18
 1.099782032278662e-01  2.189706548853091e-03 -1.979691752520987e-18
 1.099973842739424e-01  7.585861128303751e-04 -1.965328859520941e-18
 1.099973842739424e-01  7.585861128303751e-04 -1.965328859520941e-18
 1.095392113046364e-01  1.005789176508432e-02 -2.052722112408390e-18
 1.099992538459773e-01  4.051583988872879e-04 -1.961730789414837e-18
 1.099951651721550e-01  1.031328633489796e-03 -1.968091698277803e-18
 1.099992538459772e-01  4.051583988962850e-04 -1.961730789414930e-18
 1.099794533060323e-01  2.125994004265446e-03 -1.979059375902412e-18
 1.099388496303700e-01 -3.667334447637516e-03 -1.918812439767651e-18
 1.099299939469462e-01  3.923828592623585e-03 -1.996651284903634e-18
 1.099975503697140e-01 -7.341067103251149e-04 -1.949994938888075e-18
 1.099145418833463e-01  4.335145046482078e-03 -2.000602424143859e-18
 1.099997703834059e-01 -2.247567527633510e-04 -1.955267832461502e-18
 1.099883797390144e-01  1.598850332674159e-03 -1.973802022695802e-18
 1.099986294430084e-01  5.491089688369887e-04 -1.963198717232294e-18
 1.099986671514625e-01 -5.415024484456769e-04 -1.951993752174618e-18
 1.099351052287762e-01  3.777914548771998e-03 -1.995243032466586e-18
 1.099947999974973e-01 -1.069566973354786e-03 -1.946499260394218e-18
 1.097398103100590e-01  7.561351275545991e-03 -2.030640964384894e-18
 1.099362538057456e-01 -3.744342286517891e-03 -1.917975016402302e-18
 1.095428808978077e-01  1.001784630590121e-02 -2.052375964650387e-18
 1.099584674628540e-01 -3.022487918987455e-03 -1.925787126325251e-18
 1.093657827707949e-01  1.179514980537463e-02 -2.067485440043390e-18
 1.099965184201555e-01 -8.751773787724638e-04 -1.948527124243375e-18
 1.091453297198898e-01  1.368564943056998e-02 -2.082986411920976e-18
 1.099504310598138e-01 -3.301925159819739e-03 -1.922772992809003e-18
 1.092854801792924e-01  1.251734085105184e-02 -2.073476610282157e-18
 1.099527839671895e-01 -3.222622823799755e-03 -1.923629668296734e-18
 1.094272550076667e-01  1.121052458571879e-02 -2.062572600070944e-18
 1.099937185313861e-01 -1.175535468688205e-03 -1.945391226620526e-18
 1.097389144690900e-01  7.574341631170810e-03 -2.030758493011273e-18
 1.098812987712758e-01  5.108833559389017e-03 -2.007960191721924e-18
 1.090210915735820e-01  1.464245854030615e-02 -2.090606311931918e-18
 1.099624973647544e-01 -2.872137410764507e-03 -1.927403640090557e-18
 1.076595324341801e-01 -2.257044696176063e-02 -1.684026657271780e-18
 1.094521165121571e-01  1.096513524809995e-02 -2.060493753898130e-18
 1.080222571894572e-01 -2.076516197130870e-02 -1.709030424434100e-18
 1.095031095713635e-01  1.044361020920857e-02 -2.056042755893975e-18
 1.061393579194053e-01 -2.888661801693486e-02 -1.592076975344204e-18
 1.097563578220183e-01  7.317234289334461e-03 -2.028427233746202e-18
 1.094821723986185e-01 -1.066085957505802e-02 -1.838829393548013e-18
 1.094885797047328e-01  1.059485319578827e-02 -2.057338146330279e-18
 1.077910892406734e-01 -2.193356059350811e-02 -1.692911643641135e-18
 1.099617059619229e-01  2.902278750147378e-03 -1.986719584506042e-18
 1.098169793749810e-01 -6.342794412160268e-03 -1.889154233983624e-18
 1.099860484773027e-01  1.751896215060030e-03 -1.975333025957129e-18
 1.099971418737037e-01 -7.929562511460580e-04 -1.949383011560720e-18
 1.099971418737037e-01 -7.929562511460580e-04 -1.949383011560720e-18
 1.099825332856007e-01 -1.960196949712059e-03 -1.937130060157117e-18
 1.099997194823396e-01  2.484226368885060e-04 -1.960128672952426e-18
 1.099558865992915e-01 -3.114964231526011e-03 -1.924791036262262e-18
 1.099989206186546e-01 -4.873014784177591e-04 -1.952555158203018e-18
 1.099852801161284e-01 -1.799488198545206e-03 -1.938830167320235e-18
 1.099952244030323e-01 -1.024991964108658e-03 -1.946964805224139e-18
 1.099881126175555e-01 -1.617121772733654e-03 -1.940754323838561e-18
 1.099881126175555e-01 -1.617121772733654e-03 -1.940754323838561e-18
 1.099755175341430e-01 -2.320677292802200e-03 -1.933301401918200e-18
 1.099773885136937e-01 -2.230250144716654e-03 -1.934263804328066e-18
 1.099871036275435e-01 -1.684350208220680e-03 -1.940045619905272e-18
 1.099017465036142e-01 -4.648237887118358e-03 -1.908073718862360e-18
 1.099895765689385e-01 -1.514280748589365e-03 -1.941837030763560e-18
 1.099126960492138e-01 -4.381694557253294e-03 -1.911007214974179e-18
 1.099392484024356e-01 -3.655360544116264e-03 -1.918942563901135e-18
 1.099392484024356e-01 -3.655360544116264e-03 -1.918942563901135e-18
 1.099996749801544e-01 -2.674028054086399e-04 -1.954827961948003e-18
 1.097337014882839e-01 -7.649493949283443e-03 -1.874246341595073e-18
 1.099986091434366e-01 -5.531604734633937e-04 -1.951872937880571e-18
 1.099522139375837e-01 -3.242013297898815e-03 -1.923420293862580e-18
 1.099914455409221e-01 -1.371826453415750e-03 -1.943333957482731e-18
 1.099914455409221e-01 -1.371826453415750e-03 -1.943333957482731e-18
 1.099781291732649e-01 -2.193422792940386e-03 -1.934655372909803e-18
 1.099909500879377e-01  1.410992116466009e-03 -1.971917590192901e-18
 1.099437238955879e-01 -3.518177933344316e-03 -1.920431712131497e-18
 1.094581547715310e-01  1.090469412736968e-02 -2.059980201367416e-18
 1.084231489597022e-01 -1.855857671434318e-02 -1.738836633612539e-18
 1.098280531191044e-01  6.148068645283147e-03 -2.017690384810956e-18
 1.099662546252331e-01 -2.724489621623555e-03 -1.928987532419795e-18
 1.095930974125270e-01  9.452671555084072e-03 -2.047462662177445e-18
 1.099879429860124e-01  1.628618342529974e-03 -1.974100105642553e-18
 1.099782622633022e-01  2.186739477912688e-03 -1.979662317550930e-18
 1.099782622633022e-01  2.186739477912688e-03 -1.979662317550930e-18
 1.099704507989220e-01  2.549500163132718e-03 -1.983250537484471e-18
 1.099776455671741e-01  2.217538162230584e-03 -1.979967788000794e-18
 1.099592186186560e-01  2.995036022245091e-03 -1.987628366540335e-18
 1.099892634675827e-01  1.536854533975925e-03 -1.973180765389503e-18
 1.099532179373482e-01  3.207781978554370e-03 -1.989707464675138e-18
 1.099996932056894e-01 -2.597973328211965e-04 -1.954906429761124e-18
 1.099646367695060e-01  2.789024946201870e-03 -1.985608100029312e-18
 1.099784707009272e-01  2.176231211347677e-03 -1.979558058325497e-18
 1.099930437337727e-01  1.237065147955769e-03 -1.970167812699184e-18
 1.099930437337727e-01  1.237065147955769e-03 -1.970167812699184e-18
 1.099698273833195e-01  2.576250236840434e-03 -1.983514290349999e-18
 1.099993778539804e-01 -3.699618050145267e-04 -1.953768917769118e-18
 1.099884078601238e-01  1.596914648617769e-03 -1.973782634693988e-18
 1.099374977779448e-01 -3.707638375610607e-03 -1.918374273722539e-18
 1.094434748074975e-01  1.105105524647258e-02 -2.061222761226512e-18
 1.022127111035902e-01 -4.065171200397277e-02 -1.401315544588731e-18
 1.095865293001369e-01  9.528514886914847e-03 -2.048125037465580e-18
 1.086201256061473e-01 -1.736860136293966e-02 -1.754568632449890e-18
 1.097301303626678e-01  7.700551317396389e-03 -2.031898928037023e-18
 1.093891508779111e-01 -1.157642735085087e-02 -1.827766838330293e-18
 1.098395046855066e-01  5.939967208873968e-03 -2.015756012433211e-18
 1.099895532943324e-01 -1.515970353650481e-03 -1.941819256485964e-18
 1.099895532943324e-01 -1.515970353650481e-03 -1.941819256485964e-18
 1.099995621473628e-01  3.103665387739783e-04 -1.960762324078261e-18
 1.099950461923400e-01 -1.043941159699079e-03 -1.946766937651301e-18
 1.099985102125233e-01  5.724954369428640e-04 -1.963436882847742e-18
 1.099693584479697e-01 -2.596190004964037e-03 -1.930361000601358e-18
 1.099671971746769e-01  2.686176752495115e-03 -1.984596937664965e-18
 1.099585363623305e-01  3.019980306885631e-03 -1.987872518438332e-18
 1.099212085595312e-01 -4.162680484011705e-03 -1.913408995290367e-18
 1.099212085595312e-01 -4.162680484011705e-03 -1.913408995290367e-18
 1.099923542094778e-01  1.296925385942729e-03 -1.970770583991662e-18
 1.088295586602237e-01 -1.600397331355104e-02 -1.772316800945041e-18
 1.098619574845059e-01  5.509110424791987e-03 -2.011728689835593e-18
 1.017266457313398e-01 -4.185319041901586e-02 -1.380320677237999e-18
 1.054974940024184e-01  3.114929789272338e-02 -2.197501467936515e-18
 9.940380637744958e-02 -4.710502391119694e-02 -1.285022298861402e-18
 1.063494877085113e-01  2.810313975585520e-02 -2.181365543957252e-18
 7.633261482039941e-02 -7.920436802778281e-02 -5.446338247672817e-19
 1.019173905397067e-01  4.138653773362588e-02 -2.238973176783976e-18
 1.099208644626402e-01  4.171756918351615e-03 -1.999036188321940e-18
 1.099208644626402e-01  4.171756918351615e-03 -1.999036188321940e-18
 1.098661534508595e-01  5.424788098360410e-03 -2.010936980789795e-18
 1.042167390739598e-01 -3.519760356601136e-02 -1.493018595690778e-18
 1.066893013750919e-01  2.678419257873427e-02 -2.173861230389393e-18
 1.066893013750919e-01  2.678419257873427e-02 -2.173861230389393e-18
 1.077553018618489e-01  2.210870689709730e-02 -2.144793063714239e-18
 1.060621295449887e-01  2.916889912872905e-02 -2.187201953060477e-18
 1.058072460534776e-01 -3.008033714203972e-02 -1.573901618166261e-18
 1.081036199580016e-01 -2.033733886170687e-02 -1.714874098988613e-18
 1.095016787418814e-01 -1.045860185252941e-02 -1.841254656818912e-18
 1.098345065824448e-01 -6.031680013960206e-03 -1.892662738970183e-18
 1.099336551513401e-01 -3.819877624503036e-03 -1.917152672089400e-18
 1.099336551513401e-01 -3.819877624503036e-03 -1.917152672089400e-18
 1.099990696746355e-01  4.524054758694700e-04 -1.962212958418604e-18
 1.099306806674355e-01 -3.904541969840882e-03 -1.916229842208018e-18
 1.099508728807765e-01  3.287180061277278e-03 -1.990481518053082e-18
 1.099341654877446e-01 -3.805162087626826e-03 -1.917312950930140e-18
 1.097569406674833e-01  7.308486526941356e-03 -2.028347726095719e-18
 1.096619104074798e-01 -8.617737857570357e-03 -1.863020379254375e-18
 1.097022330620127e-01  8.088266885296423e-03 -2.035386098908939e-18
 1.056573850639248e-01 -3.060256494892936e-02 -1.565868962091167e-18
 1.096338170223995e-01 -8.968063620367582e-03 -1.858920954006470e-18
 1.095628836288815e-01 -9.796659171579345e-03 -1.849145091372802e-18
 1.099037164401231e-01 -4.601425067187113e-03 -1.908589760951394e-18
 1.099430978918206e-01 -3.537686525044966e-03 -1.920220127954924e-18
 1.099430978918206e-01 -3.537686525044966e-03 -1.920220127954924e-18
 1.099371054212338e-01 -3.719254172608591e-03 -1.918247943172378e-18
 1.099941650333487e-01 -1.132986591435214e-03 -1.945836346912541e-18
 1.094507845084146e-01  1.097842295106759e-02 -2.060606575623610e-18
 1.099995984365473e-01 -2.972268464844601e-04 -1.954520168575379e-18
 1.094729371118649e-01  1.075527963846588e-02 -2.058708091151202e-18
 1.099353649670029e-01  3.770348733443551e-03 -1.995169918814103e-18
 1.082265937277661e-01  1.967242766119611e-02 -2.128148380527305e-18
 1.098828124280069e-01  5.076173057667236e-03 -2.007651554258444e-18
 1.098828124280069e-01  5.076173057667236e-03 -2.007651554258444e-18
 1.098785678046504e-01  5.167236901746604e-03 -2.008511664039669e-18
 1.098432796954076e-01  5.869744948154312e-03 -2.015101685018241e-18
 1.098432796954076e-01  5.869744948154312e-03 -2.015101685018241e-18
 1.098432796954076e-01  5.869744948154312e-03 -2.015101685018241e-18
 1.098432796954076e-01  5.869744948154312e-03 -2.015101685018241e-18
 1.098142982585141e-01  6.389045154796096e-03 -2.019921546754723e-18
 5.354957331752634e-02  9.608560348725917e-02 -1.940223204104623e-18
 1.099994483808973e-01  3.483617347451344e-04 -1.961150686304335e-18
 1.097191298513712e-01  7.855733234896321e-03 -2.033297598645770e-18
 1.094996369348346e-01  1.047995759243918e-02 -2.056354412343362e-18
 1.094996369348346e-01  1.047995759243918e-02 -2.056354412343362e-18
 9.337011097348584e-02 -5.815515778328581e-02 -1.064109380557799e-18
 5.918584370446536e-02  9.272020224843412e-02 -2.005949083652114e-18
 1.091637473762161e-01 -1.353795622616636e-02 -1.803601517520154e-18
 1.091637473762161e-01 -1.353795622616636e-02 -1.803601517520154e-18
 1.087103559553324e-01  1.679459758567792e-02 -2.107188847826848e-18
 1.087103559553324e-01  1.679459758567792e-02 -2.107188847826848e-18
 1.014231052741571e-01 -4.258349112681079e-02 -1.367415238251065e-18
 1.042610520769614e-01 -3.506612353547323e-02 -1.495158107988493e-18
 1.085619927638027e-01  1.772833120042538e-02 -2.114142321552331e-18
 1.073747952604327e-01 -2.388835161286932e-02 -1.665418428085129e-18
 1.098570361491737e-01  5.606389972081995e-03 -2.012640620812499e-18
 1.093573482037358e-01 -1.187309537765165e-02 -1.824152715603382e-18
 1.099377561993489e-01  3.699967817759657e-03 -1.994489335304788e-18
 1.099999993234816e-01  1.219975278706086e-05 -1.957706548738240e-18
 1.097216712217936e-01 -7.820157562130911e-03 -1.872278742027866e-18
 1.089707539224661e-01  1.501248778748103e-02 -2.093512409479051e-18
 1.098821584187261e-01 -5.090310525097777e-03 -1.903182989763386e-18
 1.098804410418561e-01  5.127248428456144e-03 -2.008134133493833e-18
 1.099323701030084e-01 -3.856682970521053e-03 -1.916751641561473e-18
 1.099461016362318e-01  3.443070576580987e-03 -1.991998326479237e-18
 1.099916027758114e-01  1.359161067733726e-03 -1.971396660355183e-18
 1.099916027758114e-01  1.359161067733726e-03 -1.971396660355183e-18
 1.099897491727712e-01  1.501691350039944e-03 -1.972828120151542e-18
 1.099975784142801e-01 -7.298924538806545e-04 -1.950038737928627e-18
 1.099459475112210e-01  3.447988668742517e-03 -1.992046115251179e-18
 1.099999549310702e-01  9.957490877573416e-05 -1.958603506709210e-18
 1.099842429751731e-01 -1.861799446236871e-03 -1.938171484725655e-18
 1.099842429751731e-01 -1.861799446236871e-03 -1.938171484725655e-18
 1.099910076289843e-01  1.406499470544966e-03 -1.971872453899675e-18
 1.099977864529269e-01 -6.978362674778684e-04 -1.950371805894697e-18
 1.098182351464665e-01 -6.321014895988361e-03 -1.889400358551939e-18
 1.099961393230237e-01 -9.215932019509404e-04 -1.948043472036095e-18
 1.089379628864929e-01 -1.524861443348299e-02 -1.782007021553133e-18
 1.099935509091784e-01  1.191116446851589e-03 -1.969704732278513e-18
 1.099935509091784e-01  1.191116446851589e-03 -1.969704732278513e-18
 1.099952138947402e-01  1.026119023460431e-03 -1.968039038503776e-18
 1.099952138947402e-01  1.026119023460431e-03 -1.968039038503776e-18
 1.099837349834868e-01  1.891570533212009e-03 -1.976726957454360e-18
 1.099837349834868e-01  1.891570533212009e-03 -1.976726957454360e-18
 1.079112563448933e-01 -2.133449680837769e-02 -1.701205323370689e-18
 1.099246897752178e-01 -4.069714710160946e-03 -1.914426137230560e-18
 1.099998020698347e-01 -2.086734222780683e-04 -1.955433646737421e-18
 1.099678145210736e-01 -2.660783617417806e-03 -1.929669848677631e-18
 1.099436525444933e-01 -3.520406961658643e-03 -1.920407539897472e-18
 1.099436525444933e-01 -3.520406961658643e-03 -1.920407539897472e-18
 1.051510819339192e-01  3.229938030560617e-02 -2.203153330962575e-18
 1.099979958736405e-01  6.640058603170877e-04 -1.964367965930843e-18
 1.099424464820658e-01  3.557873176219732e-03 -1.993112833657609e-18
 1.098802313431417e-01  5.131740443321885e-03 -2.008176555475996e-18
 1.098802313431417e-01  5.131740443321885e-03 -2.008176555475996e-18
 1.099988282384469e-01 -5.077264702860287e-04 -1.952343654815397e-18
 1.096645434365381e-01  8.584166404236763e-03 -2.039810554476785e-18
 1.099804415350737e-01 -2.074241970022924e-03 -1.935921063806964e-18
 1.098440998379148e-01  5.854377063203887e-03 -2.014958380997307e-18
 1.079284975480038e-01 -2.124710373275588e-02 -1.702410083250697e-18
 1.091344870138233e-01  1.377184607195421e-02 -2.083679092210320e-18
 1.098275832255422e-01 -6.156457003549078e-03 -1.891257491335514e-18
 1.071782531596220e-01  2.475524287200470e-02 -2.161715989460741e-18
 1.098566259356468e-01 -5.614422324275902e-03 -1.897343550429037e-18
 1.097122368197882e-01  7.951420753467170e-03 -2.034158083419215e-18
 1.092601097934432e-01 -1.273689161156271e-02 -1.813547049591118e-18
 1.096931498397870e-01  8.210534588319850e-03 -2.036480708366775e-18
 1.099779662667128e-01 -2.201575762433478e-03 -1.934568704993587e-18
 1.098011292518922e-01  6.611506258730027e-03 -2.021972895602482e-18
 1.099844362972195e-01 -1.850343855290572e-03 -1.938292627157558e-18
 1.099724792052167e-01  2.460450661595167e-03 -1.982371684114899e-18
 1.099474585550069e-01 -3.399464265882478e-03 -1.921717914658607e-18
 1.099960958840653e-01  9.267633265733486e-04 -1.967033890863462e-18
 1.099913415194225e-01 -1.380141571626778e-03 -1.943246671477091e-18
 1.099823945389257e-01  1.967966332045401e-03 -1.977488041725056e-18
 1.099908322626654e-01 -1.420147233972272e-03 -1.942826564997951e-18
 1.099999129204279e-01 -1.384106146187003e-04 -1.956157544280184e-18
 1.099435476257877e-01  3.523682087832199e-03 -1.992781128811098e-18
 1.099842197890211e-01 -1.863168645144083e-03 -1.938157004079042e-18
 1.099364247103660e-01  3.739321048264534e-03 -1.994869980017613e-18
 1.099693008854383e-01 -2.598627092886916e-03 -1.930334936014366e-18
 1.097702136367218e-01  7.106349143436754e-03 -2.026507046231117e-18
 1.097410260044151e-01 -7.543686863745890e-03 -1.875463819463833e-18
 1.099460038286439e-01  3.446192407831793e-03 -1.992028661558571e-18
 1.099694174342772e-01 -2.593690260163711e-03 -1.930387734302797e-18
 1.098766220667622e-01  5.208447292416213e-03 -2.008900459106559e-18
 1.099890804382823e-01 -1.549898171180507e-03 -1.941462245448396e-18
 1.099721339989927e-01  2.475831922316569e-03 -1.982523577624706e-18
 1.099985465240772e-01 -5.654755435636393e-04 -1.951745290622812e-18
 1.099979809912982e-01  6.664666818057973e-04 -1.964392985128660e-18
 1.099866947993926e-01  1.710838129467497e-03 -1.974922671115445e-18
 1.099623191841659e-01 -2.878951135322404e-03 -1.927330460609843e-18
 1.099197386688517e-01  4.201315385842729e-03 -1.999319855994302e-18
 1.099932156164770e-01 -1.221686681266272e-03 -1.944908089705996e-18
 1.097354510809936e-01  7.624354139913750e-03 -2.031210718248037e-18
 1.099489947338243e-01 -3.349411444035209e-03 -1.922259527354803e-18
 1.098055729783053e-01  6.537288650965653e-03 -2.021289418056028e-18
 1.045978714805394e-01 -3.404827868983281e-02 -1.511610197082884e-18
 1.098715881033400e-01  5.313579551484110e-03 -2.009891069493108e-18
 1.099271822699928e-01 -4.001824356433374e-03 -1.915168042870161e-18
 1.098974919784373e-01  4.747763352281607e-03 -2.004538503947786e-18
 1.098598668147685e-01 -5.550645317554768e-03 -1.898056511314562e-18
 1.099902669447723e-01  1.463276261575629e-03 -1.972442633443055e-18
 1.099998287837827e-01 -1.940812676876616e-04 -1.955584051231495e-18
 1.099970392191572e-01  8.070706407396006e-04 -1.965820879770667e-18
 1.095040825965884e-01 -1.043340283318562e-02 -1.841556347050518e-18
 1.099969690922428e-01  8.165724218557207e-04 -1.965917259127818e-18
 1.099969690922428e-01  8.165724218557207e-04 -1.965917259127818e-18
 1.099888360470136e-01  1.567145501579749e-03 -1.973484387618917e-18
 1.099473023527366e-01 -3.404512499005605e-03 -1.921663266091422e-18
 1.099953623456785e-01  1.010080414062366e-03 -1.967876889480103e-18
 1.099478087152374e-01 -3.388120233631024e-03 -1.921840701988016e-18
 1.099562469746470e-01  3.102217150748885e-03 -1.988676729750024e-18
 1.099304180433112e-01 -3.911929041125518e-03 -1.916149269024520e-18
 1.099816106121124e-01  2.011299869653814e-03 -1.977919327169400e-18
 1.099129411714169e-01 -4.375541457762817e-03 -1.911074798078196e-18
 1.098710139752803e-01  5.325437826482001e-03 -2.010002691667272e-18
 1.097443464078815e-01 -7.495227248513922e-03 -1.876020814946753e-18
 1.099752077354076e-01  2.335312303291740e-03 -1.981134490391980e-18
 1.098723038618562e-01 -5.298758730863153e-03 -1.900865886577988e-18
 1.099977930244877e-01  6.967996425968822e-04 -1.964701300188082e-18
 1.099662887923594e-01 -2.723110213593689e-03 -1.929002313380972e-18
 1.099956633466579e-01  9.767522350422446e-04 -1.967539811219324e-18
 1.099435688401007e-01 -3.523020110928592e-03 -1.920379201118493e-18
 1.099398952692718e-01  3.635853157309205e-03 -1.993868647760537e-18
 1.094040104496661e-01 -1.143514309177231e-02 -1.829482926572307e-18
 1.098291991148003e-01  6.127562468185865e-03 -2.017500085650991e-18
 1.099016381217340e-01 -4.650799733314502e-03 -1.908045468038498e-18
 1.098769924114721e-01  5.200628674426634e-03 -2.008826716372872e-18
 1.086921874927141e-01 -1.691178222567485e-02 -1.760544710365926e-18
 1.095489971074256e-01  9.950740312018262e-03 -2.051795320186761e-18
 1.088810550964732e-01 -1.564978725346563e-02 -1.776872374556971e-18
 1.098787177167039e-01  5.164048114886092e-03 -2.008481568276886e-18
 1.097900438447171e-01 -6.793104781692814e-03 -1.884048108630665e-18
 1.097685886050692e-01  7.131406288455545e-03 -2.026735579916975e-18
 1.098718818540106e-01 -5.307502035637230e-03 -1.900768542164626e-18
 1.084454882872001e-01  1.842758991704297e-02 -2.119253614712143e-18
 1.098495866198705e-01 -5.750506016303180e-03 -1.895820066907735e-18
 1.094416939486765e-01  1.106867768273017e-02 -2.061372132850327e-18
 1.091922563985546e-01 -1.330605661314671e-02 -1.806491553860731e-18
 1.097480765945666e-01 -7.440408845829957e-03 -1.876650437241959e-18
 1.097683900153663e-01 -7.134462378792306e-03 -1.880155427603013e-18
 1.097683900153663e-01 -7.134462378792306e-03 -1.880155427603013e-18
 1.095973356761392e-01  9.403404313950973e-03 -2.047031884128747e-18
 1.063309289732577e-01 -2.817327712006545e-02 -1.602815529340690e-18
 1.071450874925530e-01  2.489839806519943e-02 -2.162596634459691e-18
 1.095337742185894e-01 -1.011693162134806e-02 -1.845336371618154e-18
 1.093642664572979e-01  1.180920074590653e-02 -2.067602823745646e-18
 1.099700853757916e-01  2.565213917212783e-03 -1.983405487458789e-18
 1.098971275664086e-01  4.756190981496866e-03 -2.004618609629719e-18
 1.099981726564732e-01 -6.340443491462359e-04 -1.951034117634558e-18
 1.099960776090005e-01  9.289298330331078e-04 -1.967055825703729e-18
 1.099913426131808e-01  1.380054401040904e-03 -1.971606701860619e-18
 1.099999994661504e-01 -1.083729134018221e-05 -1.957469854017493e-18
 1.099970861371144e-01  8.006505755976671e-04 -1.965755750894573e-18
 1.099857890462930e-01  1.768108555573139e-03 -1.975494984982145e-18
 1.099997928751184e-01  2.134652923084068e-04 -1.959770805047914e-18
 1.099773812936221e-01  2.230606150181150e-03 -1.980097353766663e-18
 1.099714202360106e-01 -2.507335493050773e-03 -1.931310640410539e-18
 1.099249569474149e-01  4.062491859554533e-03 -1.997986360183933e-18
 1.099891637601464e-01 -1.543973880493805e-03 -1.941524598195039e-18
 1.096866295665763e-01  8.297185928050444e-03 -2.037254983365102e-18
 1.099815007514193e-01 -2.017298308510068e-03 -1.936524989261351e-18
 1.099817830769196e-01  2.001846952532910e-03 -1.977825271096928e-18
 1.098590893419229e-01 -5.566011944235859e-03 -1.897884788750979e-18
 1.099773826444333e-01  2.230539549048556e-03 -1.980096693503517e-18
 1.099846960320199e-01  1.834840250311111e-03 -1.976161177411072e-18
 1.099974347951247e-01  7.512246616426336e-04 -1.965254122368896e-18
 1.099722791198033e-01  2.469377491604156e-03 -1.982459843291777e-18
 1.099931733577241e-01  1.225485494661150e-03 -1.970051142780974e-18
 1.099989137447102e-01 -4.888506763542825e-04 -1.952539118426961e-18
 1.098863124036105e-01  4.999834630873055e-03 -2.006929490895493e-18
 1.099999997010471e-01 -8.109845901523251e-06 -1.957497881708840e-18
 1.099999997010471e-01 -8.109845901523251e-06 -1.957497881708840e-18
 1.099999997010471e-01 -8.109845901523251e-06 -1.957497881708840e-18
 1.098413689787971e-01  5.905392524101855e-03 -2.015433947430086e-18
 1.092848991152282e-01 -1.252241292141241e-02 -1.816191895769367e-18
 1.090916620972276e-01  1.410706421847887e-02 -2.086361216416451e-18
 1.052235675792748e-01 -3.206245196315692e-02 -1.543148853739663e-18
 1.089059604220573e-01  1.547552210910041e-02 -2.097116841298287e-18
 1.097176612191601e-01 -7.876218419874932e-03 -1.871631374299687e-18
 1.093641166447975e-01  1.181058806762303e-02 -2.067614411880163e-18
 1.099147849388825e-01 -4.328978151848616e-03 -1.911586031172719e-18
 1.064307327823088e-01  2.779386837812861e-02 -2.179633745901429e-18
 1.088131387351522e-01 -1.611523622552500e-02 -1.770881402790104e-18
 1.085727989932005e-01  1.766203042637045e-02 -2.113653414926367e-18
 1.073786693635945e-01 -2.387093139581742e-02 -1.665666358774031e-18
 1.038820522772883e-01  3.617346008690219e-02 -2.220374196879733e-18
 1.026264490230957e-01 -3.959560532319086e-02 -1.419529616882426e-18
 1.035871291907477e-01  3.700954830877173e-02 -2.223716191510487e-18
 1.055391940280140e-01 -3.100771716713722e-02 -1.559602819761906e-18
 1.050198644966306e-01  3.272350930308835e-02 -2.205175931519377e-18
 1.071210311447300e-01 -2.500169367242449e-02 -1.649463207728849e-18
 1.037433373394367e-01  3.656938552499622e-02 -2.221973589143507e-18
 1.024000003188652e-01 -4.017760488999270e-02 -1.409519857947784e-18
 1.082356870880958e-01  1.962233524756348e-02 -2.127795526368394e-18
 1.080258577382798e-01 -2.074642282199287e-02 -1.709287038447110e-18
 1.096072730015910e-01  9.286856580923868e-03 -2.046011245070444e-18
 1.080901315635614e-01 -2.040890635413744e-02 -1.713898726933712e-18
 1.040527874563678e-01  3.567936970519413e-02 -2.218336033868619e-18
 1.095401108383403e-01 -1.004809024263283e-02 -1.846156459483405e-18
 1.077456735616537e-01  2.215558233821714e-02 -2.145103344756211e-18
 1.095638429139022e-01 -9.785924889233496e-03 -1.849272453845667e-18
 7.293279242948022e-03  1.097579522307352e-01 -1.257515691108050e-18
 1.096804286217246e-01 -8.378757506619747e-03 -1.865805369257468e-18
 1.093434849982215e-01  1.200009535144063e-02 -2.069194365617665e-18
 1.099044119991691e-01 -4.584781686935706e-03 -1.908773143940329e-18
 1.097790781334984e-01  6.968070332539707e-03 -2.025244035975987e-18
 1.099666197837367e-01 -2.709710932745983e-03 -1.929145876510487e-18
 1.099164424907373e-01  4.286685220587344e-03 -2.000138340612511e-18
 1.099969866715953e-01  8.142009388650513e-04 -1.965893205847127e-18
 1.099969866715953e-01  8.142009388650513e-04 -1.965893205847127e-18
 1.099249460636140e-01  4.062786348249340e-03 -1.997989192258074e-18
 1.098981804149634e-01 -4.731801082053129e-03 -1.907151674589201e-18
 1.091957539296207e-01  1.327732366637555e-02 -2.079688371987302e-18
 1.090363363269600e-01 -1.452850165688155e-02 -1.791156591453508e-18
 1.091404253789923e-01  1.372470575613852e-02 -2.083300422881764e-18
 1.057285839633453e-01 -3.035566723209715e-02 -1.569672815785036e-18
 1.088924629166147e-01  1.557021258537141e-02 -2.097849547333867e-18
 1.035645850201311e-01 -3.707258730663386e-02 -1.462147959578530e-18
 1.093122659273332e-01  1.228122623486617e-02 -2.071527302712127e-18
 1.088045011536479e-01 -1.617345135417286e-02 -1.770129547424992e-18
 1.097360180299257e-01  7.616189791213160e-03 -2.031136922063541e-18
 1.099641242323620e-01 -2.809160338894679e-03 -1.928079658675923e-18
 1.068584122333178e-01  2.610133588486017e-02 -2.169854655367033e-18
 1.096920454814705e-01 -8.225275563224638e-03 -1.867589076346515e-18
 1.096321489625000e-01  8.988432225042121e-03 -2.043387740620298e-18
 1.098945464111670e-01 -4.815461461151364e-03 -1.906227423153039e-18
 1.091995254900860e-01  1.324626863460132e-02 -2.079436412234588e-18
 1.094508012297657e-01 -1.097825624415246e-02 -1.835009970703594e-18
 1.099808063857978e-01  2.054805764448425e-03 -1.978352022267385e-18
 1.099808063857978e-01  2.054805764448425e-03 -1.978352022267385e-18
 1.645131681791907e-02  1.087628345297989e-01 -1.410269420978029e-18
 1.098535356503891e-01 -5.674566512841450e-03 -1.896670595427804e-18
 1.098535356503891e-01 -5.674566512841450e-03 -1.896670595427804e-18
 1.099771479365741e-01 -2.242082009394633e-03 -1.934137954859866e-18
 1.099498881141062e-01  3.319955375528288e-03 -1.990800747403106e-18
 1.099707972024561e-01 -2.534514284084615e-03 -1.931020300580660e-18
 1.099498456919358e-01  3.321360010518940e-03 -1.990814424564245e-18
 1.099684929245733e-01 -2.632596417616407e-03 -1.929971534915491e-18
 1.099976809735496e-01  7.142691657651422e-04 -1.964878799112355e-18
 1.099818871535168e-01 -1.996120775671991e-03 -1.936749457204311e-18
 1.099868833284398e-01  1.698674688139578e-03 -1.974801051273715e-18
 1.099457391603447e-01 -3.454625954485225e-03 -1.921120549667899e-18
 1.099992623639846e-01  4.028391481180712e-04 -1.961707111543802e-18
 1.099216585516233e-01 -4.150780801284630e-03 -1.913539268353621e-18
 1.099992661383921e-01  4.018071865247576e-04 -1.961696575683399e-18
 1.099290586603023e-01 -3.949944564139263e-03 -1.915734481493334e-18
 1.099999372339481e-01  1.175096908878128e-04 -1.958787465138819e-18
 1.099968423614802e-01 -8.334689578160099e-04 -1.948961428039507e-18
 1.099979532724314e-01 -6.710259875574798e-04 -1.950650240533541e-18
 1.099986385427651e-01 -5.472830511594663e-04 -1.951933849455765e-18
 1.099979532724320e-01 -6.710259874496081e-04 -1.950650240534661e-18
 1.099989299240562e-01 -4.851964164556440e-04 -1.952576952550692e-18
 1.099948008496944e-01 -1.069479329407983e-03 -1.946500176069797e-18
 1.099999901699245e-01 -4.650394040807873e-05 -1.957103226717568e-18
 1.099985118590788e-01 -5.721789825387347e-04 -1.951675798317513e-18
 1.099999169525387e-01 -1.351681713204659e-04 -1.956190930963409e-18
 1.099996715799796e-01 -2.687978730952137e-04 -1.954813567624148e-18
 1.099996715799796e-01 -2.687978730952137e-04 -1.954813567624148e-18
 1.099997952083020e-01 -2.122595853834567e-04 -1.955396678105106e-18
 1.099996100587213e-01 -2.928940580184441e-04 -1.954564893233339e-18
 1.099999992322817e-01  1.299607621259421e-05 -1.957714729049144e-18
 1.099995338493607e-01  3.202388535307805e-04 -1.960863254929354e-18
 1.099998596339988e-01  1.757284852069929e-04 -1.959384261117562e-18
 1.099998596339988e-01  1.757284852069929e-04 -1.959384261117562e-18
 1.099975004311616e-01  7.415516816578277e-04 -1.965155904085039e-18
 1.099982656734868e-01  6.176963857499715e-04 -1.963896954312670e-18
 1.099982656734868e-01  6.176963857499715e-04 -1.963896954312670e-18
 1.099974905399635e-01  7.430174362734925e-04 -1.965170788155580e-18
 1.099973791048140e-01  7.593352828658161e-04 -1.965336464980098e-18
 1.099973791048140e-01  7.593352828658161e-04 -1.965336464980098e-18
 1.099973791048140e-01  7.593352828658161e-04 -1.965336464980098e-18
 1.099907545957296e-01  1.426149873594447e-03 -1.972069851623981e-18
 1.099991456225498e-01  4.335462017314267e-04 -1.962020537811599e-18
 1.099924778874350e-01  1.286393478715942e-03 -1.970664573467626e-18
 1.099999077512076e-01  1.424595584552359e-04 -1.959043291283964e-18
 1.099941726758902e-01  1.132244384577804e-03 -1.969110908305497e-18
 1.099958253269178e-01  9.583374406595308e-04 -1.967353488528550e-18
 1.099958253269178e-01  9.583374406595308e-04 -1.967353488528550e-18
 1.099924133991870e-01  1.291895747457460e-03 -1.970719959634832e-18
 1.099987509489600e-01  5.242038426348250e-04 -1.962944988451235e-18
 1.099998086715549e-01  2.051638888283434e-04 -1.959685792259251e-18
 1.099998086715549e-01  2.051638888283434e-04 -1.959685792259251e-18
 6.373695745677312e-02  8.965266451229131e-02 -2.055423745749408e-18
 1.097051573271703e-01 -8.048506434162979e-03 -1.869638655867053e-18
 1.097051573271703e-01 -8.048506434162979e-03 -1.869638655867053e-18
 1.099353344924122e-01  3.771237203015605e-03 -1.995178505184505e-18
 1.056212573061800e-01 -3.072702401895927e-02 -1.563947253815215e-18
 1.097360148182877e-01  7.616236065176416e-03 -2.031137340356775e-18
 1.065723757301585e-01 -2.724571032713001e-02 -1.616642774226745e-18
 1.097238868133724e-01  7.789009087567213e-03 -2.032696688084059e-18
-2.658211978709967e-02 -1.067398281225160e-01  1.569773488339431e-18
 1.056890825538241e-01  3.049291440533222e-02 -2.194166912856307e-18
 1.097981825327224e-01  6.660263696801152e-03 -2.022421420183878e-18
 1.098277958510385e-01  6.152662716465628e-03 -2.017733008831348e-18
 1.099906986234012e-01  1.430460183324758e-03 -1.972113142396299e-18
 1.098637613574367e-01  5.473019312606650e-03 -2.011389968839301e-18
 1.094837219002968e-01 -1.064493489216518e-02 -1.839020589110433e-18
 1.099597742991758e-01  2.974564854608988e-03 -1.987427921727155e-18
 1.098857561109758e-01 -5.012045881583578e-03 -1.904051155769253e-18
 1.099388610001107e-01  3.666993591252423e-03 -1.994170198353433e-18
 1.092728187740048e-01 -1.262739391891609e-02 -1.814898270074591e-18
 1.097738746641532e-01  7.049570286105834e-03 -2.025988816448353e-18
 1.099218835787427e-01 -4.144817306143068e-03 -1.913604545725846e-18
 1.094098146151292e-01  1.137947564183131e-02 -2.063998138208548e-18
 1.096235486345208e-01 -9.092721527398564e-03 -1.857457401085507e-18
 1.095845013106077e-01  9.551809907310032e-03 -2.048328294844979e-18
 1.071249010632822e-01 -2.498510700761468e-02 -1.649702499501151e-18
 1.096207875684807e-01  9.125948326940567e-03 -2.044598479052698e-18
 1.068031808976242e-01 -2.632642304129673e-02 -1.630195570407287e-18
 1.089586510471740e-01  1.510007821106029e-02 -2.094196984159574e-18
 1.073207048886191e-01 -2.413019482328918e-02 -1.661970974265042e-18
 1.096672440668136e-01  8.549595241290198e-03 -2.039503409273408e-18
 1.073251130667224e-01 -2.411058077308025e-02 -1.662250950293326e-18
 9.830688185175819e-02  4.935338874468922e-02 -2.256576367920506e-18
 1.099994785615144e-01  3.386977928774929e-04 -1.961051929912361e-18
 1.088777526416979e-01  1.567274639918641e-02 -2.098641258134014e-18
 1.099434063034261e-01 -3.528088774357212e-03 -1.920324229909058e-18
 1.094751946428088e-01  1.073227645558447e-02 -2.058511917259521e-18
 1.099999413803499e-01  1.135619634913853e-04 -1.958746977464085e-18
 1.098265268239887e-01  6.175273741272954e-03 -2.017942745047203e-18
 1.099820892919620e-01  1.984952134147162e-03 -1.977657132437365e-18
 1.099810402036106e-01  2.042252612130281e-03 -1.978227204254404e-18
 1.099268296598170e-01  4.011498590497127e-03 -1.997495750019814e-18
 1.099998196608505e-01 -1.991847893869404e-04 -1.955531452046540e-18
 1.098768812260067e-01  5.202977229047508e-03 -2.008848868240455e-18
 1.098096853934288e-01 -6.467843055930549e-03 -1.887739599493188e-18
 1.098774423156846e-01  5.191114539612059e-03 -2.008736968675993e-18
 1.098264230591813e-01 -6.177118909790848e-03 -1.891024551210470e-18
 1.092948541206377e-01  1.243522668665460e-02 -2.072799737540587e-18
 1.099017518331296e-01 -4.648111875714959e-03 -1.908075108428836e-18
 1.097953267574234e-01  6.707176919582979e-03 -2.022852614577789e-18
 1.094638856730352e-01 -1.084701495161962e-02 -1.836591280583823e-18
 1.095326173790307e-01  1.012944865719942e-02 -2.053339986708624e-18
 1.099692109161304e-01 -2.602431648205388e-03 -1.930294244479402e-18
 1.095760471637651e-01  9.648310109251931e-03 -2.049169347736629e-18
 1.098691377109110e-01 -5.364007705143779e-03 -1.900139131637551e-18
 1.097224134926521e-01  7.809736061317022e-03 -2.032883430710163e-18
 1.087036998215495e-01 -1.683762587499891e-02 -1.761511515554265e-18
 1.098830186807724e-01  5.071706379611731e-03 -2.007609331278031e-18
 1.098987847193464e-01 -4.717744928534702e-03 -1.907306850777740e-18
 1.091214840460265e-01  1.387449889519421e-02 -2.084502409355826e-18
 1.095850768979357e-01 -9.545204098052840e-03 -1.852123656602749e-18
 1.099615776825872e-01  2.907134939473797e-03 -1.986767197203462e-18
 1.099707630996603e-01  2.535993548561603e-03 -1.983117319690486e-18
 1.099996014629847e-01 -2.961046850295803e-04 -1.954531752235743e-18
 1.099400244781565e-01  3.631944072023400e-03 -1.993830782755516e-18
 1.099986335319725e-01 -5.482892473708810e-04 -1.951923421982183e-18
 1.099986335319725e-01 -5.482892473708810e-04 -1.951923421982183e-18
 1.069712343617353e-01 -2.563503499366950e-02 -1.640290043290409e-18
 1.094017666813248e-01  1.145658967603033e-02 -2.064647234314646e-18
 1.087744902157419e-01 -1.637407335715279e-02 -1.767534148786238e-18
 1.093641219218873e-01  1.181053920253113e-02 -2.067614003721202e-18
 1.091439290472046e-01 -1.369681540135256e-02 -1.801616606399199e-18
 1.098457353727065e-01  5.823608883612496e-03 -2.014671355421761e-18
 1.095299009206363e-01 -1.015877966665063e-02 -1.844837468197558e-18
 1.098356874207545e-01  6.010138834526688e-03 -2.016409067615782e-18
 1.099866974977731e-01 -1.710664646657428e-03 -1.939768021045904e-18
 1.098139917247740e-01  6.394311649524331e-03 -2.019970202941335e-18
 1.099767141131435e-01 -2.263261557104809e-03 -1.933912622295638e-18
 1.099999030687435e-01 -1.460303632603302e-04 -1.956079078808454e-18
 1.099845686760513e-01  1.842458450800761e-03 -1.976237185202251e-18
 1.099498672502642e-01 -3.320646269817823e-03 -1.922570606541144e-18
 1.099301098466928e-01  3.920580198644715e-03 -1.996619971409791e-18
 1.098678517709308e-01 -5.390282667981108e-03 -1.899846281103470e-18
 1.099188832576983e-01  4.223636274639045e-03 -1.999533971956298e-18
 1.099251192713401e-01 -4.058097236589348e-03 -1.914553145947031e-18
 1.098455436317099e-01  5.827224403956944e-03 -2.014705091320133e-18
 1.099963736506248e-01 -8.931873891227746e-04 -1.948339501583062e-18
 1.099987264228423e-01  5.293253750445174e-04 -1.962997173864717e-18
 1.099390766416074e-01 -3.660522802924638e-03 -1.918886466878358e-18
 1.099996476746363e-01  2.784087926943574e-04 -1.960435491906480e-18
 1.095646676427496e-01 -9.776686776908496e-03 -1.849382049127477e-18
 1.079137189168012e-01  2.132203718094440e-02 -2.139529538614990e-18
 1.099984019083193e-01  5.929398079274059e-04 -1.963645013930251e-18
 1.099648471724800e-01 -2.780716873952449e-03 -1.928384770527260e-18
 1.099948652179228e-01 -1.062838506534774e-03 -1.946569553621802e-18
 1.099955864733457e-01 -9.853711913273817e-04 -1.947378337744490e-18
 1.099966554616997e-01 -8.577804148545184e-04 -1.948708310545558e-18
 1.099873418537187e-01 -1.668721652396605e-03 -1.940210437157911e-18
 1.099992690601928e-01 -4.010065127369582e-04 -1.953448008559703e-18
 1.099990531608075e-01  4.564030300125060e-04 -1.962253737951957e-18
 1.098330498720955e-01 -6.058147884771240e-03 -1.892364867314327e-18
 1.099693860993149e-01  2.595018485437903e-03 -1.983699274111125e-18
 1.097703471138804e-01 -7.104287050659271e-03 -1.880500297040316e-18
 1.092723412198096e-01  1.263152581208908e-02 -2.074415995819964e-18
 1.097021701583119e-01 -8.089120011271121e-03 -1.869168205882960e-18
 1.093758113516924e-01  1.170179008352835e-02 -2.066704673375935e-18
 1.091938942727711e-01 -1.329260898194395e-02 -1.806658871311607e-18
 1.095973238427801e-01  9.403542231561189e-03 -2.047033090593350e-18
 1.097085337474907e-01 -8.002351090501503e-03 -1.870172972683397e-18
 1.093451158561555e-01  1.198522583866866e-02 -2.069070609837895e-18
 1.095465426728535e-01 -9.977724611585517e-03 -1.846993902947927e-18
 1.099628818587347e-01  2.857378750168999e-03 -1.986279179803580e-18
 1.094961920630644e-01 -1.051588910594197e-02 -1.840568409106626e-18
 1.099347320100400e-01  3.788759411820949e-03 -1.995347817622182e-18
 1.097849950610765e-01 -6.874217005547690e-03 -1.883124860869020e-18
 1.096707184120799e-01  8.504911697263803e-03 -2.039106132209153e-18
 1.098673048344191e-01 -5.401419111750160e-03 -1.899722124801661e-18
 1.098690327336762e-01  5.366157486166220e-03 -2.010385812820583e-18
 1.098202080468277e-01 -6.286644936007551e-03 -1.889788607520405e-18
 1.098339380895523e-01  6.042023149604517e-03 -2.016705535935126e-18
 1.098889355386284e-01 -4.941846435001641e-03 -1.904829011289064e-18
 1.095531077280288e-01  9.905381725651925e-03 -2.051402430586287e-18
 1.098735780312532e-01 -5.272271864205172e-03 -1.901160704875279e-18
 1.096835541514525e-01  8.337742422582940e-03 -2.037616955932792e-18
 1.097620692468205e-01 -7.231054878518801e-03 -1.879050489141661e-18
 1.099577419793773e-01  3.048766766523325e-03 -1.988154151861585e-18
 1.095307489686790e-01 -1.014963203077722e-02 -1.844946548859590e-18
 1.096866954470420e-01  8.296314959536111e-03 -2.037247206901488e-18
 1.095239550558733e-01 -1.022268403693527e-02 -1.844075060251573e-18
 1.082145365137307e-01  1.973864451066547e-02 -2.128614162094786e-18
 1.098281601260061e-01 -6.146156793991524e-03 -1.891373588878852e-18
 1.099475424656422e-01  3.396749293924309e-03 -1.991548033405180e-18
 1.099999083749456e-01 -1.419771232550369e-04 -1.956120818807278e-18
 1.099988182306673e-01 -5.098900436224268e-04 -1.952321246784955e-18
 1.099988182306673e-01 -5.098900436224268e-04 -1.952321246784955e-18
 1.099652047756415e-01  2.766539110731776e-03 -1.985387174585041e-18
 1.096992419735205e-01  8.128733630459442e-03 -2.035748650027459e-18
 1.094382934426289e-01  1.110224879765399e-02 -2.061656547799354e-18
 1.097629271117614e-01  7.218021325690177e-03 -2.027524764933106e-18
 7.997462199503531e-02  7.552522649255136e-02 -2.199238061637094e-18
 1.045277444243863e-01 -3.426296317527349e-02 -1.508156397368898e-18
 1.045277444243863e-01 -3.426296317527349e-02 -1.508156397368898e-18
 1.096907419187347e-01  8.242641404155603e-03 -2.036767742408600e-18
 1.096377771125845e-01 -8.919519595315326e-03 -1.859490200757833e-18
 1.096972758351338e-01  8.155223746197792e-03 -2.035985836565681e-18
 1.086885834485000e-01 -1.693492922803044e-02 -1.760242745059519e-18
 1.098577049260608e-01  5.593269918261600e-03 -2.012517718708087e-18
 1.097071380374137e-01 -8.021462687056030e-03 -1.869951769645812e-18
 1.099914637831041e-01 -1.370363035863563e-03 -1.943349318207851e-18
 1.097449013464994e-01 -7.487097464777925e-03 -1.876114221315981e-18
 1.099262165049966e-01  4.028265743044245e-03 -1.997657114599782e-18
 1.097867704934188e-01 -6.845803431690363e-03 -1.883448395954907e-18
 1.099946667251625e-01 -1.083186050676756e-03 -1.946356957581987e-18
 1.096768826054457e-01 -8.425047296676409e-03 -1.865266652890871e-18
 1.099929709777555e-01 -1.243517384921674e-03 -1.944679433518545e-18
 1.097882552385264e-01 -6.821950723959805e-03 -1.883719896672089e-18
 1.099854803257634e-01 -1.787209420041640e-03 -1.938959890278103e-18
 1.098001784245296e-01 -6.627278320805748e-03 -1.885932272212990e-18
 1.098001784245296e-01 -6.627278320805748e-03 -1.885932272212990e-18
 1.091107837969279e-01 -1.395839744454968e-02 -1.798339086664874e-18
 1.097133154060145e-01 -7.936524593318301e-03 -1.870934411346267e-18
 1.096995737060763e-01  8.124255578519856e-03 -2.035708543247062e-18
 1.098240064245701e-01  6.219936724432758e-03 -2.018356787460289e-18
 1.099627403636654e-01  2.862818840420434e-03 -1.986332556681145e-18
 1.098979252474754e-01  4.737723746724445e-03 -2.004443061187142e-18
 1.099836470948827e-01  1.896673853949124e-03 -1.976777828138497e-18
 1.099752947586461e-01  2.331210575832294e-03 -1.981093895314707e-18
 1.099799231120966e-01  2.101549965454605e-03 -1.978816583042768e-18
 1.099799231120966e-01  2.101549965454605e-03 -1.978816583042768e-18
-1.016261304115344e-01 -4.209666991078708e-02  2.241086205525086e-18
-1.091903298112478e-01  1.332185706689938e-02  1.806294924019035e-18
-1.094458724454786e-01  1.102728455459432e-02  1.834418509028732e-18
-1.077706855306861e-01 -2.203359571758388e-02  2.144295094367748e-18
 5.832103033774667e-02 -9.326659327081485e-02 -7.961193793545960e-20
-1.079260010438294e-01  2.125978124739973e-02  1.702235398123389e-18
-1.094231772015068e-01  1.125025738050496e-02  1.831723655303816e-18
-1.094231772015068e-01  1.125025738050496e-02  1.831723655303816e-18
-1.094231772015068e-01  1.125025738050496e-02  1.831723655303816e-18
-1.095493589884970e-01  9.946755511692615e-03  1.847362218895434e-18
-1.095493589884970e-01  9.946755511692615e-03  1.847362218895434e-18
-1.095589106727657e-01  9.840990407316839e-03  1.848618900536678e-18
-1.095589106727657e-01  9.840990407316839e-03  1.848618900536678e-18
-1.010205943876822e-01  4.352975430161932e-02  1.350529566523110e-18
-1.099996256629391e-01  2.869738894553537e-04  1.954625998510366e-18
-1.099839632912376e-01  1.878248852434173e-03  1.937997495743326e-18
-1.099839632912376e-01  1.878248852434173e-03  1.937997495743326e-18
-1.099848692097016e-01  1.824430027374690e-03  1.938566586519656e-18
-1.099758087616592e-01  2.306834891994626e-03  1.933448810298987e-18
-1.099758087616592e-01  2.306834891994626e-03  1.933448810298987e-18
-1.099193830518494e-01 -4.210609160297894e-03  1.999409017521914e-18
-1.096738740437013e-01  8.464121469255122e-03  1.864811639017170e-18
-1.091535904814640e-01 -1.361960663913651e-02  2.082454856336463e-18
-1.090333643636130e-01  1.455078882918654e-02  1.790874709221520e-18
-1.095031491352332e-01 -1.044319536668981e-02  2.056039197624049e-18
-1.094714037251302e-01  1.077087584412372e-02  1.837507374959068e-18
-1.094286939402984e-01 -1.119647009197371e-02  2.062453802775912e-18
-1.089711437525454e-01  1.500965786625568e-02  1.785052706566271e-18
-1.095800379967680e-01 -9.602878351142513e-03  2.048773574559841e-18
-1.099861040816729e-01  1.748401823203203e-03  1.939369724718380e-18
-1.099567991152956e-01 -3.082584681481532e-03  1.988484839261675e-18
-1.099553452713282e-01  3.134014400566006e-03  1.924585669118934e-18
-1.099924628245318e-01 -1.287680781078676e-03  1.970677531969432e-18
-1.099713984630084e-01 -2.508290272315816e-03  1.982843985639537e-18
-1.099050031631874e-01  4.570588550693966e-03  1.908929493728123e-18
-1.099484725873079e-01 -3.366507941170840e-03  1.991253867115988e-18
-1.099998164566040e-01  2.009465436521861e-04  1.955513293638069e-18
-1.099729480367529e-01 -2.439405686967638e-03  1.982163798062069e-18
-1.099866156882122e-01  1.715916505392355e-03  1.939712604206532e-18
-1.099965695535605e-01 -8.687269126085848e-04  1.966446017306627e-18
-1.099782610692768e-01 -2.186799528522507e-03  1.979662913300026e-18
-1.099995033087910e-01  3.305628824392816e-04  1.954175960004078e-18
-1.099540399580791e-01 -3.179480601780096e-03  1.989431307149314e-18
-1.099472365773665e-01  3.406636024081019e-03  1.921640277091518e-18
-1.099273039805149e-01 -3.998479657999974e-03  1.997370426320423e-18
-1.099817079025704e-01  2.005972789858117e-03  1.936645041353095e-18
-1.093766238133075e-01 -1.169419356784308e-02  2.066641080660445e-18
-1.099794382167970e-01  2.126774439777148e-03  1.935363456518250e-18
-1.099714526013592e-01 -2.505915550647685e-03  1.982820549693596e-18
-1.099998920841042e-01 -1.540827225470847e-04  1.959162436257853e-18
-1.099999837547550e-01 -5.978255259855633e-05  1.958195167656771e-18
-1.099754965153106e-01 -2.321673149018105e-03  1.980999492219375e-18
-1.099828206330045e-01  1.944007615295533e-03  1.937301513376936e-18
-1.099995826183265e-01 -3.030244114341550e-04  1.960687250692247e-18
-1.099999516284513e-01 -1.031588015681196e-04  1.958640271131683e-18
-1.096203473856711e-01  9.131234256373138e-03  1.857004726743999e-18
-1.099726839647178e-01 -2.451281623209202e-03  1.982281119515899e-18
-1.099225217626625e-01 -4.127857717624962e-03  1.998614633612595e-18
-1.099225217626625e-01 -4.127857717624962e-03  1.998614633612595e-18
-8.618195469928962e-02  6.835693588956103e-02  8.313680012879509e-19
-1.092799350036446e-01 -1.256565977572079e-02  2.073874386665068e-18
-1.098393195634207e-01 -5.943389423948960e-03  2.015787879981573e-18
-1.099971714235950e-01 -7.888465048549367e-04  1.965635986130429e-18
-1.099971714235950e-01 -7.888465048549367e-04  1.965635986130429e-18
-1.099971714235950e-01 -7.888465048549367e-04  1.965635986130429e-18
-1.099971714235950e-01 -7.888465048549367e-04  1.965635986130429e-18
-1.099754062358930e-01 -2.325945667954317e-03  1.981041784169435e-18
-1.099986716056512e-01  5.405968849907320e-04  1.952003135777753e-18
-1.099905474126071e-01 -1.442040178010157e-03  1.972229431658556e-18
-1.099999129769497e-01 -1.383656874223235e-04  1.959001321244603e-18
-1.099936511932065e-01  1.181819439329783e-03  1.945325462741742e-18
-1.099794330063450e-01  2.127043864810947e-03  1.935360595547694e-18
-1.099707198085844e-01 -2.537870127053822e-03  1.983135830436450e-18
-1.099323653511412e-01  3.856818417188359e-03  1.916750165331026e-18
-1.096251033840762e-01 -9.073957682872849e-03  2.044141099158232e-18
-1.095816699759346e-01  9.584237334567659e-03  1.851661974036285e-18
-1.098401978905085e-01 -5.927134836824204e-03  2.015636500881927e-18
-1.096042107448447e-01  9.322928027162312e-03  1.854747972114025e-18
-1.099173430536069e-01 -4.263530935228048e-03  1.999916465332231e-18
-1.099156845746876e-01  4.306075298661082e-03  1.911837359761546e-18
-1.099282092613608e-01 -3.973513381180252e-03  1.997130017448147e-18
-1.098426350686586e-01  5.881795743942022e-03  1.894347401504129e-18
-1.099003620227016e-01 -4.680857536723954e-03  2.003902146859097e-18
-1.096871148666527e-01  8.290767891437048e-03  1.866828420293493e-18
-1.097594500695532e-01 -7.270702884125803e-03  2.028004170694663e-18
-1.096558479307020e-01  8.694539355177319e-03  1.862123382760408e-18
-1.094388535458392e-01 -1.109672629978455e-02  2.061609773844653e-18
-1.098108610584713e-01  6.447851859114457e-03  1.887965924140057e-18
-1.098114471616537e-01 -6.437862398598870e-03  2.020372387531343e-18
-1.098816203605775e-01  5.101912086060856e-03  1.903054212552434e-18
-1.097938276894095e-01 -6.731671509232586e-03  2.023077609884793e-18
-1.099704742336924e-01  2.548489124318835e-03  1.930870966559511e-18
-1.099704742336924e-01  2.548489124318835e-03  1.930870966559511e-18
-1.099704742336924e-01  2.548489124318835e-03  1.930870966559511e-18
-1.099997144819064e-01  2.506270117850111e-04  1.955001030114116e-18
-1.099999370840076e-01  1.176499653063183e-04  1.956371282429841e-18
-1.099999370840076e-01  1.176499653063183e-04  1.956371282429841e-18
-1.099937734038831e-01  1.170389838979263e-03  1.945445072618064e-18
-1.099744220587294e-01  2.372022944327284e-03  1.932754348709472e-18
-1.098256627379972e-01 -6.190622275640659e-03  2.018085068221209e-18
-1.099128252326085e-01  4.378452853008290e-03  1.911042821280283e-18
-1.099702166755395e-01 -2.559578937027093e-03  1.983349926720041e-18
-1.099364278091593e-01  3.739229942311573e-03  1.918030640480157e-18
-1.098961893607859e-01 -4.777820002705745e-03  2.004824143477245e-18
-1.099947254165741e-01  1.077209604683342e-03  1.946419407877175e-18
-1.099983104121032e-01 -6.096773593780234e-04  1.963815357906827e-18
-1.099983104121032e-01 -6.096773593780234e-04  1.963815357906827e-18
-1.099998872405213e-01  1.575026113058812e-04  1.955960923945230e-18
-1.099954297044272e-01 -1.002718374414692e-03  1.967802445926424e-18
-1.099985191503260e-01 -5.707755559979276e-04  1.963419370754676e-18
-1.099949698740532e-01 -1.051951712812973e-03  1.968300117363391e-18
-1.099949698740532e-01 -1.051951712812973e-03  1.968300117363391e-18
-1.099913981391054e-01 -1.375621824763488e-03  1.971562146899659e-18
-1.099999998368613e-01  5.990866256206770e-06  1.957519655871907e-18
-1.099902041850414e-01 -1.467986148733937e-03  1.972489908938364e-18
-1.099954039947124e-01  1.005534703511556e-03  1.947167917556678e-18
-1.099847792597429e-01 -1.829844579627636e-03  1.976111329846193e-18
-1.099847792597429e-01 -1.829844579627636e-03  1.976111329846193e-18
-1.099679091286969e-01 -2.656870689855657e-03  1.984308498588435e-18
-1.099915713787917e-01 -1.361699535186511e-03  1.971422183438691e-18
-1.099908770233730e-01  1.416676261256247e-03  1.942863024551887e-18
-1.099960446826865e-01 -9.328205424445050e-04  1.967095215366513e-18
-1.099595073868299e-01 -2.984415394287102e-03  1.987524382420348e-18
-1.099346155429422e-01  3.792137316270641e-03  1.917454784993383e-18
-1.096059092887482e-01 -9.302937653594743e-03  2.046152203353607e-18
-1.099869164250314e-01  1.696530374947633e-03  1.939917141624853e-18
-1.099915659927167e-01 -1.362134527053938e-03  1.971426556970481e-18
-1.099999201484556e-01  1.325418173691626e-04  1.956217972671332e-18
-1.099999201484556e-01  1.325418173691626e-04  1.956217972671332e-18
-1.099976267617474e-01 -7.225695698465877e-04  1.964963117985306e-18
-1.099841608814448e-01 -1.866642762943000e-03  1.976478413032584e-18
-1.099997562500567e-01  2.315705682178273e-04  1.955197571463166e-18
-1.097546691788078e-01  7.342519557374094e-03  1.877773537020951e-18
-1.098778212769495e-01 -5.183087056062412e-03  2.008661233266425e-18
-1.099941992838092e-01  1.129656546756093e-03  1.945871171439708e-18
-1.099941992838092e-01  1.129656546756093e-03  1.945871171439708e-18
-1.098996088842391e-01  4.698506900201254e-03  1.907519181527604e-18
-1.099829201396798e-01 -1.938369817337026e-03  1.977193301980377e-18
-1.099519863568285e-01  3.249722478575562e-03  1.923337034760645e-18
-1.094259254991518e-01 -1.122349449387514e-02  2.062682200975735e-18
-1.095495461291793e-01  9.944694208007948e-03  1.847386728433653e-18
-1.093768154268154e-01 -1.169240125416112e-02  2.066626075279399e-18
-1.098266460000180e-01  6.173153844406115e-03  1.891069258315026e-18
-1.099389607319276e-01 -3.664002344929919e-03  1.994141239230748e-18
-1.099431693063136e-01  3.535466430786532e-03  1.920244209523023e-18
-1.099982734801958e-01  6.163046129997192e-04  1.951218181257537e-18
-1.099875651162057e-01  1.653940690707966e-03  1.940366279392033e-18
-1.099875651162057e-01  1.653940690707966e-03  1.940366279392033e-18
-1.099977885838136e-01  6.975003015122473e-04  1.950375295744617e-18
-1.099766004286985e-01  2.268778999013989e-03  1.933853909434042e-18
-1.099888688792995e-01 -1.564839497271330e-03  1.973461278552044e-18
-1.099706412717387e-01  2.541270997458241e-03  1.930948102832150e-18
-1.099994994896645e-01  3.318313174829455e-04  1.954162859328879e-18
-1.099865126591400e-01  1.722507788314130e-03  1.939643047643698e-18
-1.099983258327358e-01  6.068887832611083e-04  1.951315857163495e-18
-1.099983258327358e-01  6.068887832611083e-04  1.951315857163495e-18
-1.099952949740908e-01  1.017390565475828e-03  1.947044162729886e-18
-1.099993888266049e-01 -3.666848420047304e-04  1.961337889735494e-18
-1.099921224135639e-01  1.316437222028974e-03  1.943915107469969e-18
-1.099725638178591e-01 -2.456665896470599e-03  1.982334302811041e-18
-1.099914699426024e-01  1.369868557766895e-03  1.943354508406284e-18
-1.099576640849061e-01 -3.051574837837087e-03  1.988181617549211e-18
-1.099991113073858e-01  4.421669201668617e-04  1.953022292926387e-18
-1.098810314192493e-01 -5.114580553858889e-03  2.008014482154162e-18
-1.099755103825982e-01  2.321016175517630e-03  1.933297792751132e-18
-1.098829124333804e-01 -5.074007800351521e-03  2.007631086741013e-18
-1.099956896003864e-01  9.737912175646629e-04  1.947499153036933e-18
-1.099902734644151e-01 -1.462786116675707e-03  1.972437713407085e-18
-1.099997482914734e-01 -2.353206588352398e-04  1.959994567580403e-18
-1.099761169990955e-01 -2.292092886690824e-03  1.980706608018720e-18
-1.099982404154725e-01 -6.221780290885045e-04  1.963942552073426e-18
-1.099982404154725e-01 -6.221780290885045e-04  1.963942552073426e-18
-1.099968843041369e-01 -8.279150815637865e-04  1.966032291930369e-18
-1.099978693541633e-01 -6.846441005251602e-04  1.964577764786683e-18
-1.099979589431832e-01 -6.700957646149211e-04  1.964429880263675e-18
-1.099998363208046e-01 -1.897614190338650e-04  1.959528029528769e-18
-1.099979589431832e-01 -6.700957646110379e-04  1.964429880263635e-18
-1.099969029574925e-01 -8.254330741730807e-04  1.966007122164786e-18
-1.099994429036436e-01  3.500869720821379e-04  1.953974282093890e-18
-1.099967486396412e-01 -8.457474253894031e-04  1.966213098473669e-18
-1.099967486396412e-01 -8.457474253894031e-04  1.966213098473669e-18
-1.099946360678748e-01  1.086294755459744e-03  1.946324471186640e-18
-1.097030847941275e-01 -8.076706423562778e-03  2.035282476953179e-18
-1.097629761587266e-01  7.217275440135592e-03  1.879208207444545e-18
-1.099043333098657e-01 -4.586667604470653e-03  2.003005053313916e-18
-1.088155807726352e-01  1.609873849449304e-02  1.771094369953280e-18
-1.090824910459150e-01 -1.417780473902195e-02  2.086924839769287e-18
-1.097730179391463e-01  7.062898309604488e-03  1.880973081840789e-18
-1.099927065623230e-01  1.266689817866825e-03  1.944436639599888e-18
-1.099388550169894e-01 -3.667172964744627e-03  1.994171934874122e-18
-1.092550079117349e-01  1.278058082430960e-02  1.813007364730443e-18
-1.099884650157561e-01 -1.592973156633059e-03  1.973743154448331e-18
-1.099880122433071e-01 -1.623934347840588e-03  1.974053211814853e-18
-1.097106745871092e-01 -7.972946860565416e-03  2.034351454555807e-18
-1.098979421918585e-01 -4.737330682451254e-03  2.004439324140033e-18
-1.098979421918585e-01 -4.737330682451254e-03  2.004439324140033e-18
-1.099771173233539e-01 -2.243583126433623e-03  1.980225989817695e-18
-1.098311867561937e-01 -6.091831885900119e-03  2.017168339347447e-18
-1.099523252370879e-01 -3.238236396190000e-03  1.990004486087142e-18
-1.099379303221666e-01 -3.694790451219679e-03  1.994439238467620e-18
-1.099379303221666e-01 -3.694790451219679e-03  1.994439238467620e-18
-1.099379303221666e-01 -3.694790451219679e-03  1.994439238467620e-18
-1.067959288432958e-01 -2.635582634822253e-02  2.171357485970637e-18
-1.054757073171739e-01  3.122299098327766e-02  1.556261137754803e-18
-1.097464812508673e-01 -7.463903338937425e-03  2.029758439585364e-18
-1.004307432132367e-01  4.487388792646427e-02  1.326221976563977e-18
-2.078766125218559e-03 -1.099803561159746e-01  1.167002329209509e-18
-1.094609560465088e-01  1.087653903519942e-02  1.836235795151677e-18
-1.092324103127608e-01 -1.297229884271185e-02  2.077206696794261e-18
-1.097154942164112e-01  7.906347377178637e-03  1.871283245809568e-18
-1.080869020676229e-01  2.042600307020588e-02  1.713665591654350e-18
-1.099036869965284e-01  4.602128265169704e-03  1.908582011863685e-18
-1.099999238238766e-01  1.294555573156807e-04  1.956249748280732e-18
-1.099993348674730e-01 -3.825293629469501e-04  1.961499726165195e-18
-1.099993348674730e-01 -3.825293629469501e-04  1.961499726165195e-18
-1.099945082949684e-01 -1.099156471162489e-03  1.968776914756886e-18
-1.099999871537911e-01 -5.316169437320397e-05  1.958127201233575e-18
-1.099999871537911e-01 -5.316169437320397e-05  1.958127201233575e-18
-1.098695415258909e-01 -5.355730098736004e-03  2.010287729767078e-18
-1.099998860613552e-01 -1.583239995884469e-04  1.959205906656714e-18
-1.099998860613552e-01 -1.583239995884469e-04  1.959205906656714e-18
-1.097576417420469e-01 -7.297950344065395e-03  2.028251947102295e-18
-1.099317364869444e-01  3.874701661415671e-03  1.916555230104544e-18
-1.099317364869444e-01  3.874701661415671e-03  1.916555230104544e-18
-1.099841145915888e-01  1.869368209910980e-03  1.938091433689395e-18
-1.099499953128460e-01  3.316403278418042e-03  1.922616480762822e-18
-1.098271468541692e-01  6.164236682080063e-03  1.891169792215638e-18
-1.099630341272140e-01  2.851512850601740e-03  1.927625102282157e-18
-1.098819307490510e-01  5.095222748882834e-03  1.903128466795024e-18
-1.099955720735797e-01  9.869773076817700e-04  1.947361579221394e-18
-1.087014120542643e-01  1.685238907125684e-02  1.761319115527975e-18
-1.099942866734305e-01 -1.121115160521225e-03  1.968998588293456e-18
-1.096253142161433e-01  9.071410199731907e-03  1.857707787866520e-18
-1.097159954150628e-01 -7.899389222077382e-03  2.033690367022082e-18
-1.090767002817142e-01  1.422228728626500e-02  1.795021157595376e-18
-1.095940834660462e-01 -9.441232400342062e-03  2.047362677016570e-18
-1.078485335892243e-01  2.164933723359490e-02  1.696854226118575e-18
-1.096111328366181e-01 -9.241188141858904e-03  2.045610708817574e-18
-1.094133085106521e-01  1.134583274831904e-02  1.830566027993766e-18
-1.071893228265834e-01 -2.470726759434228e-02  2.161420058838763e-18
-1.096312447359748e-01  8.999454296831333e-03  1.858552649303880e-18
-1.087623583937464e-01 -1.645446433738353e-02  2.104619547683650e-18
-1.098242294017998e-01  6.215998415445034e-03  1.890586039663895e-18
-1.095889887665552e-01 -9.500186373108134e-03  2.047877741415828e-18
-1.097319385154986e-01  7.674742316898911e-03  1.873955549586171e-18
-1.094541357811790e-01 -1.094496050222162e-02  2.060322401014057e-18
-1.098657518437089e-01  5.432915590779568e-03  1.899370872599242e-18
-1.098069209601000e-01 -6.514607375915461e-03  2.021080365138315e-18
-1.094507936516282e-01  1.097833179625535e-02  1.835009059571185e-18
-1.099621245243342e-01 -2.886376637719531e-03  1.986563644895021e-18
-1.098968518602142e-01  4.762557213734824e-03  1.906812023292477e-18
-1.099184146746203e-01 -4.235813430519628e-03  1.999650748814540e-18
-1.099600337210467e-01 -2.964959370083742e-03  1.987333845584697e-18
-1.099969931387895e-01  8.133267640130157e-04  1.949171065025823e-18
-1.099411432682887e-01 -3.597918406743283e-03  1.993501091610258e-18
-1.099998556329662e-01 -1.782153936838897e-04  1.959409741995592e-18
-1.099945225970914e-01 -1.097724299594845e-03  1.968762454237634e-18
-1.099945225970914e-01 -1.097724299594845e-03  1.968762454237634e-18
-1.099945225970914e-01 -1.097724299594845e-03  1.968762454237634e-18
-1.099485102299663e-01  3.365278325930719e-03  1.922087878583220e-18
-1.099881709255859e-01 -1.613151091518855e-03  1.973945241713831e-18
-1.099881709255859e-01 -1.613151091518855e-03  1.973945241713831e-18
-1.099947022194897e-01  1.079575678568416e-03  1.946394684507745e-18
-1.099949867650173e-01 -1.050184061782771e-03  1.968282255986047e-18
-1.099949867650173e-01 -1.050184061782771e-03  1.968282255986047e-18
-1.099885111358672e-01  1.589785556347879e-03  1.941042285640185e-18
-1.041799123305641e-01 -3.530645644632092e-02  2.216766824378796e-18
-1.094361203494761e-01  1.112364881030247e-02  1.833254851126627e-18
-1.096258879744175e-01 -9.064473830313080e-03  2.044057618739410e-18
-1.099758117921512e-01  2.306690412103519e-03  1.933450348708604e-18
-1.099854125270948e-01 -1.791376913092111e-03  1.975727358294659e-18
-1.099623230747096e-01  2.878802531114826e-03  1.927332056700957e-18
-1.099623230747096e-01  2.878802531114826e-03  1.927332056700957e-18
-1.094626395185693e-01  1.085958330819839e-02  1.836439968480516e-18
-1.094626395185693e-01  1.085958330819839e-02  1.836439968480516e-18
-1.094626395185693e-01  1.085958330819839e-02  1.836439968480516e-18
-9.444665174914260e-02 -5.638998114360510e-02  2.260177399301122e-18
-1.094426376072523e-01  1.105934327017699e-02  1.834031549567245e-18
-1.094426376072523e-01  1.105934327017699e-02  1.834031549567245e-18
-1.094426376072523e-01  1.105934327017699e-02  1.834031549567245e-18
-1.096636132085094e-01  8.596041999339702e-03  1.863273599691704e-18
-1.099985055313635e-01 -5.733941633595471e-04  1.963446033628367e-18
-1.099985055313635e-01 -5.733941633595471e-04  1.963446033628367e-18
-1.098414188359025e-01 -5.904465099888818e-03  2.015425305749867e-18
-1.099807412360642e-01  2.058289864389223e-03  1.936090299434029e-18
-1.099357545991883e-01  3.758970697810172e-03  1.917815830814195e-18
-1.099573128625386e-01 -3.064204309401880e-03  1.988305130360632e-18
-1.099641576064792e-01  2.807853610387233e-03  1.928093678768866e-18
-1.093870562171507e-01 -1.159620335048883e-02  2.065819923844789e-18
-1.099931021754954e-01 -1.231857869640172e-03  1.970115349846314e-18
-1.099891800027906e-01 -1.542816357733358e-03  1.973240535607315e-18
-1.097994797171390e-01  6.638844315506614e-03  1.885801001487571e-18
-1.099725536833064e-01 -2.457119527469815e-03  1.982338783348312e-18
-1.099995279954630e-01  3.222433479812479e-04  1.954261879527161e-18
-1.099995279954630e-01  3.222433479812479e-04  1.954261879527161e-18
-1.099694849965517e-01  2.590824114669518e-03  1.930418385257829e-18
-1.099996330011899e-01  2.841471511285798e-04  1.954655172812727e-18
-1.099966484563475e-01 -8.586782695900567e-04  1.966344175319210e-18
-1.098943104458066e-01  4.820843457387467e-03  1.906167925811782e-18
-1.099761711830572e-01  2.289491628038445e-03  1.933633455756915e-18
-1.097281900185439e-01  7.728150830196867e-03  1.873340087539144e-18
-1.099924499668271e-01 -1.288778605892526e-03  1.970688582902393e-18
-1.095991758293960e-01  9.381932504399393e-03  1.854052120218782e-18
-1.099049625646359e-01  4.571564684651619e-03  1.908918741806656e-18
-1.078407448024837e-01  2.168810181748394e-02  1.696317323350331e-18
-1.099641440798088e-01  2.808383306283174e-03  1.928087995612723e-18
-1.059812935141037e-01  2.946125294479796e-02  1.583359865570480e-18
-9.619278631420239e-02 -5.335679770291853e-02  2.260087088766927e-18
-1.059496956232969e-01 -2.957468507576545e-02  2.189370360503290e-18
-1.078958121979336e-01 -2.141246623227246e-02  2.140139992844936e-18
-1.081534657655464e-01 -2.007057156387814e-02  2.130937765175163e-18
-1.085968807779386e-01 -1.751335162960370e-02  2.112554358385556e-18
-1.097529710397569e-01 -7.367859115525720e-03  2.028887113614524e-18
-1.088999396340901e-01 -1.551783321509518e-02  2.097444425438233e-18
-7.650356790205938e-02  7.903925669093145e-02  5.493725977815526e-19
-1.095529142924283e-01 -9.907520882431782e-03  2.051420967227856e-18
-1.099323578447887e-01 -3.857032367674945e-03  1.996007046339313e-18
-1.096862142100691e-01 -8.302675006453632e-03  2.037303989887169e-18
-1.098621806925388e-01 -5.504657435293250e-03  2.011686909239335e-18
-1.097770242748115e-01 -7.000352945917133e-03  2.025539177235824e-18
-1.097317279811055e-01 -7.677751902779300e-03  2.031693103860015e-18
-1.099036501577580e-01 -4.603007929722144e-03  2.003160786713253e-18
-1.099371705852463e-01 -3.717327495718408e-03  1.994657277988037e-18
-1.099371705852463e-01 -3.717327495718408e-03  1.994657277988037e-18
-1.099371705852463e-01 -3.717327495718408e-03  1.994657277988037e-18
-1.099371705852463e-01 -3.717327495718408e-03  1.994657277988037e-18
-1.098332724309598e-01  6.054111586892509e-03  1.892410299509227e-18
-1.097447750362254e-01 -7.488948674428908e-03  2.029985407184486e-18
-1.098673778436577e-01  5.399933866161233e-03  1.899738684447028e-18
-1.099953576670615e-01 -1.010589775913364e-03  1.967882039726516e-18
-1.099975002551999e-01  7.415777823422053e-04  1.949917284489568e-18
-1.098735700521005e-01  5.272438146259505e-03  1.901158854389037e-18
-1.099869160098086e-01 -1.696557293836450e-03  1.974779877420379e-18
-1.093696974222308e-01  1.175879610205233e-02  1.825546868212303e-18
-1.093672675522103e-01 -1.178137462960954e-02  2.067370328572931e-18
-1.082373734662063e-01  1.961303100331389e-02  1.724696402338703e-18
-7.572099957300656e-02 -7.978928639651256e-02  2.167351443234620e-18
-1.098449396302779e-01  5.838598943287185e-03  1.894832245361691e-18
-1.093765718171656e-01 -1.169467988122679e-02  2.066645152020433e-18
-1.052294464091737e-01  3.204315228592243e-02  1.543451771702798e-18
-1.081008367328050e-01 -2.035212759559531e-02  2.132894054703978e-18
-1.095863095731198e-01  9.531041608570894e-03  1.852291107962638e-18
-1.097096500356335e-01 -7.987032556512652e-03  2.034477946849095e-18
-1.095907216962891e-01  9.480175002945436e-03  1.852892262851822e-18
-1.094340034225692e-01 -1.114445579241467e-02  2.062013863313639e-18
-1.099102776191277e-01  4.441944809004165e-03  1.910345126676445e-18
-1.095595415059950e-01 -9.833964866529458e-03  2.050783145055904e-18
-1.099986711224526e-01  5.406951955285776e-04  1.952002117073594e-18
-1.098559247219661e-01 -5.628126107479818e-03  2.012844172534677e-18
-1.098559247219661e-01 -5.628126107479818e-03  2.012844172534677e-18
-1.097654398086926e-01 -7.179709158750667e-03  2.027175837774662e-18
-1.097440695896354e-01  7.499279292388024e-03  1.875974255357047e-18
-1.099977188371175e-01  7.084141658726490e-04  1.950261918527356e-18
-1.096697430640158e-01  8.517479455374184e-03  1.864189889382115e-18
-1.099872409759756e-01  1.675357422354017e-03  1.940140461792414e-18
-1.098370826017246e-01  5.984587332631160e-03  1.893192442499284e-18
-1.099202853245623e-01  4.186988675263689e-03  1.913142807388177e-18
-1.099202853245623e-01  4.186988675263689e-03  1.913142807388177e-18
-1.086508501993589e-01  1.717535300820420e-02  1.757100969879011e-18
-1.096778209957750e-01  8.412822452584299e-03  1.865408958498240e-18
-1.085018948592795e-01 -1.809250706634740e-02  2.116814582381622e-18

TENSORS stress double
0.000000000000000e+00 0.000000000000000e+00 0.000000000000000e+00
0.000000000000000e+00 0.000000000000000e+00 0.000000000000000e+00
0.000000000000000e+00 0.000000000000000e+00 0.000000000000000e+00

0.000000000000000e+00 0.000000000000000e+00 0.000000000000000e+00
0.000000000000000e+00 0.000000000000000e+00 0.000000000000000e+00
0.000000000000000e+00 0.000000000000000e+00 0.000000000000000e+00

0.000000000000000e+00 0.000000000000000e+00 0.000000000000000e+00
0.000000000000000e+00 0.000000000000000e+00 0.000000000000000e+00
0.000000000000000e+00 0.000000000000000e+00 0.000000000000000e+00

0.000000000000000e+00 0.000000000000000e+00 0.000000000000000e+00
0.000000000000000e+00 0.000000000000000e+00 0.000000000000000e+00
0.000000000000000e+00 0.000000000000000e+00 0.000000000000000e+00

0.000000000000000e+00 0.000000000000000e+00 0.000000000000000e+00
0.000000000000000e+00 0.000000000000000e+00 0.000000000000000e+00
0.000000000000000e+00 0.000000000000000e+00 0.000000000000000e+00

0.000000000000000e+00 0.000000000000000e+00 0.000000000000000e+00
0.000000000000000e+00 0.000000000000000e+00 0.000000000000000e+00
0.000000000000000e+00 0.000000000000000e+00 0.000000000000000e+00

0.000000000000000e+00 0.000000000000000e+00 0.000000000000000e+00
0.000000000000000e+00 0.000000000000000e+00 0.000000000000000e+00
0.000000000000000e+00 0.000000000000000e+00 0.000000000000000e+00

0.000000000000000e+00 0.000000000000000e+00 0.000000000000000e+00
0.000000000000000e+00 0.000000000000000e+00 0.000000000000000e+00
0.000000000000000e+00 0.000000000000000e+00 0.000000000000000e+00

0.000000000000000e+00 0.000000000000000e+00 0.000000000000000e+00
0.000000000000000e+00 0.000000000000000e+00 0.000000000000000e+00
0.000000000000000e+00 0.000000000000000e+00 0.000000000000000e+00

0.000000000000000e+00 0.000000000000000e+00 0.000000000000000e+00
0.000000000000000e+00 0.000000000000000e+00 0.000000000000000e+00
0.000000000000000e+00 0.000000000000000e+00 0.000000000000000e+00

0.000000000000000e+00 0.000000000000000e+00 0.000000000000000e+00
0.000000000000000e+00 0.000000000000000e+00 0.000000000000000e+00
0.000000000000000e+00 0.000000000000000e+00 0.000000000000000e+00

0.000000000000000e+00 0.000000000000000e+00 0.000000000000000e+00
0.000000000000000e+00 0.000000000000000e+00 0.000000000000000e+00
0.000000000000000e+00 0.000000000000000e+00 0.000000000000000e+00

0.000000000000000e+00 0.000000000000000e+00 0.000000000000000e+00
0.000000000000000e+00 0.000000000000000e+00 0.000000000000000e+00
0.000000000000000e+00 0.000000000000000e+00 0.000000000000000e+00

0.000000000000000e+00 0.000000000000000e+00 0.000000000000000e+00
0.000000000000000e+00 0.000000000000000e+00 0.000000000000000e+00
0.000000000000000e+00 0.000000000000000e+00 0.000000000000000e+00

0.000000000000000e+00 0.000000000000000e+00 0.000000000000000e+00
0.000000000000000e+00 0.000000000000000e+00 0.000000000000000e+00
0.000000000000000e+00 0.000000000000000e+00 0.000000000000000e+00

0.000000000000000e+00 0.000000000000000e+00 0.000000000000000e+00
0.000000000000000e+00 0.000000000000000e+00 0.000000000000000e+00
0.000000000000000e+00 0.000000000000000e+00 0.000000000000000e+00

0.000000000000000e+00 0.000000000000000e+00 0.000000000000000e+00
0.000000000000000e+00 0.000000000000000e+00 0.000000000000000e+00
0.000000000000000e+00 0.000000000000000e+00 0.000000000000000e+00

0.000000000000000e+00 0.000000000000000e+00 0.000000000000000e+00
0.000000000000000e+00 0.000000000000000e+00 0.000000000000000e+00
0.000000000000000e+00 0.000000000000000e+00 0.000000000000000e+00

0.000000000000000e+00 0.000000000000000e+00 0.000000000000000e+00
0.000000000000000e+00 0.000000000000000e+00 0.000000000000000e+00
0.000000000000000e+00 0.000000000000000e+00 0.000000000000000e+00

0.000000000000000e+00 0.000000000000000e+00 0.000000000000000e+00
0.000000000000000e+00 0.000000000000000e+00 0.000000000000000e+00
0.000000000000000e+00 0.000000000000000e+00 0.000000000000000e+00

0.000000000000000e+00 0.000000000000000e+00 0.000000000000000e+00
0.000000000000000e+00 0.000000000000000e+00 0.000000000000000e+00
0.000000000000000e+00 0.000000000000000e+00 0.000000000000000e+00

0.000000000000000e+00 0.000000000000000e+00 0.000000000000000e+00
0.000000000000000e+00 0.000000000000000e+00 0.000000000000000e+00
0.000000000000000e+00 0.000000000000000e+00 0.000000000000000e+00

0.000000000000000e+00 0.000000000000000e+00 0.000000000000000e+00
0.000000000000000e+00 0.000000000000000e+00 0.000000000000000e+00
0.000000000000000e+00 0.000000000000000e+00 0.000000000000000e+00

0.000000000000000e+00 0.000000000000000e+00 0.000000000000000e+00
0.000000000000000e+00 0.000000000000000e+00 0.000000000000000e+00
0.000000000000000e+00 0.000000000000000e+00 0.000000000000000e+00

0.000000000000000e+00 0.000000000000000e+00 0.000000000000000e+00
0.000000000000000e+00 0.000000000000000e+00 0.000000000000000e+00
0.000000000000000e+00 0.000000000000000e+00 0.000000000000000e+00

0.000000000000000e+00 0.000000000000000e+00 0.000000000000000e+00
0.000000000000000e+00 0.000000000000000e+00 0.000000000000000e+00
0.000000000000000e+00 0.000000000000000e+00 0.000000000000000e+00

0.000000000000000e+00 0.000000000000000e+00 0.000000000000000e+00
0.000000000000000e+00 0.000000000000000e+00 0.000000000000000e+00
0.000000000000000e+00 0.000000000000000e+00 0.000000000000000e+00

0.000000000000000e+00 0.000000000000000e+00 0.000000000000000e+00
0.000000000000000e+00 0.000000000000000e+00 0.000000000000000e+00
0.000000000000000e+00 0.000000000000000e+00 0.000000000000000e+00

0.000000000000000e+00 0.000000000000000e+00 0.000000000000000e+00
0.000000000000000e+00 0.000000000000000e+00 0.000000000000000e+00
0.000000000000000e+00 0.000000000000000e+00 0.000000000000000e+00

0.000000000000000e+00 0.000000000000000e+00 0.000000000000000e+00
0.000000000000000e+00 0.000000000000000e+00 0.000000000000000e+00
0.000000000000000e+00 0.000000000000000e+00 0.000000000000000e+00

0.000000000000000e+00 0.000000000000000e+00 0.000000000000000e+00
0.000000000000000e+00 0.000000000000000e+00 0.000000000000000e+00
0.000000000000000e+00 0.000000000000000e+00 0.000000000000000e+00

0.000000000000000e+00 0.000000000000000e+00 0.000000000000000e+00
0.000000000000000e+00 0.000000000000000e+00 0.000000000000000e+00
0.000000000000000e+00 0.000000000000000e+00 0.000000000000000e+00

0.000000000000000e+00 0.000000000000000e+00 0.000000000000000e+00
0.000000000000000e+00 0.000000000000000e+00 0.000000000000000e+00
0.000000000000000e+00 0.000000000000000e+00 0.000000000000000e+00

0.000000000000000e+00 0.000000000000000e+00 0.000000000000000e+00
0.000000000000000e+00 0.000000000000000e+00 0.000000000000000e+00
0.000000000000000e+00 0.000000000000000e+00 0.000000000000000e+00

0.000000000000000e+00 0.000000000000000e+00 0.000000000000000e+00
0.000000000000000e+00 0.000000000000000e+00 0.000000000000000e+00
0.000000000000000e+00 0.000000000000000e+00 0.000000000000000e+00

0.000000000000000e+00 0.000000000000000e+00 0.000000000000000e+00
0.000000000000000e+00 0.000000000000000e+00 0.000000000000000e+00
0.000000000000000e+00 0.000000000000000e+00 0.000000000000000e+00

0.000000000000000e+00 0.000000000000000e+00 0.000000000000000e+00
0.000000000000000e+00 0.000000000000000e+00 0.000000000000000e+00
0.000000000000000e+00 0.000000000000000e+00 0.000000000000000e+00

0.000000000000000e+00 0.000000000000000e+00 0.000000000000000e+00
0.000000000000000e+00 0.000000000000000e+00 0.000000000000000e+00
0.000000000000000e+00 0.000000000000000e+00 0.000000000000000e+00

0.000000000000000e+00 0.000000000000000e+00 0.000000000000000e+00
0.000000000000000e+00 0.000000000000000e+00 0.000000000000000e+00
0.000000000000000e+00 0.000000000000000e+00 0.000000000000000e+00

0.000000000000000e+00 0.000000000000000e+00 0.000000000000000e+00
0.000000000000000e+00 0.000000000000000e+00 0.000000000000000e+00
0.000000000000000e+00 0.000000000000000e+00 0.000000000000000e+00

0.000000000000000e+00 0.000000000000000e+00 0.000000000000000e+00
0.000000000000000e+00 0.000000000000000e+00 0.000000000000000e+00
0.000000000000000e+00 0.000000000000000e+00 0.000000000000000e+00

0.000000000000000e+00 0.000000000000000e+00 0.000000000000000e+00
0.000000000000000e+00 0.000000000000000e+00 0.000000000000000e+00
0.000000000000000e+00 0.000000000000000e+00 0.000000000000000e+00

0.000000000000000e+00 0.000000000000000e+00 0.000000000000000e+00
0.000000000000000e+00 0.000000000000000e+00 0.000000000000000e+00
0.000000000000000e+00 0.000000000000000e+00 0.000000000000000e+00

0.000000000000000e+00 0.000000000000000e+00 0.000000000000000e+00
0.000000000000000e+00 0.000000000000000e+00 0.000000000000000e+00
0.000000000000000e+00 0.000000000000000e+00 0.000000000000000e+00

0.000000000000000e+00 0.000000000000000e+00 0.000000000000000e+00
0.000000000000000e+00 0.000000000000000e+00 0.000000000000000e+00
0.000000000000000e+00 0.000000000000000e+00 0.000000000000000e+00

0.000000000000000e+00 0.000000000000000e+00 0.000000000000000e+00
0.000000000000000e+00 0.000000000000000e+00 0.000000000000000e+00
0.000000000000000e+00 0.000000000000000e+00 0.000000000000000e+00

0.000000000000000e+00 0.000000000000000e+00 0.000000000000000e+00
0.000000000000000e+00 0.000000000000000e+00 0.000000000000000e+00
0.000000000000000e+00 0.000000000000000e+00 0.000000000000000e+00

0.000000000000000e+00 0.000000000000000e+00 0.000000000000000e+00
0.000000000000000e+00 0.000000000000000e+00 0.000000000000000e+00
0.000000000000000e+00 0.000000000000000e+00 0.000000000000000e+00

0.000000000000000e+00 0.000000000000000e+00 0.000000000000000e+00
0.000000000000000e+00 0.000000000000000e+00 0.000000000000000e+00
0.000000000000000e+00 0.000000000000000e+00 0.000000000000000e+00

0.000000000000000e+00 0.000000000000000e+00 0.000000000000000e+00
0.000000000000000e+00 0.000000000000000e+00 0.000000000000000e+00
0.000000000000000e+00 0.000000000000000e+00 0.000000000000000e+00

0.000000000000000e+00 0.000000000000000e+00 0.000000000000000e+00
0.000000000000000e+00 0.000000000000000e+00 0.000000000000000e+00
0.000000000000000e+00 0.000000000000000e+00 0.000000000000000e+00

0.000000000000000e+00 0.000000000000000e+00 0.000000000000000e+00
0.000000000000000e+00 0.000000000000000e+00 0.000000000000000e+00
0.000000000000000e+00 0.000000000000000e+00 0.000000000000000e+00

0.000000000000000e+00 0.000000000000000e+00 0.000000000000000e+00
0.000000000000000e+00 0.000000000000000e+00 0.000000000000000e+00
0.000000000000000e+00 0.000000000000000e+00 0.000000000000000e+00

0.000000000000000e+00 0.000000000000000e+00 0.000000000000000e+00
0.000000000000000e+00 0.000000000000000e+00 0.000000000000000e+00
0.000000000000000e+00 0.000000000000000e+00 0.000000000000000e+00

0.000000000000000e+00 0.000000000000000e+00 0.000000000000000e+00
0.000000000000000e+00 0.000000000000000e+00 0.000000000000000e+00
0.000000000000000e+00 0.000000000000000e+00 0.000000000000000e+00

0.000000000000000e+00 0.000000000000000e+00 0.000000000000000e+00
0.000000000000000e+00 0.000000000000000e+00 0.000000000000000e+00
0.000000000000000e+00 0.000000000000000e+00 0.000000000000000e+00

0.000000000000000e+00 0.000000000000000e+00 0.000000000000000e+00
0.000000000000000e+00 0.000000000000000e+00 0.000000000000000e+00
0.000000000000000e+00 0.000000000000000e+00 0.000000000000000e+00

0.000000000000000e+00 0.000000000000000e+00 0.000000000000000e+00
0.000000000000000e+00 0.000000000000000e+00 0.000000000000000e+00
0.000000000000000e+00 0.000000000000000e+00 0.000000000000000e+00

0.000000000000000e+00 0.000000000000000e+00 0.000000000000000e+00
0.000000000000000e+00 0.000000000000000e+00 0.000000000000000e+00
0.000000000000000e+00 0.000000000000000e+00 0.000000000000000e+00

0.000000000000000e+00 0.000000000000000e+00 0.000000000000000e+00
0.000000000000000e+00 0.000000000000000e+00 0.000000000000000e+00
0.000000000000000e+00 0.000000000000000e+00 0.000000000000000e+00

0.000000000000000e+00 0.000000000000000e+00 0.000000000000000e+00
0.000000000000000e+00 0.000000000000000e+00 0.000000000000000e+00
0.000000000000000e+00 0.000000000000000e+00 0.000000000000000e+00

0.000000000000000e+00 0.000000000000000e+00 0.000000000000000e+00
0.000000000000000e+00 0.000000000000000e+00 0.000000000000000e+00
0.000000000000000e+00 0.000000000000000e+00 0.000000000000000e+00

0.000000000000000e+00 0.000000000000000e+00 0.000000000000000e+00
0.000000000000000e+00 0.000000000000000e+00 0.000000000000000e+00
0.000000000000000e+00 0.000000000000000e+00 0.000000000000000e+00

0.000000000000000e+00 0.000000000000000e+00 0.000000000000000e+00
0.000000000000000e+00 0.000000000000000e+00 0.000000000000000e+00
0.000000000000000e+00 0.000000000000000e+00 0.000000000000000e+00

0.000000000000000e+00 0.000000000000000e+00 0.000000000000000e+00
0.000000000000000e+00 0.000000000000000e+00 0.000000000000000e+00
0.000000000000000e+00 0.000000000000000e+00 0.000000000000000e+00

0.000000000000000e+00 0.000000000000000e+00 0.000000000000000e+00
0.000000000000000e+00 0.000000000000000e+00 0.000000000000000e+00
0.000000000000000e+00 0.000000000000000e+00 0.000000000000000e+00

0.000000000000000e+00 0.000000000000000e+00 0.000000000000000e+00
0.000000000000000e+00 0.000000000000000e+00 0.000000000000000e+00
0.000000000000000e+00 0.000000000000000e+00 0.000000000000000e+00

0.000000000000000e+00 0.000000000000000e+00 0.000000000000000e+00
0.000000000000000e+00 0.000000000000000e+00 0.000000000000000e+00
0.000000000000000e+00 0.000000000000000e+00 0.000000000000000e+00

0.000000000000000e+00 0.000000000000000e+00 0.000000000000000e+00
0.000000000000000e+00 0.000000000000000e+00 0.000000000000000e+00
0.000000000000000e+00 0.000000000000000e+00 0.000000000000000e+00

0.000000000000000e+00 0.000000000000000e+00 0.000000000000000e+00
0.000000000000000e+00 0.000000000000000e+00 0.000000000000000e+00
0.000000000000000e+00 0.000000000000000e+00 0.000000000000000e+00

0.000000000000000e+00 0.000000000000000e+00 0.000000000000000e+00
0.000000000000000e+00 0.000000000000000e+00 0.000000000000000e+00
0.000000000000000e+00 0.000000000000000e+00 0.000000000000000e+00

0.000000000000000e+00 0.000000000000000e+00 0.000000000000000e+00
0.000000000000000e+00 0.000000000000000e+00 0.000000000000000e+00
0.000000000000000e+00 0.000000000000000e+00 0.000000000000000e+00

0.000000000000000e+00 0.000000000000000e+00 0.000000000000000e+00
0.000000000000000e+00 0.000000000000000e+00 0.000000000000000e+00
0.000000000000000e+00 0.000000000000000e+00 0.000000000000000e+00

0.000000000000000e+00 0.000000000000000e+00 0.000000000000000e+00
0.000000000000000e+00 0.000000000000000e+00 0.000000000000000e+00
0.000000000000000e+00 0.000000000000000e+00 0.000000000000000e+00

0.000000000000000e+00 0.000000000000000e+00 0.000000000000000e+00
0.000000000000000e+00 0.000000000000000e+00 0.000000000000000e+00
0.000000000000000e+00 0.000000000000000e+00 0.000000000000000e+00

0.000000000000000e+00 0.000000000000000e+00 0.000000000000000e+00
0.000000000000000e+00 0.000000000000000e+00 0.000000000000000e+00
0.000000000000000e+00 0.000000000000000e+00 0.000000000000000e+00

0.000000000000000e+00 0.000000000000000e+00 0.000000000000000e+00
0.000000000000000e+00 0.000000000000000e+00 0.000000000000000e+00
0.000000000000000e+00 0.000000000000000e+00 0.000000000000000e+00

0.000000000000000e+00 0.000000000000000e+00 0.000000000000000e+00
0.000000000000000e+00 0.000000000000000e+00 0.000000000000000e+00
0.000000000000000e+00 0.000000000000000e+00 0.000000000000000e+00

0.000000000000000e+00 0.000000000000000e+00 0.000000000000000e+00
0.000000000000000e+00 0.000000000000000e+00 0.000000000000000e+00
0.000000000000000e+00 0.000000000000000e+00 0.000000000000000e+00

0.000000000000000e+00 0.000000000000000e+00 0.000000000000000e+00
0.000000000000000e+00 0.000000000000000e+00 0.000000000000000e+00
0.000000000000000e+00 0.000000000000000e+00 0.000000000000000e+00

0.000000000000000e+00 0.000000000000000e+00 0.000000000000000e+00
0.000000000000000e+00 0.000000000000000e+00 0.000000000000000e+00
0.000000000000000e+00 0.000000000000000e+00 0.000000000000000e+00

0.000000000000000e+00 0.000000000000000e+00 0.000000000000000e+00
0.000000000000000e+00 0.000000000000000e+00 0.000000000000000e+00
0.000000000000000e+00 0.000000000000000e+00 0.000000000000000e+00

0.000000000000000e+00 0.000000000000000e+00 0.000000000000000e+00
0.000000000000000e+00 0.000000000000000e+00 0.000000000000000e+00
0.000000000000000e+00 0.000000000000000e+00 0.000000000000000e+00

0.000000000000000e+00 0.000000000000000e+00 0.000000000000000e+00
0.000000000000000e+00 0.000000000000000e+00 0.000000000000000e+00
0.000000000000000e+00 0.000000000000000e+00 0.000000000000000e+00

0.000000000000000e+00 0.000000000000000e+00 0.000000000000000e+00
0.000000000000000e+00 0.000000000000000e+00 0.000000000000000e+00
0.000000000000000e+00 0.000000000000000e+00 0.000000000000000e+00

0.000000000000000e+00 0.000000000000000e+00 0.000000000000000e+00
0.000000000000000e+00 0.000000000000000e+00 0.000000000000000e+00
0.000000000000000e+00 0.000000000000000e+00 0.000000000000000e+00

0.000000000000000e+00 0.000000000000000e+00 0.000000000000000e+00
0.000000000000000e+00 0.000000000000000e+00 0.000000000000000e+00
0.000000000000000e+00 0.000000000000000e+00 0.000000000000000e+00

0.000000000000000e+00 0.000000000000000e+00 0.000000000000000e+00
0.000000000000000e+00 0.000000000000000e+00 0.000000000000000e+00
0.000000000000000e+00 0.000000000000000e+00 0.000000000000000e+00

0.000000000000000e+00 0.000000000000000e+00 0.000000000000000e+00
0.000000000000000e+00 0.000000000000000e+00 0.000000000000000e+00
0.000000000000000e+00 0.000000000000000e+00 0.000000000000000e+00

0.000000000000000e+00 0.000000000000000e+00 0.000000000000000e+00
0.000000000000000e+00 0.000000000000000e+00 0.000000000000000e+00
0.000000000000000e+00 0.000000000000000e+00 0.000000000000000e+00

0.000000000000000e+00 0.000000000000000e+00 0.000000000000000e+00
0.000000000000000e+00 0.000000000000000e+00 0.000000000000000e+00
0.000000000000000e+00 0.000000000000000e+00 0.000000000000000e+00

0.000000000000000e+00 0.000000000000000e+00 0.000000000000000e+00
0.000000000000000e+00 0.000000000000000e+00 0.000000000000000e+00
0.000000000000000e+00 0.000000000000000e+00 0.000000000000000e+00

0.000000000000000e+00 0.000000000000000e+00 0.000000000000000e+00
0.000000000000000e+00 0.000000000000000e+00 0.000000000000000e+00
0.000000000000000e+00 0.000000000000000e+00 0.000000000000000e+00

0.000000000000000e+00 0.000000000000000e+00 0.000000000000000e+00
0.000000000000000e+00 0.000000000000000e+00 0.000000000000000e+00
0.000000000000000e+00 0.000000000000000e+00 0.000000000000000e+00

0.000000000000000e+00 0.000000000000000e+00 0.000000000000000e+00
0.000000000000000e+00 0.000000000000000e+00 0.000000000000000e+00
0.000000000000000e+00 0.000000000000000e+00 0.000000000000000e+00

0.000000000000000e+00 0.000000000000000e+00 0.000000000000000e+00
0.000000000000000e+00 0.000000000000000e+00 0.000000000000000e+00
0.000000000000000e+00 0.000000000000000e+00 0.000000000000000e+00

0.000000000000000e+00 0.000000000000000e+00 0.000000000000000e+00
0.000000000000000e+00 0.000000000000000e+00 0.000000000000000e+00
0.000000000000000e+00 0.000000000000000e+00 0.000000000000000e+00

0.000000000000000e+00 0.000000000000000e+00 0.000000000000000e+00
0.000000000000000e+00 0.000000000000000e+00 0.000000000000000e+00
0.000000000000000e+00 0.000000000000000e+00 0.000000000000000e+00

0.000000000000000e+00 0.000000000000000e+00 0.000000000000000e+00
0.000000000000000e+00 0.000000000000000e+00 0.000000000000000e+00
0.000000000000000e+00 0.000000000000000e+00 0.000000000000000e+00

0.000000000000000e+00 0.000000000000000e+00 0.000000000000000e+00
0.000000000000000e+00 0.000000000000000e+00 0.000000000000000e+00
0.000000000000000e+00 0.000000000000000e+00 0.000000000000000e+00

0.000000000000000e+00 0.000000000000000e+00 0.000000000000000e+00
0.000000000000000e+00 0.000000000000000e+00 0.000000000000000e+00
0.000000000000000e+00 0.000000000000000e+00 0.000000000000000e+00

0.000000000000000e+00 0.000000000000000e+00 0.000000000000000e+00
0.000000000000000e+00 0.000000000000000e+00 0.000000000000000e+00
0.000000000000000e+00 0.000000000000000e+00 0.000000000000000e+00

0.000000000000000e+00 0.000000000000000e+00 0.000000000000000e+00
0.000000000000000e+00 0.000000000000000e+00 0.000000000000000e+00
0.000000000000000e+00 0.000000000000000e+00 0.000000000000000e+00

0.000000000000000e+00 0.000000000000000e+00 0.000000000000000e+00
0.000000000000000e+00 0.000000000000000e+00 0.000000000000000e+00
0.000000000000000e+00 0.000000000000000e+00 0.000000000000000e+00

0.000000000000000e+00 0.000000000000000e+00 0.000000000000000e+00
0.000000000000000e+00 0.000000000000000e+00 0.000000000000000e+00
0.000000000000000e+00 0.000000000000000e+00 0.000000000000000e+00

0.000000000000000e+00 0.000000000000000e+00 0.000000000000000e+00
0.000000000000000e+00 0.000000000000000e+00 0.000000000000000e+00
0.000000000000000e+00 0.000000000000000e+00 0.000000000000000e+00

0.000000000000000e+00 0.000000000000000e+00 0.000000000000000e+00
0.000000000000000e+00 0.000000000000000e+00 0.000000000000000e+00
0.000000000000000e+00 0.000000000000000e+00 0.000000000000000e+00

0.000000000000000e+00 0.000000000000000e+00 0.000000000000000e+00
0.000000000000000e+00 0.000000000000000e+00 0.000000000000000e+00
0.000000000000000e+00 0.000000000000000e+00 0.000000000000000e+00

0.000000000000000e+00 0.000000000000000e+00 0.000000000000000e+00
0.000000000000000e+00 0.000000000000000e+00 0.000000000000000e+00
0.000000000000000e+00 0.000000000000000e+00 0.000000000000000e+00

0.000000000000000e+00 0.000000000000000e+00 0.000000000000000e+00
0.000000000000000e+00 0.000000000000000e+00 0.000000000000000e+00
0.000000000000000e+00 0.000000000000000e+00 0.000000000000000e+00

0.000000000000000e+00 0.000000000000000e+00 0.000000000000000e+00
0.000000000000000e+00 0.000000000000000e+00 0.000000000000000e+00
0.000000000000000e+00 0.000000000000000e+00 0.000000000000000e+00

0.000000000000000e+00 0.000000000000000e+00 0.000000000000000e+00
0.000000000000000e+00 0.000000000000000e+00 0.000000000000000e+00
0.000000000000000e+00 0.000000000000000e+00 0.000000000000000e+00

0.000000000000000e+00 0.000000000000000e+00 0.000000000000000e+00
0.000000000000000e+00 0.000000000000000e+00 0.000000000000000e+00
0.000000000000000e+00 0.000000000000000e+00 0.000000000000000e+00

0.000000000000000e+00 0.000000000000000e+00 0.000000000000000e+00
0.000000000000000e+00 0.000000000000000e+00 0.000000000000000e+00
0.000000000000000e+00 0.000000000000000e+00 0.000000000000000e+00

0.000000000000000e+00 0.000000000000000e+00 0.000000000000000e+00
0.000000000000000e+00 0.000000000000000e+00 0.000000000000000e+00
0.000000000000000e+00 0.000000000000000e+00 0.000000000000000e+00

0.000000000000000e+00 0.000000000000000e+00 0.000000000000000e+00
0.000000000000000e+00 0.000000000000000e+00 0.000000000000000e+00
0.000000000000000e+00 0.000000000000000e+00 0.000000000000000e+00

0.000000000000000e+00 0.000000000000000e+00 0.000000000000000e+00
0.000000000000000e+00 0.000000000000000e+00 0.000000000000000e+00
0.000000000000000e+00 0.000000000000000e+00 0.000000000000000e+00

0.000000000000000e+00 0.000000000000000e+00 0.000000000000000e+00
0.000000000000000e+00 0.000000000000000e+00 0.000000000000000e+00
0.000000000000000e+00 0.000000000000000e+00 0.000000000000000e+00

0.000000000000000e+00 0.000000000000000e+00 0.000000000000000e+00
0.000000000000000e+00 0.000000000000000e+00 0.000000000000000e+00
0.000000000000000e+00 0.000000000000000e+00 0.000000000000000e+00

0.000000000000000e+00 0.000000000000000e+00 0.000000000000000e+00
0.000000000000000e+00 0.000000000000000e+00 0.000000000000000e+00
0.000000000000000e+00 0.000000000000000e+00 0.000000000000000e+00

0.000000000000000e+00 0.000000000000000e+00 0.000000000000000e+00
0.000000000000000e+00 0.000000000000000e+00 0.000000000000000e+00
0.000000000000000e+00 0.000000000000000e+00 0.000000000000000e+00

0.000000000000000e+00 0.000000000000000e+00 0.000000000000000e+00
0.000000000000000e+00 0.000000000000000e+00 0.000000000000000e+00
0.000000000000000e+00 0.000000000000000e+00 0.000000000000000e+00

0.000000000000000e+00 0.000000000000000e+00 0.000000000000000e+00
0.000000000000000e+00 0.000000000000000e+00 0.000000000000000e+00
0.000000000000000e+00 0.000000000000000e+00 0.000000000000000e+00

0.000000000000000e+00 0.000000000000000e+00 0.000000000000000e+00
0.000000000000000e+00 0.000000000000000e+00 0.000000000000000e+00
0.000000000000000e+00 0.000000000000000e+00 0.000000000000000e+00

0.000000000000000e+00 0.000000000000000e+00 0.000000000000000e+00
0.000000000000000e+00 0.000000000000000e+00 0.000000000000000e+00
0.000000000000000e+00 0.000000000000000e+00 0.000000000000000e+00

0.000000000000000e+00 0.000000000000000e+00 0.000000000000000e+00
0.000000000000000e+00 0.000000000000000e+00 0.000000000000000e+00
0.000000000000000e+00 0.000000000000000e+00 0.000000000000000e+00

0.000000000000000e+00 0.000000000000000e+00 0.000000000000000e+00
0.000000000000000e+00 0.000000000000000e+00 0.000000000000000e+00
0.000000000000000e+00 0.000000000000000e+00 0.000000000000000e+00

0.000000000000000e+00 0.000000000000000e+00 0.000000000000000e+00
0.000000000000000e+00 0.000000000000000e+00 0.000000000000000e+00
0.000000000000000e+00 0.000000000000000e+00 0.000000000000000e+00

0.000000000000000e+00 0.000000000000000e+00 0.000000000000000e+00
0.000000000000000e+00 0.000000000000000e+00 0.000000000000000e+00
0.000000000000000e+00 0.000000000000000e+00 0.000000000000000e+00

0.000000000000000e+00 0.000000000000000e+00 0.000000000000000e+00
0.000000000000000e+00 0.000000000000000e+00 0.000000000000000e+00
0.000000000000000e+00 0.000000000000000e+00 0.000000000000000e+00

0.000000000000000e+00 0.000000000000000e+00 0.000000000000000e+00
0.000000000000000e+00 0.000000000000000e+00 0.000000000000000e+00
0.000000000000000e+00 0.000000000000000e+00 0.000000000000000e+00

0.000000000000000e+00 0.000000000000000e+00 0.000000000000000e+00
0.000000000000000e+00 0.000000000000000e+00 0.000000000000000e+00
0.000000000000000e+00 0.000000000000000e+00 0.000000000000000e+00

0.000000000000000e+00 0.000000000000000e+00 0.000000000000000e+00
0.000000000000000e+00 0.000000000000000e+00 0.000000000000000e+00
0.000000000000000e+00 0.000000000000000e+00 0.000000000000000e+00

0.000000000000000e+00 0.000000000000000e+00 0.000000000000000e+00
0.000000000000000e+00 0.000000000000000e+00 0.000000000000000e+00
0.000000000000000e+00 0.000000000000000e+00 0.000000000000000e+00

0.000000000000000e+00 0.000000000000000e+00 0.000000000000000e+00
0.000000000000000e+00 0.000000000000000e+00 0.000000000000000e+00
0.000000000000000e+00 0.000000000000000e+00 0.000000000000000e+00

0.000000000000000e+00 0.000000000000000e+00 0.000000000000000e+00
0.000000000000000e+00 0.000000000000000e+00 0.000000000000000e+00
0.000000000000000e+00 0.000000000000000e+00 0.000000000000000e+00

0.000000000000000e+00 0.000000000000000e+00 0.000000000000000e+00
0.000000000000000e+00 0.000000000000000e+00 0.000000000000000e+00
0.000000000000000e+00 0.000000000000000e+00 0.000000000000000e+00

0.000000000000000e+00 0.000000000000000e+00 0.000000000000000e+00
0.000000000000000e+00 0.000000000000000e+00 0.000000000000000e+00
0.000000000000000e+00 0.000000000000000e+00 0.000000000000000e+00

0.000000000000000e+00 0.000000000000000e+00 0.000000000000000e+00
0.000000000000000e+00 0.000000000000000e+00 0.000000000000000e+00
0.000000000000000e+00 0.000000000000000e+00 0.000000000000000e+00

0.000000000000000e+00 0.000000000000000e+00 0.000000000000000e+00
0.000000000000000e+00 0.000000000000000e+00 0.000000000000000e+00
0.000000000000000e+00 0.000000000000000e+00 0.000000000000000e+00

0.000000000000000e+00 0.000000000000000e+00 0.000000000000000e+00
0.000000000000000e+00 0.000000000000000e+00 0.000000000000000e+00
0.000000000000000e+00 0.000000000000000e+00 0.000000000000000e+00

0.000000000000000e+00 0.000000000000000e+00 0.000000000000000e+00
0.000000000000000e+00 0.000000000000000e+00 0.000000000000000e+00
0.000000000000000e+00 0.000000000000000e+00 0.000000000000000e+00

0.000000000000000e+00 0.000000000000000e+00 0.000000000000000e+00
0.000000000000000e+00 0.000000000000000e+00 0.000000000000000e+00
0.000000000000000e+00 0.000000000000000e+00 0.000000000000000e+00

0.000000000000000e+00 0.000000000000000e+00 0.000000000000000e+00
0.000000000000000e+00 0.000000000000000e+00 0.000000000000000e+00
0.000000000000000e+00 0.000000000000000e+00 0.000000000000000e+00

0.000000000000000e+00 0.000000000000000e+00 0.000000000000000e+00
0.000000000000000e+00 0.000000000000000e+00 0.000000000000000e+00
0.000000000000000e+00 0.000000000000000e+00 0.000000000000000e+00

0.000000000000000e+00 0.000000000000000e+00 0.000000000000000e+00
0.000000000000000e+00 0.000000000000000e+00 0.000000000000000e+00
0.000000000000000e+00 0.000000000000000e+00 0.000000000000000e+00

0.000000000000000e+00 0.000000000000000e+00 0.000000000000000e+00
0.000000000000000e+00 0.000000000000000e+00 0.000000000000000e+00
0.000000000000000e+00 0.000000000000000e+00 0.000000000000000e+00

0.000000000000000e+00 0.000000000000000e+00 0.000000000000000e+00
0.000000000000000e+00 0.000000000000000e+00 0.000000000000000e+00
0.000000000000000e+00 0.000000000000000e+00 0.000000000000000e+00

0.000000000000000e+00 0.000000000000000e+00 0.000000000000000e+00
0.000000000000000e+00 0.000000000000000e+00 0.000000000000000e+00
0.000000000000000e+00 0.000000000000000e+00 0.000000000000000e+00

0.000000000000000e+00 0.000000000000000e+00 0.000000000000000e+00
0.000000000000000e+00 0.000000000000000e+00 0.000000000000000e+00
0.000000000000000e+00 0.000000000000000e+00 0.000000000000000e+00

0.000000000000000e+00 0.000000000000000e+00 0.000000000000000e+00
0.000000000000000e+00 0.000000000000000e+00 0.000000000000000e+00
0.000000000000000e+00 0.000000000000000e+00 0.000000000000000e+00

0.000000000000000e+00 0.000000000000000e+00 0.000000000000000e+00
0.000000000000000e+00 0.000000000000000e+00 0.000000000000000e+00
0.000000000000000e+00 0.000000000000000e+00 0.000000000000000e+00

0.000000000000000e+00 0.000000000000000e+00 0.000000000000000e+00
0.000000000000000e+00 0.000000000000000e+00 0.000000000000000e+00
0.000000000000000e+00 0.000000000000000e+00 0.000000000000000e+00

0.000000000000000e+00 0.000000000000000e+00 0.000000000000000e+00
0.000000000000000e+00 0.000000000000000e+00 0.000000000000000e+00
0.000000000000000e+00 0.000000000000000e+00 0.000000000000000e+00

0.000000000000000e+00 0.000000000000000e+00 0.000000000000000e+00
0.000000000000000e+00 0.000000000000000e+00 0.000000000000000e+00
0.000000000000000e+00 0.000000000000000e+00 0.000000000000000e+00

0.000000000000000e+00 0.000000000000000e+00 0.000000000000000e+00
0.000000000000000e+00 0.000000000000000e+00 0.000000000000000e+00
0.000000000000000e+00 0.000000000000000e+00 0.000000000000000e+00

0.000000000000000e+00 0.000000000000000e+00 0.000000000000000e+00
0.000000000000000e+00 0.000000000000000e+00 0.000000000000000e+00
0.000000000000000e+00 0.000000000000000e+00 0.000000000000000e+00

0.000000000000000e+00 0.000000000000000e+00 0.000000000000000e+00
0.000000000000000e+00 0.000000000000000e+00 0.000000000000000e+00
0.000000000000000e+00 0.000000000000000e+00 0.000000000000000e+00

0.000000000000000e+00 0.000000000000000e+00 0.000000000000000e+00
0.000000000000000e+00 0.000000000000000e+00 0.000000000000000e+00
0.000000000000000e+00 0.000000000000000e+00 0.000000000000000e+00

0.000000000000000e+00 0.000000000000000e+00 0.000000000000000e+00
0.000000000000000e+00 0.000000000000000e+00 0.000000000000000e+00
0.000000000000000e+00 0.000000000000000e+00 0.000000000000000e+00

0.000000000000000e+00 0.000000000000000e+00 0.000000000000000e+00
0.000000000000000e+00 0.000000000000000e+00 0.000000000000000e+00
0.000000000000000e+00 0.000000000000000e+00 0.000000000000000e+00

0.000000000000000e+00 0.000000000000000e+00 0.000000000000000e+00
0.000000000000000e+00 0.000000000000000e+00 0.000000000000000e+00
0.000000000000000e+00 0.000000000000000e+00 0.000000000000000e+00

0.000000000000000e+00 0.000000000000000e+00 0.000000000000000e+00
0.000000000000000e+00 0.000000000000000e+00 0.000000000000000e+00
0.000000000000000e+00 0.000000000000000e+00 0.000000000000000e+00

0.000000000000000e+00 0.000000000000000e+00 0.000000000000000e+00
0.000000000000000e+00 0.000000000000000e+00 0.000000000000000e+00
0.000000000000000e+00 0.000000000000000e+00 0.000000000000000e+00

0.000000000000000e+00 0.000000000000000e+00 0.000000000000000e+00
0.000000000000000e+00 0.000000000000000e+00 0.000000000000000e+00
0.000000000000000e+00 0.000000000000000e+00 0.000000000000000e+00

0.000000000000000e+00 0.000000000000000e+00 0.000000000000000e+00
0.000000000000000e+00 0.000000000000000e+00 0.000000000000000e+00
0.000000000000000e+00 0.000000000000000e+00 0.000000000000000e+00

0.000000000000000e+00 0.000000000000000e+00 0.000000000000000e+00
0.000000000000000e+00 0.000000000000000e+00 0.000000000000000e+00
0.000000000000000e+00 0.000000000000000e+00 0.000000000000000e+00

0.000000000000000e+00 0.000000000000000e+00 0.000000000000000e+00
0.000000000000000e+00 0.000000000000000e+00 0.000000000000000e+00
0.000000000000000e+00 0.000000000000000e+00 0.000000000000000e+00

0.000000000000000e+00 0.000000000000000e+00 0.000000000000000e+00
0.000000000000000e+00 0.000000000000000e+00 0.000000000000000e+00
0.000000000000000e+00 0.000000000000000e+00 0.000000000000000e+00

0.000000000000000e+00 0.000000000000000e+00 0.000000000000000e+00
0.000000000000000e+00 0.000000000000000e+00 0.000000000000000e+00
0.000000000000000e+00 0.000000000000000e+00 0.000000000000000e+00

0.000000000000000e+00 0.000000000000000e+00 0.000000000000000e+00
0.000000000000000e+00 0.000000000000000e+00 0.000000000000000e+00
0.000000000000000e+00 0.000000000000000e+00 0.000000000000000e+00

0.000000000000000e+00 0.000000000000000e+00 0.000000000000000e+00
0.000000000000000e+00 0.000000000000000e+00 0.000000000000000e+00
0.000000000000000e+00 0.000000000000000e+00 0.000000000000000e+00

0.000000000000000e+00 0.000000000000000e+00 0.000000000000000e+00
0.000000000000000e+00 0.000000000000000e+00 0.000000000000000e+00
0.000000000000000e+00 0.000000000000000e+00 0.000000000000000e+00

0.000000000000000e+00 0.000000000000000e+00 0.000000000000000e+00
0.000000000000000e+00 0.000000000000000e+00 0.000000000000000e+00
0.000000000000000e+00 0.000000000000000e+00 0.000000000000000e+00

0.000000000000000e+00 0.000000000000000e+00 0.000000000000000e+00
0.000000000000000e+00 0.000000000000000e+00 0.000000000000000e+00
0.000000000000000e+00 0.000000000000000e+00 0.000000000000000e+00

0.000000000000000e+00 0.000000000000000e+00 0.000000000000000e+00
0.000000000000000e+00 0.000000000000000e+00 0.000000000000000e+00
0.000000000000000e+00 0.000000000000000e+00 0.000000000000000e+00

0.000000000000000e+00 0.000000000000000e+00 0.000000000000000e+00
0.000000000000000e+00 0.000000000000000e+00 0.000000000000000e+00
0.000000000000000e+00 0.000000000000000e+00 0.000000000000000e+00

0.000000000000000e+00 0.000000000000000e+00 0.000000000000000e+00
0.000000000000000e+00 0.000000000000000e+00 0.000000000000000e+00
0.000000000000000e+00 0.000000000000000e+00 0.000000000000000e+00

0.000000000000000e+00 0.000000000000000e+00 0.000000000000000e+00
0.000000000000000e+00 0.000000000000000e+00 0.000000000000000e+00
0.000000000000000e+00 0.000000000000000e+00 0.000000000000000e+00

0.000000000000000e+00 0.000000000000000e+00 0.000000000000000e+00
0.000000000000000e+00 0.000000000000000e+00 0.000000000000000e+00
0.000000000000000e+00 0.000000000000000e+00 0.000000000000000e+00

0.000000000000000e+00 0.000000000000000e+00 0.000000000000000e+00
0.000000000000000e+00 0.000000000000000e+00 0.000000000000000e+00
0.000000000000000e+00 0.000000000000000e+00 0.000000000000000e+00

0.000000000000000e+00 0.000000000000000e+00 0.000000000000000e+00
0.000000000000000e+00 0.000000000000000e+00 0.000000000000000e+00
0.000000000000000e+00 0.000000000000000e+00 0.000000000000000e+00

0.000000000000000e+00 0.000000000000000e+00 0.000000000000000e+00
0.000000000000000e+00 0.000000000000000e+00 0.000000000000000e+00
0.000000000000000e+00 0.000000000000000e+00 0.000000000000000e+00

0.000000000000000e+00 0.000000000000000e+00 0.000000000000000e+00
0.000000000000000e+00 0.000000000000000e+00 0.000000000000000e+00
0.000000000000000e+00 0.000000000000000e+00 0.000000000000000e+00

0.000000000000000e+00 0.000000000000000e+00 0.000000000000000e+00
0.000000000000000e+00 0.000000000000000e+00 0.000000000000000e+00
0.000000000000000e+00 0.000000000000000e+00 0.000000000000000e+00

0.000000000000000e+00 0.000000000000000e+00 0.000000000000000e+00
0.000000000000000e+00 0.000000000000000e+00 0.000000000000000e+00
0.000000000000000e+00 0.000000000000000e+00 0.000000000000000e+00

0.000000000000000e+00 0.000000000000000e+00 0.000000000000000e+00
0.000000000000000e+00 0.000000000000000e+00 0.000000000000000e+00
0.000000000000000e+00 0.000000000000000e+00 0.000000000000000e+00

0.000000000000000e+00 0.000000000000000e+00 0.000000000000000e+00
0.000000000000000e+00 0.000000000000000e+00 0.000000000000000e+00
0.000000000000000e+00 0.000000000000000e+00 0.000000000000000e+00

0.000000000000000e+00 0.000000000000000e+00 0.000000000000000e+00
0.000000000000000e+00 0.000000000000000e+00 0.000000000000000e+00
0.000000000000000e+00 0.000000000000000e+00 0.000000000000000e+00

0.000000000000000e+00 0.000000000000000e+00 0.000000000000000e+00
0.000000000000000e+00 0.000000000000000e+00 0.000000000000000e+00
0.000000000000000e+00 0.000000000000000e+00 0.000000000000000e+00

0.000000000000000e+00 0.000000000000000e+00 0.000000000000000e+00
0.000000000000000e+00 0.000000000000000e+00 0.000000000000000e+00
0.000000000000000e+00 0.000000000000000e+00 0.000000000000000e+00

0.000000000000000e+00 0.000000000000000e+00 0.000000000000000e+00
0.000000000000000e+00 0.000000000000000e+00 0.000000000000000e+00
0.000000000000000e+00 0.000000000000000e+00 0.000000000000000e+00

0.000000000000000e+00 0.000000000000000e+00 0.000000000000000e+00
0.000000000000000e+00 0.000000000000000e+00 0.000000000000000e+00
0.000000000000000e+00 0.000000000000000e+00 0.000000000000000e+00

0.000000000000000e+00 0.000000000000000e+00 0.000000000000000e+00
0.000000000000000e+00 0.000000000000000e+00 0.000000000000000e+00
0.000000000000000e+00 0.000000000000000e+00 0.000000000000000e+00

0.000000000000000e+00 0.000000000000000e+00 0.000000000000000e+00
0.000000000000000e+00 0.000000000000000e+00 0.000000000000000e+00
0.000000000000000e+00 0.000000000000000e+00 0.000000000000000e+00

0.000000000000000e+00 0.000000000000000e+00 0.000000000000000e+00
0.000000000000000e+00 0.000000000000000e+00 0.000000000000000e+00
0.000000000000000e+00 0.000000000000000e+00 0.000000000000000e+00

0.000000000000000e+00 0.000000000000000e+00 0.000000000000000e+00
0.000000000000000e+00 0.000000000000000e+00 0.000000000000000e+00
0.000000000000000e+00 0.000000000000000e+00 0.000000000000000e+00

0.000000000000000e+00 0.000000000000000e+00 0.000000000000000e+00
0.000000000000000e+00 0.000000000000000e+00 0.000000000000000e+00
0.000000000000000e+00 0.000000000000000e+00 0.000000000000000e+00

0.000000000000000e+00 0.000000000000000e+00 0.000000000000000e+00
0.000000000000000e+00 0.000000000000000e+00 0.000000000000000e+00
0.000000000000000e+00 0.000000000000000e+00 0.000000000000000e+00

0.000000000000000e+00 0.000000000000000e+00 0.000000000000000e+00
0.000000000000000e+00 0.000000000000000e+00 0.000000000000000e+00
0.000000000000000e+00 0.000000000000000e+00 0.000000000000000e+00

0.000000000000000e+00 0.000000000000000e+00 0.000000000000000e+00
0.000000000000000e+00 0.000000000000000e+00 0.000000000000000e+00
0.000000000000000e+00 0.000000000000000e+00 0.000000000000000e+00

0.000000000000000e+00 0.000000000000000e+00 0.000000000000000e+00
0.000000000000000e+00 0.000000000000000e+00 0.000000000000000e+00
0.000000000000000e+00 0.000000000000000e+00 0.000000000000000e+00

0.000000000000000e+00 0.000000000000000e+00 0.000000000000000e+00
0.000000000000000e+00 0.000000000000000e+00 0.000000000000000e+00
0.000000000000000e+00 0.000000000000000e+00 0.000000000000000e+00

0.000000000000000e+00 0.000000000000000e+00 0.000000000000000e+00
0.000000000000000e+00 0.000000000000000e+00 0.000000000000000e+00
0.000000000000000e+00 0.000000000000000e+00 0.000000000000000e+00

0.000000000000000e+00 0.000000000000000e+00 0.000000000000000e+00
0.000000000000000e+00 0.000000000000000e+00 0.000000000000000e+00
0.000000000000000e+00 0.000000000000000e+00 0.000000000000000e+00

0.000000000000000e+00 0.000000000000000e+00 0.000000000000000e+00
0.000000000000000e+00 0.000000000000000e+00 0.000000000000000e+00
0.000000000000000e+00 0.000000000000000e+00 0.000000000000000e+00

0.000000000000000e+00 0.000000000000000e+00 0.000000000000000e+00
0.000000000000000e+00 0.000000000000000e+00 0.000000000000000e+00
0.000000000000000e+00 0.000000000000000e+00 0.000000000000000e+00

0.000000000000000e+00 0.000000000000000e+00 0.000000000000000e+00
0.000000000000000e+00 0.000000000000000e+00 0.000000000000000e+00
0.000000000000000e+00 0.000000000000000e+00 0.000000000000000e+00

0.000000000000000e+00 0.000000000000000e+00 0.000000000000000e+00
0.000000000000000e+00 0.000000000000000e+00 0.000000000000000e+00
0.000000000000000e+00 0.000000000000000e+00 0.000000000000000e+00

0.000000000000000e+00 0.000000000000000e+00 0.000000000000000e+00
0.000000000000000e+00 0.000000000000000e+00 0.000000000000000e+00
0.000000000000000e+00 0.000000000000000e+00 0.000000000000000e+00

0.000000000000000e+00 0.000000000000000e+00 0.000000000000000e+00
0.000000000000000e+00 0.000000000000000e+00 0.000000000000000e+00
0.000000000000000e+00 0.000000000000000e+00 0.000000000000000e+00

0.000000000000000e+00 0.000000000000000e+00 0.000000000000000e+00
0.000000000000000e+00 0.000000000000000e+00 0.000000000000000e+00
0.000000000000000e+00 0.000000000000000e+00 0.000000000000000e+00

0.000000000000000e+00 0.000000000000000e+00 0.000000000000000e+00
0.000000000000000e+00 0.000000000000000e+00 0.000000000000000e+00
0.000000000000000e+00 0.000000000000000e+00 0.000000000000000e+00

0.000000000000000e+00 0.000000000000000e+00 0.000000000000000e+00
0.000000000000000e+00 0.000000000000000e+00 0.000000000000000e+00
0.000000000000000e+00 0.000000000000000e+00 0.000000000000000e+00

0.000000000000000e+00 0.000000000000000e+00 0.000000000000000e+00
0.000000000000000e+00 0.000000000000000e+00 0.000000000000000e+00
0.000000000000000e+00 0.000000000000000e+00 0.000000000000000e+00

0.000000000000000e+00 0.000000000000000e+00 0.000000000000000e+00
0.000000000000000e+00 0.000000000000000e+00 0.000000000000000e+00
0.000000000000000e+00 0.000000000000000e+00 0.000000000000000e+00

0.000000000000000e+00 0.000000000000000e+00 0.000000000000000e+00
0.000000000000000e+00 0.000000000000000e+00 0.000000000000000e+00
0.000000000000000e+00 0.000000000000000e+00 0.000000000000000e+00

0.000000000000000e+00 0.000000000000000e+00 0.000000000000000e+00
0.000000000000000e+00 0.000000000000000e+00 0.000000000000000e+00
0.000000000000000e+00 0.000000000000000e+00 0.000000000000000e+00

0.000000000000000e+00 0.000000000000000e+00 0.000000000000000e+00
0.000000000000000e+00 0.000000000000000e+00 0.000000000000000e+00
0.000000000000000e+00 0.000000000000000e+00 0.000000000000000e+00

0.000000000000000e+00 0.000000000000000e+00 0.000000000000000e+00
0.000000000000000e+00 0.000000000000000e+00 0.000000000000000e+00
0.000000000000000e+00 0.000000000000000e+00 0.000000000000000e+00

0.000000000000000e+00 0.000000000000000e+00 0.000000000000000e+00
0.000000000000000e+00 0.000000000000000e+00 0.000000000000000e+00
0.000000000000000e+00 0.000000000000000e+00 0.000000000000000e+00

0.000000000000000e+00 0.000000000000000e+00 0.000000000000000e+00
0.000000000000000e+00 0.000000000000000e+00 0.000000000000000e+00
0.000000000000000e+00 0.000000000000000e+00 0.000000000000000e+00

0.000000000000000e+00 0.000000000000000e+00 0.000000000000000e+00
0.000000000000000e+00 0.000000000000000e+00 0.000000000000000e+00
0.000000000000000e+00 0.000000000000000e+00 0.000000000000000e+00

0.000000000000000e+00 0.000000000000000e+00 0.000000000000000e+00
0.000000000000000e+00 0.000000000000000e+00 0.000000000000000e+00
0.000000000000000e+00 0.000000000000000e+00 0.000000000000000e+00

0.000000000000000e+00 0.000000000000000e+00 0.000000000000000e+00
0.000000000000000e+00 0.000000000000000e+00 0.000000000000000e+00
0.000000000000000e+00 0.000000000000000e+00 0.000000000000000e+00

0.000000000000000e+00 0.000000000000000e+00 0.000000000000000e+00
0.000000000000000e+00 0.000000000000000e+00 0.000000000000000e+00
0.000000000000000e+00 0.000000000000000e+00 0.000000000000000e+00

0.000000000000000e+00 0.000000000000000e+00 0.000000000000000e+00
0.000000000000000e+00 0.000000000000000e+00 0.000000000000000e+00
0.000000000000000e+00 0.000000000000000e+00 0.000000000000000e+00

0.000000000000000e+00 0.000000000000000e+00 0.000000000000000e+00
0.000000000000000e+00 0.000000000000000e+00 0.000000000000000e+00
0.000000000000000e+00 0.000000000000000e+00 0.000000000000000e+00

0.000000000000000e+00 0.000000000000000e+00 0.000000000000000e+00
0.000000000000000e+00 0.000000000000000e+00 0.000000000000000e+00
0.000000000000000e+00 0.000000000000000e+00 0.000000000000000e+00

0.000000000000000e+00 0.000000000000000e+00 0.000000000000000e+00
0.000000000000000e+00 0.000000000000000e+00 0.000000000000000e+00
0.000000000000000e+00 0.000000000000000e+00 0.000000000000000e+00

0.000000000000000e+00 0.000000000000000e+00 0.000000000000000e+00
0.000000000000000e+00 0.000000000000000e+00 0.000000000000000e+00
0.000000000000000e+00 0.000000000000000e+00 0.000000000000000e+00

0.000000000000000e+00 0.000000000000000e+00 0.000000000000000e+00
0.000000000000000e+00 0.000000000000000e+00 0.000000000000000e+00
0.000000000000000e+00 0.000000000000000e+00 0.000000000000000e+00

0.000000000000000e+00 0.000000000000000e+00 0.000000000000000e+00
0.000000000000000e+00 0.000000000000000e+00 0.000000000000000e+00
0.000000000000000e+00 0.000000000000000e+00 0.000000000000000e+00

0.000000000000000e+00 0.000000000000000e+00 0.000000000000000e+00
0.000000000000000e+00 0.000000000000000e+00 0.000000000000000e+00
0.000000000000000e+00 0.000000000000000e+00 0.000000000000000e+00

0.000000000000000e+00 0.000000000000000e+00 0.000000000000000e+00
0.000000000000000e+00 0.000000000000000e+00 0.000000000000000e+00
0.000000000000000e+00 0.000000000000000e+00 0.000000000000000e+00

0.000000000000000e+00 0.000000000000000e+00 0.000000000000000e+00
0.000000000000000e+00 0.000000000000000e+00 0.000000000000000e+00
0.000000000000000e+00 0.000000000000000e+00 0.000000000000000e+00

0.000000000000000e+00 0.000000000000000e+00 0.000000000000000e+00
0.000000000000000e+00 0.000000000000000e+00 0.000000000000000e+00
0.000000000000000e+00 0.000000000000000e+00 0.000000000000000e+00

0.000000000000000e+00 0.000000000000000e+00 0.000000000000000e+00
0.000000000000000e+00 0.000000000000000e+00 0.000000000000000e+00
0.000000000000000e+00 0.000000000000000e+00 0.000000000000000e+00

0.000000000000000e+00 0.000000000000000e+00 0.000000000000000e+00
0.000000000000000e+00 0.000000000000000e+00 0.000000000000000e+00
0.000000000000000e+00 0.000000000000000e+00 0.000000000000000e+00

0.000000000000000e+00 0.000000000000000e+00 0.000000000000000e+00
0.000000000000000e+00 0.000000000000000e+00 0.000000000000000e+00
0.000000000000000e+00 0.000000000000000e+00 0.000000000000000e+00

0.000000000000000e+00 0.000000000000000e+00 0.000000000000000e+00
0.000000000000000e+00 0.000000000000000e+00 0.000000000000000e+00
0.000000000000000e+00 0.000000000000000e+00 0.000000000000000e+00

0.000000000000000e+00 0.000000000000000e+00 0.000000000000000e+00
0.000000000000000e+00 0.000000000000000e+00 0.000000000000000e+00
0.000000000000000e+00 0.000000000000000e+00 0.000000000000000e+00

0.000000000000000e+00 0.000000000000000e+00 0.000000000000000e+00
0.000000000000000e+00 0.000000000000000e+00 0.000000000000000e+00
0.000000000000000e+00 0.000000000000000e+00 0.000000000000000e+00

0.000000000000000e+00 0.000000000000000e+00 0.000000000000000e+00
0.000000000000000e+00 0.000000000000000e+00 0.000000000000000e+00
0.000000000000000e+00 0.000000000000000e+00 0.000000000000000e+00

0.000000000000000e+00 0.000000000000000e+00 0.000000000000000e+00
0.000000000000000e+00 0.000000000000000e+00 0.000000000000000e+00
0.000000000000000e+00 0.000000000000000e+00 0.000000000000000e+00

0.000000000000000e+00 0.000000000000000e+00 0.000000000000000e+00
0.000000000000000e+00 0.000000000000000e+00 0.000000000000000e+00
0.000000000000000e+00 0.000000000000000e+00 0.000000000000000e+00

0.000000000000000e+00 0.000000000000000e+00 0.000000000000000e+00
0.000000000000000e+00 0.000000000000000e+00 0.000000000000000e+00
0.000000000000000e+00 0.000000000000000e+00 0.000000000000000e+00

0.000000000000000e+00 0.000000000000000e+00 0.000000000000000e+00
0.000000000000000e+00 0.000000000000000e+00 0.000000000000000e+00
0.000000000000000e+00 0.000000000000000e+00 0.000000000000000e+00

0.000000000000000e+00 0.000000000000000e+00 0.000000000000000e+00
0.000000000000000e+00 0.000000000000000e+00 0.000000000000000e+00
0.000000000000000e+00 0.000000000000000e+00 0.000000000000000e+00

0.000000000000000e+00 0.000000000000000e+00 0.000000000000000e+00
0.000000000000000e+00 0.000000000000000e+00 0.000000000000000e+00
0.000000000000000e+00 0.000000000000000e+00 0.000000000000000e+00

0.000000000000000e+00 0.000000000000000e+00 0.000000000000000e+00
0.000000000000000e+00 0.000000000000000e+00 0.000000000000000e+00
0.000000000000000e+00 0.000000000000000e+00 0.000000000000000e+00

0.000000000000000e+00 0.000000000000000e+00 0.000000000000000e+00
0.000000000000000e+00 0.000000000000000e+00 0.000000000000000e+00
0.000000000000000e+00 0.000000000000000e+00 0.000000000000000e+00

0.000000000000000e+00 0.000000000000000e+00 0.000000000000000e+00
0.000000000000000e+00 0.000000000000000e+00 0.000000000000000e+00
0.000000000000000e+00 0.000000000000000e+00 0.000000000000000e+00

0.000000000000000e+00 0.000000000000000e+00 0.000000000000000e+00
0.000000000000000e+00 0.000000000000000e+00 0.000000000000000e+00
0.000000000000000e+00 0.000000000000000e+00 0.000000000000000e+00

0.000000000000000e+00 0.000000000000000e+00 0.000000000000000e+00
0.000000000000000e+00 0.000000000000000e+00 0.000000000000000e+00
0.000000000000000e+00 0.000000000000000e+00 0.000000000000000e+00

0.000000000000000e+00 0.000000000000000e+00 0.000000000000000e+00
0.000000000000000e+00 0.000000000000000e+00 0.000000000000000e+00
0.000000000000000e+00 0.000000000000000e+00 0.000000000000000e+00

0.000000000000000e+00 0.000000000000000e+00 0.000000000000000e+00
0.000000000000000e+00 0.000000000000000e+00 0.000000000000000e+00
0.000000000000000e+00 0.000000000000000e+00 0.000000000000000e+00

0.000000000000000e+00 0.000000000000000e+00 0.000000000000000e+00
0.000000000000000e+00 0.000000000000000e+00 0.000000000000000e+00
0.000000000000000e+00 0.000000000000000e+00 0.000000000000000e+00

0.000000000000000e+00 0.000000000000000e+00 0.000000000000000e+00
0.000000000000000e+00 0.000000000000000e+00 0.000000000000000e+00
0.000000000000000e+00 0.000000000000000e+00 0.000000000000000e+00

0.000000000000000e+00 0.000000000000000e+00 0.000000000000000e+00
0.000000000000000e+00 0.000000000000000e+00 0.000000000000000e+00
0.000000000000000e+00 0.000000000000000e+00 0.000000000000000e+00

0.000000000000000e+00 0.000000000000000e+00 0.000000000000000e+00
0.000000000000000e+00 0.000000000000000e+00 0.000000000000000e+00
0.000000000000000e+00 0.000000000000000e+00 0.000000000000000e+00

0.000000000000000e+00 0.000000000000000e+00 0.000000000000000e+00
0.000000000000000e+00 0.000000000000000e+00 0.000000000000000e+00
0.000000000000000e+00 0.000000000000000e+00 0.000000000000000e+00

0.000000000000000e+00 0.000000000000000e+00 0.000000000000000e+00
0.000000000000000e+00 0.000000000000000e+00 0.000000000000000e+00
0.000000000000000e+00 0.000000000000000e+00 0.000000000000000e+00

0.000000000000000e+00 0.000000000000000e+00 0.000000000000000e+00
0.000000000000000e+00 0.000000000000000e+00 0.000000000000000e+00
0.000000000000000e+00 0.000000000000000e+00 0.000000000000000e+00

0.000000000000000e+00 0.000000000000000e+00 0.000000000000000e+00
0.000000000000000e+00 0.000000000000000e+00 0.000000000000000e+00
0.000000000000000e+00 0.000000000000000e+00 0.000000000000000e+00

0.000000000000000e+00 0.000000000000000e+00 0.000000000000000e+00
0.000000000000000e+00 0.000000000000000e+00 0.000000000000000e+00
0.000000000000000e+00 0.000000000000000e+00 0.000000000000000e+00

0.000000000000000e+00 0.000000000000000e+00 0.000000000000000e+00
0.000000000000000e+00 0.000000000000000e+00 0.000000000000000e+00
0.000000000000000e+00 0.000000000000000e+00 0.000000000000000e+00

0.000000000000000e+00 0.000000000000000e+00 0.000000000000000e+00
0.000000000000000e+00 0.000000000000000e+00 0.000000000000000e+00
0.000000000000000e+00 0.000000000000000e+00 0.000000000000000e+00

0.000000000000000e+00 0.000000000000000e+00 0.000000000000000e+00
0.000000000000000e+00 0.000000000000000e+00 0.000000000000000e+00
0.000000000000000e+00 0.000000000000000e+00 0.000000000000000e+00

0.000000000000000e+00 0.000000000000000e+00 0.000000000000000e+00
0.000000000000000e+00 0.000000000000000e+00 0.000000000000000e+00
0.000000000000000e+00 0.000000000000000e+00 0.000000000000000e+00

0.000000000000000e+00 0.000000000000000e+00 0.000000000000000e+00
0.000000000000000e+00 0.000000000000000e+00 0.000000000000000e+00
0.000000000000000e+00 0.000000000000000e+00 0.000000000000000e+00

0.000000000000000e+00 0.000000000000000e+00 0.000000000000000e+00
0.000000000000000e+00 0.000000000000000e+00 0.000000000000000e+00
0.000000000000000e+00 0.000000000000000e+00 0.000000000000000e+00

0.000000000000000e+00 0.000000000000000e+00 0.000000000000000e+00
0.000000000000000e+00 0.000000000000000e+00 0.000000000000000e+00
0.000000000000000e+00 0.000000000000000e+00 0.000000000000000e+00

0.000000000000000e+00 0.000000000000000e+00 0.000000000000000e+00
0.000000000000000e+00 0.000000000000000e+00 0.000000000000000e+00
0.000000000000000e+00 0.000000000000000e+00 0.000000000000000e+00

0.000000000000000e+00 0.000000000000000e+00 0.000000000000000e+00
0.000000000000000e+00 0.000000000000000e+00 0.000000000000000e+00
0.000000000000000e+00 0.000000000000000e+00 0.000000000000000e+00

0.000000000000000e+00 0.000000000000000e+00 0.000000000000000e+00
0.000000000000000e+00 0.000000000000000e+00 0.000000000000000e+00
0.000000000000000e+00 0.000000000000000e+00 0.000000000000000e+00

0.000000000000000e+00 0.000000000000000e+00 0.000000000000000e+00
0.000000000000000e+00 0.000000000000000e+00 0.000000000000000e+00
0.000000000000000e+00 0.000000000000000e+00 0.000000000000000e+00

0.000000000000000e+00 0.000000000000000e+00 0.000000000000000e+00
0.000000000000000e+00 0.000000000000000e+00 0.000000000000000e+00
0.000000000000000e+00 0.000000000000000e+00 0.000000000000000e+00

0.000000000000000e+00 0.000000000000000e+00 0.000000000000000e+00
0.000000000000000e+00 0.000000000000000e+00 0.000000000000000e+00
0.000000000000000e+00 0.000000000000000e+00 0.000000000000000e+00

0.000000000000000e+00 0.000000000000000e+00 0.000000000000000e+00
0.000000000000000e+00 0.000000000000000e+00 0.000000000000000e+00
0.000000000000000e+00 0.000000000000000e+00 0.000000000000000e+00

0.000000000000000e+00 0.000000000000000e+00 0.000000000000000e+00
0.000000000000000e+00 0.000000000000000e+00 0.000000000000000e+00
0.000000000000000e+00 0.000000000000000e+00 0.000000000000000e+00

0.000000000000000e+00 0.000000000000000e+00 0.000000000000000e+00
0.000000000000000e+00 0.000000000000000e+00 0.000000000000000e+00
0.000000000000000e+00 0.000000000000000e+00 0.000000000000000e+00

0.000000000000000e+00 0.000000000000000e+00 0.000000000000000e+00
0.000000000000000e+00 0.000000000000000e+00 0.000000000000000e+00
0.000000000000000e+00 0.000000000000000e+00 0.000000000000000e+00

0.000000000000000e+00 0.000000000000000e+00 0.000000000000000e+00
0.000000000000000e+00 0.000000000000000e+00 0.000000000000000e+00
0.000000000000000e+00 0.000000000000000e+00 0.000000000000000e+00

0.000000000000000e+00 0.000000000000000e+00 0.000000000000000e+00
0.000000000000000e+00 0.000000000000000e+00 0.000000000000000e+00
0.000000000000000e+00 0.000000000000000e+00 0.000000000000000e+00

0.000000000000000e+00 0.000000000000000e+00 0.000000000000000e+00
0.000000000000000e+00 0.000000000000000e+00 0.000000000000000e+00
0.000000000000000e+00 0.000000000000000e+00 0.000000000000000e+00

0.000000000000000e+00 0.000000000000000e+00 0.000000000000000e+00
0.000000000000000e+00 0.000000000000000e+00 0.000000000000000e+00
0.000000000000000e+00 0.000000000000000e+00 0.000000000000000e+00

0.000000000000000e+00 0.000000000000000e+00 0.000000000000000e+00
0.000000000000000e+00 0.000000000000000e+00 0.000000000000000e+00
0.000000000000000e+00 0.000000000000000e+00 0.000000000000000e+00

0.000000000000000e+00 0.000000000000000e+00 0.000000000000000e+00
0.000000000000000e+00 0.000000000000000e+00 0.000000000000000e+00
0.000000000000000e+00 0.000000000000000e+00 0.000000000000000e+00

0.000000000000000e+00 0.000000000000000e+00 0.000000000000000e+00
0.000000000000000e+00 0.000000000000000e+00 0.000000000000000e+00
0.000000000000000e+00 0.000000000000000e+00 0.000000000000000e+00

0.000000000000000e+00 0.000000000000000e+00 0.000000000000000e+00
0.000000000000000e+00 0.000000000000000e+00 0.000000000000000e+00
0.000000000000000e+00 0.000000000000000e+00 0.000000000000000e+00

0.000000000000000e+00 0.000000000000000e+00 0.000000000000000e+00
0.000000000000000e+00 0.000000000000000e+00 0.000000000000000e+00
0.000000000000000e+00 0.000000000000000e+00 0.000000000000000e+00

0.000000000000000e+00 0.000000000000000e+00 0.000000000000000e+00
0.000000000000000e+00 0.000000000000000e+00 0.000000000000000e+00
0.000000000000000e+00 0.000000000000000e+00 0.000000000000000e+00

0.000000000000000e+00 0.000000000000000e+00 0.000000000000000e+00
0.000000000000000e+00 0.000000000000000e+00 0.000000000000000e+00
0.000000000000000e+00 0.000000000000000e+00 0.000000000000000e+00

0.000000000000000e+00 0.000000000000000e+00 0.000000000000000e+00
0.000000000000000e+00 0.000000000000000e+00 0.000000000000000e+00
0.000000000000000e+00 0.000000000000000e+00 0.000000000000000e+00

0.000000000000000e+00 0.000000000000000e+00 0.000000000000000e+00
0.000000000000000e+00 0.000000000000000e+00 0.000000000000000e+00
0.000000000000000e+00 0.000000000000000e+00 0.000000000000000e+00

0.000000000000000e+00 0.000000000000000e+00 0.000000000000000e+00
0.000000000000000e+00 0.000000000000000e+00 0.000000000000000e+00
0.000000000000000e+00 0.000000000000000e+00 0.000000000000000e+00

0.000000000000000e+00 0.000000000000000e+00 0.000000000000000e+00
0.000000000000000e+00 0.000000000000000e+00 0.000000000000000e+00
0.000000000000000e+00 0.000000000000000e+00 0.000000000000000e+00

0.000000000000000e+00 0.000000000000000e+00 0.000000000000000e+00
0.000000000000000e+00 0.000000000000000e+00 0.000000000000000e+00
0.000000000000000e+00 0.000000000000000e+00 0.000000000000000e+00

0.000000000000000e+00 0.000000000000000e+00 0.000000000000000e+00
0.000000000000000e+00 0.000000000000000e+00 0.000000000000000e+00
0.000000000000000e+00 0.000000000000000e+00 0.000000000000000e+00

0.000000000000000e+00 0.000000000000000e+00 0.000000000000000e+00
0.000000000000000e+00 0.000000000000000e+00 0.000000000000000e+00
0.000000000000000e+00 0.000000000000000e+00 0.000000000000000e+00

0.000000000000000e+00 0.000000000000000e+00 0.000000000000000e+00
0.000000000000000e+00 0.000000000000000e+00 0.000000000000000e+00
0.000000000000000e+00 0.000000000000000e+00 0.000000000000000e+00

0.000000000000000e+00 0.000000000000000e+00 0.000000000000000e+00
0.000000000000000e+00 0.000000000000000e+00 0.000000000000000e+00
0.000000000000000e+00 0.000000000000000e+00 0.000000000000000e+00

0.000000000000000e+00 0.000000000000000e+00 0.000000000000000e+00
0.000000000000000e+00 0.000000000000000e+00 0.000000000000000e+00
0.000000000000000e+00 0.000000000000000e+00 0.000000000000000e+00

0.000000000000000e+00 0.000000000000000e+00 0.000000000000000e+00
0.000000000000000e+00 0.000000000000000e+00 0.000000000000000e+00
0.000000000000000e+00 0.000000000000000e+00 0.000000000000000e+00

0.000000000000000e+00 0.000000000000000e+00 0.000000000000000e+00
0.000000000000000e+00 0.000000000000000e+00 0.000000000000000e+00
0.000000000000000e+00 0.000000000000000e+00 0.000000000000000e+00

0.000000000000000e+00 0.000000000000000e+00 0.000000000000000e+00
0.000000000000000e+00 0.000000000000000e+00 0.000000000000000e+00
0.000000000000000e+00 0.000000000000000e+00 0.000000000000000e+00

0.000000000000000e+00 0.000000000000000e+00 0.000000000000000e+00
0.000000000000000e+00 0.000000000000000e+00 0.000000000000000e+00
0.000000000000000e+00 0.000000000000000e+00 0.000000000000000e+00

0.000000000000000e+00 0.000000000000000e+00 0.000000000000000e+00
0.000000000000000e+00 0.000000000000000e+00 0.000000000000000e+00
0.000000000000000e+00 0.000000000000000e+00 0.000000000000000e+00

0.000000000000000e+00 0.000000000000000e+00 0.000000000000000e+00
0.000000000000000e+00 0.000000000000000e+00 0.000000000000000e+00
0.000000000000000e+00 0.000000000000000e+00 0.000000000000000e+00

0.000000000000000e+00 0.000000000000000e+00 0.000000000000000e+00
0.000000000000000e+00 0.000000000000000e+00 0.000000000000000e+00
0.000000000000000e+00 0.000000000000000e+00 0.000000000000000e+00

0.000000000000000e+00 0.000000000000000e+00 0.000000000000000e+00
0.000000000000000e+00 0.000000000000000e+00 0.000000000000000e+00
0.000000000000000e+00 0.000000000000000e+00 0.000000000000000e+00

0.000000000000000e+00 0.000000000000000e+00 0.000000000000000e+00
0.000000000000000e+00 0.000000000000000e+00 0.000000000000000e+00
0.000000000000000e+00 0.000000000000000e+00 0.000000000000000e+00

0.000000000000000e+00 0.000000000000000e+00 0.000000000000000e+00
0.000000000000000e+00 0.000000000000000e+00 0.000000000000000e+00
0.000000000000000e+00 0.000000000000000e+00 0.000000000000000e+00

0.000000000000000e+00 0.000000000000000e+00 0.000000000000000e+00
0.000000000000000e+00 0.000000000000000e+00 0.000000000000000e+00
0.000000000000000e+00 0.000000000000000e+00 0.000000000000000e+00

0.000000000000000e+00 0.000000000000000e+00 0.000000000000000e+00
0.000000000000000e+00 0.000000000000000e+00 0.000000000000000e+00
0.000000000000000e+00 0.000000000000000e+00 0.000000000000000e+00

0.000000000000000e+00 0.000000000000000e+00 0.000000000000000e+00
0.000000000000000e+00 0.000000000000000e+00 0.000000000000000e+00
0.000000000000000e+00 0.000000000000000e+00 0.000000000000000e+00

0.000000000000000e+00 0.000000000000000e+00 0.000000000000000e+00
0.000000000000000e+00 0.000000000000000e+00 0.000000000000000e+00
0.000000000000000e+00 0.000000000000000e+00 0.000000000000000e+00

0.000000000000000e+00 0.000000000000000e+00 0.000000000000000e+00
0.000000000000000e+00 0.000000000000000e+00 0.000000000000000e+00
0.000000000000000e+00 0.000000000000000e+00 0.000000000000000e+00

0.000000000000000e+00 0.000000000000000e+00 0.000000000000000e+00
0.000000000000000e+00 0.000000000000000e+00 0.000000000000000e+00
0.000000000000000e+00 0.000000000000000e+00 0.000000000000000e+00

0.000000000000000e+00 0.000000000000000e+00 0.000000000000000e+00
0.000000000000000e+00 0.000000000000000e+00 0.000000000000000e+00
0.000000000000000e+00 0.000000000000000e+00 0.000000000000000e+00

0.000000000000000e+00 0.000000000000000e+00 0.000000000000000e+00
0.000000000000000e+00 0.000000000000000e+00 0.000000000000000e+00
0.000000000000000e+00 0.000000000000000e+00 0.000000000000000e+00

0.000000000000000e+00 0.000000000000000e+00 0.000000000000000e+00
0.000000000000000e+00 0.000000000000000e+00 0.000000000000000e+00
0.000000000000000e+00 0.000000000000000e+00 0.000000000000000e+00

0.000000000000000e+00 0.000000000000000e+00 0.000000000000000e+00
0.000000000000000e+00 0.000000000000000e+00 0.000000000000000e+00
0.000000000000000e+00 0.000000000000000e+00 0.000000000000000e+00

0.000000000000000e+00 0.000000000000000e+00 0.000000000000000e+00
0.000000000000000e+00 0.000000000000000e+00 0.000000000000000e+00
0.000000000000000e+00 0.000000000000000e+00 0.000000000000000e+00

0.000000000000000e+00 0.000000000000000e+00 0.000000000000000e+00
0.000000000000000e+00 0.000000000000000e+00 0.000000000000000e+00
0.000000000000000e+00 0.000000000000000e+00 0.000000000000000e+00

0.000000000000000e+00 0.000000000000000e+00 0.000000000000000e+00
0.000000000000000e+00 0.000000000000000e+00 0.000000000000000e+00
0.000000000000000e+00 0.000000000000000e+00 0.000000000000000e+00

0.000000000000000e+00 0.000000000000000e+00 0.000000000000000e+00
0.000000000000000e+00 0.000000000000000e+00 0.000000000000000e+00
0.000000000000000e+00 0.000000000000000e+00 0.000000000000000e+00

0.000000000000000e+00 0.000000000000000e+00 0.000000000000000e+00
0.000000000000000e+00 0.000000000000000e+00 0.000000000000000e+00
0.000000000000000e+00 0.000000000000000e+00 0.000000000000000e+00

0.000000000000000e+00 0.000000000000000e+00 0.000000000000000e+00
0.000000000000000e+00 0.000000000000000e+00 0.000000000000000e+00
0.000000000000000e+00 0.000000000000000e+00 0.000000000000000e+00

0.000000000000000e+00 0.000000000000000e+00 0.000000000000000e+00
0.000000000000000e+00 0.000000000000000e+00 0.000000000000000e+00
0.000000000000000e+00 0.000000000000000e+00 0.000000000000000e+00

0.000000000000000e+00 0.000000000000000e+00 0.000000000000000e+00
0.000000000000000e+00 0.000000000000000e+00 0.000000000000000e+00
0.000000000000000e+00 0.000000000000000e+00 0.000000000000000e+00

0.000000000000000e+00 0.000000000000000e+00 0.000000000000000e+00
0.000000000000000e+00 0.000000000000000e+00 0.000000000000000e+00
0.000000000000000e+00 0.000000000000000e+00 0.000000000000000e+00

0.000000000000000e+00 0.000000000000000e+00 0.000000000000000e+00
0.000000000000000e+00 0.000000000000000e+00 0.000000000000000e+00
0.000000000000000e+00 0.000000000000000e+00 0.000000000000000e+00

0.000000000000000e+00 0.000000000000000e+00 0.000000000000000e+00
0.000000000000000e+00 0.000000000000000e+00 0.000000000000000e+00
0.000000000000000e+00 0.000000000000000e+00 0.000000000000000e+00

0.000000000000000e+00 0.000000000000000e+00 0.000000000000000e+00
0.000000000000000e+00 0.000000000000000e+00 0.000000000000000e+00
0.000000000000000e+00 0.000000000000000e+00 0.000000000000000e+00

0.000000000000000e+00 0.000000000000000e+00 0.000000000000000e+00
0.000000000000000e+00 0.000000000000000e+00 0.000000000000000e+00
0.000000000000000e+00 0.000000000000000e+00 0.000000000000000e+00

0.000000000000000e+00 0.000000000000000e+00 0.000000000000000e+00
0.000000000000000e+00 0.000000000000000e+00 0.000000000000000e+00
0.000000000000000e+00 0.000000000000000e+00 0.000000000000000e+00

0.000000000000000e+00 0.000000000000000e+00 0.000000000000000e+00
0.000000000000000e+00 0.000000000000000e+00 0.000000000000000e+00
0.000000000000000e+00 0.000000000000000e+00 0.000000000000000e+00

0.000000000000000e+00 0.000000000000000e+00 0.000000000000000e+00
0.000000000000000e+00 0.000000000000000e+00 0.000000000000000e+00
0.000000000000000e+00 0.000000000000000e+00 0.000000000000000e+00

0.000000000000000e+00 0.000000000000000e+00 0.000000000000000e+00
0.000000000000000e+00 0.000000000000000e+00 0.000000000000000e+00
0.000000000000000e+00 0.000000000000000e+00 0.000000000000000e+00

0.000000000000000e+00 0.000000000000000e+00 0.000000000000000e+00
0.000000000000000e+00 0.000000000000000e+00 0.000000000000000e+00
0.000000000000000e+00 0.000000000000000e+00 0.000000000000000e+00

0.000000000000000e+00 0.000000000000000e+00 0.000000000000000e+00
0.000000000000000e+00 0.000000000000000e+00 0.000000000000000e+00
0.000000000000000e+00 0.000000000000000e+00 0.000000000000000e+00

0.000000000000000e+00 0.000000000000000e+00 0.000000000000000e+00
0.000000000000000e+00 0.000000000000000e+00 0.000000000000000e+00
0.000000000000000e+00 0.000000000000000e+00 0.000000000000000e+00

0.000000000000000e+00 0.000000000000000e+00 0.000000000000000e+00
0.000000000000000e+00 0.000000000000000e+00 0.000000000000000e+00
0.000000000000000e+00 0.000000000000000e+00 0.000000000000000e+00

0.000000000000000e+00 0.000000000000000e+00 0.000000000000000e+00
0.000000000000000e+00 0.000000000000000e+00 0.000000000000000e+00
0.000000000000000e+00 0.000000000000000e+00 0.000000000000000e+00

0.000000000000000e+00 0.000000000000000e+00 0.000000000000000e+00
0.000000000000000e+00 0.000000000000000e+00 0.000000000000000e+00
0.000000000000000e+00 0.000000000000000e+00 0.000000000000000e+00

0.000000000000000e+00 0.000000000000000e+00 0.000000000000000e+00
0.000000000000000e+00 0.000000000000000e+00 0.000000000000000e+00
0.000000000000000e+00 0.000000000000000e+00 0.000000000000000e+00

0.000000000000000e+00 0.000000000000000e+00 0.000000000000000e+00
0.000000000000000e+00 0.000000000000000e+00 0.000000000000000e+00
0.000000000000000e+00 0.000000000000000e+00 0.000000000000000e+00

0.000000000000000e+00 0.000000000000000e+00 0.000000000000000e+00
0.000000000000000e+00 0.000000000000000e+00 0.000000000000000e+00
0.000000000000000e+00 0.000000000000000e+00 0.000000000000000e+00

0.000000000000000e+00 0.000000000000000e+00 0.000000000000000e+00
0.000000000000000e+00 0.000000000000000e+00 0.000000000000000e+00
0.000000000000000e+00 0.000000000000000e+00 0.000000000000000e+00

0.000000000000000e+00 0.000000000000000e+00 0.000000000000000e+00
0.000000000000000e+00 0.000000000000000e+00 0.000000000000000e+00
0.000000000000000e+00 0.000000000000000e+00 0.000000000000000e+00

0.000000000000000e+00 0.000000000000000e+00 0.000000000000000e+00
0.000000000000000e+00 0.000000000000000e+00 0.000000000000000e+00
0.000000000000000e+00 0.000000000000000e+00 0.000000000000000e+00

0.000000000000000e+00 0.000000000000000e+00 0.000000000000000e+00
0.000000000000000e+00 0.000000000000000e+00 0.000000000000000e+00
0.000000000000000e+00 0.000000000000000e+00 0.000000000000000e+00

0.000000000000000e+00 0.000000000000000e+00 0.000000000000000e+00
0.000000000000000e+00 0.000000000000000e+00 0.000000000000000e+00
0.000000000000000e+00 0.000000000000000e+00 0.000000000000000e+00

0.000000000000000e+00 0.000000000000000e+00 0.000000000000000e+00
0.000000000000000e+00 0.000000000000000e+00 0.000000000000000e+00
0.000000000000000e+00 0.000000000000000e+00 0.000000000000000e+00

0.000000000000000e+00 0.000000000000000e+00 0.000000000000000e+00
0.000000000000000e+00 0.000000000000000e+00 0.000000000000000e+00
0.000000000000000e+00 0.000000000000000e+00 0.000000000000000e+00

0.000000000000000e+00 0.000000000000000e+00 0.000000000000000e+00
0.000000000000000e+00 0.000000000000000e+00 0.000000000000000e+00
0.000000000000000e+00 0.000000000000000e+00 0.000000000000000e+00

0.000000000000000e+00 0.000000000000000e+00 0.000000000000000e+00
0.000000000000000e+00 0.000000000000000e+00 0.000000000000000e+00
0.000000000000000e+00 0.000000000000000e+00 0.000000000000000e+00

0.000000000000000e+00 0.000000000000000e+00 0.000000000000000e+00
0.000000000000000e+00 0.000000000000000e+00 0.000000000000000e+00
0.000000000000000e+00 0.000000000000000e+00 0.000000000000000e+00

0.000000000000000e+00 0.000000000000000e+00 0.000000000000000e+00
0.000000000000000e+00 0.000000000000000e+00 0.000000000000000e+00
0.000000000000000e+00 0.000000000000000e+00 0.000000000000000e+00

0.000000000000000e+00 0.000000000000000e+00 0.000000000000000e+00
0.000000000000000e+00 0.000000000000000e+00 0.000000000000000e+00
0.000000000000000e+00 0.000000000000000e+00 0.000000000000000e+00

0.000000000000000e+00 0.000000000000000e+00 0.000000000000000e+00
0.000000000000000e+00 0.000000000000000e+00 0.000000000000000e+00
0.000000000000000e+00 0.000000000000000e+00 0.000000000000000e+00

0.000000000000000e+00 0.000000000000000e+00 0.000000000000000e+00
0.000000000000000e+00 0.000000000000000e+00 0.000000000000000e+00
0.000000000000000e+00 0.000000000000000e+00 0.000000000000000e+00

0.000000000000000e+00 0.000000000000000e+00 0.000000000000000e+00
0.000000000000000e+00 0.000000000000000e+00 0.000000000000000e+00
0.000000000000000e+00 0.000000000000000e+00 0.000000000000000e+00

0.000000000000000e+00 0.000000000000000e+00 0.000000000000000e+00
0.000000000000000e+00 0.000000000000000e+00 0.000000000000000e+00
0.000000000000000e+00 0.000000000000000e+00 0.000000000000000e+00

0.000000000000000e+00 0.000000000000000e+00 0.000000000000000e+00
0.000000000000000e+00 0.000000000000000e+00 0.000000000000000e+00
0.000000000000000e+00 0.000000000000000e+00 0.000000000000000e+00

0.000000000000000e+00 0.000000000000000e+00 0.000000000000000e+00
0.000000000000000e+00 0.000000000000000e+00 0.000000000000000e+00
0.000000000000000e+00 0.000000000000000e+00 0.000000000000000e+00

0.000000000000000e+00 0.000000000000000e+00 0.000000000000000e+00
0.000000000000000e+00 0.000000000000000e+00 0.000000000000000e+00
0.000000000000000e+00 0.000000000000000e+00 0.000000000000000e+00

0.000000000000000e+00 0.000000000000000e+00 0.000000000000000e+00
0.000000000000000e+00 0.000000000000000e+00 0.000000000000000e+00
0.000000000000000e+00 0.000000000000000e+00 0.000000000000000e+00

0.000000000000000e+00 0.000000000000000e+00 0.000000000000000e+00
0.000000000000000e+00 0.000000000000000e+00 0.000000000000000e+00
0.000000000000000e+00 0.000000000000000e+00 0.000000000000000e+00

0.000000000000000e+00 0.000000000000000e+00 0.000000000000000e+00
0.000000000000000e+00 0.000000000000000e+00 0.000000000000000e+00
0.000000000000000e+00 0.000000000000000e+00 0.000000000000000e+00

0.000000000000000e+00 0.000000000000000e+00 0.000000000000000e+00
0.000000000000000e+00 0.000000000000000e+00 0.000000000000000e+00
0.000000000000000e+00 0.000000000000000e+00 0.000000000000000e+00

0.000000000000000e+00 0.000000000000000e+00 0.000000000000000e+00
0.000000000000000e+00 0.000000000000000e+00 0.000000000000000e+00
0.000000000000000e+00 0.000000000000000e+00 0.000000000000000e+00

0.000000000000000e+00 0.000000000000000e+00 0.000000000000000e+00
0.000000000000000e+00 0.000000000000000e+00 0.000000000000000e+00
0.000000000000000e+00 0.000000000000000e+00 0.000000000000000e+00

0.000000000000000e+00 0.000000000000000e+00 0.000000000000000e+00
0.000000000000000e+00 0.000000000000000e+00 0.000000000000000e+00
0.000000000000000e+00 0.000000000000000e+00 0.000000000000000e+00

0.000000000000000e+00 0.000000000000000e+00 0.000000000000000e+00
0.000000000000000e+00 0.000000000000000e+00 0.000000000000000e+00
0.000000000000000e+00 0.000000000000000e+00 0.000000000000000e+00

0.000000000000000e+00 0.000000000000000e+00 0.000000000000000e+00
0.000000000000000e+00 0.000000000000000e+00 0.000000000000000e+00
0.000000000000000e+00 0.000000000000000e+00 0.000000000000000e+00

0.000000000000000e+00 0.000000000000000e+00 0.000000000000000e+00
0.000000000000000e+00 0.000000000000000e+00 0.000000000000000e+00
0.000000000000000e+00 0.000000000000000e+00 0.000000000000000e+00

0.000000000000000e+00 0.000000000000000e+00 0.000000000000000e+00
0.000000000000000e+00 0.000000000000000e+00 0.000000000000000e+00
0.000000000000000e+00 0.000000000000000e+00 0.000000000000000e+00

0.000000000000000e+00 0.000000000000000e+00 0.000000000000000e+00
0.000000000000000e+00 0.000000000000000e+00 0.000000000000000e+00
0.000000000000000e+00 0.000000000000000e+00 0.000000000000000e+00

0.000000000000000e+00 0.000000000000000e+00 0.000000000000000e+00
0.000000000000000e+00 0.000000000000000e+00 0.000000000000000e+00
0.000000000000000e+00 0.000000000000000e+00 0.000000000000000e+00

0.000000000000000e+00 0.000000000000000e+00 0.000000000000000e+00
0.000000000000000e+00 0.000000000000000e+00 0.000000000000000e+00
0.000000000000000e+00 0.000000000000000e+00 0.000000000000000e+00

0.000000000000000e+00 0.000000000000000e+00 0.000000000000000e+00
0.000000000000000e+00 0.000000000000000e+00 0.000000000000000e+00
0.000000000000000e+00 0.000000000000000e+00 0.000000000000000e+00

0.000000000000000e+00 0.000000000000000e+00 0.000000000000000e+00
0.000000000000000e+00 0.000000000000000e+00 0.000000000000000e+00
0.000000000000000e+00 0.000000000000000e+00 0.000000000000000e+00

0.000000000000000e+00 0.000000000000000e+00 0.000000000000000e+00
0.000000000000000e+00 0.000000000000000e+00 0.000000000000000e+00
0.000000000000000e+00 0.000000000000000e+00 0.000000000000000e+00

0.000000000000000e+00 0.000000000000000e+00 0.000000000000000e+00
0.000000000000000e+00 0.000000000000000e+00 0.000000000000000e+00
0.000000000000000e+00 0.000000000000000e+00 0.000000000000000e+00

0.000000000000000e+00 0.000000000000000e+00 0.000000000000000e+00
0.000000000000000e+00 0.000000000000000e+00 0.000000000000000e+00
0.000000000000000e+00 0.000000000000000e+00 0.000000000000000e+00

0.000000000000000e+00 0.000000000000000e+00 0.000000000000000e+00
0.000000000000000e+00 0.000000000000000e+00 0.000000000000000e+00
0.000000000000000e+00 0.000000000000000e+00 0.000000000000000e+00

0.000000000000000e+00 0.000000000000000e+00 0.000000000000000e+00
0.000000000000000e+00 0.000000000000000e+00 0.000000000000000e+00
0.000000000000000e+00 0.000000000000000e+00 0.000000000000000e+00

0.000000000000000e+00 0.000000000000000e+00 0.000000000000000e+00
0.000000000000000e+00 0.000000000000000e+00 0.000000000000000e+00
0.000000000000000e+00 0.000000000000000e+00 0.000000000000000e+00

0.000000000000000e+00 0.000000000000000e+00 0.000000000000000e+00
0.000000000000000e+00 0.000000000000000e+00 0.000000000000000e+00
0.000000000000000e+00 0.000000000000000e+00 0.000000000000000e+00

0.000000000000000e+00 0.000000000000000e+00 0.000000000000000e+00
0.000000000000000e+00 0.000000000000000e+00 0.000000000000000e+00
0.000000000000000e+00 0.000000000000000e+00 0.000000000000000e+00

0.000000000000000e+00 0.000000000000000e+00 0.000000000000000e+00
0.000000000000000e+00 0.000000000000000e+00 0.000000000000000e+00
0.000000000000000e+00 0.000000000000000e+00 0.000000000000000e+00

0.000000000000000e+00 0.000000000000000e+00 0.000000000000000e+00
0.000000000000000e+00 0.000000000000000e+00 0.000000000000000e+00
0.000000000000000e+00 0.000000000000000e+00 0.000000000000000e+00

0.000000000000000e+00 0.000000000000000e+00 0.000000000000000e+00
0.000000000000000e+00 0.000000000000000e+00 0.000000000000000e+00
0.000000000000000e+00 0.000000000000000e+00 0.000000000000000e+00

0.000000000000000e+00 0.000000000000000e+00 0.000000000000000e+00
0.000000000000000e+00 0.000000000000000e+00 0.000000000000000e+00
0.000000000000000e+00 0.000000000000000e+00 0.000000000000000e+00

0.000000000000000e+00 0.000000000000000e+00 0.000000000000000e+00
0.000000000000000e+00 0.000000000000000e+00 0.000000000000000e+00
0.000000000000000e+00 0.000000000000000e+00 0.000000000000000e+00

0.000000000000000e+00 0.000000000000000e+00 0.000000000000000e+00
0.000000000000000e+00 0.000000000000000e+00 0.000000000000000e+00
0.000000000000000e+00 0.000000000000000e+00 0.000000000000000e+00

0.000000000000000e+00 0.000000000000000e+00 0.000000000000000e+00
0.000000000000000e+00 0.000000000000000e+00 0.000000000000000e+00
0.000000000000000e+00 0.000000000000000e+00 0.000000000000000e+00

0.000000000000000e+00 0.000000000000000e+00 0.000000000000000e+00
0.000000000000000e+00 0.000000000000000e+00 0.000000000000000e+00
0.000000000000000e+00 0.000000000000000e+00 0.000000000000000e+00

0.000000000000000e+00 0.000000000000000e+00 0.000000000000000e+00
0.000000000000000e+00 0.000000000000000e+00 0.000000000000000e+00
0.000000000000000e+00 0.000000000000000e+00 0.000000000000000e+00

0.000000000000000e+00 0.000000000000000e+00 0.000000000000000e+00
0.000000000000000e+00 0.000000000000000e+00 0.000000000000000e+00
0.000000000000000e+00 0.000000000000000e+00 0.000000000000000e+00

0.000000000000000e+00 0.000000000000000e+00 0.000000000000000e+00
0.000000000000000e+00 0.000000000000000e+00 0.000000000000000e+00
0.000000000000000e+00 0.000000000000000e+00 0.000000000000000e+00

0.000000000000000e+00 0.000000000000000e+00 0.000000000000000e+00
0.000000000000000e+00 0.000000000000000e+00 0.000000000000000e+00
0.000000000000000e+00 0.000000000000000e+00 0.000000000000000e+00

0.000000000000000e+00 0.000000000000000e+00 0.000000000000000e+00
0.000000000000000e+00 0.000000000000000e+00 0.000000000000000e+00
0.000000000000000e+00 0.000000000000000e+00 0.000000000000000e+00

0.000000000000000e+00 0.000000000000000e+00 0.000000000000000e+00
0.000000000000000e+00 0.000000000000000e+00 0.000000000000000e+00
0.000000000000000e+00 0.000000000000000e+00 0.000000000000000e+00

0.000000000000000e+00 0.000000000000000e+00 0.000000000000000e+00
0.000000000000000e+00 0.000000000000000e+00 0.000000000000000e+00
0.000000000000000e+00 0.000000000000000e+00 0.000000000000000e+00

0.000000000000000e+00 0.000000000000000e+00 0.000000000000000e+00
0.000000000000000e+00 0.000000000000000e+00 0.000000000000000e+00
0.000000000000000e+00 0.000000000000000e+00 0.000000000000000e+00

0.000000000000000e+00 0.000000000000000e+00 0.000000000000000e+00
0.000000000000000e+00 0.000000000000000e+00 0.000000000000000e+00
0.000000000000000e+00 0.000000000000000e+00 0.000000000000000e+00

0.000000000000000e+00 0.000000000000000e+00 0.000000000000000e+00
0.000000000000000e+00 0.000000000000000e+00 0.000000000000000e+00
0.000000000000000e+00 0.000000000000000e+00 0.000000000000000e+00

0.000000000000000e+00 0.000000000000000e+00 0.000000000000000e+00
0.000000000000000e+00 0.000000000000000e+00 0.000000000000000e+00
0.000000000000000e+00 0.000000000000000e+00 0.000000000000000e+00

0.000000000000000e+00 0.000000000000000e+00 0.000000000000000e+00
0.000000000000000e+00 0.000000000000000e+00 0.000000000000000e+00
0.000000000000000e+00 0.000000000000000e+00 0.000000000000000e+00

0.000000000000000e+00 0.000000000000000e+00 0.000000000000000e+00
0.000000000000000e+00 0.000000000000000e+00 0.000000000000000e+00
0.000000000000000e+00 0.000000000000000e+00 0.000000000000000e+00

0.000000000000000e+00 0.000000000000000e+00 0.000000000000000e+00
0.000000000000000e+00 0.000000000000000e+00 0.000000000000000e+00
0.000000000000000e+00 0.000000000000000e+00 0.000000000000000e+00

0.000000000000000e+00 0.000000000000000e+00 0.000000000000000e+00
0.000000000000000e+00 0.000000000000000e+00 0.000000000000000e+00
0.000000000000000e+00 0.000000000000000e+00 0.000000000000000e+00

0.000000000000000e+00 0.000000000000000e+00 0.000000000000000e+00
0.000000000000000e+00 0.000000000000000e+00 0.000000000000000e+00
0.000000000000000e+00 0.000000000000000e+00 0.000000000000000e+00

0.000000000000000e+00 0.000000000000000e+00 0.000000000000000e+00
0.000000000000000e+00 0.000000000000000e+00 0.000000000000000e+00
0.000000000000000e+00 0.000000000000000e+00 0.000000000000000e+00

0.000000000000000e+00 0.000000000000000e+00 0.000000000000000e+00
0.000000000000000e+00 0.000000000000000e+00 0.000000000000000e+00
0.000000000000000e+00 0.000000000000000e+00 0.000000000000000e+00

0.000000000000000e+00 0.000000000000000e+00 0.000000000000000e+00
0.000000000000000e+00 0.000000000000000e+00 0.000000000000000e+00
0.000000000000000e+00 0.000000000000000e+00 0.000000000000000e+00

0.000000000000000e+00 0.000000000000000e+00 0.000000000000000e+00
0.000000000000000e+00 0.000000000000000e+00 0.000000000000000e+00
0.000000000000000e+00 0.000000000000000e+00 0.000000000000000e+00

0.000000000000000e+00 0.000000000000000e+00 0.000000000000000e+00
0.000000000000000e+00 0.000000000000000e+00 0.000000000000000e+00
0.000000000000000e+00 0.000000000000000e+00 0.000000000000000e+00

0.000000000000000e+00 0.000000000000000e+00 0.000000000000000e+00
0.000000000000000e+00 0.000000000000000e+00 0.000000000000000e+00
0.000000000000000e+00 0.000000000000000e+00 0.000000000000000e+00

0.000000000000000e+00 0.000000000000000e+00 0.000000000000000e+00
0.000000000000000e+00 0.000000000000000e+00 0.000000000000000e+00
0.000000000000000e+00 0.000000000000000e+00 0.000000000000000e+00

0.000000000000000e+00 0.000000000000000e+00 0.000000000000000e+00
0.000000000000000e+00 0.000000000000000e+00 0.000000000000000e+00
0.000000000000000e+00 0.000000000000000e+00 0.000000000000000e+00

0.000000000000000e+00 0.000000000000000e+00 0.000000000000000e+00
0.000000000000000e+00 0.000000000000000e+00 0.000000000000000e+00
0.000000000000000e+00 0.000000000000000e+00 0.000000000000000e+00

0.000000000000000e+00 0.000000000000000e+00 0.000000000000000e+00
0.000000000000000e+00 0.000000000000000e+00 0.000000000000000e+00
0.000000000000000e+00 0.000000000000000e+00 0.000000000000000e+00

0.000000000000000e+00 0.000000000000000e+00 0.000000000000000e+00
0.000000000000000e+00 0.000000000000000e+00 0.000000000000000e+00
0.000000000000000e+00 0.000000000000000e+00 0.000000000000000e+00

0.000000000000000e+00 0.000000000000000e+00 0.000000000000000e+00
0.000000000000000e+00 0.000000000000000e+00 0.000000000000000e+00
0.000000000000000e+00 0.000000000000000e+00 0.000000000000000e+00

0.000000000000000e+00 0.000000000000000e+00 0.000000000000000e+00
0.000000000000000e+00 0.000000000000000e+00 0.000000000000000e+00
0.000000000000000e+00 0.000000000000000e+00 0.000000000000000e+00

0.000000000000000e+00 0.000000000000000e+00 0.000000000000000e+00
0.000000000000000e+00 0.000000000000000e+00 0.000000000000000e+00
0.000000000000000e+00 0.000000000000000e+00 0.000000000000000e+00

0.000000000000000e+00 0.000000000000000e+00 0.000000000000000e+00
0.000000000000000e+00 0.000000000000000e+00 0.000000000000000e+00
0.000000000000000e+00 0.000000000000000e+00 0.000000000000000e+00

0.000000000000000e+00 0.000000000000000e+00 0.000000000000000e+00
0.000000000000000e+00 0.000000000000000e+00 0.000000000000000e+00
0.000000000000000e+00 0.000000000000000e+00 0.000000000000000e+00

0.000000000000000e+00 0.000000000000000e+00 0.000000000000000e+00
0.000000000000000e+00 0.000000000000000e+00 0.000000000000000e+00
0.000000000000000e+00 0.000000000000000e+00 0.000000000000000e+00

0.000000000000000e+00 0.000000000000000e+00 0.000000000000000e+00
0.000000000000000e+00 0.000000000000000e+00 0.000000000000000e+00
0.000000000000000e+00 0.000000000000000e+00 0.000000000000000e+00

0.000000000000000e+00 0.000000000000000e+00 0.000000000000000e+00
0.000000000000000e+00 0.000000000000000e+00 0.000000000000000e+00
0.000000000000000e+00 0.000000000000000e+00 0.000000000000000e+00

0.000000000000000e+00 0.000000000000000e+00 0.000000000000000e+00
0.000000000000000e+00 0.000000000000000e+00 0.000000000000000e+00
0.000000000000000e+00 0.000000000000000e+00 0.000000000000000e+00

0.000000000000000e+00 0.000000000000000e+00 0.000000000000000e+00
0.000000000000000e+00 0.000000000000000e+00 0.000000000000000e+00
0.000000000000000e+00 0.000000000000000e+00 0.000000000000000e+00

0.000000000000000e+00 0.000000000000000e+00 0.000000000000000e+00
0.000000000000000e+00 0.000000000000000e+00 0.000000000000000e+00
0.000000000000000e+00 0.000000000000000e+00 0.000000000000000e+00

0.000000000000000e+00 0.000000000000000e+00 0.000000000000000e+00
0.000000000000000e+00 0.000000000000000e+00 0.000000000000000e+00
0.000000000000000e+00 0.000000000000000e+00 0.000000000000000e+00

0.000000000000000e+00 0.000000000000000e+00 0.000000000000000e+00
0.000000000000000e+00 0.000000000000000e+00 0.000000000000000e+00
0.000000000000000e+00 0.000000000000000e+00 0.000000000000000e+00

0.000000000000000e+00 0.000000000000000e+00 0.000000000000000e+00
0.000000000000000e+00 0.000000000000000e+00 0.000000000000000e+00
0.000000000000000e+00 0.000000000000000e+00 0.000000000000000e+00

0.000000000000000e+00 0.000000000000000e+00 0.000000000000000e+00
0.000000000000000e+00 0.000000000000000e+00 0.000000000000000e+00
0.000000000000000e+00 0.000000000000000e+00 0.000000000000000e+00

0.000000000000000e+00 0.000000000000000e+00 0.000000000000000e+00
0.000000000000000e+00 0.000000000000000e+00 0.000000000000000e+00
0.000000000000000e+00 0.000000000000000e+00 0.000000000000000e+00

0.000000000000000e+00 0.000000000000000e+00 0.000000000000000e+00
0.000000000000000e+00 0.000000000000000e+00 0.000000000000000e+00
0.000000000000000e+00 0.000000000000000e+00 0.000000000000000e+00

0.000000000000000e+00 0.000000000000000e+00 0.000000000000000e+00
0.000000000000000e+00 0.000000000000000e+00 0.000000000000000e+00
0.000000000000000e+00 0.000000000000000e+00 0.000000000000000e+00

0.000000000000000e+00 0.000000000000000e+00 0.000000000000000e+00
0.000000000000000e+00 0.000000000000000e+00 0.000000000000000e+00
0.000000000000000e+00 0.000000000000000e+00 0.000000000000000e+00

0.000000000000000e+00 0.000000000000000e+00 0.000000000000000e+00
0.000000000000000e+00 0.000000000000000e+00 0.000000000000000e+00
0.000000000000000e+00 0.000000000000000e+00 0.000000000000000e+00

0.000000000000000e+00 0.000000000000000e+00 0.000000000000000e+00
0.000000000000000e+00 0.000000000000000e+00 0.000000000000000e+00
0.000000000000000e+00 0.000000000000000e+00 0.000000000000000e+00

0.000000000000000e+00 0.000000000000000e+00 0.000000000000000e+00
0.000000000000000e+00 0.000000000000000e+00 0.000000000000000e+00
0.000000000000000e+00 0.000000000000000e+00 0.000000000000000e+00

0.000000000000000e+00 0.000000000000000e+00 0.000000000000000e+00
0.000000000000000e+00 0.000000000000000e+00 0.000000000000000e+00
0.000000000000000e+00 0.000000000000000e+00 0.000000000000000e+00

0.000000000000000e+00 0.000000000000000e+00 0.000000000000000e+00
0.000000000000000e+00 0.000000000000000e+00 0.000000000000000e+00
0.000000000000000e+00 0.000000000000000e+00 0.000000000000000e+00

0.000000000000000e+00 0.000000000000000e+00 0.000000000000000e+00
0.000000000000000e+00 0.000000000000000e+00 0.000000000000000e+00
0.000000000000000e+00 0.000000000000000e+00 0.000000000000000e+00

0.000000000000000e+00 0.000000000000000e+00 0.000000000000000e+00
0.000000000000000e+00 0.000000000000000e+00 0.000000000000000e+00
0.000000000000000e+00 0.000000000000000e+00 0.000000000000000e+00

0.000000000000000e+00 0.000000000000000e+00 0.000000000000000e+00
0.000000000000000e+00 0.000000000000000e+00 0.000000000000000e+00
0.000000000000000e+00 0.000000000000000e+00 0.000000000000000e+00

0.000000000000000e+00 0.000000000000000e+00 0.000000000000000e+00
0.000000000000000e+00 0.000000000000000e+00 0.000000000000000e+00
0.000000000000000e+00 0.000000000000000e+00 0.000000000000000e+00

0.000000000000000e+00 0.000000000000000e+00 0.000000000000000e+00
0.000000000000000e+00 0.000000000000000e+00 0.000000000000000e+00
0.000000000000000e+00 0.000000000000000e+00 0.000000000000000e+00

0.000000000000000e+00 0.000000000000000e+00 0.000000000000000e+00
0.000000000000000e+00 0.000000000000000e+00 0.000000000000000e+00
0.000000000000000e+00 0.000000000000000e+00 0.000000000000000e+00

0.000000000000000e+00 0.000000000000000e+00 0.000000000000000e+00
0.000000000000000e+00 0.000000000000000e+00 0.000000000000000e+00
0.000000000000000e+00 0.000000000000000e+00 0.000000000000000e+00

0.000000000000000e+00 0.000000000000000e+00 0.000000000000000e+00
0.000000000000000e+00 0.000000000000000e+00 0.000000000000000e+00
0.000000000000000e+00 0.000000000000000e+00 0.000000000000000e+00

0.000000000000000e+00 0.000000000000000e+00 0.000000000000000e+00
0.000000000000000e+00 0.000000000000000e+00 0.000000000000000e+00
0.000000000000000e+00 0.000000000000000e+00 0.000000000000000e+00

0.000000000000000e+00 0.000000000000000e+00 0.000000000000000e+00
0.000000000000000e+00 0.000000000000000e+00 0.000000000000000e+00
0.000000000000000e+00 0.000000000000000e+00 0.000000000000000e+00

0.000000000000000e+00 0.000000000000000e+00 0.000000000000000e+00
0.000000000000000e+00 0.000000000000000e+00 0.000000000000000e+00
0.000000000000000e+00 0.000000000000000e+00 0.000000000000000e+00

0.000000000000000e+00 0.000000000000000e+00 0.000000000000000e+00
0.000000000000000e+00 0.000000000000000e+00 0.000000000000000e+00
0.000000000000000e+00 0.000000000000000e+00 0.000000000000000e+00

0.000000000000000e+00 0.000000000000000e+00 0.000000000000000e+00
0.000000000000000e+00 0.000000000000000e+00 0.000000000000000e+00
0.000000000000000e+00 0.000000000000000e+00 0.000000000000000e+00

0.000000000000000e+00 0.000000000000000e+00 0.000000000000000e+00
0.000000000000000e+00 0.000000000000000e+00 0.000000000000000e+00
0.000000000000000e+00 0.000000000000000e+00 0.000000000000000e+00

0.000000000000000e+00 0.000000000000000e+00 0.000000000000000e+00
0.000000000000000e+00 0.000000000000000e+00 0.000000000000000e+00
0.000000000000000e+00 0.000000000000000e+00 0.000000000000000e+00

0.000000000000000e+00 0.000000000000000e+00 0.000000000000000e+00
0.000000000000000e+00 0.000000000000000e+00 0.000000000000000e+00
0.000000000000000e+00 0.000000000000000e+00 0.000000000000000e+00

0.000000000000000e+00 0.000000000000000e+00 0.000000000000000e+00
0.000000000000000e+00 0.000000000000000e+00 0.000000000000000e+00
0.000000000000000e+00 0.000000000000000e+00 0.000000000000000e+00

0.000000000000000e+00 0.000000000000000e+00 0.000000000000000e+00
0.000000000000000e+00 0.000000000000000e+00 0.000000000000000e+00
0.000000000000000e+00 0.000000000000000e+00 0.000000000000000e+00

0.000000000000000e+00 0.000000000000000e+00 0.000000000000000e+00
0.000000000000000e+00 0.000000000000000e+00 0.000000000000000e+00
0.000000000000000e+00 0.000000000000000e+00 0.000000000000000e+00

0.000000000000000e+00 0.000000000000000e+00 0.000000000000000e+00
0.000000000000000e+00 0.000000000000000e+00 0.000000000000000e+00
0.000000000000000e+00 0.000000000000000e+00 0.000000000000000e+00

0.000000000000000e+00 0.000000000000000e+00 0.000000000000000e+00
0.000000000000000e+00 0.000000000000000e+00 0.000000000000000e+00
0.000000000000000e+00 0.000000000000000e+00 0.000000000000000e+00

0.000000000000000e+00 0.000000000000000e+00 0.000000000000000e+00
0.000000000000000e+00 0.000000000000000e+00 0.000000000000000e+00
0.000000000000000e+00 0.000000000000000e+00 0.000000000000000e+00

0.000000000000000e+00 0.000000000000000e+00 0.000000000000000e+00
0.000000000000000e+00 0.000000000000000e+00 0.000000000000000e+00
0.000000000000000e+00 0.000000000000000e+00 0.000000000000000e+00

0.000000000000000e+00 0.000000000000000e+00 0.000000000000000e+00
0.000000000000000e+00 0.000000000000000e+00 0.000000000000000e+00
0.000000000000000e+00 0.000000000000000e+00 0.000000000000000e+00

0.000000000000000e+00 0.000000000000000e+00 0.000000000000000e+00
0.000000000000000e+00 0.000000000000000e+00 0.000000000000000e+00
0.000000000000000e+00 0.000000000000000e+00 0.000000000000000e+00

0.000000000000000e+00 0.000000000000000e+00 0.000000000000000e+00
0.000000000000000e+00 0.000000000000000e+00 0.000000000000000e+00
0.000000000000000e+00 0.000000000000000e+00 0.000000000000000e+00

0.000000000000000e+00 0.000000000000000e+00 0.000000000000000e+00
0.000000000000000e+00 0.000000000000000e+00 0.000000000000000e+00
0.000000000000000e+00 0.000000000000000e+00 0.000000000000000e+00

0.000000000000000e+00 0.000000000000000e+00 0.000000000000000e+00
0.000000000000000e+00 0.000000000000000e+00 0.000000000000000e+00
0.000000000000000e+00 0.000000000000000e+00 0.000000000000000e+00

0.000000000000000e+00 0.000000000000000e+00 0.000000000000000e+00
0.000000000000000e+00 0.000000000000000e+00 0.000000000000000e+00
0.000000000000000e+00 0.000000000000000e+00 0.000000000000000e+00

0.000000000000000e+00 0.000000000000000e+00 0.000000000000000e+00
0.000000000000000e+00 0.000000000000000e+00 0.000000000000000e+00
0.000000000000000e+00 0.000000000000000e+00 0.000000000000000e+00

0.000000000000000e+00 0.000000000000000e+00 0.000000000000000e+00
0.000000000000000e+00 0.000000000000000e+00 0.000000000000000e+00
0.000000000000000e+00 0.000000000000000e+00 0.000000000000000e+00

0.000000000000000e+00 0.000000000000000e+00 0.000000000000000e+00
0.000000000000000e+00 0.000000000000000e+00 0.000000000000000e+00
0.000000000000000e+00 0.000000000000000e+00 0.000000000000000e+00

0.000000000000000e+00 0.000000000000000e+00 0.000000000000000e+00
0.000000000000000e+00 0.000000000000000e+00 0.000000000000000e+00
0.000000000000000e+00 0.000000000000000e+00 0.000000000000000e+00

0.000000000000000e+00 0.000000000000000e+00 0.000000000000000e+00
0.000000000000000e+00 0.000000000000000e+00 0.000000000000000e+00
0.000000000000000e+00 0.000000000000000e+00 0.000000000000000e+00

0.000000000000000e+00 0.000000000000000e+00 0.000000000000000e+00
0.000000000000000e+00 0.000000000000000e+00 0.000000000000000e+00
0.000000000000000e+00 0.000000000000000e+00 0.000000000000000e+00

0.000000000000000e+00 0.000000000000000e+00 0.000000000000000e+00
0.000000000000000e+00 0.000000000000000e+00 0.000000000000000e+00
0.000000000000000e+00 0.000000000000000e+00 0.000000000000000e+00

0.000000000000000e+00 0.000000000000000e+00 0.000000000000000e+00
0.000000000000000e+00 0.000000000000000e+00 0.000000000000000e+00
0.000000000000000e+00 0.000000000000000e+00 0.000000000000000e+00

0.000000000000000e+00 0.000000000000000e+00 0.000000000000000e+00
0.000000000000000e+00 0.000000000000000e+00 0.000000000000000e+00
0.000000000000000e+00 0.000000000000000e+00 0.000000000000000e+00

0.000000000000000e+00 0.000000000000000e+00 0.000000000000000e+00
0.000000000000000e+00 0.000000000000000e+00 0.000000000000000e+00
0.000000000000000e+00 0.000000000000000e+00 0.000000000000000e+00

0.000000000000000e+00 0.000000000000000e+00 0.000000000000000e+00
0.000000000000000e+00 0.000000000000000e+00 0.000000000000000e+00
0.000000000000000e+00 0.000000000000000e+00 0.000000000000000e+00

0.000000000000000e+00 0.000000000000000e+00 0.000000000000000e+00
0.000000000000000e+00 0.000000000000000e+00 0.000000000000000e+00
0.000000000000000e+00 0.000000000000000e+00 0.000000000000000e+00

0.000000000000000e+00 0.000000000000000e+00 0.000000000000000e+00
0.000000000000000e+00 0.000000000000000e+00 0.000000000000000e+00
0.000000000000000e+00 0.000000000000000e+00 0.000000000000000e+00

0.000000000000000e+00 0.000000000000000e+00 0.000000000000000e+00
0.000000000000000e+00 0.000000000000000e+00 0.000000000000000e+00
0.000000000000000e+00 0.000000000000000e+00 0.000000000000000e+00

0.000000000000000e+00 0.000000000000000e+00 0.000000000000000e+00
0.000000000000000e+00 0.000000000000000e+00 0.000000000000000e+00
0.000000000000000e+00 0.000000000000000e+00 0.000000000000000e+00

0.000000000000000e+00 0.000000000000000e+00 0.000000000000000e+00
0.000000000000000e+00 0.000000000000000e+00 0.000000000000000e+00
0.000000000000000e+00 0.000000000000000e+00 0.000000000000000e+00

0.000000000000000e+00 0.000000000000000e+00 0.000000000000000e+00
0.000000000000000e+00 0.000000000000000e+00 0.000000000000000e+00
0.000000000000000e+00 0.000000000000000e+00 0.000000000000000e+00

0.000000000000000e+00 0.000000000000000e+00 0.000000000000000e+00
0.000000000000000e+00 0.000000000000000e+00 0.000000000000000e+00
0.000000000000000e+00 0.000000000000000e+00 0.000000000000000e+00

0.000000000000000e+00 0.000000000000000e+00 0.000000000000000e+00
0.000000000000000e+00 0.000000000000000e+00 0.000000000000000e+00
0.000000000000000e+00 0.000000000000000e+00 0.000000000000000e+00

0.000000000000000e+00 0.000000000000000e+00 0.000000000000000e+00
0.000000000000000e+00 0.000000000000000e+00 0.000000000000000e+00
0.000000000000000e+00 0.000000000000000e+00 0.000000000000000e+00

0.000000000000000e+00 0.000000000000000e+00 0.000000000000000e+00
0.000000000000000e+00 0.000000000000000e+00 0.000000000000000e+00
0.000000000000000e+00 0.000000000000000e+00 0.000000000000000e+00

0.000000000000000e+00 0.000000000000000e+00 0.000000000000000e+00
0.000000000000000e+00 0.000000000000000e+00 0.000000000000000e+00
0.000000000000000e+00 0.000000000000000e+00 0.000000000000000e+00

0.000000000000000e+00 0.000000000000000e+00 0.000000000000000e+00
0.000000000000000e+00 0.000000000000000e+00 0.000000000000000e+00
0.000000000000000e+00 0.000000000000000e+00 0.000000000000000e+00

0.000000000000000e+00 0.000000000000000e+00 0.000000000000000e+00
0.000000000000000e+00 0.000000000000000e+00 0.000000000000000e+00
0.000000000000000e+00 0.000000000000000e+00 0.000000000000000e+00

0.000000000000000e+00 0.000000000000000e+00 0.000000000000000e+00
0.000000000000000e+00 0.000000000000000e+00 0.000000000000000e+00
0.000000000000000e+00 0.000000000000000e+00 0.000000000000000e+00

0.000000000000000e+00 0.000000000000000e+00 0.000000000000000e+00
0.000000000000000e+00 0.000000000000000e+00 0.000000000000000e+00
0.000000000000000e+00 0.000000000000000e+00 0.000000000000000e+00

0.000000000000000e+00 0.000000000000000e+00 0.000000000000000e+00
0.000000000000000e+00 0.000000000000000e+00 0.000000000000000e+00
0.000000000000000e+00 0.000000000000000e+00 0.000000000000000e+00

0.000000000000000e+00 0.000000000000000e+00 0.000000000000000e+00
0.000000000000000e+00 0.000000000000000e+00 0.000000000000000e+00
0.000000000000000e+00 0.000000000000000e+00 0.000000000000000e+00

0.000000000000000e+00 0.000000000000000e+00 0.000000000000000e+00
0.000000000000000e+00 0.000000000000000e+00 0.000000000000000e+00
0.000000000000000e+00 0.000000000000000e+00 0.000000000000000e+00

0.000000000000000e+00 0.000000000000000e+00 0.000000000000000e+00
0.000000000000000e+00 0.000000000000000e+00 0.000000000000000e+00
0.000000000000000e+00 0.000000000000000e+00 0.000000000000000e+00

0.000000000000000e+00 0.000000000000000e+00 0.000000000000000e+00
0.000000000000000e+00 0.000000000000000e+00 0.000000000000000e+00
0.000000000000000e+00 0.000000000000000e+00 0.000000000000000e+00

0.000000000000000e+00 0.000000000000000e+00 0.000000000000000e+00
0.000000000000000e+00 0.000000000000000e+00 0.000000000000000e+00
0.000000000000000e+00 0.000000000000000e+00 0.000000000000000e+00

0.000000000000000e+00 0.000000000000000e+00 0.000000000000000e+00
0.000000000000000e+00 0.000000000000000e+00 0.000000000000000e+00
0.000000000000000e+00 0.000000000000000e+00 0.000000000000000e+00

0.000000000000000e+00 0.000000000000000e+00 0.000000000000000e+00
0.000000000000000e+00 0.000000000000000e+00 0.000000000000000e+00
0.000000000000000e+00 0.000000000000000e+00 0.000000000000000e+00

0.000000000000000e+00 0.000000000000000e+00 0.000000000000000e+00
0.000000000000000e+00 0.000000000000000e+00 0.000000000000000e+00
0.000000000000000e+00 0.000000000000000e+00 0.000000000000000e+00

0.000000000000000e+00 0.000000000000000e+00 0.000000000000000e+00
0.000000000000000e+00 0.000000000000000e+00 0.000000000000000e+00
0.000000000000000e+00 0.000000000000000e+00 0.000000000000000e+00

0.000000000000000e+00 0.000000000000000e+00 0.000000000000000e+00
0.000000000000000e+00 0.000000000000000e+00 0.000000000000000e+00
0.000000000000000e+00 0.000000000000000e+00 0.000000000000000e+00

0.000000000000000e+00 0.000000000000000e+00 0.000000000000000e+00
0.000000000000000e+00 0.000000000000000e+00 0.000000000000000e+00
0.000000000000000e+00 0.000000000000000e+00 0.000000000000000e+00

0.000000000000000e+00 0.000000000000000e+00 0.000000000000000e+00
0.000000000000000e+00 0.000000000000000e+00 0.000000000000000e+00
0.000000000000000e+00 0.000000000000000e+00 0.000000000000000e+00

0.000000000000000e+00 0.000000000000000e+00 0.000000000000000e+00
0.000000000000000e+00 0.000000000000000e+00 0.000000000000000e+00
0.000000000000000e+00 0.000000000000000e+00 0.000000000000000e+00

0.000000000000000e+00 0.000000000000000e+00 0.000000000000000e+00
0.000000000000000e+00 0.000000000000000e+00 0.000000000000000e+00
0.000000000000000e+00 0.000000000000000e+00 0.000000000000000e+00

0.000000000000000e+00 0.000000000000000e+00 0.000000000000000e+00
0.000000000000000e+00 0.000000000000000e+00 0.000000000000000e+00
0.000000000000000e+00 0.000000000000000e+00 0.000000000000000e+00

0.000000000000000e+00 0.000000000000000e+00 0.000000000000000e+00
0.000000000000000e+00 0.000000000000000e+00 0.000000000000000e+00
0.000000000000000e+00 0.000000000000000e+00 0.000000000000000e+00

0.000000000000000e+00 0.000000000000000e+00 0.000000000000000e+00
0.000000000000000e+00 0.000000000000000e+00 0.000000000000000e+00
0.000000000000000e+00 0.000000000000000e+00 0.000000000000000e+00

0.000000000000000e+00 0.000000000000000e+00 0.000000000000000e+00
0.000000000000000e+00 0.000000000000000e+00 0.000000000000000e+00
0.000000000000000e+00 0.000000000000000e+00 0.000000000000000e+00

0.000000000000000e+00 0.000000000000000e+00 0.000000000000000e+00
0.000000000000000e+00 0.000000000000000e+00 0.000000000000000e+00
0.000000000000000e+00 0.000000000000000e+00 0.000000000000000e+00

0.000000000000000e+00 0.000000000000000e+00 0.000000000000000e+00
0.000000000000000e+00 0.000000000000000e+00 0.000000000000000e+00
0.000000000000000e+00 0.000000000000000e+00 0.000000000000000e+00

0.000000000000000e+00 0.000000000000000e+00 0.000000000000000e+00
0.000000000000000e+00 0.000000000000000e+00 0.000000000000000e+00
0.000000000000000e+00 0.000000000000000e+00 0.000000000000000e+00

0.000000000000000e+00 0.000000000000000e+00 0.000000000000000e+00
0.000000000000000e+00 0.000000000000000e+00 0.000000000000000e+00
0.000000000000000e+00 0.000000000000000e+00 0.000000000000000e+00

0.000000000000000e+00 0.000000000000000e+00 0.000000000000000e+00
0.000000000000000e+00 0.000000000000000e+00 0.000000000000000e+00
0.000000000000000e+00 0.000000000000000e+00 0.000000000000000e+00

0.000000000000000e+00 0.000000000000000e+00 0.000000000000000e+00
0.000000000000000e+00 0.000000000000000e+00 0.000000000000000e+00
0.000000000000000e+00 0.000000000000000e+00 0.000000000000000e+00

0.000000000000000e+00 0.000000000000000e+00 0.000000000000000e+00
0.000000000000000e+00 0.000000000000000e+00 0.000000000000000e+00
0.000000000000000e+00 0.000000000000000e+00 0.000000000000000e+00

0.000000000000000e+00 0.000000000000000e+00 0.000000000000000e+00
0.000000000000000e+00 0.000000000000000e+00 0.000000000000000e+00
0.000000000000000e+00 0.000000000000000e+00 0.000000000000000e+00

0.000000000000000e+00 0.000000000000000e+00 0.000000000000000e+00
0.000000000000000e+00 0.000000000000000e+00 0.000000000000000e+00
0.000000000000000e+00 0.000000000000000e+00 0.000000000000000e+00

0.000000000000000e+00 0.000000000000000e+00 0.000000000000000e+00
0.000000000000000e+00 0.000000000000000e+00 0.000000000000000e+00
0.000000000000000e+00 0.000000000000000e+00 0.000000000000000e+00

0.000000000000000e+00 0.000000000000000e+00 0.000000000000000e+00
0.000000000000000e+00 0.000000000000000e+00 0.000000000000000e+00
0.000000000000000e+00 0.000000000000000e+00 0.000000000000000e+00

0.000000000000000e+00 0.000000000000000e+00 0.000000000000000e+00
0.000000000000000e+00 0.000000000000000e+00 0.000000000000000e+00
0.000000000000000e+00 0.000000000000000e+00 0.000000000000000e+00

0.000000000000000e+00 0.000000000000000e+00 0.000000000000000e+00
0.000000000000000e+00 0.000000000000000e+00 0.000000000000000e+00
0.000000000000000e+00 0.000000000000000e+00 0.000000000000000e+00

0.000000000000000e+00 0.000000000000000e+00 0.000000000000000e+00
0.000000000000000e+00 0.000000000000000e+00 0.000000000000000e+00
0.000000000000000e+00 0.000000000000000e+00 0.000000000000000e+00

0.000000000000000e+00 0.000000000000000e+00 0.000000000000000e+00
0.000000000000000e+00 0.000000000000000e+00 0.000000000000000e+00
0.000000000000000e+00 0.000000000000000e+00 0.000000000000000e+00

0.000000000000000e+00 0.000000000000000e+00 0.000000000000000e+00
0.000000000000000e+00 0.000000000000000e+00 0.000000000000000e+00
0.000000000000000e+00 0.000000000000000e+00 0.000000000000000e+00

0.000000000000000e+00 0.000000000000000e+00 0.000000000000000e+00
0.000000000000000e+00 0.000000000000000e+00 0.000000000000000e+00
0.000000000000000e+00 0.000000000000000e+00 0.000000000000000e+00

0.000000000000000e+00 0.000000000000000e+00 0.000000000000000e+00
0.000000000000000e+00 0.000000000000000e+00 0.000000000000000e+00
0.000000000000000e+00 0.000000000000000e+00 0.000000000000000e+00

0.000000000000000e+00 0.000000000000000e+00 0.000000000000000e+00
0.000000000000000e+00 0.000000000000000e+00 0.000000000000000e+00
0.000000000000000e+00 0.000000000000000e+00 0.000000000000000e+00

0.000000000000000e+00 0.000000000000000e+00 0.000000000000000e+00
0.000000000000000e+00 0.000000000000000e+00 0.000000000000000e+00
0.000000000000000e+00 0.000000000000000e+00 0.000000000000000e+00

0.000000000000000e+00 0.000000000000000e+00 0.000000000000000e+00
0.000000000000000e+00 0.000000000000000e+00 0.000000000000000e+00
0.000000000000000e+00 0.000000000000000e+00 0.000000000000000e+00

0.000000000000000e+00 0.000000000000000e+00 0.000000000000000e+00
0.000000000000000e+00 0.000000000000000e+00 0.000000000000000e+00
0.000000000000000e+00 0.000000000000000e+00 0.000000000000000e+00

0.000000000000000e+00 0.000000000000000e+00 0.000000000000000e+00
0.000000000000000e+00 0.000000000000000e+00 0.000000000000000e+00
0.000000000000000e+00 0.000000000000000e+00 0.000000000000000e+00

0.000000000000000e+00 0.000000000000000e+00 0.000000000000000e+00
0.000000000000000e+00 0.000000000000000e+00 0.000000000000000e+00
0.000000000000000e+00 0.000000000000000e+00 0.000000000000000e+00

0.000000000000000e+00 0.000000000000000e+00 0.000000000000000e+00
0.000000000000000e+00 0.000000000000000e+00 0.000000000000000e+00
0.000000000000000e+00 0.000000000000000e+00 0.000000000000000e+00

0.000000000000000e+00 0.000000000000000e+00 0.000000000000000e+00
0.000000000000000e+00 0.000000000000000e+00 0.000000000000000e+00
0.000000000000000e+00 0.000000000000000e+00 0.000000000000000e+00

0.000000000000000e+00 0.000000000000000e+00 0.000000000000000e+00
0.000000000000000e+00 0.000000000000000e+00 0.000000000000000e+00
0.000000000000000e+00 0.000000000000000e+00 0.000000000000000e+00

0.000000000000000e+00 0.000000000000000e+00 0.000000000000000e+00
0.000000000000000e+00 0.000000000000000e+00 0.000000000000000e+00
0.000000000000000e+00 0.000000000000000e+00 0.000000000000000e+00

0.000000000000000e+00 0.000000000000000e+00 0.000000000000000e+00
0.000000000000000e+00 0.000000000000000e+00 0.000000000000000e+00
0.000000000000000e+00 0.000000000000000e+00 0.000000000000000e+00

0.000000000000000e+00 0.000000000000000e+00 0.000000000000000e+00
0.000000000000000e+00 0.000000000000000e+00 0.000000000000000e+00
0.000000000000000e+00 0.000000000000000e+00 0.000000000000000e+00

0.000000000000000e+00 0.000000000000000e+00 0.000000000000000e+00
0.000000000000000e+00 0.000000000000000e+00 0.000000000000000e+00
0.000000000000000e+00 0.000000000000000e+00 0.000000000000000e+00

0.000000000000000e+00 0.000000000000000e+00 0.000000000000000e+00
0.000000000000000e+00 0.000000000000000e+00 0.000000000000000e+00
0.000000000000000e+00 0.000000000000000e+00 0.000000000000000e+00

0.000000000000000e+00 0.000000000000000e+00 0.000000000000000e+00
0.000000000000000e+00 0.000000000000000e+00 0.000000000000000e+00
0.000000000000000e+00 0.000000000000000e+00 0.000000000000000e+00

0.000000000000000e+00 0.000000000000000e+00 0.000000000000000e+00
0.000000000000000e+00 0.000000000000000e+00 0.000000000000000e+00
0.000000000000000e+00 0.000000000000000e+00 0.000000000000000e+00

0.000000000000000e+00 0.000000000000000e+00 0.000000000000000e+00
0.000000000000000e+00 0.000000000000000e+00 0.000000000000000e+00
0.000000000000000e+00 0.000000000000000e+00 0.000000000000000e+00

0.000000000000000e+00 0.000000000000000e+00 0.000000000000000e+00
0.000000000000000e+00 0.000000000000000e+00 0.000000000000000e+00
0.000000000000000e+00 0.000000000000000e+00 0.000000000000000e+00

0.000000000000000e+00 0.000000000000000e+00 0.000000000000000e+00
0.000000000000000e+00 0.000000000000000e+00 0.000000000000000e+00
0.000000000000000e+00 0.000000000000000e+00 0.000000000000000e+00

0.000000000000000e+00 0.000000000000000e+00 0.000000000000000e+00
0.000000000000000e+00 0.000000000000000e+00 0.000000000000000e+00
0.000000000000000e+00 0.000000000000000e+00 0.000000000000000e+00

0.000000000000000e+00 0.000000000000000e+00 0.000000000000000e+00
0.000000000000000e+00 0.000000000000000e+00 0.000000000000000e+00
0.000000000000000e+00 0.000000000000000e+00 0.000000000000000e+00

0.000000000000000e+00 0.000000000000000e+00 0.000000000000000e+00
0.000000000000000e+00 0.000000000000000e+00 0.000000000000000e+00
0.000000000000000e+00 0.000000000000000e+00 0.000000000000000e+00

0.000000000000000e+00 0.000000000000000e+00 0.000000000000000e+00
0.000000000000000e+00 0.000000000000000e+00 0.000000000000000e+00
0.000000000000000e+00 0.000000000000000e+00 0.000000000000000e+00

0.000000000000000e+00 0.000000000000000e+00 0.000000000000000e+00
0.000000000000000e+00 0.000000000000000e+00 0.000000000000000e+00
0.000000000000000e+00 0.000000000000000e+00 0.000000000000000e+00

0.000000000000000e+00 0.000000000000000e+00 0.000000000000000e+00
0.000000000000000e+00 0.000000000000000e+00 0.000000000000000e+00
0.000000000000000e+00 0.000000000000000e+00 0.000000000000000e+00

0.000000000000000e+00 0.000000000000000e+00 0.000000000000000e+00
0.000000000000000e+00 0.000000000000000e+00 0.000000000000000e+00
0.000000000000000e+00 0.000000000000000e+00 0.000000000000000e+00

0.000000000000000e+00 0.000000000000000e+00 0.000000000000000e+00
0.000000000000000e+00 0.000000000000000e+00 0.000000000000000e+00
0.000000000000000e+00 0.000000000000000e+00 0.000000000000000e+00

0.000000000000000e+00 0.000000000000000e+00 0.000000000000000e+00
0.000000000000000e+00 0.000000000000000e+00 0.000000000000000e+00
0.000000000000000e+00 0.000000000000000e+00 0.000000000000000e+00

0.000000000000000e+00 0.000000000000000e+00 0.000000000000000e+00
0.000000000000000e+00 0.000000000000000e+00 0.000000000000000e+00
0.000000000000000e+00 0.000000000000000e+00 0.000000000000000e+00

0.000000000000000e+00 0.000000000000000e+00 0.000000000000000e+00
0.000000000000000e+00 0.000000000000000e+00 0.000000000000000e+00
0.000000000000000e+00 0.000000000000000e+00 0.000000000000000e+00

0.000000000000000e+00 0.000000000000000e+00 0.000000000000000e+00
0.000000000000000e+00 0.000000000000000e+00 0.000000000000000e+00
0.000000000000000e+00 0.000000000000000e+00 0.000000000000000e+00

0.000000000000000e+00 0.000000000000000e+00 0.000000000000000e+00
0.000000000000000e+00 0.000000000000000e+00 0.000000000000000e+00
0.000000000000000e+00 0.000000000000000e+00 0.000000000000000e+00

0.000000000000000e+00 0.000000000000000e+00 0.000000000000000e+00
0.000000000000000e+00 0.000000000000000e+00 0.000000000000000e+00
0.000000000000000e+00 0.000000000000000e+00 0.000000000000000e+00

0.000000000000000e+00 0.000000000000000e+00 0.000000000000000e+00
0.000000000000000e+00 0.000000000000000e+00 0.000000000000000e+00
0.000000000000000e+00 0.000000000000000e+00 0.000000000000000e+00

0.000000000000000e+00 0.000000000000000e+00 0.000000000000000e+00
0.000000000000000e+00 0.000000000000000e+00 0.000000000000000e+00
0.000000000000000e+00 0.000000000000000e+00 0.000000000000000e+00

0.000000000000000e+00 0.000000000000000e+00 0.000000000000000e+00
0.000000000000000e+00 0.000000000000000e+00 0.000000000000000e+00
0.000000000000000e+00 0.000000000000000e+00 0.000000000000000e+00

0.000000000000000e+00 0.000000000000000e+00 0.000000000000000e+00
0.000000000000000e+00 0.000000000000000e+00 0.000000000000000e+00
0.000000000000000e+00 0.000000000000000e+00 0.000000000000000e+00

0.000000000000000e+00 0.000000000000000e+00 0.000000000000000e+00
0.000000000000000e+00 0.000000000000000e+00 0.000000000000000e+00
0.000000000000000e+00 0.000000000000000e+00 0.000000000000000e+00

0.000000000000000e+00 0.000000000000000e+00 0.000000000000000e+00
0.000000000000000e+00 0.000000000000000e+00 0.000000000000000e+00
0.000000000000000e+00 0.000000000000000e+00 0.000000000000000e+00

0.000000000000000e+00 0.000000000000000e+00 0.000000000000000e+00
0.000000000000000e+00 0.000000000000000e+00 0.000000000000000e+00
0.000000000000000e+00 0.000000000000000e+00 0.000000000000000e+00

0.000000000000000e+00 0.000000000000000e+00 0.000000000000000e+00
0.000000000000000e+00 0.000000000000000e+00 0.000000000000000e+00
0.000000000000000e+00 0.000000000000000e+00 0.000000000000000e+00

0.000000000000000e+00 0.000000000000000e+00 0.000000000000000e+00
0.000000000000000e+00 0.000000000000000e+00 0.000000000000000e+00
0.000000000000000e+00 0.000000000000000e+00 0.000000000000000e+00

0.000000000000000e+00 0.000000000000000e+00 0.000000000000000e+00
0.000000000000000e+00 0.000000000000000e+00 0.000000000000000e+00
0.000000000000000e+00 0.000000000000000e+00 0.000000000000000e+00

0.000000000000000e+00 0.000000000000000e+00 0.000000000000000e+00
0.000000000000000e+00 0.000000000000000e+00 0.000000000000000e+00
0.000000000000000e+00 0.000000000000000e+00 0.000000000000000e+00

0.000000000000000e+00 0.000000000000000e+00 0.000000000000000e+00
0.000000000000000e+00 0.000000000000000e+00 0.000000000000000e+00
0.000000000000000e+00 0.000000000000000e+00 0.000000000000000e+00

0.000000000000000e+00 0.000000000000000e+00 0.000000000000000e+00
0.000000000000000e+00 0.000000000000000e+00 0.000000000000000e+00
0.000000000000000e+00 0.000000000000000e+00 0.000000000000000e+00

0.000000000000000e+00 0.000000000000000e+00 0.000000000000000e+00
0.000000000000000e+00 0.000000000000000e+00 0.000000000000000e+00
0.000000000000000e+00 0.000000000000000e+00 0.000000000000000e+00

0.000000000000000e+00 0.000000000000000e+00 0.000000000000000e+00
0.000000000000000e+00 0.000000000000000e+00 0.000000000000000e+00
0.000000000000000e+00 0.000000000000000e+00 0.000000000000000e+00

0.000000000000000e+00 0.000000000000000e+00 0.000000000000000e+00
0.000000000000000e+00 0.000000000000000e+00 0.000000000000000e+00
0.000000000000000e+00 0.000000000000000e+00 0.000000000000000e+00

0.000000000000000e+00 0.000000000000000e+00 0.000000000000000e+00
0.000000000000000e+00 0.000000000000000e+00 0.000000000000000e+00
0.000000000000000e+00 0.000000000000000e+00 0.000000000000000e+00

0.000000000000000e+00 0.000000000000000e+00 0.000000000000000e+00
0.000000000000000e+00 0.000000000000000e+00 0.000000000000000e+00
0.000000000000000e+00 0.000000000000000e+00 0.000000000000000e+00

0.000000000000000e+00 0.000000000000000e+00 0.000000000000000e+00
0.000000000000000e+00 0.000000000000000e+00 0.000000000000000e+00
0.000000000000000e+00 0.000000000000000e+00 0.000000000000000e+00

0.000000000000000e+00 0.000000000000000e+00 0.000000000000000e+00
0.000000000000000e+00 0.000000000000000e+00 0.000000000000000e+00
0.000000000000000e+00 0.000000000000000e+00 0.000000000000000e+00

0.000000000000000e+00 0.000000000000000e+00 0.000000000000000e+00
0.000000000000000e+00 0.000000000000000e+00 0.000000000000000e+00
0.000000000000000e+00 0.000000000000000e+00 0.000000000000000e+00

0.000000000000000e+00 0.000000000000000e+00 0.000000000000000e+00
0.000000000000000e+00 0.000000000000000e+00 0.000000000000000e+00
0.000000000000000e+00 0.000000000000000e+00 0.000000000000000e+00

0.000000000000000e+00 0.000000000000000e+00 0.000000000000000e+00
0.000000000000000e+00 0.000000000000000e+00 0.000000000000000e+00
0.000000000000000e+00 0.000000000000000e+00 0.000000000000000e+00

0.000000000000000e+00 0.000000000000000e+00 0.000000000000000e+00
0.000000000000000e+00 0.000000000000000e+00 0.000000000000000e+00
0.000000000000000e+00 0.000000000000000e+00 0.000000000000000e+00

0.000000000000000e+00 0.000000000000000e+00 0.000000000000000e+00
0.000000000000000e+00 0.000000000000000e+00 0.000000000000000e+00
0.000000000000000e+00 0.000000000000000e+00 0.000000000000000e+00

0.000000000000000e+00 0.000000000000000e+00 0.000000000000000e+00
0.000000000000000e+00 0.000000000000000e+00 0.000000000000000e+00
0.000000000000000e+00 0.000000000000000e+00 0.000000000000000e+00

0.000000000000000e+00 0.000000000000000e+00 0.000000000000000e+00
0.000000000000000e+00 0.000000000000000e+00 0.000000000000000e+00
0.000000000000000e+00 0.000000000000000e+00 0.000000000000000e+00

0.000000000000000e+00 0.000000000000000e+00 0.000000000000000e+00
0.000000000000000e+00 0.000000000000000e+00 0.000000000000000e+00
0.000000000000000e+00 0.000000000000000e+00 0.000000000000000e+00

0.000000000000000e+00 0.000000000000000e+00 0.000000000000000e+00
0.000000000000000e+00 0.000000000000000e+00 0.000000000000000e+00
0.000000000000000e+00 0.000000000000000e+00 0.000000000000000e+00

0.000000000000000e+00 0.000000000000000e+00 0.000000000000000e+00
0.000000000000000e+00 0.000000000000000e+00 0.000000000000000e+00
0.000000000000000e+00 0.000000000000000e+00 0.000000000000000e+00

0.000000000000000e+00 0.000000000000000e+00 0.000000000000000e+00
0.000000000000000e+00 0.000000000000000e+00 0.000000000000000e+00
0.000000000000000e+00 0.000000000000000e+00 0.000000000000000e+00

0.000000000000000e+00 0.000000000000000e+00 0.000000000000000e+00
0.000000000000000e+00 0.000000000000000e+00 0.000000000000000e+00
0.000000000000000e+00 0.000000000000000e+00 0.000000000000000e+00

0.000000000000000e+00 0.000000000000000e+00 0.000000000000000e+00
0.000000000000000e+00 0.000000000000000e+00 0.000000000000000e+00
0.000000000000000e+00 0.000000000000000e+00 0.000000000000000e+00

0.000000000000000e+00 0.000000000000000e+00 0.000000000000000e+00
0.000000000000000e+00 0.000000000000000e+00 0.000000000000000e+00
0.000000000000000e+00 0.000000000000000e+00 0.000000000000000e+00

0.000000000000000e+00 0.000000000000000e+00 0.000000000000000e+00
0.000000000000000e+00 0.000000000000000e+00 0.000000000000000e+00
0.000000000000000e+00 0.000000000000000e+00 0.000000000000000e+00

0.000000000000000e+00 0.000000000000000e+00 0.000000000000000e+00
0.000000000000000e+00 0.000000000000000e+00 0.000000000000000e+00
0.000000000000000e+00 0.000000000000000e+00 0.000000000000000e+00

0.000000000000000e+00 0.000000000000000e+00 0.000000000000000e+00
0.000000000000000e+00 0.000000000000000e+00 0.000000000000000e+00
0.000000000000000e+00 0.000000000000000e+00 0.000000000000000e+00

0.000000000000000e+00 0.000000000000000e+00 0.000000000000000e+00
0.000000000000000e+00 0.000000000000000e+00 0.000000000000000e+00
0.000000000000000e+00 0.000000000000000e+00 0.000000000000000e+00

0.000000000000000e+00 0.000000000000000e+00 0.000000000000000e+00
0.000000000000000e+00 0.000000000000000e+00 0.000000000000000e+00
0.000000000000000e+00 0.000000000000000e+00 0.000000000000000e+00

0.000000000000000e+00 0.000000000000000e+00 0.000000000000000e+00
0.000000000000000e+00 0.000000000000000e+00 0.000000000000000e+00
0.000000000000000e+00 0.000000000000000e+00 0.000000000000000e+00

0.000000000000000e+00 0.000000000000000e+00 0.000000000000000e+00
0.000000000000000e+00 0.000000000000000e+00 0.000000000000000e+00
0.000000000000000e+00 0.000000000000000e+00 0.000000000000000e+00

0.000000000000000e+00 0.000000000000000e+00 0.000000000000000e+00
0.000000000000000e+00 0.000000000000000e+00 0.000000000000000e+00
0.000000000000000e+00 0.000000000000000e+00 0.000000000000000e+00

0.000000000000000e+00 0.000000000000000e+00 0.000000000000000e+00
0.000000000000000e+00 0.000000000000000e+00 0.000000000000000e+00
0.000000000000000e+00 0.000000000000000e+00 0.000000000000000e+00

0.000000000000000e+00 0.000000000000000e+00 0.000000000000000e+00
0.000000000000000e+00 0.000000000000000e+00 0.000000000000000e+00
0.000000000000000e+00 0.000000000000000e+00 0.000000000000000e+00

0.000000000000000e+00 0.000000000000000e+00 0.000000000000000e+00
0.000000000000000e+00 0.000000000000000e+00 0.000000000000000e+00
0.000000000000000e+00 0.000000000000000e+00 0.000000000000000e+00

0.000000000000000e+00 0.000000000000000e+00 0.000000000000000e+00
0.000000000000000e+00 0.000000000000000e+00 0.000000000000000e+00
0.000000000000000e+00 0.000000000000000e+00 0.000000000000000e+00

0.000000000000000e+00 0.000000000000000e+00 0.000000000000000e+00
0.000000000000000e+00 0.000000000000000e+00 0.000000000000000e+00
0.000000000000000e+00 0.000000000000000e+00 0.000000000000000e+00

0.000000000000000e+00 0.000000000000000e+00 0.000000000000000e+00
0.000000000000000e+00 0.000000000000000e+00 0.000000000000000e+00
0.000000000000000e+00 0.000000000000000e+00 0.000000000000000e+00

0.000000000000000e+00 0.000000000000000e+00 0.000000000000000e+00
0.000000000000000e+00 0.000000000000000e+00 0.000000000000000e+00
0.000000000000000e+00 0.000000000000000e+00 0.000000000000000e+00

0.000000000000000e+00 0.000000000000000e+00 0.000000000000000e+00
0.000000000000000e+00 0.000000000000000e+00 0.000000000000000e+00
0.000000000000000e+00 0.000000000000000e+00 0.000000000000000e+00

0.000000000000000e+00 0.000000000000000e+00 0.000000000000000e+00
0.000000000000000e+00 0.000000000000000e+00 0.000000000000000e+00
0.000000000000000e+00 0.000000000000000e+00 0.000000000000000e+00

0.000000000000000e+00 0.000000000000000e+00 0.000000000000000e+00
0.000000000000000e+00 0.000000000000000e+00 0.000000000000000e+00
0.000000000000000e+00 0.000000000000000e+00 0.000000000000000e+00

0.000000000000000e+00 0.000000000000000e+00 0.000000000000000e+00
0.000000000000000e+00 0.000000000000000e+00 0.000000000000000e+00
0.000000000000000e+00 0.000000000000000e+00 0.000000000000000e+00

0.000000000000000e+00 0.000000000000000e+00 0.000000000000000e+00
0.000000000000000e+00 0.000000000000000e+00 0.000000000000000e+00
0.000000000000000e+00 0.000000000000000e+00 0.000000000000000e+00

0.000000000000000e+00 0.000000000000000e+00 0.000000000000000e+00
0.000000000000000e+00 0.000000000000000e+00 0.000000000000000e+00
0.000000000000000e+00 0.000000000000000e+00 0.000000000000000e+00

0.000000000000000e+00 0.000000000000000e+00 0.000000000000000e+00
0.000000000000000e+00 0.000000000000000e+00 0.000000000000000e+00
0.000000000000000e+00 0.000000000000000e+00 0.000000000000000e+00

0.000000000000000e+00 0.000000000000000e+00 0.000000000000000e+00
0.000000000000000e+00 0.000000000000000e+00 0.000000000000000e+00
0.000000000000000e+00 0.000000000000000e+00 0.000000000000000e+00

0.000000000000000e+00 0.000000000000000e+00 0.000000000000000e+00
0.000000000000000e+00 0.000000000000000e+00 0.000000000000000e+00
0.000000000000000e+00 0.000000000000000e+00 0.000000000000000e+00

0.000000000000000e+00 0.000000000000000e+00 0.000000000000000e+00
0.000000000000000e+00 0.000000000000000e+00 0.000000000000000e+00
0.000000000000000e+00 0.000000000000000e+00 0.000000000000000e+00

0.000000000000000e+00 0.000000000000000e+00 0.000000000000000e+00
0.000000000000000e+00 0.000000000000000e+00 0.000000000000000e+00
0.000000000000000e+00 0.000000000000000e+00 0.000000000000000e+00

0.000000000000000e+00 0.000000000000000e+00 0.000000000000000e+00
0.000000000000000e+00 0.000000000000000e+00 0.000000000000000e+00
0.000000000000000e+00 0.000000000000000e+00 0.000000000000000e+00

0.000000000000000e+00 0.000000000000000e+00 0.000000000000000e+00
0.000000000000000e+00 0.000000000000000e+00 0.000000000000000e+00
0.000000000000000e+00 0.000000000000000e+00 0.000000000000000e+00

0.000000000000000e+00 0.000000000000000e+00 0.000000000000000e+00
0.000000000000000e+00 0.000000000000000e+00 0.000000000000000e+00
0.000000000000000e+00 0.000000000000000e+00 0.000000000000000e+00

0.000000000000000e+00 0.000000000000000e+00 0.000000000000000e+00
0.000000000000000e+00 0.000000000000000e+00 0.000000000000000e+00
0.000000000000000e+00 0.000000000000000e+00 0.000000000000000e+00

0.000000000000000e+00 0.000000000000000e+00 0.000000000000000e+00
0.000000000000000e+00 0.000000000000000e+00 0.000000000000000e+00
0.000000000000000e+00 0.000000000000000e+00 0.000000000000000e+00

0.000000000000000e+00 0.000000000000000e+00 0.000000000000000e+00
0.000000000000000e+00 0.000000000000000e+00 0.000000000000000e+00
0.000000000000000e+00 0.000000000000000e+00 0.000000000000000e+00

0.000000000000000e+00 0.000000000000000e+00 0.000000000000000e+00
0.000000000000000e+00 0.000000000000000e+00 0.000000000000000e+00
0.000000000000000e+00 0.000000000000000e+00 0.000000000000000e+00

0.000000000000000e+00 0.000000000000000e+00 0.000000000000000e+00
0.000000000000000e+00 0.000000000000000e+00 0.000000000000000e+00
0.000000000000000e+00 0.000000000000000e+00 0.000000000000000e+00

0.000000000000000e+00 0.000000000000000e+00 0.000000000000000e+00
0.000000000000000e+00 0.000000000000000e+00 0.000000000000000e+00
0.000000000000000e+00 0.000000000000000e+00 0.000000000000000e+00

0.000000000000000e+00 0.000000000000000e+00 0.000000000000000e+00
0.000000000000000e+00 0.000000000000000e+00 0.000000000000000e+00
0.000000000000000e+00 0.000000000000000e+00 0.000000000000000e+00

0.000000000000000e+00 0.000000000000000e+00 0.000000000000000e+00
0.000000000000000e+00 0.000000000000000e+00 0.000000000000000e+00
0.000000000000000e+00 0.000000000000000e+00 0.000000000000000e+00

0.000000000000000e+00 0.000000000000000e+00 0.000000000000000e+00
0.000000000000000e+00 0.000000000000000e+00 0.000000000000000e+00
0.000000000000000e+00 0.000000000000000e+00 0.000000000000000e+00

0.000000000000000e+00 0.000000000000000e+00 0.000000000000000e+00
0.000000000000000e+00 0.000000000000000e+00 0.000000000000000e+00
0.000000000000000e+00 0.000000000000000e+00 0.000000000000000e+00

0.000000000000000e+00 0.000000000000000e+00 0.000000000000000e+00
0.000000000000000e+00 0.000000000000000e+00 0.000000000000000e+00
0.000000000000000e+00 0.000000000000000e+00 0.000000000000000e+00

0.000000000000000e+00 0.000000000000000e+00 0.000000000000000e+00
0.000000000000000e+00 0.000000000000000e+00 0.000000000000000e+00
0.000000000000000e+00 0.000000000000000e+00 0.000000000000000e+00

0.000000000000000e+00 0.000000000000000e+00 0.000000000000000e+00
0.000000000000000e+00 0.000000000000000e+00 0.000000000000000e+00
0.000000000000000e+00 0.000000000000000e+00 0.000000000000000e+00

0.000000000000000e+00 0.000000000000000e+00 0.000000000000000e+00
0.000000000000000e+00 0.000000000000000e+00 0.000000000000000e+00
0.000000000000000e+00 0.000000000000000e+00 0.000000000000000e+00

0.000000000000000e+00 0.000000000000000e+00 0.000000000000000e+00
0.000000000000000e+00 0.000000000000000e+00 0.000000000000000e+00
0.000000000000000e+00 0.000000000000000e+00 0.000000000000000e+00

0.000000000000000e+00 0.000000000000000e+00 0.000000000000000e+00
0.000000000000000e+00 0.000000000000000e+00 0.000000000000000e+00
0.000000000000000e+00 0.000000000000000e+00 0.000000000000000e+00

0.000000000000000e+00 0.000000000000000e+00 0.000000000000000e+00
0.000000000000000e+00 0.000000000000000e+00 0.000000000000000e+00
0.000000000000000e+00 0.000000000000000e+00 0.000000000000000e+00

0.000000000000000e+00 0.000000000000000e+00 0.000000000000000e+00
0.000000000000000e+00 0.000000000000000e+00 0.000000000000000e+00
0.000000000000000e+00 0.000000000000000e+00 0.000000000000000e+00

0.000000000000000e+00 0.000000000000000e+00 0.000000000000000e+00
0.000000000000000e+00 0.000000000000000e+00 0.000000000000000e+00
0.000000000000000e+00 0.000000000000000e+00 0.000000000000000e+00

0.000000000000000e+00 0.000000000000000e+00 0.000000000000000e+00
0.000000000000000e+00 0.000000000000000e+00 0.000000000000000e+00
0.000000000000000e+00 0.000000000000000e+00 0.000000000000000e+00

0.000000000000000e+00 0.000000000000000e+00 0.000000000000000e+00
0.000000000000000e+00 0.000000000000000e+00 0.000000000000000e+00
0.000000000000000e+00 0.000000000000000e+00 0.000000000000000e+00

0.000000000000000e+00 0.000000000000000e+00 0.000000000000000e+00
0.000000000000000e+00 0.000000000000000e+00 0.000000000000000e+00
0.000000000000000e+00 0.000000000000000e+00 0.000000000000000e+00

0.000000000000000e+00 0.000000000000000e+00 0.000000000000000e+00
0.000000000000000e+00 0.000000000000000e+00 0.000000000000000e+00
0.000000000000000e+00 0.000000000000000e+00 0.000000000000000e+00

0.000000000000000e+00 0.000000000000000e+00 0.000000000000000e+00
0.000000000000000e+00 0.000000000000000e+00 0.000000000000000e+00
0.000000000000000e+00 0.000000000000000e+00 0.000000000000000e+00

0.000000000000000e+00 0.000000000000000e+00 0.000000000000000e+00
0.000000000000000e+00 0.000000000000000e+00 0.000000000000000e+00
0.000000000000000e+00 0.000000000000000e+00 0.000000000000000e+00

0.000000000000000e+00 0.000000000000000e+00 0.000000000000000e+00
0.000000000000000e+00 0.000000000000000e+00 0.000000000000000e+00
0.000000000000000e+00 0.000000000000000e+00 0.000000000000000e+00

0.000000000000000e+00 0.000000000000000e+00 0.000000000000000e+00
0.000000000000000e+00 0.000000000000000e+00 0.000000000000000e+00
0.000000000000000e+00 0.000000000000000e+00 0.000000000000000e+00

0.000000000000000e+00 0.000000000000000e+00 0.000000000000000e+00
0.000000000000000e+00 0.000000000000000e+00 0.000000000000000e+00
0.000000000000000e+00 0.000000000000000e+00 0.000000000000000e+00

0.000000000000000e+00 0.000000000000000e+00 0.000000000000000e+00
0.000000000000000e+00 0.000000000000000e+00 0.000000000000000e+00
0.000000000000000e+00 0.000000000000000e+00 0.000000000000000e+00

0.000000000000000e+00 0.000000000000000e+00 0.000000000000000e+00
0.000000000000000e+00 0.000000000000000e+00 0.000000000000000e+00
0.000000000000000e+00 0.000000000000000e+00 0.000000000000000e+00

0.000000000000000e+00 0.000000000000000e+00 0.000000000000000e+00
0.000000000000000e+00 0.000000000000000e+00 0.000000000000000e+00
0.000000000000000e+00 0.000000000000000e+00 0.000000000000000e+00

0.000000000000000e+00 0.000000000000000e+00 0.000000000000000e+00
0.000000000000000e+00 0.000000000000000e+00 0.000000000000000e+00
0.000000000000000e+00 0.000000000000000e+00 0.000000000000000e+00

0.000000000000000e+00 0.000000000000000e+00 0.000000000000000e+00
0.000000000000000e+00 0.000000000000000e+00 0.000000000000000e+00
0.000000000000000e+00 0.000000000000000e+00 0.000000000000000e+00

0.000000000000000e+00 0.000000000000000e+00 0.000000000000000e+00
0.000000000000000e+00 0.000000000000000e+00 0.000000000000000e+00
0.000000000000000e+00 0.000000000000000e+00 0.000000000000000e+00

0.000000000000000e+00 0.000000000000000e+00 0.000000000000000e+00
0.000000000000000e+00 0.000000000000000e+00 0.000000000000000e+00
0.000000000000000e+00 0.000000000000000e+00 0.000000000000000e+00

0.000000000000000e+00 0.000000000000000e+00 0.000000000000000e+00
0.000000000000000e+00 0.000000000000000e+00 0.000000000000000e+00
0.000000000000000e+00 0.000000000000000e+00 0.000000000000000e+00

0.000000000000000e+00 0.000000000000000e+00 0.000000000000000e+00
0.000000000000000e+00 0.000000000000000e+00 0.000000000000000e+00
0.000000000000000e+00 0.000000000000000e+00 0.000000000000000e+00

0.000000000000000e+00 0.000000000000000e+00 0.000000000000000e+00
0.000000000000000e+00 0.000000000000000e+00 0.000000000000000e+00
0.000000000000000e+00 0.000000000000000e+00 0.000000000000000e+00

0.000000000000000e+00 0.000000000000000e+00 0.000000000000000e+00
0.000000000000000e+00 0.000000000000000e+00 0.000000000000000e+00
0.000000000000000e+00 0.000000000000000e+00 0.000000000000000e+00

0.000000000000000e+00 0.000000000000000e+00 0.000000000000000e+00
0.000000000000000e+00 0.000000000000000e+00 0.000000000000000e+00
0.000000000000000e+00 0.000000000000000e+00 0.000000000000000e+00

0.000000000000000e+00 0.000000000000000e+00 0.000000000000000e+00
0.000000000000000e+00 0.000000000000000e+00 0.000000000000000e+00
0.000000000000000e+00 0.000000000000000e+00 0.000000000000000e+00

0.000000000000000e+00 0.000000000000000e+00 0.000000000000000e+00
0.000000000000000e+00 0.000000000000000e+00 0.000000000000000e+00
0.000000000000000e+00 0.000000000000000e+00 0.000000000000000e+00

0.000000000000000e+00 0.000000000000000e+00 0.000000000000000e+00
0.000000000000000e+00 0.000000000000000e+00 0.000000000000000e+00
0.000000000000000e+00 0.000000000000000e+00 0.000000000000000e+00

0.000000000000000e+00 0.000000000000000e+00 0.000000000000000e+00
0.000000000000000e+00 0.000000000000000e+00 0.000000000000000e+00
0.000000000000000e+00 0.000000000000000e+00 0.000000000000000e+00

0.000000000000000e+00 0.000000000000000e+00 0.000000000000000e+00
0.000000000000000e+00 0.000000000000000e+00 0.000000000000000e+00
0.000000000000000e+00 0.000000000000000e+00 0.000000000000000e+00

0.000000000000000e+00 0.000000000000000e+00 0.000000000000000e+00
0.000000000000000e+00 0.000000000000000e+00 0.000000000000000e+00
0.000000000000000e+00 0.000000000000000e+00 0.000000000000000e+00

0.000000000000000e+00 0.000000000000000e+00 0.000000000000000e+00
0.000000000000000e+00 0.000000000000000e+00 0.000000000000000e+00
0.000000000000000e+00 0.000000000000000e+00 0.000000000000000e+00

0.000000000000000e+00 0.000000000000000e+00 0.000000000000000e+00
0.000000000000000e+00 0.000000000000000e+00 0.000000000000000e+00
0.000000000000000e+00 0.000000000000000e+00 0.000000000000000e+00

0.000000000000000e+00 0.000000000000000e+00 0.000000000000000e+00
0.000000000000000e+00 0.000000000000000e+00 0.000000000000000e+00
0.000000000000000e+00 0.000000000000000e+00 0.000000000000000e+00

0.000000000000000e+00 0.000000000000000e+00 0.000000000000000e+00
0.000000000000000e+00 0.000000000000000e+00 0.000000000000000e+00
0.000000000000000e+00 0.000000000000000e+00 0.000000000000000e+00

0.000000000000000e+00 0.000000000000000e+00 0.000000000000000e+00
0.000000000000000e+00 0.000000000000000e+00 0.000000000000000e+00
0.000000000000000e+00 0.000000000000000e+00 0.000000000000000e+00

0.000000000000000e+00 0.000000000000000e+00 0.000000000000000e+00
0.000000000000000e+00 0.000000000000000e+00 0.000000000000000e+00
0.000000000000000e+00 0.000000000000000e+00 0.000000000000000e+00

0.000000000000000e+00 0.000000000000000e+00 0.000000000000000e+00
0.000000000000000e+00 0.000000000000000e+00 0.000000000000000e+00
0.000000000000000e+00 0.000000000000000e+00 0.000000000000000e+00

0.000000000000000e+00 0.000000000000000e+00 0.000000000000000e+00
0.000000000000000e+00 0.000000000000000e+00 0.000000000000000e+00
0.000000000000000e+00 0.000000000000000e+00 0.000000000000000e+00

0.000000000000000e+00 0.000000000000000e+00 0.000000000000000e+00
0.000000000000000e+00 0.000000000000000e+00 0.000000000000000e+00
0.000000000000000e+00 0.000000000000000e+00 0.000000000000000e+00

0.000000000000000e+00 0.000000000000000e+00 0.000000000000000e+00
0.000000000000000e+00 0.000000000000000e+00 0.000000000000000e+00
0.000000000000000e+00 0.000000000000000e+00 0.000000000000000e+00

0.000000000000000e+00 0.000000000000000e+00 0.000000000000000e+00
0.000000000000000e+00 0.000000000000000e+00 0.000000000000000e+00
0.000000000000000e+00 0.000000000000000e+00 0.000000000000000e+00

0.000000000000000e+00 0.000000000000000e+00 0.000000000000000e+00
0.000000000000000e+00 0.000000000000000e+00 0.000000000000000e+00
0.000000000000000e+00 0.000000000000000e+00 0.000000000000000e+00

0.000000000000000e+00 0.000000000000000e+00 0.000000000000000e+00
0.000000000000000e+00 0.000000000000000e+00 0.000000000000000e+00
0.000000000000000e+00 0.000000000000000e+00 0.000000000000000e+00

0.000000000000000e+00 0.000000000000000e+00 0.000000000000000e+00
0.000000000000000e+00 0.000000000000000e+00 0.000000000000000e+00
0.000000000000000e+00 0.000000000000000e+00 0.000000000000000e+00

0.000000000000000e+00 0.000000000000000e+00 0.000000000000000e+00
0.000000000000000e+00 0.000000000000000e+00 0.000000000000000e+00
0.000000000000000e+00 0.000000000000000e+00 0.000000000000000e+00

0.000000000000000e+00 0.000000000000000e+00 0.000000000000000e+00
0.000000000000000e+00 0.000000000000000e+00 0.000000000000000e+00
0.000000000000000e+00 0.000000000000000e+00 0.000000000000000e+00

0.000000000000000e+00 0.000000000000000e+00 0.000000000000000e+00
0.000000000000000e+00 0.000000000000000e+00 0.000000000000000e+00
0.000000000000000e+00 0.000000000000000e+00 0.000000000000000e+00

0.000000000000000e+00 0.000000000000000e+00 0.000000000000000e+00
0.000000000000000e+00 0.000000000000000e+00 0.000000000000000e+00
0.000000000000000e+00 0.000000000000000e+00 0.000000000000000e+00

0.000000000000000e+00 0.000000000000000e+00 0.000000000000000e+00
0.000000000000000e+00 0.000000000000000e+00 0.000000000000000e+00
0.000000000000000e+00 0.000000000000000e+00 0.000000000000000e+00

0.000000000000000e+00 0.000000000000000e+00 0.000000000000000e+00
0.000000000000000e+00 0.000000000000000e+00 0.000000000000000e+00
0.000000000000000e+00 0.000000000000000e+00 0.000000000000000e+00

0.000000000000000e+00 0.000000000000000e+00 0.000000000000000e+00
0.000000000000000e+00 0.000000000000000e+00 0.000000000000000e+00
0.000000000000000e+00 0.000000000000000e+00 0.000000000000000e+00

0.000000000000000e+00 0.000000000000000e+00 0.000000000000000e+00
0.000000000000000e+00 0.000000000000000e+00 0.000000000000000e+00
0.000000000000000e+00 0.000000000000000e+00 0.000000000000000e+00

0.000000000000000e+00 0.000000000000000e+00 0.000000000000000e+00
0.000000000000000e+00 0.000000000000000e+00 0.000000000000000e+00
0.000000000000000e+00 0.000000000000000e+00 0.000000000000000e+00

0.000000000000000e+00 0.000000000000000e+00 0.000000000000000e+00
0.000000000000000e+00 0.000000000000000e+00 0.000000000000000e+00
0.000000000000000e+00 0.000000000000000e+00 0.000000000000000e+00

0.000000000000000e+00 0.000000000000000e+00 0.000000000000000e+00
0.000000000000000e+00 0.000000000000000e+00 0.000000000000000e+00
0.000000000000000e+00 0.000000000000000e+00 0.000000000000000e+00

0.000000000000000e+00 0.000000000000000e+00 0.000000000000000e+00
0.000000000000000e+00 0.000000000000000e+00 0.000000000000000e+00
0.000000000000000e+00 0.000000000000000e+00 0.000000000000000e+00

0.000000000000000e+00 0.000000000000000e+00 0.000000000000000e+00
0.000000000000000e+00 0.000000000000000e+00 0.000000000000000e+00
0.000000000000000e+00 0.000000000000000e+00 0.000000000000000e+00

0.000000000000000e+00 0.000000000000000e+00 0.000000000000000e+00
0.000000000000000e+00 0.000000000000000e+00 0.000000000000000e+00
0.000000000000000e+00 0.000000000000000e+00 0.000000000000000e+00

0.000000000000000e+00 0.000000000000000e+00 0.000000000000000e+00
0.000000000000000e+00 0.000000000000000e+00 0.000000000000000e+00
0.000000000000000e+00 0.000000000000000e+00 0.000000000000000e+00

0.000000000000000e+00 0.000000000000000e+00 0.000000000000000e+00
0.000000000000000e+00 0.000000000000000e+00 0.000000000000000e+00
0.000000000000000e+00 0.000000000000000e+00 0.000000000000000e+00

0.000000000000000e+00 0.000000000000000e+00 0.000000000000000e+00
0.000000000000000e+00 0.000000000000000e+00 0.000000000000000e+00
0.000000000000000e+00 0.000000000000000e+00 0.000000000000000e+00

0.000000000000000e+00 0.000000000000000e+00 0.000000000000000e+00
0.000000000000000e+00 0.000000000000000e+00 0.000000000000000e+00
0.000000000000000e+00 0.000000000000000e+00 0.000000000000000e+00

0.000000000000000e+00 0.000000000000000e+00 0.000000000000000e+00
0.000000000000000e+00 0.000000000000000e+00 0.000000000000000e+00
0.000000000000000e+00 0.000000000000000e+00 0.000000000000000e+00

0.000000000000000e+00 0.000000000000000e+00 0.000000000000000e+00
0.000000000000000e+00 0.000000000000000e+00 0.000000000000000e+00
0.000000000000000e+00 0.000000000000000e+00 0.000000000000000e+00

0.000000000000000e+00 0.000000000000000e+00 0.000000000000000e+00
0.000000000000000e+00 0.000000000000000e+00 0.000000000000000e+00
0.000000000000000e+00 0.000000000000000e+00 0.000000000000000e+00

0.000000000000000e+00 0.000000000000000e+00 0.000000000000000e+00
0.000000000000000e+00 0.000000000000000e+00 0.000000000000000e+00
0.000000000000000e+00 0.000000000000000e+00 0.000000000000000e+00

0.000000000000000e+00 0.000000000000000e+00 0.000000000000000e+00
0.000000000000000e+00 0.000000000000000e+00 0.000000000000000e+00
0.000000000000000e+00 0.000000000000000e+00 0.000000000000000e+00

0.000000000000000e+00 0.000000000000000e+00 0.000000000000000e+00
0.000000000000000e+00 0.000000000000000e+00 0.000000000000000e+00
0.000000000000000e+00 0.000000000000000e+00 0.000000000000000e+00

0.000000000000000e+00 0.000000000000000e+00 0.000000000000000e+00
0.000000000000000e+00 0.000000000000000e+00 0.000000000000000e+00
0.000000000000000e+00 0.000000000000000e+00 0.000000000000000e+00

0.000000000000000e+00 0.000000000000000e+00 0.000000000000000e+00
0.000000000000000e+00 0.000000000000000e+00 0.000000000000000e+00
0.000000000000000e+00 0.000000000000000e+00 0.000000000000000e+00

0.000000000000000e+00 0.000000000000000e+00 0.000000000000000e+00
0.000000000000000e+00 0.000000000000000e+00 0.000000000000000e+00
0.000000000000000e+00 0.000000000000000e+00 0.000000000000000e+00

0.000000000000000e+00 0.000000000000000e+00 0.000000000000000e+00
0.000000000000000e+00 0.000000000000000e+00 0.000000000000000e+00
0.000000000000000e+00 0.000000000000000e+00 0.000000000000000e+00

0.000000000000000e+00 0.000000000000000e+00 0.000000000000000e+00
0.000000000000000e+00 0.000000000000000e+00 0.000000000000000e+00
0.000000000000000e+00 0.000000000000000e+00 0.000000000000000e+00

0.000000000000000e+00 0.000000000000000e+00 0.000000000000000e+00
0.000000000000000e+00 0.000000000000000e+00 0.000000000000000e+00
0.000000000000000e+00 0.000000000000000e+00 0.000000000000000e+00

0.000000000000000e+00 0.000000000000000e+00 0.000000000000000e+00
0.000000000000000e+00 0.000000000000000e+00 0.000000000000000e+00
0.000000000000000e+00 0.000000000000000e+00 0.000000000000000e+00

0.000000000000000e+00 0.000000000000000e+00 0.000000000000000e+00
0.000000000000000e+00 0.000000000000000e+00 0.000000000000000e+00
0.000000000000000e+00 0.000000000000000e+00 0.000000000000000e+00

0.000000000000000e+00 0.000000000000000e+00 0.000000000000000e+00
0.000000000000000e+00 0.000000000000000e+00 0.000000000000000e+00
0.000000000000000e+00 0.000000000000000e+00 0.000000000000000e+00

0.000000000000000e+00 0.000000000000000e+00 0.000000000000000e+00
0.000000000000000e+00 0.000000000000000e+00 0.000000000000000e+00
0.000000000000000e+00 0.000000000000000e+00 0.000000000000000e+00

0.000000000000000e+00 0.000000000000000e+00 0.000000000000000e+00
0.000000000000000e+00 0.000000000000000e+00 0.000000000000000e+00
0.000000000000000e+00 0.000000000000000e+00 0.000000000000000e+00

0.000000000000000e+00 0.000000000000000e+00 0.000000000000000e+00
0.000000000000000e+00 0.000000000000000e+00 0.000000000000000e+00
0.000000000000000e+00 0.000000000000000e+00 0.000000000000000e+00

0.000000000000000e+00 0.000000000000000e+00 0.000000000000000e+00
0.000000000000000e+00 0.000000000000000e+00 0.000000000000000e+00
0.000000000000000e+00 0.000000000000000e+00 0.000000000000000e+00

0.000000000000000e+00 0.000000000000000e+00 0.000000000000000e+00
0.000000000000000e+00 0.000000000000000e+00 0.000000000000000e+00
0.000000000000000e+00 0.000000000000000e+00 0.000000000000000e+00

0.000000000000000e+00 0.000000000000000e+00 0.000000000000000e+00
0.000000000000000e+00 0.000000000000000e+00 0.000000000000000e+00
0.000000000000000e+00 0.000000000000000e+00 0.000000000000000e+00

0.000000000000000e+00 0.000000000000000e+00 0.000000000000000e+00
0.000000000000000e+00 0.000000000000000e+00 0.000000000000000e+00
0.000000000000000e+00 0.000000000000000e+00 0.000000000000000e+00

0.000000000000000e+00 0.000000000000000e+00 0.000000000000000e+00
0.000000000000000e+00 0.000000000000000e+00 0.000000000000000e+00
0.000000000000000e+00 0.000000000000000e+00 0.000000000000000e+00

0.000000000000000e+00 0.000000000000000e+00 0.000000000000000e+00
0.000000000000000e+00 0.000000000000000e+00 0.000000000000000e+00
0.000000000000000e+00 0.000000000000000e+00 0.000000000000000e+00

0.000000000000000e+00 0.000000000000000e+00 0.000000000000000e+00
0.000000000000000e+00 0.000000000000000e+00 0.000000000000000e+00
0.000000000000000e+00 0.000000000000000e+00 0.000000000000000e+00

0.000000000000000e+00 0.000000000000000e+00 0.000000000000000e+00
0.000000000000000e+00 0.000000000000000e+00 0.000000000000000e+00
0.000000000000000e+00 0.000000000000000e+00 0.000000000000000e+00

0.000000000000000e+00 0.000000000000000e+00 0.000000000000000e+00
0.000000000000000e+00 0.000000000000000e+00 0.000000000000000e+00
0.000000000000000e+00 0.000000000000000e+00 0.000000000000000e+00

0.000000000000000e+00 0.000000000000000e+00 0.000000000000000e+00
0.000000000000000e+00 0.000000000000000e+00 0.000000000000000e+00
0.000000000000000e+00 0.000000000000000e+00 0.000000000000000e+00

0.000000000000000e+00 0.000000000000000e+00 0.000000000000000e+00
0.000000000000000e+00 0.000000000000000e+00 0.000000000000000e+00
0.000000000000000e+00 0.000000000000000e+00 0.000000000000000e+00

0.000000000000000e+00 0.000000000000000e+00 0.000000000000000e+00
0.000000000000000e+00 0.000000000000000e+00 0.000000000000000e+00
0.000000000000000e+00 0.000000000000000e+00 0.000000000000000e+00

0.000000000000000e+00 0.000000000000000e+00 0.000000000000000e+00
0.000000000000000e+00 0.000000000000000e+00 0.000000000000000e+00
0.000000000000000e+00 0.000000000000000e+00 0.000000000000000e+00

0.000000000000000e+00 0.000000000000000e+00 0.000000000000000e+00
0.000000000000000e+00 0.000000000000000e+00 0.000000000000000e+00
0.000000000000000e+00 0.000000000000000e+00 0.000000000000000e+00

0.000000000000000e+00 0.000000000000000e+00 0.000000000000000e+00
0.000000000000000e+00 0.000000000000000e+00 0.000000000000000e+00
0.000000000000000e+00 0.000000000000000e+00 0.000000000000000e+00

0.000000000000000e+00 0.000000000000000e+00 0.000000000000000e+00
0.000000000000000e+00 0.000000000000000e+00 0.000000000000000e+00
0.000000000000000e+00 0.000000000000000e+00 0.000000000000000e+00

0.000000000000000e+00 0.000000000000000e+00 0.000000000000000e+00
0.000000000000000e+00 0.000000000000000e+00 0.000000000000000e+00
0.000000000000000e+00 0.000000000000000e+00 0.000000000000000e+00

0.000000000000000e+00 0.000000000000000e+00 0.000000000000000e+00
0.000000000000000e+00 0.000000000000000e+00 0.000000000000000e+00
0.000000000000000e+00 0.000000000000000e+00 0.000000000000000e+00

0.000000000000000e+00 0.000000000000000e+00 0.000000000000000e+00
0.000000000000000e+00 0.000000000000000e+00 0.000000000000000e+00
0.000000000000000e+00 0.000000000000000e+00 0.000000000000000e+00

0.000000000000000e+00 0.000000000000000e+00 0.000000000000000e+00
0.000000000000000e+00 0.000000000000000e+00 0.000000000000000e+00
0.000000000000000e+00 0.000000000000000e+00 0.000000000000000e+00

0.000000000000000e+00 0.000000000000000e+00 0.000000000000000e+00
0.000000000000000e+00 0.000000000000000e+00 0.000000000000000e+00
0.000000000000000e+00 0.000000000000000e+00 0.000000000000000e+00

0.000000000000000e+00 0.000000000000000e+00 0.000000000000000e+00
0.000000000000000e+00 0.000000000000000e+00 0.000000000000000e+00
0.000000000000000e+00 0.000000000000000e+00 0.000000000000000e+00

0.000000000000000e+00 0.000000000000000e+00 0.000000000000000e+00
0.000000000000000e+00 0.000000000000000e+00 0.000000000000000e+00
0.000000000000000e+00 0.000000000000000e+00 0.000000000000000e+00

0.000000000000000e+00 0.000000000000000e+00 0.000000000000000e+00
0.000000000000000e+00 0.000000000000000e+00 0.000000000000000e+00
0.000000000000000e+00 0.000000000000000e+00 0.000000000000000e+00

0.000000000000000e+00 0.000000000000000e+00 0.000000000000000e+00
0.000000000000000e+00 0.000000000000000e+00 0.000000000000000e+00
0.000000000000000e+00 0.000000000000000e+00 0.000000000000000e+00

0.000000000000000e+00 0.000000000000000e+00 0.000000000000000e+00
0.000000000000000e+00 0.000000000000000e+00 0.000000000000000e+00
0.000000000000000e+00 0.000000000000000e+00 0.000000000000000e+00

0.000000000000000e+00 0.000000000000000e+00 0.000000000000000e+00
0.000000000000000e+00 0.000000000000000e+00 0.000000000000000e+00
0.000000000000000e+00 0.000000000000000e+00 0.000000000000000e+00

0.000000000000000e+00 0.000000000000000e+00 0.000000000000000e+00
0.000000000000000e+00 0.000000000000000e+00 0.000000000000000e+00
0.000000000000000e+00 0.000000000000000e+00 0.000000000000000e+00

0.000000000000000e+00 0.000000000000000e+00 0.000000000000000e+00
0.000000000000000e+00 0.000000000000000e+00 0.000000000000000e+00
0.000000000000000e+00 0.000000000000000e+00 0.000000000000000e+00

0.000000000000000e+00 0.000000000000000e+00 0.000000000000000e+00
0.000000000000000e+00 0.000000000000000e+00 0.000000000000000e+00
0.000000000000000e+00 0.000000000000000e+00 0.000000000000000e+00

0.000000000000000e+00 0.000000000000000e+00 0.000000000000000e+00
0.000000000000000e+00 0.000000000000000e+00 0.000000000000000e+00
0.000000000000000e+00 0.000000000000000e+00 0.000000000000000e+00

0.000000000000000e+00 0.000000000000000e+00 0.000000000000000e+00
0.000000000000000e+00 0.000000000000000e+00 0.000000000000000e+00
0.000000000000000e+00 0.000000000000000e+00 0.000000000000000e+00

0.000000000000000e+00 0.000000000000000e+00 0.000000000000000e+00
0.000000000000000e+00 0.000000000000000e+00 0.000000000000000e+00
0.000000000000000e+00 0.000000000000000e+00 0.000000000000000e+00

0.000000000000000e+00 0.000000000000000e+00 0.000000000000000e+00
0.000000000000000e+00 0.000000000000000e+00 0.000000000000000e+00
0.000000000000000e+00 0.000000000000000e+00 0.000000000000000e+00

0.000000000000000e+00 0.000000000000000e+00 0.000000000000000e+00
0.000000000000000e+00 0.000000000000000e+00 0.000000000000000e+00
0.000000000000000e+00 0.000000000000000e+00 0.000000000000000e+00

0.000000000000000e+00 0.000000000000000e+00 0.000000000000000e+00
0.000000000000000e+00 0.000000000000000e+00 0.000000000000000e+00
0.000000000000000e+00 0.000000000000000e+00 0.000000000000000e+00

0.000000000000000e+00 0.000000000000000e+00 0.000000000000000e+00
0.000000000000000e+00 0.000000000000000e+00 0.000000000000000e+00
0.000000000000000e+00 0.000000000000000e+00 0.000000000000000e+00

0.000000000000000e+00 0.000000000000000e+00 0.000000000000000e+00
0.000000000000000e+00 0.000000000000000e+00 0.000000000000000e+00
0.000000000000000e+00 0.000000000000000e+00 0.000000000000000e+00

0.000000000000000e+00 0.000000000000000e+00 0.000000000000000e+00
0.000000000000000e+00 0.000000000000000e+00 0.000000000000000e+00
0.000000000000000e+00 0.000000000000000e+00 0.000000000000000e+00

0.000000000000000e+00 0.000000000000000e+00 0.000000000000000e+00
0.000000000000000e+00 0.000000000000000e+00 0.000000000000000e+00
0.000000000000000e+00 0.000000000000000e+00 0.000000000000000e+00

0.000000000000000e+00 0.000000000000000e+00 0.000000000000000e+00
0.000000000000000e+00 0.000000000000000e+00 0.000000000000000e+00
0.000000000000000e+00 0.000000000000000e+00 0.000000000000000e+00

0.000000000000000e+00 0.000000000000000e+00 0.000000000000000e+00
0.000000000000000e+00 0.000000000000000e+00 0.000000000000000e+00
0.000000000000000e+00 0.000000000000000e+00 0.000000000000000e+00

0.000000000000000e+00 0.000000000000000e+00 0.000000000000000e+00
0.000000000000000e+00 0.000000000000000e+00 0.000000000000000e+00
0.000000000000000e+00 0.000000000000000e+00 0.000000000000000e+00

0.000000000000000e+00 0.000000000000000e+00 0.000000000000000e+00
0.000000000000000e+00 0.000000000000000e+00 0.000000000000000e+00
0.000000000000000e+00 0.000000000000000e+00 0.000000000000000e+00

0.000000000000000e+00 0.000000000000000e+00 0.000000000000000e+00
0.000000000000000e+00 0.000000000000000e+00 0.000000000000000e+00
0.000000000000000e+00 0.000000000000000e+00 0.000000000000000e+00

0.000000000000000e+00 0.000000000000000e+00 0.000000000000000e+00
0.000000000000000e+00 0.000000000000000e+00 0.000000000000000e+00
0.000000000000000e+00 0.000000000000000e+00 0.000000000000000e+00

0.000000000000000e+00 0.000000000000000e+00 0.000000000000000e+00
0.000000000000000e+00 0.000000000000000e+00 0.000000000000000e+00
0.000000000000000e+00 0.000000000000000e+00 0.000000000000000e+00

0.000000000000000e+00 0.000000000000000e+00 0.000000000000000e+00
0.000000000000000e+00 0.000000000000000e+00 0.000000000000000e+00
0.000000000000000e+00 0.000000000000000e+00 0.000000000000000e+00

0.000000000000000e+00 0.000000000000000e+00 0.000000000000000e+00
0.000000000000000e+00 0.000000000000000e+00 0.000000000000000e+00
0.000000000000000e+00 0.000000000000000e+00 0.000000000000000e+00

0.000000000000000e+00 0.000000000000000e+00 0.000000000000000e+00
0.000000000000000e+00 0.000000000000000e+00 0.000000000000000e+00
0.000000000000000e+00 0.000000000000000e+00 0.000000000000000e+00

0.000000000000000e+00 0.000000000000000e+00 0.000000000000000e+00
0.000000000000000e+00 0.000000000000000e+00 0.000000000000000e+00
0.000000000000000e+00 0.000000000000000e+00 0.000000000000000e+00

0.000000000000000e+00 0.000000000000000e+00 0.000000000000000e+00
0.000000000000000e+00 0.000000000000000e+00 0.000000000000000e+00
0.000000000000000e+00 0.000000000000000e+00 0.000000000000000e+00

0.000000000000000e+00 0.000000000000000e+00 0.000000000000000e+00
0.000000000000000e+00 0.000000000000000e+00 0.000000000000000e+00
0.000000000000000e+00 0.000000000000000e+00 0.000000000000000e+00

0.000000000000000e+00 0.000000000000000e+00 0.000000000000000e+00
0.000000000000000e+00 0.000000000000000e+00 0.000000000000000e+00
0.000000000000000e+00 0.000000000000000e+00 0.000000000000000e+00

0.000000000000000e+00 0.000000000000000e+00 0.000000000000000e+00
0.000000000000000e+00 0.000000000000000e+00 0.000000000000000e+00
0.000000000000000e+00 0.000000000000000e+00 0.000000000000000e+00

0.000000000000000e+00 0.000000000000000e+00 0.000000000000000e+00
0.000000000000000e+00 0.000000000000000e+00 0.000000000000000e+00
0.000000000000000e+00 0.000000000000000e+00 0.000000000000000e+00

0.000000000000000e+00 0.000000000000000e+00 0.000000000000000e+00
0.000000000000000e+00 0.000000000000000e+00 0.000000000000000e+00
0.000000000000000e+00 0.000000000000000e+00 0.000000000000000e+00

0.000000000000000e+00 0.000000000000000e+00 0.000000000000000e+00
0.000000000000000e+00 0.000000000000000e+00 0.000000000000000e+00
0.000000000000000e+00 0.000000000000000e+00 0.000000000000000e+00

0.000000000000000e+00 0.000000000000000e+00 0.000000000000000e+00
0.000000000000000e+00 0.000000000000000e+00 0.000000000000000e+00
0.000000000000000e+00 0.000000000000000e+00 0.000000000000000e+00

0.000000000000000e+00 0.000000000000000e+00 0.000000000000000e+00
0.000000000000000e+00 0.000000000000000e+00 0.000000000000000e+00
0.000000000000000e+00 0.000000000000000e+00 0.000000000000000e+00

0.000000000000000e+00 0.000000000000000e+00 0.000000000000000e+00
0.000000000000000e+00 0.000000000000000e+00 0.000000000000000e+00
0.000000000000000e+00 0.000000000000000e+00 0.000000000000000e+00

0.000000000000000e+00 0.000000000000000e+00 0.000000000000000e+00
0.000000000000000e+00 0.000000000000000e+00 0.000000000000000e+00
0.000000000000000e+00 0.000000000000000e+00 0.000000000000000e+00

0.000000000000000e+00 0.000000000000000e+00 0.000000000000000e+00
0.000000000000000e+00 0.000000000000000e+00 0.000000000000000e+00
0.000000000000000e+00 0.000000000000000e+00 0.000000000000000e+00

0.000000000000000e+00 0.000000000000000e+00 0.000000000000000e+00
0.000000000000000e+00 0.000000000000000e+00 0.000000000000000e+00
0.000000000000000e+00 0.000000000000000e+00 0.000000000000000e+00

0.000000000000000e+00 0.000000000000000e+00 0.000000000000000e+00
0.000000000000000e+00 0.000000000000000e+00 0.000000000000000e+00
0.000000000000000e+00 0.000000000000000e+00 0.000000000000000e+00

0.000000000000000e+00 0.000000000000000e+00 0.000000000000000e+00
0.000000000000000e+00 0.000000000000000e+00 0.000000000000000e+00
0.000000000000000e+00 0.000000000000000e+00 0.000000000000000e+00

0.000000000000000e+00 0.000000000000000e+00 0.000000000000000e+00
0.000000000000000e+00 0.000000000000000e+00 0.000000000000000e+00
0.000000000000000e+00 0.000000000000000e+00 0.000000000000000e+00

0.000000000000000e+00 0.000000000000000e+00 0.000000000000000e+00
0.000000000000000e+00 0.000000000000000e+00 0.000000000000000e+00
0.000000000000000e+00 0.000000000000000e+00 0.000000000000000e+00

0.000000000000000e+00 0.000000000000000e+00 0.000000000000000e+00
0.000000000000000e+00 0.000000000000000e+00 0.000000000000000e+00
0.000000000000000e+00 0.000000000000000e+00 0.000000000000000e+00

0.000000000000000e+00 0.000000000000000e+00 0.000000000000000e+00
0.000000000000000e+00 0.000000000000000e+00 0.000000000000000e+00
0.000000000000000e+00 0.000000000000000e+00 0.000000000000000e+00

0.000000000000000e+00 0.000000000000000e+00 0.000000000000000e+00
0.000000000000000e+00 0.000000000000000e+00 0.000000000000000e+00
0.000000000000000e+00 0.000000000000000e+00 0.000000000000000e+00

0.000000000000000e+00 0.000000000000000e+00 0.000000000000000e+00
0.000000000000000e+00 0.000000000000000e+00 0.000000000000000e+00
0.000000000000000e+00 0.000000000000000e+00 0.000000000000000e+00

0.000000000000000e+00 0.000000000000000e+00 0.000000000000000e+00
0.000000000000000e+00 0.000000000000000e+00 0.000000000000000e+00
0.000000000000000e+00 0.000000000000000e+00 0.000000000000000e+00

0.000000000000000e+00 0.000000000000000e+00 0.000000000000000e+00
0.000000000000000e+00 0.000000000000000e+00 0.000000000000000e+00
0.000000000000000e+00 0.000000000000000e+00 0.000000000000000e+00

0.000000000000000e+00 0.000000000000000e+00 0.000000000000000e+00
0.000000000000000e+00 0.000000000000000e+00 0.000000000000000e+00
0.000000000000000e+00 0.000000000000000e+00 0.000000000000000e+00

0.000000000000000e+00 0.000000000000000e+00 0.000000000000000e+00
0.000000000000000e+00 0.000000000000000e+00 0.000000000000000e+00
0.000000000000000e+00 0.000000000000000e+00 0.000000000000000e+00

0.000000000000000e+00 0.000000000000000e+00 0.000000000000000e+00
0.000000000000000e+00 0.000000000000000e+00 0.000000000000000e+00
0.000000000000000e+00 0.000000000000000e+00 0.000000000000000e+00

0.000000000000000e+00 0.000000000000000e+00 0.000000000000000e+00
0.000000000000000e+00 0.000000000000000e+00 0.000000000000000e+00
0.000000000000000e+00 0.000000000000000e+00 0.000000000000000e+00

0.000000000000000e+00 0.000000000000000e+00 0.000000000000000e+00
0.000000000000000e+00 0.000000000000000e+00 0.000000000000000e+00
0.000000000000000e+00 0.000000000000000e+00 0.000000000000000e+00

0.000000000000000e+00 0.000000000000000e+00 0.000000000000000e+00
0.000000000000000e+00 0.000000000000000e+00 0.000000000000000e+00
0.000000000000000e+00 0.000000000000000e+00 0.000000000000000e+00

0.000000000000000e+00 0.000000000000000e+00 0.000000000000000e+00
0.000000000000000e+00 0.000000000000000e+00 0.000000000000000e+00
0.000000000000000e+00 0.000000000000000e+00 0.000000000000000e+00

0.000000000000000e+00 0.000000000000000e+00 0.000000000000000e+00
0.000000000000000e+00 0.000000000000000e+00 0.000000000000000e+00
0.000000000000000e+00 0.000000000000000e+00 0.000000000000000e+00

0.000000000000000e+00 0.000000000000000e+00 0.000000000000000e+00
0.000000000000000e+00 0.000000000000000e+00 0.000000000000000e+00
0.000000000000000e+00 0.000000000000000e+00 0.000000000000000e+00

0.000000000000000e+00 0.000000000000000e+00 0.000000000000000e+00
0.000000000000000e+00 0.000000000000000e+00 0.000000000000000e+00
0.000000000000000e+00 0.000000000000000e+00 0.000000000000000e+00

0.000000000000000e+00 0.000000000000000e+00 0.000000000000000e+00
0.000000000000000e+00 0.000000000000000e+00 0.000000000000000e+00
0.000000000000000e+00 0.000000000000000e+00 0.000000000000000e+00

0.000000000000000e+00 0.000000000000000e+00 0.000000000000000e+00
0.000000000000000e+00 0.000000000000000e+00 0.000000000000000e+00
0.000000000000000e+00 0.000000000000000e+00 0.000000000000000e+00

0.000000000000000e+00 0.000000000000000e+00 0.000000000000000e+00
0.000000000000000e+00 0.000000000000000e+00 0.000000000000000e+00
0.000000000000000e+00 0.000000000000000e+00 0.000000000000000e+00

0.000000000000000e+00 0.000000000000000e+00 0.000000000000000e+00
0.000000000000000e+00 0.000000000000000e+00 0.000000000000000e+00
0.000000000000000e+00 0.000000000000000e+00 0.000000000000000e+00

0.000000000000000e+00 0.000000000000000e+00 0.000000000000000e+00
0.000000000000000e+00 0.000000000000000e+00 0.000000000000000e+00
0.000000000000000e+00 0.000000000000000e+00 0.000000000000000e+00

0.000000000000000e+00 0.000000000000000e+00 0.000000000000000e+00
0.000000000000000e+00 0.000000000000000e+00 0.000000000000000e+00
0.000000000000000e+00 0.000000000000000e+00 0.000000000000000e+00

0.000000000000000e+00 0.000000000000000e+00 0.000000000000000e+00
0.000000000000000e+00 0.000000000000000e+00 0.000000000000000e+00
0.000000000000000e+00 0.000000000000000e+00 0.000000000000000e+00

0.000000000000000e+00 0.000000000000000e+00 0.000000000000000e+00
0.000000000000000e+00 0.000000000000000e+00 0.000000000000000e+00
0.000000000000000e+00 0.000000000000000e+00 0.000000000000000e+00

0.000000000000000e+00 0.000000000000000e+00 0.000000000000000e+00
0.000000000000000e+00 0.000000000000000e+00 0.000000000000000e+00
0.000000000000000e+00 0.000000000000000e+00 0.000000000000000e+00

0.000000000000000e+00 0.000000000000000e+00 0.000000000000000e+00
0.000000000000000e+00 0.000000000000000e+00 0.000000000000000e+00
0.000000000000000e+00 0.000000000000000e+00 0.000000000000000e+00

0.000000000000000e+00 0.000000000000000e+00 0.000000000000000e+00
0.000000000000000e+00 0.000000000000000e+00 0.000000000000000e+00
0.000000000000000e+00 0.000000000000000e+00 0.000000000000000e+00

0.000000000000000e+00 0.000000000000000e+00 0.000000000000000e+00
0.000000000000000e+00 0.000000000000000e+00 0.000000000000000e+00
0.000000000000000e+00 0.000000000000000e+00 0.000000000000000e+00

0.000000000000000e+00 0.000000000000000e+00 0.000000000000000e+00
0.000000000000000e+00 0.000000000000000e+00 0.000000000000000e+00
0.000000000000000e+00 0.000000000000000e+00 0.000000000000000e+00

0.000000000000000e+00 0.000000000000000e+00 0.000000000000000e+00
0.000000000000000e+00 0.000000000000000e+00 0.000000000000000e+00
0.000000000000000e+00 0.000000000000000e+00 0.000000000000000e+00

0.000000000000000e+00 0.000000000000000e+00 0.000000000000000e+00
0.000000000000000e+00 0.000000000000000e+00 0.000000000000000e+00
0.000000000000000e+00 0.000000000000000e+00 0.000000000000000e+00

0.000000000000000e+00 0.000000000000000e+00 0.000000000000000e+00
0.000000000000000e+00 0.000000000000000e+00 0.000000000000000e+00
0.000000000000000e+00 0.000000000000000e+00 0.000000000000000e+00

0.000000000000000e+00 0.000000000000000e+00 0.000000000000000e+00
0.000000000000000e+00 0.000000000000000e+00 0.000000000000000e+00
0.000000000000000e+00 0.000000000000000e+00 0.000000000000000e+00

0.000000000000000e+00 0.000000000000000e+00 0.000000000000000e+00
0.000000000000000e+00 0.000000000000000e+00 0.000000000000000e+00
0.000000000000000e+00 0.000000000000000e+00 0.000000000000000e+00

0.000000000000000e+00 0.000000000000000e+00 0.000000000000000e+00
0.000000000000000e+00 0.000000000000000e+00 0.000000000000000e+00
0.000000000000000e+00 0.000000000000000e+00 0.000000000000000e+00

0.000000000000000e+00 0.000000000000000e+00 0.000000000000000e+00
0.000000000000000e+00 0.000000000000000e+00 0.000000000000000e+00
0.000000000000000e+00 0.000000000000000e+00 0.000000000000000e+00

0.000000000000000e+00 0.000000000000000e+00 0.000000000000000e+00
0.000000000000000e+00 0.000000000000000e+00 0.000000000000000e+00
0.000000000000000e+00 0.000000000000000e+00 0.000000000000000e+00

0.000000000000000e+00 0.000000000000000e+00 0.000000000000000e+00
0.000000000000000e+00 0.000000000000000e+00 0.000000000000000e+00
0.000000000000000e+00 0.000000000000000e+00 0.000000000000000e+00

0.000000000000000e+00 0.000000000000000e+00 0.000000000000000e+00
0.000000000000000e+00 0.000000000000000e+00 0.000000000000000e+00
0.000000000000000e+00 0.000000000000000e+00 0.000000000000000e+00

0.000000000000000e+00 0.000000000000000e+00 0.000000000000000e+00
0.000000000000000e+00 0.000000000000000e+00 0.000000000000000e+00
0.000000000000000e+00 0.000000000000000e+00 0.000000000000000e+00

0.000000000000000e+00 0.000000000000000e+00 0.000000000000000e+00
0.000000000000000e+00 0.000000000000000e+00 0.000000000000000e+00
0.000000000000000e+00 0.000000000000000e+00 0.000000000000000e+00

0.000000000000000e+00 0.000000000000000e+00 0.000000000000000e+00
0.000000000000000e+00 0.000000000000000e+00 0.000000000000000e+00
0.000000000000000e+00 0.000000000000000e+00 0.000000000000000e+00

0.000000000000000e+00 0.000000000000000e+00 0.000000000000000e+00
0.000000000000000e+00 0.000000000000000e+00 0.000000000000000e+00
0.000000000000000e+00 0.000000000000000e+00 0.000000000000000e+00

0.000000000000000e+00 0.000000000000000e+00 0.000000000000000e+00
0.000000000000000e+00 0.000000000000000e+00 0.000000000000000e+00
0.000000000000000e+00 0.000000000000000e+00 0.000000000000000e+00

0.000000000000000e+00 0.000000000000000e+00 0.000000000000000e+00
0.000000000000000e+00 0.000000000000000e+00 0.000000000000000e+00
0.000000000000000e+00 0.000000000000000e+00 0.000000000000000e+00

0.000000000000000e+00 0.000000000000000e+00 0.000000000000000e+00
0.000000000000000e+00 0.000000000000000e+00 0.000000000000000e+00
0.000000000000000e+00 0.000000000000000e+00 0.000000000000000e+00

0.000000000000000e+00 0.000000000000000e+00 0.000000000000000e+00
0.000000000000000e+00 0.000000000000000e+00 0.000000000000000e+00
0.000000000000000e+00 0.000000000000000e+00 0.000000000000000e+00

0.000000000000000e+00 0.000000000000000e+00 0.000000000000000e+00
0.000000000000000e+00 0.000000000000000e+00 0.000000000000000e+00
0.000000000000000e+00 0.000000000000000e+00 0.000000000000000e+00

0.000000000000000e+00 0.000000000000000e+00 0.000000000000000e+00
0.000000000000000e+00 0.000000000000000e+00 0.000000000000000e+00
0.000000000000000e+00 0.000000000000000e+00 0.000000000000000e+00

0.000000000000000e+00 0.000000000000000e+00 0.000000000000000e+00
0.000000000000000e+00 0.000000000000000e+00 0.000000000000000e+00
0.000000000000000e+00 0.000000000000000e+00 0.000000000000000e+00

0.000000000000000e+00 0.000000000000000e+00 0.000000000000000e+00
0.000000000000000e+00 0.000000000000000e+00 0.000000000000000e+00
0.000000000000000e+00 0.000000000000000e+00 0.000000000000000e+00

0.000000000000000e+00 0.000000000000000e+00 0.000000000000000e+00
0.000000000000000e+00 0.000000000000000e+00 0.000000000000000e+00
0.000000000000000e+00 0.000000000000000e+00 0.000000000000000e+00

0.000000000000000e+00 0.000000000000000e+00 0.000000000000000e+00
0.000000000000000e+00 0.000000000000000e+00 0.000000000000000e+00
0.000000000000000e+00 0.000000000000000e+00 0.000000000000000e+00

0.000000000000000e+00 0.000000000000000e+00 0.000000000000000e+00
0.000000000000000e+00 0.000000000000000e+00 0.000000000000000e+00
0.000000000000000e+00 0.000000000000000e+00 0.000000000000000e+00

0.000000000000000e+00 0.000000000000000e+00 0.000000000000000e+00
0.000000000000000e+00 0.000000000000000e+00 0.000000000000000e+00
0.000000000000000e+00 0.000000000000000e+00 0.000000000000000e+00

0.000000000000000e+00 0.000000000000000e+00 0.000000000000000e+00
0.000000000000000e+00 0.000000000000000e+00 0.000000000000000e+00
0.000000000000000e+00 0.000000000000000e+00 0.000000000000000e+00

0.000000000000000e+00 0.000000000000000e+00 0.000000000000000e+00
0.000000000000000e+00 0.000000000000000e+00 0.000000000000000e+00
0.000000000000000e+00 0.000000000000000e+00 0.000000000000000e+00

0.000000000000000e+00 0.000000000000000e+00 0.000000000000000e+00
0.000000000000000e+00 0.000000000000000e+00 0.000000000000000e+00
0.000000000000000e+00 0.000000000000000e+00 0.000000000000000e+00

0.000000000000000e+00 0.000000000000000e+00 0.000000000000000e+00
0.000000000000000e+00 0.000000000000000e+00 0.000000000000000e+00
0.000000000000000e+00 0.000000000000000e+00 0.000000000000000e+00

0.000000000000000e+00 0.000000000000000e+00 0.000000000000000e+00
0.000000000000000e+00 0.000000000000000e+00 0.000000000000000e+00
0.000000000000000e+00 0.000000000000000e+00 0.000000000000000e+00

0.000000000000000e+00 0.000000000000000e+00 0.000000000000000e+00
0.000000000000000e+00 0.000000000000000e+00 0.000000000000000e+00
0.000000000000000e+00 0.000000000000000e+00 0.000000000000000e+00

0.000000000000000e+00 0.000000000000000e+00 0.000000000000000e+00
0.000000000000000e+00 0.000000000000000e+00 0.000000000000000e+00
0.000000000000000e+00 0.000000000000000e+00 0.000000000000000e+00

0.000000000000000e+00 0.000000000000000e+00 0.000000000000000e+00
0.000000000000000e+00 0.000000000000000e+00 0.000000000000000e+00
0.000000000000000e+00 0.000000000000000e+00 0.000000000000000e+00

0.000000000000000e+00 0.000000000000000e+00 0.000000000000000e+00
0.000000000000000e+00 0.000000000000000e+00 0.000000000000000e+00
0.000000000000000e+00 0.000000000000000e+00 0.000000000000000e+00

0.000000000000000e+00 0.000000000000000e+00 0.000000000000000e+00
0.000000000000000e+00 0.000000000000000e+00 0.000000000000000e+00
0.000000000000000e+00 0.000000000000000e+00 0.000000000000000e+00

0.000000000000000e+00 0.000000000000000e+00 0.000000000000000e+00
0.000000000000000e+00 0.000000000000000e+00 0.000000000000000e+00
0.000000000000000e+00 0.000000000000000e+00 0.000000000000000e+00

0.000000000000000e+00 0.000000000000000e+00 0.000000000000000e+00
0.000000000000000e+00 0.000000000000000e+00 0.000000000000000e+00
0.000000000000000e+00 0.000000000000000e+00 0.000000000000000e+00

0.000000000000000e+00 0.000000000000000e+00 0.000000000000000e+00
0.000000000000000e+00 0.000000000000000e+00 0.000000000000000e+00
0.000000000000000e+00 0.000000000000000e+00 0.000000000000000e+00

0.000000000000000e+00 0.000000000000000e+00 0.000000000000000e+00
0.000000000000000e+00 0.000000000000000e+00 0.000000000000000e+00
0.000000000000000e+00 0.000000000000000e+00 0.000000000000000e+00

0.000000000000000e+00 0.000000000000000e+00 0.000000000000000e+00
0.000000000000000e+00 0.000000000000000e+00 0.000000000000000e+00
0.000000000000000e+00 0.000000000000000e+00 0.000000000000000e+00

0.000000000000000e+00 0.000000000000000e+00 0.000000000000000e+00
0.000000000000000e+00 0.000000000000000e+00 0.000000000000000e+00
0.000000000000000e+00 0.000000000000000e+00 0.000000000000000e+00

0.000000000000000e+00 0.000000000000000e+00 0.000000000000000e+00
0.000000000000000e+00 0.000000000000000e+00 0.000000000000000e+00
0.000000000000000e+00 0.000000000000000e+00 0.000000000000000e+00

0.000000000000000e+00 0.000000000000000e+00 0.000000000000000e+00
0.000000000000000e+00 0.000000000000000e+00 0.000000000000000e+00
0.000000000000000e+00 0.000000000000000e+00 0.000000000000000e+00

0.000000000000000e+00 0.000000000000000e+00 0.000000000000000e+00
0.000000000000000e+00 0.000000000000000e+00 0.000000000000000e+00
0.000000000000000e+00 0.000000000000000e+00 0.000000000000000e+00

0.000000000000000e+00 0.000000000000000e+00 0.000000000000000e+00
0.000000000000000e+00 0.000000000000000e+00 0.000000000000000e+00
0.000000000000000e+00 0.000000000000000e+00 0.000000000000000e+00

0.000000000000000e+00 0.000000000000000e+00 0.000000000000000e+00
0.000000000000000e+00 0.000000000000000e+00 0.000000000000000e+00
0.000000000000000e+00 0.000000000000000e+00 0.000000000000000e+00

0.000000000000000e+00 0.000000000000000e+00 0.000000000000000e+00
0.000000000000000e+00 0.000000000000000e+00 0.000000000000000e+00
0.000000000000000e+00 0.000000000000000e+00 0.000000000000000e+00

0.000000000000000e+00 0.000000000000000e+00 0.000000000000000e+00
0.000000000000000e+00 0.000000000000000e+00 0.000000000000000e+00
0.000000000000000e+00 0.000000000000000e+00 0.000000000000000e+00

0.000000000000000e+00 0.000000000000000e+00 0.000000000000000e+00
0.000000000000000e+00 0.000000000000000e+00 0.000000000000000e+00
0.000000000000000e+00 0.000000000000000e+00 0.000000000000000e+00

0.000000000000000e+00 0.000000000000000e+00 0.000000000000000e+00
0.000000000000000e+00 0.000000000000000e+00 0.000000000000000e+00
0.000000000000000e+00 0.000000000000000e+00 0.000000000000000e+00

0.000000000000000e+00 0.000000000000000e+00 0.000000000000000e+00
0.000000000000000e+00 0.000000000000000e+00 0.000000000000000e+00
0.000000000000000e+00 0.000000000000000e+00 0.000000000000000e+00

0.000000000000000e+00 0.000000000000000e+00 0.000000000000000e+00
0.000000000000000e+00 0.000000000000000e+00 0.000000000000000e+00
0.000000000000000e+00 0.000000000000000e+00 0.000000000000000e+00

0.000000000000000e+00 0.000000000000000e+00 0.000000000000000e+00
0.000000000000000e+00 0.000000000000000e+00 0.000000000000000e+00
0.000000000000000e+00 0.000000000000000e+00 0.000000000000000e+00

0.000000000000000e+00 0.000000000000000e+00 0.000000000000000e+00
0.000000000000000e+00 0.000000000000000e+00 0.000000000000000e+00
0.000000000000000e+00 0.000000000000000e+00 0.000000000000000e+00

0.000000000000000e+00 0.000000000000000e+00 0.000000000000000e+00
0.000000000000000e+00 0.000000000000000e+00 0.000000000000000e+00
0.000000000000000e+00 0.000000000000000e+00 0.000000000000000e+00

0.000000000000000e+00 0.000000000000000e+00 0.000000000000000e+00
0.000000000000000e+00 0.000000000000000e+00 0.000000000000000e+00
0.000000000000000e+00 0.000000000000000e+00 0.000000000000000e+00

0.000000000000000e+00 0.000000000000000e+00 0.000000000000000e+00
0.000000000000000e+00 0.000000000000000e+00 0.000000000000000e+00
0.000000000000000e+00 0.000000000000000e+00 0.000000000000000e+00

0.000000000000000e+00 0.000000000000000e+00 0.000000000000000e+00
0.000000000000000e+00 0.000000000000000e+00 0.000000000000000e+00
0.000000000000000e+00 0.000000000000000e+00 0.000000000000000e+00

0.000000000000000e+00 0.000000000000000e+00 0.000000000000000e+00
0.000000000000000e+00 0.000000000000000e+00 0.000000000000000e+00
0.000000000000000e+00 0.000000000000000e+00 0.000000000000000e+00

0.000000000000000e+00 0.000000000000000e+00 0.000000000000000e+00
0.000000000000000e+00 0.000000000000000e+00 0.000000000000000e+00
0.000000000000000e+00 0.000000000000000e+00 0.000000000000000e+00

0.000000000000000e+00 0.000000000000000e+00 0.000000000000000e+00
0.000000000000000e+00 0.000000000000000e+00 0.000000000000000e+00
0.000000000000000e+00 0.000000000000000e+00 0.000000000000000e+00

0.000000000000000e+00 0.000000000000000e+00 0.000000000000000e+00
0.000000000000000e+00 0.000000000000000e+00 0.000000000000000e+00
0.000000000000000e+00 0.000000000000000e+00 0.000000000000000e+00

0.000000000000000e+00 0.000000000000000e+00 0.000000000000000e+00
0.000000000000000e+00 0.000000000000000e+00 0.000000000000000e+00
0.000000000000000e+00 0.000000000000000e+00 0.000000000000000e+00

0.000000000000000e+00 0.000000000000000e+00 0.000000000000000e+00
0.000000000000000e+00 0.000000000000000e+00 0.000000000000000e+00
0.000000000000000e+00 0.000000000000000e+00 0.000000000000000e+00

0.000000000000000e+00 0.000000000000000e+00 0.000000000000000e+00
0.000000000000000e+00 0.000000000000000e+00 0.000000000000000e+00
0.000000000000000e+00 0.000000000000000e+00 0.000000000000000e+00

0.000000000000000e+00 0.000000000000000e+00 0.000000000000000e+00
0.000000000000000e+00 0.000000000000000e+00 0.000000000000000e+00
0.000000000000000e+00 0.000000000000000e+00 0.000000000000000e+00

0.000000000000000e+00 0.000000000000000e+00 0.000000000000000e+00
0.000000000000000e+00 0.000000000000000e+00 0.000000000000000e+00
0.000000000000000e+00 0.000000000000000e+00 0.000000000000000e+00

0.000000000000000e+00 0.000000000000000e+00 0.000000000000000e+00
0.000000000000000e+00 0.000000000000000e+00 0.000000000000000e+00
0.000000000000000e+00 0.000000000000000e+00 0.000000000000000e+00

0.000000000000000e+00 0.000000000000000e+00 0.000000000000000e+00
0.000000000000000e+00 0.000000000000000e+00 0.000000000000000e+00
0.000000000000000e+00 0.000000000000000e+00 0.000000000000000e+00

0.000000000000000e+00 0.000000000000000e+00 0.000000000000000e+00
0.000000000000000e+00 0.000000000000000e+00 0.000000000000000e+00
0.000000000000000e+00 0.000000000000000e+00 0.000000000000000e+00

0.000000000000000e+00 0.000000000000000e+00 0.000000000000000e+00
0.000000000000000e+00 0.000000000000000e+00 0.000000000000000e+00
0.000000000000000e+00 0.000000000000000e+00 0.000000000000000e+00

0.000000000000000e+00 0.000000000000000e+00 0.000000000000000e+00
0.000000000000000e+00 0.000000000000000e+00 0.000000000000000e+00
0.000000000000000e+00 0.000000000000000e+00 0.000000000000000e+00

0.000000000000000e+00 0.000000000000000e+00 0.000000000000000e+00
0.000000000000000e+00 0.000000000000000e+00 0.000000000000000e+00
0.000000000000000e+00 0.000000000000000e+00 0.000000000000000e+00

0.000000000000000e+00 0.000000000000000e+00 0.000000000000000e+00
0.000000000000000e+00 0.000000000000000e+00 0.000000000000000e+00
0.000000000000000e+00 0.000000000000000e+00 0.000000000000000e+00

0.000000000000000e+00 0.000000000000000e+00 0.000000000000000e+00
0.000000000000000e+00 0.000000000000000e+00 0.000000000000000e+00
0.000000000000000e+00 0.000000000000000e+00 0.000000000000000e+00

0.000000000000000e+00 0.000000000000000e+00 0.000000000000000e+00
0.000000000000000e+00 0.000000000000000e+00 0.000000000000000e+00
0.000000000000000e+00 0.000000000000000e+00 0.000000000000000e+00

0.000000000000000e+00 0.000000000000000e+00 0.000000000000000e+00
0.000000000000000e+00 0.000000000000000e+00 0.000000000000000e+00
0.000000000000000e+00 0.000000000000000e+00 0.000000000000000e+00

0.000000000000000e+00 0.000000000000000e+00 0.000000000000000e+00
0.000000000000000e+00 0.000000000000000e+00 0.000000000000000e+00
0.000000000000000e+00 0.000000000000000e+00 0.000000000000000e+00

0.000000000000000e+00 0.000000000000000e+00 0.000000000000000e+00
0.000000000000000e+00 0.000000000000000e+00 0.000000000000000e+00
0.000000000000000e+00 0.000000000000000e+00 0.000000000000000e+00

0.000000000000000e+00 0.000000000000000e+00 0.000000000000000e+00
0.000000000000000e+00 0.000000000000000e+00 0.000000000000000e+00
0.000000000000000e+00 0.000000000000000e+00 0.000000000000000e+00

0.000000000000000e+00 0.000000000000000e+00 0.000000000000000e+00
0.000000000000000e+00 0.000000000000000e+00 0.000000000000000e+00
0.000000000000000e+00 0.000000000000000e+00 0.000000000000000e+00

0.000000000000000e+00 0.000000000000000e+00 0.000000000000000e+00
0.000000000000000e+00 0.000000000000000e+00 0.000000000000000e+00
0.000000000000000e+00 0.000000000000000e+00 0.000000000000000e+00

0.000000000000000e+00 0.000000000000000e+00 0.000000000000000e+00
0.000000000000000e+00 0.000000000000000e+00 0.000000000000000e+00
0.000000000000000e+00 0.000000000000000e+00 0.000000000000000e+00

0.000000000000000e+00 0.000000000000000e+00 0.000000000000000e+00
0.000000000000000e+00 0.000000000000000e+00 0.000000000000000e+00
0.000000000000000e+00 0.000000000000000e+00 0.000000000000000e+00

0.000000000000000e+00 0.000000000000000e+00 0.000000000000000e+00
0.000000000000000e+00 0.000000000000000e+00 0.000000000000000e+00
0.000000000000000e+00 0.000000000000000e+00 0.000000000000000e+00

0.000000000000000e+00 0.000000000000000e+00 0.000000000000000e+00
0.000000000000000e+00 0.000000000000000e+00 0.000000000000000e+00
0.000000000000000e+00 0.000000000000000e+00 0.000000000000000e+00

0.000000000000000e+00 0.000000000000000e+00 0.000000000000000e+00
0.000000000000000e+00 0.000000000000000e+00 0.000000000000000e+00
0.000000000000000e+00 0.000000000000000e+00 0.000000000000000e+00

0.000000000000000e+00 0.000000000000000e+00 0.000000000000000e+00
0.000000000000000e+00 0.000000000000000e+00 0.000000000000000e+00
0.000000000000000e+00 0.000000000000000e+00 0.000000000000000e+00

0.000000000000000e+00 0.000000000000000e+00 0.000000000000000e+00
0.000000000000000e+00 0.000000000000000e+00 0.000000000000000e+00
0.000000000000000e+00 0.000000000000000e+00 0.000000000000000e+00

0.000000000000000e+00 0.000000000000000e+00 0.000000000000000e+00
0.000000000000000e+00 0.000000000000000e+00 0.000000000000000e+00
0.000000000000000e+00 0.000000000000000e+00 0.000000000000000e+00

0.000000000000000e+00 0.000000000000000e+00 0.000000000000000e+00
0.000000000000000e+00 0.000000000000000e+00 0.000000000000000e+00
0.000000000000000e+00 0.000000000000000e+00 0.000000000000000e+00

0.000000000000000e+00 0.000000000000000e+00 0.000000000000000e+00
0.000000000000000e+00 0.000000000000000e+00 0.000000000000000e+00
0.000000000000000e+00 0.000000000000000e+00 0.000000000000000e+00

0.000000000000000e+00 0.000000000000000e+00 0.000000000000000e+00
0.000000000000000e+00 0.000000000000000e+00 0.000000000000000e+00
0.000000000000000e+00 0.000000000000000e+00 0.000000000000000e+00

0.000000000000000e+00 0.000000000000000e+00 0.000000000000000e+00
0.000000000000000e+00 0.000000000000000e+00 0.000000000000000e+00
0.000000000000000e+00 0.000000000000000e+00 0.000000000000000e+00

0.000000000000000e+00 0.000000000000000e+00 0.000000000000000e+00
0.000000000000000e+00 0.000000000000000e+00 0.000000000000000e+00
0.000000000000000e+00 0.000000000000000e+00 0.000000000000000e+00

0.000000000000000e+00 0.000000000000000e+00 0.000000000000000e+00
0.000000000000000e+00 0.000000000000000e+00 0.000000000000000e+00
0.000000000000000e+00 0.000000000000000e+00 0.000000000000000e+00

0.000000000000000e+00 0.000000000000000e+00 0.000000000000000e+00
0.000000000000000e+00 0.000000000000000e+00 0.000000000000000e+00
0.000000000000000e+00 0.000000000000000e+00 0.000000000000000e+00

0.000000000000000e+00 0.000000000000000e+00 0.000000000000000e+00
0.000000000000000e+00 0.000000000000000e+00 0.000000000000000e+00
0.000000000000000e+00 0.000000000000000e+00 0.000000000000000e+00

0.000000000000000e+00 0.000000000000000e+00 0.000000000000000e+00
0.000000000000000e+00 0.000000000000000e+00 0.000000000000000e+00
0.000000000000000e+00 0.000000000000000e+00 0.000000000000000e+00

0.000000000000000e+00 0.000000000000000e+00 0.000000000000000e+00
0.000000000000000e+00 0.000000000000000e+00 0.000000000000000e+00
0.000000000000000e+00 0.000000000000000e+00 0.000000000000000e+00

0.000000000000000e+00 0.000000000000000e+00 0.000000000000000e+00
0.000000000000000e+00 0.000000000000000e+00 0.000000000000000e+00
0.000000000000000e+00 0.000000000000000e+00 0.000000000000000e+00

0.000000000000000e+00 0.000000000000000e+00 0.000000000000000e+00
0.000000000000000e+00 0.000000000000000e+00 0.000000000000000e+00
0.000000000000000e+00 0.000000000000000e+00 0.000000000000000e+00

0.000000000000000e+00 0.000000000000000e+00 0.000000000000000e+00
0.000000000000000e+00 0.000000000000000e+00 0.000000000000000e+00
0.000000000000000e+00 0.000000000000000e+00 0.000000000000000e+00

0.000000000000000e+00 0.000000000000000e+00 0.000000000000000e+00
0.000000000000000e+00 0.000000000000000e+00 0.000000000000000e+00
0.000000000000000e+00 0.000000000000000e+00 0.000000000000000e+00

0.000000000000000e+00 0.000000000000000e+00 0.000000000000000e+00
0.000000000000000e+00 0.000000000000000e+00 0.000000000000000e+00
0.000000000000000e+00 0.000000000000000e+00 0.000000000000000e+00

0.000000000000000e+00 0.000000000000000e+00 0.000000000000000e+00
0.000000000000000e+00 0.000000000000000e+00 0.000000000000000e+00
0.000000000000000e+00 0.000000000000000e+00 0.000000000000000e+00

0.000000000000000e+00 0.000000000000000e+00 0.000000000000000e+00
0.000000000000000e+00 0.000000000000000e+00 0.000000000000000e+00
0.000000000000000e+00 0.000000000000000e+00 0.000000000000000e+00

0.000000000000000e+00 0.000000000000000e+00 0.000000000000000e+00
0.000000000000000e+00 0.000000000000000e+00 0.000000000000000e+00
0.000000000000000e+00 0.000000000000000e+00 0.000000000000000e+00

0.000000000000000e+00 0.000000000000000e+00 0.000000000000000e+00
0.000000000000000e+00 0.000000000000000e+00 0.000000000000000e+00
0.000000000000000e+00 0.000000000000000e+00 0.000000000000000e+00

0.000000000000000e+00 0.000000000000000e+00 0.000000000000000e+00
0.000000000000000e+00 0.000000000000000e+00 0.000000000000000e+00
0.000000000000000e+00 0.000000000000000e+00 0.000000000000000e+00

0.000000000000000e+00 0.000000000000000e+00 0.000000000000000e+00
0.000000000000000e+00 0.000000000000000e+00 0.000000000000000e+00
0.000000000000000e+00 0.000000000000000e+00 0.000000000000000e+00

0.000000000000000e+00 0.000000000000000e+00 0.000000000000000e+00
0.000000000000000e+00 0.000000000000000e+00 0.000000000000000e+00
0.000000000000000e+00 0.000000000000000e+00 0.000000000000000e+00

0.000000000000000e+00 0.000000000000000e+00 0.000000000000000e+00
0.000000000000000e+00 0.000000000000000e+00 0.000000000000000e+00
0.000000000000000e+00 0.000000000000000e+00 0.000000000000000e+00

0.000000000000000e+00 0.000000000000000e+00 0.000000000000000e+00
0.000000000000000e+00 0.000000000000000e+00 0.000000000000000e+00
0.000000000000000e+00 0.000000000000000e+00 0.000000000000000e+00

0.000000000000000e+00 0.000000000000000e+00 0.000000000000000e+00
0.000000000000000e+00 0.000000000000000e+00 0.000000000000000e+00
0.000000000000000e+00 0.000000000000000e+00 0.000000000000000e+00

0.000000000000000e+00 0.000000000000000e+00 0.000000000000000e+00
0.000000000000000e+00 0.000000000000000e+00 0.000000000000000e+00
0.000000000000000e+00 0.000000000000000e+00 0.000000000000000e+00

0.000000000000000e+00 0.000000000000000e+00 0.000000000000000e+00
0.000000000000000e+00 0.000000000000000e+00 0.000000000000000e+00
0.000000000000000e+00 0.000000000000000e+00 0.000000000000000e+00

0.000000000000000e+00 0.000000000000000e+00 0.000000000000000e+00
0.000000000000000e+00 0.000000000000000e+00 0.000000000000000e+00
0.000000000000000e+00 0.000000000000000e+00 0.000000000000000e+00

0.000000000000000e+00 0.000000000000000e+00 0.000000000000000e+00
0.000000000000000e+00 0.000000000000000e+00 0.000000000000000e+00
0.000000000000000e+00 0.000000000000000e+00 0.000000000000000e+00

0.000000000000000e+00 0.000000000000000e+00 0.000000000000000e+00
0.000000000000000e+00 0.000000000000000e+00 0.000000000000000e+00
0.000000000000000e+00 0.000000000000000e+00 0.000000000000000e+00

0.000000000000000e+00 0.000000000000000e+00 0.000000000000000e+00
0.000000000000000e+00 0.000000000000000e+00 0.000000000000000e+00
0.000000000000000e+00 0.000000000000000e+00 0.000000000000000e+00

0.000000000000000e+00 0.000000000000000e+00 0.000000000000000e+00
0.000000000000000e+00 0.000000000000000e+00 0.000000000000000e+00
0.000000000000000e+00 0.000000000000000e+00 0.000000000000000e+00

0.000000000000000e+00 0.000000000000000e+00 0.000000000000000e+00
0.000000000000000e+00 0.000000000000000e+00 0.000000000000000e+00
0.000000000000000e+00 0.000000000000000e+00 0.000000000000000e+00

0.000000000000000e+00 0.000000000000000e+00 0.000000000000000e+00
0.000000000000000e+00 0.000000000000000e+00 0.000000000000000e+00
0.000000000000000e+00 0.000000000000000e+00 0.000000000000000e+00

0.000000000000000e+00 0.000000000000000e+00 0.000000000000000e+00
0.000000000000000e+00 0.000000000000000e+00 0.000000000000000e+00
0.000000000000000e+00 0.000000000000000e+00 0.000000000000000e+00

0.000000000000000e+00 0.000000000000000e+00 0.000000000000000e+00
0.000000000000000e+00 0.000000000000000e+00 0.000000000000000e+00
0.000000000000000e+00 0.000000000000000e+00 0.000000000000000e+00

0.000000000000000e+00 0.000000000000000e+00 0.000000000000000e+00
0.000000000000000e+00 0.000000000000000e+00 0.000000000000000e+00
0.000000000000000e+00 0.000000000000000e+00 0.000000000000000e+00

0.000000000000000e+00 0.000000000000000e+00 0.000000000000000e+00
0.000000000000000e+00 0.000000000000000e+00 0.000000000000000e+00
0.000000000000000e+00 0.000000000000000e+00 0.000000000000000e+00

0.000000000000000e+00 0.000000000000000e+00 0.000000000000000e+00
0.000000000000000e+00 0.000000000000000e+00 0.000000000000000e+00
0.000000000000000e+00 0.000000000000000e+00 0.000000000000000e+00

0.000000000000000e+00 0.000000000000000e+00 0.000000000000000e+00
0.000000000000000e+00 0.000000000000000e+00 0.000000000000000e+00
0.000000000000000e+00 0.000000000000000e+00 0.000000000000000e+00

0.000000000000000e+00 0.000000000000000e+00 0.000000000000000e+00
0.000000000000000e+00 0.000000000000000e+00 0.000000000000000e+00
0.000000000000000e+00 0.000000000000000e+00 0.000000000000000e+00

0.000000000000000e+00 0.000000000000000e+00 0.000000000000000e+00
0.000000000000000e+00 0.000000000000000e+00 0.000000000000000e+00
0.000000000000000e+00 0.000000000000000e+00 0.000000000000000e+00

0.000000000000000e+00 0.000000000000000e+00 0.000000000000000e+00
0.000000000000000e+00 0.000000000000000e+00 0.000000000000000e+00
0.000000000000000e+00 0.000000000000000e+00 0.000000000000000e+00

0.000000000000000e+00 0.000000000000000e+00 0.000000000000000e+00
0.000000000000000e+00 0.000000000000000e+00 0.000000000000000e+00
0.000000000000000e+00 0.000000000000000e+00 0.000000000000000e+00

0.000000000000000e+00 0.000000000000000e+00 0.000000000000000e+00
0.000000000000000e+00 0.000000000000000e+00 0.000000000000000e+00
0.000000000000000e+00 0.000000000000000e+00 0.000000000000000e+00

0.000000000000000e+00 0.000000000000000e+00 0.000000000000000e+00
0.000000000000000e+00 0.000000000000000e+00 0.000000000000000e+00
0.000000000000000e+00 0.000000000000000e+00 0.000000000000000e+00

0.000000000000000e+00 0.000000000000000e+00 0.000000000000000e+00
0.000000000000000e+00 0.000000000000000e+00 0.000000000000000e+00
0.000000000000000e+00 0.000000000000000e+00 0.000000000000000e+00

0.000000000000000e+00 0.000000000000000e+00 0.000000000000000e+00
0.000000000000000e+00 0.000000000000000e+00 0.000000000000000e+00
0.000000000000000e+00 0.000000000000000e+00 0.000000000000000e+00

0.000000000000000e+00 0.000000000000000e+00 0.000000000000000e+00
0.000000000000000e+00 0.000000000000000e+00 0.000000000000000e+00
0.000000000000000e+00 0.000000000000000e+00 0.000000000000000e+00

0.000000000000000e+00 0.000000000000000e+00 0.000000000000000e+00
0.000000000000000e+00 0.000000000000000e+00 0.000000000000000e+00
0.000000000000000e+00 0.000000000000000e+00 0.000000000000000e+00

0.000000000000000e+00 0.000000000000000e+00 0.000000000000000e+00
0.000000000000000e+00 0.000000000000000e+00 0.000000000000000e+00
0.000000000000000e+00 0.000000000000000e+00 0.000000000000000e+00

0.000000000000000e+00 0.000000000000000e+00 0.000000000000000e+00
0.000000000000000e+00 0.000000000000000e+00 0.000000000000000e+00
0.000000000000000e+00 0.000000000000000e+00 0.000000000000000e+00

0.000000000000000e+00 0.000000000000000e+00 0.000000000000000e+00
0.000000000000000e+00 0.000000000000000e+00 0.000000000000000e+00
0.000000000000000e+00 0.000000000000000e+00 0.000000000000000e+00

0.000000000000000e+00 0.000000000000000e+00 0.000000000000000e+00
0.000000000000000e+00 0.000000000000000e+00 0.000000000000000e+00
0.000000000000000e+00 0.000000000000000e+00 0.000000000000000e+00

0.000000000000000e+00 0.000000000000000e+00 0.000000000000000e+00
0.000000000000000e+00 0.000000000000000e+00 0.000000000000000e+00
0.000000000000000e+00 0.000000000000000e+00 0.000000000000000e+00

0.000000000000000e+00 0.000000000000000e+00 0.000000000000000e+00
0.000000000000000e+00 0.000000000000000e+00 0.000000000000000e+00
0.000000000000000e+00 0.000000000000000e+00 0.000000000000000e+00

0.000000000000000e+00 0.000000000000000e+00 0.000000000000000e+00
0.000000000000000e+00 0.000000000000000e+00 0.000000000000000e+00
0.000000000000000e+00 0.000000000000000e+00 0.000000000000000e+00

0.000000000000000e+00 0.000000000000000e+00 0.000000000000000e+00
0.000000000000000e+00 0.000000000000000e+00 0.000000000000000e+00
0.000000000000000e+00 0.000000000000000e+00 0.000000000000000e+00

0.000000000000000e+00 0.000000000000000e+00 0.000000000000000e+00
0.000000000000000e+00 0.000000000000000e+00 0.000000000000000e+00
0.000000000000000e+00 0.000000000000000e+00 0.000000000000000e+00

0.000000000000000e+00 0.000000000000000e+00 0.000000000000000e+00
0.000000000000000e+00 0.000000000000000e+00 0.000000000000000e+00
0.000000000000000e+00 0.000000000000000e+00 0.000000000000000e+00

0.000000000000000e+00 0.000000000000000e+00 0.000000000000000e+00
0.000000000000000e+00 0.000000000000000e+00 0.000000000000000e+00
0.000000000000000e+00 0.000000000000000e+00 0.000000000000000e+00

0.000000000000000e+00 0.000000000000000e+00 0.000000000000000e+00
0.000000000000000e+00 0.000000000000000e+00 0.000000000000000e+00
0.000000000000000e+00 0.000000000000000e+00 0.000000000000000e+00

0.000000000000000e+00 0.000000000000000e+00 0.000000000000000e+00
0.000000000000000e+00 0.000000000000000e+00 0.000000000000000e+00
0.000000000000000e+00 0.000000000000000e+00 0.000000000000000e+00

0.000000000000000e+00 0.000000000000000e+00 0.000000000000000e+00
0.000000000000000e+00 0.000000000000000e+00 0.000000000000000e+00
0.000000000000000e+00 0.000000000000000e+00 0.000000000000000e+00

0.000000000000000e+00 0.000000000000000e+00 0.000000000000000e+00
0.000000000000000e+00 0.000000000000000e+00 0.000000000000000e+00
0.000000000000000e+00 0.000000000000000e+00 0.000000000000000e+00

0.000000000000000e+00 0.000000000000000e+00 0.000000000000000e+00
0.000000000000000e+00 0.000000000000000e+00 0.000000000000000e+00
0.000000000000000e+00 0.000000000000000e+00 0.000000000000000e+00

0.000000000000000e+00 0.000000000000000e+00 0.000000000000000e+00
0.000000000000000e+00 0.000000000000000e+00 0.000000000000000e+00
0.000000000000000e+00 0.000000000000000e+00 0.000000000000000e+00

0.000000000000000e+00 0.000000000000000e+00 0.000000000000000e+00
0.000000000000000e+00 0.000000000000000e+00 0.000000000000000e+00
0.000000000000000e+00 0.000000000000000e+00 0.000000000000000e+00

0.000000000000000e+00 0.000000000000000e+00 0.000000000000000e+00
0.000000000000000e+00 0.000000000000000e+00 0.000000000000000e+00
0.000000000000000e+00 0.000000000000000e+00 0.000000000000000e+00

0.000000000000000e+00 0.000000000000000e+00 0.000000000000000e+00
0.000000000000000e+00 0.000000000000000e+00 0.000000000000000e+00
0.000000000000000e+00 0.000000000000000e+00 0.000000000000000e+00

0.000000000000000e+00 0.000000000000000e+00 0.000000000000000e+00
0.000000000000000e+00 0.000000000000000e+00 0.000000000000000e+00
0.000000000000000e+00 0.000000000000000e+00 0.000000000000000e+00

0.000000000000000e+00 0.000000000000000e+00 0.000000000000000e+00
0.000000000000000e+00 0.000000000000000e+00 0.000000000000000e+00
0.000000000000000e+00 0.000000000000000e+00 0.000000000000000e+00

0.000000000000000e+00 0.000000000000000e+00 0.000000000000000e+00
0.000000000000000e+00 0.000000000000000e+00 0.000000000000000e+00
0.000000000000000e+00 0.000000000000000e+00 0.000000000000000e+00

0.000000000000000e+00 0.000000000000000e+00 0.000000000000000e+00
0.000000000000000e+00 0.000000000000000e+00 0.000000000000000e+00
0.000000000000000e+00 0.000000000000000e+00 0.000000000000000e+00

0.000000000000000e+00 0.000000000000000e+00 0.000000000000000e+00
0.000000000000000e+00 0.000000000000000e+00 0.000000000000000e+00
0.000000000000000e+00 0.000000000000000e+00 0.000000000000000e+00

0.000000000000000e+00 0.000000000000000e+00 0.000000000000000e+00
0.000000000000000e+00 0.000000000000000e+00 0.000000000000000e+00
0.000000000000000e+00 0.000000000000000e+00 0.000000000000000e+00

0.000000000000000e+00 0.000000000000000e+00 0.000000000000000e+00
0.000000000000000e+00 0.000000000000000e+00 0.000000000000000e+00
0.000000000000000e+00 0.000000000000000e+00 0.000000000000000e+00

0.000000000000000e+00 0.000000000000000e+00 0.000000000000000e+00
0.000000000000000e+00 0.000000000000000e+00 0.000000000000000e+00
0.000000000000000e+00 0.000000000000000e+00 0.000000000000000e+00

0.000000000000000e+00 0.000000000000000e+00 0.000000000000000e+00
0.000000000000000e+00 0.000000000000000e+00 0.000000000000000e+00
0.000000000000000e+00 0.000000000000000e+00 0.000000000000000e+00

0.000000000000000e+00 0.000000000000000e+00 0.000000000000000e+00
0.000000000000000e+00 0.000000000000000e+00 0.000000000000000e+00
0.000000000000000e+00 0.000000000000000e+00 0.000000000000000e+00

0.000000000000000e+00 0.000000000000000e+00 0.000000000000000e+00
0.000000000000000e+00 0.000000000000000e+00 0.000000000000000e+00
0.000000000000000e+00 0.000000000000000e+00 0.000000000000000e+00

0.000000000000000e+00 0.000000000000000e+00 0.000000000000000e+00
0.000000000000000e+00 0.000000000000000e+00 0.000000000000000e+00
0.000000000000000e+00 0.000000000000000e+00 0.000000000000000e+00

0.000000000000000e+00 0.000000000000000e+00 0.000000000000000e+00
0.000000000000000e+00 0.000000000000000e+00 0.000000000000000e+00
0.000000000000000e+00 0.000000000000000e+00 0.000000000000000e+00

0.000000000000000e+00 0.000000000000000e+00 0.000000000000000e+00
0.000000000000000e+00 0.000000000000000e+00 0.000000000000000e+00
0.000000000000000e+00 0.000000000000000e+00 0.000000000000000e+00

0.000000000000000e+00 0.000000000000000e+00 0.000000000000000e+00
0.000000000000000e+00 0.000000000000000e+00 0.000000000000000e+00
0.000000000000000e+00 0.000000000000000e+00 0.000000000000000e+00

0.000000000000000e+00 0.000000000000000e+00 0.000000000000000e+00
0.000000000000000e+00 0.000000000000000e+00 0.000000000000000e+00
0.000000000000000e+00 0.000000000000000e+00 0.000000000000000e+00

0.000000000000000e+00 0.000000000000000e+00 0.000000000000000e+00
0.000000000000000e+00 0.000000000000000e+00 0.000000000000000e+00
0.000000000000000e+00 0.000000000000000e+00 0.000000000000000e+00

0.000000000000000e+00 0.000000000000000e+00 0.000000000000000e+00
0.000000000000000e+00 0.000000000000000e+00 0.000000000000000e+00
0.000000000000000e+00 0.000000000000000e+00 0.000000000000000e+00

0.000000000000000e+00 0.000000000000000e+00 0.000000000000000e+00
0.000000000000000e+00 0.000000000000000e+00 0.000000000000000e+00
0.000000000000000e+00 0.000000000000000e+00 0.000000000000000e+00

0.000000000000000e+00 0.000000000000000e+00 0.000000000000000e+00
0.000000000000000e+00 0.000000000000000e+00 0.000000000000000e+00
0.000000000000000e+00 0.000000000000000e+00 0.000000000000000e+00

0.000000000000000e+00 0.000000000000000e+00 0.000000000000000e+00
0.000000000000000e+00 0.000000000000000e+00 0.000000000000000e+00
0.000000000000000e+00 0.000000000000000e+00 0.000000000000000e+00

0.000000000000000e+00 0.000000000000000e+00 0.000000000000000e+00
0.000000000000000e+00 0.000000000000000e+00 0.000000000000000e+00
0.000000000000000e+00 0.000000000000000e+00 0.000000000000000e+00

0.000000000000000e+00 0.000000000000000e+00 0.000000000000000e+00
0.000000000000000e+00 0.000000000000000e+00 0.000000000000000e+00
0.000000000000000e+00 0.000000000000000e+00 0.000000000000000e+00

0.000000000000000e+00 0.000000000000000e+00 0.000000000000000e+00
0.000000000000000e+00 0.000000000000000e+00 0.000000000000000e+00
0.000000000000000e+00 0.000000000000000e+00 0.000000000000000e+00

0.000000000000000e+00 0.000000000000000e+00 0.000000000000000e+00
0.000000000000000e+00 0.000000000000000e+00 0.000000000000000e+00
0.000000000000000e+00 0.000000000000000e+00 0.000000000000000e+00

0.000000000000000e+00 0.000000000000000e+00 0.000000000000000e+00
0.000000000000000e+00 0.000000000000000e+00 0.000000000000000e+00
0.000000000000000e+00 0.000000000000000e+00 0.000000000000000e+00

0.000000000000000e+00 0.000000000000000e+00 0.000000000000000e+00
0.000000000000000e+00 0.000000000000000e+00 0.000000000000000e+00
0.000000000000000e+00 0.000000000000000e+00 0.000000000000000e+00

0.000000000000000e+00 0.000000000000000e+00 0.000000000000000e+00
0.000000000000000e+00 0.000000000000000e+00 0.000000000000000e+00
0.000000000000000e+00 0.000000000000000e+00 0.000000000000000e+00

0.000000000000000e+00 0.000000000000000e+00 0.000000000000000e+00
0.000000000000000e+00 0.000000000000000e+00 0.000000000000000e+00
0.000000000000000e+00 0.000000000000000e+00 0.000000000000000e+00

0.000000000000000e+00 0.000000000000000e+00 0.000000000000000e+00
0.000000000000000e+00 0.000000000000000e+00 0.000000000000000e+00
0.000000000000000e+00 0.000000000000000e+00 0.000000000000000e+00

0.000000000000000e+00 0.000000000000000e+00 0.000000000000000e+00
0.000000000000000e+00 0.000000000000000e+00 0.000000000000000e+00
0.000000000000000e+00 0.000000000000000e+00 0.000000000000000e+00

0.000000000000000e+00 0.000000000000000e+00 0.000000000000000e+00
0.000000000000000e+00 0.000000000000000e+00 0.000000000000000e+00
0.000000000000000e+00 0.000000000000000e+00 0.000000000000000e+00

0.000000000000000e+00 0.000000000000000e+00 0.000000000000000e+00
0.000000000000000e+00 0.000000000000000e+00 0.000000000000000e+00
0.000000000000000e+00 0.000000000000000e+00 0.000000000000000e+00

0.000000000000000e+00 0.000000000000000e+00 0.000000000000000e+00
0.000000000000000e+00 0.000000000000000e+00 0.000000000000000e+00
0.000000000000000e+00 0.000000000000000e+00 0.000000000000000e+00

0.000000000000000e+00 0.000000000000000e+00 0.000000000000000e+00
0.000000000000000e+00 0.000000000000000e+00 0.000000000000000e+00
0.000000000000000e+00 0.000000000000000e+00 0.000000000000000e+00

0.000000000000000e+00 0.000000000000000e+00 0.000000000000000e+00
0.000000000000000e+00 0.000000000000000e+00 0.000000000000000e+00
0.000000000000000e+00 0.000000000000000e+00 0.000000000000000e+00

0.000000000000000e+00 0.000000000000000e+00 0.000000000000000e+00
0.000000000000000e+00 0.000000000000000e+00 0.000000000000000e+00
0.000000000000000e+00 0.000000000000000e+00 0.000000000000000e+00

0.000000000000000e+00 0.000000000000000e+00 0.000000000000000e+00
0.000000000000000e+00 0.000000000000000e+00 0.000000000000000e+00
0.000000000000000e+00 0.000000000000000e+00 0.000000000000000e+00

0.000000000000000e+00 0.000000000000000e+00 0.000000000000000e+00
0.000000000000000e+00 0.000000000000000e+00 0.000000000000000e+00
0.000000000000000e+00 0.000000000000000e+00 0.000000000000000e+00

0.000000000000000e+00 0.000000000000000e+00 0.000000000000000e+00
0.000000000000000e+00 0.000000000000000e+00 0.000000000000000e+00
0.000000000000000e+00 0.000000000000000e+00 0.000000000000000e+00

0.000000000000000e+00 0.000000000000000e+00 0.000000000000000e+00
0.000000000000000e+00 0.000000000000000e+00 0.000000000000000e+00
0.000000000000000e+00 0.000000000000000e+00 0.000000000000000e+00

0.000000000000000e+00 0.000000000000000e+00 0.000000000000000e+00
0.000000000000000e+00 0.000000000000000e+00 0.000000000000000e+00
0.000000000000000e+00 0.000000000000000e+00 0.000000000000000e+00

0.000000000000000e+00 0.000000000000000e+00 0.000000000000000e+00
0.000000000000000e+00 0.000000000000000e+00 0.000000000000000e+00
0.000000000000000e+00 0.000000000000000e+00 0.000000000000000e+00

0.000000000000000e+00 0.000000000000000e+00 0.000000000000000e+00
0.000000000000000e+00 0.000000000000000e+00 0.000000000000000e+00
0.000000000000000e+00 0.000000000000000e+00 0.000000000000000e+00

0.000000000000000e+00 0.000000000000000e+00 0.000000000000000e+00
0.000000000000000e+00 0.000000000000000e+00 0.000000000000000e+00
0.000000000000000e+00 0.000000000000000e+00 0.000000000000000e+00

0.000000000000000e+00 0.000000000000000e+00 0.000000000000000e+00
0.000000000000000e+00 0.000000000000000e+00 0.000000000000000e+00
0.000000000000000e+00 0.000000000000000e+00 0.000000000000000e+00

0.000000000000000e+00 0.000000000000000e+00 0.000000000000000e+00
0.000000000000000e+00 0.000000000000000e+00 0.000000000000000e+00
0.000000000000000e+00 0.000000000000000e+00 0.000000000000000e+00

0.000000000000000e+00 0.000000000000000e+00 0.000000000000000e+00
0.000000000000000e+00 0.000000000000000e+00 0.000000000000000e+00
0.000000000000000e+00 0.000000000000000e+00 0.000000000000000e+00

0.000000000000000e+00 0.000000000000000e+00 0.000000000000000e+00
0.000000000000000e+00 0.000000000000000e+00 0.000000000000000e+00
0.000000000000000e+00 0.000000000000000e+00 0.000000000000000e+00

0.000000000000000e+00 0.000000000000000e+00 0.000000000000000e+00
0.000000000000000e+00 0.000000000000000e+00 0.000000000000000e+00
0.000000000000000e+00 0.000000000000000e+00 0.000000000000000e+00

0.000000000000000e+00 0.000000000000000e+00 0.000000000000000e+00
0.000000000000000e+00 0.000000000000000e+00 0.000000000000000e+00
0.000000000000000e+00 0.000000000000000e+00 0.000000000000000e+00

0.000000000000000e+00 0.000000000000000e+00 0.000000000000000e+00
0.000000000000000e+00 0.000000000000000e+00 0.000000000000000e+00
0.000000000000000e+00 0.000000000000000e+00 0.000000000000000e+00

0.000000000000000e+00 0.000000000000000e+00 0.000000000000000e+00
0.000000000000000e+00 0.000000000000000e+00 0.000000000000000e+00
0.000000000000000e+00 0.000000000000000e+00 0.000000000000000e+00

0.000000000000000e+00 0.000000000000000e+00 0.000000000000000e+00
0.000000000000000e+00 0.000000000000000e+00 0.000000000000000e+00
0.000000000000000e+00 0.000000000000000e+00 0.000000000000000e+00

0.000000000000000e+00 0.000000000000000e+00 0.000000000000000e+00
0.000000000000000e+00 0.000000000000000e+00 0.000000000000000e+00
0.000000000000000e+00 0.000000000000000e+00 0.000000000000000e+00

0.000000000000000e+00 0.000000000000000e+00 0.000000000000000e+00
0.000000000000000e+00 0.000000000000000e+00 0.000000000000000e+00
0.000000000000000e+00 0.000000000000000e+00 0.000000000000000e+00

0.000000000000000e+00 0.000000000000000e+00 0.000000000000000e+00
0.000000000000000e+00 0.000000000000000e+00 0.000000000000000e+00
0.000000000000000e+00 0.000000000000000e+00 0.000000000000000e+00

0.000000000000000e+00 0.000000000000000e+00 0.000000000000000e+00
0.000000000000000e+00 0.000000000000000e+00 0.000000000000000e+00
0.000000000000000e+00 0.000000000000000e+00 0.000000000000000e+00

0.000000000000000e+00 0.000000000000000e+00 0.000000000000000e+00
0.000000000000000e+00 0.000000000000000e+00 0.000000000000000e+00
0.000000000000000e+00 0.000000000000000e+00 0.000000000000000e+00

0.000000000000000e+00 0.000000000000000e+00 0.000000000000000e+00
0.000000000000000e+00 0.000000000000000e+00 0.000000000000000e+00
0.000000000000000e+00 0.000000000000000e+00 0.000000000000000e+00

0.000000000000000e+00 0.000000000000000e+00 0.000000000000000e+00
0.000000000000000e+00 0.000000000000000e+00 0.000000000000000e+00
0.000000000000000e+00 0.000000000000000e+00 0.000000000000000e+00

0.000000000000000e+00 0.000000000000000e+00 0.000000000000000e+00
0.000000000000000e+00 0.000000000000000e+00 0.000000000000000e+00
0.000000000000000e+00 0.000000000000000e+00 0.000000000000000e+00

0.000000000000000e+00 0.000000000000000e+00 0.000000000000000e+00
0.000000000000000e+00 0.000000000000000e+00 0.000000000000000e+00
0.000000000000000e+00 0.000000000000000e+00 0.000000000000000e+00

0.000000000000000e+00 0.000000000000000e+00 0.000000000000000e+00
0.000000000000000e+00 0.000000000000000e+00 0.000000000000000e+00
0.000000000000000e+00 0.000000000000000e+00 0.000000000000000e+00

0.000000000000000e+00 0.000000000000000e+00 0.000000000000000e+00
0.000000000000000e+00 0.000000000000000e+00 0.000000000000000e+00
0.000000000000000e+00 0.000000000000000e+00 0.000000000000000e+00

0.000000000000000e+00 0.000000000000000e+00 0.000000000000000e+00
0.000000000000000e+00 0.000000000000000e+00 0.000000000000000e+00
0.000000000000000e+00 0.000000000000000e+00 0.000000000000000e+00

0.000000000000000e+00 0.000000000000000e+00 0.000000000000000e+00
0.000000000000000e+00 0.000000000000000e+00 0.000000000000000e+00
0.000000000000000e+00 0.000000000000000e+00 0.000000000000000e+00

0.000000000000000e+00 0.000000000000000e+00 0.000000000000000e+00
0.000000000000000e+00 0.000000000000000e+00 0.000000000000000e+00
0.000000000000000e+00 0.000000000000000e+00 0.000000000000000e+00

0.000000000000000e+00 0.000000000000000e+00 0.000000000000000e+00
0.000000000000000e+00 0.000000000000000e+00 0.000000000000000e+00
0.000000000000000e+00 0.000000000000000e+00 0.000000000000000e+00

0.000000000000000e+00 0.000000000000000e+00 0.000000000000000e+00
0.000000000000000e+00 0.000000000000000e+00 0.000000000000000e+00
0.000000000000000e+00 0.000000000000000e+00 0.000000000000000e+00

0.000000000000000e+00 0.000000000000000e+00 0.000000000000000e+00
0.000000000000000e+00 0.000000000000000e+00 0.000000000000000e+00
0.000000000000000e+00 0.000000000000000e+00 0.000000000000000e+00

0.000000000000000e+00 0.000000000000000e+00 0.000000000000000e+00
0.000000000000000e+00 0.000000000000000e+00 0.000000000000000e+00
0.000000000000000e+00 0.000000000000000e+00 0.000000000000000e+00

0.000000000000000e+00 0.000000000000000e+00 0.000000000000000e+00
0.000000000000000e+00 0.000000000000000e+00 0.000000000000000e+00
0.000000000000000e+00 0.000000000000000e+00 0.000000000000000e+00

0.000000000000000e+00 0.000000000000000e+00 0.000000000000000e+00
0.000000000000000e+00 0.000000000000000e+00 0.000000000000000e+00
0.000000000000000e+00 0.000000000000000e+00 0.000000000000000e+00

0.000000000000000e+00 0.000000000000000e+00 0.000000000000000e+00
0.000000000000000e+00 0.000000000000000e+00 0.000000000000000e+00
0.000000000000000e+00 0.000000000000000e+00 0.000000000000000e+00

0.000000000000000e+00 0.000000000000000e+00 0.000000000000000e+00
0.000000000000000e+00 0.000000000000000e+00 0.000000000000000e+00
0.000000000000000e+00 0.000000000000000e+00 0.000000000000000e+00

0.000000000000000e+00 0.000000000000000e+00 0.000000000000000e+00
0.000000000000000e+00 0.000000000000000e+00 0.000000000000000e+00
0.000000000000000e+00 0.000000000000000e+00 0.000000000000000e+00

0.000000000000000e+00 0.000000000000000e+00 0.000000000000000e+00
0.000000000000000e+00 0.000000000000000e+00 0.000000000000000e+00
0.000000000000000e+00 0.000000000000000e+00 0.000000000000000e+00

0.000000000000000e+00 0.000000000000000e+00 0.000000000000000e+00
0.000000000000000e+00 0.000000000000000e+00 0.000000000000000e+00
0.000000000000000e+00 0.000000000000000e+00 0.000000000000000e+00

0.000000000000000e+00 0.000000000000000e+00 0.000000000000000e+00
0.000000000000000e+00 0.000000000000000e+00 0.000000000000000e+00
0.000000000000000e+00 0.000000000000000e+00 0.000000000000000e+00

0.000000000000000e+00 0.000000000000000e+00 0.000000000000000e+00
0.000000000000000e+00 0.000000000000000e+00 0.000000000000000e+00
0.000000000000000e+00 0.000000000000000e+00 0.000000000000000e+00

0.000000000000000e+00 0.000000000000000e+00 0.000000000000000e+00
0.000000000000000e+00 0.000000000000000e+00 0.000000000000000e+00
0.000000000000000e+00 0.000000000000000e+00 0.000000000000000e+00

0.000000000000000e+00 0.000000000000000e+00 0.000000000000000e+00
0.000000000000000e+00 0.000000000000000e+00 0.000000000000000e+00
0.000000000000000e+00 0.000000000000000e+00 0.000000000000000e+00

0.000000000000000e+00 0.000000000000000e+00 0.000000000000000e+00
0.000000000000000e+00 0.000000000000000e+00 0.000000000000000e+00
0.000000000000000e+00 0.000000000000000e+00 0.000000000000000e+00

0.000000000000000e+00 0.000000000000000e+00 0.000000000000000e+00
0.000000000000000e+00 0.000000000000000e+00 0.000000000000000e+00
0.000000000000000e+00 0.000000000000000e+00 0.000000000000000e+00

0.000000000000000e+00 0.000000000000000e+00 0.000000000000000e+00
0.000000000000000e+00 0.000000000000000e+00 0.000000000000000e+00
0.000000000000000e+00 0.000000000000000e+00 0.000000000000000e+00

0.000000000000000e+00 0.000000000000000e+00 0.000000000000000e+00
0.000000000000000e+00 0.000000000000000e+00 0.000000000000000e+00
0.000000000000000e+00 0.000000000000000e+00 0.000000000000000e+00

0.000000000000000e+00 0.000000000000000e+00 0.000000000000000e+00
0.000000000000000e+00 0.000000000000000e+00 0.000000000000000e+00
0.000000000000000e+00 0.000000000000000e+00 0.000000000000000e+00

0.000000000000000e+00 0.000000000000000e+00 0.000000000000000e+00
0.000000000000000e+00 0.000000000000000e+00 0.000000000000000e+00
0.000000000000000e+00 0.000000000000000e+00 0.000000000000000e+00

0.000000000000000e+00 0.000000000000000e+00 0.000000000000000e+00
0.000000000000000e+00 0.000000000000000e+00 0.000000000000000e+00
0.000000000000000e+00 0.000000000000000e+00 0.000000000000000e+00

0.000000000000000e+00 0.000000000000000e+00 0.000000000000000e+00
0.000000000000000e+00 0.000000000000000e+00 0.000000000000000e+00
0.000000000000000e+00 0.000000000000000e+00 0.000000000000000e+00

0.000000000000000e+00 0.000000000000000e+00 0.000000000000000e+00
0.000000000000000e+00 0.000000000000000e+00 0.000000000000000e+00
0.000000000000000e+00 0.000000000000000e+00 0.000000000000000e+00

0.000000000000000e+00 0.000000000000000e+00 0.000000000000000e+00
0.000000000000000e+00 0.000000000000000e+00 0.000000000000000e+00
0.000000000000000e+00 0.000000000000000e+00 0.000000000000000e+00

0.000000000000000e+00 0.000000000000000e+00 0.000000000000000e+00
0.000000000000000e+00 0.000000000000000e+00 0.000000000000000e+00
0.000000000000000e+00 0.000000000000000e+00 0.000000000000000e+00

0.000000000000000e+00 0.000000000000000e+00 0.000000000000000e+00
0.000000000000000e+00 0.000000000000000e+00 0.000000000000000e+00
0.000000000000000e+00 0.000000000000000e+00 0.000000000000000e+00

0.000000000000000e+00 0.000000000000000e+00 0.000000000000000e+00
0.000000000000000e+00 0.000000000000000e+00 0.000000000000000e+00
0.000000000000000e+00 0.000000000000000e+00 0.000000000000000e+00

0.000000000000000e+00 0.000000000000000e+00 0.000000000000000e+00
0.000000000000000e+00 0.000000000000000e+00 0.000000000000000e+00
0.000000000000000e+00 0.000000000000000e+00 0.000000000000000e+00

0.000000000000000e+00 0.000000000000000e+00 0.000000000000000e+00
0.000000000000000e+00 0.000000000000000e+00 0.000000000000000e+00
0.000000000000000e+00 0.000000000000000e+00 0.000000000000000e+00

0.000000000000000e+00 0.000000000000000e+00 0.000000000000000e+00
0.000000000000000e+00 0.000000000000000e+00 0.000000000000000e+00
0.000000000000000e+00 0.000000000000000e+00 0.000000000000000e+00

0.000000000000000e+00 0.000000000000000e+00 0.000000000000000e+00
0.000000000000000e+00 0.000000000000000e+00 0.000000000000000e+00
0.000000000000000e+00 0.000000000000000e+00 0.000000000000000e+00

0.000000000000000e+00 0.000000000000000e+00 0.000000000000000e+00
0.000000000000000e+00 0.000000000000000e+00 0.000000000000000e+00
0.000000000000000e+00 0.000000000000000e+00 0.000000000000000e+00

0.000000000000000e+00 0.000000000000000e+00 0.000000000000000e+00
0.000000000000000e+00 0.000000000000000e+00 0.000000000000000e+00
0.000000000000000e+00 0.000000000000000e+00 0.000000000000000e+00

0.000000000000000e+00 0.000000000000000e+00 0.000000000000000e+00
0.000000000000000e+00 0.000000000000000e+00 0.000000000000000e+00
0.000000000000000e+00 0.000000000000000e+00 0.000000000000000e+00

0.000000000000000e+00 0.000000000000000e+00 0.000000000000000e+00
0.000000000000000e+00 0.000000000000000e+00 0.000000000000000e+00
0.000000000000000e+00 0.000000000000000e+00 0.000000000000000e+00

0.000000000000000e+00 0.000000000000000e+00 0.000000000000000e+00
0.000000000000000e+00 0.000000000000000e+00 0.000000000000000e+00
0.000000000000000e+00 0.000000000000000e+00 0.000000000000000e+00

0.000000000000000e+00 0.000000000000000e+00 0.000000000000000e+00
0.000000000000000e+00 0.000000000000000e+00 0.000000000000000e+00
0.000000000000000e+00 0.000000000000000e+00 0.000000000000000e+00

0.000000000000000e+00 0.000000000000000e+00 0.000000000000000e+00
0.000000000000000e+00 0.000000000000000e+00 0.000000000000000e+00
0.000000000000000e+00 0.000000000000000e+00 0.000000000000000e+00

0.000000000000000e+00 0.000000000000000e+00 0.000000000000000e+00
0.000000000000000e+00 0.000000000000000e+00 0.000000000000000e+00
0.000000000000000e+00 0.000000000000000e+00 0.000000000000000e+00

0.000000000000000e+00 0.000000000000000e+00 0.000000000000000e+00
0.000000000000000e+00 0.000000000000000e+00 0.000000000000000e+00
0.000000000000000e+00 0.000000000000000e+00 0.000000000000000e+00

0.000000000000000e+00 0.000000000000000e+00 0.000000000000000e+00
0.000000000000000e+00 0.000000000000000e+00 0.000000000000000e+00
0.000000000000000e+00 0.000000000000000e+00 0.000000000000000e+00

0.000000000000000e+00 0.000000000000000e+00 0.000000000000000e+00
0.000000000000000e+00 0.000000000000000e+00 0.000000000000000e+00
0.000000000000000e+00 0.000000000000000e+00 0.000000000000000e+00

0.000000000000000e+00 0.000000000000000e+00 0.000000000000000e+00
0.000000000000000e+00 0.000000000000000e+00 0.000000000000000e+00
0.000000000000000e+00 0.000000000000000e+00 0.000000000000000e+00

0.000000000000000e+00 0.000000000000000e+00 0.000000000000000e+00
0.000000000000000e+00 0.000000000000000e+00 0.000000000000000e+00
0.000000000000000e+00 0.000000000000000e+00 0.000000000000000e+00

0.000000000000000e+00 0.000000000000000e+00 0.000000000000000e+00
0.000000000000000e+00 0.000000000000000e+00 0.000000000000000e+00
0.000000000000000e+00 0.000000000000000e+00 0.000000000000000e+00

0.000000000000000e+00 0.000000000000000e+00 0.000000000000000e+00
0.000000000000000e+00 0.000000000000000e+00 0.000000000000000e+00
0.000000000000000e+00 0.000000000000000e+00 0.000000000000000e+00

0.000000000000000e+00 0.000000000000000e+00 0.000000000000000e+00
0.000000000000000e+00 0.000000000000000e+00 0.000000000000000e+00
0.000000000000000e+00 0.000000000000000e+00 0.000000000000000e+00

0.000000000000000e+00 0.000000000000000e+00 0.000000000000000e+00
0.000000000000000e+00 0.000000000000000e+00 0.000000000000000e+00
0.000000000000000e+00 0.000000000000000e+00 0.000000000000000e+00

0.000000000000000e+00 0.000000000000000e+00 0.000000000000000e+00
0.000000000000000e+00 0.000000000000000e+00 0.000000000000000e+00
0.000000000000000e+00 0.000000000000000e+00 0.000000000000000e+00

0.000000000000000e+00 0.000000000000000e+00 0.000000000000000e+00
0.000000000000000e+00 0.000000000000000e+00 0.000000000000000e+00
0.000000000000000e+00 0.000000000000000e+00 0.000000000000000e+00

0.000000000000000e+00 0.000000000000000e+00 0.000000000000000e+00
0.000000000000000e+00 0.000000000000000e+00 0.000000000000000e+00
0.000000000000000e+00 0.000000000000000e+00 0.000000000000000e+00

0.000000000000000e+00 0.000000000000000e+00 0.000000000000000e+00
0.000000000000000e+00 0.000000000000000e+00 0.000000000000000e+00
0.000000000000000e+00 0.000000000000000e+00 0.000000000000000e+00

0.000000000000000e+00 0.000000000000000e+00 0.000000000000000e+00
0.000000000000000e+00 0.000000000000000e+00 0.000000000000000e+00
0.000000000000000e+00 0.000000000000000e+00 0.000000000000000e+00

0.000000000000000e+00 0.000000000000000e+00 0.000000000000000e+00
0.000000000000000e+00 0.000000000000000e+00 0.000000000000000e+00
0.000000000000000e+00 0.000000000000000e+00 0.000000000000000e+00

0.000000000000000e+00 0.000000000000000e+00 0.000000000000000e+00
0.000000000000000e+00 0.000000000000000e+00 0.000000000000000e+00
0.000000000000000e+00 0.000000000000000e+00 0.000000000000000e+00

0.000000000000000e+00 0.000000000000000e+00 0.000000000000000e+00
0.000000000000000e+00 0.000000000000000e+00 0.000000000000000e+00
0.000000000000000e+00 0.000000000000000e+00 0.000000000000000e+00

0.000000000000000e+00 0.000000000000000e+00 0.000000000000000e+00
0.000000000000000e+00 0.000000000000000e+00 0.000000000000000e+00
0.000000000000000e+00 0.000000000000000e+00 0.000000000000000e+00

0.000000000000000e+00 0.000000000000000e+00 0.000000000000000e+00
0.000000000000000e+00 0.000000000000000e+00 0.000000000000000e+00
0.000000000000000e+00 0.000000000000000e+00 0.000000000000000e+00

0.000000000000000e+00 0.000000000000000e+00 0.000000000000000e+00
0.000000000000000e+00 0.000000000000000e+00 0.000000000000000e+00
0.000000000000000e+00 0.000000000000000e+00 0.000000000000000e+00

0.000000000000000e+00 0.000000000000000e+00 0.000000000000000e+00
0.000000000000000e+00 0.000000000000000e+00 0.000000000000000e+00
0.000000000000000e+00 0.000000000000000e+00 0.000000000000000e+00

0.000000000000000e+00 0.000000000000000e+00 0.000000000000000e+00
0.000000000000000e+00 0.000000000000000e+00 0.000000000000000e+00
0.000000000000000e+00 0.000000000000000e+00 0.000000000000000e+00

0.000000000000000e+00 0.000000000000000e+00 0.000000000000000e+00
0.000000000000000e+00 0.000000000000000e+00 0.000000000000000e+00
0.000000000000000e+00 0.000000000000000e+00 0.000000000000000e+00

0.000000000000000e+00 0.000000000000000e+00 0.000000000000000e+00
0.000000000000000e+00 0.000000000000000e+00 0.000000000000000e+00
0.000000000000000e+00 0.000000000000000e+00 0.000000000000000e+00

0.000000000000000e+00 0.000000000000000e+00 0.000000000000000e+00
0.000000000000000e+00 0.000000000000000e+00 0.000000000000000e+00
0.000000000000000e+00 0.000000000000000e+00 0.000000000000000e+00

0.000000000000000e+00 0.000000000000000e+00 0.000000000000000e+00
0.000000000000000e+00 0.000000000000000e+00 0.000000000000000e+00
0.000000000000000e+00 0.000000000000000e+00 0.000000000000000e+00

0.000000000000000e+00 0.000000000000000e+00 0.000000000000000e+00
0.000000000000000e+00 0.000000000000000e+00 0.000000000000000e+00
0.000000000000000e+00 0.000000000000000e+00 0.000000000000000e+00

0.000000000000000e+00 0.000000000000000e+00 0.000000000000000e+00
0.000000000000000e+00 0.000000000000000e+00 0.000000000000000e+00
0.000000000000000e+00 0.000000000000000e+00 0.000000000000000e+00

0.000000000000000e+00 0.000000000000000e+00 0.000000000000000e+00
0.000000000000000e+00 0.000000000000000e+00 0.000000000000000e+00
0.000000000000000e+00 0.000000000000000e+00 0.000000000000000e+00

0.000000000000000e+00 0.000000000000000e+00 0.000000000000000e+00
0.000000000000000e+00 0.000000000000000e+00 0.000000000000000e+00
0.000000000000000e+00 0.000000000000000e+00 0.000000000000000e+00

0.000000000000000e+00 0.000000000000000e+00 0.000000000000000e+00
0.000000000000000e+00 0.000000000000000e+00 0.000000000000000e+00
0.000000000000000e+00 0.000000000000000e+00 0.000000000000000e+00

0.000000000000000e+00 0.000000000000000e+00 0.000000000000000e+00
0.000000000000000e+00 0.000000000000000e+00 0.000000000000000e+00
0.000000000000000e+00 0.000000000000000e+00 0.000000000000000e+00

0.000000000000000e+00 0.000000000000000e+00 0.000000000000000e+00
0.000000000000000e+00 0.000000000000000e+00 0.000000000000000e+00
0.000000000000000e+00 0.000000000000000e+00 0.000000000000000e+00

0.000000000000000e+00 0.000000000000000e+00 0.000000000000000e+00
0.000000000000000e+00 0.000000000000000e+00 0.000000000000000e+00
0.000000000000000e+00 0.000000000000000e+00 0.000000000000000e+00

0.000000000000000e+00 0.000000000000000e+00 0.000000000000000e+00
0.000000000000000e+00 0.000000000000000e+00 0.000000000000000e+00
0.000000000000000e+00 0.000000000000000e+00 0.000000000000000e+00

0.000000000000000e+00 0.000000000000000e+00 0.000000000000000e+00
0.000000000000000e+00 0.000000000000000e+00 0.000000000000000e+00
0.000000000000000e+00 0.000000000000000e+00 0.000000000000000e+00

0.000000000000000e+00 0.000000000000000e+00 0.000000000000000e+00
0.000000000000000e+00 0.000000000000000e+00 0.000000000000000e+00
0.000000000000000e+00 0.000000000000000e+00 0.000000000000000e+00

0.000000000000000e+00 0.000000000000000e+00 0.000000000000000e+00
0.000000000000000e+00 0.000000000000000e+00 0.000000000000000e+00
0.000000000000000e+00 0.000000000000000e+00 0.000000000000000e+00

0.000000000000000e+00 0.000000000000000e+00 0.000000000000000e+00
0.000000000000000e+00 0.000000000000000e+00 0.000000000000000e+00
0.000000000000000e+00 0.000000000000000e+00 0.000000000000000e+00

0.000000000000000e+00 0.000000000000000e+00 0.000000000000000e+00
0.000000000000000e+00 0.000000000000000e+00 0.000000000000000e+00
0.000000000000000e+00 0.000000000000000e+00 0.000000000000000e+00

0.000000000000000e+00 0.000000000000000e+00 0.000000000000000e+00
0.000000000000000e+00 0.000000000000000e+00 0.000000000000000e+00
0.000000000000000e+00 0.000000000000000e+00 0.000000000000000e+00

0.000000000000000e+00 0.000000000000000e+00 0.000000000000000e+00
0.000000000000000e+00 0.000000000000000e+00 0.000000000000000e+00
0.000000000000000e+00 0.000000000000000e+00 0.000000000000000e+00

0.000000000000000e+00 0.000000000000000e+00 0.000000000000000e+00
0.000000000000000e+00 0.000000000000000e+00 0.000000000000000e+00
0.000000000000000e+00 0.000000000000000e+00 0.000000000000000e+00

0.000000000000000e+00 0.000000000000000e+00 0.000000000000000e+00
0.000000000000000e+00 0.000000000000000e+00 0.000000000000000e+00
0.000000000000000e+00 0.000000000000000e+00 0.000000000000000e+00

0.000000000000000e+00 0.000000000000000e+00 0.000000000000000e+00
0.000000000000000e+00 0.000000000000000e+00 0.000000000000000e+00
0.000000000000000e+00 0.000000000000000e+00 0.000000000000000e+00

0.000000000000000e+00 0.000000000000000e+00 0.000000000000000e+00
0.000000000000000e+00 0.000000000000000e+00 0.000000000000000e+00
0.000000000000000e+00 0.000000000000000e+00 0.000000000000000e+00

0.000000000000000e+00 0.000000000000000e+00 0.000000000000000e+00
0.000000000000000e+00 0.000000000000000e+00 0.000000000000000e+00
0.000000000000000e+00 0.000000000000000e+00 0.000000000000000e+00

0.000000000000000e+00 0.000000000000000e+00 0.000000000000000e+00
0.000000000000000e+00 0.000000000000000e+00 0.000000000000000e+00
0.000000000000000e+00 0.000000000000000e+00 0.000000000000000e+00

0.000000000000000e+00 0.000000000000000e+00 0.000000000000000e+00
0.000000000000000e+00 0.000000000000000e+00 0.000000000000000e+00
0.000000000000000e+00 0.000000000000000e+00 0.000000000000000e+00

0.000000000000000e+00 0.000000000000000e+00 0.000000000000000e+00
0.000000000000000e+00 0.000000000000000e+00 0.000000000000000e+00
0.000000000000000e+00 0.000000000000000e+00 0.000000000000000e+00

0.000000000000000e+00 0.000000000000000e+00 0.000000000000000e+00
0.000000000000000e+00 0.000000000000000e+00 0.000000000000000e+00
0.000000000000000e+00 0.000000000000000e+00 0.000000000000000e+00

0.000000000000000e+00 0.000000000000000e+00 0.000000000000000e+00
0.000000000000000e+00 0.000000000000000e+00 0.000000000000000e+00
0.000000000000000e+00 0.000000000000000e+00 0.000000000000000e+00

0.000000000000000e+00 0.000000000000000e+00 0.000000000000000e+00
0.000000000000000e+00 0.000000000000000e+00 0.000000000000000e+00
0.000000000000000e+00 0.000000000000000e+00 0.000000000000000e+00

0.000000000000000e+00 0.000000000000000e+00 0.000000000000000e+00
0.000000000000000e+00 0.000000000000000e+00 0.000000000000000e+00
0.000000000000000e+00 0.000000000000000e+00 0.000000000000000e+00

0.000000000000000e+00 0.000000000000000e+00 0.000000000000000e+00
0.000000000000000e+00 0.000000000000000e+00 0.000000000000000e+00
0.000000000000000e+00 0.000000000000000e+00 0.000000000000000e+00

0.000000000000000e+00 0.000000000000000e+00 0.000000000000000e+00
0.000000000000000e+00 0.000000000000000e+00 0.000000000000000e+00
0.000000000000000e+00 0.000000000000000e+00 0.000000000000000e+00

0.000000000000000e+00 0.000000000000000e+00 0.000000000000000e+00
0.000000000000000e+00 0.000000000000000e+00 0.000000000000000e+00
0.000000000000000e+00 0.000000000000000e+00 0.000000000000000e+00

0.000000000000000e+00 0.000000000000000e+00 0.000000000000000e+00
0.000000000000000e+00 0.000000000000000e+00 0.000000000000000e+00
0.000000000000000e+00 0.000000000000000e+00 0.000000000000000e+00

0.000000000000000e+00 0.000000000000000e+00 0.000000000000000e+00
0.000000000000000e+00 0.000000000000000e+00 0.000000000000000e+00
0.000000000000000e+00 0.000000000000000e+00 0.000000000000000e+00

0.000000000000000e+00 0.000000000000000e+00 0.000000000000000e+00
0.000000000000000e+00 0.000000000000000e+00 0.000000000000000e+00
0.000000000000000e+00 0.000000000000000e+00 0.000000000000000e+00

0.000000000000000e+00 0.000000000000000e+00 0.000000000000000e+00
0.000000000000000e+00 0.000000000000000e+00 0.000000000000000e+00
0.000000000000000e+00 0.000000000000000e+00 0.000000000000000e+00

0.000000000000000e+00 0.000000000000000e+00 0.000000000000000e+00
0.000000000000000e+00 0.000000000000000e+00 0.000000000000000e+00
0.000000000000000e+00 0.000000000000000e+00 0.000000000000000e+00

0.000000000000000e+00 0.000000000000000e+00 0.000000000000000e+00
0.000000000000000e+00 0.000000000000000e+00 0.000000000000000e+00
0.000000000000000e+00 0.000000000000000e+00 0.000000000000000e+00

0.000000000000000e+00 0.000000000000000e+00 0.000000000000000e+00
0.000000000000000e+00 0.000000000000000e+00 0.000000000000000e+00
0.000000000000000e+00 0.000000000000000e+00 0.000000000000000e+00

0.000000000000000e+00 0.000000000000000e+00 0.000000000000000e+00
0.000000000000000e+00 0.000000000000000e+00 0.000000000000000e+00
0.000000000000000e+00 0.000000000000000e+00 0.000000000000000e+00

0.000000000000000e+00 0.000000000000000e+00 0.000000000000000e+00
0.000000000000000e+00 0.000000000000000e+00 0.000000000000000e+00
0.000000000000000e+00 0.000000000000000e+00 0.000000000000000e+00

0.000000000000000e+00 0.000000000000000e+00 0.000000000000000e+00
0.000000000000000e+00 0.000000000000000e+00 0.000000000000000e+00
0.000000000000000e+00 0.000000000000000e+00 0.000000000000000e+00

0.000000000000000e+00 0.000000000000000e+00 0.000000000000000e+00
0.000000000000000e+00 0.000000000000000e+00 0.000000000000000e+00
0.000000000000000e+00 0.000000000000000e+00 0.000000000000000e+00

0.000000000000000e+00 0.000000000000000e+00 0.000000000000000e+00
0.000000000000000e+00 0.000000000000000e+00 0.000000000000000e+00
0.000000000000000e+00 0.000000000000000e+00 0.000000000000000e+00

0.000000000000000e+00 0.000000000000000e+00 0.000000000000000e+00
0.000000000000000e+00 0.000000000000000e+00 0.000000000000000e+00
0.000000000000000e+00 0.000000000000000e+00 0.000000000000000e+00

0.000000000000000e+00 0.000000000000000e+00 0.000000000000000e+00
0.000000000000000e+00 0.000000000000000e+00 0.000000000000000e+00
0.000000000000000e+00 0.000000000000000e+00 0.000000000000000e+00

0.000000000000000e+00 0.000000000000000e+00 0.000000000000000e+00
0.000000000000000e+00 0.000000000000000e+00 0.000000000000000e+00
0.000000000000000e+00 0.000000000000000e+00 0.000000000000000e+00

0.000000000000000e+00 0.000000000000000e+00 0.000000000000000e+00
0.000000000000000e+00 0.000000000000000e+00 0.000000000000000e+00
0.000000000000000e+00 0.000000000000000e+00 0.000000000000000e+00

0.000000000000000e+00 0.000000000000000e+00 0.000000000000000e+00
0.000000000000000e+00 0.000000000000000e+00 0.000000000000000e+00
0.000000000000000e+00 0.000000000000000e+00 0.000000000000000e+00

0.000000000000000e+00 0.000000000000000e+00 0.000000000000000e+00
0.000000000000000e+00 0.000000000000000e+00 0.000000000000000e+00
0.000000000000000e+00 0.000000000000000e+00 0.000000000000000e+00

0.000000000000000e+00 0.000000000000000e+00 0.000000000000000e+00
0.000000000000000e+00 0.000000000000000e+00 0.000000000000000e+00
0.000000000000000e+00 0.000000000000000e+00 0.000000000000000e+00

0.000000000000000e+00 0.000000000000000e+00 0.000000000000000e+00
0.000000000000000e+00 0.000000000000000e+00 0.000000000000000e+00
0.000000000000000e+00 0.000000000000000e+00 0.000000000000000e+00

0.000000000000000e+00 0.000000000000000e+00 0.000000000000000e+00
0.000000000000000e+00 0.000000000000000e+00 0.000000000000000e+00
0.000000000000000e+00 0.000000000000000e+00 0.000000000000000e+00

0.000000000000000e+00 0.000000000000000e+00 0.000000000000000e+00
0.000000000000000e+00 0.000000000000000e+00 0.000000000000000e+00
0.000000000000000e+00 0.000000000000000e+00 0.000000000000000e+00

0.000000000000000e+00 0.000000000000000e+00 0.000000000000000e+00
0.000000000000000e+00 0.000000000000000e+00 0.000000000000000e+00
0.000000000000000e+00 0.000000000000000e+00 0.000000000000000e+00

0.000000000000000e+00 0.000000000000000e+00 0.000000000000000e+00
0.000000000000000e+00 0.000000000000000e+00 0.000000000000000e+00
0.000000000000000e+00 0.000000000000000e+00 0.000000000000000e+00

0.000000000000000e+00 0.000000000000000e+00 0.000000000000000e+00
0.000000000000000e+00 0.000000000000000e+00 0.000000000000000e+00
0.000000000000000e+00 0.000000000000000e+00 0.000000000000000e+00

0.000000000000000e+00 0.000000000000000e+00 0.000000000000000e+00
0.000000000000000e+00 0.000000000000000e+00 0.000000000000000e+00
0.000000000000000e+00 0.000000000000000e+00 0.000000000000000e+00

0.000000000000000e+00 0.000000000000000e+00 0.000000000000000e+00
0.000000000000000e+00 0.000000000000000e+00 0.000000000000000e+00
0.000000000000000e+00 0.000000000000000e+00 0.000000000000000e+00

0.000000000000000e+00 0.000000000000000e+00 0.000000000000000e+00
0.000000000000000e+00 0.000000000000000e+00 0.000000000000000e+00
0.000000000000000e+00 0.000000000000000e+00 0.000000000000000e+00

0.000000000000000e+00 0.000000000000000e+00 0.000000000000000e+00
0.000000000000000e+00 0.000000000000000e+00 0.000000000000000e+00
0.000000000000000e+00 0.000000000000000e+00 0.000000000000000e+00

0.000000000000000e+00 0.000000000000000e+00 0.000000000000000e+00
0.000000000000000e+00 0.000000000000000e+00 0.000000000000000e+00
0.000000000000000e+00 0.000000000000000e+00 0.000000000000000e+00

0.000000000000000e+00 0.000000000000000e+00 0.000000000000000e+00
0.000000000000000e+00 0.000000000000000e+00 0.000000000000000e+00
0.000000000000000e+00 0.000000000000000e+00 0.000000000000000e+00

0.000000000000000e+00 0.000000000000000e+00 0.000000000000000e+00
0.000000000000000e+00 0.000000000000000e+00 0.000000000000000e+00
0.000000000000000e+00 0.000000000000000e+00 0.000000000000000e+00

0.000000000000000e+00 0.000000000000000e+00 0.000000000000000e+00
0.000000000000000e+00 0.000000000000000e+00 0.000000000000000e+00
0.000000000000000e+00 0.000000000000000e+00 0.000000000000000e+00

0.000000000000000e+00 0.000000000000000e+00 0.000000000000000e+00
0.000000000000000e+00 0.000000000000000e+00 0.000000000000000e+00
0.000000000000000e+00 0.000000000000000e+00 0.000000000000000e+00

0.000000000000000e+00 0.000000000000000e+00 0.000000000000000e+00
0.000000000000000e+00 0.000000000000000e+00 0.000000000000000e+00
0.000000000000000e+00 0.000000000000000e+00 0.000000000000000e+00

0.000000000000000e+00 0.000000000000000e+00 0.000000000000000e+00
0.000000000000000e+00 0.000000000000000e+00 0.000000000000000e+00
0.000000000000000e+00 0.000000000000000e+00 0.000000000000000e+00

0.000000000000000e+00 0.000000000000000e+00 0.000000000000000e+00
0.000000000000000e+00 0.000000000000000e+00 0.000000000000000e+00
0.000000000000000e+00 0.000000000000000e+00 0.000000000000000e+00

0.000000000000000e+00 0.000000000000000e+00 0.000000000000000e+00
0.000000000000000e+00 0.000000000000000e+00 0.000000000000000e+00
0.000000000000000e+00 0.000000000000000e+00 0.000000000000000e+00

0.000000000000000e+00 0.000000000000000e+00 0.000000000000000e+00
0.000000000000000e+00 0.000000000000000e+00 0.000000000000000e+00
0.000000000000000e+00 0.000000000000000e+00 0.000000000000000e+00

0.000000000000000e+00 0.000000000000000e+00 0.000000000000000e+00
0.000000000000000e+00 0.000000000000000e+00 0.000000000000000e+00
0.000000000000000e+00 0.000000000000000e+00 0.000000000000000e+00

0.000000000000000e+00 0.000000000000000e+00 0.000000000000000e+00
0.000000000000000e+00 0.000000000000000e+00 0.000000000000000e+00
0.000000000000000e+00 0.000000000000000e+00 0.000000000000000e+00

0.000000000000000e+00 0.000000000000000e+00 0.000000000000000e+00
0.000000000000000e+00 0.000000000000000e+00 0.000000000000000e+00
0.000000000000000e+00 0.000000000000000e+00 0.000000000000000e+00

0.000000000000000e+00 0.000000000000000e+00 0.000000000000000e+00
0.000000000000000e+00 0.000000000000000e+00 0.000000000000000e+00
0.000000000000000e+00 0.000000000000000e+00 0.000000000000000e+00

0.000000000000000e+00 0.000000000000000e+00 0.000000000000000e+00
0.000000000000000e+00 0.000000000000000e+00 0.000000000000000e+00
0.000000000000000e+00 0.000000000000000e+00 0.000000000000000e+00

0.000000000000000e+00 0.000000000000000e+00 0.000000000000000e+00
0.000000000000000e+00 0.000000000000000e+00 0.000000000000000e+00
0.000000000000000e+00 0.000000000000000e+00 0.000000000000000e+00

0.000000000000000e+00 0.000000000000000e+00 0.000000000000000e+00
0.000000000000000e+00 0.000000000000000e+00 0.000000000000000e+00
0.000000000000000e+00 0.000000000000000e+00 0.000000000000000e+00

0.000000000000000e+00 0.000000000000000e+00 0.000000000000000e+00
0.000000000000000e+00 0.000000000000000e+00 0.000000000000000e+00
0.000000000000000e+00 0.000000000000000e+00 0.000000000000000e+00

0.000000000000000e+00 0.000000000000000e+00 0.000000000000000e+00
0.000000000000000e+00 0.000000000000000e+00 0.000000000000000e+00
0.000000000000000e+00 0.000000000000000e+00 0.000000000000000e+00

0.000000000000000e+00 0.000000000000000e+00 0.000000000000000e+00
0.000000000000000e+00 0.000000000000000e+00 0.000000000000000e+00
0.000000000000000e+00 0.000000000000000e+00 0.000000000000000e+00

0.000000000000000e+00 0.000000000000000e+00 0.000000000000000e+00
0.000000000000000e+00 0.000000000000000e+00 0.000000000000000e+00
0.000000000000000e+00 0.000000000000000e+00 0.000000000000000e+00

0.000000000000000e+00 0.000000000000000e+00 0.000000000000000e+00
0.000000000000000e+00 0.000000000000000e+00 0.000000000000000e+00
0.000000000000000e+00 0.000000000000000e+00 0.000000000000000e+00

0.000000000000000e+00 0.000000000000000e+00 0.000000000000000e+00
0.000000000000000e+00 0.000000000000000e+00 0.000000000000000e+00
0.000000000000000e+00 0.000000000000000e+00 0.000000000000000e+00

0.000000000000000e+00 0.000000000000000e+00 0.000000000000000e+00
0.000000000000000e+00 0.000000000000000e+00 0.000000000000000e+00
0.000000000000000e+00 0.000000000000000e+00 0.000000000000000e+00

0.000000000000000e+00 0.000000000000000e+00 0.000000000000000e+00
0.000000000000000e+00 0.000000000000000e+00 0.000000000000000e+00
0.000000000000000e+00 0.000000000000000e+00 0.000000000000000e+00

0.000000000000000e+00 0.000000000000000e+00 0.000000000000000e+00
0.000000000000000e+00 0.000000000000000e+00 0.000000000000000e+00
0.000000000000000e+00 0.000000000000000e+00 0.000000000000000e+00

0.000000000000000e+00 0.000000000000000e+00 0.000000000000000e+00
0.000000000000000e+00 0.000000000000000e+00 0.000000000000000e+00
0.000000000000000e+00 0.000000000000000e+00 0.000000000000000e+00

0.000000000000000e+00 0.000000000000000e+00 0.000000000000000e+00
0.000000000000000e+00 0.000000000000000e+00 0.000000000000000e+00
0.000000000000000e+00 0.000000000000000e+00 0.000000000000000e+00

0.000000000000000e+00 0.000000000000000e+00 0.000000000000000e+00
0.000000000000000e+00 0.000000000000000e+00 0.000000000000000e+00
0.000000000000000e+00 0.000000000000000e+00 0.000000000000000e+00

0.000000000000000e+00 0.000000000000000e+00 0.000000000000000e+00
0.000000000000000e+00 0.000000000000000e+00 0.000000000000000e+00
0.000000000000000e+00 0.000000000000000e+00 0.000000000000000e+00

0.000000000000000e+00 0.000000000000000e+00 0.000000000000000e+00
0.000000000000000e+00 0.000000000000000e+00 0.000000000000000e+00
0.000000000000000e+00 0.000000000000000e+00 0.000000000000000e+00

0.000000000000000e+00 0.000000000000000e+00 0.000000000000000e+00
0.000000000000000e+00 0.000000000000000e+00 0.000000000000000e+00
0.000000000000000e+00 0.000000000000000e+00 0.000000000000000e+00

0.000000000000000e+00 0.000000000000000e+00 0.000000000000000e+00
0.000000000000000e+00 0.000000000000000e+00 0.000000000000000e+00
0.000000000000000e+00 0.000000000000000e+00 0.000000000000000e+00

0.000000000000000e+00 0.000000000000000e+00 0.000000000000000e+00
0.000000000000000e+00 0.000000000000000e+00 0.000000000000000e+00
0.000000000000000e+00 0.000000000000000e+00 0.000000000000000e+00

0.000000000000000e+00 0.000000000000000e+00 0.000000000000000e+00
0.000000000000000e+00 0.000000000000000e+00 0.000000000000000e+00
0.000000000000000e+00 0.000000000000000e+00 0.000000000000000e+00

0.000000000000000e+00 0.000000000000000e+00 0.000000000000000e+00
0.000000000000000e+00 0.000000000000000e+00 0.000000000000000e+00
0.000000000000000e+00 0.000000000000000e+00 0.000000000000000e+00

0.000000000000000e+00 0.000000000000000e+00 0.000000000000000e+00
0.000000000000000e+00 0.000000000000000e+00 0.000000000000000e+00
0.000000000000000e+00 0.000000000000000e+00 0.000000000000000e+00

0.000000000000000e+00 0.000000000000000e+00 0.000000000000000e+00
0.000000000000000e+00 0.000000000000000e+00 0.000000000000000e+00
0.000000000000000e+00 0.000000000000000e+00 0.000000000000000e+00

0.000000000000000e+00 0.000000000000000e+00 0.000000000000000e+00
0.000000000000000e+00 0.000000000000000e+00 0.000000000000000e+00
0.000000000000000e+00 0.000000000000000e+00 0.000000000000000e+00

0.000000000000000e+00 0.000000000000000e+00 0.000000000000000e+00
0.000000000000000e+00 0.000000000000000e+00 0.000000000000000e+00
0.000000000000000e+00 0.000000000000000e+00 0.000000000000000e+00

0.000000000000000e+00 0.000000000000000e+00 0.000000000000000e+00
0.000000000000000e+00 0.000000000000000e+00 0.000000000000000e+00
0.000000000000000e+00 0.000000000000000e+00 0.000000000000000e+00

0.000000000000000e+00 0.000000000000000e+00 0.000000000000000e+00
0.000000000000000e+00 0.000000000000000e+00 0.000000000000000e+00
0.000000000000000e+00 0.000000000000000e+00 0.000000000000000e+00

0.000000000000000e+00 0.000000000000000e+00 0.000000000000000e+00
0.000000000000000e+00 0.000000000000000e+00 0.000000000000000e+00
0.000000000000000e+00 0.000000000000000e+00 0.000000000000000e+00

0.000000000000000e+00 0.000000000000000e+00 0.000000000000000e+00
0.000000000000000e+00 0.000000000000000e+00 0.000000000000000e+00
0.000000000000000e+00 0.000000000000000e+00 0.000000000000000e+00

0.000000000000000e+00 0.000000000000000e+00 0.000000000000000e+00
0.000000000000000e+00 0.000000000000000e+00 0.000000000000000e+00
0.000000000000000e+00 0.000000000000000e+00 0.000000000000000e+00

0.000000000000000e+00 0.000000000000000e+00 0.000000000000000e+00
0.000000000000000e+00 0.000000000000000e+00 0.000000000000000e+00
0.000000000000000e+00 0.000000000000000e+00 0.000000000000000e+00

0.000000000000000e+00 0.000000000000000e+00 0.000000000000000e+00
0.000000000000000e+00 0.000000000000000e+00 0.000000000000000e+00
0.000000000000000e+00 0.000000000000000e+00 0.000000000000000e+00

0.000000000000000e+00 0.000000000000000e+00 0.000000000000000e+00
0.000000000000000e+00 0.000000000000000e+00 0.000000000000000e+00
0.000000000000000e+00 0.000000000000000e+00 0.000000000000000e+00

0.000000000000000e+00 0.000000000000000e+00 0.000000000000000e+00
0.000000000000000e+00 0.000000000000000e+00 0.000000000000000e+00
0.000000000000000e+00 0.000000000000000e+00 0.000000000000000e+00

0.000000000000000e+00 0.000000000000000e+00 0.000000000000000e+00
0.000000000000000e+00 0.000000000000000e+00 0.000000000000000e+00
0.000000000000000e+00 0.000000000000000e+00 0.000000000000000e+00

0.000000000000000e+00 0.000000000000000e+00 0.000000000000000e+00
0.000000000000000e+00 0.000000000000000e+00 0.000000000000000e+00
0.000000000000000e+00 0.000000000000000e+00 0.000000000000000e+00

0.000000000000000e+00 0.000000000000000e+00 0.000000000000000e+00
0.000000000000000e+00 0.000000000000000e+00 0.000000000000000e+00
0.000000000000000e+00 0.000000000000000e+00 0.000000000000000e+00

0.000000000000000e+00 0.000000000000000e+00 0.000000000000000e+00
0.000000000000000e+00 0.000000000000000e+00 0.000000000000000e+00
0.000000000000000e+00 0.000000000000000e+00 0.000000000000000e+00

0.000000000000000e+00 0.000000000000000e+00 0.000000000000000e+00
0.000000000000000e+00 0.000000000000000e+00 0.000000000000000e+00
0.000000000000000e+00 0.000000000000000e+00 0.000000000000000e+00

0.000000000000000e+00 0.000000000000000e+00 0.000000000000000e+00
0.000000000000000e+00 0.000000000000000e+00 0.000000000000000e+00
0.000000000000000e+00 0.000000000000000e+00 0.000000000000000e+00

0.000000000000000e+00 0.000000000000000e+00 0.000000000000000e+00
0.000000000000000e+00 0.000000000000000e+00 0.000000000000000e+00
0.000000000000000e+00 0.000000000000000e+00 0.000000000000000e+00

0.000000000000000e+00 0.000000000000000e+00 0.000000000000000e+00
0.000000000000000e+00 0.000000000000000e+00 0.000000000000000e+00
0.000000000000000e+00 0.000000000000000e+00 0.000000000000000e+00

0.000000000000000e+00 0.000000000000000e+00 0.000000000000000e+00
0.000000000000000e+00 0.000000000000000e+00 0.000000000000000e+00
0.000000000000000e+00 0.000000000000000e+00 0.000000000000000e+00

0.000000000000000e+00 0.000000000000000e+00 0.000000000000000e+00
0.000000000000000e+00 0.000000000000000e+00 0.000000000000000e+00
0.000000000000000e+00 0.000000000000000e+00 0.000000000000000e+00

0.000000000000000e+00 0.000000000000000e+00 0.000000000000000e+00
0.000000000000000e+00 0.000000000000000e+00 0.000000000000000e+00
0.000000000000000e+00 0.000000000000000e+00 0.000000000000000e+00

0.000000000000000e+00 0.000000000000000e+00 0.000000000000000e+00
0.000000000000000e+00 0.000000000000000e+00 0.000000000000000e+00
0.000000000000000e+00 0.000000000000000e+00 0.000000000000000e+00

0.000000000000000e+00 0.000000000000000e+00 0.000000000000000e+00
0.000000000000000e+00 0.000000000000000e+00 0.000000000000000e+00
0.000000000000000e+00 0.000000000000000e+00 0.000000000000000e+00

0.000000000000000e+00 0.000000000000000e+00 0.000000000000000e+00
0.000000000000000e+00 0.000000000000000e+00 0.000000000000000e+00
0.000000000000000e+00 0.000000000000000e+00 0.000000000000000e+00

0.000000000000000e+00 0.000000000000000e+00 0.000000000000000e+00
0.000000000000000e+00 0.000000000000000e+00 0.000000000000000e+00
0.000000000000000e+00 0.000000000000000e+00 0.000000000000000e+00

0.000000000000000e+00 0.000000000000000e+00 0.000000000000000e+00
0.000000000000000e+00 0.000000000000000e+00 0.000000000000000e+00
0.000000000000000e+00 0.000000000000000e+00 0.000000000000000e+00

0.000000000000000e+00 0.000000000000000e+00 0.000000000000000e+00
0.000000000000000e+00 0.000000000000000e+00 0.000000000000000e+00
0.000000000000000e+00 0.000000000000000e+00 0.000000000000000e+00

0.000000000000000e+00 0.000000000000000e+00 0.000000000000000e+00
0.000000000000000e+00 0.000000000000000e+00 0.000000000000000e+00
0.000000000000000e+00 0.000000000000000e+00 0.000000000000000e+00

0.000000000000000e+00 0.000000000000000e+00 0.000000000000000e+00
0.000000000000000e+00 0.000000000000000e+00 0.000000000000000e+00
0.000000000000000e+00 0.000000000000000e+00 0.000000000000000e+00

0.000000000000000e+00 0.000000000000000e+00 0.000000000000000e+00
0.000000000000000e+00 0.000000000000000e+00 0.000000000000000e+00
0.000000000000000e+00 0.000000000000000e+00 0.000000000000000e+00

0.000000000000000e+00 0.000000000000000e+00 0.000000000000000e+00
0.000000000000000e+00 0.000000000000000e+00 0.000000000000000e+00
0.000000000000000e+00 0.000000000000000e+00 0.000000000000000e+00

0.000000000000000e+00 0.000000000000000e+00 0.000000000000000e+00
0.000000000000000e+00 0.000000000000000e+00 0.000000000000000e+00
0.000000000000000e+00 0.000000000000000e+00 0.000000000000000e+00

0.000000000000000e+00 0.000000000000000e+00 0.000000000000000e+00
0.000000000000000e+00 0.000000000000000e+00 0.000000000000000e+00
0.000000000000000e+00 0.000000000000000e+00 0.000000000000000e+00

0.000000000000000e+00 0.000000000000000e+00 0.000000000000000e+00
0.000000000000000e+00 0.000000000000000e+00 0.000000000000000e+00
0.000000000000000e+00 0.000000000000000e+00 0.000000000000000e+00

0.000000000000000e+00 0.000000000000000e+00 0.000000000000000e+00
0.000000000000000e+00 0.000000000000000e+00 0.000000000000000e+00
0.000000000000000e+00 0.000000000000000e+00 0.000000000000000e+00

0.000000000000000e+00 0.000000000000000e+00 0.000000000000000e+00
0.000000000000000e+00 0.000000000000000e+00 0.000000000000000e+00
0.000000000000000e+00 0.000000000000000e+00 0.000000000000000e+00

0.000000000000000e+00 0.000000000000000e+00 0.000000000000000e+00
0.000000000000000e+00 0.000000000000000e+00 0.000000000000000e+00
0.000000000000000e+00 0.000000000000000e+00 0.000000000000000e+00

0.000000000000000e+00 0.000000000000000e+00 0.000000000000000e+00
0.000000000000000e+00 0.000000000000000e+00 0.000000000000000e+00
0.000000000000000e+00 0.000000000000000e+00 0.000000000000000e+00

0.000000000000000e+00 0.000000000000000e+00 0.000000000000000e+00
0.000000000000000e+00 0.000000000000000e+00 0.000000000000000e+00
0.000000000000000e+00 0.000000000000000e+00 0.000000000000000e+00

0.000000000000000e+00 0.000000000000000e+00 0.000000000000000e+00
0.000000000000000e+00 0.000000000000000e+00 0.000000000000000e+00
0.000000000000000e+00 0.000000000000000e+00 0.000000000000000e+00

0.000000000000000e+00 0.000000000000000e+00 0.000000000000000e+00
0.000000000000000e+00 0.000000000000000e+00 0.000000000000000e+00
0.000000000000000e+00 0.000000000000000e+00 0.000000000000000e+00

0.000000000000000e+00 0.000000000000000e+00 0.000000000000000e+00
0.000000000000000e+00 0.000000000000000e+00 0.000000000000000e+00
0.000000000000000e+00 0.000000000000000e+00 0.000000000000000e+00

0.000000000000000e+00 0.000000000000000e+00 0.000000000000000e+00
0.000000000000000e+00 0.000000000000000e+00 0.000000000000000e+00
0.000000000000000e+00 0.000000000000000e+00 0.000000000000000e+00

0.000000000000000e+00 0.000000000000000e+00 0.000000000000000e+00
0.000000000000000e+00 0.000000000000000e+00 0.000000000000000e+00
0.000000000000000e+00 0.000000000000000e+00 0.000000000000000e+00

0.000000000000000e+00 0.000000000000000e+00 0.000000000000000e+00
0.000000000000000e+00 0.000000000000000e+00 0.000000000000000e+00
0.000000000000000e+00 0.000000000000000e+00 0.000000000000000e+00

0.000000000000000e+00 0.000000000000000e+00 0.000000000000000e+00
0.000000000000000e+00 0.000000000000000e+00 0.000000000000000e+00
0.000000000000000e+00 0.000000000000000e+00 0.000000000000000e+00

0.000000000000000e+00 0.000000000000000e+00 0.000000000000000e+00
0.000000000000000e+00 0.000000000000000e+00 0.000000000000000e+00
0.000000000000000e+00 0.000000000000000e+00 0.000000000000000e+00

0.000000000000000e+00 0.000000000000000e+00 0.000000000000000e+00
0.000000000000000e+00 0.000000000000000e+00 0.000000000000000e+00
0.000000000000000e+00 0.000000000000000e+00 0.000000000000000e+00

0.000000000000000e+00 0.000000000000000e+00 0.000000000000000e+00
0.000000000000000e+00 0.000000000000000e+00 0.000000000000000e+00
0.000000000000000e+00 0.000000000000000e+00 0.000000000000000e+00

0.000000000000000e+00 0.000000000000000e+00 0.000000000000000e+00
0.000000000000000e+00 0.000000000000000e+00 0.000000000000000e+00
0.000000000000000e+00 0.000000000000000e+00 0.000000000000000e+00

0.000000000000000e+00 0.000000000000000e+00 0.000000000000000e+00
0.000000000000000e+00 0.000000000000000e+00 0.000000000000000e+00
0.000000000000000e+00 0.000000000000000e+00 0.000000000000000e+00

0.000000000000000e+00 0.000000000000000e+00 0.000000000000000e+00
0.000000000000000e+00 0.000000000000000e+00 0.000000000000000e+00
0.000000000000000e+00 0.000000000000000e+00 0.000000000000000e+00

0.000000000000000e+00 0.000000000000000e+00 0.000000000000000e+00
0.000000000000000e+00 0.000000000000000e+00 0.000000000000000e+00
0.000000000000000e+00 0.000000000000000e+00 0.000000000000000e+00

0.000000000000000e+00 0.000000000000000e+00 0.000000000000000e+00
0.000000000000000e+00 0.000000000000000e+00 0.000000000000000e+00
0.000000000000000e+00 0.000000000000000e+00 0.000000000000000e+00

0.000000000000000e+00 0.000000000000000e+00 0.000000000000000e+00
0.000000000000000e+00 0.000000000000000e+00 0.000000000000000e+00
0.000000000000000e+00 0.000000000000000e+00 0.000000000000000e+00

0.000000000000000e+00 0.000000000000000e+00 0.000000000000000e+00
0.000000000000000e+00 0.000000000000000e+00 0.000000000000000e+00
0.000000000000000e+00 0.000000000000000e+00 0.000000000000000e+00

0.000000000000000e+00 0.000000000000000e+00 0.000000000000000e+00
0.000000000000000e+00 0.000000000000000e+00 0.000000000000000e+00
0.000000000000000e+00 0.000000000000000e+00 0.000000000000000e+00

0.000000000000000e+00 0.000000000000000e+00 0.000000000000000e+00
0.000000000000000e+00 0.000000000000000e+00 0.000000000000000e+00
0.000000000000000e+00 0.000000000000000e+00 0.000000000000000e+00

0.000000000000000e+00 0.000000000000000e+00 0.000000000000000e+00
0.000000000000000e+00 0.000000000000000e+00 0.000000000000000e+00
0.000000000000000e+00 0.000000000000000e+00 0.000000000000000e+00

0.000000000000000e+00 0.000000000000000e+00 0.000000000000000e+00
0.000000000000000e+00 0.000000000000000e+00 0.000000000000000e+00
0.000000000000000e+00 0.000000000000000e+00 0.000000000000000e+00

0.000000000000000e+00 0.000000000000000e+00 0.000000000000000e+00
0.000000000000000e+00 0.000000000000000e+00 0.000000000000000e+00
0.000000000000000e+00 0.000000000000000e+00 0.000000000000000e+00

0.000000000000000e+00 0.000000000000000e+00 0.000000000000000e+00
0.000000000000000e+00 0.000000000000000e+00 0.000000000000000e+00
0.000000000000000e+00 0.000000000000000e+00 0.000000000000000e+00

0.000000000000000e+00 0.000000000000000e+00 0.000000000000000e+00
0.000000000000000e+00 0.000000000000000e+00 0.000000000000000e+00
0.000000000000000e+00 0.000000000000000e+00 0.000000000000000e+00

0.000000000000000e+00 0.000000000000000e+00 0.000000000000000e+00
0.000000000000000e+00 0.000000000000000e+00 0.000000000000000e+00
0.000000000000000e+00 0.000000000000000e+00 0.000000000000000e+00

0.000000000000000e+00 0.000000000000000e+00 0.000000000000000e+00
0.000000000000000e+00 0.000000000000000e+00 0.000000000000000e+00
0.000000000000000e+00 0.000000000000000e+00 0.000000000000000e+00

0.000000000000000e+00 0.000000000000000e+00 0.000000000000000e+00
0.000000000000000e+00 0.000000000000000e+00 0.000000000000000e+00
0.000000000000000e+00 0.000000000000000e+00 0.000000000000000e+00

0.000000000000000e+00 0.000000000000000e+00 0.000000000000000e+00
0.000000000000000e+00 0.000000000000000e+00 0.000000000000000e+00
0.000000000000000e+00 0.000000000000000e+00 0.000000000000000e+00

0.000000000000000e+00 0.000000000000000e+00 0.000000000000000e+00
0.000000000000000e+00 0.000000000000000e+00 0.000000000000000e+00
0.000000000000000e+00 0.000000000000000e+00 0.000000000000000e+00

0.000000000000000e+00 0.000000000000000e+00 0.000000000000000e+00
0.000000000000000e+00 0.000000000000000e+00 0.000000000000000e+00
0.000000000000000e+00 0.000000000000000e+00 0.000000000000000e+00

0.000000000000000e+00 0.000000000000000e+00 0.000000000000000e+00
0.000000000000000e+00 0.000000000000000e+00 0.000000000000000e+00
0.000000000000000e+00 0.000000000000000e+00 0.000000000000000e+00

0.000000000000000e+00 0.000000000000000e+00 0.000000000000000e+00
0.000000000000000e+00 0.000000000000000e+00 0.000000000000000e+00
0.000000000000000e+00 0.000000000000000e+00 0.000000000000000e+00

0.000000000000000e+00 0.000000000000000e+00 0.000000000000000e+00
0.000000000000000e+00 0.000000000000000e+00 0.000000000000000e+00
0.000000000000000e+00 0.000000000000000e+00 0.000000000000000e+00

0.000000000000000e+00 0.000000000000000e+00 0.000000000000000e+00
0.000000000000000e+00 0.000000000000000e+00 0.000000000000000e+00
0.000000000000000e+00 0.000000000000000e+00 0.000000000000000e+00

0.000000000000000e+00 0.000000000000000e+00 0.000000000000000e+00
0.000000000000000e+00 0.000000000000000e+00 0.000000000000000e+00
0.000000000000000e+00 0.000000000000000e+00 0.000000000000000e+00

0.000000000000000e+00 0.000000000000000e+00 0.000000000000000e+00
0.000000000000000e+00 0.000000000000000e+00 0.000000000000000e+00
0.000000000000000e+00 0.000000000000000e+00 0.000000000000000e+00

0.000000000000000e+00 0.000000000000000e+00 0.000000000000000e+00
0.000000000000000e+00 0.000000000000000e+00 0.000000000000000e+00
0.000000000000000e+00 0.000000000000000e+00 0.000000000000000e+00

0.000000000000000e+00 0.000000000000000e+00 0.000000000000000e+00
0.000000000000000e+00 0.000000000000000e+00 0.000000000000000e+00
0.000000000000000e+00 0.000000000000000e+00 0.000000000000000e+00

0.000000000000000e+00 0.000000000000000e+00 0.000000000000000e+00
0.000000000000000e+00 0.000000000000000e+00 0.000000000000000e+00
0.000000000000000e+00 0.000000000000000e+00 0.000000000000000e+00

0.000000000000000e+00 0.000000000000000e+00 0.000000000000000e+00
0.000000000000000e+00 0.000000000000000e+00 0.000000000000000e+00
0.000000000000000e+00 0.000000000000000e+00 0.000000000000000e+00

0.000000000000000e+00 0.000000000000000e+00 0.000000000000000e+00
0.000000000000000e+00 0.000000000000000e+00 0.000000000000000e+00
0.000000000000000e+00 0.000000000000000e+00 0.000000000000000e+00

0.000000000000000e+00 0.000000000000000e+00 0.000000000000000e+00
0.000000000000000e+00 0.000000000000000e+00 0.000000000000000e+00
0.000000000000000e+00 0.000000000000000e+00 0.000000000000000e+00

0.000000000000000e+00 0.000000000000000e+00 0.000000000000000e+00
0.000000000000000e+00 0.000000000000000e+00 0.000000000000000e+00
0.000000000000000e+00 0.000000000000000e+00 0.000000000000000e+00

0.000000000000000e+00 0.000000000000000e+00 0.000000000000000e+00
0.000000000000000e+00 0.000000000000000e+00 0.000000000000000e+00
0.000000000000000e+00 0.000000000000000e+00 0.000000000000000e+00

0.000000000000000e+00 0.000000000000000e+00 0.000000000000000e+00
0.000000000000000e+00 0.000000000000000e+00 0.000000000000000e+00
0.000000000000000e+00 0.000000000000000e+00 0.000000000000000e+00

0.000000000000000e+00 0.000000000000000e+00 0.000000000000000e+00
0.000000000000000e+00 0.000000000000000e+00 0.000000000000000e+00
0.000000000000000e+00 0.000000000000000e+00 0.000000000000000e+00

0.000000000000000e+00 0.000000000000000e+00 0.000000000000000e+00
0.000000000000000e+00 0.000000000000000e+00 0.000000000000000e+00
0.000000000000000e+00 0.000000000000000e+00 0.000000000000000e+00

0.000000000000000e+00 0.000000000000000e+00 0.000000000000000e+00
0.000000000000000e+00 0.000000000000000e+00 0.000000000000000e+00
0.000000000000000e+00 0.000000000000000e+00 0.000000000000000e+00

0.000000000000000e+00 0.000000000000000e+00 0.000000000000000e+00
0.000000000000000e+00 0.000000000000000e+00 0.000000000000000e+00
0.000000000000000e+00 0.000000000000000e+00 0.000000000000000e+00

0.000000000000000e+00 0.000000000000000e+00 0.000000000000000e+00
0.000000000000000e+00 0.000000000000000e+00 0.000000000000000e+00
0.000000000000000e+00 0.000000000000000e+00 0.000000000000000e+00

0.000000000000000e+00 0.000000000000000e+00 0.000000000000000e+00
0.000000000000000e+00 0.000000000000000e+00 0.000000000000000e+00
0.000000000000000e+00 0.000000000000000e+00 0.000000000000000e+00

0.000000000000000e+00 0.000000000000000e+00 0.000000000000000e+00
0.000000000000000e+00 0.000000000000000e+00 0.000000000000000e+00
0.000000000000000e+00 0.000000000000000e+00 0.000000000000000e+00

0.000000000000000e+00 0.000000000000000e+00 0.000000000000000e+00
0.000000000000000e+00 0.000000000000000e+00 0.000000000000000e+00
0.000000000000000e+00 0.000000000000000e+00 0.000000000000000e+00

0.000000000000000e+00 0.000000000000000e+00 0.000000000000000e+00
0.000000000000000e+00 0.000000000000000e+00 0.000000000000000e+00
0.000000000000000e+00 0.000000000000000e+00 0.000000000000000e+00

0.000000000000000e+00 0.000000000000000e+00 0.000000000000000e+00
0.000000000000000e+00 0.000000000000000e+00 0.000000000000000e+00
0.000000000000000e+00 0.000000000000000e+00 0.000000000000000e+00

0.000000000000000e+00 0.000000000000000e+00 0.000000000000000e+00
0.000000000000000e+00 0.000000000000000e+00 0.000000000000000e+00
0.000000000000000e+00 0.000000000000000e+00 0.000000000000000e+00

0.000000000000000e+00 0.000000000000000e+00 0.000000000000000e+00
0.000000000000000e+00 0.000000000000000e+00 0.000000000000000e+00
0.000000000000000e+00 0.000000000000000e+00 0.000000000000000e+00

0.000000000000000e+00 0.000000000000000e+00 0.000000000000000e+00
0.000000000000000e+00 0.000000000000000e+00 0.000000000000000e+00
0.000000000000000e+00 0.000000000000000e+00 0.000000000000000e+00

0.000000000000000e+00 0.000000000000000e+00 0.000000000000000e+00
0.000000000000000e+00 0.000000000000000e+00 0.000000000000000e+00
0.000000000000000e+00 0.000000000000000e+00 0.000000000000000e+00

0.000000000000000e+00 0.000000000000000e+00 0.000000000000000e+00
0.000000000000000e+00 0.000000000000000e+00 0.000000000000000e+00
0.000000000000000e+00 0.000000000000000e+00 0.000000000000000e+00

0.000000000000000e+00 0.000000000000000e+00 0.000000000000000e+00
0.000000000000000e+00 0.000000000000000e+00 0.000000000000000e+00
0.000000000000000e+00 0.000000000000000e+00 0.000000000000000e+00

0.000000000000000e+00 0.000000000000000e+00 0.000000000000000e+00
0.000000000000000e+00 0.000000000000000e+00 0.000000000000000e+00
0.000000000000000e+00 0.000000000000000e+00 0.000000000000000e+00

0.000000000000000e+00 0.000000000000000e+00 0.000000000000000e+00
0.000000000000000e+00 0.000000000000000e+00 0.000000000000000e+00
0.000000000000000e+00 0.000000000000000e+00 0.000000000000000e+00

0.000000000000000e+00 0.000000000000000e+00 0.000000000000000e+00
0.000000000000000e+00 0.000000000000000e+00 0.000000000000000e+00
0.000000000000000e+00 0.000000000000000e+00 0.000000000000000e+00

0.000000000000000e+00 0.000000000000000e+00 0.000000000000000e+00
0.000000000000000e+00 0.000000000000000e+00 0.000000000000000e+00
0.000000000000000e+00 0.000000000000000e+00 0.000000000000000e+00

0.000000000000000e+00 0.000000000000000e+00 0.000000000000000e+00
0.000000000000000e+00 0.000000000000000e+00 0.000000000000000e+00
0.000000000000000e+00 0.000000000000000e+00 0.000000000000000e+00

0.000000000000000e+00 0.000000000000000e+00 0.000000000000000e+00
0.000000000000000e+00 0.000000000000000e+00 0.000000000000000e+00
0.000000000000000e+00 0.000000000000000e+00 0.000000000000000e+00

0.000000000000000e+00 0.000000000000000e+00 0.000000000000000e+00
0.000000000000000e+00 0.000000000000000e+00 0.000000000000000e+00
0.000000000000000e+00 0.000000000000000e+00 0.000000000000000e+00

0.000000000000000e+00 0.000000000000000e+00 0.000000000000000e+00
0.000000000000000e+00 0.000000000000000e+00 0.000000000000000e+00
0.000000000000000e+00 0.000000000000000e+00 0.000000000000000e+00

0.000000000000000e+00 0.000000000000000e+00 0.000000000000000e+00
0.000000000000000e+00 0.000000000000000e+00 0.000000000000000e+00
0.000000000000000e+00 0.000000000000000e+00 0.000000000000000e+00

0.000000000000000e+00 0.000000000000000e+00 0.000000000000000e+00
0.000000000000000e+00 0.000000000000000e+00 0.000000000000000e+00
0.000000000000000e+00 0.000000000000000e+00 0.000000000000000e+00

0.000000000000000e+00 0.000000000000000e+00 0.000000000000000e+00
0.000000000000000e+00 0.000000000000000e+00 0.000000000000000e+00
0.000000000000000e+00 0.000000000000000e+00 0.000000000000000e+00

0.000000000000000e+00 0.000000000000000e+00 0.000000000000000e+00
0.000000000000000e+00 0.000000000000000e+00 0.000000000000000e+00
0.000000000000000e+00 0.000000000000000e+00 0.000000000000000e+00

0.000000000000000e+00 0.000000000000000e+00 0.000000000000000e+00
0.000000000000000e+00 0.000000000000000e+00 0.000000000000000e+00
0.000000000000000e+00 0.000000000000000e+00 0.000000000000000e+00

0.000000000000000e+00 0.000000000000000e+00 0.000000000000000e+00
0.000000000000000e+00 0.000000000000000e+00 0.000000000000000e+00
0.000000000000000e+00 0.000000000000000e+00 0.000000000000000e+00

0.000000000000000e+00 0.000000000000000e+00 0.000000000000000e+00
0.000000000000000e+00 0.000000000000000e+00 0.000000000000000e+00
0.000000000000000e+00 0.000000000000000e+00 0.000000000000000e+00

0.000000000000000e+00 0.000000000000000e+00 0.000000000000000e+00
0.000000000000000e+00 0.000000000000000e+00 0.000000000000000e+00
0.000000000000000e+00 0.000000000000000e+00 0.000000000000000e+00

0.000000000000000e+00 0.000000000000000e+00 0.000000000000000e+00
0.000000000000000e+00 0.000000000000000e+00 0.000000000000000e+00
0.000000000000000e+00 0.000000000000000e+00 0.000000000000000e+00

0.000000000000000e+00 0.000000000000000e+00 0.000000000000000e+00
0.000000000000000e+00 0.000000000000000e+00 0.000000000000000e+00
0.000000000000000e+00 0.000000000000000e+00 0.000000000000000e+00

0.000000000000000e+00 0.000000000000000e+00 0.000000000000000e+00
0.000000000000000e+00 0.000000000000000e+00 0.000000000000000e+00
0.000000000000000e+00 0.000000000000000e+00 0.000000000000000e+00

0.000000000000000e+00 0.000000000000000e+00 0.000000000000000e+00
0.000000000000000e+00 0.000000000000000e+00 0.000000000000000e+00
0.000000000000000e+00 0.000000000000000e+00 0.000000000000000e+00

0.000000000000000e+00 0.000000000000000e+00 0.000000000000000e+00
0.000000000000000e+00 0.000000000000000e+00 0.000000000000000e+00
0.000000000000000e+00 0.000000000000000e+00 0.000000000000000e+00

0.000000000000000e+00 0.000000000000000e+00 0.000000000000000e+00
0.000000000000000e+00 0.000000000000000e+00 0.000000000000000e+00
0.000000000000000e+00 0.000000000000000e+00 0.000000000000000e+00

0.000000000000000e+00 0.000000000000000e+00 0.000000000000000e+00
0.000000000000000e+00 0.000000000000000e+00 0.000000000000000e+00
0.000000000000000e+00 0.000000000000000e+00 0.000000000000000e+00

0.000000000000000e+00 0.000000000000000e+00 0.000000000000000e+00
0.000000000000000e+00 0.000000000000000e+00 0.000000000000000e+00
0.000000000000000e+00 0.000000000000000e+00 0.000000000000000e+00

0.000000000000000e+00 0.000000000000000e+00 0.000000000000000e+00
0.000000000000000e+00 0.000000000000000e+00 0.000000000000000e+00
0.000000000000000e+00 0.000000000000000e+00 0.000000000000000e+00

0.000000000000000e+00 0.000000000000000e+00 0.000000000000000e+00
0.000000000000000e+00 0.000000000000000e+00 0.000000000000000e+00
0.000000000000000e+00 0.000000000000000e+00 0.000000000000000e+00

0.000000000000000e+00 0.000000000000000e+00 0.000000000000000e+00
0.000000000000000e+00 0.000000000000000e+00 0.000000000000000e+00
0.000000000000000e+00 0.000000000000000e+00 0.000000000000000e+00

0.000000000000000e+00 0.000000000000000e+00 0.000000000000000e+00
0.000000000000000e+00 0.000000000000000e+00 0.000000000000000e+00
0.000000000000000e+00 0.000000000000000e+00 0.000000000000000e+00

0.000000000000000e+00 0.000000000000000e+00 0.000000000000000e+00
0.000000000000000e+00 0.000000000000000e+00 0.000000000000000e+00
0.000000000000000e+00 0.000000000000000e+00 0.000000000000000e+00

0.000000000000000e+00 0.000000000000000e+00 0.000000000000000e+00
0.000000000000000e+00 0.000000000000000e+00 0.000000000000000e+00
0.000000000000000e+00 0.000000000000000e+00 0.000000000000000e+00

0.000000000000000e+00 0.000000000000000e+00 0.000000000000000e+00
0.000000000000000e+00 0.000000000000000e+00 0.000000000000000e+00
0.000000000000000e+00 0.000000000000000e+00 0.000000000000000e+00

0.000000000000000e+00 0.000000000000000e+00 0.000000000000000e+00
0.000000000000000e+00 0.000000000000000e+00 0.000000000000000e+00
0.000000000000000e+00 0.000000000000000e+00 0.000000000000000e+00

0.000000000000000e+00 0.000000000000000e+00 0.000000000000000e+00
0.000000000000000e+00 0.000000000000000e+00 0.000000000000000e+00
0.000000000000000e+00 0.000000000000000e+00 0.000000000000000e+00

0.000000000000000e+00 0.000000000000000e+00 0.000000000000000e+00
0.000000000000000e+00 0.000000000000000e+00 0.000000000000000e+00
0.000000000000000e+00 0.000000000000000e+00 0.000000000000000e+00

0.000000000000000e+00 0.000000000000000e+00 0.000000000000000e+00
0.000000000000000e+00 0.000000000000000e+00 0.000000000000000e+00
0.000000000000000e+00 0.000000000000000e+00 0.000000000000000e+00

0.000000000000000e+00 0.000000000000000e+00 0.000000000000000e+00
0.000000000000000e+00 0.000000000000000e+00 0.000000000000000e+00
0.000000000000000e+00 0.000000000000000e+00 0.000000000000000e+00

0.000000000000000e+00 0.000000000000000e+00 0.000000000000000e+00
0.000000000000000e+00 0.000000000000000e+00 0.000000000000000e+00
0.000000000000000e+00 0.000000000000000e+00 0.000000000000000e+00

0.000000000000000e+00 0.000000000000000e+00 0.000000000000000e+00
0.000000000000000e+00 0.000000000000000e+00 0.000000000000000e+00
0.000000000000000e+00 0.000000000000000e+00 0.000000000000000e+00

0.000000000000000e+00 0.000000000000000e+00 0.000000000000000e+00
0.000000000000000e+00 0.000000000000000e+00 0.000000000000000e+00
0.000000000000000e+00 0.000000000000000e+00 0.000000000000000e+00

0.000000000000000e+00 0.000000000000000e+00 0.000000000000000e+00
0.000000000000000e+00 0.000000000000000e+00 0.000000000000000e+00
0.000000000000000e+00 0.000000000000000e+00 0.000000000000000e+00

0.000000000000000e+00 0.000000000000000e+00 0.000000000000000e+00
0.000000000000000e+00 0.000000000000000e+00 0.000000000000000e+00
0.000000000000000e+00 0.000000000000000e+00 0.000000000000000e+00

0.000000000000000e+00 0.000000000000000e+00 0.000000000000000e+00
0.000000000000000e+00 0.000000000000000e+00 0.000000000000000e+00
0.000000000000000e+00 0.000000000000000e+00 0.000000000000000e+00

0.000000000000000e+00 0.000000000000000e+00 0.000000000000000e+00
0.000000000000000e+00 0.000000000000000e+00 0.000000000000000e+00
0.000000000000000e+00 0.000000000000000e+00 0.000000000000000e+00

0.000000000000000e+00 0.000000000000000e+00 0.000000000000000e+00
0.000000000000000e+00 0.000000000000000e+00 0.000000000000000e+00
0.000000000000000e+00 0.000000000000000e+00 0.000000000000000e+00

0.000000000000000e+00 0.000000000000000e+00 0.000000000000000e+00
0.000000000000000e+00 0.000000000000000e+00 0.000000000000000e+00
0.000000000000000e+00 0.000000000000000e+00 0.000000000000000e+00

0.000000000000000e+00 0.000000000000000e+00 0.000000000000000e+00
0.000000000000000e+00 0.000000000000000e+00 0.000000000000000e+00
0.000000000000000e+00 0.000000000000000e+00 0.000000000000000e+00

0.000000000000000e+00 0.000000000000000e+00 0.000000000000000e+00
0.000000000000000e+00 0.000000000000000e+00 0.000000000000000e+00
0.000000000000000e+00 0.000000000000000e+00 0.000000000000000e+00

0.000000000000000e+00 0.000000000000000e+00 0.000000000000000e+00
0.000000000000000e+00 0.000000000000000e+00 0.000000000000000e+00
0.000000000000000e+00 0.000000000000000e+00 0.000000000000000e+00

0.000000000000000e+00 0.000000000000000e+00 0.000000000000000e+00
0.000000000000000e+00 0.000000000000000e+00 0.000000000000000e+00
0.000000000000000e+00 0.000000000000000e+00 0.000000000000000e+00

0.000000000000000e+00 0.000000000000000e+00 0.000000000000000e+00
0.000000000000000e+00 0.000000000000000e+00 0.000000000000000e+00
0.000000000000000e+00 0.000000000000000e+00 0.000000000000000e+00

0.000000000000000e+00 0.000000000000000e+00 0.000000000000000e+00
0.000000000000000e+00 0.000000000000000e+00 0.000000000000000e+00
0.000000000000000e+00 0.000000000000000e+00 0.000000000000000e+00

0.000000000000000e+00 0.000000000000000e+00 0.000000000000000e+00
0.000000000000000e+00 0.000000000000000e+00 0.000000000000000e+00
0.000000000000000e+00 0.000000000000000e+00 0.000000000000000e+00

0.000000000000000e+00 0.000000000000000e+00 0.000000000000000e+00
0.000000000000000e+00 0.000000000000000e+00 0.000000000000000e+00
0.000000000000000e+00 0.000000000000000e+00 0.000000000000000e+00

0.000000000000000e+00 0.000000000000000e+00 0.000000000000000e+00
0.000000000000000e+00 0.000000000000000e+00 0.000000000000000e+00
0.000000000000000e+00 0.000000000000000e+00 0.000000000000000e+00

0.000000000000000e+00 0.000000000000000e+00 0.000000000000000e+00
0.000000000000000e+00 0.000000000000000e+00 0.000000000000000e+00
0.000000000000000e+00 0.000000000000000e+00 0.000000000000000e+00

0.000000000000000e+00 0.000000000000000e+00 0.000000000000000e+00
0.000000000000000e+00 0.000000000000000e+00 0.000000000000000e+00
0.000000000000000e+00 0.000000000000000e+00 0.000000000000000e+00

0.000000000000000e+00 0.000000000000000e+00 0.000000000000000e+00
0.000000000000000e+00 0.000000000000000e+00 0.000000000000000e+00
0.000000000000000e+00 0.000000000000000e+00 0.000000000000000e+00

0.000000000000000e+00 0.000000000000000e+00 0.000000000000000e+00
0.000000000000000e+00 0.000000000000000e+00 0.000000000000000e+00
0.000000000000000e+00 0.000000000000000e+00 0.000000000000000e+00

0.000000000000000e+00 0.000000000000000e+00 0.000000000000000e+00
0.000000000000000e+00 0.000000000000000e+00 0.000000000000000e+00
0.000000000000000e+00 0.000000000000000e+00 0.000000000000000e+00

0.000000000000000e+00 0.000000000000000e+00 0.000000000000000e+00
0.000000000000000e+00 0.000000000000000e+00 0.000000000000000e+00
0.000000000000000e+00 0.000000000000000e+00 0.000000000000000e+00

0.000000000000000e+00 0.000000000000000e+00 0.000000000000000e+00
0.000000000000000e+00 0.000000000000000e+00 0.000000000000000e+00
0.000000000000000e+00 0.000000000000000e+00 0.000000000000000e+00

0.000000000000000e+00 0.000000000000000e+00 0.000000000000000e+00
0.000000000000000e+00 0.000000000000000e+00 0.000000000000000e+00
0.000000000000000e+00 0.000000000000000e+00 0.000000000000000e+00

0.000000000000000e+00 0.000000000000000e+00 0.000000000000000e+00
0.000000000000000e+00 0.000000000000000e+00 0.000000000000000e+00
0.000000000000000e+00 0.000000000000000e+00 0.000000000000000e+00

0.000000000000000e+00 0.000000000000000e+00 0.000000000000000e+00
0.000000000000000e+00 0.000000000000000e+00 0.000000000000000e+00
0.000000000000000e+00 0.000000000000000e+00 0.000000000000000e+00

0.000000000000000e+00 0.000000000000000e+00 0.000000000000000e+00
0.000000000000000e+00 0.000000000000000e+00 0.000000000000000e+00
0.000000000000000e+00 0.000000000000000e+00 0.000000000000000e+00

0.000000000000000e+00 0.000000000000000e+00 0.000000000000000e+00
0.000000000000000e+00 0.000000000000000e+00 0.000000000000000e+00
0.000000000000000e+00 0.000000000000000e+00 0.000000000000000e+00

0.000000000000000e+00 0.000000000000000e+00 0.000000000000000e+00
0.000000000000000e+00 0.000000000000000e+00 0.000000000000000e+00
0.000000000000000e+00 0.000000000000000e+00 0.000000000000000e+00

0.000000000000000e+00 0.000000000000000e+00 0.000000000000000e+00
0.000000000000000e+00 0.000000000000000e+00 0.000000000000000e+00
0.000000000000000e+00 0.000000000000000e+00 0.000000000000000e+00

0.000000000000000e+00 0.000000000000000e+00 0.000000000000000e+00
0.000000000000000e+00 0.000000000000000e+00 0.000000000000000e+00
0.000000000000000e+00 0.000000000000000e+00 0.000000000000000e+00

0.000000000000000e+00 0.000000000000000e+00 0.000000000000000e+00
0.000000000000000e+00 0.000000000000000e+00 0.000000000000000e+00
0.000000000000000e+00 0.000000000000000e+00 0.000000000000000e+00

0.000000000000000e+00 0.000000000000000e+00 0.000000000000000e+00
0.000000000000000e+00 0.000000000000000e+00 0.000000000000000e+00
0.000000000000000e+00 0.000000000000000e+00 0.000000000000000e+00

0.000000000000000e+00 0.000000000000000e+00 0.000000000000000e+00
0.000000000000000e+00 0.000000000000000e+00 0.000000000000000e+00
0.000000000000000e+00 0.000000000000000e+00 0.000000000000000e+00

0.000000000000000e+00 0.000000000000000e+00 0.000000000000000e+00
0.000000000000000e+00 0.000000000000000e+00 0.000000000000000e+00
0.000000000000000e+00 0.000000000000000e+00 0.000000000000000e+00

0.000000000000000e+00 0.000000000000000e+00 0.000000000000000e+00
0.000000000000000e+00 0.000000000000000e+00 0.000000000000000e+00
0.000000000000000e+00 0.000000000000000e+00 0.000000000000000e+00

0.000000000000000e+00 0.000000000000000e+00 0.000000000000000e+00
0.000000000000000e+00 0.000000000000000e+00 0.000000000000000e+00
0.000000000000000e+00 0.000000000000000e+00 0.000000000000000e+00

0.000000000000000e+00 0.000000000000000e+00 0.000000000000000e+00
0.000000000000000e+00 0.000000000000000e+00 0.000000000000000e+00
0.000000000000000e+00 0.000000000000000e+00 0.000000000000000e+00

0.000000000000000e+00 0.000000000000000e+00 0.000000000000000e+00
0.000000000000000e+00 0.000000000000000e+00 0.000000000000000e+00
0.000000000000000e+00 0.000000000000000e+00 0.000000000000000e+00

0.000000000000000e+00 0.000000000000000e+00 0.000000000000000e+00
0.000000000000000e+00 0.000000000000000e+00 0.000000000000000e+00
0.000000000000000e+00 0.000000000000000e+00 0.000000000000000e+00

0.000000000000000e+00 0.000000000000000e+00 0.000000000000000e+00
0.000000000000000e+00 0.000000000000000e+00 0.000000000000000e+00
0.000000000000000e+00 0.000000000000000e+00 0.000000000000000e+00

0.000000000000000e+00 0.000000000000000e+00 0.000000000000000e+00
0.000000000000000e+00 0.000000000000000e+00 0.000000000000000e+00
0.000000000000000e+00 0.000000000000000e+00 0.000000000000000e+00

0.000000000000000e+00 0.000000000000000e+00 0.000000000000000e+00
0.000000000000000e+00 0.000000000000000e+00 0.000000000000000e+00
0.000000000000000e+00 0.000000000000000e+00 0.000000000000000e+00

0.000000000000000e+00 0.000000000000000e+00 0.000000000000000e+00
0.000000000000000e+00 0.000000000000000e+00 0.000000000000000e+00
0.000000000000000e+00 0.000000000000000e+00 0.000000000000000e+00

0.000000000000000e+00 0.000000000000000e+00 0.000000000000000e+00
0.000000000000000e+00 0.000000000000000e+00 0.000000000000000e+00
0.000000000000000e+00 0.000000000000000e+00 0.000000000000000e+00

0.000000000000000e+00 0.000000000000000e+00 0.000000000000000e+00
0.000000000000000e+00 0.000000000000000e+00 0.000000000000000e+00
0.000000000000000e+00 0.000000000000000e+00 0.000000000000000e+00

0.000000000000000e+00 0.000000000000000e+00 0.000000000000000e+00
0.000000000000000e+00 0.000000000000000e+00 0.000000000000000e+00
0.000000000000000e+00 0.000000000000000e+00 0.000000000000000e+00

0.000000000000000e+00 0.000000000000000e+00 0.000000000000000e+00
0.000000000000000e+00 0.000000000000000e+00 0.000000000000000e+00
0.000000000000000e+00 0.000000000000000e+00 0.000000000000000e+00

0.000000000000000e+00 0.000000000000000e+00 0.000000000000000e+00
0.000000000000000e+00 0.000000000000000e+00 0.000000000000000e+00
0.000000000000000e+00 0.000000000000000e+00 0.000000000000000e+00

0.000000000000000e+00 0.000000000000000e+00 0.000000000000000e+00
0.000000000000000e+00 0.000000000000000e+00 0.000000000000000e+00
0.000000000000000e+00 0.000000000000000e+00 0.000000000000000e+00

0.000000000000000e+00 0.000000000000000e+00 0.000000000000000e+00
0.000000000000000e+00 0.000000000000000e+00 0.000000000000000e+00
0.000000000000000e+00 0.000000000000000e+00 0.000000000000000e+00

0.000000000000000e+00 0.000000000000000e+00 0.000000000000000e+00
0.000000000000000e+00 0.000000000000000e+00 0.000000000000000e+00
0.000000000000000e+00 0.000000000000000e+00 0.000000000000000e+00

0.000000000000000e+00 0.000000000000000e+00 0.000000000000000e+00
0.000000000000000e+00 0.000000000000000e+00 0.000000000000000e+00
0.000000000000000e+00 0.000000000000000e+00 0.000000000000000e+00

0.000000000000000e+00 0.000000000000000e+00 0.000000000000000e+00
0.000000000000000e+00 0.000000000000000e+00 0.000000000000000e+00
0.000000000000000e+00 0.000000000000000e+00 0.000000000000000e+00

0.000000000000000e+00 0.000000000000000e+00 0.000000000000000e+00
0.000000000000000e+00 0.000000000000000e+00 0.000000000000000e+00
0.000000000000000e+00 0.000000000000000e+00 0.000000000000000e+00

0.000000000000000e+00 0.000000000000000e+00 0.000000000000000e+00
0.000000000000000e+00 0.000000000000000e+00 0.000000000000000e+00
0.000000000000000e+00 0.000000000000000e+00 0.000000000000000e+00

0.000000000000000e+00 0.000000000000000e+00 0.000000000000000e+00
0.000000000000000e+00 0.000000000000000e+00 0.000000000000000e+00
0.000000000000000e+00 0.000000000000000e+00 0.000000000000000e+00

0.000000000000000e+00 0.000000000000000e+00 0.000000000000000e+00
0.000000000000000e+00 0.000000000000000e+00 0.000000000000000e+00
0.000000000000000e+00 0.000000000000000e+00 0.000000000000000e+00

0.000000000000000e+00 0.000000000000000e+00 0.000000000000000e+00
0.000000000000000e+00 0.000000000000000e+00 0.000000000000000e+00
0.000000000000000e+00 0.000000000000000e+00 0.000000000000000e+00

0.000000000000000e+00 0.000000000000000e+00 0.000000000000000e+00
0.000000000000000e+00 0.000000000000000e+00 0.000000000000000e+00
0.000000000000000e+00 0.000000000000000e+00 0.000000000000000e+00

0.000000000000000e+00 0.000000000000000e+00 0.000000000000000e+00
0.000000000000000e+00 0.000000000000000e+00 0.000000000000000e+00
0.000000000000000e+00 0.000000000000000e+00 0.000000000000000e+00

0.000000000000000e+00 0.000000000000000e+00 0.000000000000000e+00
0.000000000000000e+00 0.000000000000000e+00 0.000000000000000e+00
0.000000000000000e+00 0.000000000000000e+00 0.000000000000000e+00

0.000000000000000e+00 0.000000000000000e+00 0.000000000000000e+00
0.000000000000000e+00 0.000000000000000e+00 0.000000000000000e+00
0.000000000000000e+00 0.000000000000000e+00 0.000000000000000e+00

0.000000000000000e+00 0.000000000000000e+00 0.000000000000000e+00
0.000000000000000e+00 0.000000000000000e+00 0.000000000000000e+00
0.000000000000000e+00 0.000000000000000e+00 0.000000000000000e+00

0.000000000000000e+00 0.000000000000000e+00 0.000000000000000e+00
0.000000000000000e+00 0.000000000000000e+00 0.000000000000000e+00
0.000000000000000e+00 0.000000000000000e+00 0.000000000000000e+00

0.000000000000000e+00 0.000000000000000e+00 0.000000000000000e+00
0.000000000000000e+00 0.000000000000000e+00 0.000000000000000e+00
0.000000000000000e+00 0.000000000000000e+00 0.000000000000000e+00

0.000000000000000e+00 0.000000000000000e+00 0.000000000000000e+00
0.000000000000000e+00 0.000000000000000e+00 0.000000000000000e+00
0.000000000000000e+00 0.000000000000000e+00 0.000000000000000e+00

0.000000000000000e+00 0.000000000000000e+00 0.000000000000000e+00
0.000000000000000e+00 0.000000000000000e+00 0.000000000000000e+00
0.000000000000000e+00 0.000000000000000e+00 0.000000000000000e+00

0.000000000000000e+00 0.000000000000000e+00 0.000000000000000e+00
0.000000000000000e+00 0.000000000000000e+00 0.000000000000000e+00
0.000000000000000e+00 0.000000000000000e+00 0.000000000000000e+00

0.000000000000000e+00 0.000000000000000e+00 0.000000000000000e+00
0.000000000000000e+00 0.000000000000000e+00 0.000000000000000e+00
0.000000000000000e+00 0.000000000000000e+00 0.000000000000000e+00

0.000000000000000e+00 0.000000000000000e+00 0.000000000000000e+00
0.000000000000000e+00 0.000000000000000e+00 0.000000000000000e+00
0.000000000000000e+00 0.000000000000000e+00 0.000000000000000e+00

 1.108716731394675e-17 -6.824318238422831e-20 -1.003716437343655e+00
-6.824318238422831e-20  2.594617616156452e-18  4.103360031476945e-01
-1.003716437343655e+00  4.103360031476945e-01  8.305307280796057e-18

 1.111951724185084e-17 -9.506028494496339e-20 -1.003004207545751e+00
-9.506028494496339e-20 -1.570786313118899e-17  4.051414283891013e-01
-1.003004207545751e+00  4.051414283891013e-01  8.453958686599110e-18

 1.124066631185105e-17 -6.894350498034784e-20 -1.009733406765155e+00
-6.894350498034784e-20  6.698885796180213e-18  4.005582492961231e-01
-1.009733406765155e+00  4.005582492961231e-01  8.782771184862354e-18

 1.114185801222362e-17 -9.900715633670160e-20 -1.006682671495953e+00
-9.900715633670160e-20 -9.801166051814703e-18  4.071731271344807e-01
-1.006682671495953e+00  4.071731271344807e-01  8.454057690189761e-18

 1.113889841512562e-17 -1.273999665910242e-19 -1.007252327873830e+00
-1.273999665910242e-19 -3.447661723751029e-17  4.129640852602962e-01
-1.007252327873830e+00  4.129640852602962e-01  8.372645586173387e-18

 1.121684981024039e-17 -5.950339795030230e-20 -1.009770874623234e+00
-5.950339795030230e-20  2.046460783014986e-17  4.103562525396832e-01
-1.009770874623234e+00  4.103562525396832e-01  8.543470211367707e-18

 1.111046313475385e-17 -3.817616777559346e-20 -1.006552373923818e+00
-3.817616777559346e-20  4.186152578007387e-17  4.107648643345578e-01
-1.006552373923818e+00  4.107648643345578e-01  8.356159039477233e-18

 1.107814993901896e-17 -1.132972958512929e-19 -1.005105973831173e+00
-1.132972958512929e-19 -1.715422800496882e-17  4.096634562968521e-01
-1.005105973831173e+00  4.096634562968521e-01  8.324868950709058e-18

 1.106275672571191e-17 -8.361753817676133e-20 -1.003927963357110e+00
-8.361753817676133e-20  1.349224273491749e-17  4.116794346560972e-01
-1.003927963357110e+00  4.116794346560972e-01  8.293596817206566e-18

 1.247058517238311e-17 -2.780795546951291e-19 -1.005174499986866e+00
-2.780795546951291e-19  2.298054870787412e-17  4.084453735390864e-01
-1.005174499986866e+00  4.084453735390864e-01  8.469184562127416e-18

 2.293614765965177e-17 -1.879105039011268e-18 -1.004850596020999e+00
-1.879105039011268e-18 -8.046405976997592e-18  4.093582843174989e-01
-1.004850596020999e+00  4.093582843174989e-01  8.510564391050258e-18

 1.638445993327442e-16 -2.323175612939271e-17 -1.000337503557877e+00
-2.323175612939271e-17 -3.624153979800895e-17  4.068894305814637e-01
-1.000337503557877e+00  4.068894305814637e-01  8.430257037145588e-18

 1.908372334936399e-17 -1.237175255148570e-18 -9.981620209293867e-01
-1.237175255148570e-18  4.757004952083281e-17  4.048880940759454e-01
-9.981620209293867e-01  4.048880940759454e-01  8.435393013721773e-18

 1.071987631569734e-17  1.303977249354403e-20 -9.966986270811575e-01
 1.303977249354403e-20 -6.686357597756186e-18  4.028007512176376e-01
-9.966986270811575e-01  4.028007512176376e-01  8.433465595712241e-18

 1.101909164978640e-17 -1.075443503546911e-20 -9.943167539638273e-01
-1.075443503546911e-20  1.765752769170373e-17  4.021432371997853e-01
-9.943167539638273e-01  4.021432371997853e-01  8.273132596002218e-18

 1.099840685490497e-17 -2.158642032110227e-20 -9.930758158504117e-01
-2.158642032110227e-20 -1.208649058188030e-17  4.028783072160593e-01
-9.930758158504117e-01  4.028783072160593e-01  8.210839656972570e-18

 1.096390540567448e-17 -8.185219152576406e-21 -9.920804464226127e-01
-8.185219152576406e-21 -1.059514715227382e-17  4.042014764421291e-01
-9.920804464226127e-01  4.042014764421291e-01  8.091770625774442e-18

 1.107107463580773e-17 -1.380008670901892e-20 -9.968225451462810e-01
-1.380008670901892e-20  4.209657449640830e-18  3.966109844336991e-01
-9.968225451462810e-01  3.966109844336991e-01  8.421740268554594e-18

 1.095568602958015e-17  8.748610299919896e-22 -9.940221513873948e-01
 8.748610299919896e-22  2.262617238198822e-17  4.047915199778656e-01
-9.940221513873948e-01  4.047915199778656e-01  8.127794970662970e-18

 1.112440889160719e-17 -2.510813446841501e-21 -1.001361093763212e+00
-2.510813446841501e-21 -4.493813356092003e-18  3.989700501434872e-01
-1.001361093763212e+00  3.989700501434872e-01  8.633322124157629e-18

 1.095395927482179e-17  1.644515687631046e-21 -9.940219581842481e-01
 1.644515687631046e-21 -5.756784175263077e-18  4.057825360278204e-01
-9.940219581842481e-01  4.057825360278204e-01  8.114899958578662e-18

 1.079468138333064e-17 -4.106613853484451e-21 -9.880419938088600e-01
-4.106613853484451e-21  1.887182958478746e-17  4.095809615250604e-01
-9.880419938088600e-01  4.095809615250604e-01  7.689414397465527e-18

 1.087278854465132e-17 -2.241132559695271e-20 -9.909933920710789e-01
-2.241132559695271e-20  3.364163181063941e-17  4.018002325359893e-01
-9.909933920710789e-01  4.018002325359893e-01  7.996129882816327e-18

 1.078508012710037e-17 -1.670636324480347e-20 -9.874074672334284e-01
-1.670636324480347e-20  2.400092497307578e-17  4.122991829215675e-01
-9.874074672334284e-01  4.122991829215675e-01  7.718108500441182e-18

 1.080133858689928e-17 -2.333376302470186e-20 -9.872434387802130e-01
-2.333376302470186e-20  2.313992742339236e-17  4.084423324742138e-01
-9.872434387802130e-01  4.084423324742138e-01  7.846662230058421e-18

 9.863163212575129e-18  2.867001236170913e-21 -9.492184425918537e-01
 2.867001236170913e-21  7.620231726140984e-18  4.407375440130690e-01
-9.492184425918537e-01  4.407375440130690e-01  5.065078394924176e-18

 1.036634026144269e-17 -2.836306575135404e-20 -9.686941425500567e-01
-2.836306575135404e-20  8.133902697108663e-18  4.031194516223268e-01
-9.686941425500567e-01  4.031194516223268e-01  6.785401014969399e-18

 1.049881322862207e-17 -3.819783534423717e-20 -9.749821821593034e-01
-3.819783534423717e-20  1.063450387282843e-17  4.008981252215466e-01
-9.749821821593034e-01  4.008981252215466e-01  7.171872239201471e-18

 9.333218006045825e-18 -5.582298207499989e-20 -9.281489567596451e-01
-5.582298207499989e-20 -5.086896812527049e-19  4.681098041346560e-01
-9.281489567596451e-01  4.681098041346560e-01  3.423339737743854e-18

 1.056910103949953e-17 -4.612060845964205e-20 -9.800770427792547e-01
-4.612060845964205e-20  1.025341044332621e-17  4.271610845363464e-01
-9.800770427792547e-01  4.271610845363464e-01  7.143512640146035e-18

 1.078934813669392e-17 -4.534409596893177e-20 -9.901883289565221e-01
-4.534409596893177e-20  1.052124776617452e-17  4.117526944337864e-01
-9.901883289565221e-01  4.117526944337864e-01  7.844335634724243e-18

 1.075978459185376e-17 -3.731356562362165e-20 -9.902188823000179e-01
-3.731356562362165e-20 -4.312173807553782e-19  4.122004429679550e-01
-9.902188823000179e-01  4.122004429679550e-01  7.766416708044701e-18

 1.072061665585485e-17 -4.897611620528715e-20 -9.889813053837527e-01
-4.897611620528715e-20  7.183652418864162e-18  4.129700062464702e-01
-9.889813053837527e-01  4.129700062464702e-01  7.628673605198153e-18

 1.068050153701433e-17 -4.407077386160265e-20 -9.883976427204092e-01
-4.407077386160265e-20  3.428533344084918e-18  4.126760449889034e-01
-9.883976427204092e-01  4.126760449889034e-01  7.566631773456316e-18

 1.073895704789083e-17 -4.997598623427041e-20 -9.910683249513418e-01
-4.997598623427041e-20  8.208369780006892e-18  4.120822453517813e-01
-9.910683249513418e-01  4.120822453517813e-01  7.652687480411639e-18

 1.084427107062033e-17 -5.852058034266481e-20 -9.974279328534653e-01
-5.852058034266481e-20  2.268458572759138e-17  4.087577530322021e-01
-9.974279328534653e-01  4.087577530322021e-01  8.019646297734389e-18

 1.093692293356199e-17 -6.203338814800042e-20 -1.001938263031735e+00
-6.203338814800042e-20  2.043675238329637e-17  4.172180695189233e-01
-1.001938263031735e+00  4.172180695189233e-01  8.102191346754972e-18

 1.104938092200515e-17 -5.615146570636726e-20 -1.008675475277593e+00
-5.615146570636726e-20  8.109930917655367e-18  4.166563721022188e-01
-1.008675475277593e+00  4.166563721022188e-01  8.482120270376479e-18

 1.084246863062962e-17 -6.429204868468013e-20 -1.000812940338681e+00
-6.429204868468013e-20  1.881500587697813e-17  4.193992857831725e-01
-1.000812940338681e+00  4.193992857831725e-01  7.871844727718071e-18

 1.097042383841286e-17 -5.319329659882339e-20 -1.007002175513660e+00
-5.319329659882339e-20  1.423208217104778e-17  4.112381480972786e-01
-1.007002175513660e+00  4.112381480972786e-01  8.289123275849061e-18

 1.096436350618255e-17 -5.512206655507875e-20 -1.007714178917875e+00
-5.512206655507875e-20  8.267894514782772e-18  4.174356138998909e-01
-1.007714178917875e+00  4.174356138998909e-01  8.239421822186494e-18

 1.121671449298346e-17 -5.126701883044473e-20 -1.018382632925956e+00
-5.126701883044473e-20  1.593719598034947e-19  4.127071024651278e-01
-1.018382632925956e+00  4.127071024651278e-01  8.923995959763869e-18

 1.126117606282394e-17 -5.374795672822904e-20 -1.020249782134793e+00
-5.374795672822904e-20  1.957184768847026e-17  4.088388773479246e-01
-1.020249782134793e+00  4.088388773479246e-01  9.070339958351220e-18

 1.093179267075098e-17 -4.373144222600481e-20 -1.007788664699600e+00
-4.373144222600481e-20 -5.752262136577474e-18  4.144476822265877e-01
-1.007788664699600e+00  4.144476822265877e-01  8.199305620030404e-18

 1.091616695514467e-17 -6.899588187107385e-20 -1.008076055519376e+00
-6.899588187107385e-20  3.640243752502520e-17  4.182086654073147e-01
-1.008076055519376e+00  4.182086654073147e-01  8.146695569227539e-18

 1.102000166248741e-17 -6.589607150779539e-20 -1.012556085602512e+00
-6.589607150779539e-20  3.657925793971967e-17  4.188366513832620e-01
-1.012556085602512e+00  4.188366513832620e-01  8.379552299288782e-18

 1.113241266119004e-17 -6.433228458887261e-20 -1.017945096281767e+00
-6.433228458887261e-20  3.329447874052629e-17  4.135313248416806e-01
-1.017945096281767e+00  4.135313248416806e-01  8.795903902665153e-18

 1.097818171961323e-17 -5.277397267253883e-20 -1.012097539098636e+00
-5.277397267253883e-20  2.680804353500245e-17  4.179001346396445e-01
-1.012097539098636e+00  4.179001346396445e-01  8.352272811267232e-18

 1.101823485449642e-17 -5.615606718099199e-20 -1.013867518953685e+00
-5.615606718099199e-20  2.683302812728664e-17  4.133370829043652e-01
-1.013867518953685e+00  4.133370829043652e-01  8.529864851034155e-18

 1.105807412385612e-17 -4.796955281452750e-20 -1.016189083163439e+00
-4.796955281452750e-20  1.637031341778051e-17  4.161004678445483e-01
-1.016189083163439e+00  4.161004678445483e-01  8.651663201287466e-18

 1.099316304527756e-17 -4.819334360137346e-20 -1.012947684331170e+00
-4.819334360137346e-20  1.549741004449578e-17  4.136520806198289e-01
-1.012947684331170e+00  4.136520806198289e-01  8.506924850832731e-18

 1.082772139666136e-17 -3.025514549626438e-20 -1.006880704091001e+00
-3.025514549626438e-20 -5.688153525267739e-18  4.183081466136293e-01
-1.006880704091001e+00  4.183081466136293e-01  8.039670398418536e-18

 1.087278327338039e-17 -3.367680996823122e-20 -1.009008399512936e+00
-3.367680996823122e-20  1.034873979392732e-18  4.172367231998072e-01
-1.009008399512936e+00  4.172367231998072e-01  8.209740228570300e-18

 1.089602289582443e-17 -4.738894603660797e-20 -1.010167746408849e+00
-4.738894603660797e-20  2.545427225587191e-17  4.176093671431046e-01
-1.010167746408849e+00  4.176093671431046e-01  8.277518693241257e-18

 1.096190119038109e-17 -2.249599973233484e-20 -1.013732771486271e+00
-2.249599973233484e-20 -7.057874634533116e-18  4.152474028171023e-01
-1.013732771486271e+00  4.152474028171023e-01  8.498170855686977e-18

 1.097791673764575e-17 -4.792084203405244e-20 -1.015373100681287e+00
-4.792084203405244e-20  2.526026869756755e-17  4.145324631145511e-01
-1.015373100681287e+00  4.145324631145511e-01  8.579660963800858e-18

 1.091151940437699e-17 -4.595499681528664e-20 -1.012688381744512e+00
-4.595499681528664e-20  2.195215436999824e-17  4.167805444254614e-01
-1.012688381744512e+00  4.167805444254614e-01  8.355508044118982e-18

 1.090257816841724e-17 -3.939971568234490e-20 -1.013120734885356e+00
-3.939971568234490e-20  1.254740250150238e-17  4.158990624835259e-01
-1.013120734885356e+00  4.158990624835259e-01  8.408550975942088e-18

 1.087342405002115e-17 -3.765224663228710e-20 -1.011322585326120e+00
-3.765224663228710e-20  1.621089893643145e-17  4.187896937553542e-01
-1.011322585326120e+00  4.187896937553542e-01  8.238298618997257e-18

 1.086951349943296e-17 -5.357067192553787e-20 -1.012427520166212e+00
-5.357067192553787e-20  2.807022906893514e-17  4.158029290597050e-01
-1.012427520166212e+00  4.158029290597050e-01  8.376778547563568e-18

 1.085906161340384e-17 -4.822525704224229e-20 -1.011748672696118e+00
-4.822525704224229e-20  1.744658033266111e-17  4.192749441823417e-01
-1.011748672696118e+00  4.192749441823417e-01  8.287107166273711e-18

 1.080363111922235e-17 -3.812736286747617e-20 -1.010036204086137e+00
-3.812736286747617e-20  6.342664444165124e-18  4.185809579424308e-01
-1.010036204086137e+00  4.185809579424308e-01  8.261328123151630e-18

 1.049857600061274e-17 -6.826292008274215e-20 -9.972528407444367e-01
-6.826292008274215e-20  3.177801101444854e-17  4.267695000034055e-01
-9.972528407444367e-01  4.267695000034055e-01  7.405337149699451e-18

 1.048227539046686e-17 -3.388784621542159e-20 -9.969014311273435e-01
-3.388784621542159e-20  1.426889745627931e-18  4.214450853528902e-01
-9.969014311273435e-01  4.214450853528902e-01  7.436622976974798e-18

 1.065784478921362e-17 -3.898936489921576e-20 -1.004381280905306e+00
-3.898936489921576e-20  2.446004578973828e-18  4.099764946882161e-01
-1.004381280905306e+00  4.099764946882161e-01  8.034646672590998e-18

 1.068796021462126e-17 -5.421788414847349e-20 -1.005741980137546e+00
-5.421788414847349e-20  7.824091222476366e-18  4.196605055772596e-01
-1.005741980137546e+00  4.196605055772596e-01  8.050591953168183e-18

 1.073588229973250e-17 -7.993522409647111e-20 -1.008940366585620e+00
-7.993522409647111e-20  2.954370696711679e-17  4.269787229757118e-01
-1.008940366585620e+00  4.269787229757118e-01  8.142121355473455e-18

 1.077533311653340e-17 -4.556081179105062e-20 -1.010919371352531e+00
-4.556081179105062e-20  2.985510224109180e-18  4.194290805105816e-01
-1.010919371352531e+00  4.194290805105816e-01  8.338325241691941e-18

 1.063255742664955e-17 -5.313429358111307e-20 -1.005478739960859e+00
-5.313429358111307e-20  5.568082668666890e-18  4.183384054214421e-01
-1.005478739960859e+00  4.183384054214421e-01  8.004598601582531e-18

 1.060443918325669e-17 -6.857775000707980e-20 -1.004481296566436e+00
-6.857775000707980e-20  1.850026634740568e-17  4.216245148369442e-01
-1.004481296566436e+00  4.216245148369442e-01  7.901399101406232e-18

 1.068105228490650e-17 -8.755193156193976e-20 -1.008193649779090e+00
-8.755193156193976e-20  3.247375165105999e-17  4.161228902592576e-01
-1.008193649779090e+00  4.161228902592576e-01  8.236719540325914e-18

 1.058080742069822e-17 -7.304053871079466e-20 -1.004521344297943e+00
-7.304053871079466e-20  1.958064881817051e-17  4.234854045635978e-01
-1.004521344297943e+00  4.234854045635978e-01  7.920025759621047e-18

 1.058661333155604e-17 -7.646082009507180e-20 -1.004725006836836e+00
-7.646082009507180e-20  1.942479872062515e-17  4.179888980225324e-01
-1.004725006836836e+00  4.179888980225324e-01  8.064711395866998e-18

 1.053907896626726e-17 -7.762486299321072e-20 -1.002643811710620e+00
-7.762486299321072e-20  1.965160714806285e-17  4.180075996188364e-01
-1.002643811710620e+00  4.180075996188364e-01  7.977472040014986e-18

 1.046244525239310e-17 -6.921732944503916e-20 -9.998695270967840e-01
-6.921732944503916e-20  7.297939686809487e-18  4.217945708769356e-01
-9.998695270967840e-01  4.217945708769356e-01  7.794498153351766e-18

 1.041819739322897e-17 -7.769098670173544e-20 -9.988108683569172e-01
-7.769098670173544e-20  1.206452772369687e-17  4.230707914678724e-01
-9.988108683569172e-01  4.230707914678724e-01  7.712921689063167e-18

 1.042968793119088e-17 -8.740858477663756e-20 -9.995680688532688e-01
-8.740858477663756e-20  2.412679483708456e-17  4.177755296237468e-01
-9.995680688532688e-01  4.177755296237468e-01  7.842838289046294e-18

 1.032029098908089e-17 -1.029515779898907e-19 -9.949041789750022e-01
-1.029515779898907e-19  3.533517288681881e-17  4.206974892342225e-01
-9.949041789750022e-01  4.206974892342225e-01  7.539648852232283e-18

 1.034770687677913e-17 -4.991254431964879e-20 -9.966924324772395e-01
-4.991254431964879e-20 -1.541443048357253e-17  4.203320048182956e-01
-9.966924324772395e-01  4.203320048182956e-01  7.607748980466643e-18

 1.039884075942029e-17 -9.929039398813494e-20 -9.999043418948396e-01
-9.929039398813494e-20  3.143112621198773e-17  4.201970013857104e-01
-9.999043418948396e-01  4.201970013857104e-01  7.826417540693713e-18

 1.041991822254100e-17 -8.515697076749077e-20 -1.002145272531442e+00
-8.515697076749077e-20  1.197444668940617e-17  4.225173607881117e-01
-1.002145272531442e+00  4.225173607881117e-01  7.895140292226057e-18

 1.050217440824857e-17 -1.086122914717740e-19 -1.006004110391166e+00
-1.086122914717740e-19  3.465781482321897e-17  4.176761230060692e-01
-1.006004110391166e+00  4.176761230060692e-01  8.153494377946157e-18

 1.041106597671176e-17 -8.181536027018126e-20 -1.003319537847015e+00
-8.181536027018126e-20  9.047160735803329e-18  4.207287526669379e-01
-1.003319537847015e+00  4.207287526669379e-01  7.944534903793382e-18

 1.050823206954531e-17 -7.742024450037067e-20 -1.007285201103886e+00
-7.742024450037067e-20  6.033559546955033e-18  4.179258294976965e-01
-1.007285201103886e+00  4.179258294976965e-01  8.191070960581562e-18

 1.040337190842294e-17 -8.269169343215162e-20 -1.004618549996820e+00
-8.269169343215162e-20  8.233573280008531e-18  4.218178860935669e-01
-1.004618549996820e+00  4.218178860935669e-01  7.976312140701924e-18

 1.047647096068074e-17 -9.942111093277860e-20 -1.007798898712921e+00
-9.942111093277860e-20  3.580904737183006e-17  4.179782885863664e-01
-1.007798898712921e+00  4.179782885863664e-01  8.170749804854932e-18

 1.042643629920010e-17 -8.935267504796954e-20 -1.007362258338708e+00
-8.935267504796954e-20  2.130377509099470e-17  4.185494858429083e-01
-1.007362258338708e+00  4.185494858429083e-01  8.122888515138324e-18

 1.057428866562662e-17 -6.935561760997540e-20 -1.013957746601620e+00
-6.935561760997540e-20 -8.529723338344205e-18  4.148069461341407e-01
-1.013957746601620e+00  4.148069461341407e-01  8.568385941646417e-18

 1.060543126854860e-17 -6.862767845168929e-20 -1.016690043972595e+00
-6.862767845168929e-20 -1.555357233269007e-17  4.165103619134181e-01
-1.016690043972595e+00  4.165103619134181e-01  8.669307801443211e-18

 1.053047046227565e-17 -9.133328798621127e-20 -1.014706385729919e+00
-9.133328798621127e-20  1.965364044874617e-17  4.216837874363306e-01
-1.014706385729919e+00  4.216837874363306e-01  8.480672423194083e-18

 1.044805037563181e-17 -9.159233312757288e-20 -1.011111346447361e+00
-9.159233312757288e-20  2.347833547118692e-17  4.203077064599811e-01
-1.011111346447361e+00  4.203077064599811e-01  8.285601729742508e-18

 1.035627226246944e-17 -8.507035121415900e-20 -1.008131033721206e+00
-8.507035121415900e-20  9.338503533527175e-18  4.194453225529147e-01
-1.008131033721206e+00  4.194453225529147e-01  8.081484092559483e-18

 1.029481283162528e-17 -8.063130498350132e-20 -1.006269590863066e+00
-8.063130498350132e-20 -3.997668842331852e-18  4.204025808533049e-01
-1.006269590863066e+00  4.204025808533049e-01  8.017579456337555e-18

 1.037597207331443e-17 -8.850857085427117e-20 -1.010339431203864e+00
-8.850857085427117e-20  1.998809811086800e-18  4.162900902007686e-01
-1.010339431203864e+00  4.162900902007686e-01  8.305964515221761e-18

 1.028837131022230e-17 -1.012378794193276e-19 -1.007863645516024e+00
-1.012378794193276e-19  3.186167544256765e-17  4.186133797301908e-01
-1.007863645516024e+00  4.186133797301908e-01  8.152647163040565e-18

 1.020913320256385e-17 -9.036745339565046e-20 -1.005316428108652e+00
-9.036745339565046e-20  2.739526911366905e-18  4.230048935614984e-01
-1.005316428108652e+00  4.230048935614984e-01  7.945085655043953e-18

 1.022143107295071e-17 -8.101545149590771e-20 -1.007452631857233e+00
-8.101545149590771e-20 -6.836971884259967e-18  4.168373095532366e-01
-1.007452631857233e+00  4.168373095532366e-01  8.124167352757719e-18

 1.025751990228706e-17 -9.107116234187341e-20 -1.010370070991572e+00
-9.107116234187341e-20  9.672530685269641e-18  4.182207664237748e-01
-1.010370070991572e+00  4.182207664237748e-01  8.224009125071384e-18

 1.031171891656050e-17 -1.076148909197100e-19 -1.013826224021121e+00
-1.076148909197100e-19  2.618692879863928e-17  4.197991709624003e-01
-1.013826224021121e+00  4.197991709624003e-01  8.388742362286583e-18

 1.015760798803722e-17 -1.204478587840794e-19 -1.009276083693362e+00
-1.204478587840794e-19  1.547275841438371e-17  4.190161019556269e-01
-1.009276083693362e+00  4.190161019556269e-01  8.183858319151881e-18

 1.000701653278071e-17 -1.296111548758110e-19 -1.002366127925662e+00
-1.296111548758110e-19  2.559698330806267e-17  4.178114728340047e-01
-1.002366127925662e+00  4.178114728340047e-01  7.969145610056470e-18

 9.970050014250546e-18 -1.340475766447823e-19 -1.000204191783337e+00
-1.340475766447823e-19  5.838387573818875e-17  4.182474813967767e-01
-1.000204191783337e+00  4.182474813967767e-01  7.997442128468742e-18

 1.004489532941321e-17 -1.323663020471334e-19 -1.001856150033102e+00
-1.323663020471334e-19  5.611708826193663e-17  4.136474318677231e-01
-1.001856150033102e+00  4.136474318677231e-01  8.240397806540875e-18

 9.967317228427838e-18 -1.116913925955999e-19 -9.987189807595814e-01
-1.116913925955999e-19 -3.381453233700677e-17  4.147886564140519e-01
-9.987189807595814e-01  4.147886564140519e-01  8.157012322706668e-18

 9.910846730719265e-18 -1.058916404718792e-19 -9.959223978310389e-01
-1.058916404718792e-19  8.079796963270601e-18  4.150322650790467e-01
-9.959223978310389e-01  4.150322650790467e-01  8.077545367776186e-18

 9.861745563790783e-18 -8.953692950959010e-20 -9.931488308685100e-01
-8.953692950959010e-20 -3.441414120372234e-17  4.091211180501938e-01
-9.931488308685100e-01  4.091211180501938e-01  8.101059250639587e-18

 9.820093764184140e-18 -7.111929561091138e-20 -9.909243952391372e-01
-7.111929561091138e-20 -3.432382704281951e-17  4.064835643560277e-01
-9.909243952391372e-01  4.064835643560277e-01  8.061184892806628e-18

 9.747279675610243e-18 -6.089485368996293e-20 -9.888455916458857e-01
-6.089485368996293e-20  1.065207514953573e-17  4.091171864645248e-01
-9.888455916458857e-01  4.091171864645248e-01  7.916700592902705e-18

 9.717166780455297e-18 -5.805546829870312e-20 -9.889416003162272e-01
-5.805546829870312e-20  7.201611947837103e-17  4.099644713443921e-01
-9.889416003162272e-01  4.099644713443921e-01  7.883199067404496e-18

 9.729283538918506e-18 -4.615750429229291e-20 -9.906570472330029e-01
-4.615750429229291e-20 -1.600966389279959e-17  4.050549266204984e-01
-9.906570472330029e-01  4.050549266204984e-01  8.014403946188017e-18

 9.604692379297816e-18 -4.802938374489270e-20 -9.861830981042383e-01
-4.802938374489270e-20 -1.157941127049859e-18  4.074886132994240e-01
-9.861830981042383e-01  4.074886132994240e-01  7.685045215048918e-18

 9.591346520886580e-18 -3.951322820812673e-20 -9.872180842730433e-01
-3.951322820812673e-20 -3.084142152396344e-17  4.064499777985652e-01
-9.872180842730433e-01  4.064499777985652e-01  7.697413802482840e-18

 9.624245945529066e-18 -4.470956021668338e-20 -9.920887492262693e-01
-4.470956021668338e-20  1.801582641751124e-17  4.076833257839085e-01
-9.920887492262693e-01  4.076833257839085e-01  7.875140038485349e-18

 9.794577532094684e-18 -4.582975810807471e-20 -1.001815077751977e+00
-4.582975810807471e-20  1.167365606260994e-17  4.015755081019181e-01
-1.001815077751977e+00  4.015755081019181e-01  8.393961786904042e-18

 9.606041586599060e-18 -5.401029639596507e-20 -9.969472666528176e-01
-5.401029639596507e-20  7.108024478705536e-17  4.093191904419495e-01
-9.969472666528176e-01  4.093191904419495e-01  7.964726168400704e-18

 9.593919274255115e-18 -5.276719556237158e-20 -9.972754466919994e-01
-5.276719556237158e-20  3.099926592009383e-17  4.116569343970937e-01
-9.972754466919994e-01  4.116569343970937e-01  7.888803171321752e-18

 9.631612569810424e-18 -5.649026316716730e-20 -1.001151458202862e+00
-5.649026316716730e-20  9.680064156937513e-18  4.045460325247116e-01
-1.001151458202862e+00  4.045460325247116e-01  8.201967620468246e-18

 9.587454516170238e-18 -6.226340351451479e-20 -1.000456207008557e+00
-6.226340351451479e-20  4.645016154589028e-17  4.067407341626934e-01
-1.000456207008557e+00  4.067407341626934e-01  8.075523015381034e-18

 9.563757039456612e-18 -6.431944043314889e-20 -1.001741292229228e+00
-6.431944043314889e-20  3.360198433220053e-17  4.090095992846113e-01
-1.001741292229228e+00  4.090095992846113e-01  8.147016311743682e-18

 9.495457227367779e-18 -7.007841141557756e-20 -1.000203501961570e+00
-7.007841141557756e-20  5.643051517495758e-17  4.109442259298193e-01
-1.000203501961570e+00  4.109442259298193e-01  8.029040962477294e-18

 9.581179891993345e-18 -6.996402800043758e-20 -1.005182279408925e+00
-6.996402800043758e-20  2.160638323322890e-17  4.031187520798901e-01
-1.005182279408925e+00  4.031187520798901e-01  8.424536322131991e-18

 9.374457577337477e-18 -7.014000695794798e-20 -9.981708975875162e-01
-7.014000695794798e-20  5.334177149953777e-18  4.062932526996941e-01
-9.981708975875162e-01  4.062932526996941e-01  8.012351799094451e-18

 9.317012833824768e-18 -5.939266438435855e-20 -9.976923048519042e-01
-5.939266438435855e-20 -4.696975509018693e-17  4.065284711754862e-01
-9.976923048519042e-01  4.065284711754862e-01  8.056014549031704e-18

 9.301883213975375e-18 -8.003291942640336e-20 -9.984155683669803e-01
-8.003291942640336e-20  1.264512161511275e-17  4.042175217017699e-01
-9.984155683669803e-01  4.042175217017699e-01  8.206472252193323e-18

 9.215896327056527e-18 -7.406623073203612e-20 -9.950656412625766e-01
-7.406623073203612e-20 -5.885016976731062e-18  4.043960603920264e-01
-9.950656412625766e-01  4.043960603920264e-01  8.042257791179623e-18

 9.057724542198809e-18 -8.880403822905438e-20 -9.896684046803236e-01
-8.880403822905438e-20  3.003851687406667e-17  4.062178513144160e-01
-9.896684046803236e-01  4.062178513144160e-01  7.782905937455515e-18

 9.010034197140931e-18 -7.231082102451213e-20 -9.879971869942622e-01
-7.231082102451213e-20 -1.416130080857188e-17  4.028570806207226e-01
-9.879971869942622e-01  4.028570806207226e-01  7.834483356703973e-18

 8.825994024771906e-18 -9.536290556739367e-20 -9.811517849778510e-01
-9.536290556739367e-20  2.014280346313476e-17  4.060842459197197e-01
-9.811517849778510e-01  4.060842459197197e-01  7.550852214815669e-18

 8.553082987344591e-18 -9.420432077800211e-20 -9.696860842528296e-01
-9.420432077800211e-20  1.957441042887961e-17  4.125509281417239e-01
-9.696860842528296e-01  4.125509281417239e-01  6.999669380748929e-18

 8.269251466142818e-18 -5.473535128144740e-20 -9.581934638123737e-01
-5.473535128144740e-20 -3.131006314251272e-17  4.157574308399083e-01
-9.581934638123737e-01  4.157574308399083e-01  6.446651309116041e-18

 7.753141160922698e-18 -1.009063446662994e-19 -9.376616050701353e-01
-1.009063446662994e-19  1.229770345017038e-17  4.247685678502259e-01
-9.376616050701353e-01  4.247685678502259e-01  5.170315711431261e-18

 7.419120470507541e-18 -1.296338994119732e-19 -9.238141541993393e-01
-1.296338994119732e-19  6.289653536167934e-18  3.987827739342802e-01
-9.238141541993393e-01  3.987827739342802e-01  4.674464035351982e-18

 9.714643093461887e-18 -7.822944076185408e-20 -1.018650596702195e+00
-7.822944076185408e-20  2.207776890114358e-18  3.026841549290393e-01
-1.018650596702195e+00  3.026841549290393e-01  1.181470628483850e-17

 7.598530015342020e-18 -9.821721955843620e-20 -9.359695606559189e-01
-9.821721955843620e-20  1.144933944282204e-17  3.951269623455512e-01
-9.359695606559189e-01  3.951269623455512e-01  5.317170060596399e-18

 7.860312730061632e-18 -1.626435619844815e-19 -9.533378522785351e-01
-1.626435619844815e-19  1.281508272055235e-17  4.270707177804379e-01
-9.533378522785351e-01  4.270707177804379e-01  5.874850650920640e-18

 8.254811114567392e-18 -1.693164947112828e-19 -9.786021005339097e-01
-1.693164947112828e-19  2.671378942735255e-17  4.169005407877955e-01
-9.786021005339097e-01  4.169005407877955e-01  7.045215949218212e-18

 8.453351446103904e-18 -1.414720045404200e-19 -9.919854616630329e-01
-1.414720045404200e-19 -1.934147398882687e-17  4.138153503078182e-01
-9.919854616630329e-01  4.138153503078182e-01  7.592087300741269e-18

 8.561885873299803e-18 -1.521779668828491e-19 -1.002684486310137e+00
-1.521779668828491e-19 -5.173860667489604e-18  4.085361899881257e-01
-1.002684486310137e+00  4.085361899881257e-01  8.067612946099188e-18

 8.507986531238110e-18 -1.572875489242851e-19 -1.006114953170919e+00
-1.572875489242851e-19  2.241088830672447e-18  4.108864340872315e-01
-1.006114953170919e+00  4.108864340872315e-01  7.974283425856210e-18

 8.619746199833370e-18 -1.574241399791831e-19 -1.017074471070539e+00
-1.574241399791831e-19 -2.674941777456315e-17  4.059090239982980e-01
-1.017074471070539e+00  4.059090239982980e-01  8.485119521760459e-18

 8.371866182280085e-18 -1.821139617645077e-19 -1.010771422612498e+00
-1.821139617645077e-19  9.195399062180983e-18  4.236363252914034e-01
-1.010771422612498e+00  4.236363252914034e-01  7.770731223502220e-18

 8.637559634532941e-18 -1.782967715996963e-19 -1.026141050114459e+00
-1.782967715996963e-19 -1.155397110862422e-17  4.160094547971478e-01
-1.026141050114459e+00  4.160094547971478e-01  8.720785692646772e-18

 8.798552355890378e-18 -1.924326014588491e-19 -1.036337958799971e+00
-1.924326014588491e-19  1.837708300038640e-18  3.991145775055530e-01
-1.036337958799971e+00  3.991145775055530e-01  9.435165873414974e-18

 8.701129620898004e-18 -2.065037069923878e-19 -1.034699980853095e+00
-2.065037069923878e-19  3.680859129320962e-17  3.967343458560560e-01
-1.034699980853095e+00  3.967343458560560e-01  9.389582573455479e-18

 8.106217363038222e-18 -2.167305394507281e-19 -1.014899366262852e+00
-2.167305394507281e-19  4.022728049940613e-17  4.189276321871096e-01
-1.014899366262852e+00  4.189276321871096e-01  7.811061327520370e-18

 8.083867028731346e-18 -2.220810322895035e-19 -1.018061853133204e+00
-2.220810322895035e-19  2.707272649448196e-17  4.144139918326311e-01
-1.018061853133204e+00  4.144139918326311e-01  8.024176888397652e-18

 7.970113772972809e-18 -2.295611997253872e-19 -1.017904729454621e+00
-2.295611997253872e-19 -9.366126735051735e-18  4.143201043221352e-01
-1.017904729454621e+00  4.143201043221352e-01  8.000335384250641e-18

 7.837413578724315e-18 -2.382419816743275e-19 -1.015443829606041e+00
-2.382419816743275e-19 -1.795860357909026e-17  4.186846537786582e-01
-1.015443829606041e+00  4.186846537786582e-01  7.790346311526428e-18

 7.656149017361187e-18 -2.620313510698728e-19 -1.012075513334386e+00
-2.620313510698728e-19  8.408089219413781e-18  4.238808758051723e-01
-1.012075513334386e+00  4.238808758051723e-01  7.481965182244202e-18

 7.683599415491702e-18 -2.773275987317641e-19 -1.016999837001117e+00
-2.773275987317641e-19  4.185588365762859e-18  4.146014507511315e-01
-1.016999837001117e+00  4.146014507511315e-01  7.888426009759263e-18

 7.461251598799213e-18 -2.866576421197126e-19 -1.013015599576730e+00
-2.866576421197126e-19 -1.254986754581116e-17  4.195544177953026e-01
-1.013015599576730e+00  4.195544177953026e-01  7.530615781545009e-18

 7.299707979306703e-18 -3.171900440589225e-19 -1.014578738771654e+00
-3.171900440589225e-19 -1.377112595605932e-17  4.217015918815774e-01
-1.014578738771654e+00  4.217015918815774e-01  7.541942164163176e-18

 7.089391457319952e-18 -3.578179254889112e-19 -1.015242112744448e+00
-3.578179254889112e-19  1.078725176087934e-17  4.213825748312228e-01
-1.015242112744448e+00  4.213825748312228e-01  7.508962007370927e-18

 6.889855846964844e-18 -3.909642328170706e-19 -1.015364794605342e+00
-3.909642328170706e-19  1.043699460080235e-17  4.227524760981027e-01
-1.015364794605342e+00  4.227524760981027e-01  7.401269669276520e-18

 6.620674400724096e-18 -4.329707466726082e-19 -1.015593546770152e+00
-4.329707466726082e-19  6.025378413029970e-18  4.205562517569817e-01
-1.015593546770152e+00  4.205562517569817e-01  7.299558444853743e-18

 6.401843958690530e-18 -4.832094989125646e-19 -1.016820067640947e+00
-4.832094989125646e-19  3.714285095884040e-17  4.265186734006374e-01
-1.016820067640947e+00  4.265186734006374e-01  7.190445521054148e-18

 6.241693232985484e-18 -5.131145459462726e-19 -1.018503644031800e+00
-5.131145459462726e-19  3.066714444975386e-17  4.256308746746313e-01
-1.018503644031800e+00  4.256308746746313e-01  7.210226318447874e-18

 6.008083066684043e-18 -5.785783807370965e-19 -1.020302650035093e+00
-5.785783807370965e-19  4.526178671798342e-17  4.223499441359296e-01
-1.020302650035093e+00  4.223499441359296e-01  7.261023235252097e-18

 5.561894744808934e-18 -6.582455107119135e-19 -1.020100243951398e+00
-6.582455107119135e-19  4.326878838226665e-18  4.236295389135292e-01
-1.020100243951398e+00  4.236295389135292e-01  7.121925373376928e-18

 5.159558637915339e-18 -7.405491027416118e-19 -1.019327174099600e+00
-7.405491027416118e-19  1.305030607785867e-17  4.238082696216566e-01
-1.019327174099600e+00  4.238082696216566e-01  6.962207602249160e-18

 4.876957420384536e-18 -7.824614955449993e-19 -1.018194092229607e+00
-7.824614955449993e-19 -4.435016557271986e-17  4.265632165014703e-01
-1.018194092229607e+00  4.265632165014703e-01  6.823802717238478e-18

 4.462866260490992e-18 -8.718945416569968e-19 -1.017087758346883e+00
-8.718945416569968e-19 -8.022548939014476e-18  4.225859534438057e-01
-1.017087758346883e+00  4.225859534438057e-01  6.752238008476860e-18

 3.984450220211380e-18 -9.759635554077316e-19 -1.014283946116351e+00
-9.759635554077316e-19  2.998792184845934e-18  4.227693910055467e-01
-1.014283946116351e+00  4.227693910055467e-01  6.499883997905719e-18

 3.548997841829598e-18 -1.078139380987640e-18 -1.013248191881385e+00
-1.078139380987640e-18  1.412548346270055e-17  4.202928898545273e-01
-1.013248191881385e+00  4.202928898545273e-01  6.373036115239332e-18

 2.956183078524831e-18 -1.222246403952565e-18 -1.016701618228579e+00
-1.222246403952565e-18  4.522536004415358e-18  4.233639959864759e-01
-1.016701618228579e+00  4.233639959864759e-01  6.422287884899726e-18

 2.163386501211902e-18 -1.381190149490555e-18 -1.009313140666195e+00
-1.381190149490555e-18 -1.525209014974150e-17  4.155433965725651e-01
-1.009313140666195e+00  4.155433965725651e-01  5.897930204705797e-18

 1.324321433150379e-18 -1.554646420377717e-18 -1.003665108089598e+00
-1.554646420377717e-18 -4.580820608653965e-17  4.212920960557776e-01
-1.003665108089598e+00  4.212920960557776e-01  5.308739982068445e-18

 9.358299357720734e-19 -1.711065498703515e-18 -1.012536022112915e+00
-1.711065498703515e-18  3.008799385363395e-17  4.142212868908813e-01
-1.012536022112915e+00  4.142212868908813e-01  5.725955061999585e-18

 4.650965522563065e-19 -1.870611386933358e-18 -1.020308138335793e+00
-1.870611386933358e-18  4.736303992798411e-19  4.113141506937849e-01
-1.020308138335793e+00  4.113141506937849e-01  5.983694617597916e-18

-9.673959945917046e-19 -2.233768604997533e-18 -1.011981071710929e+00
-2.233768604997533e-18 -2.551228104486808e-18  4.148347870033489e-01
-1.011981071710929e+00  4.148347870033489e-01  5.022151342020370e-18

-2.514016896779589e-18 -2.692252715939212e-18 -1.009790235523883e+00
-2.692252715939212e-18  1.683944062638932e-17  4.114971316657397e-01
-1.009790235523883e+00  4.114971316657397e-01  4.394702375849879e-18

-4.243535301457292e-18 -3.353300202754790e-18 -1.024289997505305e+00
-3.353300202754790e-18 -1.911286169957275e-17  4.117567427910058e-01
-1.024289997505305e+00  4.117567427910058e-01  4.598635045827832e-18

-6.938388541206838e-18 -4.229250201607270e-18 -1.004579298420945e+00
-4.229250201607270e-18 -1.828508755507150e-17  4.153005201449104e-01
-1.004579298420945e+00  4.153005201449104e-01  2.808151479786571e-18

-9.257403696600444e-18 -5.053433282843570e-18 -9.877119357604272e-01
-5.053433282843570e-18 -2.187048334794317e-17  4.179420000655674e-01
-9.877119357604272e-01  4.179420000655674e-01  1.298408643630632e-18

-1.240984428052565e-17 -6.164931798101894e-18 -9.658185433769469e-01
-6.164931798101894e-18 -8.508934057390245e-18  4.242132933561480e-01
-9.658185433769469e-01  4.242132933561480e-01 -8.667486028946636e-19

-1.315973850614524e-17 -6.926968699580666e-18 -1.008512553222139e+00
-6.926968699580666e-18 -4.889745096579857e-17  3.670616004596290e-01
-1.008512553222139e+00  3.670616004596290e-01  1.836828499291529e-18

-1.598839673224447e-17 -7.845890231331549e-18 -1.004494451345947e+00
-7.845890231331549e-18 -4.288022372610526e-17  4.149540844836954e-01
-1.004494451345947e+00  4.149540844836954e-01  6.902682131795217e-22

-2.231405096509501e-17 -1.066190378215952e-17 -9.891251956287817e-01
-1.066190378215952e-17 -2.334614616718322e-17  4.071340223811716e-01
-9.891251956287817e-01  4.071340223811716e-01 -2.846854353240105e-18

-2.625235143713115e-17 -1.258763486448703e-17 -9.941303110051899e-01
-1.258763486448703e-17 -3.619309996647998e-17  3.871342343044763e-01
-9.941303110051899e-01  3.871342343044763e-01 -3.578960221083829e-18

-3.179771257767978e-17 -1.491411479449558e-17 -9.879262571023106e-01
-1.491411479449558e-17 -9.132864095599991e-17  4.368514419403712e-01
-9.879262571023106e-01  4.368514419403712e-01 -6.306639979704608e-18

-3.988601269680510e-17 -1.880892650546375e-17 -9.909923300153932e-01
-1.880892650546375e-17 -1.003216324810176e-16  4.126153222206900e-01
-9.909923300153932e-01  4.126153222206900e-01 -8.887771442282045e-18

-4.731296148666800e-17 -2.239721029800740e-17 -1.008392999411352e+00
-2.239721029800740e-17 -1.129158208365610e-16  4.191433742814091e-01
-1.008392999411352e+00  4.191433742814091e-01 -1.073933745788425e-17

-6.096128961584628e-17 -2.913457113237946e-17 -1.041127798440426e+00
-2.913457113237946e-17 -7.694276123148490e-17  4.228461052063232e-01
-1.041127798440426e+00  4.228461052063232e-01 -1.381502353673485e-17

-7.358382752615076e-17 -3.578371137204502e-17 -1.048646021736889e+00
-3.578371137204502e-17 -1.683416270477509e-16  4.029461069384297e-01
-1.048646021736889e+00  4.029461069384297e-01 -1.754535899186504e-17

-8.564948113931541e-17 -4.226462200601205e-17 -1.061777509117113e+00
-4.226462200601205e-17 -6.537794443896568e-17  3.825493551098713e-01
-1.061777509117113e+00  3.825493551098713e-01 -2.056103066749811e-17

-1.081396915073009e-16 -5.317665620197155e-17 -1.089591495905510e+00
-5.317665620197155e-17 -1.042208815948672e-16  4.527196195736410e-01
-1.089591495905510e+00  4.527196195736410e-01 -2.679864267207221e-17

-1.350697369980879e-16 -6.938872615368837e-17 -1.041206167506854e+00
-6.938872615368837e-17 -2.320770169892461e-16  4.338485366750364e-01
-1.041206167506854e+00  4.338485366750364e-01 -3.683512015002645e-17

-1.778920162055163e-16 -9.642199874672994e-17 -9.521134475613627e-01
-9.642199874672994e-17 -2.218615286268573e-16  4.280278111010473e-01
-9.521134475613627e-01  4.280278111010473e-01 -5.298812244227681e-17

-2.321495507627133e-16 -1.290601191815628e-16 -9.458271451871966e-01
-1.290601191815628e-16 -2.846726454892630e-16  4.024350910943336e-01
-9.458271451871966e-01  4.024350910943336e-01 -6.819996764095671e-17

-2.980756043152152e-16 -1.647936961115039e-16 -9.446736638662115e-01
-1.647936961115039e-16 -4.105654108866933e-16  4.238460516336542e-01
-9.446736638662115e-01  4.238460516336542e-01 -8.777147065456943e-17

-4.245252280025013e-16 -2.288814524402826e-16 -9.996686829907254e-01
-2.288814524402826e-16 -4.526299715990136e-16  4.394049381683712e-01
-9.996686829907254e-01  4.394049381683712e-01 -1.216764505295173e-16

-6.069943390961797e-16 -3.163851393523549e-16 -1.011239991371386e+00
-3.163851393523549e-16 -5.988337618110174e-16  4.179879929755310e-01
-1.011239991371386e+00  4.179879929755310e-01 -1.732084000818765e-16

-9.004177361339694e-16 -4.395297478842515e-16 -1.014841294559954e+00
-4.395297478842515e-16 -7.862014147160644e-16  4.170678625843011e-01
-1.014841294559954e+00  4.170678625843011e-01 -2.573728793754644e-16

-1.343790886171256e-15 -5.899915006148764e-16 -1.020020473235455e+00
-5.899915006148764e-16 -1.028601741829381e-15  4.197045528259359e-01
-1.020020473235455e+00  4.197045528259359e-01 -3.879085970653720e-16

-2.042448634340039e-15 -7.565693284223513e-16 -1.023832663230624e+00
-7.565693284223513e-16 -1.231029177707008e-15  4.181059392605069e-01
-1.023832663230624e+00  4.181059392605069e-01 -6.059679410754888e-16

-2.655780982999690e-15 -8.434335098550412e-16 -1.016371018105046e+00
-8.434335098550412e-16 -1.348074027099164e-15  4.239754798289653e-01
-1.016371018105046e+00  4.239754798289653e-01 -8.127636116731584e-16

-3.367083380870667e-15 -8.896600450028582e-16 -1.021523501799221e+00
-8.896600450028582e-16 -1.559276070136607e-15  4.174253687785790e-01
-1.021523501799221e+00  4.174253687785790e-01 -1.070510400730990e-15

-4.732399172080127e-15 -8.131675488338740e-16 -1.020970400094209e+00
-8.131675488338740e-16 -1.804086828708581e-15  4.200194972704802e-01
-1.020970400094209e+00  4.200194972704802e-01 -1.634071804875063e-15

-6.966387759871823e-15 -5.224814549741723e-16 -1.020372733544406e+00
-5.224814549741723e-16 -2.112049884069330e-15  4.211888795364335e-01
-1.020372733544406e+00  4.211888795364335e-01 -2.667054567030720e-15

-9.558107404067287e-15  4.022606186003359e-17 -1.018197483766861e+00
 4.022606186003359e-17 -2.640679579205822e-15  4.203134158052286e-01
-1.018197483766861e+00  4.203134158052286e-01 -4.029161754250054e-15

-1.405246799340882e-14  1.282150058362871e-15 -1.012927586410318e+00
 1.282150058362871e-15 -2.770902007942544e-15  4.229323454354511e-01
-1.012927586410318e+00  4.229323454354511e-01 -6.552914369159296e-15

 1.433378116039820e-14  2.445757493810556e-14 -1.010710174309411e+00
 2.445757493810556e-14  3.011783790595628e-14  4.213617000440101e-01
-1.010710174309411e+00  4.213617000440101e-01 -2.284647235227880e-15

-6.422562028671246e-13 -1.546929420669705e-13 -1.011432137408396e+00
-1.546929420669705e-13 -2.804973681548418e-13  4.225039941792804e-01
-1.011432137408396e+00  4.225039941792804e-01 -2.124493149413454e-13

 1.957617503032402e-14  3.894286584252170e-15 -1.012994791881668e+00
 3.894286584252170e-15  2.381614971323124e-14  4.178150572698942e-01
-1.012994791881668e+00  4.178150572698942e-01 -3.991944083961732e-15

-7.420619557128212e-15 -1.174828371446245e-14 -1.012806728344138e+00
-1.174828371446245e-14 -2.389173177174395e-16  4.175209530503657e-01
-1.012806728344138e+00  4.175209530503657e-01 -8.286396124071470e-15

-6.483358420252958e-13 -1.505058483091547e-13 -1.013103342799890e+00
-1.505058483091547e-13 -3.236533983459588e-13  4.182363233994090e-01
-1.013103342799890e+00  4.182363233994090e-01 -1.598148110899705e-13

-4.053360520795979e-15 -9.032802605038925e-15 -1.013235742642101e+00
-9.032802605038925e-15  8.044672489202809e-16  4.179862060331220e-01
-1.013235742642101e+00  4.179862060331220e-01 -4.552691784750636e-15

-3.159514203849895e-15 -7.156062489518410e-15 -1.012193461768853e+00
-7.156062489518410e-15  1.438717677387095e-15  4.179353359987743e-01
-1.012193461768853e+00  4.179353359987743e-01 -3.348100500433261e-15

-2.621165321978252e-15 -4.492800797036179e-15 -1.012501662081247e+00
-4.492800797036179e-15  1.609276255815163e-15  4.174457281791520e-01
-1.012501662081247e+00  4.174457281791520e-01 -2.046191503129371e-15

-1.923231329649066e-15 -2.099088078362547e-15 -1.011907581845117e+00
-2.099088078362547e-15  1.227199768402107e-15  4.172649568392542e-01
-1.011907581845117e+00  4.172649568392542e-01 -1.083030518784444e-15

-1.383324451598954e-15 -1.015740634993623e-15 -1.011883910097324e+00
-1.015740634993623e-15  7.709734908524534e-16  4.172630669269060e-01
-1.011883910097324e+00  4.172630669269060e-01 -6.434046807484632e-16

-9.640691460614380e-16 -4.837497681277624e-16 -1.012077598288353e+00
-4.837497681277624e-16  4.231101033084311e-16  4.170627242225785e-01
-1.012077598288353e+00  4.170627242225785e-01 -3.971179415639025e-16

-6.649447344376050e-16 -2.283445914230789e-16 -1.012614379780995e+00
-2.283445914230789e-16  2.182458804747927e-16  4.168817809061291e-01
-1.012614379780995e+00  4.168817809061291e-01 -2.530637331605015e-16

-4.670479560663671e-16 -1.099516032393648e-16 -1.012884016873155e+00
-1.099516032393648e-16  1.063251121829466e-16  4.174765861832577e-01
-1.012884016873155e+00  4.174765861832577e-01 -1.685914500036243e-16

-3.496981702723804e-16 -5.976977880442267e-17 -1.012722970964361e+00
-5.976977880442267e-17  4.568521614009455e-17  4.146852236398557e-01
-1.012722970964361e+00  4.146852236398557e-01 -1.220976773258277e-16

-2.446809146772927e-16 -3.665788645166740e-17 -1.015902649883859e+00
-3.665788645166740e-17  2.815892430710070e-17  4.171245958736197e-01
-1.015902649883859e+00  4.171245958736197e-01 -8.912466789590691e-17

-2.039915925616746e-16 -1.539571603547272e-17 -1.021221681918759e+00
-1.539571603547272e-17  5.252326048692170e-19  4.107691828459174e-01
-1.021221681918759e+00  4.107691828459174e-01 -6.658410993818496e-17

-1.704379721634414e-16 -8.731080759880750e-18 -1.019185350650892e+00
-8.731080759880750e-18 -4.560231032320237e-18  4.177015558125602e-01
-1.019185350650892e+00  4.177015558125602e-01 -5.454797727375197e-17

-1.402789139555779e-16 -4.126881648190709e-18 -1.016115833711366e+00
-4.126881648190709e-18 -3.036725833562824e-18  4.146789428538045e-01
-1.016115833711366e+00  4.146789428538045e-01 -4.380399092448874e-17

-1.110968167360796e-16 -8.236240429003904e-19 -1.014497726972631e+00
-8.236240429003904e-19 -2.282112573952757e-17  4.162365091561368e-01
-1.014497726972631e+00  4.162365091561368e-01 -3.348008578429582e-17

-9.220351406262423e-17  9.337994963524617e-19 -1.013736531366985e+00
 9.337994963524617e-19 -2.195898621470407e-17  4.167452678007124e-01
-1.013736531366985e+00  4.167452678007124e-01 -2.681568352196856e-17

-7.676147330249692e-17  1.758283698744016e-18 -1.010852093343730e+00
 1.758283698744016e-18 -1.839386012910534e-17  4.134671621772643e-01
-1.010852093343730e+00  4.134671621772643e-01 -2.146350492376581e-17

-6.516010939573637e-17  2.300495188551695e-18 -1.010517163002828e+00
 2.300495188551695e-18 -1.568925416008228e-17  4.143023580208314e-01
-1.010517163002828e+00  4.143023580208314e-01 -1.737895878059438e-17

-5.787263703672516e-17  2.504646638244129e-18 -1.015658599970832e+00
 2.504646638244129e-18 -1.271467151054355e-17  4.054358536340203e-01
-1.015658599970832e+00  4.054358536340203e-01 -1.444722771858166e-17

-4.719194642863451e-17  2.597323282761273e-18 -1.011981595018950e+00
 2.597323282761273e-18 -1.294560812504767e-17  4.133579176731143e-01
-1.011981595018950e+00  4.133579176731143e-01 -1.093876715284250e-17

-3.782626596817064e-17  2.545419942286059e-18 -1.007753016896975e+00
 2.545419942286059e-18 -1.306363671042581e-17  4.103140480861582e-01
-1.007753016896975e+00  4.103140480861582e-01 -7.783427904997253e-18

-3.041711880623422e-17  2.401252981724637e-18 -1.003284128100225e+00
 2.401252981724637e-18 -1.340308904600066e-17  4.127237836736684e-01
-1.003284128100225e+00  4.127237836736684e-01 -5.334701062944232e-18

-2.545378809069855e-17  2.221875160824625e-18 -9.966663937846828e-01
 2.221875160824625e-18 -5.040458164500145e-18  4.124168112078645e-01
-9.966663937846828e-01  4.124168112078645e-01 -3.824393490860856e-18

-2.243733676604996e-17  2.091220274611652e-18 -9.827666694763241e-01
 2.091220274611652e-18 -1.295475783982652e-17  4.225419351578022e-01
-9.827666694763241e-01  4.225419351578022e-01 -3.531639418576220e-18

-1.946813606496442e-17  1.971712934645774e-18 -9.678035945294913e-01
 1.971712934645774e-18 -3.889941176262862e-18  4.100647141268337e-01
-9.678035945294913e-01  4.100647141268337e-01 -3.093370853624759e-18

-1.591814415508501e-17  1.905683438725479e-18 -1.034605608645044e+00
 1.905683438725479e-18 -6.041504508768264e-18  3.380614376213311e-01
-1.034605608645044e+00  3.380614376213311e-01  2.654662872237159e-18

-1.607995234747200e-17  1.724739007307575e-18 -9.680854547199368e-01
 1.724739007307575e-18 -1.453866089872698e-17  4.239240987189411e-01
-9.680854547199368e-01  4.239240987189411e-01 -2.140715676519200e-18

-1.364620708106900e-17  1.616436836890335e-18 -9.892933550880068e-01
 1.616436836890335e-18 -5.153790210937918e-18  4.148039825045423e-01
-9.892933550880068e-01  4.148039825045423e-01 -2.083127176152813e-19

-1.108177697932599e-17  1.452598219090786e-18 -1.018825464384391e+00
 1.452598219090786e-18 -1.052140465322309e-17  4.033876298416513e-01
-1.018825464384391e+00  4.033876298416513e-01  2.190673097771696e-18

-8.131583546633989e-18  1.250883606886574e-18 -1.016913089405346e+00
 1.250883606886574e-18 -4.776331306366290e-20  4.049754231046902e-01
-1.016913089405346e+00  4.049754231046902e-01  2.923818663097203e-18

-6.510746101392903e-18  1.106474242803329e-18 -1.000304547570414e+00
 1.106474242803329e-18 -1.140910479810184e-17  4.193316281980455e-01
-1.000304547570414e+00  4.193316281980455e-01  2.428272212981664e-18

-5.413490046681930e-18  9.857229056591853e-19 -9.981908989340422e-01
 9.857229056591853e-19 -5.613026855789686e-18  4.232479718660844e-01
-9.981908989340422e-01  4.232479718660844e-01  2.694845387715231e-18

-3.804107729243707e-18  9.107066130674476e-19 -1.003693734543306e+00
 9.107066130674476e-19 -2.059576513719128e-18  4.103489862513912e-01
-1.003693734543306e+00  4.103489862513912e-01  3.670386891954065e-18

-2.462424718878073e-18  8.073648370775634e-19 -1.008397503336083e+00
 8.073648370775634e-19 -6.048003468217126e-18  4.159377327768885e-01
-1.008397503336083e+00  4.159377327768885e-01  4.304801361449725e-18

-1.561869186134929e-18  7.286879391825706e-19 -1.010157621201864e+00
 7.286879391825706e-19 -2.325336594307149e-18  4.046251108498343e-01
-1.010157621201864e+00  4.046251108498343e-01  4.814495711112979e-18

-9.704263494907379e-19  6.654654226266402e-19 -1.002019056689467e+00
 6.654654226266402e-19  5.629459281025294e-18  4.211472747197386e-01
-1.002019056689467e+00  4.211472747197386e-01  4.442260971018685e-18

-1.251206746351542e-19  5.608971048220110e-19 -9.995271719255937e-01
 5.608971048220110e-19  1.168557367298756e-18  4.141948701155764e-01
-9.995271719255937e-01  4.141948701155764e-01  4.751565329249868e-18

 6.236801727166169e-19  4.822088457697155e-19 -9.953631828300266e-01
 4.822088457697155e-19  1.712219454629607e-18  4.131074607362361e-01
-9.953631828300266e-01  4.131074607362361e-01  4.944860678393157e-18

 1.112751020005922e-18  4.502648582581704e-19 -9.949162351675318e-01
 4.502648582581704e-19 -2.250984893079858e-18  4.130747418948065e-01
-9.949162351675318e-01  4.130747418948065e-01  5.176639747536387e-18

 1.398932684561591e-18  4.241388595613198e-19 -9.908655979295627e-01
 4.241388595613198e-19 -5.339987228456854e-20  4.178287524643606e-01
-9.908655979295627e-01  4.178287524643606e-01  5.073174151822988e-18

 2.066842174259441e-18  3.711995988969255e-19 -9.897198982148814e-01
 3.711995988969255e-19  5.904873618078320e-18  4.130403604958722e-01
-9.897198982148814e-01  4.130403604958722e-01  5.460123104499486e-18

 2.594976128502410e-18  3.377900736881477e-19 -9.866650916882329e-01
 3.377900736881477e-19  6.255469288582016e-18  4.109477150065346e-01
-9.866650916882329e-01  4.109477150065346e-01  5.651027195763851e-18

 3.067028195613732e-18  2.832026821752999e-19 -9.847336514320543e-01
 2.832026821752999e-19  7.647226071606869e-18  4.100920639641428e-01
-9.847336514320543e-01  4.100920639641428e-01  5.722830628101877e-18

 3.496354144209890e-18  3.026924301439576e-19 -9.851101361637074e-01
 3.026924301439576e-19  4.212502523175300e-18  4.079960486497100e-01
-9.851101361637074e-01  4.079960486497100e-01  5.881794464862641e-18

 5.353123673796775e-18  1.779927937139204e-19 -9.861526258703494e-01
 1.779927937139204e-19  9.161066960245697e-18  4.061808078612883e-01
-9.861526258703494e-01  4.061808078612883e-01  6.114208549442711e-18

 2.237324320655452e-19  5.353148103200972e-19 -9.888888392968690e-01
 5.353148103200972e-19  5.023388537454557e-18  4.062914726352642e-01
-9.888888392968690e-01  4.062914726352642e-01  6.267464057611946e-18

-7.747501297400376e-18  1.054515927251723e-18 -9.910641690318565e-01
 1.054515927251723e-18  6.494916920944382e-18  4.042762441324895e-01
-9.910641690318565e-01  4.042762441324895e-01  6.441946084879592e-18

-7.504023410362225e-17  5.528608527167588e-18 -9.931178273146630e-01
 5.528608527167588e-18 -4.648147782868550e-19  4.067964879796484e-01
-9.931178273146630e-01  4.067964879796484e-01  6.514511568908781e-18

 2.272325487779690e-17 -9.649976079594792e-19 -9.981158266846524e-01
-9.649976079594792e-19  1.713966040699526e-18  4.052274677422611e-01
-9.981158266846524e-01  4.052274677422611e-01  6.802213218205289e-18

 1.102954082873763e-17 -2.198783685987735e-19 -9.949620966153366e-01
-2.198783685987735e-19  1.063469491907439e-18  4.088336110228089e-01
-9.949620966153366e-01  4.088336110228089e-01  6.570619199223198e-18

 4.641509812895642e-18  2.403823777635218e-19 -9.968769218132704e-01
 2.403823777635218e-19  9.679231795398458e-18  4.090616331828746e-01
-9.968769218132704e-01  4.090616331828746e-01  6.642795419793931e-18

 5.919830339748319e-18  1.175820957451599e-19 -1.000151974226620e+00
 1.175820957451599e-19  1.045593547267633e-17  4.093369014060114e-01
-1.000151974226620e+00  4.093369014060114e-01  6.858260692435631e-18

 6.171143874609398e-18  1.284643808979917e-19 -1.004995731733779e+00
 1.284643808979917e-19  1.077974111263692e-17  4.066301795937306e-01
-1.004995731733779e+00  4.066301795937306e-01  7.220961027544753e-18

 6.197792272648129e-18  1.191374207718361e-19 -1.006441622042129e+00
 1.191374207718361e-19  7.663855368443464e-18  4.088510463801149e-01
-1.006441622042129e+00  4.088510463801149e-01  7.268138838975486e-18

 6.386258249954273e-18  9.385296901475134e-20 -1.005729582454314e+00
 9.385296901475134e-20  8.004284681136061e-18  4.094398158496995e-01
-1.005729582454314e+00  4.094398158496995e-01  7.276897088388484e-18

 6.571506507576392e-18  6.595818010306530e-20 -1.005742257603139e+00
 6.595818010306530e-20 -1.910108720067357e-18  4.104787927929551e-01
-1.005742257603139e+00  4.104787927929551e-01  7.294521615542634e-18

 6.697758574562824e-18  6.920204967408094e-20 -1.003332792981641e+00
 6.920204967408094e-20  1.552712423783968e-17  4.114582597864785e-01
-1.003332792981641e+00  4.114582597864785e-01  7.236164923437951e-18

 6.886369029886415e-18  3.692060322039052e-20 -1.002575636880233e+00
 3.692060322039052e-20  8.830001144290354e-18  4.106543808359813e-01
-1.002575636880233e+00  4.106543808359813e-01  7.284129373676341e-18

 7.050244582896971e-18  3.465372710572673e-20 -1.003179559470229e+00
 3.465372710572673e-20  8.264735726862045e-18  4.116435796672788e-01
-1.003179559470229e+00  4.116435796672788e-01  7.354151895148953e-18

 7.202351174229871e-18  2.719366204160910e-20 -1.004667141649309e+00
 2.719366204160910e-20  1.655674166440984e-17  4.085607898762766e-01
-1.004667141649309e+00  4.085607898762766e-01  7.563946525738228e-18

 7.275796858608319e-18  1.639075240528864e-20 -1.002034425017351e+00
 1.639075240528864e-20  1.234545671814485e-17  4.113312130278166e-01
-1.002034425017351e+00  4.113312130278166e-01  7.428473832115478e-18

 7.445314060232494e-18  1.969212569506560e-20 -1.001436218335493e+00
 1.969212569506560e-20  2.038491309555487e-17  4.071401617440549e-01
-1.001436218335493e+00  4.071401617440549e-01  7.575384442695792e-18

 7.574942452464824e-18  1.630913941241385e-20 -9.989514320915830e-01
 1.630913941241385e-20  2.037604531241332e-17  4.083229158059568e-01
-9.989514320915830e-01  4.083229158059568e-01  7.562490989991969e-18

 7.916092565795126e-18 -3.871342878137098e-21 -1.005567186665586e+00
-3.871342878137098e-21  8.829930728691508e-18  3.994547973820146e-01
-1.005567186665586e+00  3.994547973820146e-01  8.154252549978792e-18

 7.765657387722466e-18  4.844064510925709e-21 -9.965714556286708e-01
 4.844064510925709e-21  5.770406626837470e-18  4.061219969566222e-01
-9.965714556286708e-01  4.061219969566222e-01  7.584353012901792e-18

 7.711774632888886e-18  5.311103688372923e-20 -9.970340272755975e-01
 5.311103688372923e-20  1.316810780001289e-17  4.019720991874776e-01
-9.970340272755975e-01  4.019720991874776e-01  7.689657757730651e-18

 7.924296527299850e-18  2.389877526719104e-20 -9.967103489889469e-01
 2.389877526719104e-20  7.029114442729600e-18  4.063259374987416e-01
-9.967103489889469e-01  4.063259374987416e-01  7.636952718303906e-18

 8.134146815735066e-18  4.773573349151430e-20 -1.004271680916509e+00
 4.773573349151430e-20  1.086278953002821e-17  3.991263005556599e-01
-1.004271680916509e+00  3.991263005556599e-01  8.260923551473729e-18

 2.922261738128760e-18  1.340627692011267e-18 -9.995332682829486e-01
 1.340627692011267e-18  9.534160868328669e-18  4.005296605019756e-01
-9.995332682829486e-01  4.005296605019756e-01  7.980167728549703e-18

 2.476396987668226e-17 -4.121465959284775e-18 -9.961848599139485e-01
-4.121465959284775e-18  1.175623519210607e-17  4.016569714737567e-01
-9.961848599139485e-01  4.016569714737567e-01  7.771814068840260e-18

-8.183270916604344e-17  2.234251401206672e-17 -9.762256649658787e-01
 2.234251401206672e-17 -5.027838129818500e-18  4.173198819164627e-01
-9.762256649658787e-01  4.173198819164627e-01  6.347132009750210e-18

-1.144233221301165e-17  4.863201456023139e-18 -9.839985895491162e-01
 4.863201456023139e-18  8.970008361693448e-18  4.051003960844891e-01
-9.839985895491162e-01  4.051003960844891e-01  6.985514279773288e-18

 8.305961134405835e-19  1.854526500482651e-18 -9.897408294896660e-01
 1.854526500482651e-18  1.227605603753782e-17  4.022417961920844e-01
-9.897408294896660e-01  4.022417961920844e-01  7.435010000573401e-18

 7.966783297829801e-18  1.931932852418134e-19 -1.006000085581447e+00
 1.931932852418134e-19  9.582122321913407e-18  3.947214489845158e-01
-1.006000085581447e+00  3.947214489845158e-01  8.579330841010151e-18

 8.535112223883429e-18  5.853150114558919e-20 -1.006831731387400e+00
 5.853150114558919e-20  6.906151869815858e-18  3.950587925150461e-01
-1.006831731387400e+00  3.950587925150461e-01  8.652204775905913e-18

 8.506139635052162e-18  2.302689498554146e-20 -9.936037047541573e-01
 2.302689498554146e-20  2.151698950510880e-17  3.999556426878985e-01
-9.936037047541573e-01  3.999556426878985e-01  7.829151193892400e-18

 8.497360363543804e-18 -3.592313649451041e-20 -9.827980449692691e-01
-3.592313649451041e-20  2.008558530325048e-17  4.034104581843406e-01
-9.827980449692691e-01  4.034104581843406e-01  7.171808522863049e-18

 8.388593756537651e-18 -7.786034533863007e-21 -9.791404970192674e-01
-7.786034533863007e-21  1.278965520048695e-17  4.071645166174511e-01
-9.791404970192674e-01  4.071645166174511e-01  6.963593233221665e-18

 8.686273110917503e-18 -2.326495459732316e-20 -9.875877427079753e-01
-2.326495459732316e-20  9.552709504128050e-18  3.980347860579025e-01
-9.875877427079753e-01  3.980347860579025e-01  7.761443704615566e-18

 8.731434555832457e-18  7.398882064465662e-21 -9.851222830316461e-01
 7.398882064465662e-21  2.706474137608526e-17  3.999387724807257e-01
-9.851222830316461e-01  3.999387724807257e-01  7.687280833714453e-18

 8.762378105815812e-18 -4.298327648410447e-20 -9.836860737964132e-01
-4.298327648410447e-20  5.428677936495147e-18  3.958556761535382e-01
-9.836860737964132e-01  3.958556761535382e-01  7.805860827166911e-18

 8.471857692645955e-18 -7.631604013520422e-21 -9.675636463228521e-01
-7.631604013520422e-21  2.047682244661606e-17  4.079240230488806e-01
-9.675636463228521e-01  4.079240230488806e-01  6.782449291675370e-18

 8.576881017733009e-18 -5.836742207103061e-20 -9.665000833472500e-01
-5.836742207103061e-20  1.916448424529732e-18  3.988194563526601e-01
-9.665000833472500e-01  3.988194563526601e-01  7.140203116294813e-18

 7.814547891484164e-18 -7.171972275603428e-20 -9.256856473748490e-01
-7.171972275603428e-20 -3.103620803233058e-18  4.129520288328997e-01
-9.256856473748490e-01  4.129520288328997e-01  4.922263366572877e-18

 9.464172138066610e-18 -7.133640847638856e-20 -9.875746311819796e-01
-7.133640847638856e-20  5.764811297979376e-18  3.173905025716296e-01
-9.875746311819796e-01  3.173905025716296e-01  1.012037606152760e-17

 7.811384809204167e-18 -1.091293536633246e-20 -9.207548080303773e-01
-1.091293536633246e-20  2.596037667342907e-17  3.979359530502841e-01
-9.207548080303773e-01  3.979359530502841e-01  4.840473293179588e-18

 8.148248595790686e-18 -7.691577320040747e-20 -9.345243046248340e-01
-7.691577320040747e-20  6.455849181019102e-18  4.151782536495112e-01
-9.345243046248340e-01  4.151782536495112e-01  5.456558513500627e-18

 8.624328542878897e-18 -1.024015179512840e-19 -9.542615836523508e-01
-1.024015179512840e-19 -4.651570152849272e-18  4.060597679848595e-01
-9.542615836523508e-01  4.060597679848595e-01  6.619721193446606e-18

 8.811805009583136e-18 -6.685573533352110e-20 -9.631278906378539e-01
-6.685573533352110e-20  1.283540267752885e-17  4.037675587634799e-01
-9.631278906378539e-01  4.037675587634799e-01  7.007773444963628e-18

 9.077814631012629e-18 -8.538710768562383e-20 -9.741461050343861e-01
-8.538710768562383e-20  5.131837202534065e-18  4.007179876203670e-01
-9.741461050343861e-01  4.007179876203670e-01  7.562164788244882e-18

 9.040050232917895e-18 -8.030491150288798e-20 -9.734698870645992e-01
-8.030491150288798e-20  6.608581700753675e-18  4.041359117991917e-01
-9.734698870645992e-01  4.041359117991917e-01  7.311006040663673e-18

 9.205598782445066e-18 -2.968185147066754e-20 -9.803226536002899e-01
-2.968185147066754e-20  3.307734551647623e-17  4.006509610411093e-01
-9.803226536002899e-01  4.006509610411093e-01  7.610516536997204e-18

 9.189390560980394e-18 -5.817844739456815e-20 -9.797867257862446e-01
-5.817844739456815e-20  2.319090879808966e-17  4.057458503579310e-01
-9.797867257862446e-01  4.057458503579310e-01  7.416972578465066e-18

 9.802234791286957e-18 -4.732786205511346e-20 -1.003410654412848e+00
-4.732786205511346e-20  2.010252187421650e-17  3.784375507133210e-01
-1.003410654412848e+00  3.784375507133210e-01  9.112995390073725e-18

 9.287627033569311e-18 -8.616321124092262e-20 -9.830179863712957e-01
-8.616321124092262e-20  8.629965392164072e-18  4.085023407646485e-01
-9.830179863712957e-01  4.085023407646485e-01  7.409475079327728e-18

 9.542939731363410e-18 -8.135269473206528e-20 -9.939539823398986e-01
-8.135269473206528e-20  9.017281047543239e-18  3.974811388926148e-01
-9.939539823398986e-01  3.974811388926148e-01  8.060612350376801e-18

 9.686916491651780e-18 -8.693356097525825e-20 -9.996323714407214e-01
-8.693356097525825e-20  1.191503509497333e-17  4.025929198946058e-01
-9.996323714407214e-01  4.025929198946058e-01  8.233187052010688e-18

 9.705007775076572e-18 -6.873181851618283e-20 -9.985376756269900e-01
-6.873181851618283e-20  2.819528729733777e-17  4.010945121013754e-01
-9.985376756269900e-01  4.010945121013754e-01  8.117567145819738e-18

 9.621051250179757e-18 -8.765579365645326e-20 -9.932653639044658e-01
-8.765579365645326e-20  2.038305690499449e-17  4.099249696760673e-01
-9.932653639044658e-01  4.099249696760673e-01  7.714891233965218e-18

 9.853728313428052e-18 -1.176094933702699e-19 -1.000450084525199e+00
-1.176094933702699e-19  1.026196796620000e-17  4.035973923997599e-01
-1.000450084525199e+00  4.035973923997599e-01  8.273090096787463e-18

 9.826081154474005e-18 -1.088497407358042e-19 -9.978993896577543e-01
-1.088497407358042e-19  1.374249674256280e-17  4.030980186935487e-01
-9.978993896577543e-01  4.030980186935487e-01  8.198212758581369e-18

 9.838419969386526e-18 -1.051332403742172e-19 -9.956265269386440e-01
-1.051332403742172e-19  1.780025794906800e-17  4.043382449301957e-01
-9.956265269386440e-01  4.043382449301957e-01  8.124019209619620e-18

 9.854667918938922e-18 -6.811696833097512e-20 -9.946945860753524e-01
-6.811696833097512e-20  3.517208304939176e-17  4.026762347295726e-01
-9.946945860753524e-01  4.026762347295726e-01  8.218607886093971e-18

 9.633122402029371e-18 -1.005593128975573e-19 -9.827155938504787e-01
-1.005593128975573e-19  1.456910858917310e-17  4.103495660038624e-01
-9.827155938504787e-01  4.103495660038624e-01  7.497525625766696e-18

 9.685796330110760e-18 -1.059652193403749e-19 -9.811294996774167e-01
-1.059652193403749e-19  1.398868827653229e-17  4.029799762501565e-01
-9.811294996774167e-01  4.029799762501565e-01  7.733930947895044e-18

 9.295042409117263e-18 -1.265163081035036e-19 -9.612870504587194e-01
-1.265163081035036e-19 -3.408029774130900e-18  4.148772168691419e-01
-9.612870504587194e-01  4.148772168691419e-01  6.581448032642489e-18

 9.362188068651938e-18 -1.982230602269672e-19 -9.607831178351333e-01
-1.982230602269672e-19 -1.959277829495025e-17  3.999133436338079e-01
-9.607831178351333e-01  3.999133436338079e-01  6.905535484916314e-18

 8.935435608288895e-18 -7.117199892407328e-20 -9.416504466027616e-01
-7.117199892407328e-20  3.208619114714849e-17  4.024462964881694e-01
-9.416504466027616e-01  4.024462964881694e-01  5.705692650783439e-18

 9.706778130965533e-18 -1.287738151444765e-19 -9.717169547796372e-01
-1.287738151444765e-19  6.193975924568668e-18  3.706327110006083e-01
-9.717169547796372e-01  3.706327110006083e-01  8.041613598096492e-18

 9.138069528128366e-18 -1.034984085636547e-19 -9.489900726560525e-01
-1.034984085636547e-19  1.181661005077107e-17  4.057739090578908e-01
-9.489900726560525e-01  4.057739090578908e-01  6.124055069354795e-18

 9.533291312641150e-18 -1.193975266042167e-19 -9.659038037143013e-01
-1.193975266042167e-19  1.063955868950506e-17  4.105252523920443e-01
-9.659038037143013e-01  4.105252523920443e-01  7.008343635898430e-18

 9.734129978403013e-18 -1.362745446846917e-19 -9.746390355043756e-01
-1.362745446846917e-19  6.331272052889823e-18  4.055706638009987e-01
-9.746390355043756e-01  4.055706638009987e-01  7.466485210966549e-18

 9.808907187581574e-18 -1.388591408417395e-19 -9.774843370808365e-01
-1.388591408417395e-19  1.699607162521953e-18  4.062744075328139e-01
-9.774843370808365e-01  4.062744075328139e-01  7.543219776226286e-18

 9.924927513450839e-18 -1.379130631790401e-19 -9.826257257552449e-01
-1.379130631790401e-19  8.374235659785975e-18  4.018001011783824e-01
-9.826257257552449e-01  4.018001011783824e-01  7.858887210291951e-18

 9.954960863735309e-18 -1.266988476864945e-19 -9.830483418528647e-01
-1.266988476864945e-19  9.321676537996413e-18  4.030428275077926e-01
-9.830483418528647e-01  4.030428275077926e-01  7.809435585682786e-18

 9.952035266373575e-18 -1.626057157009054e-19 -9.829675579478552e-01
-1.626057157009054e-19 -6.992221180144102e-18  4.036582603901250e-01
-9.829675579478552e-01  4.036582603901250e-01  7.802590844272850e-18

 9.934100268402150e-18 -1.101583217496136e-19 -9.804257748846286e-01
-1.101583217496136e-19  1.647982697302178e-17  4.052650804422788e-01
-9.804257748846286e-01  4.052650804422788e-01  7.613863096994250e-18

 9.918015196761689e-18 -1.386487745738623e-19 -9.798062628050462e-01
-1.386487745738623e-19  1.741887821582565e-18  4.018289823088242e-01
-9.798062628050462e-01  4.018289823088242e-01  7.634678636941576e-18

 9.921201177127626e-18 -1.292977536168314e-19 -9.785637348877609e-01
-1.292977536168314e-19  4.750437526486630e-18  4.011325582141087e-01
-9.785637348877609e-01  4.011325582141087e-01  7.598587731692686e-18

 9.941257542890023e-18 -1.018942508384796e-19 -9.791811359910593e-01
-1.018942508384796e-19  2.285919389545053e-17  4.013090078079350e-01
-9.791811359910593e-01  4.013090078079350e-01  7.624045381553026e-18

 9.963412438930642e-18 -1.139897531474339e-19 -9.783780538906907e-01
-1.139897531474339e-19  1.763393306364174e-17  4.046957085179919e-01
-9.783780538906907e-01  4.046957085179919e-01  7.563588118945122e-18

 9.965954727703458e-18 -1.134781350099145e-19 -9.777335434902698e-01
-1.134781350099145e-19  1.770068339124335e-17  4.046810313759274e-01
-9.777335434902698e-01  4.046810313759274e-01  7.539001265289172e-18

 1.001145958555615e-17 -1.346044155706574e-19 -9.786649073991869e-01
-1.346044155706574e-19  9.234810235362960e-18  4.032780924350810e-01
-9.786649073991869e-01  4.032780924350810e-01  7.586394405258598e-18

 9.929166389554373e-18 -1.606710579529620e-19 -9.746318333112695e-01
-1.606710579529620e-19 -2.209542924265976e-18  4.068839015650981e-01
-9.746318333112695e-01  4.068839015650981e-01  7.305822779947822e-18

 1.003201782762151e-17 -1.233386245712741e-19 -9.777136375204104e-01
-1.233386245712741e-19  1.460488468801113e-17  4.018961475448929e-01
-9.777136375204104e-01  4.018961475448929e-01  7.584123098229689e-18

 1.011987786464053e-17 -1.149775076746757e-19 -9.815141677836505e-01
-1.149775076746757e-19  2.146838761736492e-17  4.002087911462431e-01
-9.815141677836505e-01  4.002087911462431e-01  7.799340960729489e-18

 1.005465959762787e-17 -1.500933986406815e-19 -9.780761883167299e-01
-1.500933986406815e-19  1.851615560628341e-18  4.093911561883218e-01
-9.780761883167299e-01  4.093911561883218e-01  7.464902064624173e-18

 1.009370722539852e-17 -1.408022881027467e-19 -9.795448499012915e-01
-1.408022881027467e-19  1.769831114180100e-18  4.101351904407653e-01
-9.795448499012915e-01  4.101351904407653e-01  7.585771422711626e-18

 1.002296911667097e-17 -1.296909882164637e-19 -9.748576292619204e-01
-1.296909882164637e-19  1.040697133994151e-17  4.110218401485027e-01
-9.748576292619204e-01  4.110218401485027e-01  7.270028306423257e-18

 1.002097093178541e-17 -1.183292126865827e-19 -9.744354052613081e-01
-1.183292126865827e-19  1.529503346236998e-17  4.013345378196571e-01
-9.744354052613081e-01  4.013345378196571e-01  7.408450655657315e-18

 1.011313505180779e-17 -1.477901653918868e-19 -9.771738734934051e-01
-1.477901653918868e-19  5.334780802446858e-18  3.989464543986890e-01
-9.771738734934051e-01  3.989464543986890e-01  7.651058631650353e-18

 9.851133689946634e-18 -1.408406772606881e-19 -9.668627735329116e-01
-1.408406772606881e-19  7.673409724520368e-18  4.143722133093456e-01
-9.668627735329116e-01  4.143722133093456e-01  6.797397417280295e-18

 1.007757561872563e-17 -1.009776840413622e-19 -9.759238904959231e-01
-1.009776840413622e-19  2.697661452158196e-17  4.070089735202105e-01
-9.759238904959231e-01  4.070089735202105e-01  7.413397086084509e-18

 9.954834087674219e-18 -1.377492858423656e-19 -9.703229610233614e-01
-1.377492858423656e-19  8.524619095973887e-18  4.112297751855385e-01
-9.703229610233614e-01  4.112297751855385e-01  7.014191489996910e-18

 1.002305975683948e-17 -1.423985666389357e-19 -9.738070593180533e-01
-1.423985666389357e-19  8.410134664211684e-18  4.066365739646348e-01
-9.738070593180533e-01  4.066365739646348e-01  7.192668644541880e-18

 1.013021892906368e-17 -1.609692019598293e-19 -9.785036573059472e-01
-1.609692019598293e-19  3.554821940557150e-18  4.126286321821611e-01
-9.785036573059472e-01  4.126286321821611e-01  7.329903673830274e-18

 1.021476795894282e-17 -1.312807855144213e-19 -9.828124924438342e-01
-1.312807855144213e-19  1.285222329505551e-17  4.129450555789704e-01
-9.828124924438342e-01  4.129450555789704e-01  7.525307210559630e-18

 1.037113403190014e-17 -1.479932254163178e-19 -9.895945318508038e-01
-1.479932254163178e-19  1.854440944252133e-18  4.075297412451606e-01
-9.895945318508038e-01  4.075297412451606e-01  7.862257761711785e-18

 1.028907521956704e-17 -1.463367788905532e-19 -9.871341685628620e-01
-1.463367788905532e-19  1.198171343160309e-17  4.166139380941759e-01
-9.871341685628620e-01  4.166139380941759e-01  7.562825382153874e-18

 1.048048945974715e-17 -1.332952805690397e-19 -9.954374227238996e-01
-1.332952805690397e-19  1.967659310364877e-17  4.098509351309039e-01
-9.954374227238996e-01  4.098509351309039e-01  8.073729780972019e-18

 1.049766920640217e-17 -1.301434641762591e-19 -9.958247757946580e-01
-1.301434641762591e-19  2.120933072505456e-17  4.125751308241874e-01
-9.958247757946580e-01  4.125751308241874e-01  8.018086242759161e-18

 1.047784299720378e-17 -1.290869470025262e-19 -9.956231050637795e-01
-1.290869470025262e-19  2.260238788794402e-17  4.137427276516961e-01
-9.956231050637795e-01  4.137427276516961e-01  7.913781060418285e-18

 1.068748597102644e-17 -1.364703177807948e-19 -1.003449499727273e+00
-1.364703177807948e-19  1.113871045121853e-17  4.054127514556410e-01
-1.003449499727273e+00  4.054127514556410e-01  8.406955771837970e-18

 1.063072928591743e-17 -1.360680743689400e-19 -1.002472139680803e+00
-1.360680743689400e-19  1.331140946921277e-17  4.135015534992828e-01
-1.002472139680803e+00  4.135015534992828e-01  8.224583555478242e-18

 1.066467114189178e-17 -1.285486638202651e-19 -1.004022679684701e+00
-1.285486638202651e-19  1.338035185519374e-17  4.131042287994157e-01
-1.004022679684701e+00  4.131042287994157e-01  8.241089395312069e-18

 1.057158298502965e-17 -1.252881299681925e-19 -1.000657263572530e+00
-1.252881299681925e-19  1.482232548989905e-17  4.189567696801724e-01
-1.000657263572530e+00  4.189567696801724e-01  7.873314445881624e-18

 1.086253328569754e-17 -1.323965251637167e-19 -1.011762957364547e+00
-1.323965251637167e-19  1.397985362262320e-17  4.123846768068709e-01
-1.011762957364547e+00  4.123846768068709e-01  8.613531739441738e-18

 1.072879506566865e-17 -1.321171611072857e-19 -1.007567721958348e+00
-1.321171611072857e-19  1.218415349628762e-17  4.175985557560248e-01
-1.007567721958348e+00  4.175985557560248e-01  8.224967581526367e-18

 1.075501161770366e-17 -1.344081555237343e-19 -1.007586668868527e+00
-1.344081555237343e-19  8.066658059597505e-18  4.171569613455963e-01
-1.007586668868527e+00  4.171569613455963e-01  8.177233697159570e-18

 1.081140227116403e-17 -1.281779311123868e-19 -1.011170576743242e+00
-1.281779311123868e-19  1.340488510854820e-17  4.178196961035251e-01
-1.011170576743242e+00  4.178196961035251e-01  8.389408177833789e-18

 1.103701820130045e-17 -1.273936895520919e-19 -1.019988786390720e+00
-1.273936895520919e-19  1.945428205252052e-17  4.112021464214083e-01
-1.019988786390720e+00  4.112021464214083e-01  8.963297201583834e-18

 1.079768824954252e-17 -1.175265662992498e-19 -1.010674502160334e+00
-1.175265662992498e-19  1.294377727928964e-17  4.180493667242275e-01
-1.010674502160334e+00  4.180493667242275e-01  8.268648925214462e-18

 1.068961748894189e-17 -1.174313861561654e-19 -1.006003860943398e+00
-1.174313861561654e-19  1.186483355555427e-17  4.197516660466578e-01
-1.006003860943398e+00  4.197516660466578e-01  7.895501884070909e-18

 1.087297232016220e-17 -1.134615554300596e-19 -1.013875592396364e+00
-1.134615554300596e-19  9.936271910467361e-18  4.143244142324319e-01
-1.013875592396364e+00  4.143244142324319e-01  8.422347118156225e-18

 1.134588953419151e-17 -1.151505699033440e-19 -1.033761392865236e+00
-1.151505699033440e-19  1.726951650071763e-17  4.067709534149919e-01
-1.033761392865236e+00  4.067709534149919e-01  9.686353160353933e-18

 1.120501601244068e-17 -1.134836403384962e-19 -1.028526386086395e+00
-1.134836403384962e-19  1.454240108363864e-17  4.198733496669378e-01
-1.028526386086395e+00  4.198733496669378e-01  9.176214476299177e-18

 1.087532207137489e-17 -1.115928175030399e-19 -1.015002697006725e+00
-1.115928175030399e-19  2.216619359475790e-17  4.331309312953378e-01
-1.015002697006725e+00  4.331309312953378e-01  8.161438054667519e-18

 1.114197226193106e-17 -1.079943581952541e-19 -1.024437264328845e+00
-1.079943581952541e-19  5.207334719919084e-18  4.072315751377753e-01
-1.024437264328845e+00  4.072315751377753e-01  9.082538606964439e-18

 1.083110525726707e-17 -9.951785625193851e-20 -1.010802327866662e+00
-9.951785625193851e-20  1.653098297536783e-17  4.182873992936386e-01
-1.010802327866662e+00  4.182873992936386e-01  8.122672937292373e-18

 1.110497543281387e-17 -9.927065217440951e-20 -1.022659743500905e+00
-9.927065217440951e-20  8.474732417561131e-18  4.178046398702956e-01
-1.022659743500905e+00  4.178046398702956e-01  8.778660227247490e-18

 1.132927845872450e-17 -9.363837972701030e-20 -1.032129790932778e+00
-9.363837972701030e-20  4.180590674036357e-18  4.186771658506501e-01
-1.032129790932778e+00  4.186771658506501e-01  9.310016428997349e-18

 1.111387122547083e-17 -8.942564485396722e-20 -1.021202261721129e+00
-8.942564485396722e-20  6.141720374575218e-18  4.158728958391182e-01
-1.021202261721129e+00  4.158728958391182e-01  8.732476256510954e-18

 1.094505032223124e-17 -8.266262693112242e-20 -1.013197902055032e+00
-8.266262693112242e-20  1.962735301997126e-17  4.241040692303379e-01
-1.013197902055032e+00  4.241040692303379e-01  8.204375464429237e-18

 1.099789360030482e-17 -8.025549036134420e-20 -1.014009504493898e+00
-8.025549036134420e-20  2.068521113710462e-17  4.138806100396356e-01
-1.014009504493898e+00  4.138806100396356e-01  8.425180633180684e-18

 1.108806935865558e-17 -6.528758697414823e-20 -1.017168359073650e+00
-6.528758697414823e-20  1.755429636073474e-17  4.209128272622786e-01
-1.017168359073650e+00  4.209128272622786e-01  8.586673858978915e-18

 1.104546947276972e-17 -4.657786536940408e-20 -1.014692728899199e+00
-4.657786536940408e-20  1.560780340087553e-17  4.209527157920581e-01
-1.014692728899199e+00  4.209527157920581e-01  8.433200840923499e-18

 1.081661661839174e-17 -4.298137444818528e-20 -1.005030994867883e+00
-4.298137444818528e-20  1.753124689604947e-17  4.203533289916794e-01
-1.005030994867883e+00  4.203533289916794e-01  7.770468579020981e-18

 1.088752086988251e-17 -3.464443002341490e-20 -1.009042539616032e+00
-3.464443002341490e-20  1.250250875502172e-17  4.217326644480058e-01
-1.009042539616032e+00  4.217326644480058e-01  7.863898056434429e-18

 1.095955506799186e-17 -3.364806984525952e-20 -1.015042858672958e+00
-3.364806984525952e-20  7.256144405237161e-18  4.227557595404647e-01
-1.015042858672958e+00  4.227557595404647e-01  7.991237046012633e-18

 1.112430062565764e-17 -4.160750276252388e-20 -1.024879253503497e+00
-4.160750276252388e-20  5.016554886680444e-18  4.244596378215347e-01
-1.024879253503497e+00  4.244596378215347e-01  8.326600662508137e-18

 1.134829822707034e-17 -5.578373982358314e-20 -1.037717493068446e+00
-5.578373982358314e-20  1.721018686268539e-17  4.203633096800691e-01
-1.037717493068446e+00  4.203633096800691e-01  8.919146103210387e-18

 1.137058006759001e-17 -1.043975014518733e-19 -1.044075613181104e+00
-1.043975014518733e-19  8.505701016054232e-18  4.317018267104927e-01
-1.044075613181104e+00  4.317018267104927e-01  8.826446857163143e-18

 1.130788800862954e-17 -1.718626850250845e-19 -1.041685129070916e+00
-1.718626850250845e-19  1.092411392845892e-17  4.354168386962511e-01
-1.041685129070916e+00  4.354168386962511e-01  8.672991999321919e-18

 1.119032999112410e-17 -1.994750329815617e-19 -1.031434568258826e+00
-1.994750329815617e-19  1.032503660118265e-17  4.373487211055320e-01
-1.031434568258826e+00  4.373487211055320e-01  8.495934669138864e-18

 1.111381366411656e-17 -1.883606620309740e-19 -1.022780984127231e+00
-1.883606620309740e-19  1.227426577630174e-17  4.228611833363841e-01
-1.022780984127231e+00  4.228611833363841e-01  8.462618324998763e-18

 1.088143337835557e-17 -1.867901879265544e-19 -1.011025532263494e+00
-1.867901879265544e-19  1.367473542661594e-17  4.415687626061343e-01
-1.011025532263494e+00  4.415687626061343e-01  7.711108475943839e-18

 1.114373037208175e-17 -1.782748454089899e-19 -1.019750422188630e+00
-1.782748454089899e-19  1.979560729823304e-17  4.211078572194289e-01
-1.019750422188630e+00  4.211078572194289e-01  8.577943873058232e-18

 1.117760014211772e-17 -1.818134575071949e-19 -1.019714721960073e+00
-1.818134575071949e-19  1.738242990503110e-17  4.267119999222339e-01
-1.019714721960073e+00  4.267119999222339e-01  8.651564178914458e-18

 1.085919291659948e-17 -1.755103196648872e-19 -1.003303473387650e+00
-1.755103196648872e-19  1.394891641865978e-17  4.198620145932213e-01
-1.003303473387650e+00  4.198620145932213e-01  7.872137353276354e-18

 1.074451914463264e-17 -1.949166885770629e-19 -9.964289691334520e-01
-1.949166885770629e-19  4.950073756245552e-18  4.314292996709204e-01
-9.964289691334520e-01  4.314292996709204e-01  7.513634881544329e-18

 1.154095497144624e-17 -1.954863943119886e-19 -1.027512650476358e+00
-1.954863943119886e-19  1.165462202205661e-17  4.175649273450705e-01
-1.027512650476358e+00  4.175649273450705e-01  9.860865838734436e-18

 1.095448704929674e-17 -1.900010949880278e-19 -1.001757498049610e+00
-1.900010949880278e-19 -5.463612337508878e-18  4.225342748946809e-01
-1.001757498049610e+00  4.225342748946809e-01  8.235056081151366e-18

 1.005251532212920e-17 -1.701873334096714e-19 -9.627612606696090e-01
-1.701873334096714e-19  8.406063102852581e-18  4.238933627440381e-01
-9.627612606696090e-01  4.238933627440381e-01  5.760995302310978e-18

 1.080669852692178e-17 -1.778296033530892e-19 -9.924925791933914e-01
-1.778296033530892e-19  1.668490752242433e-17  4.086677436812730e-01
-9.924925791933914e-01  4.086677436812730e-01  7.936446815825611e-18

 1.111142098571903e-17 -1.955133872923463e-19 -1.002509761680024e+00
-1.955133872923463e-19  1.086784685250976e-17  4.166872936133320e-01
-1.002509761680024e+00  4.166872936133320e-01  8.730031095141378e-18

 1.055377480953796e-17 -1.794708916777820e-19 -9.744492681159628e-01
-1.794708916777820e-19  1.692713537438058e-17  4.059963868933368e-01
-9.744492681159628e-01  4.059963868933368e-01  7.392788210936192e-18

 1.078326376795528e-17 -1.769917874609056e-19 -9.802967241795680e-01
-1.769917874609056e-19  1.287388513899454e-17  4.166850237806418e-01
-9.802967241795680e-01  4.166850237806418e-01  7.984544567559364e-18

 1.037744019936994e-17 -1.456238644959996e-19 -9.592320542537635e-01
-1.456238644959996e-19  1.398694125001890e-17  4.041423662013697e-01
-9.592320542537635e-01  4.041423662013697e-01  7.036570894826454e-18

 1.099970813835310e-17 -1.081501939287398e-19 -9.831237027473551e-01
-1.081501939287398e-19  2.392321714048504e-17  3.761524533523656e-01
-9.831237027473551e-01  3.761524533523656e-01  8.967628813584002e-18

 1.033910189432205e-17 -1.201292468242240e-19 -9.563150027911994e-01
-1.201292468242240e-19  1.165882449009881e-17  4.095045823211943e-01
-9.563150027911994e-01  4.095045823211943e-01  6.868040156969037e-18

 1.046326846621072e-17 -1.048244853308770e-19 -9.606784956936478e-01
-1.048244853308770e-19  2.525459877673641e-17  4.125895609541154e-01
-9.606784956936478e-01  4.125895609541154e-01  7.080029272725994e-18

 1.075539596390994e-17 -9.891927974952702e-20 -9.738036520969895e-01
-9.891927974952702e-20  5.631052749158059e-18  4.000847713645843e-01
-9.738036520969895e-01  4.000847713645843e-01  7.973376276636755e-18

 1.074426816200601e-17 -7.476941748102107e-20 -9.747252294452388e-01
-7.476941748102107e-20  2.381759445333025e-17  4.027899415876623e-01
-9.747252294452388e-01  4.027899415876623e-01  7.829023585361679e-18

 1.089199910130315e-17 -3.678617719445543e-20 -9.827543806481143e-01
-3.678617719445543e-20  3.488782577662150e-17  3.974410796368390e-01
-9.827543806481143e-01  3.974410796368390e-01  8.185968508598740e-18

 1.099616892446788e-17 -3.986092117268783e-20 -9.900734332879053e-01
-3.986092117268783e-20  2.357320070356268e-17  3.999048249742114e-01
-9.900734332879053e-01  3.999048249742114e-01  8.333594085829167e-18

 1.101529608980692e-17 -4.376184488056844e-20 -9.939093946431959e-01
-4.376184488056844e-20  2.163562571044772e-17  4.007744460219137e-01
-9.939093946431959e-01  4.007744460219137e-01  8.304708685019879e-18

 1.102223644493334e-17 -6.874218212446084e-20 -9.965992093100643e-01
-6.874218212446084e-20 -3.342766935616895e-18  4.053304482974132e-01
-9.965992093100643e-01  4.053304482974132e-01  8.234114228291421e-18

 1.108600868442553e-17 -4.396946231494660e-20 -9.992893079323506e-01
-4.396946231494660e-20  2.691122308581269e-17  4.049387715711117e-01
-9.992893079323506e-01  4.049387715711117e-01  8.321946787546840e-18

 1.082461507903554e-17  7.837653053556412e-20 -9.968755945573098e-01
 7.837653053556412e-20  1.130153472278291e-17  4.359171591251156e-01
-9.968755945573098e-01  4.359171591251156e-01  7.551480682303402e-18

 1.090217401279086e-17  6.539483929371120e-20 -1.003130969497233e+00
 6.539483929371120e-20  1.093216887938590e-17  4.232689233078202e-01
-1.003130969497233e+00  4.232689233078202e-01  7.855352064674029e-18

 1.099004047434664e-17  8.499016956839739e-20 -9.995983629915868e-01
 8.499016956839739e-20  2.280162240311436e-17  4.077211147975116e-01
-9.995983629915868e-01  4.077211147975116e-01  8.316390003091290e-18

 1.078651677475197e-17  8.980365478774004e-20 -9.868724533684354e-01
 8.980365478774004e-20  1.812971140462261e-17  4.200509753721293e-01
-9.868724533684354e-01  4.200509753721293e-01  7.679313609607420e-18

 1.086735324281804e-17  7.966091157080873e-20 -9.881891130452277e-01
 7.966091157080873e-20  6.349693039114784e-18  4.123539152875445e-01
-9.881891130452277e-01  4.123539152875445e-01  8.121896343610807e-18

 1.080426859105050e-17  4.186516126497024e-20 -9.839762510620614e-01
 4.186516126497024e-20  1.085950896616108e-17  4.171819664583238e-01
-9.839762510620614e-01  4.171819664583238e-01  8.013392155665735e-18

 1.087658111738956e-17  1.799384584458137e-20 -9.873290330476544e-01
 1.799384584458137e-20  1.967146763336953e-17  4.173406059751112e-01
-9.873290330476544e-01  4.173406059751112e-01  8.200191663498708e-18

 1.085914626205920e-17 -1.423691659677043e-20 -9.887951187386202e-01
-1.423691659677043e-20  1.339447986011027e-17  4.201585831530075e-01
-9.887951187386202e-01  4.201585831530075e-01  8.219895254499937e-18

 1.084977352789153e-17 -3.790802986390009e-20 -9.915685973608093e-01
-3.790802986390009e-20  2.154513759362374e-17  4.255346394490450e-01
-9.915685973608093e-01  4.255346394490450e-01  8.146471154410725e-18

 1.093573067532659e-17 -8.416234577255993e-20 -1.000204709191331e+00
-8.416234577255993e-20  4.043995706642842e-18  4.273689101808244e-01
-1.000204709191331e+00  4.273689101808244e-01  8.309964236224446e-18

 1.100157699884786e-17 -1.162756821120442e-19 -1.008960187035127e+00
-1.162756821120442e-19  2.141215845426627e-17  4.337361968613201e-01
-1.008960187035127e+00  4.337361968613201e-01  8.348925428840207e-18

 1.102405723402619e-17 -1.167057930309210e-19 -1.013739379908340e+00
-1.167057930309210e-19  1.946215741296195e-17  4.354403225750690e-01
-1.013739379908340e+00  4.354403225750690e-01  8.314676071349053e-18

 1.103161508895231e-17 -1.017973885559537e-19 -1.017555876614179e+00
-1.017973885559537e-19  1.382303037922332e-17  4.382139799456559e-01
-1.017555876614179e+00  4.382139799456559e-01  8.254756095497440e-18

 1.104100164674813e-17 -9.451385086467461e-20 -1.019974324503683e+00
-9.451385086467461e-20  1.594575315770332e-17  4.393418158534367e-01
-1.019974324503683e+00  4.393418158534367e-01  8.213062113945725e-18

 1.103634194410352e-17 -7.678746919498992e-20 -1.020691875084125e+00
-7.678746919498992e-20  9.754101192262134e-18  4.401646040270249e-01
-1.020691875084125e+00  4.401646040270249e-01  8.153773195158824e-18

 1.103365713769103e-17 -6.057017803615559e-20 -1.020709943337435e+00
-6.057017803615559e-20  1.094948348030441e-17  4.390733092796754e-01
-1.020709943337435e+00  4.390733092796754e-01  8.138861129313902e-18

 1.102184544635786e-17 -4.448586804841841e-20 -1.019437443053439e+00
-4.448586804841841e-20  8.968412036068883e-18  4.389233307167903e-01
-1.019437443053439e+00  4.389233307167903e-01  8.094766528706357e-18

 1.098318661877297e-17 -4.316972197363722e-20 -1.018246403982312e+00
-4.316972197363722e-20  9.141089002276125e-18  4.399607182625667e-01
-1.018246403982312e+00  4.399607182625667e-01  7.977431915285312e-18

 1.100581180446737e-17 -3.639246852829887e-20 -1.018569802223889e+00
-3.639246852829887e-20  1.925124259055955e-17  4.379510914708598e-01
-1.018569802223889e+00  4.379510914708598e-01  8.057434735072913e-18

 1.095831835934975e-17 -2.090871220771207e-20 -1.015757791397446e+00
-2.090871220771207e-20  1.618377014475591e-17  4.388871958153085e-01
-1.015757791397446e+00  4.388871958153085e-01  7.939692019343332e-18

 1.099927095576496e-17 -7.880800590480865e-21 -1.016552947089029e+00
-7.880800590480865e-21  1.340888978801639e-17  4.345253078320009e-01
-1.016552947089029e+00  4.345253078320009e-01  8.082452834965601e-18

 1.094960186205852e-17 -4.272564880378495e-21 -1.014468107536774e+00
-4.272564880378495e-21  6.743970545627953e-18  4.420849046825550e-01
-1.014468107536774e+00  4.420849046825550e-01  7.877765913867306e-18

 1.091110238412637e-17  4.487753029121990e-21 -1.012364106219936e+00
 4.487753029121990e-21  9.642141344581132e-18  4.390479903762655e-01
-1.012364106219936e+00  4.390479903762655e-01  7.857879405553117e-18

 1.075547804398369e-17  1.449861303949321e-20 -1.005808883332197e+00
 1.449861303949321e-20  1.365314572446720e-17  4.384363424202752e-01
-1.005808883332197e+00  4.384363424202752e-01  7.497240356286023e-18

 1.131054759278315e-17  1.084932172494124e-20 -1.027151299609504e+00
 1.084932172494124e-20  1.071967579583002e-17  4.175090619977103e-01
-1.027151299609504e+00  4.175090619977103e-01  9.117784910218212e-18

 1.094787267087476e-17  3.138397936437747e-20 -1.015451604062203e+00
 3.138397936437747e-20  7.446622987509540e-18  4.356948367524014e-01
-1.015451604062203e+00  4.356948367524014e-01  8.098545917669699e-18

 1.103354116950131e-17  3.014610144641769e-20 -1.019601025054308e+00
 3.014610144641769e-20  1.229282666707039e-17  4.292088704798318e-01
-1.019601025054308e+00  4.292088704798318e-01  8.382500822997396e-18

 1.127949850814460e-17 -1.106448447567262e-20 -1.022042742988699e+00
-1.106448447567262e-20  1.869864445551406e-17  4.334358826190876e-01
-1.022042742988699e+00  4.334358826190876e-01  8.434508756038132e-18

 1.304267046884501e-17 -4.619415408395965e-19 -1.017157820548111e+00
-4.619415408395965e-19  1.409021180623333e-17  4.340440610079171e-01
-1.017157820548111e+00  4.340440610079171e-01  8.109236986373750e-18

 8.806484255251394e-18  4.620583010316845e-19 -1.000010855250520e+00
 4.620583010316845e-19  1.141709482284819e-17  4.544087925867960e-01
-1.000010855250520e+00  4.544087925867960e-01  6.693154717500238e-18

-9.811644173353880e-18  5.027048544179278e-18 -1.012309609962113e+00
 5.027048544179278e-18  1.803467640990254e-17  4.423875525898086e-01
-1.012309609962113e+00  4.423875525898086e-01  7.569475748175812e-18

-1.133884210822169e-16  3.022711649753180e-17 -1.028475871077830e+00
 3.022711649753180e-17  1.927578242601016e-18  4.332861826226712e-01
-1.028475871077830e+00  4.332861826226712e-01  8.659628840489385e-18

-2.820160288746626e-17  9.611712035681084e-18 -1.027713083321173e+00
 9.611712035681084e-18  1.990318646584241e-17  4.319971516138075e-01
-1.027713083321173e+00  4.319971516138075e-01  8.534190424007340e-18

 1.845125621065314e-17 -1.744447280082414e-18 -1.026429645962277e+00
-1.744447280082414e-18  9.518338824710297e-18  4.275890387580766e-01
-1.026429645962277e+00  4.275890387580766e-01  8.416521005538647e-18

 1.658878938645483e-17 -1.122882392009399e-18 -1.056844879661645e+00
-1.122882392009399e-18  1.431297703577186e-17  4.159570193565360e-01
-1.056844879661645e+00  4.159570193565360e-01  1.045612156607256e-17

 1.128460069321370e-17 -3.114851003385185e-20 -1.021178015066733e+00
-3.114851003385185e-20  1.866284800487917e-17  4.585563879508917e-01
-1.021178015066733e+00  4.585563879508917e-01  7.573512004976892e-18

 9.474797845907042e-18  1.981085439544291e-19 -9.852411231850516e-01
 1.981085439544291e-19  1.494600415078963e-17  4.933492034761486e-01
-9.852411231850516e-01  4.933492034761486e-01  4.884703908231504e-18

 1.165405939373973e-17  1.310211348572646e-19 -1.061136390612644e+00
 1.310211348572646e-19  1.194416614898492e-17  4.130237187531565e-01
-1.061136390612644e+00  4.130237187531565e-01  1.071402998269794e-17

 1.104852453914654e-17  9.076334150566709e-20 -1.029460242044509e+00
 9.076334150566709e-20  1.187484447829931e-17  4.287797283945500e-01
-1.029460242044509e+00  4.287797283945500e-01  8.566532421342716e-18

 1.107461744417551e-17  7.423781260466612e-20 -1.027572105947842e+00
 7.423781260466612e-20  1.112936086943720e-17  4.278778169858755e-01
-1.027572105947842e+00  4.278778169858755e-01  8.550240081074884e-18

 1.102644332771799e-17  6.134100675049283e-20 -1.023087653189156e+00
 6.134100675049283e-20  8.503418653947548e-18  4.354453631071580e-01
-1.023087653189156e+00  4.354453631071580e-01  8.280868799189141e-18

 1.102241543433527e-17  5.912099880093674e-20 -1.022360382732785e+00
 5.912099880093674e-20  7.970343411173177e-18  4.316592346441134e-01
-1.022360382732785e+00  4.316592346441134e-01  8.312816481103193e-18

 1.104242049789642e-17  6.450661027313235e-20 -1.024564915343666e+00
 6.450661027313235e-20  1.286011566348179e-17  4.333328731624463e-01
-1.024564915343666e+00  4.333328731624463e-01  8.428195046265805e-18

 1.109875658241681e-17  6.395817414723867e-20 -1.027981797632292e+00
 6.395817414723867e-20  1.377808971511304e-17  4.281684137466383e-01
-1.027981797632292e+00  4.281684137466383e-01  8.643401201795079e-18

 1.106211179350939e-17  6.316561484395851e-20 -1.027346609575650e+00
 6.316561484395851e-20  1.777937771957318e-17  4.311700561005839e-01
-1.027346609575650e+00  4.311700561005839e-01  8.517133799417878e-18

 1.124426138290078e-17  5.966043809517744e-20 -1.035640613582559e+00
 5.966043809517744e-20  1.622629923672486e-18  4.264785709606230e-01
-1.035640613582559e+00  4.264785709606230e-01  9.055331918752343e-18

 1.131794571663595e-17  5.995778946833856e-20 -1.039228318553494e+00
 5.995778946833856e-20  1.000994808004379e-17  4.289739282888910e-01
-1.039228318553494e+00  4.289739282888910e-01  9.201806164259430e-18

 1.096836624341392e-17  6.632226339095151e-20 -1.025393269446693e+00
 6.632226339095151e-20  1.710506143690441e-17  4.450567505433183e-01
-1.025393269446693e+00  4.450567505433183e-01  8.147449081927167e-18

 1.104299915005021e-17  6.678438931231408e-20 -1.028742089103921e+00
 6.678438931231408e-20  2.063344689919808e-17  4.470494190471140e-01
-1.028742089103921e+00  4.470494190471140e-01  8.303191726545851e-18

 1.127576578618123e-17  6.169952491267786e-20 -1.038124386354021e+00
 6.169952491267786e-20  1.350867921167466e-17  4.339537365313817e-01
-1.038124386354021e+00  4.339537365313817e-01  9.066571849291650e-18

 1.132391966304303e-17  6.076170165888999e-20 -1.040193037235417e+00
 6.076170165888999e-20  2.491755015200047e-17  4.244354344614072e-01
-1.040193037235417e+00  4.244354344614072e-01  9.352734493870237e-18

 1.104026405342273e-17  5.881456272859614e-20 -1.028295829326041e+00
 5.881456272859614e-20  2.783351443461711e-17  4.329778037590960e-01
-1.028295829326041e+00  4.329778037590960e-01  8.554035334584590e-18

 1.101285143738639e-17  5.890168011310623e-20 -1.026433016734969e+00
 5.890168011310623e-20  1.070971838030506e-17  4.284623914594767e-01
-1.026433016734969e+00  4.284623914594767e-01  8.580600955066757e-18

 1.093429522548686e-17  5.543399123887886e-20 -1.022881657138901e+00
 5.543399123887886e-20  1.073215322952715e-17  4.305597535838740e-01
-1.022881657138901e+00  4.305597535838740e-01  8.389581479210482e-18

 1.093095116951844e-17  5.402586208157426e-20 -1.023539663524158e+00
 5.402586208157426e-20  1.487458905714596e-17  4.315188026941933e-01
-1.023539663524158e+00  4.315188026941933e-01  8.435213145660451e-18

 1.096828492183512e-17  5.078680971171424e-20 -1.026034863758902e+00
 5.078680971171424e-20  1.850365859114792e-17  4.292347080558281e-01
-1.026034863758902e+00  4.292347080558281e-01  8.568836404526863e-18

 1.100812612341677e-17  4.994453114755451e-20 -1.028244870582751e+00
 4.994453114755451e-20 -3.145510278218607e-18  4.266407392644844e-01
-1.028244870582751e+00  4.266407392644844e-01  8.727588125069808e-18

 1.114137521579835e-17  4.890431107703368e-20 -1.034251176322616e+00
 4.890431107703368e-20  2.018526232223872e-17  4.283910542754495e-01
-1.034251176322616e+00  4.283910542754495e-01  9.023240639855048e-18

 1.115284031089381e-17  4.888218809190846e-20 -1.035892405438406e+00
 4.888218809190846e-20  4.373292923865610e-18  4.319777818764849e-01
-1.035892405438406e+00  4.319777818764849e-01  9.085003598685548e-18

 1.099503162120598e-17  4.643953746701126e-20 -1.029195557792341e+00
 4.643953746701126e-20  9.906985104157442e-18  4.387839657306980e-01
-1.029195557792341e+00  4.387839657306980e-01  8.628759386682556e-18

 1.123408583717977e-17  4.279220515221208e-20 -1.039340046624967e+00
 4.279220515221208e-20  2.185761973268247e-17  4.323318366822712e-01
-1.039340046624967e+00  4.323318366822712e-01  9.351229240503934e-18

 1.058825041796489e-17  3.229816626920197e-20 -1.012374704920409e+00
 3.229816626920197e-20  1.580219848014708e-17  4.527087786889847e-01
-1.012374704920409e+00  4.527087786889847e-01  7.456799891972366e-18

 1.091717366323495e-17  4.043827404762182e-20 -1.025909626434565e+00
 4.043827404762182e-20  2.253644066774765e-17  4.283039148343959e-01
-1.025909626434565e+00  4.283039148343959e-01  8.562708944596245e-18

 1.099655139183773e-17  3.609920696683489e-20 -1.029100219587243e+00
 3.609920696683489e-20  1.444990323678015e-17  4.160068703000994e-01
-1.029100219587243e+00  4.160068703000994e-01  8.966678249888511e-18

 1.053089265572851e-17  3.450963118927840e-20 -1.010871308290871e+00
 3.450963118927840e-20  1.537980553023935e-17  4.492003730742773e-01
-1.010871308290871e+00  4.492003730742773e-01  7.453099053651447e-18

 1.089995462687573e-17  2.290034671342316e-20 -1.026655274683401e+00
 2.290034671342316e-20  1.203915219914238e-17  4.394837789379707e-01
-1.026655274683401e+00  4.394837789379707e-01  8.593989318783853e-18

 1.090826326205868e-17  1.731031189197550e-20 -1.027174584198159e+00
 1.731031189197550e-20  1.347727948803663e-17  4.275054485863496e-01
-1.027174584198159e+00  4.275054485863496e-01  8.732943012937181e-18

 1.086567692486795e-17  1.382122396445362e-20 -1.026631155837321e+00
 1.382122396445362e-20  1.874441873424717e-17  4.283955258171302e-01
-1.026631155837321e+00  4.283955258171302e-01  8.689158376160854e-18

 1.099862774724692e-17 -8.150869009922989e-21 -1.032347444445785e+00
-8.150869009922989e-21  1.770899148775228e-17  4.401045887368670e-01
-1.032347444445785e+00  4.401045887368670e-01  9.028105513381022e-18

 9.755862168159867e-18 -1.566603340503949e-19 -9.779976895777726e-01
-1.566603340503949e-19  8.560808198492106e-18  4.886183667887868e-01
-9.779976895777726e-01  4.886183667887868e-01  5.550094506235473e-18

 1.331682307166402e-17 -1.412874264536477e-19 -1.119108409455339e+00
-1.412874264536477e-19  2.282331370232832e-17  2.509920839674729e-01
-1.119108409455339e+00  2.509920839674729e-01  1.686275634651755e-17

 1.259153446610586e-17 -1.938716003946839e-19 -1.090439666137246e+00
-1.938716003946839e-19  2.545088398963079e-17  3.176415095508363e-01
-1.090439666137246e+00  3.176415095508363e-01  1.448655927309596e-17

 9.694141638819607e-18  2.980957709952001e-19 -9.928056139074383e-01
 2.980957709952001e-19  1.334252174256979e-17  4.997684099787870e-01
-9.928056139074383e-01  4.997684099787870e-01  5.242132887991813e-18

 1.133137322739784e-17  3.551489912068071e-20 -1.057549709405134e+00
 3.551489912068071e-20  2.718252295599564e-18  4.258894939467427e-01
-1.057549709405134e+00  4.258894939467427e-01  1.001905542367329e-17

 1.106593295174642e-17  3.194777458365417e-20 -1.048401245784510e+00
 3.194777458365417e-20 -8.772833541799477e-19  4.471181809158239e-01
-1.048401245784510e+00  4.471181809158239e-01  9.117699798359001e-18

 1.112589909663048e-17  4.155354435330548e-20 -1.049427969825423e+00
 4.155354435330548e-20  2.814551378808890e-17  4.234651800716722e-01
-1.049427969825423e+00  4.234651800716722e-01  9.535341334374087e-18

 1.083800545778284e-17  4.685124032607997e-20 -1.035705474444910e+00
 4.685124032607997e-20  2.789678012779712e-17  4.260875366209178e-01
-1.035705474444910e+00  4.260875366209178e-01  8.811403372941163e-18

 1.079193895742566e-17  4.866206529216437e-20 -1.033238868733447e+00
 4.866206529216437e-20  2.659993922090869e-17  4.322162924453345e-01
-1.033238868733447e+00  4.322162924453345e-01  8.793644867304957e-18

 1.063341310097555e-17  4.511455720468675e-20 -1.025959915847456e+00
 4.511455720468675e-20  1.635469967693602e-17  4.326183516079820e-01
-1.025959915847456e+00  4.326183516079820e-01  8.454653566882451e-18

 1.041310408963365e-17  4.246377896489723e-20 -1.015732945492918e+00
 4.246377896489723e-20 -5.919654114771541e-18  4.279130217957381e-01
-1.015732945492918e+00  4.279130217957381e-01  8.019846499146612e-18

 1.049141385267083e-17  3.991324801997369e-20 -1.020104064005580e+00
 3.991324801997369e-20  1.400246247343111e-17  4.296853905913812e-01
-1.020104064005580e+00  4.296853905913812e-01  8.318755971292916e-18

 1.054652967488995e-17  3.654131099644128e-20 -1.023266269408214e+00
 3.654131099644128e-20  8.357808897389453e-18  4.303621258769280e-01
-1.023266269408214e+00  4.303621258769280e-01  8.513834734851886e-18

 1.056176908278863e-17  3.248886161779454e-20 -1.024757175127730e+00
 3.248886161779454e-20  2.235891988743126e-17  4.285550823645462e-01
-1.024757175127730e+00  4.285550823645462e-01  8.624027550906056e-18

 1.051656244772256e-17  2.532597400747201e-20 -1.023635953915916e+00
 2.532597400747201e-20  3.217207363371822e-18  4.289557394049164e-01
-1.023635953915916e+00  4.289557394049164e-01  8.549457274839039e-18

 1.045393534197564e-17  2.316416396904015e-20 -1.021623769683913e+00
 2.316416396904015e-20  5.654286157495872e-18  4.274550082755391e-01
-1.021623769683913e+00  4.274550082755391e-01  8.478768952697157e-18

 1.039237583966310e-17  1.804437963963414e-20 -1.019662468115620e+00
 1.804437963963414e-20  5.881724429078477e-18  4.270713561041654e-01
-1.019662468115620e+00  4.270713561041654e-01  8.360843834258857e-18

 1.036446619742327e-17  1.655957047962624e-20 -1.020603790452000e+00
 1.655957047962624e-20  1.136870279299448e-17  4.277426322639205e-01
-1.020603790452000e+00  4.277426322639205e-01  8.395492682376444e-18

 1.037492221171874e-17  1.434242164356727e-20 -1.022626360381444e+00
 1.434242164356727e-20  1.286054933434766e-17  4.243582976579932e-01
-1.022626360381444e+00  4.243582976579932e-01  8.532265924944455e-18

 1.033090360724836e-17  1.908965536505904e-20 -1.021992063646659e+00
 1.908965536505904e-20  2.322293729871492e-17  4.261744620483850e-01
-1.021992063646659e+00  4.261744620483850e-01  8.448444773620569e-18

 1.039723311724409e-17  1.500139564856564e-20 -1.025545194986461e+00
 1.500139564856564e-20  6.371065042571920e-18  4.224407384873022e-01
-1.025545194986461e+00  4.224407384873022e-01  8.713818115469709e-18

 1.037584016321391e-17  1.506284194881827e-20 -1.025175299557403e+00
 1.506284194881827e-20  2.021450836817712e-18  4.241534549587996e-01
-1.025175299557403e+00  4.241534549587996e-01  8.654423183079756e-18

 1.027477536388853e-17  1.541071594179488e-20 -1.021093753125256e+00
 1.541071594179488e-20  4.674752575230954e-18  4.289166365646388e-01
-1.021093753125256e+00  4.289166365646388e-01  8.393396619422620e-18

 1.042179258746351e-17  1.729636204780465e-20 -1.027857140943488e+00
 1.729636204780465e-20  2.144343045667293e-17  4.250910343824874e-01
-1.027857140943488e+00  4.250910343824874e-01  8.881550397541780e-18

 1.041396397727821e-17  1.469482389061932e-20 -1.027543468853194e+00
 1.469482389061932e-20  6.893581390270463e-18  4.218276898028844e-01
-1.027543468853194e+00  4.218276898028844e-01  8.955325860559954e-18

 1.032951169545187e-17  1.040016537114013e-20 -1.023741837733078e+00
 1.040016537114013e-20  8.017069829106999e-18  4.234399368718511e-01
-1.023741837733078e+00  4.234399368718511e-01  8.808363090658802e-18

 1.006866073973908e-17  3.461900945818336e-21 -1.011892407918779e+00
 3.461900945818336e-21  7.228924644771292e-18  4.277112083320979e-01
-1.011892407918779e+00  4.277112083320979e-01  8.242403971336891e-18

 9.702637197126863e-18  1.354203894104991e-20 -9.946911678327772e-01
 1.354203894104991e-20  7.798864686179845e-18  4.198109479944952e-01
-9.946911678327772e-01  4.198109479944952e-01  7.455352544075237e-18

 9.546257858736501e-18  9.882595723323009e-21 -9.882856115929916e-01
 9.882595723323009e-21  1.443798432322191e-17  4.284976508928701e-01
-9.882856115929916e-01  4.284976508928701e-01  7.191352939573566e-18

 9.550467748139817e-18  9.570241860083172e-21 -9.894657185422240e-01
 9.570241860083172e-21  1.174063024807802e-17  4.195209079913155e-01
-9.894657185422240e-01  4.195209079913155e-01  7.412508869398667e-18

 9.602555200445715e-18 -2.290095186119574e-23 -9.922108661578115e-01
-2.290095186119574e-23 -4.455742884029872e-18  4.135045389708711e-01
-9.922108661578115e-01  4.135045389708711e-01  7.645670375952001e-18

 9.432553201769612e-18  9.074183403307189e-21 -9.878583840918229e-01
 9.074183403307189e-21  1.084938112620323e-17  4.255985804136492e-01
-9.878583840918229e-01  4.255985804136492e-01  7.214283024329058e-18

 9.443183885231031e-18  1.449611974230788e-20 -9.927125973253980e-01
 1.449611974230788e-20  1.223150970999616e-17  4.286059918341334e-01
-9.927125973253980e-01  4.286059918341334e-01  7.297120291381377e-18

 9.693013811210112e-18  4.608735277946281e-21 -1.005318488058507e+00
 4.608735277946281e-21  9.501392202706943e-18  4.180622523447719e-01
-1.005318488058507e+00  4.180622523447719e-01  8.099205638097826e-18

 9.868268041932815e-18  3.555743389623745e-21 -1.014916132611388e+00
 3.555743389623745e-21  1.972056172169001e-17  4.136007781758813e-01
-1.014916132611388e+00  4.136007781758813e-01  8.629723501009323e-18

 9.736517382117636e-18  1.154897005236434e-20 -1.012917016471923e+00
 1.154897005236434e-20  2.066010544747271e-17  4.275862304062031e-01
-1.012917016471923e+00  4.275862304062031e-01  8.257928921683206e-18

 9.768632164822307e-18  3.088522459921572e-21 -1.016286552490183e+00
 3.088522459921572e-21  2.087719087422526e-17  4.191134302898405e-01
-1.016286552490183e+00  4.191134302898405e-01  8.468543129472882e-18

 9.634873419562209e-18 -1.756758785617570e-21 -1.014560026478936e+00
-1.756758785617570e-21  1.051892143470224e-17  4.212322299774229e-01
-1.014560026478936e+00  4.212322299774229e-01  8.288181086831208e-18

 9.490071644855843e-18 -7.369910338822435e-21 -1.013011973776627e+00
-7.369910338822435e-21  1.320314304569132e-17  4.233821821174778e-01
-1.013011973776627e+00  4.233821821174778e-01  8.129211551961029e-18

 9.410978366258763e-18 -2.230877934641827e-20 -1.015259039380038e+00
-2.230877934641827e-20 -9.423990782930813e-18  4.252732974994610e-01
-1.015259039380038e+00  4.252732974994610e-01  8.146621288068038e-18

 9.371416701594724e-18 -2.206975607164494e-20 -1.018157665145998e+00
-2.206975607164494e-20  1.288094752698828e-17  4.267311597183844e-01
-1.018157665145998e+00  4.267311597183844e-01  8.193499760154067e-18

 9.333047300411366e-18 -2.113959506770143e-20 -1.018957385995001e+00
-2.113959506770143e-20  2.378975788517122e-17  4.256914661962820e-01
-1.018957385995001e+00  4.256914661962820e-01  8.206986502283693e-18

 9.233714336661037e-18 -2.156896338344410e-20 -1.017744508613321e+00
-2.156896338344410e-20  1.644357448994953e-17  4.274348502733942e-01
-1.017744508613321e+00  4.274348502733942e-01  8.086113625976431e-18

 9.187527981953824e-18 -2.265768227413617e-20 -1.018445716662571e+00
-2.265768227413617e-20  1.640897648186380e-17  4.255121219664211e-01
-1.018445716662571e+00  4.255121219664211e-01  8.090807759932291e-18

 9.163555734169573e-18 -1.732174783058777e-20 -1.021599035979130e+00
-1.732174783058777e-20  2.702824533251489e-17  4.275135366951706e-01
-1.021599035979130e+00  4.275135366951706e-01  8.203813395282345e-18

 9.109175895402192e-18 -2.127278785000130e-20 -1.022494228621327e+00
-2.127278785000130e-20  2.223310547078890e-17  4.312827748708636e-01
-1.022494228621327e+00  4.312827748708636e-01  8.176019016518875e-18

 8.989446250365147e-18 -2.506186131329694e-20 -1.020389761958922e+00
-2.506186131329694e-20  1.947618889981989e-18  4.287586120871136e-01
-1.020389761958922e+00  4.287586120871136e-01  8.085028929329327e-18

 8.789511572096094e-18 -2.329733819264910e-20 -1.014722887496685e+00
-2.329733819264910e-20  1.834510727566081e-18  4.261718757241051e-01
-1.014722887496685e+00  4.261718757241051e-01  7.740838699390162e-18

 8.784529394380523e-18 -1.982493209449614e-20 -1.018292022111703e+00
-1.982493209449614e-20  2.958211358871921e-18  4.240140126867359e-01
-1.018292022111703e+00  4.240140126867359e-01  7.943244703779820e-18

 8.811317101628435e-18 -1.728616538442725e-20 -1.023927584806337e+00
-1.728616538442725e-20  7.654676716338876e-19  4.298254616352936e-01
-1.023927584806337e+00  4.298254616352936e-01  8.212266908856256e-18

 8.667124581627222e-18 -1.112205005910016e-20 -1.021896118781558e+00
-1.112205005910016e-20  1.334590457454857e-17  4.266615005296100e-01
-1.021896118781558e+00  4.266615005296100e-01  8.085920113155357e-18

 8.441296408722513e-18 -1.066186192608466e-20 -1.015419942751734e+00
-1.066186192608466e-20  2.151926272398434e-18  4.272765286937744e-01
-1.015419942751734e+00  4.272765286937744e-01  7.730201622718539e-18

 8.366906567075000e-18 -6.815795675459983e-21 -1.015522459105990e+00
-6.815795675459983e-21  5.366363501831715e-18  4.250019724020732e-01
-1.015522459105990e+00  4.250019724020732e-01  7.756042752720786e-18

 8.236828123545969e-18 -5.918773477713119e-21 -1.013688246756210e+00
-5.918773477713119e-21  6.971265194359791e-18  4.274233839830519e-01
-1.013688246756210e+00  4.274233839830519e-01  7.654660450907560e-18

 8.107007892151984e-18  8.098553847810558e-22 -1.012880812224192e+00
 8.098553847810558e-22  2.512069736292376e-17  4.259849381368101e-01
-1.012880812224192e+00  4.259849381368101e-01  7.612805936405390e-18

 8.020157508175728e-18 -3.947963534642123e-21 -1.014211104053049e+00
-3.947963534642123e-21 -1.783686155029405e-18  4.293857941568525e-01
-1.014211104053049e+00  4.293857941568525e-01  7.664310169699165e-18

 7.548714356693364e-18  1.958906451011824e-21 -1.000853929923305e+00
 1.958906451011824e-21  1.113876374945475e-18  4.315817741410014e-01
-1.000853929923305e+00  4.315817741410014e-01  6.835414759352383e-18

 7.143948514441545e-18 -2.109432941610268e-21 -9.931621108184850e-01
-2.109432941610268e-21 -2.102138112194764e-18  4.311829418958503e-01
-9.931621108184850e-01  4.311829418958503e-01  6.220152473908123e-18

 7.389956509979233e-18  1.105531882662225e-20 -1.010781709786702e+00
 1.105531882662225e-20  1.829334572341483e-17  4.296939509378812e-01
-1.010781709786702e+00  4.296939509378812e-01  7.042770673909131e-18

 7.699451522820314e-18 -1.534724358674571e-20 -1.035832350155292e+00
-1.534724358674571e-20 -1.213173872590244e-19  4.162020593559987e-01
-1.035832350155292e+00  4.162020593559987e-01  8.310460043373046e-18

 8.575078496420957e-18 -5.860373598889937e-20 -1.088918380778394e+00
-5.860373598889937e-20  2.368629670604984e-17  4.638665705371789e-01
-1.088918380778394e+00  4.638665705371789e-01  1.087490348074254e-17

 7.816707572340574e-18  7.717557252489044e-20 -1.060395900262417e+00
 7.717557252489044e-20  2.083647733887908e-17  3.854230079565422e-01
-1.060395900262417e+00  3.854230079565422e-01  9.867246649311521e-18

 7.617781959649320e-18  1.570008927006668e-19 -1.053286301043187e+00
 1.570008927006668e-19 -3.563490384449590e-18  3.357625477808081e-01
-1.053286301043187e+00  3.357625477808081e-01  1.014771892574574e-17

 5.535785140735857e-18  6.951479008876083e-20 -9.732956898456471e-01
 6.951479008876083e-20  2.180482035630746e-17  4.735375534010343e-01
-9.732956898456471e-01  4.735375534010343e-01  3.976031319834040e-18

 6.246879902332191e-18  2.826730522886228e-20 -1.007121738150239e+00
 2.826730522886228e-20  1.445264107455749e-17  4.234788700541074e-01
-1.007121738150239e+00  4.234788700541074e-01  6.929460443737273e-18

 5.764174193412096e-18  2.331614245445991e-20 -9.950000727746884e-01
 2.331614245445991e-20  1.396122912840315e-17  4.274118042879261e-01
-9.950000727746884e-01  4.274118042879261e-01  6.212731952145650e-18

 5.422926888679667e-18  1.989110748373206e-20 -9.941532197324338e-01
 1.989110748373206e-20  9.568287599729568e-18  4.227962861377306e-01
-9.941532197324338e-01  4.227962861377306e-01  6.140091512189766e-18

 5.475179172805261e-18  2.152967351099152e-20 -1.007888065011761e+00
 2.152967351099152e-20 -2.300523687832297e-18  4.233783979975945e-01
-1.007888065011761e+00  4.233783979975945e-01  6.808319448767631e-18

 5.343820737846788e-18  2.888502360867465e-20 -1.014446574863567e+00
 2.888502360867465e-20 -6.492126415110885e-18  4.297872606101976e-01
-1.014446574863567e+00  4.297872606101976e-01  7.001206290358114e-18

 5.242067239805939e-18  1.929540511274285e-20 -1.019576434328007e+00
 1.929540511274285e-20  8.447535670042579e-18  4.186648941900822e-01
-1.019576434328007e+00  4.186648941900822e-01  7.327547096851817e-18

 4.997459863812847e-18  1.456150470106238e-20 -1.019889169230008e+00
 1.456150470106238e-20  1.006691578234653e-17  4.171314769651884e-01
-1.019889169230008e+00  4.171314769651884e-01  7.232804364944926e-18

 4.562565569738556e-18  1.377247151227967e-20 -1.019572352797057e+00
 1.377247151227967e-20  1.043507122431152e-17  4.228989032816564e-01
-1.019572352797057e+00  4.228989032816564e-01  6.990945714031666e-18

 4.027689891717846e-18  1.753457893939167e-20 -1.016645794530600e+00
 1.753457893939167e-20 -7.625316983605319e-19  4.227053307571472e-01
-1.016645794530600e+00  4.227053307571472e-01  6.663004398183503e-18

 3.516914005884756e-18  1.865301869601384e-20 -1.013488133292346e+00
 1.865301869601384e-20 -1.123634633738815e-18  4.226109397752202e-01
-1.013488133292346e+00  4.226109397752202e-01  6.303527594816380e-18

 2.915886021564922e-18  1.794109671479389e-20 -1.014933780314134e+00
 1.794109671479389e-20  1.375954360592333e-17  4.224763301733315e-01
-1.014933780314134e+00  4.224763301733315e-01  6.143508403231809e-18

 2.385581074397931e-18  2.369096093005543e-20 -1.019561753754340e+00
 2.369096093005543e-20  1.066260978389928e-17  4.308406061858705e-01
-1.019561753754340e+00  4.308406061858705e-01  6.070974577999225e-18

 1.927409786473064e-18  2.785488403047387e-20 -1.021985327870096e+00
 2.785488403047387e-20  1.262163906917688e-17  4.212729930526562e-01
-1.021985327870096e+00  4.212729930526562e-01  6.127527209334948e-18

 1.217338317348285e-18  4.238667166937504e-20 -1.019313422741096e+00
 4.238667166937504e-20 -1.661739932245026e-17  4.293883978583330e-01
-1.019313422741096e+00  4.293883978583330e-01  5.678812023613964e-18

 4.465174585613839e-19  5.235931875123905e-20 -1.014687836955037e+00
 5.235931875123905e-20 -1.810967900419883e-17  4.235723589162289e-01
-1.014687836955037e+00  4.235723589162289e-01  5.214972953567678e-18

-4.524650561603897e-19  4.962603463497397e-20 -1.019206432807544e+00
 4.962603463497397e-20  1.248021953967894e-17  4.240229403856484e-01
-1.019206432807544e+00  4.240229403856484e-01  5.092813110548881e-18

-1.214549803175969e-18  5.812577241318579e-20 -1.021080912726885e+00
 5.812577241318579e-20 -1.144431196431381e-17  4.401037645658588e-01
-1.021080912726885e+00  4.401037645658588e-01  4.652950007741357e-18

-1.649067811105278e-18  5.378111229271128e-20 -1.038026874533028e+00
 5.378111229271128e-20  2.024071323781709e-17  4.183488138988604e-01
-1.038026874533028e+00  4.183488138988604e-01  5.659583844618505e-18

-2.866978258268379e-18  8.047305759340771e-20 -1.028669500186427e+00
 8.047305759340771e-20 -2.931910914416386e-17  4.294400602825817e-01
-1.028669500186427e+00  4.294400602825817e-01  4.608684510786105e-18

-3.813078633678743e-18  9.395850601004761e-20 -1.026635254393459e+00
 9.395850601004761e-20  4.889245539198431e-20  4.200343766896325e-01
-1.026635254393459e+00  4.200343766896325e-01  4.392318845583719e-18

-5.217368860663193e-18  1.172548551456637e-19 -1.020378767647400e+00
 1.172548551456637e-19 -8.209478369969727e-19  4.192951438089244e-01
-1.020378767647400e+00  4.192951438089244e-01  3.646644409162486e-18

-6.586386776557333e-18  1.233890437958425e-19 -1.017562634160886e+00
 1.233890437958425e-19 -2.698480583718874e-19  4.311817587642841e-01
-1.017562634160886e+00  4.311817587642841e-01  2.975702003266795e-18

-7.920252727098581e-18  1.574073963444628e-19 -1.021123808783050e+00
 1.574073963444628e-19  8.330173018115020e-18  4.204008627299946e-01
-1.021123808783050e+00  4.204008627299946e-01  2.877131698043713e-18

-9.635247263949264e-18  1.757571091187341e-19 -1.004685475972175e+00
 1.757571091187341e-19 -9.335564025627161e-18  4.357978844328996e-01
-1.004685475972175e+00  4.357978844328996e-01  1.252353565192306e-18

-1.076722712285086e-17  1.989785916445717e-19 -1.004382269134599e+00
 1.989785916445717e-19  6.268156084937708e-18  4.309560396847727e-01
-1.004382269134599e+00  4.309560396847727e-01  9.133322500703606e-19

-1.275993632202573e-17  2.369186273798213e-19 -1.009784990738261e+00
 2.369186273798213e-19 -2.254446478722713e-17  4.285706068249981e-01
-1.009784990738261e+00  4.285706068249981e-01  6.087364523169320e-19

-1.481144938633599e-17  2.767985977401734e-19 -1.014537597298397e+00
 2.767985977401734e-19 -1.962088368545123e-17  4.233490354362074e-01
-1.014537597298397e+00  4.233490354362074e-01  1.848006433064172e-19

-1.706853879106602e-17  3.012805949560805e-19 -1.012778829919653e+00
 3.012805949560805e-19 -6.294250736585586e-18  4.235456743493257e-01
-1.012778829919653e+00  4.235456743493257e-01 -6.511559634607095e-19

-2.012612288434717e-17  3.296733493646211e-19 -1.006025875645997e+00
 3.296733493646211e-19 -3.089391138001023e-18  4.294057524841733e-01
-1.006025875645997e+00  4.294057524841733e-01 -2.129776099441699e-18

-2.390513241432699e-17  3.590221028657462e-19 -9.996933648292760e-01
 3.590221028657462e-19 -5.403853482324259e-18  4.269009416561322e-01
-9.996933648292760e-01  4.269009416561322e-01 -3.786421120618800e-18

-2.615704139959947e-17  3.538405244676747e-19 -1.012680280678605e+00
 3.538405244676747e-19 -2.458558045198470e-17  4.219357292138701e-01
-1.012680280678605e+00  4.219357292138701e-01 -3.804850212061218e-18

-2.895232361233764e-17  3.248637557088683e-19 -1.023567005347389e+00
 3.248637557088683e-19  5.123378652282873e-18  4.219780931499842e-01
-1.023567005347389e+00  4.219780931499842e-01 -4.217847788522549e-18

-3.533422567868840e-17  2.891177217992659e-19 -1.014100060910964e+00
 2.891177217992659e-19  9.255087779549317e-18  4.233347625490217e-01
-1.014100060910964e+00  4.233347625490217e-01 -7.002548582225753e-18

-4.282373354534221e-17  1.627472457803230e-19 -1.013116744022420e+00
 1.627472457803230e-19  1.955641797390230e-18  4.213587026052864e-01
-1.013116744022420e+00  4.213587026052864e-01 -9.623335562777054e-18

-5.399883361642653e-17 -1.813195801131703e-19 -1.015003334273409e+00
-1.813195801131703e-19 -7.600953505880260e-18  4.203847045615725e-01
-1.015003334273409e+00  4.203847045615725e-01 -1.333782757546348e-17

-6.393664452343517e-17 -5.747182858067890e-19 -9.884627821383750e-01
-5.747182858067890e-19 -4.277650524902722e-17  4.414785286953545e-01
-9.884627821383750e-01  4.414785286953545e-01 -1.842657650308862e-17

-7.078569681624709e-17 -9.184971264844806e-19 -9.947866125088309e-01
-9.184971264844806e-19 -3.263294420215742e-17  4.258058041843953e-01
-9.947866125088309e-01  4.258058041843953e-01 -2.025150239824651e-17

-8.356567871033384e-17 -1.830685341391128e-18 -1.004434403567627e+00
-1.830685341391128e-18 -3.184614553113996e-17  4.273780601756311e-01
-1.004434403567627e+00  4.273780601756311e-01 -2.412289000698940e-17

-9.940181229023995e-17 -3.172597396985436e-18 -9.973859895506275e-01
-3.172597396985436e-18 -4.575851569738899e-17  4.251998418860234e-01
-9.973859895506275e-01  4.251998418860234e-01 -3.003630167757827e-17

-1.093753442348476e-16 -7.166153811170726e-18 -1.003653010521562e+00
-7.166153811170726e-18  2.623153889271209e-19  4.183290247924631e-01
-1.003653010521562e+00  4.183290247924631e-01 -4.210941142964727e-17

-1.669461174409688e-16 -1.268977906302371e-17 -1.000915092876279e+00
-1.268977906302371e-17 -3.738117571952949e-17  4.121647925106025e-01
-1.000915092876279e+00  4.121647925106025e-01 -5.366159484243815e-17

-2.066942292190329e-16 -2.042168789800503e-17 -9.922693266354470e-01
-2.042168789800503e-17 -1.763708219509753e-17  4.134993848819573e-01
-9.922693266354470e-01  4.134993848819573e-01 -6.835873628738750e-17

-2.721998719098684e-16 -3.709789764601185e-17 -9.752340364858451e-01
-3.709789764601185e-17 -3.598747660026835e-17  4.265685359378568e-01
-9.752340364858451e-01  4.265685359378568e-01 -9.339459870183895e-17

-3.667508473266393e-16 -6.710680238200607e-17 -9.674520731371303e-01
-6.710680238200607e-17  1.834512069013758e-17  4.046549635686503e-01
-9.674520731371303e-01  4.046549635686503e-01 -1.386651041957915e-16

-4.494069497562674e-16 -1.013999772160996e-16 -9.494974791082376e-01
-1.013999772160996e-16  2.388960853803644e-17  4.644146340845767e-01
-9.494974791082376e-01  4.644146340845767e-01 -1.633245412511443e-16

-5.141055978514927e-16 -1.333733613235433e-16 -9.816194665939603e-01
-1.333733613235433e-16  4.201313627285488e-17  4.440304611621696e-01
-9.816194665939603e-01  4.440304611621696e-01 -1.875420893265453e-16

-6.585522629257202e-16 -2.139031500841968e-16 -9.965617792381085e-01
-2.139031500841968e-16  8.964166997173861e-17  4.101883454358366e-01
-9.965617792381085e-01  4.101883454358366e-01 -2.467383250449821e-16

-8.999352153934306e-16 -3.850432230189895e-16 -9.941238881317740e-01
-3.850432230189895e-16  1.973815638901801e-16  4.156909221787122e-01
-9.941238881317740e-01  4.156909221787122e-01 -3.551105785964952e-16

-1.154661197023035e-15 -6.427628677263955e-16 -9.979044437513022e-01
-6.427628677263955e-16  4.171635622993254e-16  4.170821334561369e-01
-9.979044437513022e-01  4.170821334561369e-01 -5.054082845109679e-16

-1.604438447798417e-15 -1.147689872867852e-15 -1.001218154299827e+00
-1.147689872867852e-15  5.859440414210441e-16  4.160955610722217e-01
-1.001218154299827e+00  4.160955610722217e-01 -7.355499349433571e-16

-1.989016774919867e-15 -1.740828803897295e-15 -1.001707708079363e+00
-1.740828803897295e-15  7.793603815250107e-16  4.172691515796728e-01
-1.001707708079363e+00  4.172691515796728e-01 -9.959727852618480e-16

-2.600205302972654e-15 -2.955313746976211e-15 -1.004024803895091e+00
-2.955313746976211e-15  9.970490490634948e-16  4.172927084938955e-01
-1.004024803895091e+00  4.172927084938955e-01 -1.509596825959328e-15

-4.155621809632333e-15 -6.748407726649600e-15 -1.007472882716200e+00
-6.748407726649600e-15  7.856481909269310e-16  4.182618749897109e-01
-1.007472882716200e+00  4.182618749897109e-01 -3.284348163683227e-15

-8.196029501067505e-15 -1.189208598189720e-14 -1.007898618852148e+00
-1.189208598189720e-14 -1.215259818912306e-15  4.199520666265050e-01
-1.007898618852148e+00  4.199520666265050e-01 -7.316059204109177e-15

-9.989481105007882e-15 -8.724343180883621e-15 -1.009802245594935e+00
-8.724343180883621e-15  6.888604875225680e-15  4.141540211899495e-01
-1.009802245594935e+00  4.141540211899495e-01 -1.290097169815943e-14

 1.203942334959675e-13  3.079271707088069e-14 -1.010353183230496e+00
 3.079271707088069e-14  7.257780086581420e-14  4.206220879159911e-01
-1.010353183230496e+00  4.206220879159911e-01  2.771474307580942e-14

-6.167367933462268e-13 -1.402023804436648e-13 -1.013554180854223e+00
-1.402023804436648e-13 -3.094891885326826e-13  4.242315186188081e-01
-1.013554180854223e+00  4.242315186188081e-01 -1.536300869549514e-13

-1.099928028328115e-14  1.726252454081954e-14 -1.011562594123129e+00
 1.726252454081954e-14  1.848949293023015e-14  4.248823534794403e-01
-1.011562594123129e+00  4.248823534794403e-01 -1.031413129857616e-14

-6.495282725656019e-13 -1.384851091707141e-13 -1.013978041951547e+00
-1.384851091707141e-13 -3.110638535228282e-13  4.234418117872807e-01
-1.013978041951547e+00  4.234418117872807e-01 -1.660971645624183e-13

-1.565740841409693e-14  2.965886446787538e-16 -1.013978954416312e+00
 2.965886446787538e-16 -4.299204992483419e-15  4.294748461325266e-01
-1.013978954416312e+00  4.294748461325266e-01 -6.823792154267618e-15

-9.530811133492939e-15 -7.907391609373002e-16 -1.020490886085802e+00
-7.907391609373002e-16 -3.165953570218009e-15  4.238104606592291e-01
-1.020490886085802e+00  4.238104606592291e-01 -3.715860513300072e-15

-7.015957942103958e-15 -1.124637040267903e-15 -1.019980162599463e+00
-1.124637040267903e-15 -2.663396146632710e-15  4.248443512521165e-01
-1.019980162599463e+00  4.248443512521165e-01 -2.510992465828972e-15

-4.306529044734752e-15 -1.186948974120872e-15 -1.016458256355877e+00
-1.186948974120872e-15 -2.162979576375037e-15  4.286953834297609e-01
-1.016458256355877e+00  4.286953834297609e-01 -1.391215756083131e-15

-2.956020784137694e-15 -1.044243470022176e-15 -1.016133703630601e+00
-1.044243470022176e-15 -1.840680837758092e-15  4.276349588199849e-01
-1.016133703630601e+00  4.276349588199849e-01 -9.081687675515554e-16

-2.233499527780632e-15 -9.005237475763653e-16 -1.014221544139732e+00
-9.005237475763653e-16 -1.499881958464815e-15  4.325316315190723e-01
-1.014221544139732e+00  4.325316315190723e-01 -6.966445979606063e-16

-1.369787472466548e-15 -6.465681347062715e-16 -1.019214646608687e+00
-6.465681347062715e-16 -1.082079054570613e-15  4.308478764730593e-01
-1.019214646608687e+00  4.308478764730593e-01 -4.026822584070021e-16

-8.459083302826781e-16 -4.330792890823781e-16 -1.021150941787607e+00
-4.330792890823781e-16 -8.780586986382290e-16  4.365990158527337e-01
-1.021150941787607e+00  4.365990158527337e-01 -2.482526930382307e-16

-5.918961631750174e-16 -3.150589600909466e-16 -1.018563806969486e+00
-3.150589600909466e-16 -7.292300546749745e-16  4.336022392016149e-01
-1.018563806969486e+00  4.336022392016149e-01 -1.750076394898566e-16

-4.087981402260044e-16 -2.197760109217448e-16 -1.022702999299032e+00
-2.197760109217448e-16 -5.179377925647158e-16  4.387426757084987e-01
-1.022702999299032e+00  4.387426757084987e-01 -1.216286062450759e-16

-3.121246328596600e-16 -1.661160956027179e-16 -1.032630684048359e+00
-1.661160956027179e-16 -4.769501636440153e-16  4.374831813995876e-01
-1.032630684048359e+00  4.374831813995876e-01 -9.268606029479684e-17

-2.634597455100154e-16 -1.389459971368544e-16 -1.026296457688843e+00
-1.389459971368544e-16 -4.485393932969957e-16  4.456376197588170e-01
-1.026296457688843e+00  4.456376197588170e-01 -7.876361184682475e-17

-2.266216430883670e-16 -1.184411459772039e-16 -1.032465053848620e+00
-1.184411459772039e-16 -2.900792589220194e-16  4.351332633186071e-01
-1.032465053848620e+00  4.351332633186071e-01 -6.722903566558875e-17

-1.887667638621064e-16 -9.693009026364952e-17 -1.034794525895843e+00
-9.693009026364952e-17 -2.729863464789737e-16  4.398222838986906e-01
-1.034794525895843e+00  4.398222838986906e-01 -5.572202228756202e-17

-1.560839638781452e-16 -7.843415627804568e-17 -1.039040641503497e+00
-7.843415627804568e-17 -2.339680853732968e-16  4.386529395172865e-01
-1.039040641503497e+00  4.386529395172865e-01 -4.549995774749678e-17

-1.322164601376302e-16 -6.479977015505773e-17 -1.042330453458700e+00
-6.479977015505773e-17 -2.853402901587922e-16  4.349325616186595e-01
-1.042330453458700e+00  4.349325616186595e-01 -3.788719702601115e-17

-1.121139266176253e-16 -5.387685004688152e-17 -1.042776501955504e+00
-5.387685004688152e-17 -1.982178683346822e-16  4.359189843297523e-01
-1.042776501955504e+00  4.359189843297523e-01 -3.154614203680510e-17

-9.477636711338945e-17 -4.404118279955259e-17 -1.043855767029269e+00
-4.404118279955259e-17 -1.672717937832669e-16  4.419027359528785e-01
-1.043855767029269e+00  4.419027359528785e-01 -2.606367556025662e-17

-8.183444672387465e-17 -3.733216623354451e-17 -1.046409862472375e+00
-3.733216623354451e-17 -9.946414377765203e-17  4.404267445176624e-01
-1.046409862472375e+00  4.404267445176624e-01 -2.170510586993209e-17

-7.140726518438452e-17 -3.186756153932375e-17 -1.042099304475822e+00
-3.186756153932375e-17 -1.335080652017409e-16  4.383202513088678e-01
-1.042099304475822e+00  4.383202513088678e-01 -1.851757660874772e-17

-6.346954642080566e-17 -2.792334851291293e-17 -1.036466007085471e+00
-2.792334851291293e-17 -1.186871642656999e-16  4.386131486050107e-01
-1.036466007085471e+00  4.386131486050107e-01 -1.620926752824033e-17

-5.465762287479996e-17 -2.366030523681224e-17 -1.040614423561687e+00
-2.366030523681224e-17 -9.101910427938567e-17  4.386973364856796e-01
-1.040614423561687e+00  4.386973364856796e-01 -1.310470805708297e-17

-4.762435376457632e-17 -1.999224994258447e-17 -1.039621152175265e+00
-1.999224994258447e-17 -7.276470071024458e-17  4.468130623680900e-01
-1.039621152175265e+00  4.468130623680900e-01 -1.101496639921137e-17

-3.903580041227756e-17 -1.594108227906234e-17 -1.051878904205156e+00
-1.594108227906234e-17 -8.802404939235033e-17  4.389466999259030e-01
-1.051878904205156e+00  4.389466999259030e-01 -7.623889567974267e-18

-2.977258420258808e-17 -1.186760054297169e-17 -1.082226708165632e+00
-1.186760054297169e-17 -7.156945166598938e-17  4.311060108769555e-01
-1.082226708165632e+00  4.311060108769555e-01 -3.351702051867183e-18

-2.256488782192361e-17 -9.534967845556617e-18 -1.140741120105940e+00
-9.534967845556617e-18 -2.125002419364553e-17  4.433955902536483e-01
-1.140741120105940e+00  4.433955902536483e-01  1.626484703790290e-18

-2.225066137406058e-17 -7.606450647523449e-18 -1.042612680111648e+00
-7.606450647523449e-18 -9.113822908993423e-17  5.665075399347450e-01
-1.042612680111648e+00  5.665075399347450e-01 -4.940683656125632e-18

-1.831812592675677e-17 -7.460464618778259e-18 -1.112077998026570e+00
-7.460464618778259e-18 -4.492751005422375e-17  4.223384790874460e-01
-1.112077998026570e+00  4.223384790874460e-01  1.994620922199447e-18

-1.579290579898819e-17 -6.735612733894659e-18 -1.062011992218348e+00
-6.735612733894659e-18 -4.811217992274513e-17  4.290914515968371e-01
-1.062011992218348e+00  4.290914515968371e-01  8.223558758622897e-19

-1.331658969406018e-17 -5.947870532032095e-18 -1.040288071847289e+00
-5.947870532032095e-18 -2.965485213119155e-17  4.374318543843730e-01
-1.040288071847289e+00  4.374318543843730e-01  1.137039131523636e-18

-1.180181872510391e-17 -5.320623746423159e-18 -1.009806078067597e+00
-5.320623746423159e-18 -9.612902391332404e-18  4.333830577501049e-01
-1.009806078067597e+00  4.333830577501049e-01  3.930080525351237e-19

-1.051246475205542e-17 -4.905749952579813e-18 -1.007661268923917e+00
-4.905749952579813e-18 -2.902813296773269e-17  4.454989278517076e-01
-1.007661268923917e+00  4.454989278517076e-01  7.752035700263769e-19

-8.637994753320667e-18 -4.327841866600376e-18 -1.031200913055598e+00
-4.327841866600376e-18 -5.958286961818463e-17  4.336993640530717e-01
-1.031200913055598e+00  4.336993640530717e-01  2.890003572518414e-18

-6.933822980172250e-18 -4.061508425549082e-18 -1.024594776195864e+00
-4.061508425549082e-18 -2.462946031668347e-17  4.388424557874879e-01
-1.024594776195864e+00  4.388424557874879e-01  2.933230202767605e-18

-5.719373931965472e-18 -3.450510878182585e-18 -1.018603043239166e+00
-3.450510878182585e-18 -3.960868660569347e-17  4.361509311975206e-01
-1.018603043239166e+00  4.361509311975206e-01  2.875488442763427e-18

-5.394285713189981e-18 -3.528569967424305e-18 -1.007080433256967e+00
-3.528569967424305e-18 -1.450507715463911e-17  4.619466537923491e-01
-1.007080433256967e+00  4.619466537923491e-01  2.019445965153524e-18

-4.043383784172747e-18 -3.093100020817697e-18 -1.037527650993591e+00
-3.093100020817697e-18 -2.837666452531151e-17  4.424611687698589e-01
-1.037527650993591e+00  4.424611687698589e-01  4.363285879215760e-18

-3.189141262836986e-18 -2.869135008089743e-18 -1.032843511226829e+00
-2.869135008089743e-18 -2.107835532484775e-17  4.397766239028488e-01
-1.032843511226829e+00  4.397766239028488e-01  4.336618320224286e-18

-2.308121756163764e-18 -2.752525134073350e-18 -1.036861307603105e+00
-2.752525134073350e-18 -1.192301765044037e-17  4.267239714380647e-01
-1.036861307603105e+00  4.267239714380647e-01  4.974312244744531e-18

-1.722985805103615e-18 -2.483450121624778e-18 -1.028255178699534e+00
-2.483450121624778e-18  7.756746073437372e-18  4.385391499409975e-01
-1.028255178699534e+00  4.385391499409975e-01  4.616151572519765e-18

-7.586980746837635e-19 -2.224010484407539e-18 -1.030236737846496e+00
-2.224010484407539e-18  9.437822122544996e-18  4.349628084231763e-01
-1.030236737846496e+00  4.349628084231763e-01  5.136847437975403e-18

-9.990753848911798e-20 -2.091552021316858e-18 -1.033287533814327e+00
-2.091552021316858e-18 -5.684224195077426e-18  4.302035465232829e-01
-1.033287533814327e+00  4.302035465232829e-01  5.607070215976417e-18

 3.884848664691871e-19 -1.793644328554107e-18 -1.031430647817185e+00
-1.793644328554107e-18 -1.689720179206159e-17  4.338026236106196e-01
-1.031430647817185e+00  4.338026236106196e-01  5.659328205610848e-18

 1.030359336932199e-18 -1.792653224760766e-18 -1.030108356186915e+00
-1.792653224760766e-18 -1.581974079288872e-17  4.330839600427874e-01
-1.030108356186915e+00  4.330839600427874e-01  5.857880687597780e-18

 1.540504414569631e-18 -1.650129620683466e-18 -1.028811953803110e+00
-1.650129620683466e-18  1.016687095505073e-17  4.294639905752236e-01
-1.028811953803110e+00  4.294639905752236e-01  6.066832645880808e-18

 2.007602735092740e-18 -1.569309874162353e-18 -1.026182014639684e+00
-1.569309874162353e-18  3.490210469752558e-17  4.314308830756069e-01
-1.026182014639684e+00  4.314308830756069e-01  6.116748006119013e-18

 2.462797112278660e-18 -1.411282951827089e-18 -1.025738768761136e+00
-1.411282951827089e-18  9.571161986660082e-18  4.299849005398061e-01
-1.025738768761136e+00  4.299849005398061e-01  6.321070767465077e-18

 2.965573040312862e-18 -1.302545854345470e-18 -1.024480117661970e+00
-1.302545854345470e-18 -3.131991127802905e-18  4.304426819623987e-01
-1.024480117661970e+00  4.304426819623987e-01  6.470435098007100e-18

 3.469503682176744e-18 -1.193527004257190e-18 -1.024509563214009e+00
-1.193527004257190e-18 -2.264932841125248e-18  4.306876853199073e-01
-1.024509563214009e+00  4.306876853199073e-01  6.671523356696249e-18

 3.930587241177569e-18 -1.107748643171052e-18 -1.024851192777368e+00
-1.107748643171052e-18 -4.530989291363908e-18  4.312253437438524e-01
-1.024851192777368e+00  4.312253437438524e-01  6.811189099494132e-18

 4.330785667436579e-18 -1.146383609138502e-18 -1.026587038130396e+00
-1.146383609138502e-18  2.002906357736345e-17  4.298549220373331e-01
-1.026587038130396e+00  4.298549220373331e-01  7.027431259448802e-18

 4.695296587070878e-18 -9.249917187296659e-19 -1.027745238922796e+00
-9.249917187296659e-19 -2.038978053816382e-17  4.342182520841417e-01
-1.027745238922796e+00  4.342182520841417e-01  7.154081462493094e-18

 5.057901753777224e-18 -9.464800587155156e-19 -1.024686330613756e+00
-9.464800587155156e-19  8.240801605788928e-18  4.322331758314634e-01
-1.024686330613756e+00  4.322331758314634e-01  7.119272206081031e-18

 5.404211095387341e-18 -7.461432959196697e-19 -1.022764477590608e+00
-7.461432959196697e-19 -1.244601757723906e-17  4.332008001357566e-01
-1.022764477590608e+00  4.332008001357566e-01  7.118643974838674e-18

 5.780614667494056e-18 -7.424391499890355e-19 -1.021769392946275e+00
-7.424391499890355e-19 -4.179261036155139e-17  4.347783159893976e-01
-1.021769392946275e+00  4.347783159893976e-01  7.212677221149772e-18

 6.028445403513244e-18 -6.117320718751969e-19 -1.015208692444167e+00
-6.117320718751969e-19  1.066894080526929e-17  4.340774196922171e-01
-1.015208692444167e+00  4.340774196922171e-01  6.991221362914164e-18

 6.283679365201298e-18 -5.649779915370055e-19 -1.015962365705257e+00
-5.649779915370055e-19  1.105747684547737e-17  4.315009164500294e-01
-1.015962365705257e+00  4.315009164500294e-01  7.200023767446018e-18

 6.397230189470789e-18 -5.704578620496669e-19 -1.012135786664383e+00
-5.704578620496669e-19  9.614444960125985e-18  4.437062619485582e-01
-1.012135786664383e+00  4.437062619485582e-01  6.942940821805950e-18

 6.469051618443466e-18 -5.106701554593471e-19 -1.005458039574434e+00
-5.106701554593471e-19 -2.404080508747612e-17  4.372637807801124e-01
-1.005458039574434e+00  4.372637807801124e-01  6.751484928436846e-18

 6.576825384887281e-18 -4.770672633019891e-19 -9.971717673968972e-01
-4.770672633019891e-19 -3.919574582756904e-17  4.365218254103052e-01
-9.971717673968972e-01  4.365218254103052e-01  6.392499067252530e-18

 6.878591739833715e-18 -4.335980621800348e-19 -1.002377091530643e+00
-4.335980621800348e-19 -2.705801297880297e-17  4.396277143699756e-01
-1.002377091530643e+00  4.396277143699756e-01  6.727028892754289e-18

 7.098268119261260e-18 -3.730195890454634e-19 -1.006780405030381e+00
-3.730195890454634e-19 -6.890232332897159e-17  4.350409780180144e-01
-1.006780405030381e+00  4.350409780180144e-01  7.051932384306888e-18

 7.215047159356034e-18 -3.348887764061114e-19 -1.005687222180004e+00
-3.348887764061114e-19 -6.872411820085671e-17  4.360506792893147e-01
-1.005687222180004e+00  4.360506792893147e-01  6.996751883162434e-18

 7.378199844406280e-18 -3.257943570570256e-19 -1.006336769169287e+00
-3.257943570570256e-19 -5.900650696124451e-17  4.316740223989951e-01
-1.006336769169287e+00  4.316740223989951e-01  7.086265602433564e-18

 7.398391421693084e-18 -2.968688270071212e-19 -1.002913922996096e+00
-2.968688270071212e-19  3.005819670707326e-17  4.341720265984691e-01
-1.002913922996096e+00  4.341720265984691e-01  6.833292315802978e-18

 7.901461804231756e-18 -3.251941607719693e-19 -1.019741005916141e+00
-3.251941607719693e-19  2.126522722864781e-17  4.192121469457382e-01
-1.019741005916141e+00  4.192121469457382e-01  8.097385038554612e-18

 7.505866692394026e-18 -2.473856609138107e-19 -1.000651121041381e+00
-2.473856609138107e-19  6.326988377460407e-18  4.563698252499728e-01
-1.000651121041381e+00  4.563698252499728e-01  6.501404754512306e-18

 7.675326321133889e-18 -2.425237960075683e-19 -1.003347668061765e+00
-2.425237960075683e-19 -2.292098047461385e-17  4.449287828985523e-01
-1.003347668061765e+00  4.449287828985523e-01  6.842044878855173e-18

 8.192633905390833e-18 -1.862160373006091e-19 -1.020528954766361e+00
-1.862160373006091e-19 -7.525463091492438e-18  4.060590755061397e-01
-1.020528954766361e+00  4.060590755061397e-01  8.368857174803808e-18

 7.672363886700592e-18 -2.461510874387152e-19 -9.957626222519337e-01
-2.461510874387152e-19  3.374516643714372e-17  4.275024059962718e-01
-9.957626222519337e-01  4.275024059962718e-01  6.630918378986922e-18

 7.964796284445878e-18 -1.909912595666643e-19 -1.004683476087744e+00
-1.909912595666643e-19  2.616431995909782e-17  4.247918236726832e-01
-1.004683476087744e+00  4.247918236726832e-01  7.293114901309505e-18

 7.868792113666412e-18 -2.150048853934614e-19 -9.994905898771462e-01
-2.150048853934614e-19  2.791130490737113e-17  4.400630945374482e-01
-9.994905898771462e-01  4.400630945374482e-01  6.718438665910285e-18

 8.248635533574071e-18 -1.626024826940739e-19 -1.010675834961595e+00
-1.626024826940739e-19  6.579228795302155e-18  4.314614248509539e-01
-1.010675834961595e+00  4.314614248509539e-01  7.500002925321353e-18

 8.402290034017358e-18 -1.393679285320797e-19 -1.014030964015979e+00
-1.393679285320797e-19  6.884215673409830e-18  4.297250014069538e-01
-1.014030964015979e+00  4.297250014069538e-01  7.676793682649544e-18

 8.549174155284868e-18 -5.860595121400331e-20 -1.017040930126402e+00
-5.860595121400331e-20 -2.733916618484855e-17  4.294720884900558e-01
-1.017040930126402e+00  4.294720884900558e-01  7.807316764234347e-18

 8.683585141366826e-18 -1.097160094655577e-19 -1.019331366436136e+00
-1.097160094655577e-19  6.709241892404690e-18  4.282525837715137e-01
-1.019331366436136e+00  4.282525837715137e-01  7.941222592974989e-18

 8.888177845040948e-18 -2.270829562151624e-20 -1.024281677432882e+00
-2.270829562151624e-20  3.971358096418012e-17  4.279595472228082e-01
-1.024281677432882e+00  4.279595472228082e-01  8.206630269689767e-18

 9.071465028985856e-18 -4.802281990145811e-20 -1.029213064283496e+00
-4.802281990145811e-20  1.122175963112606e-17  4.286792526968067e-01
-1.029213064283496e+00  4.286792526968067e-01  8.466114087744294e-18

 9.053673076224448e-18 -5.380388339444585e-20 -1.026896438829072e+00
-5.380388339444585e-20  3.064510108484292e-17  4.326352925192146e-01
-1.026896438829072e+00  4.326352925192146e-01  8.266735188353054e-18

 9.081533235812483e-18 -2.357979719997882e-20 -1.025410963664576e+00
-2.357979719997882e-20 -3.155976417169628e-17  4.283797807898755e-01
-1.025410963664576e+00  4.283797807898755e-01  8.268825698885155e-18

 9.142182558862812e-18 -4.976558228285074e-20 -1.024716135208380e+00
-4.976558228285074e-20  9.109897382266192e-18  4.260451889268930e-01
-1.024716135208380e+00  4.260451889268930e-01  8.267983802939219e-18

 9.197612541316133e-18 -1.277033039427595e-21 -1.025220727148991e+00
-1.277033039427595e-21  9.669392521501557e-18  4.323216659310432e-01
-1.025220727148991e+00  4.323216659310432e-01  8.217394618264056e-18

 9.311522586636174e-18 -2.659231171327456e-20 -1.027094816358298e+00
-2.659231171327456e-20  3.414816119171703e-17  4.310398545382663e-01
-1.027094816358298e+00  4.310398545382663e-01  8.360149423736760e-18

 9.362959476663068e-18 -2.475294248894314e-20 -1.027575353556757e+00
-2.475294248894314e-20  3.432814433390069e-17  4.287504352561410e-01
-1.027575353556757e+00  4.287504352561410e-01  8.388659761353842e-18

 9.510720272021944e-18 -5.288793984382048e-21 -1.031460715367567e+00
-5.288793984382048e-21  1.834955007796289e-17  4.317800028859564e-01
-1.031460715367567e+00  4.317800028859564e-01  8.540905086477271e-18

 9.588749530792757e-18 -1.131610635845291e-20 -1.033068682085160e+00
-1.131610635845291e-20  1.616604943042412e-17  4.335625574155870e-01
-1.033068682085160e+00  4.335625574155870e-01  8.559548853162714e-18

 9.555302977602283e-18 -4.503900849547711e-20 -1.029825303693377e+00
-4.503900849547711e-20  3.015953903876358e-17  4.329194115662439e-01
-1.029825303693377e+00  4.329194115662439e-01  8.333066175035786e-18

 1.004076761264945e-17 -2.469527538546232e-21 -1.047773550603730e+00
-2.469527538546232e-21 -2.530530805786025e-17  4.133118545416755e-01
-1.047773550603730e+00  4.133118545416755e-01  9.636278967782256e-18

 9.705602484111608e-18  1.167409867334010e-20 -1.034661628587223e+00
 1.167409867334010e-20  1.102904224482385e-18  4.339231748064230e-01
-1.034661628587223e+00  4.339231748064230e-01  8.478801413410321e-18

 9.823778118262118e-18  4.755461091335330e-20 -1.039155188597429e+00
 4.755461091335330e-20  1.752361349915568e-17  4.394960036333225e-01
-1.039155188597429e+00  4.394960036333225e-01  8.701585125327006e-18

 1.000398348305590e-17  3.622469647247477e-20 -1.046780616053532e+00
 3.622469647247477e-20  2.370568892984040e-17  4.404456915363769e-01
-1.046780616053532e+00  4.404456915363769e-01  9.123964151231354e-18

 1.012559971498560e-17  5.558275578932198e-20 -1.050277597282611e+00
 5.558275578932198e-20  6.508958108150279e-19  4.369216546026148e-01
-1.050277597282611e+00  4.369216546026148e-01  9.413413155308257e-18

 1.020882727447987e-17  1.035531220997966e-20 -1.053030331153796e+00
 1.035531220997966e-20  2.602590433927054e-17  4.336701484628350e-01
-1.053030331153796e+00  4.336701484628350e-01  9.612868722824070e-18

 1.001661831734962e-17 -2.196184090108998e-20 -1.043278658293701e+00
-2.196184090108998e-20  2.817487411790616e-17  4.321165799675739e-01
-1.043278658293701e+00  4.321165799675739e-01  9.031997448576262e-18

 1.036179855737336e-17 -1.011858423655437e-21 -1.055452485688832e+00
-1.011858423655437e-21  2.170569601618116e-17  4.136693358564775e-01
-1.055452485688832e+00  4.136693358564775e-01  1.005113946632420e-17

 9.879590525245836e-18  4.377900380162449e-21 -1.033456574916986e+00
 4.377900380162449e-21  1.257880767834690e-17  4.383635708235214e-01
-1.033456574916986e+00  4.383635708235214e-01  8.492109079356027e-18

 9.910333536068838e-18  2.889937782074587e-21 -1.032631321130417e+00
 2.889937782074587e-21  1.279319787688770e-17  4.335197205722934e-01
-1.032631321130417e+00  4.335197205722934e-01  8.558753113104269e-18

 9.975872531892070e-18 -3.207812631797726e-21 -1.032949253915187e+00
-3.207812631797726e-21  6.703372691007090e-18  4.359176096634698e-01
-1.032949253915187e+00  4.359176096634698e-01  8.563686313861367e-18

 1.009734915130209e-17 -2.874166341349692e-20 -1.035426202517198e+00
-2.874166341349692e-20 -9.388281075166371e-18  4.362605959162880e-01
-1.035426202517198e+00  4.362605959162880e-01  8.700823648974847e-18

 1.011045620127136e-17  5.049916631435145e-21 -1.034378487792291e+00
 5.049916631435145e-21 -2.785969499084100e-18  4.401901558705250e-01
-1.034378487792291e+00  4.401901558705250e-01  8.576746319587797e-18

 1.012112608653006e-17 -2.789937772729868e-20 -1.033406383464818e+00
-2.789937772729868e-20  1.454006675920115e-17  4.362258610792210e-01
-1.033406383464818e+00  4.362258610792210e-01  8.534393268100659e-18

 1.037589123817092e-17  1.653935892363233e-20 -1.043788817326766e+00
 1.653935892363233e-20  8.780597064382958e-18  4.307823515646457e-01
-1.043788817326766e+00  4.307823515646457e-01  9.138372040244115e-18

 1.036940042835791e-17 -1.884818364418869e-20 -1.044797808666909e+00
-1.884818364418869e-20  3.134822982570677e-17  4.518206518913314e-01
-1.044797808666909e+00  4.518206518913314e-01  8.842537907867872e-18

 1.060023581104168e-17 -2.146844226523781e-22 -1.053667535251054e+00
-2.146844226523781e-22  2.025049159290123e-17  4.455527734138195e-01
-1.053667535251054e+00  4.455527734138195e-01  9.421277623903822e-18

 1.051915197678324e-17  7.341517558989576e-21 -1.050344323438884e+00
 7.341517558989576e-21  2.069177967507639e-17  4.328524858786544e-01
-1.050344323438884e+00  4.328524858786544e-01  9.217708320851172e-18

 1.058444270876146e-17 -1.667775311637211e-20 -1.052432862288550e+00
-1.667775311637211e-20 -2.194835813891875e-17  4.495196281902196e-01
-1.052432862288550e+00  4.495196281902196e-01  9.153245048628803e-18

 1.059331206922086e-17  1.819043391539161e-20 -1.050341762383444e+00
 1.819043391539161e-20 -2.544631603144466e-17  4.326721689209002e-01
-1.050341762383444e+00  4.326721689209002e-01  9.211285572034038e-18

 1.032108546744437e-17  2.384054765960771e-20 -1.034985822622934e+00
 2.384054765960771e-20 -2.430400452808304e-17  4.432576863299077e-01
-1.034985822622934e+00  4.432576863299077e-01  8.339675009565410e-18

 1.185232652439268e-17  1.107639046464987e-20 -1.093024189830728e+00
 1.107639046464987e-20  8.612020999190810e-18  4.030148533868037e-01
-1.093024189830728e+00  4.030148533868037e-01  1.289650125676040e-17

 1.029594042539157e-17 -7.593362722646043e-20 -1.027237827543867e+00
-7.593362722646043e-20  3.211563930106014e-17  4.698479484497529e-01
-1.027237827543867e+00  4.698479484497529e-01  8.123505588763354e-18

 1.015494439705745e-17 -9.972853219585288e-20 -1.017040407117912e+00
-9.972853219585288e-20  3.139042428440867e-17  4.719289786453053e-01
-1.017040407117912e+00  4.719289786453053e-01  7.799309837928468e-18

 8.403195047564762e-18 -9.320699248475077e-20 -9.409362530895863e-01
-9.320699248475077e-20  1.960040800197207e-17  5.078245194674373e-01
-9.409362530895863e-01  5.078245194674373e-01  2.810082956855325e-18

 9.981602609523711e-18  7.800152172944765e-20 -1.005379281592095e+00
 7.800152172944765e-20  4.957259609489172e-17  3.940182904396330e-01
-1.005379281592095e+00  3.940182904396330e-01  7.879569135401820e-18

 1.233866871059699e-17  1.359880982004849e-19 -1.101078328093399e+00
 1.359880982004849e-19  2.902847990731513e-17  2.888440979587243e-01
-1.101078328093399e+00  2.888440979587243e-01  1.516482297104284e-17

 9.416313332503182e-18  5.836273138725610e-20 -9.838253725483330e-01
 5.836273138725610e-20  1.959419412469858e-17  4.659074021217032e-01
-9.838253725483330e-01  4.659074021217032e-01  5.731169465189440e-18

 1.076528019201862e-17  9.280869318617508e-21 -1.044964149146541e+00
 9.280869318617508e-21  2.139156652818037e-17  4.398246526093023e-01
-1.044964149146541e+00  4.398246526093023e-01  9.296336719469587e-18

 1.125091781944543e-17 -5.061862119840156e-20 -1.065762215841423e+00
-5.061862119840156e-20 -2.073880070694881e-17  4.849824876370415e-01
-1.065762215841423e+00  4.849824876370415e-01  1.019037877570690e-17

 9.211407800079989e-18  1.165053329588504e-19 -9.766416619585603e-01
 1.165053329588504e-19  1.302474006310477e-17  4.434977210395908e-01
-9.766416619585603e-01  4.434977210395908e-01  4.968841859992865e-18

 8.672711978703765e-18 -2.189820927193940e-19 -9.435856973638556e-01
-2.189820927193940e-19  2.843141668447909e-17  4.059161100365495e-01
-9.435856973638556e-01  4.059161100365495e-01  3.666851196552951e-18

 1.045644535625464e-17  6.521034994418039e-20 -1.037543347419702e+00
 6.521034994418039e-20  2.708935124425741e-17  4.567783169356338e-01
-1.037543347419702e+00  4.567783169356338e-01  7.787321915164592e-18

 1.284696547090488e-17  3.044546486217791e-19 -1.152561646745405e+00
 3.044546486217791e-19  3.042135579676733e-17  4.459448315915570e-01
-1.152561646745405e+00  4.459448315915570e-01  1.394335963741046e-17

 1.199189986457675e-17  3.721922424011400e-19 -1.126859860706378e+00
 3.721922424011400e-19  1.082403306743068e-17  5.231020154381666e-01
-1.126859860706378e+00  5.231020154381666e-01  1.075989915824490e-17

 9.766998075482099e-18  3.010804867951228e-19 -1.036978688144897e+00
 3.010804867951228e-19  2.109182358791701e-17  6.106762344660309e-01
-1.036978688144897e+00  6.106762344660309e-01  3.940195449163777e-18

 1.262316202758846e-17  7.741722278731577e-20 -1.147349129328114e+00
 7.741722278731577e-20  4.078932231592147e-18  5.029114099706458e-01
-1.147349129328114e+00  5.029114099706458e-01  1.257275579553141e-17

 1.300733250449546e-17  7.074183683975281e-20 -1.157462665220627e+00
 7.074183683975281e-20  1.006210407628564e-17  4.158669740230367e-01
-1.157462665220627e+00  4.158669740230367e-01  1.426389329235341e-17

 1.187111413285152e-17  7.818345946791642e-20 -1.105498879779076e+00
 7.818345946791642e-20  2.626534933082198e-17  4.227793964685356e-01
-1.105498879779076e+00  4.227793964685356e-01  1.122520142805409e-17

 1.120753419626238e-17  7.397772996497869e-20 -1.072535412366306e+00
 7.397772996497869e-20  2.041721368094480e-17  4.450718471698017e-01
-1.072535412366306e+00  4.450718471698017e-01  9.380339337385046e-18

 1.097644357476711e-17  6.476545920106485e-20 -1.058969661119900e+00
 6.476545920106485e-20  2.018002884734332e-17  4.496243891252263e-01
-1.058969661119900e+00  4.496243891252263e-01  8.830282579429454e-18

 1.094004801003280e-17  5.354304220698793e-20 -1.054813946481521e+00
 5.354304220698793e-20  1.725891317407940e-17  4.574748900982802e-01
-1.054813946481521e+00  4.574748900982802e-01  8.677308650533369e-18

 1.103661973288789e-17  5.103407645532765e-20 -1.058303154112554e+00
 5.103407645532765e-20 -8.350266126649255e-18  4.530630413590261e-01
-1.058303154112554e+00  4.530630413590261e-01  8.922660606668235e-18

 1.105058718568294e-17  5.319028116517209e-20 -1.059407767248724e+00
 5.319028116517209e-20  1.343204863624556e-17  4.546122749014531e-01
-1.059407767248724e+00  4.546122749014531e-01  8.875367364566224e-18

 1.147980215766871e-17  2.972786319891335e-20 -1.078499572047295e+00
 2.972786319891335e-20  2.099831840147450e-17  4.453423430463351e-01
-1.078499572047295e+00  4.453423430463351e-01  9.983375003365563e-18

 1.186683865351137e-17  3.000197239178398e-20 -1.096122833624074e+00
 3.000197239178398e-20  7.337685757647283e-19  4.406284526202940e-01
-1.096122833624074e+00  4.406284526202940e-01  1.102180056340098e-17

 1.189686054639890e-17  2.579925743865821e-20 -1.098462484818369e+00
 2.579925743865821e-20  9.126705739366192e-19  4.543126360265215e-01
-1.098462484818369e+00  4.543126360265215e-01  1.096351423046805e-17

 1.165836581808587e-17  3.019200323941025e-20 -1.090644662743296e+00
 3.019200323941025e-20  2.872847623657792e-17  4.795593312279439e-01
-1.090644662743296e+00  4.795593312279439e-01  1.007330139329300e-17

 1.066110199699411e-17 -1.362397262046585e-20 -1.050085735997246e+00
-1.362397262046585e-20  8.585708987949768e-18  5.227845033759132e-01
-1.050085735997246e+00  5.227845033759132e-01  6.973462458504665e-18

 1.162592397254285e-17 -2.537093111994979e-20 -1.089136126947390e+00
-2.537093111994979e-20  1.957315628691035e-17  4.864317505649415e-01
-1.089136126947390e+00  4.864317505649415e-01  9.923547595401909e-18

 1.179409760910655e-17  1.943727424111270e-20 -1.094804159776582e+00
 1.943727424111270e-20  2.761321493000018e-17  4.510818198983415e-01
-1.094804159776582e+00  4.510818198983415e-01  1.065249608116251e-17

 1.142878331470668e-17  2.535926824877019e-20 -1.078466525518927e+00
 2.535926824877019e-20  2.999538762571674e-17  4.485231804161535e-01
-1.078466525518927e+00  4.485231804161535e-01  9.689875393123008e-18

 1.111380673456013e-17  1.517559689943260e-20 -1.063899989902146e+00
 1.517559689943260e-20 -4.118995847578735e-18  4.654757721583498e-01
-1.063899989902146e+00  4.654757721583498e-01  8.704084661978204e-18

 1.105873221381638e-17  1.264155165905045e-20 -1.061836774958268e+00
 1.264155165905045e-20 -4.635719446911490e-18  4.725665329451404e-01
-1.061836774958268e+00  4.725665329451404e-01  8.497049805766410e-18

 1.079243499290614e-17  4.470906280557057e-20 -1.050553840319354e+00
 4.470906280557057e-20  6.857783127911487e-18  4.757754099985241e-01
-1.050553840319354e+00  4.757754099985241e-01  7.665525775958105e-18

 1.087781709085976e-17  9.948728608056479e-20 -1.052652331825906e+00
 9.948728608056479e-20 -2.546394290694253e-18  4.530366635159289e-01
-1.052652331825906e+00  4.530366635159289e-01  7.958447611151591e-18

 1.078803577403854e-17  1.204928023223820e-19 -1.049277160122900e+00
 1.204928023223820e-19  2.239862278955574e-17  4.701465427118948e-01
-1.049277160122900e+00  4.701465427118948e-01  7.490370485465131e-18

 1.097907206279044e-17  1.889125729947464e-19 -1.055136184105384e+00
 1.889125729947464e-19  2.054077276603298e-18  4.648341337432910e-01
-1.055136184105384e+00  4.648341337432910e-01  7.951845544596401e-18

 1.116732600991879e-17  2.459336218385451e-19 -1.058598691908573e+00
 2.459336218385451e-19 -1.198182715770681e-18  4.509486170613295e-01
-1.058598691908573e+00  4.509486170613295e-01  8.487572376671124e-18

 1.111483641892769e-17  2.806295650915892e-19 -1.049329923299228e+00
 2.806295650915892e-19  2.156189283620591e-17  4.431047162882724e-01
-1.049329923299228e+00  4.431047162882724e-01  8.346297993088254e-18

 1.142798564918045e-17  3.173845519549167e-19 -1.057572793574164e+00
 3.173845519549167e-19  7.305392800207409e-18  4.353637607843135e-01
-1.057572793574164e+00  4.353637607843135e-01  9.226488489792559e-18

 1.159949513217873e-17  3.586997636297190e-19 -1.061929831770284e+00
 3.586997636297190e-19  1.003823434670204e-17  4.430857368089459e-01
-1.061929831770284e+00  4.430857368089459e-01  9.619536587952848e-18

 1.151787150308339e-17  3.074638495133644e-19 -1.052759257026380e+00
 3.074638495133644e-19  1.606175699741823e-17  4.277400307169353e-01
-1.052759257026380e+00  4.277400307169353e-01  9.592022349630043e-18

 1.133171044244733e-17  2.907604163955160e-19 -1.041206814706695e+00
 2.907604163955160e-19  1.136209888905512e-17  4.268338650324881e-01
-1.041206814706695e+00  4.268338650324881e-01  9.148461041258597e-18

 1.125163428089156e-17  2.735236938297389e-19 -1.034035149355029e+00
 2.735236938297389e-19  1.369127207243557e-17  4.275047848714655e-01
-1.034035149355029e+00  4.275047848714655e-01  8.921113465444464e-18

 1.120618449927034e-17  2.529224782405121e-19 -1.030620395808847e+00
 2.529224782405121e-19  1.224280423255114e-17  4.279799070055652e-01
-1.030620395808847e+00  4.279799070055652e-01  8.851060217248995e-18

 1.116384321376448e-17  2.318905229110915e-19 -1.028043701259304e+00
 2.318905229110915e-19  1.083059377079399e-17  4.283187811642540e-01
-1.028043701259304e+00  4.283187811642540e-01  8.769531197527504e-18

 1.108915081866026e-17  2.074418195895461e-19 -1.024760525608673e+00
 2.074418195895461e-19  9.450086007626056e-18  4.288667370550815e-01
-1.024760525608673e+00  4.288667370550815e-01  8.580509866053179e-18

 1.131567336471954e-17  2.168881269118992e-19 -1.033619966040616e+00
 2.168881269118992e-19  2.010473832182752e-17  4.176823432246050e-01
-1.033619966040616e+00  4.176823432246050e-01  9.184742054154096e-18

 1.092925199340142e-17  2.291424824909875e-19 -1.021713429948149e+00
 2.291424824909875e-19  1.109223961986056e-17  4.512711173566354e-01
-1.021713429948149e+00  4.512711173566354e-01  7.796561650584758e-18

 1.116284378059324e-17  2.235210641828902e-19 -1.032902575445463e+00
 2.235210641828902e-19  8.538609225426472e-18  4.499115318582965e-01
-1.032902575445463e+00  4.499115318582965e-01  8.416155881922428e-18

 1.162500817399309e-17  1.480321161098654e-19 -1.051725639441428e+00
 1.480321161098654e-19  1.145012440183412e-17  4.148186649271841e-01
-1.051725639441428e+00  4.148186649271841e-01  9.858542589353754e-18

 1.210211082932645e-17  1.346207016740421e-19 -1.075523771103308e+00
 1.346207016740421e-19  1.765725205839745e-17  4.203526279677773e-01
-1.075523771103308e+00  4.203526279677773e-01  1.095906896080745e-17

 1.228250024865530e-17 -2.026941466949175e-20 -1.085052296827483e+00
-2.026941466949175e-20  1.443654061210838e-17  4.910551844777063e-01
-1.085052296827483e+00  4.910551844777063e-01  1.108206486042422e-17

 1.290394725060896e-17 -2.485299674151697e-20 -1.100704303902206e+00
-2.485299674151697e-20  2.031689115353138e-17  2.790854544270410e-01
-1.100704303902206e+00  2.790854544270410e-01  1.387816052467937e-17

 1.327976083878561e-17 -2.398108413228862e-19 -1.113957820417749e+00
-2.398108413228862e-19  2.339490208876505e-17  3.241121165910209e-01
-1.113957820417749e+00  3.241121165910209e-01  1.462370315213378e-17

 1.212340716554386e-17  5.838378882119279e-19 -1.099110096458932e+00
 5.838378882119279e-19  1.150424692975702e-17  5.219950403331700e-01
-1.099110096458932e+00  5.219950403331700e-01  1.045464533910863e-17

 1.189954741368973e-17  1.294228750900835e-19 -1.075001798798266e+00
 1.294228750900835e-19  1.897691232503596e-17  4.016749418957299e-01
-1.075001798798266e+00  4.016749418957299e-01  1.036804330212653e-17

 1.216387497475351e-17 -4.053613677002652e-20 -1.083538799840936e+00
-4.053613677002652e-20  1.576671226615001e-17  3.967077199434388e-01
-1.083538799840936e+00  3.967077199434388e-01  1.109767072287851e-17

 1.301850900806501e-17  5.422448050140026e-20 -1.130724291863871e+00
 5.422448050140026e-20  1.150142916121658e-17  4.954804405000934e-01
-1.130724291863871e+00  4.954804405000934e-01  1.265789741698415e-17

 1.051851563020175e-17 -3.380683851141383e-19 -1.020430532410122e+00
-3.380683851141383e-19  6.600496591294534e-18  6.021029358434137e-01
-1.020430532410122e+00  6.021029358434137e-01  5.255865835877100e-18

 1.317677597795815e-17  2.350537629397658e-19 -1.132987385226150e+00
 2.350537629397658e-19  1.491963595091916e-17  3.739141232062934e-01
-1.132987385226150e+00  3.739141232062934e-01  1.388029794361206e-17

 1.170411650586665e-17  1.358875427162626e-19 -1.064729302897090e+00
 1.358875427162626e-19  1.369636408531009e-17  4.189833419863560e-01
-1.064729302897090e+00  4.189833419863560e-01  9.828951282335658e-18

 1.122693794133270e-17 -2.610459952153931e-20 -1.038294988484203e+00
-2.610459952153931e-20  1.450374800281858e-17  4.641737401247087e-01
-1.038294988484203e+00  4.641737401247087e-01  8.445950625830674e-18

 1.104665764568571e-17  1.008275355315199e-19 -1.027351981728746e+00
 1.008275355315199e-19  1.101545294305151e-17  4.209687985555015e-01
-1.027351981728746e+00  4.209687985555015e-01  8.270664104342010e-18

 1.036552138330313e-17  1.936040427693140e-20 -9.963626025756140e-01
 1.936040427693140e-20  1.416820456122899e-17  4.513466496655154e-01
-9.963626025756140e-01  4.513466496655154e-01  6.298841840593544e-18

 1.110045613496002e-17  1.629350000513350e-20 -1.024011538115970e+00
 1.629350000513350e-20  1.521048329258860e-17  4.229831505014236e-01
-1.024011538115970e+00  4.229831505014236e-01  8.560217793912628e-18

 1.069102979516645e-17  1.626506347122669e-20 -1.006069318815021e+00
 1.626506347122669e-20  1.313621295889793e-17  4.555069018003053e-01
-1.006069318815021e+00  4.555069018003053e-01  7.164753017205807e-18

 1.098973843020731e-17  6.378358218777104e-20 -1.015962861923690e+00
 6.378358218777104e-20  1.143596853117341e-17  4.348588696410522e-01
-1.015962861923690e+00  4.348588696410522e-01  8.110645853502263e-18

 1.089201534713862e-17  4.576750778394166e-20 -1.009735804368562e+00
 4.576750778394166e-20  1.864308351202281e-17  4.305756915861436e-01
-1.009735804368562e+00  4.305756915861436e-01  7.851692610826381e-18

 1.062939893209630e-17  7.051729574769016e-20 -9.985172117794523e-01
 7.051729574769016e-20  5.955453739444417e-18  4.390619573121022e-01
-9.985172117794523e-01  4.390619573121022e-01  7.056418718362886e-18

 1.089695554490384e-17  9.527938554539238e-20 -1.007905857477612e+00
 9.527938554539238e-20  1.371308030170930e-17  4.354265755169759e-01
-1.007905857477612e+00  4.354265755169759e-01  7.819124777478212e-18

 1.089426200935898e-17  8.895807045149701e-20 -1.005948729001009e+00
 8.895807045149701e-20  1.724657069029223e-17  4.337371919822328e-01
-1.005948729001009e+00  4.337371919822328e-01  7.813058890112629e-18

 1.093132478336968e-17  1.031093673898347e-19 -1.005429901023957e+00
 1.031093673898347e-19  1.402356572107547e-17  4.223709638988070e-01
-1.005429901023957e+00  4.223709638988070e-01  7.992841318760364e-18

 1.100883387327843e-17  1.169533254155861e-19 -1.007217926326655e+00
 1.169533254155861e-19  1.512605589324730e-17  4.266884860669714e-01
-1.007217926326655e+00  4.266884860669714e-01  8.148887320968927e-18

 1.110709910448849e-17  1.261825161291012e-19 -1.010201664373528e+00
 1.261825161291012e-19  1.484673342548544e-17  4.210747600253905e-01
-1.010201664373528e+00  4.210747600253905e-01  8.460909704485855e-18

 1.110375576480539e-17  1.138759826705279e-19 -1.009437287526513e+00
 1.138759826705279e-19  8.990610870108143e-18  4.231193021410957e-01
-1.009437287526513e+00  4.231193021410957e-01  8.451889777746670e-18

 1.098919633220826e-17  9.858089850443085e-20 -1.002793316580601e+00
 9.858089850443085e-20  1.082022842308716e-17  4.192035931122811e-01
-1.002793316580601e+00  4.192035931122811e-01  8.202775669902367e-18

 1.107081349743000e-17  8.022945313094192e-20 -1.006406730971501e+00
 8.022945313094192e-20  1.983951840816221e-17  4.186510649849191e-01
-1.006406730971501e+00  4.186510649849191e-01  8.439014266967086e-18

 1.133262286423922e-17  3.046009896841437e-20 -1.019399255257386e+00
 3.046009896841437e-20  1.516908188650658e-17  4.213558293028276e-01
-1.019399255257386e+00  4.213558293028276e-01  9.097896000473047e-18

 1.125797409551771e-17  3.224406715121613e-20 -1.018266306138384e+00
 3.224406715121613e-20  1.089583989284532e-17  4.231684895604912e-01
-1.018266306138384e+00  4.231684895604912e-01  8.858186969889130e-18

 1.122993007878961e-17  1.855170029127791e-20 -1.018985066851568e+00
 1.855170029127791e-20  1.631792125675055e-17  4.191196063914332e-01
-1.018985066851568e+00  4.191196063914332e-01  8.788023995666903e-18

 1.138147231360121e-17  4.471811166177448e-20 -1.027732352941606e+00
 4.471811166177448e-20  8.862092754222381e-18  4.235886501437281e-01
-1.027732352941606e+00  4.235886501437281e-01  9.128809175629244e-18

 1.119315646890227e-17 -5.178762639938042e-21 -1.020754204916769e+00
-5.178762639938042e-21  1.117137744739858e-17  4.434359867326016e-01
-1.020754204916769e+00  4.434359867326016e-01  8.357256089864989e-18

 1.140899008993286e-17 -1.796280599425617e-21 -1.030420555116036e+00
-1.796280599425617e-21  2.221814745072447e-17  4.247838494507694e-01
-1.030420555116036e+00  4.247838494507694e-01  9.146606384942222e-18

 1.127773793818106e-17  4.082728159226014e-21 -1.024061144582941e+00
 4.082728159226014e-21  8.066680409090527e-18  4.305926943529305e-01
-1.024061144582941e+00  4.305926943529305e-01  8.759336521228189e-18

 1.109100451379861e-17  1.043574382705872e-19 -1.013925280962735e+00
 1.043574382705872e-19  2.392321162060759e-18  4.119435172927814e-01
-1.013925280962735e+00  4.119435172927814e-01  8.416361405086290e-18

-2.459645427735276e-17 -7.659634772021537e-20  1.000725018901003e+00
-7.659634772021537e-20 -7.778761838938895e-18  4.103825303254740e-01
 1.000725018901003e+00  4.103825303254740e-01 -3.404013914559362e-17

-2.468031955733600e-17 -1.058590048433647e-19  1.005123100214095e+00
-1.058590048433647e-19 -1.652723931403793e-17  4.103178026591864e-01
 1.005123100214095e+00  4.103178026591864e-01 -3.419409929665577e-17

-2.452147092646391e-17 -4.905209287000794e-20  9.973745222147532e-01
-4.905209287000794e-20  2.186733130853024e-20  4.082946627160803e-01
 9.973745222147532e-01  4.082946627160803e-01 -3.392567304019922e-17

-2.445964917525639e-17 -2.540732956818505e-20  9.950866118205914e-01
-2.540732956818505e-20  6.914884898691524e-18  4.058672638613726e-01
 9.950866118205914e-01  4.058672638613726e-01 -3.385283556781373e-17

-2.494182680303995e-17 -1.069433268755687e-19  1.013920688375205e+00
-1.069433268755687e-19 -2.217057859621995e-17  4.077602671207332e-01
 1.013920688375205e+00  4.077602671207332e-01 -3.451203434191253e-17

-2.502841974149979e-17 -1.131512750848391e-19  1.017661802226304e+00
-1.131512750848391e-19 -2.440007955682334e-17  4.172604510133024e-01
 1.017661802226304e+00  4.172604510133024e-01 -3.465876163624263e-17

-2.410495317785546e-17 -1.901473424070018e-19  1.000228606736767e+00
-1.901473424070018e-19 -2.525018267576641e-18  4.323536864629951e-01
 1.000228606736767e+00  4.323536864629951e-01 -3.403015250399757e-17

-2.414835071762147e-17 -1.397730641236637e-19  1.009501374739790e+00
-1.397730641236637e-19  3.309961419656863e-17  4.091701978029720e-01
 1.009501374739790e+00  4.091701978029720e-01 -3.432610994092791e-17

-1.923269625507607e-17 -8.816962330214413e-19  9.971398856005723e-01
-8.816962330214413e-19  2.128022232527039e-17  4.113599335330402e-01
 9.971398856005723e-01  4.113599335330402e-01 -3.384978032128619e-17

-1.627960805960072e-17 -1.368464817780757e-18  9.850013440006531e-01
-1.368464817780757e-18 -2.670328693611333e-17  4.215081847814825e-01
 9.850013440006531e-01  4.215081847814825e-01 -3.340022858689442e-17

-5.074357433428236e-17  3.960290290225865e-18  9.689237992549724e-01
 3.960290290225865e-18  1.756453691439433e-17  4.233715749435507e-01
 9.689237992549724e-01  4.233715749435507e-01 -3.279736213362291e-17

-5.058059281689227e-17  3.932505323900724e-18  9.670901546276920e-01
 3.932505323900724e-18 -2.433420008214897e-19  3.966975750927013e-01
 9.670901546276920e-01  3.966975750927013e-01 -3.267078048085305e-17

-2.542301826124653e-17  9.099560963370456e-20  9.732496741492382e-01
 9.099560963370456e-20  7.404727044337834e-18  4.104514975569735e-01
 9.732496741492382e-01  4.104514975569735e-01 -3.291136069162996e-17

-2.419853073752754e-17 -1.652414195204856e-19  9.799884706957182e-01
-1.652414195204856e-19  3.881877621058515e-18  4.296620387992682e-01
 9.799884706957182e-01  4.296620387992682e-01 -3.320598099897649e-17

-2.413230587830688e-17 -2.737079658931584e-19  9.806084769495886e-01
-2.737079658931584e-19 -7.661433751223355e-17  4.154486064678000e-01
 9.806084769495886e-01  4.154486064678000e-01 -3.319081440254056e-17

-2.429621583467919e-17 -2.349044725357195e-19  9.886171938159534e-01
-2.349044725357195e-19 -3.494170234746668e-17  4.162272364489595e-01
 9.886171938159534e-01  4.162272364489595e-01 -3.349351994899286e-17

-2.443658324327561e-17 -2.199794688564491e-19  9.946415378580667e-01
-2.199794688564491e-19 -1.854008187016521e-17  4.229381244802022e-01
 9.946415378580667e-01  4.229381244802022e-01 -3.373629584024967e-17

-2.453788966850606e-17 -2.230624892936482e-19  1.003265120780963e+00
-2.230624892936482e-19 -3.191830063520426e-17  4.115270831686872e-01
 1.003265120780963e+00  4.115270831686872e-01 -3.403046049197290e-17

-2.451238422428818e-17 -2.226095511087548e-19  9.991129533502084e-01
-2.226095511087548e-19 -9.029697463880903e-18  4.174494143508728e-01
 9.991129533502084e-01  4.174494143508728e-01 -3.389120205648764e-17

-2.455973673247376e-17 -2.165184241281158e-19  9.989129290015988e-01
-2.165184241281158e-19  1.530952503377564e-18  4.206104469803666e-01
 9.989129290015988e-01  4.206104469803666e-01 -3.389229695905156e-17

-2.461251883290291e-17 -2.233293806931227e-19  1.003391397764089e+00
-2.233293806931227e-19 -2.604921445027357e-17  4.220914635742563e-01
 1.003391397764089e+00  4.220914635742563e-01 -3.407359359830292e-17

-2.475007073547951e-17 -2.212297090430889e-19  1.019115494148950e+00
-2.212297090430889e-19 -3.743363113105610e-17  3.925206462076496e-01
 1.019115494148950e+00  3.925206462076496e-01 -3.460729659298504e-17

-2.472697459851562e-17 -2.148936870544235e-19  1.013501524240014e+00
-2.148936870544235e-19 -2.658641852325516e-17  4.052028490301105e-01
 1.013501524240014e+00  4.052028490301105e-01 -3.443511048224331e-17

-2.484042955252233e-17 -2.064921368266072e-19  1.015660936365313e+00
-2.064921368266072e-19 -2.707361821689922e-17  4.244658567133793e-01
 1.015660936365313e+00  4.244658567133793e-01 -3.457018396192828e-17

-2.476915601382595e-17 -2.074462349773068e-19  1.012445978765048e+00
-2.074462349773068e-19 -1.574808645488747e-17  4.146424110752271e-01
 1.012445978765048e+00  4.146424110752271e-01 -3.444663045896667e-17

-2.459210968650328e-17 -1.857207428006042e-19  1.000609105933264e+00
-1.857207428006042e-19 -1.091098960458612e-17  4.139449315750025e-01
 1.000609105933264e+00  4.139449315750025e-01 -3.401065340611014e-17

-2.457640360070260e-17 -1.764040747169448e-19  9.991624154050852e-01
-1.764040747169448e-19 -3.611758829455947e-17  4.152917354362816e-01
 9.991624154050852e-01  4.152917354362816e-01 -3.398088759392619e-17

-2.470031886389866e-17 -1.803440983148610e-19  1.006599935641298e+00
-1.803440983148610e-19 -2.187096913110938e-17  4.129727451257935e-01
 1.006599935641298e+00  4.129727451257935e-01 -3.427586741725309e-17

-2.483510635168839e-17 -1.471396531512670e-19  1.016975268410335e+00
-1.471396531512670e-19 -1.892887473314100e-17  4.064420371704672e-01
 1.016975268410335e+00  4.064420371704672e-01 -3.465971661454252e-17

-2.477886325312307e-17 -1.388005593251363e-19  1.010004249259253e+00
-1.388005593251363e-19  3.475232465681720e-18  4.119692295597316e-01
 1.010004249259253e+00  4.119692295597316e-01 -3.444062396016103e-17

-2.477105149586067e-17 -1.268219945134215e-19  1.007060282585000e+00
-1.268219945134215e-19 -1.192618705566276e-17  4.098454590654687e-01
 1.007060282585000e+00  4.098454590654687e-01 -3.434080750262706e-17

-2.470779932630977e-17 -8.094141573077449e-20  1.003241627529941e+00
-8.094141573077449e-20 -3.881530913409195e-17  4.139089509815249e-01
 1.003241627529941e+00  4.139089509815249e-01 -3.422019708758425e-17

-2.470668650630933e-17 -9.811666053412915e-20  1.002555843822558e+00
-9.811666053412915e-20 -2.972259306283195e-17  4.122213897954104e-01
 1.002555843822558e+00  4.122213897954104e-01 -3.419948863197405e-17

-2.477512407058539e-17 -1.048652712532038e-19  1.001205596693679e+00
-1.048652712532038e-19 -1.178461194978360e-17  4.154857505665313e-01
 1.001205596693679e+00  4.154857505665313e-01 -3.415987027461036e-17

-2.474685051517630e-17 -9.349201406981597e-20  1.004287586238232e+00
-9.349201406981597e-20 -1.458171324937947e-17  4.106327560911771e-01
 1.004287586238232e+00  4.106327560911771e-01 -3.426870335320137e-17

-2.480518496597124e-17 -8.158617482184550e-20  1.005200088234251e+00
-8.158617482184550e-20 -2.026620863047803e-17  4.121875240223291e-01
 1.005200088234251e+00  4.121875240223291e-01 -3.430108584270612e-17

-2.484226300859930e-17 -2.902697484955925e-20  1.003950412631060e+00
-2.902697484955925e-20 -3.463519360898638e-17  4.139301075506319e-01
 1.003950412631060e+00  4.139301075506319e-01 -3.426152800676413e-17

-2.475119229557818e-17 -6.439713544429774e-20  1.001255311800967e+00
-6.439713544429774e-20 -3.023357074213234e-17  4.156836845640891e-01
 1.001255311800967e+00  4.156836845640891e-01 -3.416012752606742e-17

-2.476767117865131e-17 -5.440133132280084e-20  1.002666306078954e+00
-5.440133132280084e-20 -4.135915858146777e-17  4.120386458692448e-01
 1.002666306078954e+00  4.120386458692448e-01 -3.420233338017801e-17

-2.473922374109426e-17 -7.536522931188092e-20  9.976224527159261e-01
-7.536522931188092e-20  4.249487044643785e-18  4.185500825966511e-01
 9.976224527159261e-01  4.185500825966511e-01 -3.402403607176253e-17

-2.482520801383528e-17 -5.666746634007331e-20  1.004657821893985e+00
-5.666746634007331e-20 -3.049040115090542e-17  4.136074814602538e-01
 1.004657821893985e+00  4.136074814602538e-01 -3.426368983170839e-17

-2.486084731766958e-17 -6.531585150786145e-20  1.004379016392753e+00
-6.531585150786145e-20 -1.370297721580069e-17  4.181393435962994e-01
 1.004379016392753e+00  4.181393435962994e-01 -3.425217713280317e-17

-2.487606201689634e-17 -6.675740432706764e-20  1.006777723632497e+00
-6.675740432706764e-20 -2.664523622671824e-17  4.152054748206171e-01
 1.006777723632497e+00  4.152054748206171e-01 -3.433311859073145e-17

-2.483318761179559e-17 -6.269065288958443e-20  1.001552862178035e+00
-6.269065288958443e-20 -2.807769507177043e-18  4.180117151053755e-01
 1.001552862178035e+00  4.180117151053755e-01 -3.414636160437958e-17

-2.484404905246777e-17 -8.576064268940410e-20  1.001638438436383e+00
-8.576064268940410e-20 -3.946239576330847e-17  4.196843012403302e-01
 1.001638438436383e+00  4.196843012403302e-01 -3.414899251386414e-17

-2.496539938687070e-17 -9.221628238097785e-20  1.010874096469327e+00
-9.221628238097785e-20 -1.856948181324166e-17  4.168584524293917e-01
 1.010874096469327e+00  4.168584524293917e-01 -3.447324517684648e-17

-2.499007436227071e-17 -9.637266661982521e-20  1.011594782431618e+00
-9.637266661982521e-20 -1.499316087523952e-17  4.176787205579007e-01
 1.011594782431618e+00  4.176787205579007e-01 -3.449575781681554e-17

-2.499225586422989e-17 -1.121697596364088e-19  1.011206591830828e+00
-1.121697596364088e-19  1.691904674568316e-17  4.161620627805232e-01
 1.011206591830828e+00  4.161620627805232e-01 -3.448151210583700e-17

-2.493958342475953e-17 -8.467303760999756e-20  1.007048453946715e+00
-8.467303760999756e-20 -6.777588326735197e-18  4.203891770601635e-01
 1.007048453946715e+00  4.203891770601635e-01 -3.432335913427212e-17

-2.497306001001215e-17 -1.148245501575792e-19  1.008888871414673e+00
-1.148245501575792e-19 -2.253834311235671e-17  4.179739317830224e-01
 1.008888871414673e+00  4.179739317830224e-01 -3.437995963742240e-17

-2.499554022749423e-17 -8.759706335764279e-20  1.005659091248528e+00
-8.759706335764279e-20 -3.479107783405507e-17  4.237166611413123e-01
 1.005659091248528e+00  4.237166611413123e-01 -3.426688560220253e-17

-2.502094926410921e-17 -1.086102068876225e-19  1.011334100760137e+00
-1.086102068876225e-19  6.849760125503780e-18  4.175742409366162e-01
 1.011334100760137e+00  4.175742409366162e-01 -3.446335844415804e-17

-2.499859959927662e-17 -9.090524099304119e-20  1.008771928370324e+00
-9.090524099304119e-20 -9.727416470344676e-18  4.221905738401069e-01
 1.008771928370324e+00  4.221905738401069e-01 -3.437940908549435e-17

-2.510243008920009e-17 -1.138902463124957e-19  1.016415603353908e+00
-1.138902463124957e-19 -2.517328250590290e-17  4.149117822140594e-01
 1.016415603353908e+00  4.149117822140594e-01 -3.465421737158594e-17

-2.510303474133692e-17 -1.409842914410932e-19  1.014806357284865e+00
-1.409842914410932e-19 -3.627815565955370e-19  4.203665819633030e-01
 1.014806357284865e+00  4.203665819633030e-01 -3.459707436152372e-17

-2.506353643345868e-17 -1.151055602453247e-19  1.011663246915749e+00
-1.151055602453247e-19 -1.957600545155749e-17  4.195070003304210e-01
 1.011663246915749e+00  4.195070003304210e-01 -3.448474679617471e-17

-2.507194665829929e-17 -1.175188036632200e-19  1.008580931291834e+00
-1.175188036632200e-19 -1.488286709994203e-17  4.267938574659280e-01
 1.008580931291834e+00  4.267938574659280e-01 -3.437709508800751e-17

-2.503967853746896e-17 -1.101301500440146e-19  1.008124305899862e+00
-1.101301500440146e-19 -3.672266080009235e-17  4.226854470630945e-01
 1.008124305899862e+00  4.226854470630945e-01 -3.435829589791052e-17

-2.506034469428464e-17 -1.464619724560429e-19  1.007612320832787e+00
-1.464619724560429e-19  4.543989164531536e-18  4.219743849834035e-01
 1.007612320832787e+00  4.219743849834035e-01 -3.434374812546586e-17

-2.518371423970844e-17 -1.283470021357192e-19  1.013340107320262e+00
-1.283470021357192e-19 -1.759703981431439e-17  4.254581715441545e-01
 1.013340107320262e+00  4.254581715441545e-01 -3.457353947871595e-17

-2.535514537614996e-17 -1.045232689970106e-19  1.026005772424789e+00
-1.045232689970106e-19 -1.915941937135099e-17  4.204888662659348e-01
 1.026005772424789e+00  4.204888662659348e-01 -3.503146479867723e-17

-2.535122081501349e-17 -1.191882273432674e-19  1.023913569082928e+00
-1.191882273432674e-19 -2.455525564774025e-17  4.209058574815168e-01
 1.023913569082928e+00  4.209058574815168e-01 -3.495954954538915e-17

-2.533012413779801e-17 -1.379977614583302e-19  1.022048673323108e+00
-1.379977614583302e-19 -1.816441184211091e-17  4.161598809138616e-01
 1.022048673323108e+00  4.161598809138616e-01 -3.488664719142603e-17

-2.522175552719476e-17 -1.305073760619680e-19  1.012536445270534e+00
-1.305073760619680e-19 -1.727899036105426e-17  4.244631179934369e-01
 1.012536445270534e+00  4.244631179934369e-01 -3.456057180653966e-17

-2.532528198881298e-17 -1.486796719027630e-19  1.021762509733937e+00
-1.486796719027630e-19  9.079956309706039e-18  4.169174599307877e-01
 1.021762509733937e+00  4.169174599307877e-01 -3.488913442368414e-17

-2.535785963974993e-17 -7.239920908128489e-20  1.021535111716162e+00
-7.239920908128489e-20 -1.251572616167853e-17  4.205511910245016e-01
 1.021535111716162e+00  4.205511910245016e-01 -3.489002280908400e-17

-2.526326269043627e-17 -1.161510214530710e-19  1.014302253602573e+00
-1.161510214530710e-19 -8.071744126261863e-18  4.271214637935493e-01
 1.014302253602573e+00  4.271214637935493e-01 -3.463958365896400e-17

-2.523006050087087e-17 -1.414901697713395e-19  1.013459100295945e+00
-1.414901697713395e-19 -2.663850169333145e-17  4.189765129988450e-01
 1.013459100295945e+00  4.189765129988450e-01 -3.460615035802824e-17

-2.518692742115646e-17 -1.369866882381300e-19  1.011757841011015e+00
-1.369866882381300e-19 -1.088736708959051e-17  4.122548344202296e-01
 1.011757841011015e+00  4.122548344202296e-01 -3.453695216233716e-17

-2.519353924113245e-17 -1.308612745804179e-19  1.010219286137147e+00
-1.308612745804179e-19 -1.145599979571005e-17  4.183273573407328e-01
 1.010219286137147e+00  4.183273573407328e-01 -3.449687509432051e-17

-2.528031636338272e-17 -1.268431670009622e-19  1.013840064373768e+00
-1.268431670009622e-19  9.501235453058410e-19  4.212010128533704e-01
 1.013840064373768e+00  4.212010128533704e-01 -3.463960127787562e-17

-2.531904006041427e-17 -9.500355242794935e-20  1.015591867916298e+00
-9.500355242794935e-20 -3.573673904388040e-17  4.183849800337230e-01
 1.015591867916298e+00  4.183849800337230e-01 -3.471101738868819e-17

-2.532609446530897e-17 -4.606594070014399e-20  1.016305890059268e+00
-4.606594070014399e-20 -9.193988952423925e-18  4.170464006111925e-01
 1.016305890059268e+00  4.170464006111925e-01 -3.473494187760266e-17

-2.536175442265528e-17 -1.246863149161419e-19  1.017310290289814e+00
-1.246863149161419e-19 -7.363854937530922e-18  4.145437715758605e-01
 1.017310290289814e+00  4.145437715758605e-01 -3.476992410882010e-17

-2.531155579442011e-17 -3.952241744119561e-20  1.012135419996848e+00
-3.952241744119561e-20 -3.582729188046566e-17  4.177547291437300e-01
 1.012135419996848e+00  4.177547291437300e-01 -3.458843587522357e-17

-2.526106032825729e-17 -9.839975577818569e-20  1.009914484947436e+00
-9.839975577818569e-20  8.076628266836414e-18  4.161850827429526e-01
 1.009914484947436e+00  4.161850827429526e-01 -3.451017791889620e-17

-2.527925245050022e-17 -1.048832129977157e-19  1.010908971453202e+00
-1.048832129977157e-19 -2.170263661708099e-17  4.160880435405903e-01
 1.010908971453202e+00  4.160880435405903e-01 -3.455889802112846e-17

-2.531865909130933e-17 -5.320823549292635e-20  1.012976041415026e+00
-5.320823549292635e-20 -8.755515532562377e-18  4.142370904369474e-01
 1.012976041415026e+00  4.142370904369474e-01 -3.463962160370319e-17

-2.529711586778773e-17 -9.223533812035980e-20  1.006294996083957e+00
-9.223533812035980e-20 -1.044824292527835e-17  4.161734031333764e-01
 1.006294996083957e+00  4.161734031333764e-01 -3.440618862178664e-17

-2.522382523474806e-17 -5.368086423748901e-20  1.004031592809152e+00
-5.368086423748901e-20  8.808045768486485e-19  4.160619066859198e-01
 1.004031592809152e+00  4.160619066859198e-01 -3.433260659108247e-17

-2.528805641627616e-17 -8.918485638345057e-20  1.008932482034772e+00
-8.918485638345057e-20 -2.611740095879059e-18  4.140551395203349e-01
 1.008932482034772e+00  4.140551395203349e-01 -3.450867427079928e-17

-2.530475937732332e-17 -1.147038529996149e-20  1.006206414365949e+00
-1.147038529996149e-20 -5.400681814049450e-17  4.170968004408406e-01
 1.006206414365949e+00  4.170968004408406e-01 -3.441953731805525e-17

-2.532518936136686e-17 -1.763861586990248e-20  1.009811685667732e+00
-1.763861586990248e-20 -5.294375616208463e-18  4.116987118229468e-01
 1.009811685667732e+00  4.116987118229468e-01 -3.455377567595777e-17

-2.534130710179591e-17 -1.936007961617822e-20  1.008951931384859e+00
-1.936007961617822e-20 -2.053594722195668e-17  4.141690361101894e-01
 1.008951931384859e+00  4.141690361101894e-01 -3.452979844066091e-17

-2.538700844098214e-17 -2.584544651714295e-20  1.006288750871915e+00
-2.584544651714295e-20  1.738827895166811e-17  4.156594422455963e-01
 1.006288750871915e+00  4.156594422455963e-01 -3.443517280296716e-17

-2.530767470400674e-17  3.779638941239416e-20  1.005989762847223e+00
 3.779638941239416e-20 -2.502633018127843e-17  4.112592638642533e-01
 1.005989762847223e+00  4.112592638642533e-01 -3.441906605579637e-17

-2.521475884797860e-17  3.290759373242012e-21  9.945360639622827e-01
 3.290759373242012e-21 -2.869452565221276e-17  4.229980451054577e-01
 9.945360639622827e-01  4.229980451054577e-01 -3.400922824921044e-17

-2.539700272687113e-17  9.088714342370260e-21  1.007298480451794e+00
 9.088714342370260e-21 -2.478367376026533e-17  4.077869389058542e-01
 1.007298480451794e+00  4.077869389058542e-01 -3.445987263982436e-17

-2.541320187926060e-17  1.019159288789893e-20  1.010965317436588e+00
 1.019159288789893e-20 -3.601553863728176e-17  4.082801243892866e-01
 1.010965317436588e+00  4.082801243892866e-01 -3.459582263372625e-17

-2.530835188823713e-17  8.432319118222135e-21  1.000192128061758e+00
 8.432319118222135e-21 -2.326559006504373e-17  4.157899534555345e-01
 1.000192128061758e+00  4.157899534555345e-01 -3.420963384153213e-17

-2.544622435216123e-17 -9.921027149244850e-20  1.004986845589191e+00
-9.921027149244850e-20 -2.044314050366241e-18  4.191995184089592e-01
 1.004986845589191e+00  4.191995184089592e-01 -3.439275595418154e-17

-2.572252173691082e-17 -1.138010157136191e-20  1.022955277949507e+00
-1.138010157136191e-20 -2.375492878386102e-17  4.006326041551273e-01
 1.022955277949507e+00  4.006326041551273e-01 -3.503021472044916e-17

-2.579461157225856e-17 -1.088132571842409e-20  1.025502637753258e+00
-1.088132571842409e-20  9.650828849531750e-18  4.101343872249317e-01
 1.025502637753258e+00  4.101343872249317e-01 -3.514670399670918e-17

-2.572029232383960e-17 -6.136086882630559e-20  1.017216992634223e+00
-6.136086882630559e-20  8.633474712670200e-19  4.254122910077538e-01
 1.017216992634223e+00  4.254122910077538e-01 -3.484598996476016e-17

-2.564342045572526e-17 -4.994548298591116e-20  1.020530273498830e+00
-4.994548298591116e-20 -2.042304726946937e-17  3.920435606398220e-01
 1.020530273498830e+00  3.920435606398220e-01 -3.495126174493083e-17

-2.515003397215542e-17 -9.256630883954573e-20  9.837293719221121e-01
-9.256630883954573e-20 -3.770237140447957e-17  4.103466394340806e-01
 9.837293719221121e-01  4.103466394340806e-01 -3.360173003649772e-17

-2.511051040983534e-17  4.573113274060855e-20  9.787582772340587e-01
 4.573113274060855e-20 -1.177293137634112e-17  4.127298416431515e-01
 9.787582772340587e-01  4.127298416431515e-01 -3.340575097945489e-17

-2.535607720383335e-17 -8.635495377220321e-20  9.978149383374550e-01
-8.635495377220321e-20  6.755555609358670e-20  3.984828396801382e-01
 9.978149383374550e-01  3.984828396801382e-01 -3.407755357651493e-17

-2.560503039402171e-17 -5.028664028921129e-20  1.004914563319995e+00
-5.028664028921129e-20  3.034143756631598e-17  4.176452463475699e-01
 1.004914563319995e+00  4.176452463475699e-01 -3.439523450854943e-17

-2.586161746168313e-17  1.227532959017502e-20  1.019297775652545e+00
 1.227532959017502e-20 -1.158891509796179e-18  4.124159694798907e-01
 1.019297775652545e+00  4.124159694798907e-01 -3.494341608648767e-17

-2.615858327208852e-17  2.227221324204778e-20  1.035121950027692e+00
 2.227221324204778e-20 -3.360319775652351e-18  4.093356911133072e-01
 1.035121950027692e+00  4.093356911133072e-01 -3.553541141961139e-17

-2.607037026627484e-17 -4.158011450842930e-20  1.015118935703764e+00
-4.158011450842930e-20 -1.991403957060866e-17  4.479971123700157e-01
 1.015118935703764e+00  4.479971123700157e-01 -3.484546674815381e-17

-2.594072763924097e-17 -2.280644261680520e-20  1.023195035646569e+00
-2.280644261680520e-20  1.021259557772735e-17  4.023458046085074e-01
 1.023195035646569e+00  4.023458046085074e-01 -3.506794040019909e-17

-2.526760538431193e-17 -1.014600147999379e-20  9.821380876006320e-01
-1.014600147999379e-20 -2.798024534059746e-17  4.133722250482328e-01
 9.821380876006320e-01  4.133722250482328e-01 -3.353054362524858e-17

-2.485749136937031e-17 -2.300484608605805e-20  9.612037845651898e-01
-2.300484608605805e-20 -2.787775249844446e-17  4.042049721530290e-01
 9.612037845651898e-01  4.042049721530290e-01 -3.274265039791592e-17

-2.484535430033588e-17  3.108310127090325e-20  9.535890293669030e-01
 3.108310127090325e-20  2.679224618201597e-17  4.364566796203732e-01
 9.535890293669030e-01  4.364566796203732e-01 -3.246902920930437e-17

-2.517262766266728e-17 -5.636967127730705e-20  9.838355618881960e-01
-5.636967127730705e-20 -4.768364245152319e-17  3.984082028947739e-01
 9.838355618881960e-01  3.984082028947739e-01 -3.353784996610099e-17

-2.521190139957059e-17 -8.276272330167531e-20  9.867460797812546e-01
-8.276272330167531e-20 -2.833489821686448e-17  3.886321093845450e-01
 9.867460797812546e-01  3.886321093845450e-01 -3.363616821731158e-17

-2.468361887612776e-17 -7.612704444561119e-20  9.434366216736898e-01
-7.612704444561119e-20 -4.365156168631223e-17  4.257481412173094e-01
 9.434366216736898e-01  4.257481412173094e-01 -3.208580888095379e-17

-2.487376298633489e-17 -1.200645151040289e-19  9.584664717790961e-01
-1.200645151040289e-19 -5.797727438643051e-17  4.010031409168347e-01
 9.584664717790961e-01  4.010031409168347e-01 -3.259644015794592e-17

-2.537445731315842e-17 -2.609804568035538e-20  9.803987635685690e-01
-2.609804568035538e-20  2.002979614976253e-17  4.162209133523881e-01
 9.803987635685690e-01  4.162209133523881e-01 -3.345814051935142e-17

-2.570255901904578e-17 -2.456419266893467e-20  9.957602244943263e-01
-2.456419266893467e-20 -6.158152238712898e-18  4.109134738093303e-01
 9.957602244943263e-01  4.109134738093303e-01 -3.402606451849140e-17

-2.583570700167198e-17 -4.968947659106517e-20  9.977543484968679e-01
-4.968947659106517e-20  3.409027577827645e-17  4.161709465440721e-01
 9.977543484968679e-01  4.161709465440721e-01 -3.411255799972306e-17

-2.590468528876946e-17 -1.133890237079939e-19  1.003602288476084e+00
-1.133890237079939e-19 -8.508420585959160e-19  4.068413576219534e-01
 1.003602288476084e+00  4.068413576219534e-01 -3.431583287101842e-17

-2.586837261619744e-17 -2.900272038547023e-20  9.976661375577920e-01
-2.900272038547023e-20  4.233253074555553e-17  4.112533536095868e-01
 9.976661375577920e-01  4.112533536095868e-01 -3.411074637641506e-17

-2.588125313960265e-17 -3.638202958224833e-20  9.978335135019289e-01
-3.638202958224833e-20 -4.225583780056060e-17  4.103616970999286e-01
 9.978335135019289e-01  4.103616970999286e-01 -3.411002361793884e-17

-2.593935479422826e-17 -1.074958333978844e-19  9.988209504940113e-01
-1.074958333978844e-19 -2.434036707297838e-17  4.086202536883065e-01
 9.988209504940113e-01  4.086202536883065e-01 -3.414168653752778e-17

-2.595905983667977e-17 -5.320801946414604e-20  9.959046152251044e-01
-5.320801946414604e-20  2.503466394476568e-18  4.130200045593945e-01
 9.959046152251044e-01  4.130200045593945e-01 -3.404176584811949e-17

-2.597759338033804e-17 -1.482822766274750e-19  9.979968834079327e-01
-1.482822766274750e-19 -5.540818595826740e-17  4.113376896818888e-01
 9.979968834079327e-01  4.113376896818888e-01 -3.411661122408896e-17

-2.603746243243459e-17 -1.274104332582393e-21  9.985900302631002e-01
-1.274104332582393e-21  2.135749314395502e-17  4.144850160698465e-01
 9.985900302631002e-01  4.144850160698465e-01 -3.414845688191519e-17

-2.615935225003158e-17 -7.995313729176590e-20  1.003956599398044e+00
-7.995313729176590e-20 -7.332646364171925e-17  4.096006825579493e-01
 1.003956599398044e+00  4.096006825579493e-01 -3.433663574145315e-17

-2.615603245069916e-17 -1.084410859389246e-19  1.002605615715294e+00
-1.084410859389246e-19 -3.442464316652015e-18  4.118022153284019e-01
 1.002605615715294e+00  4.118022153284019e-01 -3.429365302216360e-17

-2.613859291595767e-17 -1.967424509700243e-19  9.993744137698289e-01
-1.967424509700243e-19 -8.570355497430846e-18  4.126531537093572e-01
 9.993744137698289e-01  4.126531537093572e-01 -3.418296750740149e-17

-2.607703017500292e-17 -1.530383032690608e-19  9.928114086011633e-01
-1.530383032690608e-19 -3.166997035006398e-17  4.153478814098078e-01
 9.928114086011633e-01  4.153478814098078e-01 -3.395030637532665e-17

-2.601151902544483e-17 -1.093622702038778e-19  9.874290207968698e-01
-1.093622702038778e-19 -3.565664059730473e-17  4.172193790785908e-01
 9.874290207968698e-01  4.172193790785908e-01 -3.375518849519537e-17

-2.596861021817235e-17 -1.629831174151659e-19  9.831100210605510e-01
-1.629831174151659e-19 -2.461818305604344e-17  4.132773208563982e-01
 9.831100210605510e-01  4.132773208563982e-01 -3.360230561131698e-17

-2.600500034548152e-17 -1.167152827072910e-19  9.833544451127162e-01
-1.167152827072910e-19 -7.452479339949947e-17  4.140708063714317e-01
 9.833544451127162e-01  4.140708063714317e-01 -3.362745297917964e-17

-2.605772855615676e-17 -1.205856079286260e-19  9.857671352758854e-01
-1.205856079286260e-19 -7.087228934799489e-18  4.132325270703721e-01
 9.857671352758854e-01  4.132325270703721e-01 -3.372291360449050e-17

-2.611446333716371e-17 -7.295564347078576e-20  9.852965519099476e-01
-7.295564347078576e-20  1.837254102224099e-19  4.152539361236465e-01
 9.852965519099476e-01  4.152539361236465e-01 -3.373355723472997e-17

-2.622522090511934e-17 -9.646858296266330e-20  9.884523165500918e-01
-9.646858296266330e-20 -8.265279333911446e-17  4.111426015125042e-01
 9.884523165500918e-01  4.111426015125042e-01 -3.386686633367660e-17

-2.621069305322007e-17 -3.938488706314649e-20  9.878514148447988e-01
-3.938488706314649e-20 -2.015486023920007e-17  4.104667293683513e-01
 9.878514148447988e-01  4.104667293683513e-01 -3.386905486776228e-17

-2.622726786387867e-17 -9.391439882043077e-20  9.853122051656282e-01
-9.391439882043077e-20 -1.243461528195981e-17  4.115198206690366e-01
 9.853122051656282e-01  4.115198206690366e-01 -3.382856435625803e-17

-2.631158641308204e-17 -7.875546634820189e-20  9.874300596759344e-01
-7.875546634820189e-20  1.911033468380937e-17  4.044048050648661e-01
 9.874300596759344e-01  4.044048050648661e-01 -3.394958278167222e-17

-2.631470778297920e-17 -5.923632167478823e-21  9.841732174312561e-01
-5.923632167478823e-21 -3.161733719061784e-18  4.058512486975187e-01
 9.841732174312561e-01  4.058512486975187e-01 -3.387140438055392e-17

-2.640465247633380e-17 -2.321625326106606e-20  9.816213996087275e-01
-2.321625326106606e-20 -3.177230289731332e-17  4.079094095415571e-01
 9.816213996087275e-01  4.079094095415571e-01 -3.383842720564294e-17

-2.650155181192411e-17  9.889100840455345e-20  9.798740123775223e-01
 9.889100840455345e-20 -1.896299605849103e-18  4.057394671330469e-01
 9.798740123775223e-01  4.057394671330469e-01 -3.384291365447488e-17

-2.667562248157847e-17  2.021524766095289e-19  9.823440736152025e-01
 2.021524766095289e-19  2.787314199293284e-17  4.012836886775109e-01
 9.823440736152025e-01  4.012836886775109e-01 -3.396551796543070e-17

-2.732015355651000e-17 -2.379236757216678e-20  1.007947747291720e+00
-2.379236757216678e-20 -3.374905918154601e-17  4.129557126417531e-01
 1.007947747291720e+00  4.129557126417531e-01 -3.494636360434751e-17

-2.727836487185153e-17  2.041243098980713e-19  9.977501521332522e-01
 2.041243098980713e-19  2.604936413613476e-18  4.035878784080246e-01
 9.977501521332522e-01  4.035878784080246e-01 -3.455428351324278e-17

-2.720203290847409e-17  1.724716686727032e-19  9.796565101824727e-01
 1.724716686727032e-19 -1.383605178108401e-17  4.245892597872290e-01
 9.796565101824727e-01  4.245892597872290e-01 -3.391022091790699e-17

-2.765258762333150e-17  1.431524311758749e-19  1.004129079093757e+00
 1.431524311758749e-19 -6.812233454246889e-17  4.142635753982231e-01
 1.004129079093757e+00  4.142635753982231e-01 -3.480196876576638e-17

-2.796152781610446e-17  4.255452351092371e-20  1.025863331707652e+00
 4.255452351092371e-20 -3.038717361120592e-17  3.983224238929685e-01
 1.025863331707652e+00  3.983224238929685e-01 -3.558519333793019e-17

-2.794247335163342e-17  1.536824936060818e-19  1.009475419877992e+00
 1.536824936060818e-19  2.157428117020369e-18  4.191064726295900e-01
 1.009475419877992e+00  4.191064726295900e-01 -3.503881918392099e-17

-2.817520996953807e-17  5.066351391868705e-20  1.016739366632717e+00
 5.066351391868705e-20 -8.704221630696583e-18  4.120586647236973e-01
 1.016739366632717e+00  4.120586647236973e-01 -3.532409072899458e-17

-2.847275386667565e-17  3.739374652558996e-19  1.023124263144028e+00
 3.739374652558996e-19 -3.493784825636012e-17  4.143838148906553e-01
 1.023124263144028e+00  4.143838148906553e-01 -3.562031712263567e-17

-2.834094584585460e-17  1.916575948687950e-19  9.952019480565029e-01
 1.916575948687950e-19 -2.422785419396795e-17  4.461679514342248e-01
 9.952019480565029e-01  4.461679514342248e-01 -3.468714999245373e-17

-2.860925228669606e-17  1.984294142520867e-19  1.013788789352087e+00
 1.984294142520867e-19 -5.112179516015270e-17  4.243147544351843e-01
 1.013788789352087e+00  4.243147544351843e-01 -3.535521057147023e-17

-2.872513887359712e-17  1.802367422208238e-19  1.011536957697332e+00
 1.802367422208238e-19 -4.706192342667068e-17  4.317732281314851e-01
 1.011536957697332e+00  4.317732281314851e-01 -3.531715480966485e-17

-2.895635925651301e-17  1.323979337308593e-19  1.025635886051750e+00
 1.323979337308593e-19 -4.015835237330108e-17  4.045185269889186e-01
 1.025635886051750e+00  4.045185269889186e-01 -3.583378254593237e-17

-2.864150736256025e-17  2.934120631574736e-19  9.860790683697345e-01
 2.934120631574736e-19  2.841227366154368e-17  4.352790574944045e-01
 9.860790683697345e-01  4.352790574944045e-01 -3.446760078255869e-17

-2.905767155029018e-17  2.511799650802608e-19  1.011208743153251e+00
 2.511799650802608e-19  7.494110948637541e-19  4.188911524599600e-01
 1.011208743153251e+00  4.188911524599600e-01 -3.539355382789933e-17

-2.932464911545114e-17  1.016917597325937e-19  1.022835539499734e+00
 1.016917597325937e-19 -4.160782396083777e-17  4.175397899438855e-01
 1.022835539499734e+00  4.175397899438855e-01 -3.586506182125211e-17

-2.940682123767465e-17  2.790194122634149e-19  1.016098336759780e+00
 2.790194122634149e-19  1.665388524803022e-17  4.223286807782433e-01
 1.016098336759780e+00  4.223286807782433e-01 -3.567605193302730e-17

-2.982072335654605e-17  3.042556048754380e-19  1.035595072116938e+00
 3.042556048754380e-19 -2.558170018431801e-17  4.136974827235487e-01
 1.035595072116938e+00  4.136974827235487e-01 -3.643083784460566e-17

-3.002806956565813e-17  3.451684602907342e-19  1.035619094439973e+00
 3.451684602907342e-19 -4.392526446803627e-17  4.200514034413955e-01
 1.035619094439973e+00  4.200514034413955e-01 -3.650672078514717e-17

-2.989898704237222e-17  5.140647201156762e-19  1.010095036443372e+00
 5.140647201156762e-19 -4.633651375101917e-18  4.337010526646355e-01
 1.010095036443372e+00  4.337010526646355e-01 -3.563901683156403e-17

-2.997824020059056e-17  3.066687261726858e-19  1.003084230160840e+00
 3.066687261726858e-19 -1.852989657178281e-17  4.404822064103175e-01
 1.003084230160840e+00  4.404822064103175e-01 -3.544148043102017e-17

-3.064530450782109e-17  4.157334217380648e-19  1.047848450324081e+00
 4.157334217380648e-19 -2.751293919368689e-17  4.071128057792989e-01
 1.047848450324081e+00  4.071128057792989e-01 -3.708620391526799e-17

-3.049060534508410e-17  2.994215809946095e-19  1.014805644730295e+00
 2.994215809946095e-19 -5.871612004032772e-17  4.316373285126738e-01
 1.014805644730295e+00  4.316373285126738e-01 -3.597376066841358e-17

-3.094192214721684e-17  6.685620221661937e-19  1.018488789147005e+00
 6.685620221661937e-19 -1.449354732523273e-17  4.200186055174684e-01
 1.018488789147005e+00  4.200186055174684e-01 -3.623834088938655e-17

-3.159092184511564e-17  8.506243568342760e-19  1.035223255946738e+00
 8.506243568342760e-19  2.178180742938144e-17  3.980190862382105e-01
 1.035223255946738e+00  3.980190862382105e-01 -3.698371138148020e-17

-3.180550355897738e-17  7.692400921455004e-19  1.031646660692467e+00
 7.692400921455004e-19 -3.053272359193131e-17  3.942285496363775e-01
 1.031646660692467e+00  3.942285496363775e-01 -3.691930660261987e-17

-3.186844400727601e-17  9.138072913720583e-19  1.002560900060363e+00
 9.138072913720583e-19 -4.274026060633196e-17  4.244045938346804e-01
 1.002560900060363e+00  4.244045938346804e-01 -3.602634047635058e-17

-3.246788664985101e-17  1.026864852681640e-18  1.008243787042712e+00
 1.026864852681640e-18 -1.620863040224296e-17  4.195870549156571e-01
 1.008243787042712e+00  4.195870549156571e-01 -3.639810247886205e-17

-3.320243115208093e-17  1.206563573740222e-18  1.017279678854803e+00
 1.206563573740222e-18 -3.898204706367252e-17  4.157726100009362e-01
 1.017279678854803e+00  4.157726100009362e-01 -3.693587294649782e-17

-3.340704655875819e-17  1.312398699528379e-18  1.002415963597914e+00
 1.312398699528379e-18 -2.602119361393669e-17  4.115390470610304e-01
 1.002415963597914e+00  4.115390470610304e-01 -3.652899648215478e-17

-3.347049457772313e-17  1.490230669156167e-18  9.797782195535539e-01
 1.490230669156167e-18  4.465005474980516e-17  4.399216854193810e-01
 9.797782195535539e-01  4.399216854193810e-01 -3.582602761604381e-17

-3.409803245423204e-17  1.459941332763545e-18  1.001137245192642e+00
 1.459941332763545e-18 -7.503550267163662e-19  4.143135367245011e-01
 1.001137245192642e+00  4.143135367245011e-01 -3.671168330029606e-17

-3.438383615961632e-17  1.600377302739309e-18  9.896716313024332e-01
 1.600377302739309e-18 -7.859381696696355e-18  4.226246030464555e-01
 9.896716313024332e-01  4.226246030464555e-01 -3.643401969668782e-17

-3.502181919990747e-17  1.736255661091169e-18  9.953149478744637e-01
 1.736255661091169e-18 -3.341995599058105e-17  4.201704279258281e-01
 9.953149478744637e-01  4.201704279258281e-01 -3.681889922380712e-17

-3.565284672642505e-17  1.921285097110604e-18  9.936503523296296e-01
 1.921285097110604e-18 -2.507628523278486e-17  4.249773978296751e-01
 9.936503523296296e-01  4.249773978296751e-01 -3.697527011976165e-17

-3.655283770508920e-17  2.326396384065535e-18  1.000794879691952e+00
 2.326396384065535e-18 -1.076176603545685e-18  4.172026665857109e-01
 1.000794879691952e+00  4.172026665857109e-01 -3.749315673111373e-17

-3.778566789215629e-17  2.660784076146379e-18  1.005070668202923e+00
 2.660784076146379e-18 -1.037899949421625e-17  4.233507856760182e-01
 1.005070668202923e+00  4.233507856760182e-01 -3.803404755772366e-17

-3.917007734782458e-17  3.080578111210119e-18  1.006133313339174e+00
 3.080578111210119e-18 -1.293190965519496e-17  4.176721495361082e-01
 1.006133313339174e+00  4.176721495361082e-01 -3.854297125327458e-17

-4.052468028259071e-17  3.131259743187434e-18  1.005923887170518e+00
 3.131259743187434e-18 -4.650276670700837e-17  4.258493218531298e-01
 1.005923887170518e+00  4.258493218531298e-01 -3.898706419086465e-17

-4.184062035803202e-17  3.417353648771924e-18  1.019273293012475e+00
 3.417353648771924e-18 -5.682724240388167e-17  4.079638241346720e-01
 1.019273293012475e+00  4.079638241346720e-01 -3.985241429153008e-17

-4.273753896104804e-17  4.133836936291753e-18  9.999587180036936e-01
 4.133836936291753e-18 -2.221581188527083e-17  4.337394086623113e-01
 9.999587180036936e-01  4.337394086623113e-01 -3.955949047579308e-17

-4.393247711369258e-17  4.467258381295693e-18  1.009662040942252e+00
 4.467258381295693e-18 -2.934656740425394e-17  4.177973507461507e-01
 1.009662040942252e+00  4.177973507461507e-01 -4.028073933905655e-17

-4.512901910951136e-17  4.595020658491735e-18  9.966723723464446e-01
 4.595020658491735e-18 -1.173246948869115e-16  4.242236095093658e-01
 9.966723723464446e-01  4.242236095093658e-01 -4.029639078479384e-17

-4.643425471355125e-17  5.286963545436572e-18  1.009577570549988e+00
 5.286963545436572e-18 -3.863917871085562e-17  4.137532133070144e-01
 1.009577570549988e+00  4.137532133070144e-01 -4.116525548488571e-17

-4.767087549488470e-17  6.086732041702675e-18  1.001376119534495e+00
 6.086732041702675e-18 -4.099203027136898e-17  4.254601452183865e-01
 1.001376119534495e+00  4.254601452183865e-01 -4.133446532637785e-17

-4.902995889585455e-17  6.353514904013975e-18  9.969558983568738e-01
 6.353514904013975e-18 -5.210012821275450e-17  4.233509432227682e-01
 9.969558983568738e-01  4.233509432227682e-01 -4.167115558236152e-17

-5.083489030891034e-17  7.080832622976934e-18  1.012647849297061e+00
 7.080832622976934e-18 -5.325846674331539e-17  4.029718939170945e-01
 1.012647849297061e+00  4.029718939170945e-01 -4.278545485002389e-17

-5.260752556447442e-17  7.718579329913252e-18  9.913102783485137e-01
 7.718579329913252e-18 -4.546266272694128e-17  4.289384658932014e-01
 9.913102783485137e-01  4.289384658932014e-01 -4.270707260641894e-17

-5.453874787063222e-17  8.393222711046039e-18  1.012668116966853e+00
 8.393222711046039e-18 -8.404844624891833e-17  4.028825696753965e-01
 1.012668116966853e+00  4.028825696753965e-01 -4.403895628277161e-17

-5.840846457595498e-17  1.023597617397726e-17  9.890654520001252e-01
 1.023597617397726e-17 -7.692103764707370e-17  4.157911213838870e-01
 9.890654520001252e-01  4.157911213838870e-01 -4.459177858232966e-17

-6.218412511433075e-17  1.192356377325650e-17  9.808607332292203e-01
 1.192356377325650e-17 -6.570342132913202e-17  4.240476074216951e-01
 9.808607332292203e-01  4.240476074216951e-01 -4.560493210118127e-17

-6.420564348681298e-17  1.278745526721215e-17  9.831153678707295e-01
 1.278745526721215e-17 -7.620714121445353e-17  4.306825745812111e-01
 9.831153678707295e-01  4.306825745812111e-01 -4.634839726062199e-17

-6.844092608119516e-17  1.415824231980133e-17  1.013811538281491e+00
 1.415824231980133e-17 -1.298852757249761e-16  4.178100598619548e-01
 1.013811538281491e+00  4.178100598619548e-01 -4.874865337340852e-17

-7.564741481009778e-17  1.737604898443031e-17  1.016639252249490e+00
 1.737604898443031e-17 -1.369346372480882e-16  4.129779045100064e-01
 1.016639252249490e+00  4.129779045100064e-01 -5.120244332561643e-17

-8.287791674581453e-17  2.077992142074621e-17  1.009993902704917e+00
 2.077992142074621e-17 -1.285262211941150e-16  4.259660575632837e-01
 1.009993902704917e+00  4.259660575632837e-01 -5.334992898533827e-17

-8.844693128678563e-17  2.346064025527864e-17  1.004195706032605e+00
 2.346064025527864e-17 -1.143884419489792e-16  4.382388671587388e-01
 1.004195706032605e+00  4.382388671587388e-01 -5.496238023044470e-17

-9.690804333038758e-17  2.758746939902874e-17  1.020480974055428e+00
 2.758746939902874e-17 -1.329851813952129e-16  4.050251232919499e-01
 1.020480974055428e+00  4.050251232919499e-01 -5.816222081668069e-17

-1.099673284975240e-16  3.375701353965475e-17  1.055321434793007e+00
 3.375701353965475e-17 -1.534462598110094e-16  3.882396642848524e-01
 1.055321434793007e+00  3.882396642848524e-01 -6.342858602984581e-17

-1.170829247264522e-16  3.714594802453655e-17  1.023280033805733e+00
 3.714594802453655e-17 -1.664630683903948e-16  4.497501642624244e-01
 1.023280033805733e+00  4.497501642624244e-01 -6.477519205172277e-17

-1.264911932755338e-16  4.139413467861590e-17  1.037614529418072e+00
 4.139413467861590e-17 -1.902146603915011e-16  4.555836081874262e-01
 1.037614529418072e+00  4.555836081874262e-01 -6.820550584640958e-17

-1.492982643050358e-16  5.439247692270449e-17  1.040585029608184e+00
 5.439247692270449e-17 -2.222477045163020e-16  4.149334359324151e-01
 1.040585029608184e+00  4.149334359324151e-01 -7.531324398348083e-17

-1.945349971737081e-16  8.004883433637873e-17  1.006381307650046e+00
 8.004883433637873e-17 -2.514174821910169e-16  4.217866255722731e-01
 1.006381307650046e+00  4.217866255722731e-01 -8.793611084474340e-17

-2.504584266553948e-16  1.111963786449072e-16  1.002298805657266e+00
 1.111963786449072e-16 -4.286570064885927e-16  4.225106900772682e-01
 1.002298805657266e+00  4.225106900772682e-01 -1.044916578286566e-16

-3.198045648208760e-16  1.491821729781851e-16  9.998746142774447e-01
 1.491821729781851e-16 -4.656525011562158e-16  4.189226640411248e-01
 9.998746142774447e-01  4.189226640411248e-01 -1.247258209974805e-16

-4.094907183400650e-16  1.978069342725855e-16  9.954845348796366e-01
 1.978069342725855e-16 -3.929164283708875e-16  4.159242346719302e-01
 9.954845348796366e-01  4.159242346719302e-01 -1.503844206178084e-16

-4.824826094356867e-16  2.344233237292651e-16  9.950320290802558e-01
 2.344233237292651e-16 -5.456643903211981e-16  4.161722236640101e-01
 9.950320290802558e-01  4.161722236640101e-01 -1.711642709125348e-16

-6.415808451719713e-16  3.107159877827105e-16  1.000936936260964e+00
 3.107159877827105e-16 -6.042649816334123e-16  4.141855849960864e-01
 1.000936936260964e+00  4.141855849960864e-01 -2.165721111864192e-16

-1.049588453925913e-15  4.782243246638765e-16  1.004281734132755e+00
 4.782243246638765e-16 -8.646949779676338e-16  4.144958766810248e-01
 1.004281734132755e+00  4.144958766810248e-01 -3.335306848712618e-16

-1.686286852173904e-15  6.635921073805895e-16  1.004329751283272e+00
 6.635921073805895e-16 -1.095034341736492e-15  4.186195175675192e-01
 1.004329751283272e+00  4.186195175675192e-01 -5.244841931093026e-16

-2.261386119233868e-15  7.820893334156527e-16  1.005608083408236e+00
 7.820893334156527e-16 -1.368397791271525e-15  4.188786784489595e-01
 1.005608083408236e+00  4.188786784489595e-01 -7.085989895958470e-16

-3.487194940784305e-15  8.716885442832021e-16  1.006495741219266e+00
 8.716885442832021e-16 -1.534354585037050e-15  4.176831186606562e-01
 1.006495741219266e+00  4.176831186606562e-01 -1.147081589891761e-15

-5.085551237375055e-15  7.525742551576152e-16  1.007171700167338e+00
 7.525742551576152e-16 -1.665463157452994e-15  4.184790381749199e-01
 1.007171700167338e+00  4.184790381749199e-01 -1.821945108927341e-15

-7.201920396762611e-15  3.662727970441384e-16  1.008376051241481e+00
 3.662727970441384e-16 -2.041909034843858e-15  4.174726123313399e-01
 1.008376051241481e+00  4.174726123313399e-01 -2.859281424919491e-15

-1.013764245759721e-14 -3.860512426077890e-16  1.007517370649360e+00
-3.860512426077890e-16 -2.431600767733136e-15  4.193629845981501e-01
 1.007517370649360e+00  4.193629845981501e-01 -4.488583409979949e-15

-1.469130307702584e-14 -1.814015301298285e-15  1.010741492217072e+00
-1.814015301298285e-15 -2.688394239485664e-15  4.179896116115169e-01
 1.010741492217072e+00  4.179896116115169e-01 -7.186899252300451e-15

 2.203825846957202e-14 -2.591275878001615e-14  1.010278418504205e+00
-2.591275878001615e-14  3.397571621876863e-14  4.191945089880919e-01
 1.010278418504205e+00  4.191945089880919e-01 -1.450583953776417e-16

-6.153733026601893e-13  1.475183059455455e-13  1.009552429900130e+00
 1.475183059455455e-13 -2.519054246379800e-13  4.184849469255396e-01
 1.009552429900130e+00  4.184849469255396e-01 -2.189365709542701e-13

 8.449057510247151e-14 -2.207422323789012e-14  1.009561246640122e+00
-2.207422323789012e-14  5.478475039028699e-14  4.158998046719475e-01
 1.009561246640122e+00  4.158998046719475e-01  1.706262424226247e-14

-6.490380546575187e-13  1.518811807641343e-13  1.008653547080718e+00
 1.518811807641343e-13 -3.296060289179575e-13  4.156227685926690e-01
 1.008653547080718e+00  4.156227685926690e-01 -1.616488788238944e-13

-9.500359555518490e-15  1.131142288694103e-14  1.008399035332396e+00
 1.131142288694103e-14  9.664164050230551e-16  4.161994227705624e-01
 1.008399035332396e+00  4.161994227705624e-01 -1.015699323364997e-14

-4.581913069839675e-15  9.110959876303631e-15  1.009362406181780e+00
 9.110959876303631e-15  5.077843670637580e-16  4.158444806074376e-01
 1.009362406181780e+00  4.158444806074376e-01 -4.852810728088894e-15

-3.476219844472442e-15  7.297544439610587e-15  1.009224101649416e+00
 7.297544439610587e-15  1.104582208367092e-15  4.156644191952086e-01
 1.009224101649416e+00  4.156644191952086e-01 -3.529183431286644e-15

-2.686845370716834e-15  4.390697135143616e-15  1.007183093970474e+00
 4.390697135143616e-15  1.471020466647980e-15  4.163860918089004e-01
 1.007183093970474e+00  4.163860918089004e-01 -2.073762176659478e-15

-1.764418274464564e-15  1.642746269925382e-15  1.007687859881513e+00
 1.642746269925382e-15  9.971093534008841e-16  4.163502342214804e-01
 1.007687859881513e+00  4.163502342214804e-01 -9.488110371337878e-16

-1.145630804190060e-15  6.487704417746921e-16  1.008648441221942e+00
 6.487704417746921e-16  5.041704186047102e-16  4.163791532741903e-01
 1.008648441221942e+00  4.163791532741903e-01 -5.208357353053111e-16

-8.233080162502540e-16  3.250817487440740e-16  1.008685994824111e+00
 3.250817487440740e-16  2.723140052663564e-16  4.163809324332924e-01
 1.008685994824111e+00  4.163809324332924e-01 -3.533337517317513e-16

-5.526570182792838e-16  1.377946981052572e-16  1.008766291168856e+00
 1.377946981052572e-16  1.074480933442978e-16  4.167701746283460e-01
 1.008766291168856e+00  4.167701746283460e-01 -2.323456619130706e-16

-3.632831453682514e-16  5.110235504943074e-17  1.007925390517774e+00
 5.110235504943074e-17  1.952424245606081e-17  4.174389667937026e-01
 1.007925390517774e+00  4.174389667937026e-01 -1.561796062113775e-16

-2.886525696141131e-16  2.748853572149740e-17  1.009024996260808e+00
 2.748853572149740e-17 -1.341452023285589e-17  4.167879052570169e-01
 1.009024996260808e+00  4.167879052570169e-01 -1.278597686266544e-16

-2.519837554158046e-16  1.830163945953675e-17  1.008180026729901e+00
 1.830163945953675e-17 -1.753611654310772e-17  4.180105959624891e-01
 1.008180026729901e+00  4.180105959624891e-01 -1.142390154957275e-16

-2.024425502200225e-16  7.911763146749046e-18  1.008591734863530e+00
 7.911763146749046e-18 -3.580005193602462e-17  4.184832671616971e-01
 1.008591734863530e+00  4.184832671616971e-01 -9.612489690618366e-17

-1.608391266175956e-16  1.871468012486703e-18  1.007714029091349e+00
 1.871468012486703e-18 -4.239116479493212e-17  4.185039941140063e-01
 1.007714029091349e+00  4.185039941140063e-01 -8.112790643582565e-17

-1.148220974921032e-16  4.689078419344577e-19  1.007823156124086e+00
 4.689078419344577e-19 -3.023064381410242e-17  4.187343328974196e-01
 1.007823156124086e+00  4.187343328974196e-01 -7.242716083216256e-17

-1.067526163669421e-16 -2.344384377622588e-18  1.008214045720851e+00
-2.344384377622588e-18 -4.043233584713886e-17  4.186010262937235e-01
 1.008214045720851e+00  4.186010262937235e-01 -6.205100675098241e-17

-9.322007492431484e-17 -2.698008322320987e-18  1.007349937062135e+00
-2.698008322320987e-18 -3.938675161988299e-17  4.182387658624075e-01
 1.007349937062135e+00  4.182387658624075e-01 -5.727274819026470e-17

-8.265583735332110e-17 -2.743848515693963e-18  1.006367148166410e+00
-2.743848515693963e-18 -3.887033239380292e-17  4.180104260802515e-01
 1.006367148166410e+00  4.180104260802515e-01 -5.357286561446491e-17

-7.376197198941044e-17 -2.675678309557909e-18  1.004722073447105e+00
-2.675678309557909e-18 -4.010865217624681e-17  4.177290779359919e-01
 1.004722073447105e+00  4.177290779359919e-01 -5.045003398088247e-17

-6.695696457725191e-17 -2.511600309072191e-18  1.002803446199898e+00
-2.511600309072191e-18 -3.849387119587851e-17  4.172737211472833e-01
 1.002803446199898e+00  4.172737211472833e-01 -4.802751082332237e-17

-6.137780457275238e-17 -2.309457419037577e-18  1.000919025250647e+00
-2.309457419037577e-18 -3.692792845442600e-17  4.159904802692063e-01
 1.000919025250647e+00  4.159904802692063e-01 -4.604099223359705e-17

-5.783469194827385e-17 -2.151771738233201e-18  1.000164884671089e+00
-2.151771738233201e-18 -3.334317986978155e-17  4.166326735142644e-01
 1.000164884671089e+00  4.166326735142644e-01 -4.481484904703624e-17

-5.510475121472883e-17 -2.000012490804630e-18  9.995789277422822e-01
-2.000012490804630e-18 -3.290514971831023e-17  4.150833916804154e-01
 9.995789277422822e-01  4.150833916804154e-01 -4.387346897140461e-17

-5.187856727339109e-17 -1.809798614680790e-18  9.998078051787976e-01
-1.809798614680790e-18 -3.045791699516100e-17  4.143439646719740e-01
 9.998078051787976e-01  4.143439646719740e-01 -4.278171658024551e-17

-4.945376827767967e-17 -1.649020224900243e-18  1.000990999963258e+00
-1.649020224900243e-18 -3.054134732870162e-17  4.140997230790797e-01
 1.000990999963258e+00  4.140997230790797e-01 -4.198273196501177e-17

-4.740752178389698e-17 -1.522766922186519e-18  1.002548805212022e+00
-1.522766922186519e-18 -2.900621860747265e-17  4.128679508004909e-01
 1.002548805212022e+00  4.128679508004909e-01 -4.132605000376652e-17

-4.517457773023945e-17 -1.377215876011730e-18  1.004928595892098e+00
-1.377215876011730e-18 -3.399003391248508e-17  4.139169564322329e-01
 1.004928595892098e+00  4.139169564322329e-01 -4.063091745991392e-17

-4.315338442782077e-17 -1.241176878006910e-18  1.007503112363489e+00
-1.241176878006910e-18 -3.304649460388585e-17  4.137897693616530e-01
 1.007503112363489e+00  4.137897693616530e-01 -3.998929802474989e-17

-4.146393686420201e-17 -1.124065170712178e-18  1.009736104489383e+00
-1.124065170712178e-18 -2.966402977659739e-17  4.148118845273870e-01
 1.009736104489383e+00  4.148118845273870e-01 -3.948424595535173e-17

-4.000798298463465e-17 -1.019994630389786e-18  1.010278029810900e+00
-1.019994630389786e-18 -1.962915611680003e-17  4.153727794523221e-01
 1.010278029810900e+00  4.153727794523221e-01 -3.900443019726066e-17

-3.854491617752731e-17 -9.206266940097229e-19  1.005447667728181e+00
-9.206266940097229e-19 -2.706330396976183e-17  4.135506523543806e-01
 1.005447667728181e+00  4.135506523543806e-01 -3.836020362348415e-17

-3.777227042502798e-17 -8.104084885396722e-19  1.038183148181646e+00
-8.104084885396722e-19 -2.718031875929358e-17  3.737133224731195e-01
 1.038183148181646e+00  3.737133224731195e-01 -3.908143288077221e-17

-3.704386784466627e-17 -7.789453435100884e-19  1.012469596034175e+00
-7.789453435100884e-19 -2.596222204498765e-17  4.382560400485038e-01
 1.012469596034175e+00  4.382560400485038e-01 -3.811202791506424e-17

-3.673649938263172e-17 -7.263666936296940e-19  1.020140179516575e+00
-7.263666936296940e-19 -1.670779117298182e-17  4.544201635496470e-01
 1.020140179516575e+00  4.544201635496470e-01 -3.825994348703778e-17

-3.581585781645398e-17 -6.858088620645298e-19  1.031041382612657e+00
-6.858088620645298e-19 -1.707680473220012e-17  3.900105453472597e-01
 1.031041382612657e+00  3.900105453472597e-01 -3.827205062619634e-17

-3.462409859011204e-17 -6.174771457393313e-19  1.003211165188648e+00
-6.174771457393313e-19 -2.785792428186561e-17  4.215007078477868e-01
 1.003211165188648e+00  4.215007078477868e-01 -3.698352154396462e-17

-3.406097958371641e-17 -6.015931738742355e-19  1.007483185102347e+00
-6.015931738742355e-19 -2.212137948588762e-17  3.986458476186254e-01
 1.007483185102347e+00  3.986458476186254e-01 -3.694480426152341e-17

-3.329938402242080e-17 -5.556509190747141e-19  9.931493676196504e-01
-5.556509190747141e-19 -1.748317197546262e-17  4.113368514447668e-01
 9.931493676196504e-01  4.113368514447668e-01 -3.624786001503724e-17

-3.219929338548551e-17 -4.992278130052684e-19  9.564498900020862e-01
-4.992278130052684e-19 -1.700374278689576e-17  4.303273621714739e-01
 9.564498900020862e-01  4.303273621714739e-01 -3.470674428833547e-17

-3.099411791967625e-17 -5.471905917153220e-19  9.030576048898741e-01
-5.471905917153220e-19 -1.945309388060578e-17  4.158914796564431e-01
 9.030576048898741e-01  4.158914796564431e-01 -3.268019461194574e-17

-3.182951465922513e-17 -5.647322683674288e-19  1.004974469661263e+00
-5.647322683674288e-19 -2.089083580200388e-17  3.193186518044575e-01
 1.004974469661263e+00  3.193186518044575e-01 -3.625414607784822e-17

-3.215765158096435e-17 -5.037927459374261e-19  1.032708983214667e+00
-5.037927459374261e-19 -2.154749368240514e-17  2.971556000528237e-01
 1.032708983214667e+00  2.971556000528237e-01 -3.714971549518557e-17

-3.047524945818601e-17 -4.980779936830021e-19  9.118934653618785e-01
-4.980779936830021e-19 -2.116801547146606e-17  4.344407067284816e-01
 9.118934653618785e-01  4.344407067284816e-01 -3.283453789982648e-17

-3.114760132410242e-17 -4.445712534382456e-19  9.581591719931917e-01
-4.445712534382456e-19 -2.123183115952768e-17  4.281437474236802e-01
 9.581591719931917e-01  4.281437474236802e-01 -3.441417429927287e-17

-4.015020854291880e-17  1.976544773255247e-19  9.784014187888214e-01
 1.976544773255247e-19 -1.765568673633367e-17  4.129086796413167e-01
 9.784014187888214e-01  4.129086796413167e-01 -3.499845350076978e-17

-5.681877820353059e-18 -2.029292096513836e-18  9.966838974504127e-01
-2.029292096513836e-18 -1.977250217349916e-17  4.076164713663735e-01
 9.966838974504127e-01  4.076164713663735e-01 -3.550708338361799e-17

-3.179393633227721e-17 -2.570989368941879e-19  1.003858943584668e+00
-2.570989368941879e-19 -1.926426870540679e-17  4.151088181722206e-01
 1.003858943584668e+00  4.151088181722206e-01 -3.568629842512542e-17

-3.237967352563256e-17 -1.986449644362468e-19  1.013204923706178e+00
-1.986449644362468e-19 -1.649787754511009e-17  4.086558335794783e-01
 1.013204923706178e+00  4.086558335794783e-01 -3.595297032950189e-17

-3.050563862437908e-17 -2.895391897508822e-19  1.011254664755954e+00
-2.895391897508822e-19 -1.625561285693190e-17  4.048215532836054e-01
 1.011254664755954e+00  4.048215532836054e-01 -3.578957774193170e-17

-2.990416247999365e-17 -2.977939166988472e-19  1.005755721755290e+00
-2.977939166988472e-19 -1.878789232059803e-17  4.075091746859625e-01
 1.005755721755290e+00  4.075091746859625e-01 -3.551893883216473e-17

-2.998629681615177e-17 -2.800042967351836e-19  1.017992272990728e+00
-2.800042967351836e-19 -1.664547535567823e-17  3.996821747162886e-01
 1.017992272990728e+00  3.996821747162886e-01 -3.590460544342637e-17

-2.981054366178676e-17 -2.866246553809531e-19  1.018219898151698e+00
-2.866246553809531e-19 -2.282027475450724e-17  4.060153557744476e-01
 1.018219898151698e+00  4.060153557744476e-01 -3.587728130765674e-17

-2.944710341922588e-17 -2.628774176500064e-19  1.008166860664097e+00
-2.628774176500064e-19 -1.794021255049095e-17  4.078989609742619e-01
 1.008166860664097e+00  4.078989609742619e-01 -3.542209555764019e-17

-2.907721704874055e-17 -2.662343407882889e-19  9.975158610091205e-01
-2.662343407882889e-19 -1.907934040739955e-17  4.213244292313658e-01
 9.975158610091205e-01  4.213244292313658e-01 -3.495976407660183e-17

-2.888908164103277e-17 -2.472699464782868e-19  9.996087300212102e-01
-2.472699464782868e-19 -1.734543103661250e-17  4.134249028297854e-01
 9.996087300212102e-01  4.134249028297854e-01 -3.497192590234999e-17

-2.856612772626131e-17 -2.474868383338313e-19  9.889489957013011e-01
-2.474868383338313e-19 -1.871123747991034e-17  4.201302683649488e-01
 9.889489957013011e-01  4.201302683649488e-01 -3.452708188217309e-17

-2.856706425170805e-17 -2.395603813177044e-19  9.988260595805698e-01
-2.395603813177044e-19 -1.449042493561581e-17  4.128417272855397e-01
 9.988260595805698e-01  4.128417272855397e-01 -3.484572598478864e-17

-2.847418526414627e-17 -2.403563440514097e-19  1.001588769368129e+00
-2.403563440514097e-19 -2.207257614440380e-17  4.137351392277525e-01
 1.001588769368129e+00  4.137351392277525e-01 -3.490139489646607e-17

-2.854287186851092e-17 -2.377176436438143e-19  1.014769342727196e+00
-2.377176436438143e-19 -1.579443172473152e-17  4.020232417439283e-01
 1.014769342727196e+00  4.020232417439283e-01 -3.532440324281463e-17

-2.822805978287910e-17 -2.398431728571136e-19  1.001244045169009e+00
-2.398431728571136e-19 -1.822569182293413e-17  4.137667406231427e-01
 1.001244045169009e+00  4.137667406231427e-01 -3.480691048100857e-17

-2.795997544337217e-17 -2.399511805482483e-19  9.860342217672130e-01
-2.399511805482483e-19 -1.804981760254793e-17  4.222487206941534e-01
 9.860342217672130e-01  4.222487206941534e-01 -3.422315086553940e-17

-2.775296580687874e-17 -2.448178065857573e-19  9.896849849935424e-01
-2.448178065857573e-19 -1.814699827486472e-17  4.173059254221521e-01
 9.896849849935424e-01  4.173059254221521e-01 -3.430178529715193e-17

-2.740533954732286e-17 -2.774841250102971e-19  9.878508218898568e-01
-2.774841250102971e-19 -1.195666667641919e-17  4.088165532095517e-01
 9.878508218898568e-01  4.088165532095517e-01 -3.417234717413735e-17

-2.798942735705319e-17 -2.469928590481338e-19  1.035172489536504e+00
-2.469928590481338e-19 -1.918545611309748e-17  3.464442708462531e-01
 1.035172489536504e+00  3.464442708462531e-01 -3.583325309207060e-17

-2.698099444712909e-17 -2.309372855051783e-19  9.569680383999393e-01
-2.309372855051783e-19 -1.888244081486366e-17  4.090248556020432e-01
 9.569680383999393e-01  4.090248556020432e-01 -3.298359271534312e-17

-3.091495281565362e-17  6.954401167586699e-19  9.695557629073038e-01
 6.954401167586699e-19 -1.897348372082823e-17  4.265263601841826e-01
 9.695557629073038e-01  4.265263601841826e-01 -3.343255609951077e-17

-4.363567817526208e-17  3.844454160835992e-18  9.839105108560808e-01
 3.844454160835992e-18 -2.217960877261769e-17  4.254603538440646e-01
 9.839105108560808e-01  4.254603538440646e-01 -3.394559706228957e-17

 1.138081502698557e-17 -9.910022309414319e-18  1.000245067930390e+00
-9.910022309414319e-18 -1.455841480397263e-17  4.087950639682361e-01
 1.000245067930390e+00  4.087950639682361e-01 -3.449192495064254e-17

-7.929518492505224e-17  1.270395556598612e-17  9.945858974200145e-01
 1.270395556598612e-17 -1.726113624838915e-17  4.169683604395392e-01
 9.945858974200145e-01  4.169683604395392e-01 -3.427505606824339e-17

-4.055120249991456e-17  3.053051966129857e-18  1.000907616968343e+00
 3.053051966129857e-18 -1.898547196861772e-17  4.073278801554884e-01
 1.000907616968343e+00  4.073278801554884e-01 -3.447248306028262e-17

-1.878960830832541e-17 -2.316325724201058e-18  9.943952665097240e-01
-2.316325724201058e-18 -1.529164285613265e-17  4.161643817440216e-01
 9.943952665097240e-01  4.161643817440216e-01 -3.422386950058296e-17

-2.719900630435271e-17 -2.177476615200558e-19  9.978569822067396e-01
-2.177476615200558e-19 -1.339684974471659e-17  4.108739359223023e-01
 9.978569822067396e-01  4.108739359223023e-01 -3.431314007789800e-17

-2.678574093642996e-17 -2.996547089568257e-19  9.950562852121394e-01
-2.996547089568257e-19 -1.028989436682132e-17  4.173513774990777e-01
 9.950562852121394e-01  4.173513774990777e-01 -3.418616461442505e-17

-2.682486110654113e-17 -2.609487499493388e-19  9.947232905603913e-01
-2.609487499493388e-19 -2.201233680580206e-17  4.107908604475963e-01
 9.947232905603913e-01  4.107908604475963e-01 -3.414637679799239e-17

-2.659461112611380e-17 -2.701450503924501e-19  9.888494084378677e-01
-2.701450503924501e-19 -9.422786467776958e-18  4.143294209622003e-01
 9.888494084378677e-01  4.143294209622003e-01 -3.391465589660346e-17

-2.660794475124640e-17 -2.715261386021031e-19  9.926594760103074e-01
-2.715261386021031e-19 -1.349275653670004e-17  4.107212959404477e-01
 9.926594760103074e-01  4.107212959404477e-01 -3.404675784928505e-17

-2.652900508226552e-17 -2.843068516886389e-19  9.930153409453184e-01
-2.843068516886389e-19 -2.061407980025715e-17  4.128365041275613e-01
 9.930153409453184e-01  4.128365041275613e-01 -3.405107243077343e-17

-2.649194877799703e-17 -2.716254021056077e-19  9.966293005721677e-01
-2.716254021056077e-19 -1.469763275720159e-17  4.058661782885856e-01
 9.966293005721677e-01  4.058661782885856e-01 -3.416540372919548e-17

-2.629782254119685e-17 -2.710960725574431e-19  9.870268131522608e-01
-2.710960725574431e-19 -1.331617414273314e-17  4.076379788678046e-01
 9.870268131522608e-01  4.076379788678046e-01 -3.382255018579670e-17

-2.612108522337763e-17 -2.693655499797096e-19  9.773432450743317e-01
-2.693655499797096e-19 -2.119752996303401e-17  4.099483525377008e-01
 9.773432450743317e-01  4.099483525377008e-01 -3.346180330497452e-17

-2.603390461522087e-17 -2.531181595256898e-19  9.782497383384344e-01
-2.531181595256898e-19 -1.590540446657877e-17  4.097245946779836e-01
 9.782497383384344e-01  4.097245946779836e-01 -3.351884627524615e-17

-2.616885473764843e-17 -2.516528675537838e-19  9.891685555979974e-01
-2.516528675537838e-19 -2.530732495656469e-17  4.005532938636238e-01
 9.891685555979974e-01  4.005532938636238e-01 -3.392695411405370e-17

-2.611189280025086e-17 -2.184830643385011e-19  9.921079290792633e-01
-2.184830643385011e-19 -1.817901356693864e-17  3.956128288821809e-01
 9.921079290792633e-01  3.956128288821809e-01 -3.404118591213796e-17

-2.586041227241387e-17 -1.651273777764536e-19  9.781361346112308e-01
-1.651273777764536e-19 -1.023350094442920e-17  4.013482610942471e-01
 9.781361346112308e-01  4.013482610942471e-01 -3.357306508895221e-17

-2.577002114876301e-17 -1.353198728443024e-19  9.714880490689117e-01
-1.353198728443024e-19 -1.524536759018336e-17  4.060127865776703e-01
 9.714880490689117e-01  4.060127865776703e-01 -3.335219032200899e-17

-2.569247101693361e-17 -1.171074073471571e-19  9.721971783368251e-01
-1.171074073471571e-19 -2.627986594785115e-17  4.004778757003709e-01
 9.721971783368251e-01  4.004778757003709e-01 -3.338447157785345e-17

-2.561173139372767e-17 -8.036453249329632e-20  9.668725696185431e-01
-8.036453249329632e-20 -1.335336042480849e-17  4.076954820443726e-01
 9.668725696185431e-01  4.076954820443726e-01 -3.319622431752132e-17

-2.562457470768921e-17 -7.206248050644140e-20  9.687411053114006e-01
-7.206248050644140e-20 -1.762105912438720e-17  4.066989777614546e-01
 9.687411053114006e-01  4.066989777614546e-01 -3.326255761505306e-17

-2.571322357296004e-17 -6.462222578904681e-20  9.803856414037431e-01
-6.462222578904681e-20 -1.795519552291917e-17  3.920961173882538e-01
 9.803856414037431e-01  3.920961173882538e-01 -3.365375562973526e-17

-2.574270150985440e-17 -4.498882335451303e-20  9.833594992493366e-01
-4.498882335451303e-20 -1.312282309805324e-17  3.953317623721127e-01
 9.833594992493366e-01  3.953317623721127e-01 -3.374178531806088e-17

-2.565436660531392e-17 -1.645663507688247e-20  9.714414734456169e-01
-1.645663507688247e-20 -1.371174907026570e-17  4.103800598635373e-01
 9.714414734456169e-01  4.103800598635373e-01 -3.331331093897928e-17

-2.558397957837968e-17 -6.077746028977625e-20  9.658092211859860e-01
-6.077746028977625e-20 -1.718716697067713e-17  4.172387043589205e-01
 9.658092211859860e-01  4.172387043589205e-01 -3.309876429794940e-17

-2.570805744620761e-17 -4.759573080161129e-20  9.844504356483331e-01
-4.759573080161129e-20 -5.128946641394956e-18  3.955206364287106e-01
 9.844504356483331e-01  3.955206364287106e-01 -3.373463606917981e-17

-2.576191447991607e-17 -7.057111045327040e-20  9.803550319057656e-01
-7.057111045327040e-20 -2.543442550969758e-17  4.116653497222940e-01
 9.803550319057656e-01  4.116653497222940e-01 -3.358774693028324e-17

-2.579421870415413e-17 -8.031621698880069e-20  9.906019532576135e-01
-8.031621698880069e-20 -2.006396020838305e-17  4.020069596524839e-01
 9.906019532576135e-01  4.020069596524839e-01 -3.393116721594786e-17

-2.593107561510736e-17 -8.269206649017605e-20  1.001054365672933e+00
-8.269206649017605e-20 -1.254467374670367e-17  4.015161984175695e-01
 1.001054365672933e+00  4.015161984175695e-01 -3.429767975389092e-17

-2.605241483832957e-17 -1.052366846024567e-19  1.011628665028240e+00
-1.052366846024567e-19 -1.686858866000877e-17  4.045738715777772e-01
 1.011628665028240e+00  4.045738715777772e-01 -3.466908434560691e-17

-2.579443204285585e-17 -1.079674634942590e-19  9.953744863899154e-01
-1.079674634942590e-19 -1.670031577294571e-17  4.184177580419725e-01
 9.953744863899154e-01  4.184177580419725e-01 -3.404650599752332e-17

-2.581987823661503e-17 -1.294203917103880e-19  1.012712216477818e+00
-1.294203917103880e-19 -1.816269541762742e-17  3.753027382748775e-01
 1.012712216477818e+00  3.753027382748775e-01 -3.463034970043424e-17

-2.549935566019435e-17 -1.284442534134227e-19  9.890745441867818e-01
-1.284442534134227e-19 -1.277338016154612e-17  3.998856731152725e-01
 9.890745441867818e-01  3.998856731152725e-01 -3.376985516787798e-17

-2.545041104650870e-17 -1.420730279509245e-19  9.856868584871373e-01
-1.420730279509245e-19 -2.425697417202119e-17  4.125182710756645e-01
 9.856868584871373e-01  4.125182710756645e-01 -3.364711204462699e-17

-2.536329606666281e-17 -1.345635524506511e-19  9.847976434289643e-01
-1.345635524506511e-19 -1.679804742520811e-17  4.068616852684157e-01
 9.847976434289643e-01  4.068616852684157e-01 -3.360316491343759e-17

-2.511356885628343e-17 -1.328893158570091e-19  9.676482208989401e-01
-1.328893158570091e-19 -1.452131542903834e-17  4.161029147580851e-01
 9.676482208989401e-01  4.161029147580851e-01 -3.298454291428563e-17

-2.508151033352558e-17 -1.395884681971488e-19  9.737132912562141e-01
-1.395884681971488e-19 -1.828540694017938e-17  4.007446991048388e-01
 9.737132912562141e-01  4.007446991048388e-01 -3.319835307254425e-17

-2.511827112962956e-17 -1.341778130146398e-19  9.757724965729087e-01
-1.341778130146398e-19 -1.213757447554710e-17  4.070838297685540e-01
 9.757724965729087e-01  4.070838297685540e-01 -3.329888856593943e-17

-2.522949512086732e-17 -1.305835304086296e-19  9.860806962483051e-01
-1.305835304086296e-19 -1.725763349145922e-17  4.018181679740631e-01
 9.860806962483051e-01  4.018181679740631e-01 -3.367392808901236e-17

-2.513871952852867e-17 -1.068245594427650e-19  9.813402822329630e-01
-1.068245594427650e-19 -2.156279999634433e-17  4.016592492228558e-01
 9.813402822329630e-01  4.016592492228558e-01 -3.353026925076874e-17

-2.516723745001472e-17 -9.103306207442313e-20  9.804888691095535e-01
-9.103306207442313e-20 -1.670046479838385e-17  4.016146595085308e-01
 9.804888691095535e-01  4.016146595085308e-01 -3.351341879350481e-17

-2.507116250515251e-17 -7.679717147406321e-20  9.787006432858615e-01
-7.679717147406321e-20 -2.324828692651033e-17  4.043697981348023e-01
 9.787006432858615e-01  4.043697981348023e-01 -3.346102781623079e-17

-2.506609532300921e-17 -4.264220633931146e-20  9.819118951992264e-01
-4.264220633931146e-20 -2.714808083615211e-19  3.950790886842491e-01
 9.819118951992264e-01  3.950790886842491e-01 -3.356714012019151e-17

-2.503587471997868e-17 -4.592690868693048e-20  9.732206271749694e-01
-4.592690868693048e-20 -8.045271683944758e-18  4.071881862500520e-01
 9.732206271749694e-01  4.071881862500520e-01 -3.326039920223163e-17

-2.499096327868501e-17 -3.345115225814012e-20  9.785117856448855e-01
-3.345115225814012e-20 -1.902580903682419e-18  3.980350748976005e-01
 9.785117856448855e-01  3.980350748976005e-01 -3.343582901698101e-17

-2.494844824773497e-17 -6.107737336540489e-20  9.752280596724258e-01
-6.107737336540489e-20 -2.171612290674355e-17  4.012665798124028e-01
 9.752280596724258e-01  4.012665798124028e-01 -3.330915576610708e-17

-2.503061808677592e-17 -5.655979075199556e-20  9.798242135165701e-01
-5.655979075199556e-20 -1.367845837826130e-17  4.002430646290778e-01
 9.798242135165701e-01  4.002430646290778e-01 -3.346936967358216e-17

-2.501174106046391e-17 -4.665457531629630e-20  9.816712801547598e-01
-4.665457531629630e-20 -1.283728306451329e-17  4.015058211691169e-01
 9.816712801547598e-01  4.015058211691169e-01 -3.353172384563634e-17

-2.492186798790029e-17 -4.407922697893998e-20  9.783570086526545e-01
-4.407922697893998e-20 -1.682371298681777e-17  4.005020294224518e-01
 9.783570086526545e-01  4.005020294224518e-01 -3.340632330781127e-17

-2.493671817203208e-17 -4.436048791217056e-20  9.822294457881979e-01
-4.436048791217056e-20 -1.747226785535759e-17  3.919579394324956e-01
 9.822294457881979e-01  3.919579394324956e-01 -3.353842103721486e-17

-2.485847881500993e-17 -4.614047464514127e-20  9.740030721432216e-01
-4.614047464514127e-20 -1.491148908307913e-17  4.052628477404574e-01
 9.740030721432216e-01  4.052628477404574e-01 -3.324272365206630e-17

-2.493347337636578e-17 -5.330399927016976e-20  9.822761603763882e-01
-5.330399927016976e-20 -1.535974161536309e-17  4.022888313512509e-01
 9.822761603763882e-01  4.022888313512509e-01 -3.354499831480293e-17

-2.496251165211071e-17 -5.584400285941613e-20  9.833528140408681e-01
-5.584400285941613e-20 -1.291849179259104e-17  4.019459511680545e-01
 9.833528140408681e-01  4.019459511680545e-01 -3.357626725235942e-17

-2.479563732273998e-17 -5.155509356230153e-20  9.757865577594023e-01
-5.155509356230153e-20 -1.943377491910065e-17  4.073810718435416e-01
 9.757865577594023e-01  4.073810718435416e-01 -3.330308339005518e-17

-2.478065141083501e-17 -5.438844090391461e-20  9.832936045144007e-01
-5.438844090391461e-20 -1.597849173737440e-17  3.791714330930481e-01
 9.832936045144007e-01  3.791714330930481e-01 -3.354371351877285e-17

-2.487976816643369e-17 -4.051222868020559e-20  9.914826071063986e-01
-4.051222868020559e-20 -8.843887424348418e-18  3.748981542047979e-01
 9.914826071063986e-01  3.748981542047979e-01 -3.384103267674831e-17

-2.476749267772717e-17 -5.208112964578171e-20  9.730893427291766e-01
-5.208112964578171e-20 -1.489675460212127e-17  4.196398891778648e-01
 9.730893427291766e-01  4.196398891778648e-01 -3.323920663570710e-17

-2.492579763640011e-17 -3.339584257708114e-20  9.875714655887549e-01
-3.339584257708114e-20 -1.129883037818719e-17  4.036067696421376e-01
 9.875714655887549e-01  4.036067696421376e-01 -3.374456365868327e-17

-2.489701014861074e-17 -2.248858741333840e-20  9.882076356432928e-01
-2.248858741333840e-20 -3.197554192586219e-18  3.954341080516641e-01
 9.882076356432928e-01  3.954341080516641e-01 -3.376912173343157e-17

-2.482120236535953e-17 -2.713775127400956e-20  9.830027647166033e-01
-2.713775127400956e-20 -9.722288824589150e-18  3.987673476667837e-01
 9.830027647166033e-01  3.987673476667837e-01 -3.357805123823633e-17

-2.475639196325576e-17 -2.481201069833001e-20  9.796031483213120e-01
-2.481201069833001e-20 -1.715857252417150e-17  4.012892126818118e-01
 9.796031483213120e-01  4.012892126818118e-01 -3.346234075211076e-17

-2.474472200771478e-17  1.082437689949720e-21  9.795129864713571e-01
 1.082437689949720e-21 -8.503702739892615e-18  3.994723162998969e-01
 9.795129864713571e-01  3.994723162998969e-01 -3.347062306421707e-17

-2.476863377395510e-17 -2.693377522466624e-20  9.820721224870853e-01
-2.693377522466624e-20 -1.638703286060285e-17  3.975929528679089e-01
 9.820721224870853e-01  3.975929528679089e-01 -3.356166508101895e-17

-2.480341729337958e-17  3.247094741079014e-21  9.834389535796900e-01
 3.247094741079014e-21 -1.042789062539935e-17  4.030895598352539e-01
 9.834389535796900e-01  4.030895598352539e-01 -3.363284708649397e-17

-2.491252402911223e-17  1.772896695732611e-20  9.902193886091374e-01
 1.772896695732611e-20 -5.784536772701659e-18  3.949885921927447e-01
 9.902193886091374e-01  3.949885921927447e-01 -3.387639857733021e-17

-2.488577660693615e-17  3.069778814994862e-20  9.893576979414609e-01
 3.069778814994862e-20 -1.587563541179681e-17  4.006088726335013e-01
 9.893576979414609e-01  4.006088726335013e-01 -3.385864626798295e-17

-2.496847585126316e-17  3.461559227404432e-20  9.967696817003049e-01
 3.461559227404432e-20 -6.508633983088916e-18  3.957633398854573e-01
 9.967696817003049e-01  3.957633398854573e-01 -3.412069495218700e-17

-2.483528526043132e-17  3.928997045804715e-20  9.855208327349746e-01
 3.928997045804715e-20 -1.551862169642553e-17  4.039916697682255e-01
 9.855208327349746e-01  4.039916697682255e-01 -3.372069441284157e-17

-2.478582844550099e-17  3.834653251780221e-20  9.844116719124761e-01
 3.834653251780221e-20 -1.442951703742463e-17  4.005009662915726e-01
 9.844116719124761e-01  4.005009662915726e-01 -3.366564407339860e-17

-2.474908903727586e-17  5.505484501571347e-20  9.774952196751666e-01
 5.505484501571347e-20 -2.380020840115851e-17  4.082807652689383e-01
 9.774952196751666e-01  4.082807652689383e-01 -3.341287468724542e-17

-2.483289439522671e-17  3.447620114377647e-20  9.851250952356602e-01
 3.447620114377647e-20 -1.556318560789928e-17  4.056880593102477e-01
 9.851250952356602e-01  4.056880593102477e-01 -3.368325077827847e-17

-2.496089793637015e-17  3.054527940380416e-20  9.968144966615909e-01
 3.054527940380416e-20 -1.590900354593174e-17  4.008928120552557e-01
 9.968144966615909e-01  4.008928120552557e-01 -3.410105617830382e-17

-2.489269245800010e-17  4.368007625198327e-20  9.921993759736615e-01
 4.368007625198327e-20 -2.061838547708933e-17  4.053880159682802e-01
 9.921993759736615e-01  4.053880159682802e-01 -3.393263409831993e-17

-2.486798524541276e-17  4.421471444129770e-20  9.857220586151956e-01
 4.421471444129770e-20 -9.706406537279656e-18  4.088442743923404e-01
 9.857220586151956e-01  4.088442743923404e-01 -3.369067466475210e-17

-2.472971323751145e-17  4.570573897322614e-20  9.783574793055632e-01
 4.570573897322614e-20 -1.091160328301895e-17  4.163377914272858e-01
 9.783574793055632e-01  4.163377914272858e-01 -3.342125742827681e-17

-2.488209850687931e-17  2.858517831238817e-20  9.918411673469134e-01
 2.858517831238817e-20 -1.223196834484083e-17  4.084261669353333e-01
 9.918411673469134e-01  4.084261669353333e-01 -3.390169361977295e-17

-2.500076105948973e-17  2.901622168165765e-20  9.984574430895121e-01
 2.901622168165765e-20 -1.914148456612454e-17  4.071507703414847e-01
 9.984574430895121e-01  4.071507703414847e-01 -3.413271850952027e-17

-2.499227096747196e-17  1.401920634418816e-20  9.998862479229028e-01
 1.401920634418816e-20 -7.923573050265919e-18  4.061368203156355e-01
 9.998862479229028e-01  4.061368203156355e-01 -3.418047024061956e-17

-2.507680110590753e-17  1.704743249977852e-20  1.005581941471382e+00
 1.704743249977852e-20 -2.033878201127654e-17  4.074838340814056e-01
 1.005581941471382e+00  4.074838340814056e-01 -3.437991927974476e-17

-2.512997286078464e-17  1.417002381826806e-20  1.004694568501732e+00
 1.417002381826806e-20 -1.100293431507739e-17  4.087662797736327e-01
 1.004694568501732e+00  4.087662797736327e-01 -3.434541331628233e-17

-2.497751145402874e-17  1.679557345184512e-21  9.984738406187210e-01
 1.679557345184512e-21 -1.058521712995278e-17  4.129655703198796e-01
 9.984738406187210e-01  4.129655703198796e-01 -3.411473874219919e-17

-2.499084563626617e-17  3.214380909064170e-21  9.988828563837492e-01
 3.214380909064170e-21 -1.131639493562435e-17  4.120858635626894e-01
 9.988828563837492e-01  4.120858635626894e-01 -3.411773014991211e-17

-2.503611531627719e-17  2.345333747437433e-21  1.003009496812060e+00
 2.345333747437433e-21 -1.324615036812423e-17  4.111952343591468e-01
 1.003009496812060e+00  4.111952343591468e-01 -3.426288977790427e-17

-2.510361745547984e-17  5.098787832783582e-21  1.007369186772620e+00
 5.098787832783582e-21 -1.951664844317948e-17  4.132319998047089e-01
 1.007369186772620e+00  4.132319998047089e-01 -3.441932224259697e-17

-2.511248068088613e-17 -5.198172185685718e-22  1.008874521301195e+00
-5.198172185685718e-22 -1.962859738936541e-17  4.138244840254479e-01
 1.008874521301195e+00  4.138244840254479e-01 -3.446961220646868e-17

-2.506463671567314e-17 -9.678037457802847e-21  1.005149898206853e+00
-9.678037457802847e-21 -1.208481676484150e-17  4.153408624862923e-01
 1.005149898206853e+00  4.153408624862923e-01 -3.433085075461687e-17

-2.504741679586604e-17 -1.196164837810674e-20  1.005455405776249e+00
-1.196164837810674e-20 -1.519762909017005e-17  4.147023430916400e-01
 1.005455405776249e+00  4.147023430916400e-01 -3.432628146544638e-17

-2.505230581968431e-17 -2.597560203290019e-20  1.004173216689249e+00
-2.597560203290019e-20 -1.668713223237064e-17  4.215412040816224e-01
 1.004173216689249e+00  4.215412040816224e-01 -3.427543375000077e-17

-2.498465165891913e-17 -3.208286690171996e-20  1.000443917546002e+00
-3.208286690171996e-20 -1.400073264539419e-17  4.241080582655644e-01
 1.000443917546002e+00  4.241080582655644e-01 -3.413394537973385e-17

-2.507507940851105e-17 -4.472951126028095e-20  1.008266099386874e+00
-4.472951126028095e-20 -1.215747108906741e-17  4.192616659969469e-01
 1.008266099386874e+00  4.192616659969469e-01 -3.440983072385231e-17

-2.524251513259060e-17 -5.442951216143638e-20  1.021517923635319e+00
-5.442951216143638e-20 -1.677827440010883e-17  4.095309872611636e-01
 1.021517923635319e+00  4.095309872611636e-01 -3.486922725052694e-17

-2.515325731235568e-17 -6.407920157255429e-20  1.014884353374327e+00
-6.407920157255429e-20 -1.731041141417140e-17  4.188173383578421e-01
 1.014884353374327e+00  4.188173383578421e-01 -3.463217835038628e-17

-2.515822740736772e-17 -7.138333539666306e-20  1.013561732983004e+00
-7.138333539666306e-20 -1.616405982407483e-17  4.273844210685348e-01
 1.013561732983004e+00  4.273844210685348e-01 -3.458314216643542e-17

-2.518434688232350e-17 -8.164671768090913e-20  1.020292911788462e+00
-8.164671768090913e-20 -6.469352786505934e-18  4.124608630120611e-01
 1.020292911788462e+00  4.124608630120611e-01 -3.481485178172607e-17

-2.498991883439939e-17 -8.853418694128112e-20  1.004597769249027e+00
-8.853418694128112e-20 -8.442970241628941e-18  4.204119514537998e-01
 1.004597769249027e+00  4.204119514537998e-01 -3.423709633983141e-17

-2.501198684229509e-17 -9.110940975331385e-20  1.009233867691525e+00
-9.110940975331385e-20 -1.612600063712333e-17  4.181148481011607e-01
 1.009233867691525e+00  4.181148481011607e-01 -3.439930210781382e-17

-2.508177189020415e-17 -9.895517070387084e-20  1.013669391275981e+00
-9.895517070387084e-20 -1.550677553896782e-17  4.254437155384571e-01
 1.013669391275981e+00  4.254437155384571e-01 -3.457473543635745e-17

-2.492086085168630e-17 -1.058027584415719e-19  1.004864128955800e+00
-1.058027584415719e-19 -1.449737448380745e-17  4.283386549174381e-01
 1.004864128955800e+00  4.283386549174381e-01 -3.425666272889818e-17

-2.470309230975360e-17 -1.043850150742618e-19  9.905674595208339e-01
-1.043850150742618e-19 -1.417470195057685e-17  4.320313511822483e-01
 9.905674595208339e-01  4.320313511822483e-01 -3.374369284834913e-17

-2.468063605651534e-17 -8.791033005567488e-20  9.910766533677471e-01
-8.791033005567488e-20 -1.700407643945909e-17  4.227507297737031e-01
 9.910766533677471e-01  4.227507297737031e-01 -3.374621058252171e-17

-2.490569718071293e-17 -7.903819149763862e-20  1.000059054307112e+00
-7.903819149763862e-20 -1.252621262197070e-17  4.265425149753823e-01
 1.000059054307112e+00  4.265425149753823e-01 -3.411008952270592e-17

-2.548673169965284e-17 -7.071723442925995e-20  1.028599729635889e+00
-7.071723442925995e-20 -8.511824194300287e-18  4.261239870283879e-01
 1.028599729635889e+00  4.261239870283879e-01 -3.522282838040004e-17

-2.669134691772005e-17  1.117105489567481e-19  1.114853374205589e+00
 1.117105489567481e-19 -1.426259968635523e-17  3.456453159929643e-01
 1.114853374205589e+00  3.456453159929643e-01 -3.807477610213873e-17

-2.793483883818864e-17 -2.511201458049755e-19  1.133312388703343e+00
-2.511201458049755e-19 -2.300121818212050e-17  5.083140218875616e-01
 1.133312388703343e+00  5.083140218875616e-01 -3.994207145162099e-17

-2.855773883238197e-17  1.381239953666609e-19  1.193248242634088e+00
 1.381239953666609e-19 -1.044359863796048e-17  4.872090664055085e-01
 1.193248242634088e+00  4.872090664055085e-01 -4.167346769344351e-17

-2.585575798408744e-17 -2.242757854820727e-19  1.049568261957963e+00
-2.242757854820727e-19 -9.577911413549630e-18  3.872831871227287e-01
 1.049568261957963e+00  3.872831871227287e-01 -3.618360754451436e-17

-2.453547349487688e-17 -1.048061614157803e-19  9.781966073342372e-01
-1.048061614157803e-19 -1.525003873855571e-17  4.067796008258660e-01
 9.781966073342372e-01  4.067796008258660e-01 -3.340032581547882e-17

-2.458891045997795e-17 -2.127619109792430e-20  9.836471508413365e-01
-2.127619109792430e-20 -8.920556945402009e-18  4.336150038636536e-01
 9.836471508413365e-01  4.336150038636536e-01 -3.354678830528885e-17

-2.483973723793710e-17 -1.797753117660347e-20  1.001805436931821e+00
-1.797753117660347e-20 -1.444783407896108e-17  4.275064067905316e-01
 1.001805436931821e+00  4.275064067905316e-01 -3.422885432291991e-17

-2.504630490028263e-17 -1.193142452909233e-20  1.015095892942738e+00
-1.193142452909233e-20 -1.471427177154572e-17  4.233372927669670e-01
 1.015095892942738e+00  4.233372927669670e-01 -3.472522469523573e-17

-2.509361491854494e-17 -1.461920900369367e-20  1.024333806047899e+00
-1.461920900369367e-20 -2.436518171083939e-17  4.012642472278878e-01
 1.024333806047899e+00  4.012642472278878e-01 -3.504843174191195e-17

-2.491412903566349e-17  9.440503239448842e-22  1.007432326230375e+00
 9.440503239448842e-22 -1.424604642867226e-17  4.205807361216680e-01
 1.007432326230375e+00  4.205807361216680e-01 -3.444926880938085e-17

-2.494312414791789e-17 -7.382864539247700e-21  1.014840336312960e+00
-7.382864539247700e-21 -1.674863232355205e-17  4.078976390926108e-01
 1.014840336312960e+00  4.078976390926108e-01 -3.470961358436667e-17

-2.479482962970836e-17 -2.618711352316705e-21  1.008324143933116e+00
-2.618711352316705e-21 -2.419202216030663e-17  4.055100191143624e-01
 1.008324143933116e+00  4.055100191143624e-01 -3.446410318710286e-17

-2.465307781006422e-17  3.865387561712390e-21  1.000296545226169e+00
 3.865387561712390e-21  9.545405945495644e-18  4.043322020790159e-01
 1.000296545226169e+00  4.043322020790159e-01 -3.417099317908241e-17

-2.446023382011829e-17  2.441617001675831e-21  9.896644245945622e-01
 2.441617001675831e-21 -5.819190813988595e-18  4.058995260031771e-01
 9.896644245945622e-01  4.058995260031771e-01 -3.377592542144319e-17

-2.436508506602928e-17  4.526817398835593e-21  9.865578277167172e-01
 4.526817398835593e-21 -1.535110494190699e-17  4.048504019924278e-01
 9.865578277167172e-01  4.048504019924278e-01 -3.365503663702128e-17

-2.432461139975595e-17  1.784480249699844e-20  9.863867908866439e-01
 1.784480249699844e-20 -7.271090585166285e-18  4.024004780733562e-01
 9.863867908866439e-01  4.024004780733562e-01 -3.363772904310435e-17

-2.424873978112232e-17 -3.083315061457903e-21  9.844785666768748e-01
-3.083315061457903e-21 -1.817501254822301e-17  3.984697232013379e-01
 9.844785666768748e-01  3.984697232013379e-01 -3.355804664031412e-17

-2.403550111084710e-17 -1.486960493627334e-20  9.740932264537771e-01
-1.486960493627334e-20 -2.882966110446833e-17  3.997111419703081e-01
 9.740932264537771e-01  3.997111419703081e-01 -3.316950668610250e-17

-2.389315790290778e-17  3.381401756607698e-20  9.662832886788953e-01
 3.381401756607698e-20  2.277180372428214e-18  3.995157763988111e-01
 9.662832886788953e-01  3.995157763988111e-01 -3.286899517191914e-17

-2.367685807474078e-17  2.950233822104382e-20  9.570071826378410e-01
 2.950233822104382e-20 -3.327050062459729e-18  4.047898904615464e-01
 9.570071826378410e-01  4.047898904615464e-01 -3.252667303630173e-17

-2.325634074796441e-17  7.179219391832574e-20  9.331356192732368e-01
 7.179219391832574e-20  9.850397555164807e-18  4.145464045602611e-01
 9.331356192732368e-01  4.145464045602611e-01 -3.164141907216011e-17

-2.276215961773725e-17 -1.954553588742220e-20  9.081921834732808e-01
-1.954553588742220e-20 -1.537180560397255e-17  3.966212555989985e-01
 9.081921834732808e-01  3.966212555989985e-01 -3.072941909012467e-17

-2.339159130113757e-17 -7.121712850841114e-21  9.706812089431086e-01
-7.121712850841114e-21 -7.865564394588793e-18  3.258497547002749e-01
 9.706812089431086e-01  3.258497547002749e-01 -3.293721461796340e-17

-2.270893505377858e-17  6.878958978777717e-20  9.037010144391264e-01
 6.878958978777717e-20  1.044472818311990e-17  4.004703458987962e-01
 9.037010144391264e-01  4.004703458987962e-01 -3.052845131486210e-17

-2.336433614715005e-17 -1.153580512834204e-19  9.381405956344475e-01
-1.153580512834204e-19 -5.275579851093926e-17  4.164404209904780e-01
 9.381405956344475e-01  4.164404209904780e-01 -3.183124530702844e-17

-2.375120684433704e-17  1.505900582182840e-19  9.596773179912674e-01
 1.505900582182840e-19  5.380340322446126e-17  4.086081752148345e-01
 9.596773179912674e-01  4.086081752148345e-01 -3.260591501286682e-17

-2.391969388180064e-17 -1.101176167570392e-19  9.692177155012780e-01
-1.101176167570392e-19 -6.188921547087841e-17  4.046554937265374e-01
 9.692177155012780e-01  4.046554937265374e-01 -3.294522983292351e-17

-2.401691267863630e-17 -5.141543410370270e-20  9.738637347098388e-01
-5.141543410370270e-20 -2.967980716406606e-17  4.045519927665883e-01
 9.738637347098388e-01  4.045519927665883e-01 -3.310865853065681e-17

-2.415574760374035e-17 -9.043208091020106e-20  9.811795228730464e-01
-9.043208091020106e-20 -4.307285678135727e-17  4.005727279296460e-01
 9.811795228730464e-01  4.005727279296460e-01 -3.336117095422118e-17

-2.422526753569080e-17 -1.231861024286636e-20  9.845108835834340e-01
-1.231861024286636e-20 -2.417632335241803e-18  4.011553174063272e-01
 9.845108835834340e-01  4.011553174063272e-01 -3.348124608431516e-17

-2.435380523670600e-17 -1.181639457424996e-20  9.902113914971508e-01
-1.181639457424996e-20  6.111841433974830e-18  4.041035077091980e-01
 9.902113914971508e-01  4.041035077091980e-01 -3.368389988446093e-17

-2.578666008506534e-17  1.530923810603359e-19  1.066054132750873e+00
 1.530923810603359e-19 -2.038701201257064e-17  3.955950852789501e-01
 1.066054132750873e+00  3.955950852789501e-01 -3.670110562684819e-17

-2.552656764410980e-17  1.938007627898865e-19  1.045915159060567e+00
 1.938007627898865e-19 -1.379306950072437e-17  3.969734036848503e-01
 1.045915159060567e+00  3.969734036848503e-01 -3.588400975873026e-17

-2.595892304723039e-17 -7.456629138824385e-20  1.071669882936629e+00
-7.456629138824385e-20 -2.024480781421521e-17  4.354620728051627e-01
 1.071669882936629e+00  4.354620728051627e-01 -3.754449680364365e-17

-2.006790768676394e-17 -7.859160249348604e-19  5.583237982809800e-01
-7.859160249348604e-19 -8.749889596273662e-18  8.051780240381752e-01
 5.583237982809800e-01  8.051780240381752e-01 -2.239070574911938e-17

-2.528248682886696e-17  7.445127157531973e-19  1.149525488622739e+00
 7.445127157531973e-19 -4.663194265302097e-18  1.862628061229282e-01
 1.149525488622739e+00  1.862628061229282e-01 -3.736194510739835e-17

-2.181174283404715e-17  6.738348873187510e-19  8.946417307879103e-01
 6.738348873187510e-19 -7.114350681210944e-18  2.667924072974630e-01
 8.946417307879103e-01  2.667924072974630e-01 -2.864365247789547e-17

-2.250766765261480e-17  2.858558404453150e-19  8.816336888855989e-01
 2.858558404453150e-19 -2.116819928233336e-17  4.546392820240512e-01
 8.816336888855989e-01  4.546392820240512e-01 -2.977069412429332e-17

-2.337434071936402e-17  2.532106801053862e-19  9.343863604445066e-01
 2.532106801053862e-19 -2.056285844044577e-17  4.256057720354320e-01
 9.343863604445066e-01  4.256057720354320e-01 -3.174798574563662e-17

-2.390815731935986e-17  2.524399529132513e-19  9.617495672270798e-01
 2.524399529132513e-19 -1.951425137490911e-17  4.162477154013536e-01
 9.617495672270798e-01  4.162477154013536e-01 -3.277965017230349e-17

-2.433473783404264e-17  2.504173274611383e-19  9.819395071763248e-01
 2.504173274611383e-19 -1.669796735758909e-17  4.121264247881901e-01
 9.819395071763248e-01  4.121264247881901e-01 -3.355712311206916e-17

-2.468895362242490e-17  2.401323985526308e-19  9.982053274513439e-01
 2.401323985526308e-19 -1.216834662889874e-17  4.092892028871014e-01
 9.982053274513439e-01  4.092892028871014e-01 -3.419532066473970e-17

-2.509606577848533e-17  2.359541608457286e-19  1.017309849375040e+00
 2.359541608457286e-19 -1.019683206557622e-17  4.073594832824926e-01
 1.017309849375040e+00  4.073594832824926e-01 -3.494318956037502e-17

-2.566335369480718e-17  2.371329152201738e-19  1.048688420020958e+00
 2.371329152201738e-19 -1.081494553311932e-17  4.037285224916212e-01
 1.048688420020958e+00  4.037285224916212e-01 -3.613457382253224e-17

-2.557261812986461e-17  2.588217987286328e-19  1.029643398948358e+00
 2.588217987286328e-19 -1.671926131823600e-17  4.410188913044962e-01
 1.029643398948358e+00  4.410188913044962e-01 -3.548364586026866e-17

-2.587276839743509e-17  2.290188575646107e-19  1.056864859576663e+00
 2.290188575646107e-19 -1.958710225206976e-17  4.136940861578342e-01
 1.056864859576663e+00  4.136940861578342e-01 -3.646374836873167e-17

-2.556969498415240e-17  2.110911627700039e-19  1.038519626890746e+00
 2.110911627700039e-19 -1.618483996277686e-17  4.114726552320050e-01
 1.038519626890746e+00  4.114726552320050e-01 -3.576562306458803e-17

-2.545728287843818e-17  1.975893500181397e-19  1.031814011282805e+00
 1.975893500181397e-19 -1.531471760312831e-17  4.178823558071818e-01
 1.031814011282805e+00  4.178823558071818e-01 -3.550334068704268e-17

-2.540773719566750e-17  1.801435629620906e-19  1.029594728966572e+00
 1.801435629620906e-19 -1.032257430882072e-17  4.202272600477713e-01
 1.029594728966572e+00  4.202272600477713e-01 -3.540126848116126e-17

-2.544149530820637e-17  1.633994345389603e-19  1.031934028204380e+00
 1.633994345389603e-19 -1.342443875207284e-17  4.207360057126286e-01
 1.031934028204380e+00  4.207360057126286e-01 -3.547049063647293e-17

-2.549454317033874e-17  1.422731200218263e-19  1.034915291193370e+00
 1.422731200218263e-19 -1.554364931975791e-17  4.288652021176454e-01
 1.034915291193370e+00  4.288652021176454e-01 -3.556845392088443e-17

-2.523458707822607e-17  1.164807622791420e-19  1.021345367300483e+00
 1.164807622791420e-19 -1.839500627882161e-17  4.221261736784985e-01
 1.021345367300483e+00  4.221261736784985e-01 -3.502264161994604e-17

-2.535498076513230e-17  9.388699351106450e-20  1.028730496951339e+00
 9.388699351106450e-20 -1.290267821822453e-17  4.330869957447448e-01
 1.028730496951339e+00  4.330869957447448e-01 -3.528437273054560e-17

-2.554017149553965e-17  7.962952628255357e-20  1.041852188894049e+00
 7.962952628255357e-20 -1.491906777168721e-17  4.194624546119237e-01
 1.041852188894049e+00  4.194624546119237e-01 -3.573051533329248e-17

-2.550799929115944e-17  7.585673601218548e-20  1.036821011798509e+00
 7.585673601218548e-20 -1.143063208890880e-17  4.242170261419396e-01
 1.036821011798509e+00  4.242170261419396e-01 -3.553883113145793e-17

-2.548244347161517e-17  6.722374651612327e-20  1.031379062902478e+00
 6.722374651612327e-20 -1.673214001047908e-17  4.333246719905890e-01
 1.031379062902478e+00  4.333246719905890e-01 -3.533695635162829e-17

-2.163047762294503e-17 -8.736855455083918e-19  1.033882533894569e+00
-8.736855455083918e-19 -1.484403067595965e-17  4.327491993322192e-01
 1.033882533894569e+00  4.327491993322192e-01 -3.541521837283358e-17

-4.937269677894220e-17  5.816938224379593e-18  1.032478386960584e+00
 5.816938224379593e-18 -1.568883066695707e-17  4.286852131525786e-01
 1.032478386960584e+00  4.286852131525786e-01 -3.534210233691325e-17

 4.447813767023441e-18 -7.205171535626488e-18  1.033468431985353e+00
-7.205171535626488e-18 -1.391213220783913e-17  4.272766251555963e-01
 1.033468431985353e+00  4.272766251555963e-01 -3.536971364929553e-17

 1.357243753957553e-17 -9.447360050962447e-18  1.023380045155585e+00
-9.447360050962447e-18 -1.146946937990588e-17  4.597992795014075e-01
 1.023380045155585e+00  4.597992795014075e-01 -3.504017103234420e-17

 2.895518392652259e-17 -1.327058745556371e-17  1.049396005980066e+00
-1.327058745556371e-17 -8.069057189313320e-18  4.275362944310908e-01
 1.049396005980066e+00  4.275362944310908e-01 -3.595560884736845e-17

-2.492356230196123e-17 -1.386396016665068e-19  1.041448139276818e+00
-1.386396016665068e-19 -1.365733478078384e-17  4.301796190932268e-01
 1.041448139276818e+00  4.301796190932268e-01 -3.566926074143744e-17

-2.387266796827589e-17 -4.032365945740106e-19  1.042975504055383e+00
-4.032365945740106e-19 -1.441629624304199e-17  4.287060330571412e-01
 1.042975504055383e+00  4.287060330571412e-01 -3.572233105345984e-17

-2.601998220021824e-17  1.390147858006216e-19  1.037209681146540e+00
 1.390147858006216e-19 -1.442783178233606e-17  4.361475857425870e-01
 1.037209681146540e+00  4.361475857425870e-01 -3.552513742918432e-17

-2.555486785837591e-17  2.650836160613435e-20  1.038831746833077e+00
 2.650836160613435e-20 -1.103680900905171e-17  4.266054229411600e-01
 1.038831746833077e+00  4.266054229411600e-01 -3.556134736336561e-17

-2.562836818250971e-17  4.733042720587855e-20  1.033963715877021e+00
 4.733042720587855e-20 -8.971794186729305e-18  4.362140813324609e-01
 1.033963715877021e+00  4.362140813324609e-01 -3.539183209967686e-17

-2.552061484557239e-17  2.965963434259972e-20  1.031558197484709e+00
 2.965963434259972e-20 -1.204866790510626e-17  4.375929132631073e-01
 1.031558197484709e+00  4.375929132631073e-01 -3.530250833688154e-17

-2.552080753762859e-17  3.439025391067677e-20  1.030978991705169e+00
 3.439025391067677e-20 -1.297664423557092e-17  4.341752246887167e-01
 1.030978991705169e+00  4.341752246887167e-01 -3.526571740986237e-17

-2.553100753652978e-17  3.096814130374353e-20  1.031439251637900e+00
 3.096814130374353e-20 -1.842286865442297e-17  4.338086656299852e-01
 1.031439251637900e+00  4.338086656299852e-01 -3.527062113565328e-17

-2.557633733656236e-17  2.255686808822685e-20  1.032802210664073e+00
 2.255686808822685e-20 -1.311449240291402e-17  4.313796537577761e-01
 1.032802210664073e+00  4.313796537577761e-01 -3.531009418203833e-17

-2.555067936876051e-17  2.912389766779617e-20  1.030529603042699e+00
 2.912389766779617e-20 -1.754038422489801e-17  4.369265145978975e-01
 1.030529603042699e+00  4.369265145978975e-01 -3.524100122795134e-17

-2.559571208282425e-17  3.144622784784280e-20  1.032223998173077e+00
 3.144622784784280e-20 -1.154226070646685e-17  4.318585061067002e-01
 1.032223998173077e+00  4.318585061067002e-01 -3.529307140079088e-17

-2.555321143206405e-17  3.997114007084156e-20  1.029532452287911e+00
 3.997114007084156e-20 -1.723717876228735e-17  4.344476092359168e-01
 1.029532452287911e+00  4.344476092359168e-01 -3.521016713428764e-17

-2.557850012541785e-17  4.037790701108954e-20  1.031844962399047e+00
 4.037790701108954e-20 -1.873719919268215e-17  4.292019217694424e-01
 1.031844962399047e+00  4.292019217694424e-01 -3.528979614724103e-17

-2.555991313016930e-17  4.487881852510008e-20  1.028707374270962e+00
 4.487881852510008e-20 -1.511329789604251e-17  4.350024413534589e-01
 1.028707374270962e+00  4.350024413534589e-01 -3.518506935978981e-17

-2.551183584057087e-17  4.735240005551863e-20  1.025548796344711e+00
 4.735240005551863e-20 -1.257604789667117e-17  4.343583924641790e-01
 1.025548796344711e+00  4.343583924641790e-01 -3.506958643595196e-17

-2.546870070239427e-17  4.748268517920983e-20  1.021998254952594e+00
 4.748268517920983e-20 -1.451820564824940e-17  4.342331284095829e-01
 1.021998254952594e+00  4.342331284095829e-01 -3.493769394579600e-17

-2.553766607175928e-17  4.809085039085923e-20  1.025959374238924e+00
 4.809085039085923e-20 -1.644566600358135e-17  4.315801159575835e-01
 1.025959374238924e+00  4.315801159575835e-01 -3.508564575684221e-17

-2.560701110472960e-17  5.060355920914895e-20  1.031057048522164e+00
 5.060355920914895e-20 -1.333995411760584e-17  4.285273427233123e-01
 1.031057048522164e+00  4.285273427233123e-01 -3.526834637332235e-17

-2.558154119878693e-17  5.599135133168008e-20  1.027502476654637e+00
 5.599135133168008e-20 -1.444988627712879e-17  4.320554786636887e-01
 1.027502476654637e+00  4.320554786636887e-01 -3.514924758726413e-17

-2.550443462625862e-17  6.633211075904641e-20  1.023126508663569e+00
 6.633211075904641e-20 -1.089599996825817e-17  4.284242784170481e-01
 1.023126508663569e+00  4.284242784170481e-01 -3.498015654386409e-17

-2.548108270031472e-17  6.619679297841874e-20  1.014792713271903e+00
 6.619679297841874e-20 -9.466750345353093e-18  4.380305351069315e-01
 1.014792713271903e+00  4.380305351069315e-01 -3.469527310833414e-17

-2.534191622496150e-17  7.470239904016372e-20  1.011842423383411e+00
 7.470239904016372e-20 -1.677561291001278e-17  4.320897286889220e-01
 1.011842423383411e+00  4.320897286889220e-01 -3.458203053249127e-17

-2.528241103094877e-17  8.859353088952326e-20  1.007933337981418e+00
 8.859353088952326e-20 -1.181021468039382e-17  4.312028266181589e-01
 1.007933337981418e+00  4.312028266181589e-01 -3.443986603000307e-17

-2.522660413804207e-17  8.659241407531408e-20  1.001862293562326e+00
 8.659241407531408e-20 -1.923209117539291e-17  4.378650211514260e-01
 1.001862293562326e+00  4.378650211514260e-01 -3.423469953477561e-17

-2.526493798073245e-17  8.280600903600459e-20  1.006129126610648e+00
 8.280600903600459e-20 -1.643108824560334e-17  4.222790392656930e-01
 1.006129126610648e+00  4.222790392656930e-01 -3.439465837020122e-17

-2.564560790506260e-17  9.603850123110763e-20  1.025679005472490e+00
 9.603850123110763e-20 -1.561127051093911e-17  4.296367024616585e-01
 1.025679005472490e+00  4.296367024616585e-01 -3.514762947113101e-17

-2.590813490498401e-17  8.005751204598271e-20  1.039611632674365e+00
 8.005751204598271e-20 -1.413637715426403e-17  4.335019335253210e-01
 1.039611632674365e+00  4.335019335253210e-01 -3.568441839562941e-17

-2.529462039254449e-17  5.278326799557538e-20  9.981873436902585e-01
 5.278326799557538e-20 -1.176424126391645e-17  4.396547908554024e-01
 9.981873436902585e-01  4.396547908554024e-01 -3.412963128153784e-17

-2.543687089457598e-17 -8.005113150678853e-20  1.016353711132629e+00
-8.005113150678853e-20 -1.276666363158010e-17  3.753494009493654e-01
 1.016353711132629e+00  3.753494009493654e-01 -3.481816793179152e-17

-2.622568634485170e-17  8.099261444687405e-20  1.046879045621982e+00
 8.099261444687405e-20 -1.616168036982195e-17  4.460926690530186e-01
 1.046879045621982e+00  4.460926690530186e-01 -3.592029273473943e-17

-2.716306684451530e-17  8.111130096307302e-20  1.098041598653295e+00
 8.111130096307302e-20 -1.200157631707681e-17  4.730016947931786e-01
 1.098041598653295e+00  4.730016947931786e-01 -3.789013828701661e-17

-2.625642751835842e-17  5.023429513124719e-20  1.049129877960880e+00
 5.023429513124719e-20 -1.324058365075394e-17  4.208626144030382e-01
 1.049129877960880e+00  4.208626144030382e-01 -3.599751338682968e-17

-2.585379839606319e-17  5.311157574314648e-20  1.024231116703511e+00
 5.311157574314648e-20 -1.378354413930183e-17  4.296470123638173e-01
 1.024231116703511e+00  4.296470123638173e-01 -3.508172102522263e-17

-2.586840320825967e-17  5.577283846341326e-20  1.024283340768727e+00
 5.577283846341326e-20 -1.404773074594213e-17  4.340947170391022e-01
 1.024283340768727e+00  4.340947170391022e-01 -3.509962243586637e-17

-2.587969465537220e-17  5.691540611067950e-20  1.024776805198246e+00
 5.691540611067950e-20 -1.444711076597303e-17  4.320391133596574e-01
 1.024776805198246e+00  4.320391133596574e-01 -3.511989669872471e-17

-2.586251973420606e-17  5.499711666792152e-20  1.022875412387328e+00
 5.499711666792152e-20 -1.479401424002468e-17  4.326002046049593e-01
 1.022875412387328e+00  4.326002046049593e-01 -3.505131489940048e-17

-2.576665020323067e-17  4.918612232632186e-20  1.017630107006460e+00
 4.918612232632186e-20 -1.717954160726500e-17  4.300656122615555e-01
 1.017630107006460e+00  4.300656122615555e-01 -3.484420805408744e-17

-2.573931628041427e-17  4.595733640093928e-20  1.014423176044168e+00
 4.595733640093928e-20 -1.502396046115533e-17  4.307899885071967e-01
 1.014423176044168e+00  4.307899885071967e-01 -3.472946939807492e-17

-2.575127737097622e-17  4.630281095034086e-20  1.013501080742867e+00
 4.630281095034086e-20 -1.886525962759424e-17  4.320582776731462e-01
 1.013501080742867e+00  4.320582776731462e-01 -3.469844875437252e-17

-2.575723659490905e-17  5.129433662779166e-20  1.013808149719422e+00
 5.129433662779166e-20 -1.615858520699347e-17  4.261488783185947e-01
 1.013808149719422e+00  4.261488783185947e-01 -3.470459272099916e-17

-2.578770188885392e-17  5.009959128571814e-20  1.013862511345202e+00
 5.009959128571814e-20 -1.539345174904385e-17  4.260708364940850e-01
 1.013862511345202e+00  4.260708364940850e-01 -3.471736519711724e-17

-2.599291878038651e-17  5.544727872255990e-20  1.023295092095375e+00
 5.544727872255990e-20 -1.319275049641432e-17  4.279506641284255e-01
 1.023295092095375e+00  4.279506641284255e-01 -3.508437526481784e-17

-2.603191565402987e-17  5.362730501321127e-20  1.023672615074888e+00
 5.362730501321127e-20 -1.245408047645331e-17  4.243684610914205e-01
 1.023672615074888e+00  4.243684610914205e-01 -3.510498990115565e-17

-2.593415564722489e-17  7.446040797578043e-20  1.013672640435509e+00
 7.446040797578043e-20 -1.171616034805484e-17  4.270041863075169e-01
 1.013672640435509e+00  4.270041863075169e-01 -3.474646832464606e-17

-2.610596474945139e-17  6.575864000722687e-20  1.028893514146640e+00
 6.575864000722687e-20 -1.188143082998521e-17  4.128976450401246e-01
 1.028893514146640e+00  4.128976450401246e-01 -3.529760447327780e-17

-2.606879585792731e-17  6.576367989902638e-20  1.022332294750948e+00
 6.576367989902638e-20 -1.688396523723567e-17  4.250173980330089e-01
 1.022332294750948e+00  4.250173980330089e-01 -3.507302508770853e-17

-2.603058167296332e-17  7.308508789832417e-20  1.018969416194440e+00
 7.308508789832417e-20 -1.386173715860370e-17  4.260363098143484e-01
 1.018969416194440e+00  4.260363098143484e-01 -3.496290992683740e-17

-2.600901031537607e-17  7.995180681803570e-20  1.017789519837626e+00
 7.995180681803570e-20 -1.640647165091551e-17  4.199697875664084e-01
 1.017789519837626e+00  4.199697875664084e-01 -3.492513645981234e-17

-2.586585304024708e-17  8.070068675211513e-20  1.006732943564307e+00
 8.070068675211513e-20 -1.542405543035127e-17  4.249134116502742e-01
 1.006732943564307e+00  4.249134116502742e-01 -3.453238683014974e-17

-2.583911964098496e-17  8.635784157481218e-20  1.004698717451032e+00
 8.635784157481218e-20 -1.171113398278728e-17  4.215647922434181e-01
 1.004698717451032e+00  4.215647922434181e-01 -3.446865387793371e-17

-2.588433983957036e-17  8.356395510582121e-20  1.007051484737118e+00
 8.356395510582121e-20 -1.305788052906231e-17  4.180704126331032e-01
 1.007051484737118e+00  4.180704126331032e-01 -3.456547539533262e-17

-2.597449321231632e-17  8.328268517532249e-20  1.011450415205504e+00
 8.328268517532249e-20 -1.892923491923645e-17  4.211393637456950e-01
 1.011450415205504e+00  4.211393637456950e-01 -3.474534190752467e-17

-2.583470190717420e-17  6.081087516100113e-20  1.001315523083512e+00
 6.081087516100113e-20 -1.918470707783447e-17  4.187290163995958e-01
 1.001315523083512e+00  4.187290163995958e-01 -3.437199512223332e-17

-2.594863485737037e-17  3.784763694484681e-20  1.006323827784715e+00
 3.784763694484681e-20 -1.298302963307080e-17  4.216126456406756e-01
 1.006323827784715e+00  4.216126456406756e-01 -3.454943289680391e-17

-2.598055388150177e-17  6.125631137227563e-21  1.006326166163195e+00
 6.125631137227563e-21 -1.680964982956041e-17  4.199189062520969e-01
 1.006326166163195e+00  4.199189062520969e-01 -3.453003560220147e-17

-2.593251749442616e-17 -1.846485818330510e-20  9.994069631974770e-01
-1.846485818330510e-20 -9.851485408769721e-18  4.273308964966661e-01
 9.994069631974770e-01  4.273308964966661e-01 -3.426148819821027e-17

-2.598492503624052e-17 -3.468752446720170e-20  1.000017740289669e+00
-3.468752446720170e-20 -1.125194412519073e-17  4.273773210825573e-01
 1.000017740289669e+00  4.273773210825573e-01 -3.427460209132232e-17

-2.611885466216855e-17 -3.590065702899904e-20  1.005388074810455e+00
-3.590065702899904e-20 -1.717429437601331e-17  4.213503571028915e-01
 1.005388074810455e+00  4.213503571028915e-01 -3.446823517717940e-17

-2.627357046450574e-17 -3.514879451523417e-20  1.009270188638186e+00
-3.514879451523417e-20 -1.363683010911899e-17  4.249148895686948e-01
 1.009270188638186e+00  4.249148895686948e-01 -3.462726265194552e-17

-2.640136966283019e-17 -2.827708372748014e-20  1.011925763266547e+00
-2.827708372748014e-20 -1.332255805709623e-17  4.234896883051888e-01
 1.011925763266547e+00  4.234896883051888e-01 -3.474582731600014e-17

-2.645561531973430e-17 -2.983431164114192e-20  1.009753650891991e+00
-2.983431164114192e-20 -1.559994223731417e-17  4.271953840802550e-01
 1.009753650891991e+00  4.271953840802550e-01 -3.469266031130739e-17

-2.626679900120635e-17 -2.707166843835572e-20  9.927108571028621e-01
-2.707166843835572e-20 -1.975652690635033e-17  4.208083511699930e-01
 9.927108571028621e-01  4.208083511699930e-01 -3.407298365915351e-17

-2.653332175504522e-17 -2.901420558926565e-20  1.004313204372956e+00
-2.901420558926565e-20 -2.012380099765048e-17  4.278148497181096e-01
 1.004313204372956e+00  4.278148497181096e-01 -3.453528830156735e-17

-2.681310239424625e-17 -3.056818692779692e-20  1.017531374700674e+00
-3.056818692779692e-20 -2.066491424727800e-17  4.264103510826732e-01
 1.017531374700674e+00  4.264103510826732e-01 -3.504948576235386e-17

-2.699777088602712e-17 -3.838468577513955e-20  1.022433274068036e+00
-3.838468577513955e-20 -1.175133951922195e-17  4.260383074464915e-01
 1.022433274068036e+00  4.260383074464915e-01 -3.525509126354506e-17

-2.707775288417171e-17 -3.538955487546162e-20  1.019943412236872e+00
-3.538955487546162e-20 -1.590543177385370e-17  4.246528614757381e-01
 1.019943412236872e+00  4.246528614757381e-01 -3.519343280992042e-17

-2.710053357879008e-17 -4.299193986927580e-20  1.016164454370378e+00
-4.299193986927580e-20 -1.893883716595685e-17  4.260972803714705e-01
 1.016164454370378e+00  4.260972803714705e-01 -3.508247876603415e-17

-2.723855693279836e-17 -5.440076044674758e-20  1.017625148661757e+00
-5.440076044674758e-20 -1.892691745672984e-17  4.247041236081129e-01
 1.017625148661757e+00  4.247041236081129e-01 -3.516437000507787e-17

-2.747139926251122e-17 -6.541547987912595e-20  1.024306035031803e+00
-6.541547987912595e-20 -1.704394658638799e-17  4.282460455616143e-01
 1.024306035031803e+00  4.282460455616143e-01 -3.544922722430045e-17

-2.766072445472624e-17 -7.021880782735779e-20  1.033133621204259e+00
-7.021880782735779e-20 -1.658712134385757e-17  4.206410730933813e-01
 1.033133621204259e+00  4.206410730933813e-01 -3.578838034712992e-17

-2.771718987986741e-17 -7.789095749265293e-20  1.033406110378525e+00
-7.789095749265293e-20 -1.743333176504477e-17  4.230846211037466e-01
 1.033406110378525e+00  4.230846211037466e-01 -3.580695291813521e-17

-2.770970647037430e-17 -8.984702952640132e-20  1.026457446275592e+00
-8.984702952640132e-20 -1.826692335512322e-17  4.253649942123818e-01
 1.026457446275592e+00  4.253649942123818e-01 -3.558233040645150e-17

-2.773676582375585e-17 -1.006585244450218e-19  1.021340742635185e+00
-1.006585244450218e-19 -1.909908669765472e-17  4.291253193966406e-01
 1.021340742635185e+00  4.291253193966406e-01 -3.541703325813406e-17

-2.777932186523082e-17 -1.135989556547113e-19  1.019299255677286e+00
-1.135989556547113e-19 -1.468240327062586e-17  4.315127353799770e-01
 1.019299255677286e+00  4.315127353799770e-01 -3.536132409709349e-17

-2.787236579416626e-17 -1.284612070507050e-19  1.022019588662708e+00
-1.284612070507050e-19 -1.635658411690134e-17  4.240754104256946e-01
 1.022019588662708e+00  4.240754104256946e-01 -3.547674297030202e-17

-2.803538827744656e-17 -1.444914634536198e-19  1.022453179056556e+00
-1.444914634536198e-19 -1.779145562159042e-17  4.285736209897802e-01
 1.022453179056556e+00  4.285736209897802e-01 -3.553117549958978e-17

-2.812908575317498e-17 -1.719397119345463e-19  1.021795003140016e+00
-1.719397119345463e-19 -1.794148320577668e-17  4.268897498349417e-01
 1.021795003140016e+00  4.268897498349417e-01 -3.553676351490851e-17

-2.828058800858857e-17 -2.037024263211071e-19  1.023077713367392e+00
-2.037024263211071e-19 -1.781722416011032e-17  4.289947485016665e-01
 1.023077713367392e+00  4.289947485016665e-01 -3.560341538680396e-17

-2.844318961849352e-17 -2.394299678655996e-19  1.024512825427295e+00
-2.394299678655996e-19 -2.074475099716248e-17  4.300449300228117e-01
 1.024512825427295e+00  4.300449300228117e-01 -3.567919120126811e-17

-2.866533978801380e-17 -2.824446363776766e-19  1.026734409640798e+00
-2.824446363776766e-19 -1.724354348291031e-17  4.309952966299249e-01
 1.026734409640798e+00  4.309952966299249e-01 -3.578372688989864e-17

-2.894575995499418e-17 -3.107298775015566e-19  1.030076694052260e+00
-3.107298775015566e-19 -1.289445600556955e-17  4.323628124047366e-01
 1.030076694052260e+00  4.323628124047366e-01 -3.594442410196885e-17

-2.915422148645689e-17 -3.198053342316312e-19  1.031505039062105e+00
-3.198053342316312e-19 -1.294358779758089e-17  4.320211669707285e-01
 1.031505039062105e+00  4.320211669707285e-01 -3.606042008707123e-17

-2.936005661152764e-17 -3.115916155940924e-19  1.030486526464435e+00
-3.115916155940924e-19 -1.747487452757464e-17  4.294884640596262e-01
 1.030486526464435e+00  4.294884640596262e-01 -3.610522775224855e-17

-2.953154764316916e-17 -3.046302123834615e-19  1.029276353330188e+00
-3.046302123834615e-19 -1.363020280192337e-17  4.287691678379205e-01
 1.029276353330188e+00  4.287691678379205e-01 -3.614244073764129e-17

-2.970329574603095e-17 -3.194828391792465e-19  1.026141145568827e+00
-3.194828391792465e-19 -1.893182777364664e-17  4.263878777072036e-01
 1.026141145568827e+00  4.263878777072036e-01 -3.612229998268425e-17

-2.982461526564079e-17 -3.496043761145264e-19  1.022442891122455e+00
-3.496043761145264e-19 -1.593540605955248e-17  4.267221338863181e-01
 1.022442891122455e+00  4.267221338863181e-01 -3.605069235758668e-17

-2.993682532765204e-17 -3.707518854392301e-19  1.020649282069113e+00
-3.707518854392301e-19 -2.164972317628214e-17  4.279649355571266e-01
 1.020649282069113e+00  4.279649355571266e-01 -3.602447249103004e-17

-3.006966242998982e-17 -4.181270020485288e-19  1.017612644508233e+00
-4.181270020485288e-19 -2.173181900895652e-17  4.273519465742711e-01
 1.017612644508233e+00  4.273519465742711e-01 -3.597112721066457e-17

-3.023369204769847e-17 -4.849520667640102e-19  1.011637936052624e+00
-4.849520667640102e-19 -1.668824422928053e-17  4.276813384500647e-01
 1.011637936052624e+00  4.276813384500647e-01 -3.580868677172502e-17

-3.051623290762966e-17 -5.498977885768087e-19  1.007921252723932e+00
-5.498977885768087e-19 -1.721983890719621e-17  4.265816155993820e-01
 1.007921252723932e+00  4.265816155993820e-01 -3.576093001188492e-17

-3.082029241930249e-17 -5.814310362836261e-19  1.010961457697282e+00
-5.814310362836261e-19 -1.998855765752892e-17  4.278151634658909e-01
 1.010961457697282e+00  4.278151634658909e-01 -3.594930366128664e-17

-3.102085902951442e-17 -6.135052117399099e-19  1.009860977771195e+00
-6.135052117399099e-19 -1.447453419855947e-17  4.340597342159660e-01
 1.009860977771195e+00  4.340597342159660e-01 -3.597447326695819e-17

-3.134407754327559e-17 -6.653826010533009e-19  1.006161435485154e+00
-6.653826010533009e-19 -1.977074107052674e-17  4.267425652543901e-01
 1.006161435485154e+00  4.267425652543901e-01 -3.595373110866548e-17

-3.174422630509529e-17 -7.187252958632691e-19  1.002435404313719e+00
-7.187252958632691e-19 -1.879999720080463e-17  4.331262224227869e-01
 1.002435404313719e+00  4.331262224227869e-01 -3.596377471687253e-17

-3.202167011208113e-17 -7.477676455908416e-19  1.003457262930638e+00
-7.477676455908416e-19 -2.211878333945051e-17  4.339822308212207e-01
 1.003457262930638e+00  4.339822308212207e-01 -3.609084521656852e-17

-3.254158701890846e-17 -7.971254622343025e-19  1.013316306222142e+00
-7.971254622343025e-19 -2.371108132911297e-17  4.251812721302429e-01
 1.013316306222142e+00  4.251812721302429e-01 -3.657318994772799e-17

-3.324004127959392e-17 -8.876141292845621e-19  1.016392629014980e+00
-8.876141292845621e-19 -1.824685721239581e-17  4.279357819242121e-01
 1.016392629014980e+00  4.279357819242121e-01 -3.690061415329927e-17

-3.388570707048195e-17 -9.611288701190805e-19  1.015125003687039e+00
-9.611288701190805e-19 -1.943143624125474e-17  4.249778371193820e-01
 1.015125003687039e+00  4.249778371193820e-01 -3.706607679910230e-17

-3.460944702248332e-17 -1.055489377795723e-18  1.017608565483493e+00
-1.055489377795723e-18 -1.986569854744118e-17  4.265720396716622e-01
 1.017608565483493e+00  4.265720396716622e-01 -3.740169251293144e-17

-3.557053289504766e-17 -1.192795884987725e-18  1.018002974545953e+00
-1.192795884987725e-18 -2.563801121868128e-17  4.265896438175759e-01
 1.018002974545953e+00  4.265896438175759e-01 -3.772839235935162e-17

-3.638507974550060e-17 -1.314222642783875e-18  1.015842628936835e+00
-1.314222642783875e-18 -2.181234176313665e-17  4.252149886112968e-01
 1.015842628936835e+00  4.252149886112968e-01 -3.792377776142052e-17

-3.686884156983455e-17 -1.371379290816661e-18  1.016118169330847e+00
-1.371379290816661e-18 -2.972937901451532e-17  4.240505824329589e-01
 1.016118169330847e+00  4.240505824329589e-01 -3.808215084959381e-17

-3.682943889323847e-17 -1.395339964024930e-18  9.973348429373688e-01
-1.395339964024930e-18 -2.591964775818770e-17  4.383369441575840e-01
 9.973348429373688e-01  4.383369441575840e-01 -3.750101718254359e-17

-3.719883625461358e-17 -1.425369235651322e-18  1.005860390293764e+00
-1.425369235651322e-18 -2.569935702006265e-17  4.299156790408081e-01
 1.005860390293764e+00  4.299156790408081e-01 -3.788296206218467e-17

-3.793272628871460e-17 -1.525445461806163e-18  1.010393042537425e+00
-1.525445461806163e-18 -2.240008045508507e-17  4.210770590144570e-01
 1.010393042537425e+00  4.210770590144570e-01 -3.828865871778589e-17

-3.899456449791939e-17 -1.650494812513871e-18  1.013682621350921e+00
-1.650494812513871e-18 -2.293827556291524e-17  4.238131200962699e-01
 1.013682621350921e+00  4.238131200962699e-01 -3.878250872676839e-17

-3.960558980261541e-17 -1.715190146283971e-18  1.007181196054452e+00
-1.715190146283971e-18 -2.849071306519196e-17  4.340098570832024e-01
 1.007181196054452e+00  4.340098570832024e-01 -3.878931825516955e-17

-4.072618669584809e-17 -1.876525530990176e-18  1.008135155679337e+00
-1.876525530990176e-18 -3.304525364263644e-17  4.239174134542943e-01
 1.008135155679337e+00  4.239174134542943e-01 -3.921491876207251e-17

-4.220675369010691e-17 -2.090846843911899e-18  9.954087569951352e-01
-2.090846843911899e-18 -3.096339866407113e-17  4.275102272845929e-01
 9.954087569951352e-01  4.275102272845929e-01 -3.933427955166599e-17

-4.323260238844566e-17 -2.210197362820883e-18  1.008435738865830e+00
-2.210197362820883e-18 -3.290795225767821e-17  4.133555860509697e-01
 1.008435738865830e+00  4.133555860509697e-01 -4.010872594493022e-17

-4.383759566589089e-17 -2.295320597280119e-18  1.003681942883310e+00
-2.295320597280119e-18 -2.953064840888030e-17  4.170209287713924e-01
 1.003681942883310e+00  4.170209287713924e-01 -4.014983034009401e-17

-4.428278835320741e-17 -2.361172177250167e-18  9.959298345435116e-01
-2.361172177250167e-18 -2.801298790377536e-17  4.233781689085495e-01
 9.959298345435116e-01  4.233781689085495e-01 -4.008094331170474e-17

-4.533452756383808e-17 -2.465143547367212e-18  1.004384453660184e+00
-2.465143547367212e-18 -2.794403839910694e-17  4.222636677547298e-01
 1.004384453660184e+00  4.222636677547298e-01 -4.071108761327474e-17

-4.659608356834895e-17 -2.639488023002368e-18  1.001849802314810e+00
-2.639488023002368e-18 -3.100398904435395e-17  4.259892969689067e-01
 1.001849802314810e+00  4.259892969689067e-01 -4.105609427885200e-17

-4.873283351980039e-17 -2.893050431107178e-18  1.008841567336063e+00
-2.893050431107178e-18 -3.149263157678563e-17  4.174271781512983e-01
 1.008841567336063e+00  4.174271781512983e-01 -4.203349510829155e-17

-5.269262560043906e-17 -3.360966175256075e-18  1.011147169227192e+00
-3.360966175256075e-18 -3.103819232398397e-17  4.189892216714748e-01
 1.011147169227192e+00  4.189892216714748e-01 -4.347266537989297e-17

-5.687480402690256e-17 -3.826850777605965e-18  1.008226160417490e+00
-3.826850777605965e-18 -3.742945377691695e-17  4.178000351390169e-01
 1.008226160417490e+00  4.178000351390169e-01 -4.481257215022227e-17

-6.066420563344683e-17 -4.234651943503508e-18  1.009057055753115e+00
-4.234651943503508e-18 -3.866694722292354e-17  4.201226556323505e-01
 1.009057055753115e+00  4.201226556323505e-01 -4.616000606697115e-17

-6.514304810661449e-17 -4.699598345020686e-18  1.009447248158212e+00
-4.699598345020686e-18 -3.079028964729040e-17  4.185448728342473e-01
 1.009447248158212e+00  4.185448728342473e-01 -4.770930458542090e-17

-7.147089511544850e-17 -5.276314895792519e-18  1.010002105549131e+00
-5.276314895792519e-18 -3.802605787861492e-17  4.194818957806848e-01
 1.010002105549131e+00  4.194818957806848e-01 -4.991742348928278e-17

-7.645678584133045e-17 -5.699329259229908e-18  1.012112437918376e+00
-5.699329259229908e-18 -4.060954435126372e-17  4.170436985827041e-01
 1.012112437918376e+00  4.170436985827041e-01 -5.171347040610248e-17

-8.181656181515645e-17 -6.082062924707926e-18  1.013938501008266e+00
-6.082062924707926e-18 -4.345226137670609e-17  4.163216181251186e-01
 1.013938501008266e+00  4.163216181251186e-01 -5.363092536625908e-17

-9.386327040406588e-17 -6.810466374520766e-18  1.012924475049836e+00
-6.810466374520766e-18 -4.467424591737514e-17  4.168368154234158e-01
 1.012924475049836e+00  4.168368154234158e-01 -5.778641848941253e-17

-1.045464688923156e-16 -7.355183584211472e-18  1.011729488753040e+00
-7.355183584211472e-18 -4.385111509975461e-17  4.161909050035510e-01
 1.011729488753040e+00  4.161909050035510e-01 -6.143946405636769e-17

-1.135258347621805e-16 -7.656634393740119e-18  1.009166192859895e+00
-7.656634393740119e-18 -4.262874064417399e-17  4.173456150760157e-01
 1.009166192859895e+00  4.173456150760157e-01 -6.449989289006133e-17

-1.282256638269969e-16 -7.928628546151049e-18  1.009205360442236e+00
-7.928628546151049e-18 -4.274091843460932e-17  4.153427436980583e-01
 1.009205360442236e+00  4.153427436980583e-01 -6.964518728988725e-17

-1.496252501194255e-16 -7.750224167911749e-18  1.009805938276825e+00
-7.750224167911749e-18 -4.430922042753947e-17  4.160366535116679e-01
 1.009805938276825e+00  4.160366535116679e-01 -7.715096788826869e-17

-1.859056959130365e-16 -6.387194621994519e-18  1.007392522464139e+00
-6.387194621994519e-18 -4.037791664924949e-17  4.143999363051331e-01
 1.007392522464139e+00  4.143999363051331e-01 -8.985178707721985e-17

-2.358629426897969e-16 -1.780000528911383e-18  1.005945457596765e+00
-1.780000528911383e-18 -2.816974292606207e-17  4.167883205038724e-01
 1.005945457596765e+00  4.167883205038724e-01 -1.076077018973845e-16

-2.824494240930923e-16  4.889666098144809e-18  1.005218508673478e+00
 4.889666098144809e-18 -1.494177011635539e-17  4.144651344099061e-01
 1.005218508673478e+00  4.144651344099061e-01 -1.244147169319216e-16

-3.455529615492997e-16  1.741915117497705e-17  1.004429527805966e+00
 1.741915117497705e-17  1.152579954554888e-17  4.160336524241830e-01
 1.004429527805966e+00  4.160336524241830e-01 -1.475536228866870e-16

-4.430387919328652e-16  4.341552938415536e-17  1.001948498521724e+00
 4.341552938415536e-17  5.970176881530005e-17  4.178968275452627e-01
 1.001948498521724e+00  4.178968275452627e-01 -1.841141715692261e-16

-6.090167330452981e-16  1.087486271195930e-16  9.999780265973118e-01
 1.087486271195930e-16  1.541953702261302e-16  4.207966378910013e-01
 9.999780265973118e-01  4.207966378910013e-01 -2.495516464020352e-16

-7.940558834294231e-16  2.131812305053562e-16  1.002596025419344e+00
 2.131812305053562e-16  2.789000506000015e-16  4.197453078035237e-01
 1.002596025419344e+00  4.197453078035237e-01 -3.282808966316209e-16

-9.357040066503121e-16  3.118663077059022e-16  1.000115053914413e+00
 3.118663077059022e-16  3.981386458257299e-16  4.192443469148074e-01
 1.000115053914413e+00  4.192443469148074e-01 -3.921410362249891e-16

-1.063116962958218e-15  4.158697491638051e-16  9.962939809312694e-01
 4.158697491638051e-16  4.960110458276908e-16  4.226530764224720e-01
 9.962939809312694e-01  4.226530764224720e-01 -4.528900018927052e-16

-1.271518528820060e-15  6.190138049726431e-16  1.002867140825899e+00
 6.190138049726431e-16  6.872995786533315e-16  4.203988434506561e-01
 1.002867140825899e+00  4.203988434506561e-01 -5.602794286088653e-16

-1.639727308028492e-15  1.096148165599165e-15  1.003908428577366e+00
 1.096148165599165e-15  1.057073998141101e-15  4.243232413379412e-01
 1.003908428577366e+00  4.243232413379412e-01 -7.801462154555986e-16

-2.262694306730015e-15  2.404549765051123e-15  1.007917323664375e+00
 2.404549765051123e-15  1.776791963058436e-15  4.232813579318385e-01
 1.007917323664375e+00  4.232813579318385e-01 -1.301463057931260e-15

-2.874245974121020e-15  5.070930670663003e-15  1.008625011525590e+00
 5.070930670663003e-15  2.506685773969344e-15  4.245125107686205e-01
 1.008625011525590e+00  4.245125107686205e-01 -2.311502091683749e-15

-3.386387762423552e-15  9.163719214771771e-15  1.007633445803815e+00
 9.163719214771771e-15  2.408573607110043e-15  4.232666668616496e-01
 1.007633445803815e+00  4.232666668616496e-01 -4.146144808591786e-15

-6.512686534969184e-15  1.474937200772532e-14  1.009546834168692e+00
 1.474937200772532e-14  7.243442983018875e-16  4.254244690152846e-01
 1.009546834168692e+00  4.254244690152846e-01 -9.601270978598620e-15

 1.688698873133483e-14  4.550228930373446e-16  1.011458578930851e+00
 4.550228930373446e-16  2.238300107482825e-14  4.259119954656994e-01
 1.011458578930851e+00  4.259119954656994e-01 -7.587638101754698e-15

 1.631723849024116e-13 -3.939228983696717e-14  1.011813503799839e+00
-3.939228983696717e-14  8.453995085414179e-14  4.251493528350704e-01
 1.011813503799839e+00  4.251493528350704e-01  3.913278412664053e-14

-6.286640962294863e-13  1.465186489270844e-13  1.012255221054249e+00
 1.465186489270844e-13 -3.130815112690022e-13  4.260635535108604e-01
 1.012255221054249e+00  4.260635535108604e-01 -1.577084891129391e-13

 1.703239038070230e-13 -6.315205291728134e-14  1.014410536434420e+00
-6.315205291728134e-14  9.351509738622571e-14  4.309183073171597e-01
 1.014410536434420e+00  4.309183073171597e-01  4.537089286634988e-14

-6.620014759102963e-13  1.464584783704353e-13  1.014735139074359e+00
 1.464584783704353e-13 -3.096627961707263e-13  4.296186773409829e-01
 1.014735139074359e+00  4.296186773409829e-01 -1.782058944973892e-13

-1.793955228796471e-14 -1.214382612213241e-14  1.015042064637184e+00
-1.214382612213241e-14  7.061778331727031e-15  4.308204240090040e-01
 1.015042064637184e+00  4.308204240090040e-01 -1.274100317669653e-14

-1.773723234691416e-14 -3.991558858891812e-15  1.014818585678811e+00
-3.991558858891812e-15 -2.060837905597071e-15  4.312166143374208e-01
 1.014818585678811e+00  4.312166143374208e-01 -9.533759755734518e-15

-1.260249985501453e-14 -1.383466073377013e-15  1.014339774324802e+00
-1.383466073377013e-15 -2.621151570164394e-15  4.323691318273713e-01
 1.014339774324802e+00  4.323691318273713e-01 -5.930297969605053e-15

-7.329023400428454e-15  4.049319650622700e-16  1.015080217723948e+00
 4.049319650622700e-16 -1.931616879693734e-15  4.300560361811922e-01
 1.015080217723948e+00  4.300560361811922e-01 -2.805593968189389e-15

-4.133114948082714e-15  9.454312312521079e-16  1.018392100849868e+00
 9.454312312521079e-16 -1.639926217602735e-15  4.354719096113008e-01
 1.018392100849868e+00  4.354719096113008e-01 -1.340448056891766e-15

-2.734771886700517e-15  8.903851281167561e-16  1.032560429358636e+00
 8.903851281167561e-16 -1.430019188153851e-15  4.210768461826402e-01
 1.032560429358636e+00  4.210768461826402e-01 -8.410051591996400e-16

-2.150844591708900e-15  7.918214697570779e-16  1.028063767281533e+00
 7.918214697570779e-16 -1.323578722028872e-15  4.307681987775905e-01
 1.028063767281533e+00  4.307681987775905e-01 -6.534269310029881e-16

-1.400734372194897e-15  6.089410793861349e-16  1.023024742466286e+00
 6.089410793861349e-16 -1.068134029904376e-15  4.327642948731663e-01
 1.023024742466286e+00  4.327642948731663e-01 -4.282244695854069e-16

-9.865178144838036e-16  4.587603168905636e-16  1.003162681551956e+00
 4.587603168905636e-16 -9.207134988234267e-16  4.600274061474891e-01
 1.003162681551956e+00  4.600274061474891e-01 -3.101718236948144e-16

-8.095797295459230e-16  3.848930292261976e-16  1.006259093032477e+00
 3.848930292261976e-16 -8.094479011359749e-16  4.492829544824711e-01
 1.006259093032477e+00  4.492829544824711e-01 -2.608223416911776e-16

-5.840779307050558e-16  2.824014672814091e-16  1.019653675069536e+00
 2.824014672814091e-16 -6.569697613191410e-16  4.265266630239078e-01
 1.019653675069536e+00  4.265266630239078e-01 -2.102055447842882e-16

-4.308303826676635e-16  2.025714720167089e-16  1.032146446437505e+00
 2.025714720167089e-16 -5.507284990186848e-16  4.481295759271504e-01
 1.032146446437505e+00  4.481295759271504e-01 -1.564659838026444e-16

-3.320925641496824e-16  1.501104341425011e-16  1.049200575179679e+00
 1.501104341425011e-16 -4.448782650877076e-16  4.208669995673703e-01
 1.049200575179679e+00  4.208669995673703e-01 -1.290144722668671e-16

-2.777048328499497e-16  1.192771534857790e-16  1.062696224131919e+00
 1.192771534857790e-16 -3.766502485829640e-16  4.348128874014303e-01
 1.062696224131919e+00  4.348128874014303e-01 -1.139509477113973e-16

-2.257010087360958e-16  8.948956411761938e-17  1.089839180330615e+00
 8.948956411761938e-17 -3.514750848249430e-16  4.479207376129929e-01
 1.089839180330615e+00  4.479207376129929e-01 -9.978373610355066e-17

-1.930018595681287e-16  7.233155714695440e-17  1.082385840254107e+00
 7.233155714695440e-17 -2.798235021718247e-16  4.525474710703509e-01
 1.082385840254107e+00  4.525474710703509e-01 -8.977675166799952e-17

-1.741922616291363e-16  6.310410367191685e-17  1.078964800704118e+00
 6.310410367191685e-17 -2.615991269949446e-16  4.438725653119241e-01
 1.078964800704118e+00  4.438725653119241e-01 -8.390267725821686e-17

-1.486570539604274e-16  5.082562115694248e-17  1.063775170844679e+00
 5.082562115694248e-17 -2.312207814266966e-16  4.417003750985116e-01
 1.063775170844679e+00  4.417003750985116e-01 -7.550613666582684e-17

-1.255393981313901e-16  3.959737304029804e-17  1.052932556960101e+00
 3.959737304029804e-17 -1.957691736096475e-16  4.476838105660944e-01
 1.052932556960101e+00  4.476838105660944e-01 -6.791095216822459e-17

-1.098439561636811e-16  3.202336836107403e-17  1.050531074689827e+00
 3.202336836107403e-17 -1.529828862553717e-16  4.536828399745494e-01
 1.050531074689827e+00  4.536828399745494e-01 -6.288320991109339e-17

-1.007022529298900e-16  2.764410985228710e-17  1.050076128766109e+00
 2.764410985228710e-17 -1.392532532878138e-16  4.562493390336966e-01
 1.050076128766109e+00  4.562493390336966e-01 -5.994474815733333e-17

-9.286861200011340e-17  2.406127749484707e-17  1.050337907663090e+00
 2.406127749484707e-17 -1.253947151298968e-16  4.529075659344903e-01
 1.050337907663090e+00  4.529075659344903e-01 -5.743369712502819e-17

-8.333224016791463e-17  1.972619571221364e-17  1.047147697956076e+00
 1.972619571221364e-17 -1.103114455834471e-16  4.579461484528575e-01
 1.047147697956076e+00  4.579461484528575e-01 -5.425877293390348e-17

-7.555196625090789e-17  1.632253498345046e-17  1.042307676819890e+00
 1.632253498345046e-17 -9.872004228334303e-17  4.625394460945927e-01
 1.042307676819890e+00  4.625394460945927e-01 -5.154739819883130e-17

-6.876373692542918e-17  1.361602957684568e-17  1.006096144449238e+00
 1.361602957684568e-17 -8.893029783009661e-17  4.834161998927545e-01
 1.006096144449238e+00  4.834161998927545e-01 -4.817701211817557e-17

-6.512296857867013e-17  1.224781651688410e-17  1.044219309575035e+00
 1.224781651688410e-17 -8.173495109807173e-17  3.796807560658633e-01
 1.044219309575035e+00  3.796807560658633e-01 -4.816889734539740e-17

-6.178149198146722e-17  9.847894000323809e-18  1.081315362052471e+00
 9.847894000323809e-18 -7.980394585235328e-17  4.258921526138782e-01
 1.081315362052471e+00  4.258921526138782e-01 -4.843066317424679e-17

-6.070313085108451e-17  7.285916659054710e-18  1.265340456698062e+00
 7.285916659054710e-18 -7.154031159706030e-17  4.315784387185932e-01
 1.265340456698062e+00  4.315784387185932e-01 -5.454964157964806e-17

-5.545852271464428e-17  5.007469543870524e-18  9.366645622683631e-01
 5.007469543870524e-18 -6.466040702508193e-17  8.174200727819024e-01
 9.366645622683631e-01  8.174200727819024e-01 -4.588910400542801e-17

-5.356886103624723e-17  6.145131871303880e-18  9.892654076773386e-01
 6.145131871303880e-18 -6.222592307555567e-17  5.706183484571367e-01
 9.892654076773386e-01  5.706183484571367e-01 -4.430904176434297e-17

-4.949007498365479e-17  7.760848518859636e-18  9.697965846121132e-01
 7.760848518859636e-18 -6.009818600829093e-17  3.279854421096028e-01
 9.697965846121132e-01  3.279854421096028e-01 -3.923291108610987e-17

-4.618510965071427e-17  5.809003514486600e-18  9.205920981261969e-01
 5.809003514486600e-18 -4.874053244966424e-17  4.786668520378409e-01
 9.205920981261969e-01  4.786668520378409e-01 -3.819815143743813e-17

-4.409207889294037e-17  4.933376314372256e-18  9.330006054116730e-01
 4.933376314372256e-18 -4.450800603005515e-17  4.445838837193588e-01
 9.330006054116730e-01  4.445838837193588e-01 -3.797289568152885e-17

-4.312711922681235e-17  3.932189230520073e-18  1.005854101089661e+00
 3.932189230520073e-18 -4.298586208973433e-17  4.412614191499548e-01
 1.005854101089661e+00  4.412614191499548e-01 -3.992745396917947e-17

-4.243589659765403e-17  3.236463142085569e-18  1.056078631806848e+00
 3.236463142085569e-18 -4.442976517651103e-17  4.413411896013986e-01
 1.056078631806848e+00  4.413411896013986e-01 -4.128635147724937e-17

-4.095469857629239e-17  2.703622861641361e-18  1.058966440453636e+00
 2.703622861641361e-18 -3.794495047235484e-17  4.228087818407189e-01
 1.058966440453636e+00  4.228087818407189e-01 -4.090765679516090e-17

-3.919084613960662e-17  2.288839700887083e-18  1.042630205785944e+00
 2.288839700887083e-18 -3.161673294082514e-17  4.242598138911395e-01
 1.042630205785944e+00  4.242598138911395e-01 -3.979364072518562e-17

-3.762627818097823e-17  1.914637303131880e-18  1.032923019600338e+00
 1.914637303131880e-18 -2.897429256272433e-17  4.277960162791813e-01
 1.032923019600338e+00  4.277960162791813e-01 -3.893324241787299e-17

-3.641146821033024e-17  1.643302128217843e-18  1.026824708716077e+00
 1.643302128217843e-18 -2.957853548482254e-17  4.280753742336466e-01
 1.026824708716077e+00  4.280753742336466e-01 -3.833878015510766e-17

-3.558321429177418e-17  1.475899784874510e-18  1.022607455276406e+00
 1.475899784874510e-18 -3.207024791171962e-17  4.271869578419108e-01
 1.022607455276406e+00  4.271869578419108e-01 -3.794062532285901e-17

-3.476973831690489e-17  1.306988303555741e-18  1.017564385723665e+00
 1.306988303555741e-18 -3.060001972942170e-17  4.323238182761716e-01
 1.017564385723665e+00  4.323238182761716e-01 -3.750434385355092e-17

-3.417608181167217e-17  1.207173603031090e-18  1.012368477926294e+00
 1.207173603031090e-18 -2.992463252769122e-17  4.295080705359675e-01
 1.012368477926294e+00  4.295080705359675e-01 -3.713346999613608e-17

-3.349166316906292e-17  1.125179223733298e-18  1.003045091575994e+00
 1.125179223733298e-18 -2.632343599601985e-17  4.268350433675687e-01
 1.003045091575994e+00  4.268350433675687e-01 -3.664107908070353e-17

-3.267926503793414e-17  9.996229743070520e-19  9.918162463784980e-01
 9.996229743070520e-19 -2.502242726061957e-17  4.304835394913730e-01
 9.918162463784980e-01  4.304835394913730e-01 -3.601393421850590e-17

-3.239327427498832e-17  9.352565085253069e-19  1.001221064747027e+00
 9.352565085253069e-19 -2.322865915361988e-17  4.149402444724827e-01
 1.001221064747027e+00  4.149402444724827e-01 -3.623533275172854e-17

-3.199385239494903e-17  8.761617783263384e-19  9.916914762677107e-01
 8.761617783263384e-19 -2.666516571390300e-17  4.258250185076967e-01
 9.916914762677107e-01  4.258250185076967e-01 -3.581922965923582e-17

-3.166828260652489e-17  7.746907097020471e-19  1.002635552605216e+00
 7.746907097020471e-19 -2.585962749124294e-17  4.267678202508846e-01
 1.002635552605216e+00  4.267678202508846e-01 -3.606304831337596e-17

-3.125904479357471e-17  6.942762636559148e-19  1.004334561401619e+00
 6.942762636559148e-19 -2.448238584541675e-17  4.246601260467476e-01
 1.004334561401619e+00  4.246601260467476e-01 -3.600633548877563e-17

-3.088192737737271e-17  6.379055218925922e-19  1.002920711145071e+00
 6.379055218925922e-19 -2.622815587632028e-17  4.198174993786246e-01
 1.002920711145071e+00  4.198174993786246e-01 -3.586028016984699e-17

-3.066551769184889e-17  5.852748528777617e-19  1.008869895744304e+00
 5.852748528777617e-19 -2.349864123465821e-17  4.219467535091667e-01
 1.008869895744304e+00  4.219467535091667e-01 -3.599306648436021e-17

-3.036934052917229e-17  5.281226218901936e-19  1.013063519967408e+00
 5.281226218901936e-19 -1.413749309593998e-17  4.193966654205667e-01
 1.013063519967408e+00  4.193966654205667e-01 -3.605571756715722e-17

-3.003487200906708e-17  4.654194076271341e-19  1.016406443461296e+00
 4.654194076271341e-19 -2.367449825471153e-17  4.198080413442603e-01
 1.016406443461296e+00  4.198080413442603e-01 -3.607196636014955e-17

-2.967161737775731e-17  4.094310618000654e-19  1.014881041966043e+00
 4.094310618000654e-19 -2.363433136662178e-17  4.166254910574706e-01
 1.014881041966043e+00  4.166254910574706e-01 -3.592031666553891e-17

-2.937496396152726e-17  3.743669910669312e-19  1.007582081757448e+00
 3.743669910669312e-19 -3.395095517375716e-17  4.267689472650663e-01
 1.007582081757448e+00  4.267689472650663e-01 -3.559318669500430e-17

-2.918249372369363e-17  3.383995364229954e-19  1.007729455170481e+00
 3.383995364229954e-19 -1.825077156112927e-17  4.223758928886671e-01
 1.007729455170481e+00  4.223758928886671e-01 -3.553530953302465e-17

-2.907192582903614e-17  2.926165458707826e-19  1.015902666107026e+00
 2.926165458707826e-19 -2.348287763732040e-17  4.252664630611270e-01
 1.015902666107026e+00  4.252664630611270e-01 -3.575185332731416e-17

-2.910199134257531e-17  2.377793003814312e-19  1.030947135702748e+00
 2.377793003814312e-19 -1.309176942834301e-17  4.141850092501000e-01
 1.030947135702748e+00  4.141850092501000e-01 -3.623265576877455e-17

-2.894280239568495e-17  2.272188129667098e-19  1.025866516793205e+00
 2.272188129667098e-19 -1.395419905496220e-17  4.216218354824718e-01
 1.025866516793205e+00  4.216218354824718e-01 -3.601189761534352e-17

-2.891367204342174e-17  2.101276841790480e-19  1.032101239434615e+00
 2.101276841790480e-19 -3.128094871738322e-17  4.224593463685576e-01
 1.032101239434615e+00  4.224593463685576e-01 -3.619500040410037e-17

-2.874778084593753e-17  1.924073334684733e-19  1.025521061603910e+00
 1.924073334684733e-19 -2.574146490745985e-17  4.235237571590593e-01
 1.025521061603910e+00  4.235237571590593e-01 -3.593006141100554e-17

-2.852862202153443e-17  1.640284149780315e-19  1.016007671922035e+00
 1.640284149780315e-19 -1.679706685994591e-17  4.260953473430727e-01
 1.016007671922035e+00  4.260953473430727e-01 -3.554417040163356e-17

-2.846831145603709e-17  1.594572755953516e-19  1.019868105553004e+00
 1.594572755953516e-19 -2.358576805678208e-17  4.244378403266476e-01
 1.019868105553004e+00  4.244378403266476e-01 -3.563853358038161e-17

-2.849260291242169e-17  1.411555063793795e-19  1.023582141366048e+00
 1.411555063793795e-19 -2.338313067155399e-17  4.328711097656914e-01
 1.023582141366048e+00  4.328711097656914e-01 -3.576408543461479e-17

-2.856617949607960e-17  1.383569340350648e-19  1.034242693576054e+00
 1.383569340350648e-19 -3.459699969877528e-17  4.304605144327741e-01
 1.034242693576054e+00  4.304605144327741e-01 -3.612248760944530e-17

-2.852370821079088e-17  1.242055922371748e-19  1.032030725318599e+00
 1.242055922371748e-19 -1.380211029674097e-17  4.288303931046475e-01
 1.032030725318599e+00  4.288303931046475e-01 -3.600948938698138e-17

-2.843570335067340e-17  9.057901770534907e-20  1.038612628848891e+00
 9.057901770534907e-20 -2.019220010452619e-17  4.223813873331794e-01
 1.038612628848891e+00  4.223813873331794e-01 -3.620041340941974e-17

-2.828693796249971e-17  5.875766954903020e-20  1.035332720816037e+00
 5.875766954903020e-20 -1.488320433633689e-17  4.258112592928767e-01
 1.035332720816037e+00  4.258112592928767e-01 -3.602947015641699e-17

-2.813307166872632e-17  4.721584205713425e-20  1.030174181370647e+00
 4.721584205713425e-20 -1.987353111540361e-17  4.314538314767131e-01
 1.030174181370647e+00  4.314538314767131e-01 -3.580350695203035e-17

-2.799248801884639e-17  2.486154160288246e-20  1.026277458597364e+00
 2.486154160288246e-20 -2.749198554141066e-17  4.326206141091933e-01
 1.026277458597364e+00  4.326206141091933e-01 -3.561808301868382e-17

-2.799545890579708e-17  1.564008324286756e-20  1.034478420953468e+00
 1.564008324286756e-20 -2.032672282562784e-17  4.276454360426271e-01
 1.034478420953468e+00  4.276454360426271e-01 -3.586873443057749e-17

-2.793397463332215e-17 -3.675755717252336e-21  1.036692579498426e+00
-3.675755717252336e-21 -2.350096132105473e-17  4.353202095512516e-01
 1.036692579498426e+00  4.353202095512516e-01 -3.591118340191581e-17

-2.782848341333094e-17 -9.281988808207827e-21  1.037987256446488e+00
-9.281988808207827e-21 -9.505126366899329e-18  4.201735046615442e-01
 1.037987256446488e+00  4.201735046615442e-01 -3.589859376414998e-17

-2.759399158544163e-17 -1.187908645011925e-20  1.023819464720342e+00
-1.187908645011925e-20 -1.743231065787077e-17  4.325892945398112e-01
 1.023819464720342e+00  4.325892945398112e-01 -3.537133483049583e-17

-2.762270296459525e-17 -1.105629815620472e-20  1.028858357919540e+00
-1.105629815620472e-20 -1.778404209737579e-17  4.388016894128667e-01
 1.028858357919540e+00  4.388016894128667e-01 -3.553694307923503e-17

-2.756673340775203e-17 -2.241960368604740e-20  1.028130235993345e+00
-2.241960368604740e-20 -1.038700227789815e-17  4.449256915043893e-01
 1.028130235993345e+00  4.449256915043893e-01 -3.550587802028859e-17

-2.761822206732476e-17 -1.928330724417779e-20  1.038354124460505e+00
-1.928330724417779e-20 -5.035956020006132e-18  4.276429155874260e-01
 1.038354124460505e+00  4.276429155874260e-01 -3.582849100060607e-17

-2.747456102372015e-17 -2.265279624821434e-20  1.028730943589822e+00
-2.265279624821434e-20 -6.927816916632993e-18  4.378889789246161e-01
 1.028730943589822e+00  4.378889789246161e-01 -3.547992965869274e-17

-2.729229580556273e-17 -1.594883792137267e-20  1.023692676773386e+00
-1.594883792137267e-20 -2.185220922041926e-17  4.383728539400650e-01
 1.023692676773386e+00  4.383728539400650e-01 -3.527636821165856e-17

-2.715261952179858e-17 -1.509204931446068e-20  1.021568594741448e+00
-1.509204931446068e-20 -2.047686376535213e-17  4.373670700613669e-01
 1.021568594741448e+00  4.373670700613669e-01 -3.516576914844988e-17

-2.713599415600999e-17 -1.478627248820776e-20  1.026132441811719e+00
-1.478627248820776e-20 -2.271649514045388e-17  4.393071900282352e-01
 1.026132441811719e+00  4.393071900282352e-01 -3.531991970544791e-17

-2.710099021849829e-17 -1.167474642065769e-20  1.026407579594410e+00
-1.167474642065769e-20 -2.539021304790853e-17  4.382344725266413e-01
 1.026407579594410e+00  4.382344725266413e-01 -3.531486066118403e-17

-2.708012675595523e-17 -6.657007390486221e-21  1.028016275738471e+00
-6.657007390486221e-21 -2.810998348021880e-17  4.344380686364880e-01
 1.028016275738471e+00  4.344380686364880e-01 -3.535728991919596e-17

-2.709941877956618e-17 -6.649758264021098e-21  1.030787688002360e+00
-6.649758264021098e-21 -1.219351184966576e-17  4.390973020890854e-01
 1.030787688002360e+00  4.390973020890854e-01 -3.545132774113814e-17

-2.704898078651856e-17  7.107111495807725e-21  1.032121086530189e+00
 7.107111495807725e-21 -1.715257606344318e-17  4.403754522880048e-01
 1.032121086530189e+00  4.403754522880048e-01 -3.550691665270101e-17

-2.689734108852408e-17  2.396330917785960e-20  1.026169920552659e+00
 2.396330917785960e-20 -1.705058658854029e-17  4.356294875286966e-01
 1.026169920552659e+00  4.356294875286966e-01 -3.527157535893041e-17

-2.682728979133798e-17  4.293262122412365e-20  1.026522686614975e+00
 4.293262122412365e-20 -1.470092663335702e-17  4.366593140315485e-01
 1.026522686614975e+00  4.366593140315485e-01 -3.528958999390425e-17

-2.676765932130105e-17  5.939995805912418e-20  1.026310382716964e+00
 5.939995805912418e-20 -1.016540187467231e-17  4.386008351031967e-01
 1.026310382716964e+00  4.386008351031967e-01 -3.529367679253098e-17

-2.659534053394383e-17  6.883719132212434e-20  1.018821848994869e+00
 6.883719132212434e-20 -1.006074218465178e-17  4.350811141010600e-01
 1.018821848994869e+00  4.350811141010600e-01 -3.500558904466194e-17

-2.646199494426217e-17  7.490194713549426e-20  1.013913423925247e+00
 7.490194713549426e-20 -1.209645651304414e-17  4.364875536879877e-01
 1.013913423925247e+00  4.364875536879877e-01 -3.482913732426127e-17

-2.692056377820552e-17  6.528185751863153e-20  1.055512359792790e+00
 6.528185751863153e-20 -2.074426028179691e-17  3.983099422571099e-01
 1.055512359792790e+00  3.983099422571099e-01 -3.632553186383184e-17

-2.681675538310243e-17  8.375287720655934e-20  1.040276113383910e+00
 8.375287720655934e-20 -1.377521213940303e-17  4.346182680114500e-01
 1.040276113383910e+00  4.346182680114500e-01 -3.580573972334687e-17

-2.672012933506336e-17  8.040205719698678e-20  1.034672162259353e+00
 8.040205719698678e-20  5.654897592797064e-19  4.419061780629633e-01
 1.034672162259353e+00  4.419061780629633e-01 -3.561089622359579e-17

-2.633088752469232e-17  9.685344932127867e-20  1.016181819788178e+00
 9.685344932127867e-20 -3.468583598443949e-18  4.326749220930633e-01
 1.016181819788178e+00  4.326749220930633e-01 -3.489379224944164e-17

-2.624284779750616e-17  1.097807410314068e-19  1.013276292465994e+00
 1.097807410314068e-19 -2.359832588752213e-17  4.390831120855441e-01
 1.013276292465994e+00  4.390831120855441e-01 -3.479068230634984e-17

-2.611020477024473e-17  1.222377093655245e-19  1.007376244228579e+00
 1.222377093655245e-19 -1.608053580750556e-17  4.382965419693987e-01
 1.007376244228579e+00  4.382965419693987e-01 -3.458165796536413e-17

-2.612903285347221e-17  1.345719667755732e-19  1.007272731854886e+00
 1.345719667755732e-19 -1.215146972944696e-17  4.352679533425358e-01
 1.007272731854886e+00  4.352679533425358e-01 -3.461309392068966e-17

-2.649600724148783e-17  1.473598761006149e-19  1.031288084186885e+00
 1.473598761006149e-19 -1.545830617056877e-17  4.241790348739395e-01
 1.031288084186885e+00  4.241790348739395e-01 -3.555621616971147e-17

-2.747291610603346e-17  1.889966050448860e-19  1.090960885457921e+00
 1.889966050448860e-19 -2.601079252845717e-17  4.119006254374991e-01
 1.090960885457921e+00  4.119006254374991e-01 -3.782083618403786e-17

-2.817972990242161e-17  1.130050953619661e-19  1.120678506345094e+00
 1.130050953619661e-19 -3.503171869889096e-17  4.811656627001937e-01
 1.120678506345094e+00  4.811656627001937e-01 -3.927926020056010e-17

-2.632704753394079e-17  1.325867489911517e-19  1.029702308363337e+00
 1.325867489911517e-19 -5.671909160065833e-18  4.309659176485407e-01
 1.029702308363337e+00  4.309659176485407e-01 -3.550684268435356e-17

-2.467843168206140e-17  2.406202848198096e-19  9.535186522023812e-01
 2.406202848198096e-19 -1.945019987196055e-17  3.695671412024439e-01
 9.535186522023812e-01  3.695671412024439e-01 -3.229464913723491e-17

-2.514130086475052e-17  9.539795487767507e-20  9.641907027355857e-01
 9.539795487767507e-20 -1.570728962637097e-17  4.550129264633896e-01
 9.641907027355857e-01  4.550129264633896e-01 -3.301835375799095e-17

-2.621562226848877e-17  7.197937226421508e-20  1.031390940981789e+00
 7.197937226421508e-20 -1.389980161479454e-17  4.423467747119624e-01
 1.031390940981789e+00  4.423467747119624e-01 -3.548370692619663e-17

-2.672729040445184e-17  4.637246623199339e-20  1.059454702384200e+00
 4.637246623199339e-20 -2.729753701185990e-19  4.520560027848069e-01
 1.059454702384200e+00  4.520560027848069e-01 -3.652927840507198e-17

-2.696060543709446e-17  3.226580521667435e-20  1.075392878467957e+00
 3.226580521667435e-20 -2.663486990854592e-17  4.414245614138331e-01
 1.075392878467957e+00  4.414245614138331e-01 -3.713014671381245e-17

-2.680985572133145e-17 -9.259546128193493e-21  1.065771746809004e+00
-9.259546128193493e-21 -2.671091390839917e-17  4.407804402164475e-01
 1.065771746809004e+00  4.407804402164475e-01 -3.673583919283139e-17

-2.681934724197088e-17 -3.242377983192732e-20  1.067269355672195e+00
-3.242377983192732e-20 -5.752042943360410e-18  4.349002763785011e-01
 1.067269355672195e+00  4.349002763785011e-01 -3.673137604482556e-17

-2.680725616534429e-17 -8.422879235988038e-20  1.069134084990923e+00
-8.422879235988038e-20 -1.375544562799808e-17  4.401589602964545e-01
 1.069134084990923e+00  4.401589602964545e-01 -3.676187570125627e-17

-2.698420164402418e-17 -1.297404844622017e-19  1.070876880127635e+00
-1.297404844622017e-19 -5.560522424241778e-18  4.628517361478049e-01
 1.070876880127635e+00  4.628517361478049e-01 -3.683453192873338e-17

-2.715894086081367e-17 -1.463420129260309e-19  1.087398585184204e+00
-1.463420129260309e-19  1.166900996649297e-17  4.555162579496577e-01
 1.087398585184204e+00  4.555162579496577e-01 -3.742528845387391e-17

-2.711801962645412e-17 -8.441512059415143e-20  1.079669345249433e+00
-8.441512059415143e-20 -2.929834063927081e-17  4.676813050866963e-01
 1.079669345249433e+00  4.676813050866963e-01 -3.717837314975875e-17

-2.713152847290532e-17 -5.277151687993444e-20  1.078976395176271e+00
-5.277151687993444e-20 -3.559159739505183e-17  4.629290689071611e-01
 1.078976395176271e+00  4.629290689071611e-01 -3.714900936374145e-17

-2.698269431106751e-17 -1.308917066471180e-20  1.074657292120343e+00
-1.308917066471180e-20 -1.975066571505706e-17  4.509771835212066e-01
 1.074657292120343e+00  4.509771835212066e-01 -3.698420580427136e-17

-2.689458644660941e-17  4.459815012801232e-20  1.070453905486125e+00
 4.459815012801232e-20 -1.513524204342415e-17  4.516491001085024e-01
 1.070453905486125e+00  4.516491001085024e-01 -3.686597870400922e-17

-2.679325291027674e-17  7.585731534183533e-20  1.062894203738458e+00
 7.585731534183533e-20 -2.794058069603367e-17  4.578868895695115e-01
 1.062894203738458e+00  4.578868895695115e-01 -3.661554305278193e-17

-2.670029981778324e-17  7.335565192750270e-20  1.059698308579142e+00
 7.335565192750270e-20 -1.144733253449046e-17  4.565298360511215e-01
 1.059698308579142e+00  4.565298360511215e-01 -3.649769150108326e-17

-2.652210701684600e-17  8.397065360213088e-20  1.052779559631349e+00
 8.397065360213088e-20 -1.287511652404700e-17  4.532456763917457e-01
 1.052779559631349e+00  4.532456763917457e-01 -3.623721126306628e-17

-2.647591455172703e-17  8.063090287348241e-20  1.051063626283267e+00
 8.063090287348241e-20 -1.043607567950271e-17  4.541183609424121e-01
 1.051063626283267e+00  4.541183609424121e-01 -3.617572335525261e-17

-2.648576017880157e-17  8.269283693118254e-20  1.053551658506159e+00
 8.269283693118254e-20 -4.738708958806121e-18  4.562241026193463e-01
 1.053551658506159e+00  4.562241026193463e-01 -3.627250031711634e-17

-2.647962354502575e-17  1.182104466396426e-19  1.050300325882829e+00
 1.182104466396426e-19 -2.322934259115732e-17  4.611569060140610e-01
 1.050300325882829e+00  4.611569060140610e-01 -3.617249989647395e-17

-2.661549668903532e-17  1.170181338648899e-19  1.061182531064696e+00
 1.170181338648899e-19 -2.340619562049352e-17  4.473933347808177e-01
 1.061182531064696e+00  4.473933347808177e-01 -3.656370065467446e-17

-2.652733625311158e-17  1.163504159477845e-19  1.056832364070661e+00
 1.163504159477845e-19 -1.057854721673207e-17  4.511956600340245e-01
 1.056832364070661e+00  4.511956600340245e-01 -3.642315557490685e-17

-2.649740531281232e-17  1.089436423564143e-19  1.053680656815290e+00
 1.089436423564143e-19  1.225901705397492e-18  4.553344510159353e-01
 1.053680656815290e+00  4.553344510159353e-01 -3.635411828609253e-17

-2.657055531308054e-17  1.421255693943884e-19  1.056350779786154e+00
 1.421255693943884e-19 -1.983107105150811e-17  4.605506668355182e-01
 1.056350779786154e+00  4.605506668355182e-01 -3.649264668364567e-17

-2.674863495343425e-17  1.138157257186440e-19  1.066922415634091e+00
 1.138157257186440e-19 -1.020744721631371e-17  4.539431293355847e-01
 1.066922415634091e+00  4.539431293355847e-01 -3.689109708070996e-17

-2.688481032450985e-17  1.026881842407358e-19  1.075809645907043e+00
 1.026881842407358e-19 -1.122280580483866e-17  4.533800727944002e-01
 1.075809645907043e+00  4.533800727944002e-01 -3.724855176792953e-17

-2.723169865166230e-17  7.752529047884356e-20  1.092941146483525e+00
 7.752529047884356e-20 -2.905917684271652e-17  4.498307042451756e-01
 1.092941146483525e+00  4.498307042451756e-01 -3.792996326827006e-17

-2.801837694952092e-17 -2.608781616040081e-20  1.136775621691220e+00
-2.608781616040081e-20 -6.700654782569361e-18  4.419156727785232e-01
 1.136775621691220e+00  4.419156727785232e-01 -3.961229756372351e-17

-2.910543035382551e-17 -7.372928536706371e-20  1.207538345453482e+00
-7.372928536706371e-20 -4.601141417948661e-18  4.227076424310842e-01
 1.207538345453482e+00  4.227076424310842e-01 -4.225910250055474e-17

-2.991415029169640e-17  4.634867367542762e-21  1.241621835799676e+00
 4.634867367542762e-21 -2.123833336907943e-17  4.839004485189988e-01
 1.241621835799676e+00  4.839004485189988e-01 -4.368926646880653e-17

-2.832334449492066e-17  2.291611277783393e-20  1.072134088138104e+00
 2.291611277783393e-20 -5.296500942709107e-17  6.799555028528598e-01
 1.072134088138104e+00  6.799555028528598e-01 -3.819576742301197e-17

-2.989200484866927e-17 -2.239080441353388e-19  1.228230725699712e+00
-2.239080441353388e-19 -1.628915697679846e-17  5.217897439387807e-01
 1.228230725699712e+00  5.217897439387807e-01 -4.351340406740188e-17

-2.935257988465230e-17 -1.477683146095655e-19  1.230946229584556e+00
-1.477683146095655e-19 -1.318739436282132e-17  4.226549412429758e-01
 1.230946229584556e+00  4.226549412429758e-01 -4.293239318354191e-17

-2.836324545706546e-17 -9.000483650132554e-20  1.172369184028221e+00
-9.000483650132554e-20 -3.229539155133155e-17  4.299782499665594e-01
 1.172369184028221e+00  4.299782499665594e-01 -4.058476440303824e-17

-2.716823799922613e-17 -1.560631519756569e-19  1.104548530987115e+00
-1.560631519756569e-19 -1.668703591637828e-17  4.510880322698768e-01
 1.104548530987115e+00  4.510880322698768e-01 -3.795714005306637e-17

-2.660144763922614e-17 -2.097628376110387e-19  1.076587176696865e+00
-2.097628376110387e-19 -2.927087734663480e-17  4.681183508431579e-01
 1.076587176696865e+00  4.681183508431579e-01 -3.690201394155248e-17

-2.620733710634682e-17 -2.535337272086235e-19  1.058420588384034e+00
-2.535337272086235e-19 -7.768704367938294e-18  4.731721872783751e-01
 1.058420588384034e+00  4.731721872783751e-01 -3.618934881739893e-17

-2.609138024436554e-17 -2.211407548108850e-19  1.063094771358776e+00
-2.211407548108850e-19 -1.982853939796433e-17  4.464756161807239e-01
 1.063094771358776e+00  4.464756161807239e-01 -3.622939042373710e-17

-2.565780480971347e-17 -2.391291677564939e-19  1.032234826249011e+00
-2.391291677564939e-19 -1.427195029015733e-17  4.655034427087472e-01
 1.032234826249011e+00  4.655034427087472e-01 -3.512351727247618e-17

-2.566263791056235e-17 -2.522697510299353e-19  1.036238830789113e+00
-2.522697510299353e-19 -1.290923564072805e-17  4.664599348732366e-01
 1.036238830789113e+00  4.664599348732366e-01 -3.526509660739285e-17

-2.567189066286908e-17 -2.608096185813558e-19  1.039796295932789e+00
-2.608096185813558e-19 -1.231798037680838e-17  4.639091643848643e-01
 1.039796295932789e+00  4.639091643848643e-01 -3.537448190742124e-17

-2.556974792193304e-17 -2.644244209748473e-19  1.036820465651439e+00
-2.644244209748473e-19 -1.333154927227186e-17  4.591542632103148e-01
 1.036820465651439e+00  4.591542632103148e-01 -3.521780315984207e-17

-2.552298488218465e-17 -2.742258887926336e-19  1.034590829814631e+00
-2.742258887926336e-19 -1.598277026301215e-17  4.626822053716629e-01
 1.034590829814631e+00  4.626822053716629e-01 -3.512752523895192e-17

-2.537341726776440e-17 -2.601882674097745e-19  1.027290815076966e+00
-2.601882674097745e-19 -1.648874541523377e-17  4.601402550253611e-01
 1.027290815076966e+00  4.601402550253611e-01 -3.481575040081343e-17

-2.535137735354925e-17 -2.425502696388697e-19  1.026915176999308e+00
-2.425502696388697e-19 -1.092039912977058e-17  4.563111912292864e-01
 1.026915176999308e+00  4.563111912292864e-01 -3.477870960637253e-17

-2.541233813177366e-17 -2.475614959878365e-19  1.028206576750531e+00
-2.475614959878365e-19 -1.380574048522863e-17  4.611575588290827e-01
 1.028206576750531e+00  4.611575588290827e-01 -3.485176109602665e-17

-2.552838868467151e-17 -2.011461352795399e-19  1.033899800636519e+00
-2.011461352795399e-19 -1.439952822482991e-17  4.597616108227106e-01
 1.033899800636519e+00  4.597616108227106e-01 -3.508323186842457e-17

-2.553365319186132e-17 -1.442768781616197e-19  1.032687003082482e+00
-1.442768781616197e-19 -1.493782691382272e-17  4.583320232229225e-01
 1.032687003082482e+00  4.583320232229225e-01 -3.506606402150637e-17

-2.550058568492189e-17 -8.102993394842067e-20  1.031021553519962e+00
-8.102993394842067e-20 -1.559414837204335e-17  4.483170704494930e-01
 1.031021553519962e+00  4.483170704494930e-01 -3.502028749461950e-17

-2.561525078411402e-17 -7.049471095890020e-20  1.034661021758239e+00
-7.049471095890020e-20 -1.391084582865063e-17  4.618592200374848e-01
 1.034661021758239e+00  4.618592200374848e-01 -3.521539210187822e-17

-2.545171530857436e-17 -1.543127896998021e-20  1.025220050815693e+00
-1.543127896998021e-20 -9.306201862499176e-18  4.546931051693460e-01
 1.025220050815693e+00  4.546931051693460e-01 -3.489246681664153e-17

-2.523839646825224e-17  9.362534957864990e-20  1.011584453458481e+00
 9.362534957864990e-20 -1.557690635765788e-17  4.478334068498447e-01
 1.011584453458481e+00  4.478334068498447e-01 -3.444621628623144e-17

-2.533388122215446e-17  1.475670477123580e-19  1.013171328906940e+00
 1.475670477123580e-19 -1.301447044795353e-17  4.569820666111069e-01
 1.013171328906940e+00  4.569820666111069e-01 -3.459137382668143e-17

-2.548212874758217e-17  2.050605971394931e-19  1.026379648301340e+00
 2.050605971394931e-19 -1.840148532785772e-17  4.342327012203602e-01
 1.026379648301340e+00  4.342327012203602e-01 -3.509532302620001e-17

-2.527992483885354e-17  2.098378057924549e-19  1.011088076309186e+00
 2.098378057924549e-19 -1.093725055862528e-17  4.419646528971215e-01
 1.011088076309186e+00  4.419646528971215e-01 -3.461043065982672e-17

-2.550323142593926e-17  2.450110331097269e-19  1.025785953325879e+00
 2.450110331097269e-19 -9.659430081981205e-18  4.229719187223611e-01
 1.025785953325879e+00  4.229719187223611e-01 -3.519121986385044e-17

-2.548104888274600e-17  2.799608121776755e-19  1.021880244368582e+00
 2.799608121776755e-19 -1.526425524701742e-17  4.404301098419883e-01
 1.021880244368582e+00  4.404301098419883e-01 -3.512229424090804e-17

-2.571226223240488e-17  2.632894993932220e-19  1.040761675684568e+00
 2.632894993932220e-19 -1.320853191039574e-17  4.121117581914157e-01
 1.040761675684568e+00  4.121117581914157e-01 -3.584531497855000e-17

-2.580726686213105e-17  2.681571866136334e-19  1.042913596284520e+00
 2.681571866136334e-19 -1.289437824602595e-17  4.249918636790644e-01
 1.042913596284520e+00  4.249918636790644e-01 -3.596178450825951e-17

-2.569495685903116e-17  2.885259009837022e-19  1.022091224108549e+00
 2.885259009837022e-19 -1.309988482363771e-17  4.685894186131561e-01
 1.022091224108549e+00  4.685894186131561e-01 -3.524466104879703e-17

-2.639807981156335e-17  2.217848739550432e-19  1.084040483637671e+00
 2.217848739550432e-19 -1.274445981785210e-17  4.154448440275332e-01
 1.084040483637671e+00  4.154448440275332e-01 -3.746963114434741e-17

-2.614104508429545e-17  1.561009761857033e-19  1.073071781653732e+00
 1.561009761857033e-19 -1.841902232500714e-17  4.118568516975415e-01
 1.073071781653732e+00  4.118568516975415e-01 -3.700301972982670e-17

-2.555740715215463e-17  1.499316251392468e-19  1.030751157787979e+00
 1.499316251392468e-19 -1.630578294546771e-17  4.301999226160793e-01
 1.030751157787979e+00  4.301999226160793e-01 -3.544272413187632e-17

-2.547098699404433e-17  1.423853722668655e-19  1.029093630967079e+00
 1.423853722668655e-19 -1.780260917722713e-17  4.224554623921296e-01
 1.029093630967079e+00  4.224554623921296e-01 -3.533297827063246e-17

-2.559922933358083e-17  1.158916752422430e-19  1.046218742611807e+00
 1.158916752422430e-19 -1.317214082310380e-17  4.118285825449606e-01
 1.046218742611807e+00  4.118285825449606e-01 -3.590556778732749e-17

-2.531625034610941e-17  9.561802041401699e-20  1.028967083826749e+00
 9.561802041401699e-20 -1.186268637953229e-17  4.249961876274977e-01
 1.028967083826749e+00  4.249961876274977e-01 -3.523951808710566e-17

-2.508112785645632e-17  8.209238225739567e-20  1.015381115099550e+00
 8.209238225739567e-20 -1.529637273675158e-17  4.312426638461740e-01
 1.015381115099550e+00  4.312426638461740e-01 -3.470104876759205e-17

-2.500035161577850e-17  5.073245040120022e-20  1.013114761384945e+00
 5.073245040120022e-20 -1.660013968461688e-17  4.314093807331033e-01
 1.013114761384945e+00  4.314093807331033e-01 -3.459682885190383e-17

-2.494187052321750e-17  5.761629844203302e-20  1.013647085642148e+00
 5.761629844203302e-20 -1.147532548597458e-17  4.241443066111759e-01
 1.013647085642148e+00  4.241443066111759e-01 -3.458016458343134e-17

-2.480418429526311e-17  3.979470544576426e-20  1.005057027628466e+00
 3.979470544576426e-20 -1.156520489165951e-17  4.308979306210785e-01
 1.005057027628466e+00  4.308979306210785e-01 -3.425827728492365e-17

-2.468456149114633e-17  4.787594858763451e-20  1.002118265737990e+00
 4.787594858763451e-20 -1.350257895497342e-17  4.220805527945888e-01
 1.002118265737990e+00  4.220805527945888e-01 -3.411828867940971e-17

-2.449700587746573e-17  5.145762584386592e-20  9.910985065041902e-01
 5.145762584386592e-20 -1.201801910036912e-17  4.332646192263656e-01
 9.910985065041902e-01  4.332646192263656e-01 -3.372103079003306e-17

-2.388435718631771e-17  7.896699264601531e-20  9.562006218968704e-01
 7.896699264601531e-20 -1.200505108623178e-17  4.269599188738428e-01
 9.562006218968704e-01  4.269599188738428e-01 -3.239634164528972e-17

-2.423587141894882e-17  3.150987271008789e-20  9.934050676396995e-01
 3.150987271008789e-20 -2.196706392206948e-18  3.800627518282211e-01
 9.934050676396995e-01  3.800627518282211e-01 -3.371326540303906e-17

-2.399756298040388e-17  6.109255400490597e-20  9.618373826363420e-01
 6.109255400490597e-20 -5.330150461449784e-18  4.306978594053386e-01
 9.618373826363420e-01  4.306978594053386e-01 -3.263268025639041e-17

-2.446758126698464e-17  1.272767868030138e-19  9.891595350687928e-01
 1.272767868030138e-19 -1.615876983813955e-17  4.276515556066569e-01
 9.891595350687928e-01  4.276515556066569e-01 -3.365073626691934e-17

-2.463493489237120e-17  9.202642427584164e-20  9.954867565336789e-01
 9.202642427584164e-20 -1.678010591095117e-18  4.229707977931846e-01
 9.954867565336789e-01  4.229707977931846e-01 -3.389853426515941e-17

-2.461657316343280e-17  1.496455451976423e-19  9.948433989252938e-01
 1.496455451976423e-19 -1.516770023474111e-17  4.238570550729806e-01
 9.948433989252938e-01  4.238570550729806e-01 -3.389686703061615e-17

-2.476237291865157e-17  1.391133149963319e-19  1.003189240286724e+00
 1.391133149963319e-19 -1.259465252907392e-17  4.163928235299929e-01
 1.003189240286724e+00  4.163928235299929e-01 -3.421756525011919e-17

-2.481417315218640e-17  1.440132036763766e-19  1.003046367662656e+00
 1.440132036763766e-19 -5.530507951073525e-18  4.195718364739888e-01
 1.003046367662656e+00  4.195718364739888e-01 -3.424982383383038e-17

-2.505662085799383e-17  1.404912945421964e-19  1.018243710589030e+00
 1.404912945421964e-19 -3.674025418712147e-18  4.004143525993166e-01
 1.018243710589030e+00  4.004143525993166e-01 -3.484366213768161e-17

-2.558201027433857e-17  1.784473220183254e-19  1.048352133368520e+00
 1.784473220183254e-19 -1.559128645894642e-17  3.992287944408443e-01
 1.048352133368520e+00  3.992287944408443e-01 -3.596050187347761e-17

-2.554759780189410e-17  2.078360050899164e-19  1.035248282883356e+00
 2.078360050899164e-19 -1.039344286239247e-17  4.452455772245887e-01
 1.035248282883356e+00  4.452455772245887e-01 -3.553591246307488e-17

-2.572566884658252e-17  1.903550775580375e-19  1.060394386539721e+00
 1.903550775580375e-19 -1.617568803163230e-17  3.866957396759262e-01
 1.060394386539721e+00  3.866957396759262e-01 -3.639828048205390e-17


CELL_DATA 1424
SCALARS dislocation_index int
LOOKUP_TABLE default
0
1
2
3
4
5
6
7
8
9
10
11
12
13
14
15
16
17
18
19
20
21
22
23
24
25
26
27
28
29
30
31
32
33
34
35
36
37
38
39
40
41
42
43
44
45
46
47
48
49
50
51
52
53
54
55
56
57
58
59
60
61
62
63
64
65
66
67
68
69
70
71
72
73
74
75
76
77
78
79
80
81
82
83
84
85
86
87
88
89
90
91
92
93
94
95
96
97
98
99
100
101
102
103
104
105
106
107
108
109
110
111
112
113
114
115
116
117
118
119
120
121
122
123
124
125
126
127
128
129
130
131
132
133
134
135
136
137
138
139
140
141
142
143
144
145
146
147
148
149
150
151
152
153
154
155
156
157
158
159
160
161
162
163
164
165
166
167
168
169
170
171
172
173
174
175
176
177
178
179
180
181
182
183
184
185
186
187
188
189
190
191
192
193
194
195
196
197
198
199
200
201
202
203
204
205
206
207
208
209
210
211
212
213
214
215
216
217
218
219
220
221
222
223
224
225
226
227
228
229
230
231
232
233
234
235
236
237
238
239
240
241
242
243
244
245
246
247
248
249
250
251
252
253
254
255
256
257
258
259
260
261
262
263
264
265
266
267
268
269
270
271
272
273
274
275
276
277
278
279
280
281
282
283
284
285
286
287
288
289
290
291
292
293
294
295
296
297
298
299
300
301
302
303
304
305
306
307
308
309
310
311
312
313
314
315
316
317
318
319
320
321
322
323
324
325
326
327
328
329
330
331
332
333
334
335
336
337
338
339
340
341
342
343
344
345
346
347
348
349
350
351
352
353
354
355
356
357
358
359
360
361
362
363
364
365
366
367
368
369
370
371
372
373
374
375
376
377
378
379
380
381
382
383
384
385
386
387
388
389
390
391
392
393
394
395
396
397
398
399
400
401
402
403
404
405
406
407
408
409
410
411
412
413
414
415
416
417
418
419
420
421
422
423
424
425
426
427
428
429
430
431
432
433
434
435
436
437
438
439
440
441
442
443
444
445
446
447
448
449
450
451
452
453
454
455
456
457
458
459
460
461
462
463
464
465
466
467
468
469
470
471
472
473
474
475
476
477
478
479
480
481
482
483
484
485
486
487
488
489
490
491
492
493
494
495
496
497
498
499
500
501
502
503
504
505
506
507
508
509
510
511
512
513
514
515
516
517
518
519
520
521
522
523
524
525
526
527
528
529
530
531
532
533
534
535
536
537
538
539
540
541
542
543
544
545
546
547
548
549
550
551
552
553
554
555
556
557
558
559
560
561
562
563
564
565
566
567
568
569
570
571
572
573
574
575
576
577
578
579
580
581
582
583
584
585
586
587
588
589
590
591
592
593
594
595
596
597
598
599
600
601
602
603
604
605
606
607
608
609
610
611
612
613
614
615
616
617
618
619
620
621
622
623
624
625
626
627
628
629
630
631
632
633
634
635
636
637
638
639
640
641
642
643
644
645
646
647
648
649
650
651
652
653
654
655
656
657
658
659
660
661
662
663
664
665
666
667
668
669
670
671
672
673
674
675
676
677
678
679
680
681
682
683
684
685
686
687
688
689
690
691
692
693
694
695
696
697
698
699
700
701
702
703
704
705
706
707
708
709
710
711
712
713
714
715
716
717
718
719
720
721
722
723
724
725
726
727
728
729
730
731
732
733
734
735
736
737
738
739
740
741
742
743
744
745
746
747
748
749
750
751
752
753
754
755
756
757
758
759
760
761
762
763
764
765
766
767
768
769
770
771
772
773
774
775
776
777
778
779
780
781
782
783
784
785
786
787
788
789
790
791
792
793
794
795
796
797
798
799
800
801
802
803
804
805
806
807
808
809
810
811
812
813
814
815
816
817
818
819
820
821
822
823
824
825
826
827
828
829
830
831
832
833
834
835
836
837
838
839
840
841
842
843
844
845
846
847
848
849
850
851
852
853
854
855
856
857
858
859
860
861
862
863
864
865
866
867
868
869
870
871
872
873
874
875
876
877
878
879
880
881
882
883
884
885
886
887
888
889
890
891
892
893
894
895
896
897
898
899
900
901
902
903
904
905
906
907
908
909
910
911
912
913
914
915
916
917
918
919
920
921
922
923
924
925
926
927
928
929
930
931
932
933
934
935
936
937
938
939
940
941
942
943
944
945
946
947
948
949
950
951
952
953
954
955
956
957
958
959
960
961
962
963
964
965
966
967
968
969
970
971
972
973
974
975
976
977
978
979
980
981
982
983
984
985
986
987
988
989
990
991
992
993
994
995
996
997
998
999
1000
1001
1002
1003
1004
1005
1006
1007
1008
1009
1010
1011
1012
1013
1014
1015
1016
1017
1018
1019
1020
1021
1022
1023
1024
1025
1026
1027
1028
1029
1030
1031
1032
1033
1034
1035
1036
1037
1038
1039
1040
1041
1042
1043
1044
1045
1046
1047
1048
1049
1050
1051
1052
1053
1054
1055
1056
1057
1058
1059
1060
1061
1062
1063
1064
1065
1066
1067
1068
1069
1070
1071
1072
1073
1074
1075
1076
1077
1078
1079
1080
1081
1082
1083
1084
1085
1086
1087
1088
1089
1090
1091
1092
1093
1094
1095
1096
1097
1098
1099
1100
1101
1102
1103
1104
1105
1106
1107
1108
1109
1110
1111
1112
1113
1114
1115
1116
1117
1118
1119
1120
1121
1122
1123
1124
1125
1126
1127
1128
1129
1130
1131
1132
1133
1134
1135
1136
1137
1138
1139
1140
1141
1142
1143
1144
1145
1146
1147
1148
1149
1150
1151
1152
1153
1154
1155
1156
1157
1158
1159
1160
1161
1162
1163
1164
1165
1166
1167
1168
1169
1170
1171
1172
1173
1174
1175
1176
1177
1178
1179
1180
1181
1182
1183
1184
1185
1186
1187
1188
1189
1190
1191
1192
1193
1194
1195
1196
1197
1198
1199
1200
1201
1202
1203
1204
1205
1206
1207
1208
1209
1210
1211
1212
1213
1214
1215
1216
1217
1218
1219
1220
1221
1222
1223
1224
1225
1226
1227
1228
1229
1230
1231
1232
1233
1234
1235
1236
1237
1238
1239
1240
1241
1242
1243
1244
1245
1246
1247
1248
1249
1250
1251
1252
1253
1254
1255
1256
1257
1258
1259
1260
1261
1262
1263
1264
1265
1266
1267
1268
1269
1270
1271
1272
1273
1274
1275
1276
1277
1278
1279
1280
1281
1282
1283
1284
1285
1286
1287
1288
1289
1290
1291
1292
1293
1294
1295
1296
1297
1298
1299
1300
1301
1302
1303
1304
1305
1306
1307
1308
1309
1310
1311
1312
1313
1314
1315
1316
1317
1318
1319
1320
1321
1322
1323
1324
1325
1326
1327
1328
1329
1330
1331
1332
1333
1334
1335
1336
1337
1338
1339
1340
1341
1342
1343
1344
1345
1346
1347
1348
1349
1350
1351
1352
1353
1354
1355
1356
1357
1358
1359
1360
1361
1362
1363
1364
1365
1366
1367
1368
1369
1370
1371
1372
1373
1374
1375
1376
1377
1378
1379
1380
1381
1382
1383
1384
1385
1386
1387
1388
1389
1390
1391
1392
1393
1394
1395
1396
1397
1398
1399
1400
1401
1402
1403
1404
1405
1406
1407
1408
1409
1410
1411
1412
1413
1414
1415
1416
1417
1418
1419
1420
1421
1422
1423

VECTORS burgers_vector_global double
-1.429999999999999e+00 -8.256108849411650e-01  3.393140768766017e-17
 1.429999999999999e+00  8.256108849411650e-01 -3.393140768766017e-17
-1.429999999999999e+00 -8.256108849411650e-01  3.393140768766017e-17
-1.429999999999999e+00 -8.256108849411650e-01  3.393140768766017e-17
-1.429999999999999e+00 -8.256108849411650e-01  3.393140768766017e-17
-1.429999999999999e+00 -8.256108849411650e-01  3.393140768766017e-17
-1.429999999999999e+00 -8.256108849411650e-01  3.393140768766017e-17
-1.429999999999999e+00 -8.256108849411650e-01  3.393140768766017e-17
-1.429999999999999e+00 -8.256108849411650e-01  3.393140768766017e-17
-1.429999999999999e+00 -8.256108849411650e-01  3.393140768766017e-17
-1.429999999999999e+00 -8.256108849411650e-01  3.393140768766017e-17
-1.429999999999999e+00 -8.256108849411650e-01  3.393140768766017e-17
-1.429999999999999e+00 -8.256108849411650e-01  3.393140768766017e-17
-1.429999999999999e+00 -8.256108849411650e-01  3.393140768766017e-17
-1.429999999999999e+00 -8.256108849411650e-01  3.393140768766017e-17
-1.429999999999999e+00 -8.256108849411650e-01  3.393140768766017e-17
-1.429999999999999e+00 -8.256108849411650e-01  3.393140768766017e-17
-1.429999999999999e+00 -8.256108849411650e-01  3.393140768766017e-17
-1.429999999999999e+00 -8.256108849411650e-01  3.393140768766017e-17
-1.429999999999999e+00 -8.256108849411650e-01  3.393140768766017e-17
-1.429999999999999e+00 -8.256108849411650e-01  3.393140768766017e-17
-1.429999999999999e+00 -8.256108849411650e-01  3.393140768766017e-17
-1.429999999999999e+00 -8.256108849411650e-01  3.393140768766017e-17
-1.429999999999999e+00 -8.256108849411650e-01  3.393140768766017e-17
-1.429999999999999e+00 -8.256108849411650e-01  3.393140768766017e-17
-1.429999999999999e+00 -8.256108849411650e-01  3.393140768766017e-17
-1.429999999999999e+00 -8.256108849411650e-01  3.393140768766017e-17
-1.429999999999999e+00 -8.256108849411650e-01  3.393140768766017e-17
-1.429999999999999e+00 -8.256108849411650e-01  3.393140768766017e-17
-1.429999999999999e+00 -8.256108849411650e-01  3.393140768766017e-17
-1.429999999999999e+00 -8.256108849411650e-01  3.393140768766017e-17
-1.429999999999999e+00 -8.256108849411650e-01  3.393140768766017e-17
-1.429999999999999e+00 -8.256108849411650e-01  3.393140768766017e-17
-1.429999999999999e+00 -8.256108849411650e-01  3.393140768766017e-17
-1.429999999999999e+00 -8.256108849411650e-01  3.393140768766017e-17
-1.429999999999999e+00 -8.256108849411650e-01  3.393140768766017e-17
-1.429999999999999e+00 -8.256108849411650e-01  3.393140768766017e-17
-1.429999999999999e+00 -8.256108849411650e-01  3.393140768766017e-17
-1.429999999999999e+00 -8.256108849411650e-01  3.393140768766017e-17
-1.429999999999999e+00 -8.256108849411650e-01  3.393140768766017e-17
-1.429999999999999e+00 -8.256108849411650e-01  3.393140768766017e-17
-1.429999999999999e+00 -8.256108849411650e-01  3.393140768766017e-17
-1.429999999999999e+00 -8.256108849411650e-01  3.393140768766017e-17
-1.429999999999999e+00 -8.256108849411650e-01  3.393140768766017e-17
-1.429999999999999e+00 -8.256108849411650e-01  3.393140768766017e-17
-1.429999999999999e+00 -8.256108849411650e-01  3.393140768766017e-17
-1.429999999999999e+00 -8.256108849411650e-01  3.393140768766017e-17
-1.429999999999999e+00 -8.256108849411650e-01  3.393140768766017e-17
-1.429999999999999e+00 -8.256108849411650e-01  3.393140768766017e-17
-1.429999999999999e+00 -8.256108849411650e-01  3.393140768766017e-17
-1.429999999999999e+00 -8.256108849411650e-01  3.393140768766017e-17
-1.429999999999999e+00 -8.256108849411650e-01  3.393140768766017e-17
-1.429999999999999e+00 -8.256108849411650e-01  3.393140768766017e-17
-1.429999999999999e+00 -8.256108849411650e-01  3.393140768766017e-17
-1.429999999999999e+00 -8.256108849411650e-01  3.393140768766017e-17
-1.429999999999999e+00 -8.256108849411650e-01  3.393140768766017e-17
-1.429999999999999e+00 -8.256108849411650e-01  3.393140768766017e-17
-1.429999999999999e+00 -8.256108849411650e-01  3.393140768766017e-17
-1.429999999999999e+00 -8.256108849411650e-01  3.393140768766017e-17
-1.429999999999999e+00 -8.256108849411650e-01  3.393140768766017e-17
-1.429999999999999e+00 -8.256108849411650e-01  3.393140768766017e-17
-1.429999999999999e+00 -8.256108849411650e-01  3.393140768766017e-17
-1.429999999999999e+00 -8.256108849411650e-01  3.393140768766017e-17
-1.429999999999999e+00 -8.256108849411650e-01  3.393140768766017e-17
-1.429999999999999e+00 -8.256108849411650e-01  3.393140768766017e-17
-1.429999999999999e+00 -8.256108849411650e-01  3.393140768766017e-17
-1.429999999999999e+00 -8.256108849411650e-01  3.393140768766017e-17
-1.429999999999999e+00 -8.256108849411650e-01  3.393140768766017e-17
-1.429999999999999e+00 -8.256108849411650e-01  3.393140768766017e-17
-1.429999999999999e+00 -8.256108849411650e-01  3.393140768766017e-17
-1.429999999999999e+00 -8.256108849411650e-01  3.393140768766017e-17
-1.429999999999999e+00 -8.256108849411650e-01  3.393140768766017e-17
-1.429999999999999e+00 -8.256108849411650e-01  3.393140768766017e-17
-1.429999999999999e+00 -8.256108849411650e-01  3.393140768766017e-17
-1.429999999999999e+00 -8.256108849411650e-01  3.393140768766017e-17
-1.429999999999999e+00 -8.256108849411650e-01  3.393140768766017e-17
-1.429999999999999e+00 -8.256108849411650e-01  3.393140768766017e-17
-1.429999999999999e+00 -8.256108849411650e-01  3.393140768766017e-17
-1.429999999999999e+00 -8.256108849411650e-01  3.393140768766017e-17
-1.429999999999999e+00 -8.256108849411650e-01  3.393140768766017e-17
-1.429999999999999e+00 -8.256108849411650e-01  3.393140768766017e-17
-1.429999999999999e+00 -8.256108849411650e-01  3.393140768766017e-17
-1.429999999999999e+00 -8.256108849411650e-01  3.393140768766017e-17
-1.429999999999999e+00 -8.256108849411650e-01  3.393140768766017e-17
-1.429999999999999e+00 -8.256108849411650e-01  3.393140768766017e-17
-1.429999999999999e+00 -8.256108849411650e-01  3.393140768766017e-17
-1.429999999999999e+00 -8.256108849411650e-01  3.393140768766017e-17
-1.429999999999999e+00 -8.256108849411650e-01  3.393140768766017e-17
-1.429999999999999e+00 -8.256108849411650e-01  3.393140768766017e-17
-1.429999999999999e+00 -8.256108849411650e-01  3.393140768766017e-17
-1.429999999999999e+00 -8.256108849411650e-01  3.393140768766017e-17
-1.429999999999999e+00 -8.256108849411650e-01  3.393140768766017e-17
-1.429999999999999e+00 -8.256108849411650e-01  3.393140768766017e-17
-1.429999999999999e+00 -8.256108849411650e-01  3.393140768766017e-17
-1.429999999999999e+00 -8.256108849411650e-01  3.393140768766017e-17
-1.429999999999999e+00 -8.256108849411650e-01  3.393140768766017e-17
-1.429999999999999e+00 -8.256108849411650e-01  3.393140768766017e-17
-1.429999999999999e+00 -8.256108849411650e-01  3.393140768766017e-17
-1.429999999999999e+00 -8.256108849411650e-01  3.393140768766017e-17
-1.429999999999999e+00 -8.256108849411650e-01  3.393140768766017e-17
-1.429999999999999e+00 -8.256108849411650e-01  3.393140768766017e-17
-1.429999999999999e+00 -8.256108849411650e-01  3.393140768766017e-17
-1.429999999999999e+00 -8.256108849411650e-01  3.393140768766017e-17
-1.429999999999999e+00 -8.256108849411650e-01  3.393140768766017e-17
-1.429999999999999e+00 -8.256108849411650e-01  3.393140768766017e-17
-1.429999999999999e+00 -8.256108849411650e-01  3.393140768766017e-17
-1.429999999999999e+00 -8.256108849411650e-01  3.393140768766017e-17
-1.429999999999999e+00 -8.256108849411650e-01  3.393140768766017e-17
-1.429999999999999e+00 -8.256108849411650e-01  3.393140768766017e-17
-1.429999999999999e+00 -8.256108849411650e-01  3.393140768766017e-17
-1.429999999999999e+00 -8.256108849411650e-01  3.393140768766017e-17
-1.429999999999999e+00 -8.256108849411650e-01  3.393140768766017e-17
-1.429999999999999e+00 -8.256108849411650e-01  3.393140768766017e-17
-1.429999999999999e+00 -8.256108849411650e-01  3.393140768766017e-17
-1.429999999999999e+00 -8.256108849411650e-01  3.393140768766017e-17
-1.429999999999999e+00 -8.256108849411650e-01  3.393140768766017e-17
-1.429999999999999e+00 -8.256108849411650e-01  3.393140768766017e-17
-1.429999999999999e+00 -8.256108849411650e-01  3.393140768766017e-17
-1.429999999999999e+00 -8.256108849411650e-01  3.393140768766017e-17
-1.429999999999999e+00 -8.256108849411650e-01  3.393140768766017e-17
-1.429999999999999e+00 -8.256108849411650e-01  3.393140768766017e-17
-1.429999999999999e+00 -8.256108849411650e-01  3.393140768766017e-17
-1.429999999999999e+00 -8.256108849411650e-01  3.393140768766017e-17
-1.429999999999999e+00 -8.256108849411650e-01  3.393140768766017e-17
-1.429999999999999e+00 -8.256108849411650e-01  3.393140768766017e-17
-1.429999999999999e+00 -8.256108849411650e-01  3.393140768766017e-17
-1.429999999999999e+00 -8.256108849411650e-01  3.393140768766017e-17
-1.429999999999999e+00 -8.256108849411650e-01  3.393140768766017e-17
-1.429999999999999e+00 -8.256108849411650e-01  3.393140768766017e-17
-1.429999999999999e+00 -8.256108849411650e-01  3.393140768766017e-17
-1.429999999999999e+00 -8.256108849411650e-01  3.393140768766017e-17
-1.429999999999999e+00 -8.256108849411650e-01  3.393140768766017e-17
-1.429999999999999e+00 -8.256108849411650e-01  3.393140768766017e-17
-1.429999999999999e+00 -8.256108849411650e-01  3.393140768766017e-17
-1.429999999999999e+00 -8.256108849411650e-01  3.393140768766017e-17
-1.429999999999999e+00 -8.256108849411650e-01  3.393140768766017e-17
-1.429999999999999e+00 -8.256108849411650e-01  3.393140768766017e-17
-1.429999999999999e+00 -8.256108849411650e-01  3.393140768766017e-17
-1.429999999999999e+00 -8.256108849411650e-01  3.393140768766017e-17
-1.429999999999999e+00 -8.256108849411650e-01  3.393140768766017e-17
-1.429999999999999e+00 -8.256108849411650e-01  3.393140768766017e-17
-1.429999999999999e+00 -8.256108849411650e-01  3.393140768766017e-17
-1.429999999999999e+00 -8.256108849411650e-01  3.393140768766017e-17
-1.429999999999999e+00 -8.256108849411650e-01  3.393140768766017e-17
-1.429999999999999e+00 -8.256108849411650e-01  3.393140768766017e-17
-1.429999999999999e+00 -8.256108849411650e-01  3.393140768766017e-17
-1.429999999999999e+00 -8.256108849411650e-01  3.393140768766017e-17
-1.429999999999999e+00 -8.256108849411650e-01  3.393140768766017e-17
-1.429999999999999e+00 -8.256108849411650e-01  3.393140768766017e-17
-1.429999999999999e+00 -8.256108849411650e-01  3.393140768766017e-17
-1.429999999999999e+00 -8.256108849411650e-01  3.393140768766017e-17
-1.429999999999999e+00 -8.256108849411650e-01  3.393140768766017e-17
-1.429999999999999e+00 -8.256108849411650e-01  3.393140768766017e-17
-1.429999999999999e+00 -8.256108849411650e-01  3.393140768766017e-17
-1.429999999999999e+00 -8.256108849411650e-01  3.393140768766017e-17
-1.429999999999999e+00 -8.256108849411650e-01  3.393140768766017e-17
-1.429999999999999e+00 -8.256108849411650e-01  3.393140768766017e-17
-1.429999999999999e+00 -8.256108849411650e-01  3.393140768766017e-17
-1.429999999999999e+00 -8.256108849411650e-01  3.393140768766017e-17
-1.429999999999999e+00 -8.256108849411650e-01  3.393140768766017e-17
-1.429999999999999e+00 -8.256108849411650e-01  3.393140768766017e-17
-1.429999999999999e+00 -8.256108849411650e-01  3.393140768766017e-17
-1.429999999999999e+00 -8.256108849411650e-01  3.393140768766017e-17
-1.429999999999999e+00 -8.256108849411650e-01  3.393140768766017e-17
-1.429999999999999e+00 -8.256108849411650e-01  3.393140768766017e-17
-1.429999999999999e+00 -8.256108849411650e-01  3.393140768766017e-17
-1.429999999999999e+00 -8.256108849411650e-01  3.393140768766017e-17
-1.429999999999999e+00 -8.256108849411650e-01  3.393140768766017e-17
-1.429999999999999e+00 -8.256108849411650e-01  3.393140768766017e-17
-1.429999999999999e+00 -8.256108849411650e-01  3.393140768766017e-17
-1.429999999999999e+00 -8.256108849411650e-01  3.393140768766017e-17
-1.429999999999999e+00 -8.256108849411650e-01  3.393140768766017e-17
-1.429999999999999e+00 -8.256108849411650e-01  3.393140768766017e-17
-1.429999999999999e+00 -8.256108849411650e-01  3.393140768766017e-17
-1.429999999999999e+00 -8.256108849411650e-01  3.393140768766017e-17
-1.429999999999999e+00 -8.256108849411650e-01  3.393140768766017e-17
-1.429999999999999e+00 -8.256108849411650e-01  3.393140768766017e-17
-1.429999999999999e+00 -8.256108849411650e-01  3.393140768766017e-17
-1.429999999999999e+00 -8.256108849411650e-01  3.393140768766017e-17
-1.429999999999999e+00 -8.256108849411650e-01  3.393140768766017e-17
-1.429999999999999e+00 -8.256108849411650e-01  3.393140768766017e-17
-1.429999999999999e+00 -8.256108849411650e-01  3.393140768766017e-17
-1.429999999999999e+00 -8.256108849411650e-01  3.393140768766017e-17
-1.429999999999999e+00 -8.256108849411650e-01  3.393140768766017e-17
-1.429999999999999e+00 -8.256108849411650e-01  3.393140768766017e-17
-1.429999999999999e+00 -8.256108849411650e-01  3.393140768766017e-17
-1.429999999999999e+00 -8.256108849411650e-01  3.393140768766017e-17
-1.429999999999999e+00 -8.256108849411650e-01  3.393140768766017e-17
 1.429999999999999e+00  8.256108849411650e-01 -3.393140768766017e-17
-1.429999999999999e+00 -8.256108849411650e-01  3.393140768766017e-17
-1.429999999999999e+00 -8.256108849411650e-01  3.393140768766017e-17
-1.429999999999999e+00 -8.256108849411650e-01  3.393140768766017e-17
-1.429999999999999e+00 -8.256108849411650e-01  3.393140768766017e-17
-1.429999999999999e+00 -8.256108849411650e-01  3.393140768766017e-17
-1.429999999999999e+00 -8.256108849411650e-01  3.393140768766017e-17
-1.429999999999999e+00 -8.256108849411650e-01  3.393140768766017e-17
-1.429999999999999e+00 -8.256108849411650e-01  3.393140768766017e-17
-1.429999999999999e+00 -8.256108849411650e-01  3.393140768766017e-17
-1.429999999999999e+00 -8.256108849411650e-01  3.393140768766017e-17
-1.429999999999999e+00 -8.256108849411650e-01  3.393140768766017e-17
-1.429999999999999e+00 -8.256108849411650e-01  3.393140768766017e-17
-1.429999999999999e+00 -8.256108849411650e-01  3.393140768766017e-17
-1.429999999999999e+00 -8.256108849411650e-01  3.393140768766017e-17
-1.429999999999999e+00 -8.256108849411650e-01  3.393140768766017e-17
-1.429999999999999e+00 -8.256108849411650e-01  3.393140768766017e-17
-1.429999999999999e+00 -8.256108849411650e-01  3.393140768766017e-17
-1.429999999999999e+00 -8.256108849411650e-01  3.393140768766017e-17
-1.429999999999999e+00 -8.256108849411650e-01  3.393140768766017e-17
-1.429999999999999e+00 -8.256108849411650e-01  3.393140768766017e-17
-1.429999999999999e+00 -8.256108849411650e-01  3.393140768766017e-17
-1.429999999999999e+00 -8.256108849411650e-01  3.393140768766017e-17
-1.429999999999999e+00 -8.256108849411650e-01  3.393140768766017e-17
-1.429999999999999e+00 -8.256108849411650e-01  3.393140768766017e-17
-1.429999999999999e+00 -8.256108849411650e-01  3.393140768766017e-17
-1.429999999999999e+00 -8.256108849411650e-01  3.393140768766017e-17
-1.429999999999999e+00 -8.256108849411650e-01  3.393140768766017e-17
-1.429999999999999e+00 -8.256108849411650e-01  3.393140768766017e-17
-1.429999999999999e+00 -8.256108849411650e-01  3.393140768766017e-17
-1.429999999999999e+00 -8.256108849411650e-01  3.393140768766017e-17
-1.429999999999999e+00 -8.256108849411650e-01  3.393140768766017e-17
-1.429999999999999e+00 -8.256108849411650e-01  3.393140768766017e-17
-1.429999999999999e+00 -8.256108849411650e-01  3.393140768766017e-17
-1.429999999999999e+00 -8.256108849411650e-01  3.393140768766017e-17
-1.429999999999999e+00 -8.256108849411650e-01  3.393140768766017e-17
-1.429999999999999e+00 -8.256108849411650e-01  3.393140768766017e-17
-1.429999999999999e+00 -8.256108849411650e-01  3.393140768766017e-17
-1.429999999999999e+00 -8.256108849411650e-01  3.393140768766017e-17
-1.429999999999999e+00 -8.256108849411650e-01  3.393140768766017e-17
-1.429999999999999e+00 -8.256108849411650e-01  3.393140768766017e-17
-1.429999999999999e+00 -8.256108849411650e-01  3.393140768766017e-17
-1.429999999999999e+00 -8.256108849411650e-01  3.393140768766017e-17
-1.429999999999999e+00 -8.256108849411650e-01  3.393140768766017e-17
-1.429999999999999e+00 -8.256108849411650e-01  3.393140768766017e-17
-1.429999999999999e+00 -8.256108849411650e-01  3.393140768766017e-17
-1.429999999999999e+00 -8.256108849411650e-01  3.393140768766017e-17
-1.429999999999999e+00 -8.256108849411650e-01  3.393140768766017e-17
-1.429999999999999e+00 -8.256108849411650e-01  3.393140768766017e-17
-1.429999999999999e+00 -8.256108849411650e-01  3.393140768766017e-17
-1.429999999999999e+00 -8.256108849411650e-01  3.393140768766017e-17
-1.429999999999999e+00 -8.256108849411650e-01  3.393140768766017e-17
-1.429999999999999e+00 -8.256108849411650e-01  3.393140768766017e-17
-1.429999999999999e+00 -8.256108849411650e-01  3.393140768766017e-17
-1.429999999999999e+00 -8.256108849411650e-01  3.393140768766017e-17
-1.429999999999999e+00 -8.256108849411650e-01  3.393140768766017e-17
-1.429999999999999e+00 -8.256108849411650e-01  3.393140768766017e-17
-1.429999999999999e+00 -8.256108849411650e-01  3.393140768766017e-17
-1.429999999999999e+00 -8.256108849411650e-01  3.393140768766017e-17
-1.429999999999999e+00 -8.256108849411650e-01  3.393140768766017e-17
-1.429999999999999e+00 -8.256108849411650e-01  3.393140768766017e-17
-1.429999999999999e+00 -8.256108849411650e-01  3.393140768766017e-17
-1.429999999999999e+00 -8.256108849411650e-01  3.393140768766017e-17
-1.429999999999999e+00 -8.256108849411650e-01  3.393140768766017e-17
-1.429999999999999e+00 -8.256108849411650e-01  3.393140768766017e-17
-1.429999999999999e+00 -8.256108849411650e-01  3.393140768766017e-17
-1.429999999999999e+00 -8.256108849411650e-01  3.393140768766017e-17
-1.429999999999999e+00 -8.256108849411650e-01  3.393140768766017e-17
-1.429999999999999e+00 -8.256108849411650e-01  3.393140768766017e-17
-1.429999999999999e+00 -8.256108849411650e-01  3.393140768766017e-17
-1.429999999999999e+00 -8.256108849411650e-01  3.393140768766017e-17
-1.429999999999999e+00 -8.256108849411650e-01  3.393140768766017e-17
-1.429999999999999e+00 -8.256108849411650e-01  3.393140768766017e-17
-1.429999999999999e+00 -8.256108849411650e-01  3.393140768766017e-17
-1.429999999999999e+00 -8.256108849411650e-01  3.393140768766017e-17
-1.429999999999999e+00 -8.256108849411650e-01  3.393140768766017e-17
-1.429999999999999e+00 -8.256108849411650e-01  3.393140768766017e-17
-1.429999999999999e+00 -8.256108849411650e-01  3.393140768766017e-17
-1.429999999999999e+00 -8.256108849411650e-01  3.393140768766017e-17
-1.429999999999999e+00 -8.256108849411650e-01  3.393140768766017e-17
-1.429999999999999e+00 -8.256108849411650e-01  3.393140768766017e-17
-1.429999999999999e+00 -8.256108849411650e-01  3.393140768766017e-17
-1.429999999999999e+00 -8.256108849411650e-01  3.393140768766017e-17
-1.429999999999999e+00 -8.256108849411650e-01  3.393140768766017e-17
-1.429999999999999e+00 -8.256108849411650e-01  3.393140768766017e-17
-1.429999999999999e+00 -8.256108849411650e-01  3.393140768766017e-17
-1.429999999999999e+00 -8.256108849411650e-01  3.393140768766017e-17
-1.429999999999999e+00 -8.256108849411650e-01  3.393140768766017e-17
-1.429999999999999e+00 -8.256108849411650e-01  3.393140768766017e-17
-1.429999999999999e+00 -8.256108849411650e-01  3.393140768766017e-17
-1.429999999999999e+00 -8.256108849411650e-01  3.393140768766017e-17
-1.429999999999999e+00 -8.256108849411650e-01  3.393140768766017e-17
-1.429999999999999e+00 -8.256108849411650e-01  3.393140768766017e-17
-1.429999999999999e+00 -8.256108849411650e-01  3.393140768766017e-17
-1.429999999999999e+00 -8.256108849411650e-01  3.393140768766017e-17
-1.429999999999999e+00 -8.256108849411650e-01  3.393140768766017e-17
-1.429999999999999e+00 -8.256108849411650e-01  3.393140768766017e-17
-1.429999999999999e+00 -8.256108849411650e-01  3.393140768766017e-17
-1.429999999999999e+00 -8.256108849411650e-01  3.393140768766017e-17
-1.429999999999999e+00 -8.256108849411650e-01  3.393140768766017e-17
-1.429999999999999e+00 -8.256108849411650e-01  3.393140768766017e-17
-1.429999999999999e+00 -8.256108849411650e-01  3.393140768766017e-17
-1.429999999999999e+00 -8.256108849411650e-01  3.393140768766017e-17
-1.429999999999999e+00 -8.256108849411650e-01  3.393140768766017e-17
-1.429999999999999e+00 -8.256108849411650e-01  3.393140768766017e-17
-1.429999999999999e+00 -8.256108849411650e-01  3.393140768766017e-17
-1.429999999999999e+00 -8.256108849411650e-01  3.393140768766017e-17
-1.429999999999999e+00 -8.256108849411650e-01  3.393140768766017e-17
-1.429999999999999e+00 -8.256108849411650e-01  3.393140768766017e-17
-1.429999999999999e+00 -8.256108849411650e-01  3.393140768766017e-17
-1.429999999999999e+00 -8.256108849411650e-01  3.393140768766017e-17
-1.429999999999999e+00 -8.256108849411650e-01  3.393140768766017e-17
-1.429999999999999e+00 -8.256108849411650e-01  3.393140768766017e-17
-1.429999999999999e+00 -8.256108849411650e-01  3.393140768766017e-17
-1.429999999999999e+00 -8.256108849411650e-01  3.393140768766017e-17
-1.429999999999999e+00 -8.256108849411650e-01  3.393140768766017e-17
-1.429999999999999e+00 -8.256108849411650e-01  3.393140768766017e-17
-1.429999999999999e+00 -8.256108849411650e-01  3.393140768766017e-17
-1.429999999999999e+00 -8.256108849411650e-01  3.393140768766017e-17
-1.429999999999999e+00 -8.256108849411650e-01  3.393140768766017e-17
-1.429999999999999e+00 -8.256108849411650e-01  3.393140768766017e-17
-1.429999999999999e+00 -8.256108849411650e-01  3.393140768766017e-17
-1.429999999999999e+00 -8.256108849411650e-01  3.393140768766017e-17
-1.429999999999999e+00 -8.256108849411650e-01  3.393140768766017e-17
-1.429999999999999e+00 -8.256108849411650e-01  3.393140768766017e-17
-1.429999999999999e+00 -8.256108849411650e-01  3.393140768766017e-17
-1.429999999999999e+00 -8.256108849411650e-01  3.393140768766017e-17
-1.429999999999999e+00 -8.256108849411650e-01  3.393140768766017e-17
-1.429999999999999e+00 -8.256108849411650e-01  3.393140768766017e-17
-1.429999999999999e+00 -8.256108849411650e-01  3.393140768766017e-17
-1.429999999999999e+00 -8.256108849411650e-01  3.393140768766017e-17
-1.429999999999999e+00 -8.256108849411650e-01  3.393140768766017e-17
-1.429999999999999e+00 -8.256108849411650e-01  3.393140768766017e-17
-1.429999999999999e+00 -8.256108849411650e-01  3.393140768766017e-17
-1.429999999999999e+00 -8.256108849411650e-01  3.393140768766017e-17
-1.429999999999999e+00 -8.256108849411650e-01  3.393140768766017e-17
-1.429999999999999e+00 -8.256108849411650e-01  3.393140768766017e-17
-1.429999999999999e+00 -8.256108849411650e-01  3.393140768766017e-17
-1.429999999999999e+00 -8.256108849411650e-01  3.393140768766017e-17
-1.429999999999999e+00 -8.256108849411650e-01  3.393140768766017e-17
-1.429999999999999e+00 -8.256108849411650e-01  3.393140768766017e-17
-1.429999999999999e+00 -8.256108849411650e-01  3.393140768766017e-17
-1.429999999999999e+00 -8.256108849411650e-01  3.393140768766017e-17
-1.429999999999999e+00 -8.256108849411650e-01  3.393140768766017e-17
-1.429999999999999e+00 -8.256108849411650e-01  3.393140768766017e-17
-1.429999999999999e+00 -8.256108849411650e-01  3.393140768766017e-17
-1.429999999999999e+00 -8.256108849411650e-01  3.393140768766017e-17
-1.429999999999999e+00 -8.256108849411650e-01  3.393140768766017e-17
-1.429999999999999e+00 -8.256108849411650e-01  3.393140768766017e-17
-1.429999999999999e+00 -8.256108849411650e-01  3.393140768766017e-17
-1.429999999999999e+00 -8.256108849411650e-01  3.393140768766017e-17
-1.429999999999999e+00 -8.256108849411650e-01  3.393140768766017e-17
-1.429999999999999e+00 -8.256108849411650e-01  3.393140768766017e-17
-1.429999999999999e+00 -8.256108849411650e-01  3.393140768766017e-17
-1.429999999999999e+00 -8.256108849411650e-01  3.393140768766017e-17
-1.429999999999999e+00 -8.256108849411650e-01  3.393140768766017e-17
-1.429999999999999e+00 -8.256108849411650e-01  3.393140768766017e-17
-1.429999999999999e+00 -8.256108849411650e-01  3.393140768766017e-17
-1.429999999999999e+00 -8.256108849411650e-01  3.393140768766017e-17
-1.429999999999999e+00 -8.256108849411650e-01  3.393140768766017e-17
-1.429999999999999e+00 -8.256108849411650e-01  3.393140768766017e-17
-1.429999999999999e+00 -8.256108849411650e-01  3.393140768766017e-17
-1.429999999999999e+00 -8.256108849411650e-01  3.393140768766017e-17
-1.429999999999999e+00 -8.256108849411650e-01  3.393140768766017e-17
-1.429999999999999e+00 -8.256108849411650e-01  3.393140768766017e-17
-1.429999999999999e+00 -8.256108849411650e-01  3.393140768766017e-17
-1.429999999999999e+00 -8.256108849411650e-01  3.393140768766017e-17
-1.429999999999999e+00 -8.256108849411650e-01  3.393140768766017e-17
-1.429999999999999e+00 -8.256108849411650e-01  3.393140768766017e-17
-1.429999999999999e+00 -8.256108849411650e-01  3.393140768766017e-17
-1.429999999999999e+00 -8.256108849411650e-01  3.393140768766017e-17
-1.429999999999999e+00 -8.256108849411650e-01  3.393140768766017e-17
-1.429999999999999e+00 -8.256108849411650e-01  3.393140768766017e-17
-1.429999999999999e+00 -8.256108849411650e-01  3.393140768766017e-17
-1.429999999999999e+00 -8.256108849411650e-01  3.393140768766017e-17
-1.429999999999999e+00 -8.256108849411650e-01  3.393140768766017e-17
-1.429999999999999e+00 -8.256108849411650e-01  3.393140768766017e-17
-1.429999999999999e+00 -8.256108849411650e-01  3.393140768766017e-17
-1.429999999999999e+00 -8.256108849411650e-01  3.393140768766017e-17
-1.429999999999999e+00 -8.256108849411650e-01  3.393140768766017e-17
-1.429999999999999e+00 -8.256108849411650e-01  3.393140768766017e-17
-1.429999999999999e+00 -8.256108849411650e-01  3.393140768766017e-17
-1.429999999999999e+00 -8.256108849411650e-01  3.393140768766017e-17
-1.429999999999999e+00 -8.256108849411650e-01  3.393140768766017e-17
 1.429999999999999e+00  8.256108849411650e-01 -3.393140768766017e-17
-1.429999999999999e+00 -8.256108849411650e-01  3.393140768766017e-17
 1.429999999999999e+00  8.256108849411650e-01 -3.393140768766017e-17
 1.429999999999999e+00  8.256108849411650e-01 -3.393140768766017e-17
 1.429999999999999e+00  8.256108849411650e-01 -3.393140768766017e-17
 1.429999999999999e+00  8.256108849411650e-01 -3.393140768766017e-17
 1.429999999999999e+00  8.256108849411650e-01 -3.393140768766017e-17
 1.429999999999999e+00  8.256108849411650e-01 -3.393140768766017e-17
 1.429999999999999e+00  8.256108849411650e-01 -3.393140768766017e-17
 1.429999999999999e+00  8.256108849411650e-01 -3.393140768766017e-17
 1.429999999999999e+00  8.256108849411650e-01 -3.393140768766017e-17
 1.429999999999999e+00  8.256108849411650e-01 -3.393140768766017e-17
 1.429999999999999e+00  8.256108849411650e-01 -3.393140768766017e-17
 1.429999999999999e+00  8.256108849411650e-01 -3.393140768766017e-17
 1.429999999999999e+00  8.256108849411650e-01 -3.393140768766017e-17
 1.429999999999999e+00  8.256108849411650e-01 -3.393140768766017e-17
 1.429999999999999e+00  8.256108849411650e-01 -3.393140768766017e-17
 1.429999999999999e+00  8.256108849411650e-01 -3.393140768766017e-17
 1.429999999999999e+00  8.256108849411650e-01 -3.393140768766017e-17
 1.429999999999999e+00  8.256108849411650e-01 -3.393140768766017e-17
 1.429999999999999e+00  8.256108849411650e-01 -3.393140768766017e-17
 1.429999999999999e+00  8.256108849411650e-01 -3.393140768766017e-17
 1.429999999999999e+00  8.256108849411650e-01 -3.393140768766017e-17
 1.429999999999999e+00  8.256108849411650e-01 -3.393140768766017e-17
 1.429999999999999e+00  8.256108849411650e-01 -3.393140768766017e-17
 1.429999999999999e+00  8.256108849411650e-01 -3.393140768766017e-17
 1.429999999999999e+00  8.256108849411650e-01 -3.393140768766017e-17
 1.429999999999999e+00  8.256108849411650e-01 -3.393140768766017e-17
 1.429999999999999e+00  8.256108849411650e-01 -3.393140768766017e-17
 1.429999999999999e+00  8.256108849411650e-01 -3.393140768766017e-17
 1.429999999999999e+00  8.256108849411650e-01 -3.393140768766017e-17
 1.429999999999999e+00  8.256108849411650e-01 -3.393140768766017e-17
 1.429999999999999e+00  8.256108849411650e-01 -3.393140768766017e-17
 1.429999999999999e+00  8.256108849411650e-01 -3.393140768766017e-17
 1.429999999999999e+00  8.256108849411650e-01 -3.393140768766017e-17
 1.429999999999999e+00  8.256108849411650e-01 -3.393140768766017e-17
 1.429999999999999e+00  8.256108849411650e-01 -3.393140768766017e-17
 1.429999999999999e+00  8.256108849411650e-01 -3.393140768766017e-17
 1.429999999999999e+00  8.256108849411650e-01 -3.393140768766017e-17
 1.429999999999999e+00  8.256108849411650e-01 -3.393140768766017e-17
 1.429999999999999e+00  8.256108849411650e-01 -3.393140768766017e-17
 1.429999999999999e+00  8.256108849411650e-01 -3.393140768766017e-17
 1.429999999999999e+00  8.256108849411650e-01 -3.393140768766017e-17
 1.429999999999999e+00  8.256108849411650e-01 -3.393140768766017e-17
 1.429999999999999e+00  8.256108849411650e-01 -3.393140768766017e-17
 1.429999999999999e+00  8.256108849411650e-01 -3.393140768766017e-17
 1.429999999999999e+00  8.256108849411650e-01 -3.393140768766017e-17
 1.429999999999999e+00  8.256108849411650e-01 -3.393140768766017e-17
 1.429999999999999e+00  8.256108849411650e-01 -3.393140768766017e-17
 1.429999999999999e+00  8.256108849411650e-01 -3.393140768766017e-17
 1.429999999999999e+00  8.256108849411650e-01 -3.393140768766017e-17
 1.429999999999999e+00  8.256108849411650e-01 -3.393140768766017e-17
 1.429999999999999e+00  8.256108849411650e-01 -3.393140768766017e-17
 1.429999999999999e+00  8.256108849411650e-01 -3.393140768766017e-17
 1.429999999999999e+00  8.256108849411650e-01 -3.393140768766017e-17
 1.429999999999999e+00  8.256108849411650e-01 -3.393140768766017e-17
 1.429999999999999e+00  8.256108849411650e-01 -3.393140768766017e-17
 1.429999999999999e+00  8.256108849411650e-01 -3.393140768766017e-17
 1.429999999999999e+00  8.256108849411650e-01 -3.393140768766017e-17
 1.429999999999999e+00  8.256108849411650e-01 -3.393140768766017e-17
 1.429999999999999e+00  8.256108849411650e-01 -3.393140768766017e-17
 1.429999999999999e+00  8.256108849411650e-01 -3.393140768766017e-17
 1.429999999999999e+00  8.256108849411650e-01 -3.393140768766017e-17
 1.429999999999999e+00  8.256108849411650e-01 -3.393140768766017e-17
 1.429999999999999e+00  8.256108849411650e-01 -3.393140768766017e-17
 1.429999999999999e+00  8.256108849411650e-01 -3.393140768766017e-17
 1.429999999999999e+00  8.256108849411650e-01 -3.393140768766017e-17
 1.429999999999999e+00  8.256108849411650e-01 -3.393140768766017e-17
 1.429999999999999e+00  8.256108849411650e-01 -3.393140768766017e-17
 1.429999999999999e+00  8.256108849411650e-01 -3.393140768766017e-17
 1.429999999999999e+00  8.256108849411650e-01 -3.393140768766017e-17
 1.429999999999999e+00  8.256108849411650e-01 -3.393140768766017e-17
 1.429999999999999e+00  8.256108849411650e-01 -3.393140768766017e-17
 1.429999999999999e+00  8.256108849411650e-01 -3.393140768766017e-17
 1.429999999999999e+00  8.256108849411650e-01 -3.393140768766017e-17
 1.429999999999999e+00  8.256108849411650e-01 -3.393140768766017e-17
 1.429999999999999e+00  8.256108849411650e-01 -3.393140768766017e-17
 1.429999999999999e+00  8.256108849411650e-01 -3.393140768766017e-17
 1.429999999999999e+00  8.256108849411650e-01 -3.393140768766017e-17
 1.429999999999999e+00  8.256108849411650e-01 -3.393140768766017e-17
 1.429999999999999e+00  8.256108849411650e-01 -3.393140768766017e-17
 1.429999999999999e+00  8.256108849411650e-01 -3.393140768766017e-17
 1.429999999999999e+00  8.256108849411650e-01 -3.393140768766017e-17
 1.429999999999999e+00  8.256108849411650e-01 -3.393140768766017e-17
 1.429999999999999e+00  8.256108849411650e-01 -3.393140768766017e-17
 1.429999999999999e+00  8.256108849411650e-01 -3.393140768766017e-17
 1.429999999999999e+00  8.256108849411650e-01 -3.393140768766017e-17
 1.429999999999999e+00  8.256108849411650e-01 -3.393140768766017e-17
 1.429999999999999e+00  8.256108849411650e-01 -3.393140768766017e-17
 1.429999999999999e+00  8.256108849411650e-01 -3.393140768766017e-17
 1.429999999999999e+00  8.256108849411650e-01 -3.393140768766017e-17
 1.429999999999999e+00  8.256108849411650e-01 -3.393140768766017e-17
 1.429999999999999e+00  8.256108849411650e-01 -3.393140768766017e-17
 1.429999999999999e+00  8.256108849411650e-01 -3.393140768766017e-17
 1.429999999999999e+00  8.256108849411650e-01 -3.393140768766017e-17
 1.429999999999999e+00  8.256108849411650e-01 -3.393140768766017e-17
 1.429999999999999e+00  8.256108849411650e-01 -3.393140768766017e-17
 1.429999999999999e+00  8.256108849411650e-01 -3.393140768766017e-17
 1.429999999999999e+00  8.256108849411650e-01 -3.393140768766017e-17
 1.429999999999999e+00  8.256108849411650e-01 -3.393140768766017e-17
 1.429999999999999e+00  8.256108849411650e-01 -3.393140768766017e-17
 1.429999999999999e+00  8.256108849411650e-01 -3.393140768766017e-17
 1.429999999999999e+00  8.256108849411650e-01 -3.393140768766017e-17
 1.429999999999999e+00  8.256108849411650e-01 -3.393140768766017e-17
 1.429999999999999e+00  8.256108849411650e-01 -3.393140768766017e-17
 1.429999999999999e+00  8.256108849411650e-01 -3.393140768766017e-17
 1.429999999999999e+00  8.256108849411650e-01 -3.393140768766017e-17
 1.429999999999999e+00  8.256108849411650e-01 -3.393140768766017e-17
 1.429999999999999e+00  8.256108849411650e-01 -3.393140768766017e-17
 1.429999999999999e+00  8.256108849411650e-01 -3.393140768766017e-17
 1.429999999999999e+00  8.256108849411650e-01 -3.393140768766017e-17
 1.429999999999999e+00  8.256108849411650e-01 -3.393140768766017e-17
 1.429999999999999e+00  8.256108849411650e-01 -3.393140768766017e-17
 1.429999999999999e+00  8.256108849411650e-01 -3.393140768766017e-17
 1.429999999999999e+00  8.256108849411650e-01 -3.393140768766017e-17
 1.429999999999999e+00  8.256108849411650e-01 -3.393140768766017e-17
 1.429999999999999e+00  8.256108849411650e-01 -3.393140768766017e-17
 1.429999999999999e+00  8.256108849411650e-01 -3.393140768766017e-17
 1.429999999999999e+00  8.256108849411650e-01 -3.393140768766017e-17
 1.429999999999999e+00  8.256108849411650e-01 -3.393140768766017e-17
 1.429999999999999e+00  8.256108849411650e-01 -3.393140768766017e-17
 1.429999999999999e+00  8.256108849411650e-01 -3.393140768766017e-17
 1.429999999999999e+00  8.256108849411650e-01 -3.393140768766017e-17
 1.429999999999999e+00  8.256108849411650e-01 -3.393140768766017e-17
 1.429999999999999e+00  8.256108849411650e-01 -3.393140768766017e-17
 1.429999999999999e+00  8.256108849411650e-01 -3.393140768766017e-17
 1.429999999999999e+00  8.256108849411650e-01 -3.393140768766017e-17
 1.429999999999999e+00  8.256108849411650e-01 -3.393140768766017e-17
 1.429999999999999e+00  8.256108849411650e-01 -3.393140768766017e-17
 1.429999999999999e+00  8.256108849411650e-01 -3.393140768766017e-17
 1.429999999999999e+00  8.256108849411650e-01 -3.393140768766017e-17
 1.429999999999999e+00  8.256108849411650e-01 -3.393140768766017e-17
 1.429999999999999e+00  8.256108849411650e-01 -3.393140768766017e-17
 1.429999999999999e+00  8.256108849411650e-01 -3.393140768766017e-17
 1.429999999999999e+00  8.256108849411650e-01 -3.393140768766017e-17
 1.429999999999999e+00  8.256108849411650e-01 -3.393140768766017e-17
 1.429999999999999e+00  8.256108849411650e-01 -3.393140768766017e-17
 1.429999999999999e+00  8.256108849411650e-01 -3.393140768766017e-17
 1.429999999999999e+00  8.256108849411650e-01 -3.393140768766017e-17
 1.429999999999999e+00  8.256108849411650e-01 -3.393140768766017e-17
 1.429999999999999e+00  8.256108849411650e-01 -3.393140768766017e-17
 1.429999999999999e+00  8.256108849411650e-01 -3.393140768766017e-17
 1.429999999999999e+00  8.256108849411650e-01 -3.393140768766017e-17
 1.429999999999999e+00  8.256108849411650e-01 -3.393140768766017e-17
 1.429999999999999e+00  8.256108849411650e-01 -3.393140768766017e-17
 1.429999999999999e+00  8.256108849411650e-01 -3.393140768766017e-17
 1.429999999999999e+00  8.256108849411650e-01 -3.393140768766017e-17
 1.429999999999999e+00  8.256108849411650e-01 -3.393140768766017e-17
 1.429999999999999e+00  8.256108849411650e-01 -3.393140768766017e-17
 1.429999999999999e+00  8.256108849411650e-01 -3.393140768766017e-17
 1.429999999999999e+00  8.256108849411650e-01 -3.393140768766017e-17
 1.429999999999999e+00  8.256108849411650e-01 -3.393140768766017e-17
 1.429999999999999e+00  8.256108849411650e-01 -3.393140768766017e-17
 1.429999999999999e+00  8.256108849411650e-01 -3.393140768766017e-17
 1.429999999999999e+00  8.256108849411650e-01 -3.393140768766017e-17
 1.429999999999999e+00  8.256108849411650e-01 -3.393140768766017e-17
 1.429999999999999e+00  8.256108849411650e-01 -3.393140768766017e-17
 1.429999999999999e+00  8.256108849411650e-01 -3.393140768766017e-17
 1.429999999999999e+00  8.256108849411650e-01 -3.393140768766017e-17
 1.429999999999999e+00  8.256108849411650e-01 -3.393140768766017e-17
 1.429999999999999e+00  8.256108849411650e-01 -3.393140768766017e-17
 1.429999999999999e+00  8.256108849411650e-01 -3.393140768766017e-17
 1.429999999999999e+00  8.256108849411650e-01 -3.393140768766017e-17
 1.429999999999999e+00  8.256108849411650e-01 -3.393140768766017e-17
 1.429999999999999e+00  8.256108849411650e-01 -3.393140768766017e-17
 1.429999999999999e+00  8.256108849411650e-01 -3.393140768766017e-17
 1.429999999999999e+00  8.256108849411650e-01 -3.393140768766017e-17
 1.429999999999999e+00  8.256108849411650e-01 -3.393140768766017e-17
 1.429999999999999e+00  8.256108849411650e-01 -3.393140768766017e-17
 1.429999999999999e+00  8.256108849411650e-01 -3.393140768766017e-17
 1.429999999999999e+00  8.256108849411650e-01 -3.393140768766017e-17
 1.429999999999999e+00  8.256108849411650e-01 -3.393140768766017e-17
 1.429999999999999e+00  8.256108849411650e-01 -3.393140768766017e-17
-1.429999999999999e+00 -8.256108849411650e-01  3.393140768766017e-17
 1.429999999999999e+00  8.256108849411650e-01 -3.393140768766017e-17
 1.429999999999999e+00  8.256108849411650e-01 -3.393140768766017e-17
 1.429999999999999e+00  8.256108849411650e-01 -3.393140768766017e-17
 1.429999999999999e+00  8.256108849411650e-01 -3.393140768766017e-17
 1.429999999999999e+00  8.256108849411650e-01 -3.393140768766017e-17
 1.429999999999999e+00  8.256108849411650e-01 -3.393140768766017e-17
 1.429999999999999e+00  8.256108849411650e-01 -3.393140768766017e-17
 1.429999999999999e+00  8.256108849411650e-01 -3.393140768766017e-17
 1.429999999999999e+00  8.256108849411650e-01 -3.393140768766017e-17
 1.429999999999999e+00  8.256108849411650e-01 -3.393140768766017e-17
 1.429999999999999e+00  8.256108849411650e-01 -3.393140768766017e-17
 1.429999999999999e+00  8.256108849411650e-01 -3.393140768766017e-17
 1.429999999999999e+00  8.256108849411650e-01 -3.393140768766017e-17
 1.429999999999999e+00  8.256108849411650e-01 -3.393140768766017e-17
 1.429999999999999e+00  8.256108849411650e-01 -3.393140768766017e-17
 1.429999999999999e+00  8.256108849411650e-01 -3.393140768766017e-17
 1.429999999999999e+00  8.256108849411650e-01 -3.393140768766017e-17
 1.429999999999999e+00  8.256108849411650e-01 -3.393140768766017e-17
 1.429999999999999e+00  8.256108849411650e-01 -3.393140768766017e-17
 1.429999999999999e+00  8.256108849411650e-01 -3.393140768766017e-17
 1.429999999999999e+00  8.256108849411650e-01 -3.393140768766017e-17
 1.429999999999999e+00  8.256108849411650e-01 -3.393140768766017e-17
 1.429999999999999e+00  8.256108849411650e-01 -3.393140768766017e-17
 1.429999999999999e+00  8.256108849411650e-01 -3.393140768766017e-17
 1.429999999999999e+00  8.256108849411650e-01 -3.393140768766017e-17
 1.429999999999999e+00  8.256108849411650e-01 -3.393140768766017e-17
 1.429999999999999e+00  8.256108849411650e-01 -3.393140768766017e-17
 1.429999999999999e+00  8.256108849411650e-01 -3.393140768766017e-17
 1.429999999999999e+00  8.256108849411650e-01 -3.393140768766017e-17
 1.429999999999999e+00  8.256108849411650e-01 -3.393140768766017e-17
 1.429999999999999e+00  8.256108849411650e-01 -3.393140768766017e-17
 1.429999999999999e+00  8.256108849411650e-01 -3.393140768766017e-17
 1.429999999999999e+00  8.256108849411650e-01 -3.393140768766017e-17
 1.429999999999999e+00  8.256108849411650e-01 -3.393140768766017e-17
 1.429999999999999e+00  8.256108849411650e-01 -3.393140768766017e-17
 1.429999999999999e+00  8.256108849411650e-01 -3.393140768766017e-17
 1.429999999999999e+00  8.256108849411650e-01 -3.393140768766017e-17
 1.429999999999999e+00  8.256108849411650e-01 -3.393140768766017e-17
 1.429999999999999e+00  8.256108849411650e-01 -3.393140768766017e-17
 1.429999999999999e+00  8.256108849411650e-01 -3.393140768766017e-17
 1.429999999999999e+00  8.256108849411650e-01 -3.393140768766017e-17
 1.429999999999999e+00  8.256108849411650e-01 -3.393140768766017e-17
 1.429999999999999e+00  8.256108849411650e-01 -3.393140768766017e-17
 1.429999999999999e+00  8.256108849411650e-01 -3.393140768766017e-17
 1.429999999999999e+00  8.256108849411650e-01 -3.393140768766017e-17
 1.429999999999999e+00  8.256108849411650e-01 -3.393140768766017e-17
 1.429999999999999e+00  8.256108849411650e-01 -3.393140768766017e-17
 1.429999999999999e+00  8.256108849411650e-01 -3.393140768766017e-17
 1.429999999999999e+00  8.256108849411650e-01 -3.393140768766017e-17
 1.429999999999999e+00  8.256108849411650e-01 -3.393140768766017e-17
 1.429999999999999e+00  8.256108849411650e-01 -3.393140768766017e-17
 1.429999999999999e+00  8.256108849411650e-01 -3.393140768766017e-17
 1.429999999999999e+00  8.256108849411650e-01 -3.393140768766017e-17
 1.429999999999999e+00  8.256108849411650e-01 -3.393140768766017e-17
 1.429999999999999e+00  8.256108849411650e-01 -3.393140768766017e-17
 1.429999999999999e+00  8.256108849411650e-01 -3.393140768766017e-17
 1.429999999999999e+00  8.256108849411650e-01 -3.393140768766017e-17
 1.429999999999999e+00  8.256108849411650e-01 -3.393140768766017e-17
 1.429999999999999e+00  8.256108849411650e-01 -3.393140768766017e-17
 1.429999999999999e+00  8.256108849411650e-01 -3.393140768766017e-17
 1.429999999999999e+00  8.256108849411650e-01 -3.393140768766017e-17
 1.429999999999999e+00  8.256108849411650e-01 -3.393140768766017e-17
 1.429999999999999e+00  8.256108849411650e-01 -3.393140768766017e-17
 1.429999999999999e+00  8.256108849411650e-01 -3.393140768766017e-17
 1.429999999999999e+00  8.256108849411650e-01 -3.393140768766017e-17
 1.429999999999999e+00  8.256108849411650e-01 -3.393140768766017e-17
 1.429999999999999e+00  8.256108849411650e-01 -3.393140768766017e-17
 1.429999999999999e+00  8.256108849411650e-01 -3.393140768766017e-17
 1.429999999999999e+00  8.256108849411650e-01 -3.393140768766017e-17
 1.429999999999999e+00  8.256108849411650e-01 -3.393140768766017e-17
 1.429999999999999e+00  8.256108849411650e-01 -3.393140768766017e-17
 1.429999999999999e+00  8.256108849411650e-01 -3.393140768766017e-17
 1.429999999999999e+00  8.256108849411650e-01 -3.393140768766017e-17
 1.429999999999999e+00  8.256108849411650e-01 -3.393140768766017e-17
 1.429999999999999e+00  8.256108849411650e-01 -3.393140768766017e-17
 1.429999999999999e+00  8.256108849411650e-01 -3.393140768766017e-17
 1.429999999999999e+00  8.256108849411650e-01 -3.393140768766017e-17
 1.429999999999999e+00  8.256108849411650e-01 -3.393140768766017e-17
 1.429999999999999e+00  8.256108849411650e-01 -3.393140768766017e-17
 1.429999999999999e+00  8.256108849411650e-01 -3.393140768766017e-17
 1.429999999999999e+00  8.256108849411650e-01 -3.393140768766017e-17
 1.429999999999999e+00  8.256108849411650e-01 -3.393140768766017e-17
 1.429999999999999e+00  8.256108849411650e-01 -3.393140768766017e-17
 1.429999999999999e+00  8.256108849411650e-01 -3.393140768766017e-17
 1.429999999999999e+00  8.256108849411650e-01 -3.393140768766017e-17
 1.429999999999999e+00  8.256108849411650e-01 -3.393140768766017e-17
 1.429999999999999e+00  8.256108849411650e-01 -3.393140768766017e-17
 1.429999999999999e+00  8.256108849411650e-01 -3.393140768766017e-17
 1.429999999999999e+00  8.256108849411650e-01 -3.393140768766017e-17
 1.429999999999999e+00  8.256108849411650e-01 -3.393140768766017e-17
 1.429999999999999e+00  8.256108849411650e-01 -3.393140768766017e-17
 1.429999999999999e+00  8.256108849411650e-01 -3.393140768766017e-17
 1.429999999999999e+00  8.256108849411650e-01 -3.393140768766017e-17
 1.429999999999999e+00  8.256108849411650e-01 -3.393140768766017e-17
 1.429999999999999e+00  8.256108849411650e-01 -3.393140768766017e-17
 1.429999999999999e+00  8.256108849411650e-01 -3.393140768766017e-17
 1.429999999999999e+00  8.256108849411650e-01 -3.393140768766017e-17
 1.429999999999999e+00  8.256108849411650e-01 -3.393140768766017e-17
 1.429999999999999e+00  8.256108849411650e-01 -3.393140768766017e-17
 1.429999999999999e+00  8.256108849411650e-01 -3.393140768766017e-17
 1.429999999999999e+00  8.256108849411650e-01 -3.393140768766017e-17
 1.429999999999999e+00  8.256108849411650e-01 -3.393140768766017e-17
 1.429999999999999e+00  8.256108849411650e-01 -3.393140768766017e-17
 1.429999999999999e+00  8.256108849411650e-01 -3.393140768766017e-17
 1.429999999999999e+00  8.256108849411650e-01 -3.393140768766017e-17
 1.429999999999999e+00  8.256108849411650e-01 -3.393140768766017e-17
 1.429999999999999e+00  8.256108849411650e-01 -3.393140768766017e-17
 1.429999999999999e+00  8.256108849411650e-01 -3.393140768766017e-17
 1.429999999999999e+00  8.256108849411650e-01 -3.393140768766017e-17
 1.429999999999999e+00  8.256108849411650e-01 -3.393140768766017e-17
 1.429999999999999e+00  8.256108849411650e-01 -3.393140768766017e-17
 1.429999999999999e+00  8.256108849411650e-01 -3.393140768766017e-17
 1.429999999999999e+00  8.256108849411650e-01 -3.393140768766017e-17
 1.429999999999999e+00  8.256108849411650e-01 -3.393140768766017e-17
 1.429999999999999e+00  8.256108849411650e-01 -3.393140768766017e-17
 1.429999999999999e+00  8.256108849411650e-01 -3.393140768766017e-17
 1.429999999999999e+00  8.256108849411650e-01 -3.393140768766017e-17
 1.429999999999999e+00  8.256108849411650e-01 -3.393140768766017e-17
 1.429999999999999e+00  8.256108849411650e-01 -3.393140768766017e-17
 1.429999999999999e+00  8.256108849411650e-01 -3.393140768766017e-17
 1.429999999999999e+00  8.256108849411650e-01 -3.393140768766017e-17
 1.429999999999999e+00  8.256108849411650e-01 -3.393140768766017e-17
 1.429999999999999e+00  8.256108849411650e-01 -3.393140768766017e-17
 1.429999999999999e+00  8.256108849411650e-01 -3.393140768766017e-17
 1.429999999999999e+00  8.256108849411650e-01 -3.393140768766017e-17
 1.429999999999999e+00  8.256108849411650e-01 -3.393140768766017e-17
 1.429999999999999e+00  8.256108849411650e-01 -3.393140768766017e-17
 1.429999999999999e+00  8.256108849411650e-01 -3.393140768766017e-17
 1.429999999999999e+00  8.256108849411650e-01 -3.393140768766017e-17
 1.429999999999999e+00  8.256108849411650e-01 -3.393140768766017e-17
 1.429999999999999e+00  8.256108849411650e-01 -3.393140768766017e-17
 1.429999999999999e+00  8.256108849411650e-01 -3.393140768766017e-17
 1.429999999999999e+00  8.256108849411650e-01 -3.393140768766017e-17
 1.429999999999999e+00  8.256108849411650e-01 -3.393140768766017e-17
 1.429999999999999e+00  8.256108849411650e-01 -3.393140768766017e-17
 1.429999999999999e+00  8.256108849411650e-01 -3.393140768766017e-17
 1.429999999999999e+00  8.256108849411650e-01 -3.393140768766017e-17
 1.429999999999999e+00  8.256108849411650e-01 -3.393140768766017e-17
 1.429999999999999e+00  8.256108849411650e-01 -3.393140768766017e-17
 1.429999999999999e+00  8.256108849411650e-01 -3.393140768766017e-17
 1.429999999999999e+00  8.256108849411650e-01 -3.393140768766017e-17
 1.429999999999999e+00  8.256108849411650e-01 -3.393140768766017e-17
 1.429999999999999e+00  8.256108849411650e-01 -3.393140768766017e-17
 1.429999999999999e+00  8.256108849411650e-01 -3.393140768766017e-17
 1.429999999999999e+00  8.256108849411650e-01 -3.393140768766017e-17
 1.429999999999999e+00  8.256108849411650e-01 -3.393140768766017e-17
 1.429999999999999e+00  8.256108849411650e-01 -3.393140768766017e-17
 1.429999999999999e+00  8.256108849411650e-01 -3.393140768766017e-17
 1.429999999999999e+00  8.256108849411650e-01 -3.393140768766017e-17
 1.429999999999999e+00  8.256108849411650e-01 -3.393140768766017e-17
 1.429999999999999e+00  8.256108849411650e-01 -3.393140768766017e-17
 1.429999999999999e+00  8.256108849411650e-01 -3.393140768766017e-17
 1.429999999999999e+00  8.256108849411650e-01 -3.393140768766017e-17
 1.429999999999999e+00  8.256108849411650e-01 -3.393140768766017e-17
 1.429999999999999e+00  8.256108849411650e-01 -3.393140768766017e-17
 1.429999999999999e+00  8.256108849411650e-01 -3.393140768766017e-17
 1.429999999999999e+00  8.256108849411650e-01 -3.393140768766017e-17
 1.429999999999999e+00  8.256108849411650e-01 -3.393140768766017e-17
 1.429999999999999e+00  8.256108849411650e-01 -3.393140768766017e-17
 1.429999999999999e+00  8.256108849411650e-01 -3.393140768766017e-17
 1.429999999999999e+00  8.256108849411650e-01 -3.393140768766017e-17
 1.429999999999999e+00  8.256108849411650e-01 -3.393140768766017e-17
 1.429999999999999e+00  8.256108849411650e-01 -3.393140768766017e-17
 1.429999999999999e+00  8.256108849411650e-01 -3.393140768766017e-17
 1.429999999999999e+00  8.256108849411650e-01 -3.393140768766017e-17
 1.429999999999999e+00  8.256108849411650e-01 -3.393140768766017e-17
 1.429999999999999e+00  8.256108849411650e-01 -3.393140768766017e-17
 1.429999999999999e+00  8.256108849411650e-01 -3.393140768766017e-17
 1.429999999999999e+00  8.256108849411650e-01 -3.393140768766017e-17
 1.429999999999999e+00  8.256108849411650e-01 -3.393140768766017e-17
 1.429999999999999e+00  8.256108849411650e-01 -3.393140768766017e-17
 1.429999999999999e+00  8.256108849411650e-01 -3.393140768766017e-17
 1.429999999999999e+00  8.256108849411650e-01 -3.393140768766017e-17
-1.429999999999999e+00  8.256108849411650e-01  1.696570384383008e-17
 1.429999999999999e+00 -8.256108849411650e-01 -1.696570384383008e-17
-1.429999999999999e+00  8.256108849411650e-01  1.696570384383008e-17
-1.429999999999999e+00  8.256108849411650e-01  1.696570384383008e-17
-1.429999999999999e+00  8.256108849411650e-01  1.696570384383008e-17
-1.429999999999999e+00  8.256108849411650e-01  1.696570384383008e-17
-1.429999999999999e+00  8.256108849411650e-01  1.696570384383008e-17
-1.429999999999999e+00  8.256108849411650e-01  1.696570384383008e-17
-1.429999999999999e+00  8.256108849411650e-01  1.696570384383008e-17
-1.429999999999999e+00  8.256108849411650e-01  1.696570384383008e-17
-1.429999999999999e+00  8.256108849411650e-01  1.696570384383008e-17
-1.429999999999999e+00  8.256108849411650e-01  1.696570384383008e-17
-1.429999999999999e+00  8.256108849411650e-01  1.696570384383008e-17
-1.429999999999999e+00  8.256108849411650e-01  1.696570384383008e-17
-1.429999999999999e+00  8.256108849411650e-01  1.696570384383008e-17
-1.429999999999999e+00  8.256108849411650e-01  1.696570384383008e-17
-1.429999999999999e+00  8.256108849411650e-01  1.696570384383008e-17
-1.429999999999999e+00  8.256108849411650e-01  1.696570384383008e-17
-1.429999999999999e+00  8.256108849411650e-01  1.696570384383008e-17
-1.429999999999999e+00  8.256108849411650e-01  1.696570384383008e-17
-1.429999999999999e+00  8.256108849411650e-01  1.696570384383008e-17
-1.429999999999999e+00  8.256108849411650e-01  1.696570384383008e-17
-1.429999999999999e+00  8.256108849411650e-01  1.696570384383008e-17
-1.429999999999999e+00  8.256108849411650e-01  1.696570384383008e-17
-1.429999999999999e+00  8.256108849411650e-01  1.696570384383008e-17
-1.429999999999999e+00  8.256108849411650e-01  1.696570384383008e-17
-1.429999999999999e+00  8.256108849411650e-01  1.696570384383008e-17
-1.429999999999999e+00  8.256108849411650e-01  1.696570384383008e-17
-1.429999999999999e+00  8.256108849411650e-01  1.696570384383008e-17
-1.429999999999999e+00  8.256108849411650e-01  1.696570384383008e-17
-1.429999999999999e+00  8.256108849411650e-01  1.696570384383008e-17
-1.429999999999999e+00  8.256108849411650e-01  1.696570384383008e-17
-1.429999999999999e+00  8.256108849411650e-01  1.696570384383008e-17
-1.429999999999999e+00  8.256108849411650e-01  1.696570384383008e-17
-1.429999999999999e+00  8.256108849411650e-01  1.696570384383008e-17
-1.429999999999999e+00  8.256108849411650e-01  1.696570384383008e-17
-1.429999999999999e+00  8.256108849411650e-01  1.696570384383008e-17
-1.429999999999999e+00  8.256108849411650e-01  1.696570384383008e-17
-1.429999999999999e+00  8.256108849411650e-01  1.696570384383008e-17
-1.429999999999999e+00  8.256108849411650e-01  1.696570384383008e-17
-1.429999999999999e+00  8.256108849411650e-01  1.696570384383008e-17
-1.429999999999999e+00  8.256108849411650e-01  1.696570384383008e-17
-1.429999999999999e+00  8.256108849411650e-01  1.696570384383008e-17
-1.429999999999999e+00  8.256108849411650e-01  1.696570384383008e-17
-1.429999999999999e+00  8.256108849411650e-01  1.696570384383008e-17
-1.429999999999999e+00  8.256108849411650e-01  1.696570384383008e-17
-1.429999999999999e+00  8.256108849411650e-01  1.696570384383008e-17
-1.429999999999999e+00  8.256108849411650e-01  1.696570384383008e-17
-1.429999999999999e+00  8.256108849411650e-01  1.696570384383008e-17
-1.429999999999999e+00  8.256108849411650e-01  1.696570384383008e-17
-1.429999999999999e+00  8.256108849411650e-01  1.696570384383008e-17
-1.429999999999999e+00  8.256108849411650e-01  1.696570384383008e-17
-1.429999999999999e+00  8.256108849411650e-01  1.696570384383008e-17
-1.429999999999999e+00  8.256108849411650e-01  1.696570384383008e-17
-1.429999999999999e+00  8.256108849411650e-01  1.696570384383008e-17
-1.429999999999999e+00  8.256108849411650e-01  1.696570384383008e-17
-1.429999999999999e+00  8.256108849411650e-01  1.696570384383008e-17
-1.429999999999999e+00  8.256108849411650e-01  1.696570384383008e-17
-1.429999999999999e+00  8.256108849411650e-01  1.696570384383008e-17
-1.429999999999999e+00  8.256108849411650e-01  1.696570384383008e-17
-1.429999999999999e+00  8.256108849411650e-01  1.696570384383008e-17
-1.429999999999999e+00  8.256108849411650e-01  1.696570384383008e-17
-1.429999999999999e+00  8.256108849411650e-01  1.696570384383008e-17
-1.429999999999999e+00  8.256108849411650e-01  1.696570384383008e-17
-1.429999999999999e+00  8.256108849411650e-01  1.696570384383008e-17
-1.429999999999999e+00  8.256108849411650e-01  1.696570384383008e-17
-1.429999999999999e+00  8.256108849411650e-01  1.696570384383008e-17
-1.429999999999999e+00  8.256108849411650e-01  1.696570384383008e-17
-1.429999999999999e+00  8.256108849411650e-01  1.696570384383008e-17
-1.429999999999999e+00  8.256108849411650e-01  1.696570384383008e-17
-1.429999999999999e+00  8.256108849411650e-01  1.696570384383008e-17
-1.429999999999999e+00  8.256108849411650e-01  1.696570384383008e-17
-1.429999999999999e+00  8.256108849411650e-01  1.696570384383008e-17
-1.429999999999999e+00  8.256108849411650e-01  1.696570384383008e-17
-1.429999999999999e+00  8.256108849411650e-01  1.696570384383008e-17
-1.429999999999999e+00  8.256108849411650e-01  1.696570384383008e-17
-1.429999999999999e+00  8.256108849411650e-01  1.696570384383008e-17
-1.429999999999999e+00  8.256108849411650e-01  1.696570384383008e-17
-1.429999999999999e+00  8.256108849411650e-01  1.696570384383008e-17
-1.429999999999999e+00  8.256108849411650e-01  1.696570384383008e-17
-1.429999999999999e+00  8.256108849411650e-01  1.696570384383008e-17
-1.429999999999999e+00  8.256108849411650e-01  1.696570384383008e-17
-1.429999999999999e+00  8.256108849411650e-01  1.696570384383008e-17
-1.429999999999999e+00  8.256108849411650e-01  1.696570384383008e-17
-1.429999999999999e+00  8.256108849411650e-01  1.696570384383008e-17
-1.429999999999999e+00  8.256108849411650e-01  1.696570384383008e-17
-1.429999999999999e+00  8.256108849411650e-01  1.696570384383008e-17
-1.429999999999999e+00  8.256108849411650e-01  1.696570384383008e-17
-1.429999999999999e+00  8.256108849411650e-01  1.696570384383008e-17
-1.429999999999999e+00  8.256108849411650e-01  1.696570384383008e-17
-1.429999999999999e+00  8.256108849411650e-01  1.696570384383008e-17
-1.429999999999999e+00  8.256108849411650e-01  1.696570384383008e-17
-1.429999999999999e+00  8.256108849411650e-01  1.696570384383008e-17
-1.429999999999999e+00  8.256108849411650e-01  1.696570384383008e-17
-1.429999999999999e+00  8.256108849411650e-01  1.696570384383008e-17
-1.429999999999999e+00  8.256108849411650e-01  1.696570384383008e-17
-1.429999999999999e+00  8.256108849411650e-01  1.696570384383008e-17
-1.429999999999999e+00  8.256108849411650e-01  1.696570384383008e-17
-1.429999999999999e+00  8.256108849411650e-01  1.696570384383008e-17
-1.429999999999999e+00  8.256108849411650e-01  1.696570384383008e-17
-1.429999999999999e+00  8.256108849411650e-01  1.696570384383008e-17
-1.429999999999999e+00  8.256108849411650e-01  1.696570384383008e-17
-1.429999999999999e+00  8.256108849411650e-01  1.696570384383008e-17
-1.429999999999999e+00  8.256108849411650e-01  1.696570384383008e-17
-1.429999999999999e+00  8.256108849411650e-01  1.696570384383008e-17
-1.429999999999999e+00  8.256108849411650e-01  1.696570384383008e-17
-1.429999999999999e+00  8.256108849411650e-01  1.696570384383008e-17
-1.429999999999999e+00  8.256108849411650e-01  1.696570384383008e-17
-1.429999999999999e+00  8.256108849411650e-01  1.696570384383008e-17
-1.429999999999999e+00  8.256108849411650e-01  1.696570384383008e-17
-1.429999999999999e+00  8.256108849411650e-01  1.696570384383008e-17
-1.429999999999999e+00  8.256108849411650e-01  1.696570384383008e-17
-1.429999999999999e+00  8.256108849411650e-01  1.696570384383008e-17
-1.429999999999999e+00  8.256108849411650e-01  1.696570384383008e-17
-1.429999999999999e+00  8.256108849411650e-01  1.696570384383008e-17
-1.429999999999999e+00  8.256108849411650e-01  1.696570384383008e-17
-1.429999999999999e+00  8.256108849411650e-01  1.696570384383008e-17
-1.429999999999999e+00  8.256108849411650e-01  1.696570384383008e-17
-1.429999999999999e+00  8.256108849411650e-01  1.696570384383008e-17
-1.429999999999999e+00  8.256108849411650e-01  1.696570384383008e-17
-1.429999999999999e+00  8.256108849411650e-01  1.696570384383008e-17
-1.429999999999999e+00  8.256108849411650e-01  1.696570384383008e-17
-1.429999999999999e+00  8.256108849411650e-01  1.696570384383008e-17
-1.429999999999999e+00  8.256108849411650e-01  1.696570384383008e-17
-1.429999999999999e+00  8.256108849411650e-01  1.696570384383008e-17
-1.429999999999999e+00  8.256108849411650e-01  1.696570384383008e-17
-1.429999999999999e+00  8.256108849411650e-01  1.696570384383008e-17
-1.429999999999999e+00  8.256108849411650e-01  1.696570384383008e-17
-1.429999999999999e+00  8.256108849411650e-01  1.696570384383008e-17
-1.429999999999999e+00  8.256108849411650e-01  1.696570384383008e-17
-1.429999999999999e+00  8.256108849411650e-01  1.696570384383008e-17
-1.429999999999999e+00  8.256108849411650e-01  1.696570384383008e-17
-1.429999999999999e+00  8.256108849411650e-01  1.696570384383008e-17
-1.429999999999999e+00  8.256108849411650e-01  1.696570384383008e-17
-1.429999999999999e+00  8.256108849411650e-01  1.696570384383008e-17
-1.429999999999999e+00  8.256108849411650e-01  1.696570384383008e-17
-1.429999999999999e+00  8.256108849411650e-01  1.696570384383008e-17
-1.429999999999999e+00  8.256108849411650e-01  1.696570384383008e-17
-1.429999999999999e+00  8.256108849411650e-01  1.696570384383008e-17
-1.429999999999999e+00  8.256108849411650e-01  1.696570384383008e-17
-1.429999999999999e+00  8.256108849411650e-01  1.696570384383008e-17
-1.429999999999999e+00  8.256108849411650e-01  1.696570384383008e-17
-1.429999999999999e+00  8.256108849411650e-01  1.696570384383008e-17
-1.429999999999999e+00  8.256108849411650e-01  1.696570384383008e-17
-1.429999999999999e+00  8.256108849411650e-01  1.696570384383008e-17
-1.429999999999999e+00  8.256108849411650e-01  1.696570384383008e-17
-1.429999999999999e+00  8.256108849411650e-01  1.696570384383008e-17
-1.429999999999999e+00  8.256108849411650e-01  1.696570384383008e-17
-1.429999999999999e+00  8.256108849411650e-01  1.696570384383008e-17
-1.429999999999999e+00  8.256108849411650e-01  1.696570384383008e-17
-1.429999999999999e+00  8.256108849411650e-01  1.696570384383008e-17
-1.429999999999999e+00  8.256108849411650e-01  1.696570384383008e-17
-1.429999999999999e+00  8.256108849411650e-01  1.696570384383008e-17
-1.429999999999999e+00  8.256108849411650e-01  1.696570384383008e-17
-1.429999999999999e+00  8.256108849411650e-01  1.696570384383008e-17
-1.429999999999999e+00  8.256108849411650e-01  1.696570384383008e-17
-1.429999999999999e+00  8.256108849411650e-01  1.696570384383008e-17
-1.429999999999999e+00  8.256108849411650e-01  1.696570384383008e-17
-1.429999999999999e+00  8.256108849411650e-01  1.696570384383008e-17
-1.429999999999999e+00  8.256108849411650e-01  1.696570384383008e-17
-1.429999999999999e+00  8.256108849411650e-01  1.696570384383008e-17
-1.429999999999999e+00  8.256108849411650e-01  1.696570384383008e-17
-1.429999999999999e+00  8.256108849411650e-01  1.696570384383008e-17
-1.429999999999999e+00  8.256108849411650e-01  1.696570384383008e-17
-1.429999999999999e+00  8.256108849411650e-01  1.696570384383008e-17
-1.429999999999999e+00  8.256108849411650e-01  1.696570384383008e-17
-1.429999999999999e+00  8.256108849411650e-01  1.696570384383008e-17
-1.429999999999999e+00  8.256108849411650e-01  1.696570384383008e-17
-1.429999999999999e+00  8.256108849411650e-01  1.696570384383008e-17
-1.429999999999999e+00  8.256108849411650e-01  1.696570384383008e-17
-1.429999999999999e+00  8.256108849411650e-01  1.696570384383008e-17
-1.429999999999999e+00  8.256108849411650e-01  1.696570384383008e-17
-1.429999999999999e+00  8.256108849411650e-01  1.696570384383008e-17
-1.429999999999999e+00  8.256108849411650e-01  1.696570384383008e-17
-1.429999999999999e+00  8.256108849411650e-01  1.696570384383008e-17
-1.429999999999999e+00  8.256108849411650e-01  1.696570384383008e-17
-1.429999999999999e+00  8.256108849411650e-01  1.696570384383008e-17
-1.429999999999999e+00  8.256108849411650e-01  1.696570384383008e-17
-1.429999999999999e+00  8.256108849411650e-01  1.696570384383008e-17
-1.429999999999999e+00  8.256108849411650e-01  1.696570384383008e-17
-1.429999999999999e+00  8.256108849411650e-01  1.696570384383008e-17
-1.429999999999999e+00  8.256108849411650e-01  1.696570384383008e-17
-1.429999999999999e+00  8.256108849411650e-01  1.696570384383008e-17
-1.429999999999999e+00  8.256108849411650e-01  1.696570384383008e-17
-1.429999999999999e+00  8.256108849411650e-01  1.696570384383008e-17
-1.429999999999999e+00  8.256108849411650e-01  1.696570384383008e-17
-1.429999999999999e+00  8.256108849411650e-01  1.696570384383008e-17
-1.429999999999999e+00  8.256108849411650e-01  1.696570384383008e-17
-1.429999999999999e+00  8.256108849411650e-01  1.696570384383008e-17
-1.429999999999999e+00  8.256108849411650e-01  1.696570384383008e-17
-1.429999999999999e+00  8.256108849411650e-01  1.696570384383008e-17
-1.429999999999999e+00  8.256108849411650e-01  1.696570384383008e-17
-1.429999999999999e+00  8.256108849411650e-01  1.696570384383008e-17
-1.429999999999999e+00  8.256108849411650e-01  1.696570384383008e-17
-1.429999999999999e+00  8.256108849411650e-01  1.696570384383008e-17
-1.429999999999999e+00  8.256108849411650e-01  1.696570384383008e-17
-1.429999999999999e+00  8.256108849411650e-01  1.696570384383008e-17
-1.429999999999999e+00  8.256108849411650e-01  1.696570384383008e-17
-1.429999999999999e+00  8.256108849411650e-01  1.696570384383008e-17
-1.429999999999999e+00  8.256108849411650e-01  1.696570384383008e-17
-1.429999999999999e+00  8.256108849411650e-01  1.696570384383008e-17
-1.429999999999999e+00  8.256108849411650e-01  1.696570384383008e-17
 1.429999999999999e+00 -8.256108849411650e-01 -1.696570384383008e-17
-1.429999999999999e+00  8.256108849411650e-01  1.696570384383008e-17
-1.429999999999999e+00  8.256108849411650e-01  1.696570384383008e-17
-1.429999999999999e+00  8.256108849411650e-01  1.696570384383008e-17
-1.429999999999999e+00  8.256108849411650e-01  1.696570384383008e-17
-1.429999999999999e+00  8.256108849411650e-01  1.696570384383008e-17
-1.429999999999999e+00  8.256108849411650e-01  1.696570384383008e-17
-1.429999999999999e+00  8.256108849411650e-01  1.696570384383008e-17
-1.429999999999999e+00  8.256108849411650e-01  1.696570384383008e-17
-1.429999999999999e+00  8.256108849411650e-01  1.696570384383008e-17
-1.429999999999999e+00  8.256108849411650e-01  1.696570384383008e-17
-1.429999999999999e+00  8.256108849411650e-01  1.696570384383008e-17
-1.429999999999999e+00  8.256108849411650e-01  1.696570384383008e-17
-1.429999999999999e+00  8.256108849411650e-01  1.696570384383008e-17
-1.429999999999999e+00  8.256108849411650e-01  1.696570384383008e-17
-1.429999999999999e+00  8.256108849411650e-01  1.696570384383008e-17
-1.429999999999999e+00  8.256108849411650e-01  1.696570384383008e-17
-1.429999999999999e+00  8.256108849411650e-01  1.696570384383008e-17
-1.429999999999999e+00  8.256108849411650e-01  1.696570384383008e-17
-1.429999999999999e+00  8.256108849411650e-01  1.696570384383008e-17
-1.429999999999999e+00  8.256108849411650e-01  1.696570384383008e-17
-1.429999999999999e+00  8.256108849411650e-01  1.696570384383008e-17
-1.429999999999999e+00  8.256108849411650e-01  1.696570384383008e-17
-1.429999999999999e+00  8.256108849411650e-01  1.696570384383008e-17
-1.429999999999999e+00  8.256108849411650e-01  1.696570384383008e-17
-1.429999999999999e+00  8.256108849411650e-01  1.696570384383008e-17
-1.429999999999999e+00  8.256108849411650e-01  1.696570384383008e-17
-1.429999999999999e+00  8.256108849411650e-01  1.696570384383008e-17
-1.429999999999999e+00  8.256108849411650e-01  1.696570384383008e-17
-1.429999999999999e+00  8.256108849411650e-01  1.696570384383008e-17
-1.429999999999999e+00  8.256108849411650e-01  1.696570384383008e-17
-1.429999999999999e+00  8.256108849411650e-01  1.696570384383008e-17
-1.429999999999999e+00  8.256108849411650e-01  1.696570384383008e-17
-1.429999999999999e+00  8.256108849411650e-01  1.696570384383008e-17
-1.429999999999999e+00  8.256108849411650e-01  1.696570384383008e-17
-1.429999999999999e+00  8.256108849411650e-01  1.696570384383008e-17
-1.429999999999999e+00  8.256108849411650e-01  1.696570384383008e-17
-1.429999999999999e+00  8.256108849411650e-01  1.696570384383008e-17
-1.429999999999999e+00  8.256108849411650e-01  1.696570384383008e-17
-1.429999999999999e+00  8.256108849411650e-01  1.696570384383008e-17
-1.429999999999999e+00  8.256108849411650e-01  1.696570384383008e-17
-1.429999999999999e+00  8.256108849411650e-01  1.696570384383008e-17
-1.429999999999999e+00  8.256108849411650e-01  1.696570384383008e-17
-1.429999999999999e+00  8.256108849411650e-01  1.696570384383008e-17
-1.429999999999999e+00  8.256108849411650e-01  1.696570384383008e-17
-1.429999999999999e+00  8.256108849411650e-01  1.696570384383008e-17
-1.429999999999999e+00  8.256108849411650e-01  1.696570384383008e-17
-1.429999999999999e+00  8.256108849411650e-01  1.696570384383008e-17
-1.429999999999999e+00  8.256108849411650e-01  1.696570384383008e-17
-1.429999999999999e+00  8.256108849411650e-01  1.696570384383008e-17
-1.429999999999999e+00  8.256108849411650e-01  1.696570384383008e-17
-1.429999999999999e+00  8.256108849411650e-01  1.696570384383008e-17
-1.429999999999999e+00  8.256108849411650e-01  1.696570384383008e-17
-1.429999999999999e+00  8.256108849411650e-01  1.696570384383008e-17
-1.429999999999999e+00  8.256108849411650e-01  1.696570384383008e-17
-1.429999999999999e+00  8.256108849411650e-01  1.696570384383008e-17
-1.429999999999999e+00  8.256108849411650e-01  1.696570384383008e-17
-1.429999999999999e+00  8.256108849411650e-01  1.696570384383008e-17
-1.429999999999999e+00  8.256108849411650e-01  1.696570384383008e-17
-1.429999999999999e+00  8.256108849411650e-01  1.696570384383008e-17
-1.429999999999999e+00  8.256108849411650e-01  1.696570384383008e-17
-1.429999999999999e+00  8.256108849411650e-01  1.696570384383008e-17
-1.429999999999999e+00  8.256108849411650e-01  1.696570384383008e-17
-1.429999999999999e+00  8.256108849411650e-01  1.696570384383008e-17
-1.429999999999999e+00  8.256108849411650e-01  1.696570384383008e-17
-1.429999999999999e+00  8.256108849411650e-01  1.696570384383008e-17
-1.429999999999999e+00  8.256108849411650e-01  1.696570384383008e-17
-1.429999999999999e+00  8.256108849411650e-01  1.696570384383008e-17
-1.429999999999999e+00  8.256108849411650e-01  1.696570384383008e-17
-1.429999999999999e+00  8.256108849411650e-01  1.696570384383008e-17
-1.429999999999999e+00  8.256108849411650e-01  1.696570384383008e-17
-1.429999999999999e+00  8.256108849411650e-01  1.696570384383008e-17
-1.429999999999999e+00  8.256108849411650e-01  1.696570384383008e-17
-1.429999999999999e+00  8.256108849411650e-01  1.696570384383008e-17
-1.429999999999999e+00  8.256108849411650e-01  1.696570384383008e-17
-1.429999999999999e+00  8.256108849411650e-01  1.696570384383008e-17
-1.429999999999999e+00  8.256108849411650e-01  1.696570384383008e-17
-1.429999999999999e+00  8.256108849411650e-01  1.696570384383008e-17
-1.429999999999999e+00  8.256108849411650e-01  1.696570384383008e-17
-1.429999999999999e+00  8.256108849411650e-01  1.696570384383008e-17
-1.429999999999999e+00  8.256108849411650e-01  1.696570384383008e-17
-1.429999999999999e+00  8.256108849411650e-01  1.696570384383008e-17
-1.429999999999999e+00  8.256108849411650e-01  1.696570384383008e-17
-1.429999999999999e+00  8.256108849411650e-01  1.696570384383008e-17
-1.429999999999999e+00  8.256108849411650e-01  1.696570384383008e-17
-1.429999999999999e+00  8.256108849411650e-01  1.696570384383008e-17
-1.429999999999999e+00  8.256108849411650e-01  1.696570384383008e-17
-1.429999999999999e+00  8.256108849411650e-01  1.696570384383008e-17
-1.429999999999999e+00  8.256108849411650e-01  1.696570384383008e-17
-1.429999999999999e+00  8.256108849411650e-01  1.696570384383008e-17
-1.429999999999999e+00  8.256108849411650e-01  1.696570384383008e-17
-1.429999999999999e+00  8.256108849411650e-01  1.696570384383008e-17
-1.429999999999999e+00  8.256108849411650e-01  1.696570384383008e-17
-1.429999999999999e+00  8.256108849411650e-01  1.696570384383008e-17
-1.429999999999999e+00  8.256108849411650e-01  1.696570384383008e-17
-1.429999999999999e+00  8.256108849411650e-01  1.696570384383008e-17
-1.429999999999999e+00  8.256108849411650e-01  1.696570384383008e-17
-1.429999999999999e+00  8.256108849411650e-01  1.696570384383008e-17
-1.429999999999999e+00  8.256108849411650e-01  1.696570384383008e-17
-1.429999999999999e+00  8.256108849411650e-01  1.696570384383008e-17
-1.429999999999999e+00  8.256108849411650e-01  1.696570384383008e-17
-1.429999999999999e+00  8.256108849411650e-01  1.696570384383008e-17
-1.429999999999999e+00  8.256108849411650e-01  1.696570384383008e-17
-1.429999999999999e+00  8.256108849411650e-01  1.696570384383008e-17
-1.429999999999999e+00  8.256108849411650e-01  1.696570384383008e-17
-1.429999999999999e+00  8.256108849411650e-01  1.696570384383008e-17
-1.429999999999999e+00  8.256108849411650e-01  1.696570384383008e-17
-1.429999999999999e+00  8.256108849411650e-01  1.696570384383008e-17
-1.429999999999999e+00  8.256108849411650e-01  1.696570384383008e-17
-1.429999999999999e+00  8.256108849411650e-01  1.696570384383008e-17
-1.429999999999999e+00  8.256108849411650e-01  1.696570384383008e-17
-1.429999999999999e+00  8.256108849411650e-01  1.696570384383008e-17
-1.429999999999999e+00  8.256108849411650e-01  1.696570384383008e-17
-1.429999999999999e+00  8.256108849411650e-01  1.696570384383008e-17
-1.429999999999999e+00  8.256108849411650e-01  1.696570384383008e-17
-1.429999999999999e+00  8.256108849411650e-01  1.696570384383008e-17
-1.429999999999999e+00  8.256108849411650e-01  1.696570384383008e-17
-1.429999999999999e+00  8.256108849411650e-01  1.696570384383008e-17
-1.429999999999999e+00  8.256108849411650e-01  1.696570384383008e-17
-1.429999999999999e+00  8.256108849411650e-01  1.696570384383008e-17
-1.429999999999999e+00  8.256108849411650e-01  1.696570384383008e-17
-1.429999999999999e+00  8.256108849411650e-01  1.696570384383008e-17
-1.429999999999999e+00  8.256108849411650e-01  1.696570384383008e-17
-1.429999999999999e+00  8.256108849411650e-01  1.696570384383008e-17
-1.429999999999999e+00  8.256108849411650e-01  1.696570384383008e-17
-1.429999999999999e+00  8.256108849411650e-01  1.696570384383008e-17
-1.429999999999999e+00  8.256108849411650e-01  1.696570384383008e-17
-1.429999999999999e+00  8.256108849411650e-01  1.696570384383008e-17
-1.429999999999999e+00  8.256108849411650e-01  1.696570384383008e-17
-1.429999999999999e+00  8.256108849411650e-01  1.696570384383008e-17
-1.429999999999999e+00  8.256108849411650e-01  1.696570384383008e-17
-1.429999999999999e+00  8.256108849411650e-01  1.696570384383008e-17
-1.429999999999999e+00  8.256108849411650e-01  1.696570384383008e-17
-1.429999999999999e+00  8.256108849411650e-01  1.696570384383008e-17
-1.429999999999999e+00  8.256108849411650e-01  1.696570384383008e-17
-1.429999999999999e+00  8.256108849411650e-01  1.696570384383008e-17
-1.429999999999999e+00  8.256108849411650e-01  1.696570384383008e-17
-1.429999999999999e+00  8.256108849411650e-01  1.696570384383008e-17
-1.429999999999999e+00  8.256108849411650e-01  1.696570384383008e-17
-1.429999999999999e+00  8.256108849411650e-01  1.696570384383008e-17
-1.429999999999999e+00  8.256108849411650e-01  1.696570384383008e-17
-1.429999999999999e+00  8.256108849411650e-01  1.696570384383008e-17
-1.429999999999999e+00  8.256108849411650e-01  1.696570384383008e-17
-1.429999999999999e+00  8.256108849411650e-01  1.696570384383008e-17
-1.429999999999999e+00  8.256108849411650e-01  1.696570384383008e-17
-1.429999999999999e+00  8.256108849411650e-01  1.696570384383008e-17
-1.429999999999999e+00  8.256108849411650e-01  1.696570384383008e-17
-1.429999999999999e+00  8.256108849411650e-01  1.696570384383008e-17
-1.429999999999999e+00  8.256108849411650e-01  1.696570384383008e-17
-1.429999999999999e+00  8.256108849411650e-01  1.696570384383008e-17
-1.429999999999999e+00  8.256108849411650e-01  1.696570384383008e-17
-1.429999999999999e+00  8.256108849411650e-01  1.696570384383008e-17
-1.429999999999999e+00  8.256108849411650e-01  1.696570384383008e-17
-1.429999999999999e+00  8.256108849411650e-01  1.696570384383008e-17
-1.429999999999999e+00  8.256108849411650e-01  1.696570384383008e-17
-1.429999999999999e+00  8.256108849411650e-01  1.696570384383008e-17
-1.429999999999999e+00  8.256108849411650e-01  1.696570384383008e-17
-1.429999999999999e+00  8.256108849411650e-01  1.696570384383008e-17
-1.429999999999999e+00  8.256108849411650e-01  1.696570384383008e-17
-1.429999999999999e+00  8.256108849411650e-01  1.696570384383008e-17
-1.429999999999999e+00  8.256108849411650e-01  1.696570384383008e-17
-1.429999999999999e+00  8.256108849411650e-01  1.696570384383008e-17
-1.429999999999999e+00  8.256108849411650e-01  1.696570384383008e-17
-1.429999999999999e+00  8.256108849411650e-01  1.696570384383008e-17
-1.429999999999999e+00  8.256108849411650e-01  1.696570384383008e-17
-1.429999999999999e+00  8.256108849411650e-01  1.696570384383008e-17
-1.429999999999999e+00  8.256108849411650e-01  1.696570384383008e-17
-1.429999999999999e+00  8.256108849411650e-01  1.696570384383008e-17
-1.429999999999999e+00  8.256108849411650e-01  1.696570384383008e-17
-1.429999999999999e+00  8.256108849411650e-01  1.696570384383008e-17
-1.429999999999999e+00  8.256108849411650e-01  1.696570384383008e-17
-1.429999999999999e+00  8.256108849411650e-01  1.696570384383008e-17
-1.429999999999999e+00  8.256108849411650e-01  1.696570384383008e-17
-1.429999999999999e+00  8.256108849411650e-01  1.696570384383008e-17
-1.429999999999999e+00  8.256108849411650e-01  1.696570384383008e-17
-1.429999999999999e+00  8.256108849411650e-01  1.696570384383008e-17
-1.429999999999999e+00  8.256108849411650e-01  1.696570384383008e-17
-1.429999999999999e+00  8.256108849411650e-01  1.696570384383008e-17
-1.429999999999999e+00  8.256108849411650e-01  1.696570384383008e-17
-1.429999999999999e+00  8.256108849411650e-01  1.696570384383008e-17
-1.429999999999999e+00  8.256108849411650e-01  1.696570384383008e-17
-1.429999999999999e+00  8.256108849411650e-01  1.696570384383008e-17
-1.429999999999999e+00  8.256108849411650e-01  1.696570384383008e-17
-1.429999999999999e+00  8.256108849411650e-01  1.696570384383008e-17
-1.429999999999999e+00  8.256108849411650e-01  1.696570384383008e-17
-1.429999999999999e+00  8.256108849411650e-01  1.696570384383008e-17
-1.429999999999999e+00  8.256108849411650e-01  1.696570384383008e-17
 1.429999999999999e+00 -8.256108849411650e-01 -1.696570384383008e-17
-1.429999999999999e+00  8.256108849411650e-01  1.696570384383008e-17
 1.429999999999999e+00 -8.256108849411650e-01 -1.696570384383008e-17
 1.429999999999999e+00 -8.256108849411650e-01 -1.696570384383008e-17
 1.429999999999999e+00 -8.256108849411650e-01 -1.696570384383008e-17
 1.429999999999999e+00 -8.256108849411650e-01 -1.696570384383008e-17
 1.429999999999999e+00 -8.256108849411650e-01 -1.696570384383008e-17
 1.429999999999999e+00 -8.256108849411650e-01 -1.696570384383008e-17
 1.429999999999999e+00 -8.256108849411650e-01 -1.696570384383008e-17
 1.429999999999999e+00 -8.256108849411650e-01 -1.696570384383008e-17
 1.429999999999999e+00 -8.256108849411650e-01 -1.696570384383008e-17
 1.429999999999999e+00 -8.256108849411650e-01 -1.696570384383008e-17
 1.429999999999999e+00 -8.256108849411650e-01 -1.696570384383008e-17
 1.429999999999999e+00 -8.256108849411650e-01 -1.696570384383008e-17
 1.429999999999999e+00 -8.256108849411650e-01 -1.696570384383008e-17
 1.429999999999999e+00 -8.256108849411650e-01 -1.696570384383008e-17
 1.429999999999999e+00 -8.256108849411650e-01 -1.696570384383008e-17
 1.429999999999999e+00 -8.256108849411650e-01 -1.696570384383008e-17
 1.429999999999999e+00 -8.256108849411650e-01 -1.696570384383008e-17
 1.429999999999999e+00 -8.256108849411650e-01 -1.696570384383008e-17
 1.429999999999999e+00 -8.256108849411650e-01 -1.696570384383008e-17
 1.429999999999999e+00 -8.256108849411650e-01 -1.696570384383008e-17
 1.429999999999999e+00 -8.256108849411650e-01 -1.696570384383008e-17
 1.429999999999999e+00 -8.256108849411650e-01 -1.696570384383008e-17
 1.429999999999999e+00 -8.256108849411650e-01 -1.696570384383008e-17
 1.429999999999999e+00 -8.256108849411650e-01 -1.696570384383008e-17
 1.429999999999999e+00 -8.256108849411650e-01 -1.696570384383008e-17
 1.429999999999999e+00 -8.256108849411650e-01 -1.696570384383008e-17
 1.429999999999999e+00 -8.256108849411650e-01 -1.696570384383008e-17
 1.429999999999999e+00 -8.256108849411650e-01 -1.696570384383008e-17
 1.429999999999999e+00 -8.256108849411650e-01 -1.696570384383008e-17
 1.429999999999999e+00 -8.256108849411650e-01 -1.696570384383008e-17
 1.429999999999999e+00 -8.256108849411650e-01 -1.696570384383008e-17
 1.429999999999999e+00 -8.256108849411650e-01 -1.696570384383008e-17
 1.429999999999999e+00 -8.256108849411650e-01 -1.696570384383008e-17
 1.429999999999999e+00 -8.256108849411650e-01 -1.696570384383008e-17
 1.429999999999999e+00 -8.256108849411650e-01 -1.696570384383008e-17
 1.429999999999999e+00 -8.256108849411650e-01 -1.696570384383008e-17
 1.429999999999999e+00 -8.256108849411650e-01 -1.696570384383008e-17
 1.429999999999999e+00 -8.256108849411650e-01 -1.696570384383008e-17
 1.429999999999999e+00 -8.256108849411650e-01 -1.696570384383008e-17
 1.429999999999999e+00 -8.256108849411650e-01 -1.696570384383008e-17
 1.429999999999999e+00 -8.256108849411650e-01 -1.696570384383008e-17
 1.429999999999999e+00 -8.256108849411650e-01 -1.696570384383008e-17
 1.429999999999999e+00 -8.256108849411650e-01 -1.696570384383008e-17
 1.429999999999999e+00 -8.256108849411650e-01 -1.696570384383008e-17
 1.429999999999999e+00 -8.256108849411650e-01 -1.696570384383008e-17
 1.429999999999999e+00 -8.256108849411650e-01 -1.696570384383008e-17
 1.429999999999999e+00 -8.256108849411650e-01 -1.696570384383008e-17
 1.429999999999999e+00 -8.256108849411650e-01 -1.696570384383008e-17
 1.429999999999999e+00 -8.256108849411650e-01 -1.696570384383008e-17
 1.429999999999999e+00 -8.256108849411650e-01 -1.696570384383008e-17
 1.429999999999999e+00 -8.256108849411650e-01 -1.696570384383008e-17
 1.429999999999999e+00 -8.256108849411650e-01 -1.696570384383008e-17
 1.429999999999999e+00 -8.256108849411650e-01 -1.696570384383008e-17
 1.429999999999999e+00 -8.256108849411650e-01 -1.696570384383008e-17
 1.429999999999999e+00 -8.256108849411650e-01 -1.696570384383008e-17
 1.429999999999999e+00 -8.256108849411650e-01 -1.696570384383008e-17
 1.429999999999999e+00 -8.256108849411650e-01 -1.696570384383008e-17
 1.429999999999999e+00 -8.256108849411650e-01 -1.696570384383008e-17
 1.429999999999999e+00 -8.256108849411650e-01 -1.696570384383008e-17
 1.429999999999999e+00 -8.256108849411650e-01 -1.696570384383008e-17
 1.429999999999999e+00 -8.256108849411650e-01 -1.696570384383008e-17
 1.429999999999999e+00 -8.256108849411650e-01 -1.696570384383008e-17
 1.429999999999999e+00 -8.256108849411650e-01 -1.696570384383008e-17
 1.429999999999999e+00 -8.256108849411650e-01 -1.696570384383008e-17
 1.429999999999999e+00 -8.256108849411650e-01 -1.696570384383008e-17
 1.429999999999999e+00 -8.256108849411650e-01 -1.696570384383008e-17
 1.429999999999999e+00 -8.256108849411650e-01 -1.696570384383008e-17
 1.429999999999999e+00 -8.256108849411650e-01 -1.696570384383008e-17
 1.429999999999999e+00 -8.256108849411650e-01 -1.696570384383008e-17
 1.429999999999999e+00 -8.256108849411650e-01 -1.696570384383008e-17
 1.429999999999999e+00 -8.256108849411650e-01 -1.696570384383008e-17
 1.429999999999999e+00 -8.256108849411650e-01 -1.696570384383008e-17
 1.429999999999999e+00 -8.256108849411650e-01 -1.696570384383008e-17
 1.429999999999999e+00 -8.256108849411650e-01 -1.696570384383008e-17
 1.429999999999999e+00 -8.256108849411650e-01 -1.696570384383008e-17
 1.429999999999999e+00 -8.256108849411650e-01 -1.696570384383008e-17
 1.429999999999999e+00 -8.256108849411650e-01 -1.696570384383008e-17
 1.429999999999999e+00 -8.256108849411650e-01 -1.696570384383008e-17
 1.429999999999999e+00 -8.256108849411650e-01 -1.696570384383008e-17
 1.429999999999999e+00 -8.256108849411650e-01 -1.696570384383008e-17
 1.429999999999999e+00 -8.256108849411650e-01 -1.696570384383008e-17
 1.429999999999999e+00 -8.256108849411650e-01 -1.696570384383008e-17
 1.429999999999999e+00 -8.256108849411650e-01 -1.696570384383008e-17
 1.429999999999999e+00 -8.256108849411650e-01 -1.696570384383008e-17
 1.429999999999999e+00 -8.256108849411650e-01 -1.696570384383008e-17
 1.429999999999999e+00 -8.256108849411650e-01 -1.696570384383008e-17
 1.429999999999999e+00 -8.256108849411650e-01 -1.696570384383008e-17
 1.429999999999999e+00 -8.256108849411650e-01 -1.696570384383008e-17
 1.429999999999999e+00 -8.256108849411650e-01 -1.696570384383008e-17
 1.429999999999999e+00 -8.256108849411650e-01 -1.696570384383008e-17
 1.429999999999999e+00 -8.256108849411650e-01 -1.696570384383008e-17
 1.429999999999999e+00 -8.256108849411650e-01 -1.696570384383008e-17
 1.429999999999999e+00 -8.256108849411650e-01 -1.696570384383008e-17
 1.429999999999999e+00 -8.256108849411650e-01 -1.696570384383008e-17
 1.429999999999999e+00 -8.256108849411650e-01 -1.696570384383008e-17
 1.429999999999999e+00 -8.256108849411650e-01 -1.696570384383008e-17
 1.429999999999999e+00 -8.256108849411650e-01 -1.696570384383008e-17
 1.429999999999999e+00 -8.256108849411650e-01 -1.696570384383008e-17
 1.429999999999999e+00 -8.256108849411650e-01 -1.696570384383008e-17
 1.429999999999999e+00 -8.256108849411650e-01 -1.696570384383008e-17
 1.429999999999999e+00 -8.256108849411650e-01 -1.696570384383008e-17
 1.429999999999999e+00 -8.256108849411650e-01 -1.696570384383008e-17
 1.429999999999999e+00 -8.256108849411650e-01 -1.696570384383008e-17
 1.429999999999999e+00 -8.256108849411650e-01 -1.696570384383008e-17
 1.429999999999999e+00 -8.256108849411650e-01 -1.696570384383008e-17
 1.429999999999999e+00 -8.256108849411650e-01 -1.696570384383008e-17
 1.429999999999999e+00 -8.256108849411650e-01 -1.696570384383008e-17
 1.429999999999999e+00 -8.256108849411650e-01 -1.696570384383008e-17
 1.429999999999999e+00 -8.256108849411650e-01 -1.696570384383008e-17
 1.429999999999999e+00 -8.256108849411650e-01 -1.696570384383008e-17
 1.429999999999999e+00 -8.256108849411650e-01 -1.696570384383008e-17
 1.429999999999999e+00 -8.256108849411650e-01 -1.696570384383008e-17
 1.429999999999999e+00 -8.256108849411650e-01 -1.696570384383008e-17
 1.429999999999999e+00 -8.256108849411650e-01 -1.696570384383008e-17
 1.429999999999999e+00 -8.256108849411650e-01 -1.696570384383008e-17
 1.429999999999999e+00 -8.256108849411650e-01 -1.696570384383008e-17
 1.429999999999999e+00 -8.256108849411650e-01 -1.696570384383008e-17
 1.429999999999999e+00 -8.256108849411650e-01 -1.696570384383008e-17
 1.429999999999999e+00 -8.256108849411650e-01 -1.696570384383008e-17
 1.429999999999999e+00 -8.256108849411650e-01 -1.696570384383008e-17
 1.429999999999999e+00 -8.256108849411650e-01 -1.696570384383008e-17
 1.429999999999999e+00 -8.256108849411650e-01 -1.696570384383008e-17
 1.429999999999999e+00 -8.256108849411650e-01 -1.696570384383008e-17
 1.429999999999999e+00 -8.256108849411650e-01 -1.696570384383008e-17
 1.429999999999999e+00 -8.256108849411650e-01 -1.696570384383008e-17
 1.429999999999999e+00 -8.256108849411650e-01 -1.696570384383008e-17
 1.429999999999999e+00 -8.256108849411650e-01 -1.696570384383008e-17
 1.429999999999999e+00 -8.256108849411650e-01 -1.696570384383008e-17
 1.429999999999999e+00 -8.256108849411650e-01 -1.696570384383008e-17
 1.429999999999999e+00 -8.256108849411650e-01 -1.696570384383008e-17
 1.429999999999999e+00 -8.256108849411650e-01 -1.696570384383008e-17
 1.429999999999999e+00 -8.256108849411650e-01 -1.696570384383008e-17
 1.429999999999999e+00 -8.256108849411650e-01 -1.696570384383008e-17
 1.429999999999999e+00 -8.256108849411650e-01 -1.696570384383008e-17
 1.429999999999999e+00 -8.256108849411650e-01 -1.696570384383008e-17
 1.429999999999999e+00 -8.256108849411650e-01 -1.696570384383008e-17
 1.429999999999999e+00 -8.256108849411650e-01 -1.696570384383008e-17
 1.429999999999999e+00 -8.256108849411650e-01 -1.696570384383008e-17
 1.429999999999999e+00 -8.256108849411650e-01 -1.696570384383008e-17
 1.429999999999999e+00 -8.256108849411650e-01 -1.696570384383008e-17
 1.429999999999999e+00 -8.256108849411650e-01 -1.696570384383008e-17
 1.429999999999999e+00 -8.256108849411650e-01 -1.696570384383008e-17
 1.429999999999999e+00 -8.256108849411650e-01 -1.696570384383008e-17
 1.429999999999999e+00 -8.256108849411650e-01 -1.696570384383008e-17
 1.429999999999999e+00 -8.256108849411650e-01 -1.696570384383008e-17
 1.429999999999999e+00 -8.256108849411650e-01 -1.696570384383008e-17
 1.429999999999999e+00 -8.256108849411650e-01 -1.696570384383008e-17
 1.429999999999999e+00 -8.256108849411650e-01 -1.696570384383008e-17
 1.429999999999999e+00 -8.256108849411650e-01 -1.696570384383008e-17
 1.429999999999999e+00 -8.256108849411650e-01 -1.696570384383008e-17
 1.429999999999999e+00 -8.256108849411650e-01 -1.696570384383008e-17
 1.429999999999999e+00 -8.256108849411650e-01 -1.696570384383008e-17
 1.429999999999999e+00 -8.256108849411650e-01 -1.696570384383008e-17
-1.429999999999999e+00  8.256108849411650e-01  1.696570384383008e-17
 1.429999999999999e+00 -8.256108849411650e-01 -1.696570384383008e-17
 1.429999999999999e+00 -8.256108849411650e-01 -1.696570384383008e-17
 1.429999999999999e+00 -8.256108849411650e-01 -1.696570384383008e-17
 1.429999999999999e+00 -8.256108849411650e-01 -1.696570384383008e-17
 1.429999999999999e+00 -8.256108849411650e-01 -1.696570384383008e-17
 1.429999999999999e+00 -8.256108849411650e-01 -1.696570384383008e-17
 1.429999999999999e+00 -8.256108849411650e-01 -1.696570384383008e-17
 1.429999999999999e+00 -8.256108849411650e-01 -1.696570384383008e-17
 1.429999999999999e+00 -8.256108849411650e-01 -1.696570384383008e-17
 1.429999999999999e+00 -8.256108849411650e-01 -1.696570384383008e-17
 1.429999999999999e+00 -8.256108849411650e-01 -1.696570384383008e-17
 1.429999999999999e+00 -8.256108849411650e-01 -1.696570384383008e-17
 1.429999999999999e+00 -8.256108849411650e-01 -1.696570384383008e-17
 1.429999999999999e+00 -8.256108849411650e-01 -1.696570384383008e-17
 1.429999999999999e+00 -8.256108849411650e-01 -1.696570384383008e-17
 1.429999999999999e+00 -8.256108849411650e-01 -1.696570384383008e-17
 1.429999999999999e+00 -8.256108849411650e-01 -1.696570384383008e-17
 1.429999999999999e+00 -8.256108849411650e-01 -1.696570384383008e-17
 1.429999999999999e+00 -8.256108849411650e-01 -1.696570384383008e-17
 1.429999999999999e+00 -8.256108849411650e-01 -1.696570384383008e-17
 1.429999999999999e+00 -8.256108849411650e-01 -1.696570384383008e-17
 1.429999999999999e+00 -8.256108849411650e-01 -1.696570384383008e-17
 1.429999999999999e+00 -8.256108849411650e-01 -1.696570384383008e-17
 1.429999999999999e+00 -8.256108849411650e-01 -1.696570384383008e-17
 1.429999999999999e+00 -8.256108849411650e-01 -1.696570384383008e-17
 1.429999999999999e+00 -8.256108849411650e-01 -1.696570384383008e-17
 1.429999999999999e+00 -8.256108849411650e-01 -1.696570384383008e-17
 1.429999999999999e+00 -8.256108849411650e-01 -1.696570384383008e-17
 1.429999999999999e+00 -8.256108849411650e-01 -1.696570384383008e-17
 1.429999999999999e+00 -8.256108849411650e-01 -1.696570384383008e-17
 1.429999999999999e+00 -8.256108849411650e-01 -1.696570384383008e-17
 1.429999999999999e+00 -8.256108849411650e-01 -1.696570384383008e-17
 1.429999999999999e+00 -8.256108849411650e-01 -1.696570384383008e-17
 1.429999999999999e+00 -8.256108849411650e-01 -1.696570384383008e-17
 1.429999999999999e+00 -8.256108849411650e-01 -1.696570384383008e-17
 1.429999999999999e+00 -8.256108849411650e-01 -1.696570384383008e-17
 1.429999999999999e+00 -8.256108849411650e-01 -1.696570384383008e-17
 1.429999999999999e+00 -8.256108849411650e-01 -1.696570384383008e-17
 1.429999999999999e+00 -8.256108849411650e-01 -1.696570384383008e-17
 1.429999999999999e+00 -8.256108849411650e-01 -1.696570384383008e-17
 1.429999999999999e+00 -8.256108849411650e-01 -1.696570384383008e-17
 1.429999999999999e+00 -8.256108849411650e-01 -1.696570384383008e-17
 1.429999999999999e+00 -8.256108849411650e-01 -1.696570384383008e-17
 1.429999999999999e+00 -8.256108849411650e-01 -1.696570384383008e-17
 1.429999999999999e+00 -8.256108849411650e-01 -1.696570384383008e-17
 1.429999999999999e+00 -8.256108849411650e-01 -1.696570384383008e-17
 1.429999999999999e+00 -8.256108849411650e-01 -1.696570384383008e-17
 1.429999999999999e+00 -8.256108849411650e-01 -1.696570384383008e-17
 1.429999999999999e+00 -8.256108849411650e-01 -1.696570384383008e-17
 1.429999999999999e+00 -8.256108849411650e-01 -1.696570384383008e-17
 1.429999999999999e+00 -8.256108849411650e-01 -1.696570384383008e-17
 1.429999999999999e+00 -8.256108849411650e-01 -1.696570384383008e-17
 1.429999999999999e+00 -8.256108849411650e-01 -1.696570384383008e-17
 1.429999999999999e+00 -8.256108849411650e-01 -1.696570384383008e-17
 1.429999999999999e+00 -8.256108849411650e-01 -1.696570384383008e-17
 1.429999999999999e+00 -8.256108849411650e-01 -1.696570384383008e-17
 1.429999999999999e+00 -8.256108849411650e-01 -1.696570384383008e-17
 1.429999999999999e+00 -8.256108849411650e-01 -1.696570384383008e-17
 1.429999999999999e+00 -8.256108849411650e-01 -1.696570384383008e-17
 1.429999999999999e+00 -8.256108849411650e-01 -1.696570384383008e-17
 1.429999999999999e+00 -8.256108849411650e-01 -1.696570384383008e-17
 1.429999999999999e+00 -8.256108849411650e-01 -1.696570384383008e-17
 1.429999999999999e+00 -8.256108849411650e-01 -1.696570384383008e-17
 1.429999999999999e+00 -8.256108849411650e-01 -1.696570384383008e-17
 1.429999999999999e+00 -8.256108849411650e-01 -1.696570384383008e-17
 1.429999999999999e+00 -8.256108849411650e-01 -1.696570384383008e-17
 1.429999999999999e+00 -8.256108849411650e-01 -1.696570384383008e-17
 1.429999999999999e+00 -8.256108849411650e-01 -1.696570384383008e-17
 1.429999999999999e+00 -8.256108849411650e-01 -1.696570384383008e-17
 1.429999999999999e+00 -8.256108849411650e-01 -1.696570384383008e-17
 1.429999999999999e+00 -8.256108849411650e-01 -1.696570384383008e-17
 1.429999999999999e+00 -8.256108849411650e-01 -1.696570384383008e-17
 1.429999999999999e+00 -8.256108849411650e-01 -1.696570384383008e-17
 1.429999999999999e+00 -8.256108849411650e-01 -1.696570384383008e-17
 1.429999999999999e+00 -8.256108849411650e-01 -1.696570384383008e-17
 1.429999999999999e+00 -8.256108849411650e-01 -1.696570384383008e-17
 1.429999999999999e+00 -8.256108849411650e-01 -1.696570384383008e-17
 1.429999999999999e+00 -8.256108849411650e-01 -1.696570384383008e-17
 1.429999999999999e+00 -8.256108849411650e-01 -1.696570384383008e-17
 1.429999999999999e+00 -8.256108849411650e-01 -1.696570384383008e-17
 1.429999999999999e+00 -8.256108849411650e-01 -1.696570384383008e-17
 1.429999999999999e+00 -8.256108849411650e-01 -1.696570384383008e-17
 1.429999999999999e+00 -8.256108849411650e-01 -1.696570384383008e-17
 1.429999999999999e+00 -8.256108849411650e-01 -1.696570384383008e-17
 1.429999999999999e+00 -8.256108849411650e-01 -1.696570384383008e-17
 1.429999999999999e+00 -8.256108849411650e-01 -1.696570384383008e-17
 1.429999999999999e+00 -8.256108849411650e-01 -1.696570384383008e-17
 1.429999999999999e+00 -8.256108849411650e-01 -1.696570384383008e-17
 1.429999999999999e+00 -8.256108849411650e-01 -1.696570384383008e-17
 1.429999999999999e+00 -8.256108849411650e-01 -1.696570384383008e-17
 1.429999999999999e+00 -8.256108849411650e-01 -1.696570384383008e-17
 1.429999999999999e+00 -8.256108849411650e-01 -1.696570384383008e-17
 1.429999999999999e+00 -8.256108849411650e-01 -1.696570384383008e-17
 1.429999999999999e+00 -8.256108849411650e-01 -1.696570384383008e-17
 1.429999999999999e+00 -8.256108849411650e-01 -1.696570384383008e-17
 1.429999999999999e+00 -8.256108849411650e-01 -1.696570384383008e-17
 1.429999999999999e+00 -8.256108849411650e-01 -1.696570384383008e-17
 1.429999999999999e+00 -8.256108849411650e-01 -1.696570384383008e-17
 1.429999999999999e+00 -8.256108849411650e-01 -1.696570384383008e-17
 1.429999999999999e+00 -8.256108849411650e-01 -1.696570384383008e-17
 1.429999999999999e+00 -8.256108849411650e-01 -1.696570384383008e-17
 1.429999999999999e+00 -8.256108849411650e-01 -1.696570384383008e-17
 1.429999999999999e+00 -8.256108849411650e-01 -1.696570384383008e-17
 1.429999999999999e+00 -8.256108849411650e-01 -1.696570384383008e-17
 1.429999999999999e+00 -8.256108849411650e-01 -1.696570384383008e-17
 1.429999999999999e+00 -8.256108849411650e-01 -1.696570384383008e-17
 1.429999999999999e+00 -8.256108849411650e-01 -1.696570384383008e-17
 1.429999999999999e+00 -8.256108849411650e-01 -1.696570384383008e-17
 1.429999999999999e+00 -8.256108849411650e-01 -1.696570384383008e-17
 1.429999999999999e+00 -8.256108849411650e-01 -1.696570384383008e-17
 1.429999999999999e+00 -8.256108849411650e-01 -1.696570384383008e-17
 1.429999999999999e+00 -8.256108849411650e-01 -1.696570384383008e-17
 1.429999999999999e+00 -8.256108849411650e-01 -1.696570384383008e-17
 1.429999999999999e+00 -8.256108849411650e-01 -1.696570384383008e-17
 1.429999999999999e+00 -8.256108849411650e-01 -1.696570384383008e-17
 1.429999999999999e+00 -8.256108849411650e-01 -1.696570384383008e-17
 1.429999999999999e+00 -8.256108849411650e-01 -1.696570384383008e-17
 1.429999999999999e+00 -8.256108849411650e-01 -1.696570384383008e-17
 1.429999999999999e+00 -8.256108849411650e-01 -1.696570384383008e-17
 1.429999999999999e+00 -8.256108849411650e-01 -1.696570384383008e-17
 1.429999999999999e+00 -8.256108849411650e-01 -1.696570384383008e-17
 1.429999999999999e+00 -8.256108849411650e-01 -1.696570384383008e-17
 1.429999999999999e+00 -8.256108849411650e-01 -1.696570384383008e-17
 1.429999999999999e+00 -8.256108849411650e-01 -1.696570384383008e-17
 1.429999999999999e+00 -8.256108849411650e-01 -1.696570384383008e-17
 1.429999999999999e+00 -8.256108849411650e-01 -1.696570384383008e-17
 1.429999999999999e+00 -8.256108849411650e-01 -1.696570384383008e-17
 1.429999999999999e+00 -8.256108849411650e-01 -1.696570384383008e-17
 1.429999999999999e+00 -8.256108849411650e-01 -1.696570384383008e-17
 1.429999999999999e+00 -8.256108849411650e-01 -1.696570384383008e-17
 1.429999999999999e+00 -8.256108849411650e-01 -1.696570384383008e-17
 1.429999999999999e+00 -8.256108849411650e-01 -1.696570384383008e-17
 1.429999999999999e+00 -8.256108849411650e-01 -1.696570384383008e-17
 1.429999999999999e+00 -8.256108849411650e-01 -1.696570384383008e-17
 1.429999999999999e+00 -8.256108849411650e-01 -1.696570384383008e-17
 1.429999999999999e+00 -8.256108849411650e-01 -1.696570384383008e-17
 1.429999999999999e+00 -8.256108849411650e-01 -1.696570384383008e-17
 1.429999999999999e+00 -8.256108849411650e-01 -1.696570384383008e-17
 1.429999999999999e+00 -8.256108849411650e-01 -1.696570384383008e-17
 1.429999999999999e+00 -8.256108849411650e-01 -1.696570384383008e-17
 1.429999999999999e+00 -8.256108849411650e-01 -1.696570384383008e-17
 1.429999999999999e+00 -8.256108849411650e-01 -1.696570384383008e-17
 1.429999999999999e+00 -8.256108849411650e-01 -1.696570384383008e-17
 1.429999999999999e+00 -8.256108849411650e-01 -1.696570384383008e-17
 1.429999999999999e+00 -8.256108849411650e-01 -1.696570384383008e-17
 1.429999999999999e+00 -8.256108849411650e-01 -1.696570384383008e-17
 1.429999999999999e+00 -8.256108849411650e-01 -1.696570384383008e-17
 1.429999999999999e+00 -8.256108849411650e-01 -1.696570384383008e-17
 1.429999999999999e+00 -8.256108849411650e-01 -1.696570384383008e-17
 1.429999999999999e+00 -8.256108849411650e-01 -1.696570384383008e-17
 1.429999999999999e+00 -8.256108849411650e-01 -1.696570384383008e-17
 1.429999999999999e+00 -8.256108849411650e-01 -1.696570384383008e-17
 1.429999999999999e+00 -8.256108849411650e-01 -1.696570384383008e-17
 1.429999999999999e+00 -8.256108849411650e-01 -1.696570384383008e-17
 1.429999999999999e+00 -8.256108849411650e-01 -1.696570384383008e-17
 1.429999999999999e+00 -8.256108849411650e-01 -1.696570384383008e-17
 1.429999999999999e+00 -8.256108849411650e-01 -1.696570384383008e-17
 1.429999999999999e+00 -8.256108849411650e-01 -1.696570384383008e-17
 1.429999999999999e+00 -8.256108849411650e-01 -1.696570384383008e-17
 1.429999999999999e+00 -8.256108849411650e-01 -1.696570384383008e-17

VECTORS burgers_vector_local double
-1.666666666666667e-01 -3.333333333333333e-01 -1.666666666666665e-01
1.666666666666667e-01 3.333333333333333e-01 1.666666666666665e-01
-1.666666666666667e-01 -3.333333333333333e-01 -1.666666666666665e-01
-1.666666666666667e-01 -3.333333333333333e-01 -1.666666666666665e-01
-1.666666666666667e-01 -3.333333333333333e-01 -1.666666666666665e-01
-1.666666666666667e-01 -3.333333333333333e-01 -1.666666666666665e-01
-1.666666666666667e-01 -3.333333333333333e-01 -1.666666666666665e-01
-1.666666666666667e-01 -3.333333333333333e-01 -1.666666666666665e-01
-1.666666666666667e-01 -3.333333333333333e-01 -1.666666666666665e-01
-1.666666666666667e-01 -3.333333333333333e-01 -1.666666666666665e-01
-1.666666666666667e-01 -3.333333333333333e-01 -1.666666666666665e-01
-1.666666666666667e-01 -3.333333333333333e-01 -1.666666666666665e-01
-1.666666666666667e-01 -3.333333333333333e-01 -1.666666666666665e-01
-1.666666666666667e-01 -3.333333333333333e-01 -1.666666666666665e-01
-1.666666666666667e-01 -3.333333333333333e-01 -1.666666666666665e-01
-1.666666666666667e-01 -3.333333333333333e-01 -1.666666666666665e-01
-1.666666666666667e-01 -3.333333333333333e-01 -1.666666666666665e-01
-1.666666666666667e-01 -3.333333333333333e-01 -1.666666666666665e-01
-1.666666666666667e-01 -3.333333333333333e-01 -1.666666666666665e-01
-1.666666666666667e-01 -3.333333333333333e-01 -1.666666666666665e-01
-1.666666666666667e-01 -3.333333333333333e-01 -1.666666666666665e-01
-1.666666666666667e-01 -3.333333333333333e-01 -1.666666666666665e-01
-1.666666666666667e-01 -3.333333333333333e-01 -1.666666666666665e-01
-1.666666666666667e-01 -3.333333333333333e-01 -1.666666666666665e-01
-1.666666666666667e-01 -3.333333333333333e-01 -1.666666666666665e-01
-1.666666666666667e-01 -3.333333333333333e-01 -1.666666666666665e-01
-1.666666666666667e-01 -3.333333333333333e-01 -1.666666666666665e-01
-1.666666666666667e-01 -3.333333333333333e-01 -1.666666666666665e-01
-1.666666666666667e-01 -3.333333333333333e-01 -1.666666666666665e-01
-1.666666666666667e-01 -3.333333333333333e-01 -1.666666666666665e-01
-1.666666666666667e-01 -3.333333333333333e-01 -1.666666666666665e-01
-1.666666666666667e-01 -3.333333333333333e-01 -1.666666666666665e-01
-1.666666666666667e-01 -3.333333333333333e-01 -1.666666666666665e-01
-1.666666666666667e-01 -3.333333333333333e-01 -1.666666666666665e-01
-1.666666666666667e-01 -3.333333333333333e-01 -1.666666666666665e-01
-1.666666666666667e-01 -3.333333333333333e-01 -1.666666666666665e-01
-1.666666666666667e-01 -3.333333333333333e-01 -1.666666666666665e-01
-1.666666666666667e-01 -3.333333333333333e-01 -1.666666666666665e-01
-1.666666666666667e-01 -3.333333333333333e-01 -1.666666666666665e-01
-1.666666666666667e-01 -3.333333333333333e-01 -1.666666666666665e-01
-1.666666666666667e-01 -3.333333333333333e-01 -1.666666666666665e-01
-1.666666666666667e-01 -3.333333333333333e-01 -1.666666666666665e-01
-1.666666666666667e-01 -3.333333333333333e-01 -1.666666666666665e-01
-1.666666666666667e-01 -3.333333333333333e-01 -1.666666666666665e-01
-1.666666666666667e-01 -3.333333333333333e-01 -1.666666666666665e-01
-1.666666666666667e-01 -3.333333333333333e-01 -1.666666666666665e-01
-1.666666666666667e-01 -3.333333333333333e-01 -1.666666666666665e-01
-1.666666666666667e-01 -3.333333333333333e-01 -1.666666666666665e-01
-1.666666666666667e-01 -3.333333333333333e-01 -1.666666666666665e-01
-1.666666666666667e-01 -3.333333333333333e-01 -1.666666666666665e-01
-1.666666666666667e-01 -3.333333333333333e-01 -1.666666666666665e-01
-1.666666666666667e-01 -3.333333333333333e-01 -1.666666666666665e-01
-1.666666666666667e-01 -3.333333333333333e-01 -1.666666666666665e-01
-1.666666666666667e-01 -3.333333333333333e-01 -1.666666666666665e-01
-1.666666666666667e-01 -3.333333333333333e-01 -1.666666666666665e-01
-1.666666666666667e-01 -3.333333333333333e-01 -1.666666666666665e-01
-1.666666666666667e-01 -3.333333333333333e-01 -1.666666666666665e-01
-1.666666666666667e-01 -3.333333333333333e-01 -1.666666666666665e-01
-1.666666666666667e-01 -3.333333333333333e-01 -1.666666666666665e-01
-1.666666666666667e-01 -3.333333333333333e-01 -1.666666666666665e-01
-1.666666666666667e-01 -3.333333333333333e-01 -1.666666666666665e-01
-1.666666666666667e-01 -3.333333333333333e-01 -1.666666666666665e-01
-1.666666666666667e-01 -3.333333333333333e-01 -1.666666666666665e-01
-1.666666666666667e-01 -3.333333333333333e-01 -1.666666666666665e-01
-1.666666666666667e-01 -3.333333333333333e-01 -1.666666666666665e-01
-1.666666666666667e-01 -3.333333333333333e-01 -1.666666666666665e-01
-1.666666666666667e-01 -3.333333333333333e-01 -1.666666666666665e-01
-1.666666666666667e-01 -3.333333333333333e-01 -1.666666666666665e-01
-1.666666666666667e-01 -3.333333333333333e-01 -1.666666666666665e-01
-1.666666666666667e-01 -3.333333333333333e-01 -1.666666666666665e-01
-1.666666666666667e-01 -3.333333333333333e-01 -1.666666666666665e-01
-1.666666666666667e-01 -3.333333333333333e-01 -1.666666666666665e-01
-1.666666666666667e-01 -3.333333333333333e-01 -1.666666666666665e-01
-1.666666666666667e-01 -3.333333333333333e-01 -1.666666666666665e-01
-1.666666666666667e-01 -3.333333333333333e-01 -1.666666666666665e-01
-1.666666666666667e-01 -3.333333333333333e-01 -1.666666666666665e-01
-1.666666666666667e-01 -3.333333333333333e-01 -1.666666666666665e-01
-1.666666666666667e-01 -3.333333333333333e-01 -1.666666666666665e-01
-1.666666666666667e-01 -3.333333333333333e-01 -1.666666666666665e-01
-1.666666666666667e-01 -3.333333333333333e-01 -1.666666666666665e-01
-1.666666666666667e-01 -3.333333333333333e-01 -1.666666666666665e-01
-1.666666666666667e-01 -3.333333333333333e-01 -1.666666666666665e-01
-1.666666666666667e-01 -3.333333333333333e-01 -1.666666666666665e-01
-1.666666666666667e-01 -3.333333333333333e-01 -1.666666666666665e-01
-1.666666666666667e-01 -3.333333333333333e-01 -1.666666666666665e-01
-1.666666666666667e-01 -3.333333333333333e-01 -1.666666666666665e-01
-1.666666666666667e-01 -3.333333333333333e-01 -1.666666666666665e-01
-1.666666666666667e-01 -3.333333333333333e-01 -1.666666666666665e-01
-1.666666666666667e-01 -3.333333333333333e-01 -1.666666666666665e-01
-1.666666666666667e-01 -3.333333333333333e-01 -1.666666666666665e-01
-1.666666666666667e-01 -3.333333333333333e-01 -1.666666666666665e-01
-1.666666666666667e-01 -3.333333333333333e-01 -1.666666666666665e-01
-1.666666666666667e-01 -3.333333333333333e-01 -1.666666666666665e-01
-1.666666666666667e-01 -3.333333333333333e-01 -1.666666666666665e-01
-1.666666666666667e-01 -3.333333333333333e-01 -1.666666666666665e-01
-1.666666666666667e-01 -3.333333333333333e-01 -1.666666666666665e-01
-1.666666666666667e-01 -3.333333333333333e-01 -1.666666666666665e-01
-1.666666666666667e-01 -3.333333333333333e-01 -1.666666666666665e-01
-1.666666666666667e-01 -3.333333333333333e-01 -1.666666666666665e-01
-1.666666666666667e-01 -3.333333333333333e-01 -1.666666666666665e-01
-1.666666666666667e-01 -3.333333333333333e-01 -1.666666666666665e-01
-1.666666666666667e-01 -3.333333333333333e-01 -1.666666666666665e-01
-1.666666666666667e-01 -3.333333333333333e-01 -1.666666666666665e-01
-1.666666666666667e-01 -3.333333333333333e-01 -1.666666666666665e-01
-1.666666666666667e-01 -3.333333333333333e-01 -1.666666666666665e-01
-1.666666666666667e-01 -3.333333333333333e-01 -1.666666666666665e-01
-1.666666666666667e-01 -3.333333333333333e-01 -1.666666666666665e-01
-1.666666666666667e-01 -3.333333333333333e-01 -1.666666666666665e-01
-1.666666666666667e-01 -3.333333333333333e-01 -1.666666666666665e-01
-1.666666666666667e-01 -3.333333333333333e-01 -1.666666666666665e-01
-1.666666666666667e-01 -3.333333333333333e-01 -1.666666666666665e-01
-1.666666666666667e-01 -3.333333333333333e-01 -1.666666666666665e-01
-1.666666666666667e-01 -3.333333333333333e-01 -1.666666666666665e-01
-1.666666666666667e-01 -3.333333333333333e-01 -1.666666666666665e-01
-1.666666666666667e-01 -3.333333333333333e-01 -1.666666666666665e-01
-1.666666666666667e-01 -3.333333333333333e-01 -1.666666666666665e-01
-1.666666666666667e-01 -3.333333333333333e-01 -1.666666666666665e-01
-1.666666666666667e-01 -3.333333333333333e-01 -1.666666666666665e-01
-1.666666666666667e-01 -3.333333333333333e-01 -1.666666666666665e-01
-1.666666666666667e-01 -3.333333333333333e-01 -1.666666666666665e-01
-1.666666666666667e-01 -3.333333333333333e-01 -1.666666666666665e-01
-1.666666666666667e-01 -3.333333333333333e-01 -1.666666666666665e-01
-1.666666666666667e-01 -3.333333333333333e-01 -1.666666666666665e-01
-1.666666666666667e-01 -3.333333333333333e-01 -1.666666666666665e-01
-1.666666666666667e-01 -3.333333333333333e-01 -1.666666666666665e-01
-1.666666666666667e-01 -3.333333333333333e-01 -1.666666666666665e-01
-1.666666666666667e-01 -3.333333333333333e-01 -1.666666666666665e-01
-1.666666666666667e-01 -3.333333333333333e-01 -1.666666666666665e-01
-1.666666666666667e-01 -3.333333333333333e-01 -1.666666666666665e-01
-1.666666666666667e-01 -3.333333333333333e-01 -1.666666666666665e-01
-1.666666666666667e-01 -3.333333333333333e-01 -1.666666666666665e-01
-1.666666666666667e-01 -3.333333333333333e-01 -1.666666666666665e-01
-1.666666666666667e-01 -3.333333333333333e-01 -1.666666666666665e-01
-1.666666666666667e-01 -3.333333333333333e-01 -1.666666666666665e-01
-1.666666666666667e-01 -3.333333333333333e-01 -1.666666666666665e-01
-1.666666666666667e-01 -3.333333333333333e-01 -1.666666666666665e-01
-1.666666666666667e-01 -3.333333333333333e-01 -1.666666666666665e-01
-1.666666666666667e-01 -3.333333333333333e-01 -1.666666666666665e-01
-1.666666666666667e-01 -3.333333333333333e-01 -1.666666666666665e-01
-1.666666666666667e-01 -3.333333333333333e-01 -1.666666666666665e-01
-1.666666666666667e-01 -3.333333333333333e-01 -1.666666666666665e-01
-1.666666666666667e-01 -3.333333333333333e-01 -1.666666666666665e-01
-1.666666666666667e-01 -3.333333333333333e-01 -1.666666666666665e-01
-1.666666666666667e-01 -3.333333333333333e-01 -1.666666666666665e-01
-1.666666666666667e-01 -3.333333333333333e-01 -1.666666666666665e-01
-1.666666666666667e-01 -3.333333333333333e-01 -1.666666666666665e-01
-1.666666666666667e-01 -3.333333333333333e-01 -1.666666666666665e-01
-1.666666666666667e-01 -3.333333333333333e-01 -1.666666666666665e-01
-1.666666666666667e-01 -3.333333333333333e-01 -1.666666666666665e-01
-1.666666666666667e-01 -3.333333333333333e-01 -1.666666666666665e-01
-1.666666666666667e-01 -3.333333333333333e-01 -1.666666666666665e-01
-1.666666666666667e-01 -3.333333333333333e-01 -1.666666666666665e-01
-1.666666666666667e-01 -3.333333333333333e-01 -1.666666666666665e-01
-1.666666666666667e-01 -3.333333333333333e-01 -1.666666666666665e-01
-1.666666666666667e-01 -3.333333333333333e-01 -1.666666666666665e-01
-1.666666666666667e-01 -3.333333333333333e-01 -1.666666666666665e-01
-1.666666666666667e-01 -3.333333333333333e-01 -1.666666666666665e-01
-1.666666666666667e-01 -3.333333333333333e-01 -1.666666666666665e-01
-1.666666666666667e-01 -3.333333333333333e-01 -1.666666666666665e-01
-1.666666666666667e-01 -3.333333333333333e-01 -1.666666666666665e-01
-1.666666666666667e-01 -3.333333333333333e-01 -1.666666666666665e-01
-1.666666666666667e-01 -3.333333333333333e-01 -1.666666666666665e-01
-1.666666666666667e-01 -3.333333333333333e-01 -1.666666666666665e-01
-1.666666666666667e-01 -3.333333333333333e-01 -1.666666666666665e-01
-1.666666666666667e-01 -3.333333333333333e-01 -1.666666666666665e-01
-1.666666666666667e-01 -3.333333333333333e-01 -1.666666666666665e-01
-1.666666666666667e-01 -3.333333333333333e-01 -1.666666666666665e-01
-1.666666666666667e-01 -3.333333333333333e-01 -1.666666666666665e-01
-1.666666666666667e-01 -3.333333333333333e-01 -1.666666666666665e-01
-1.666666666666667e-01 -3.333333333333333e-01 -1.666666666666665e-01
-1.666666666666667e-01 -3.333333333333333e-01 -1.666666666666665e-01
-1.666666666666667e-01 -3.333333333333333e-01 -1.666666666666665e-01
-1.666666666666667e-01 -3.333333333333333e-01 -1.666666666666665e-01
-1.666666666666667e-01 -3.333333333333333e-01 -1.666666666666665e-01
-1.666666666666667e-01 -3.333333333333333e-01 -1.666666666666665e-01
-1.666666666666667e-01 -3.333333333333333e-01 -1.666666666666665e-01
-1.666666666666667e-01 -3.333333333333333e-01 -1.666666666666665e-01
-1.666666666666667e-01 -3.333333333333333e-01 -1.666666666666665e-01
-1.666666666666667e-01 -3.333333333333333e-01 -1.666666666666665e-01
-1.666666666666667e-01 -3.333333333333333e-01 -1.666666666666665e-01
-1.666666666666667e-01 -3.333333333333333e-01 -1.666666666666665e-01
-1.666666666666667e-01 -3.333333333333333e-01 -1.666666666666665e-01
-1.666666666666667e-01 -3.333333333333333e-01 -1.666666666666665e-01
-1.666666666666667e-01 -3.333333333333333e-01 -1.666666666666665e-01
-1.666666666666667e-01 -3.333333333333333e-01 -1.666666666666665e-01
-1.666666666666667e-01 -3.333333333333333e-01 -1.666666666666665e-01
-1.666666666666667e-01 -3.333333333333333e-01 -1.666666666666665e-01
-1.666666666666667e-01 -3.333333333333333e-01 -1.666666666666665e-01
1.666666666666667e-01 3.333333333333333e-01 1.666666666666665e-01
-1.666666666666667e-01 -3.333333333333333e-01 -1.666666666666665e-01
-1.666666666666667e-01 -3.333333333333333e-01 -1.666666666666665e-01
-1.666666666666667e-01 -3.333333333333333e-01 -1.666666666666665e-01
-1.666666666666667e-01 -3.333333333333333e-01 -1.666666666666665e-01
-1.666666666666667e-01 -3.333333333333333e-01 -1.666666666666665e-01
-1.666666666666667e-01 -3.333333333333333e-01 -1.666666666666665e-01
-1.666666666666667e-01 -3.333333333333333e-01 -1.666666666666665e-01
-1.666666666666667e-01 -3.333333333333333e-01 -1.666666666666665e-01
-1.666666666666667e-01 -3.333333333333333e-01 -1.666666666666665e-01
-1.666666666666667e-01 -3.333333333333333e-01 -1.666666666666665e-01
-1.666666666666667e-01 -3.333333333333333e-01 -1.666666666666665e-01
-1.666666666666667e-01 -3.333333333333333e-01 -1.666666666666665e-01
-1.666666666666667e-01 -3.333333333333333e-01 -1.666666666666665e-01
-1.666666666666667e-01 -3.333333333333333e-01 -1.666666666666665e-01
-1.666666666666667e-01 -3.333333333333333e-01 -1.666666666666665e-01
-1.666666666666667e-01 -3.333333333333333e-01 -1.666666666666665e-01
-1.666666666666667e-01 -3.333333333333333e-01 -1.666666666666665e-01
-1.666666666666667e-01 -3.333333333333333e-01 -1.666666666666665e-01
-1.666666666666667e-01 -3.333333333333333e-01 -1.666666666666665e-01
-1.666666666666667e-01 -3.333333333333333e-01 -1.666666666666665e-01
-1.666666666666667e-01 -3.333333333333333e-01 -1.666666666666665e-01
-1.666666666666667e-01 -3.333333333333333e-01 -1.666666666666665e-01
-1.666666666666667e-01 -3.333333333333333e-01 -1.666666666666665e-01
-1.666666666666667e-01 -3.333333333333333e-01 -1.666666666666665e-01
-1.666666666666667e-01 -3.333333333333333e-01 -1.666666666666665e-01
-1.666666666666667e-01 -3.333333333333333e-01 -1.666666666666665e-01
-1.666666666666667e-01 -3.333333333333333e-01 -1.666666666666665e-01
-1.666666666666667e-01 -3.333333333333333e-01 -1.666666666666665e-01
-1.666666666666667e-01 -3.333333333333333e-01 -1.666666666666665e-01
-1.666666666666667e-01 -3.333333333333333e-01 -1.666666666666665e-01
-1.666666666666667e-01 -3.333333333333333e-01 -1.666666666666665e-01
-1.666666666666667e-01 -3.333333333333333e-01 -1.666666666666665e-01
-1.666666666666667e-01 -3.333333333333333e-01 -1.666666666666665e-01
-1.666666666666667e-01 -3.333333333333333e-01 -1.666666666666665e-01
-1.666666666666667e-01 -3.333333333333333e-01 -1.666666666666665e-01
-1.666666666666667e-01 -3.333333333333333e-01 -1.666666666666665e-01
-1.666666666666667e-01 -3.333333333333333e-01 -1.666666666666665e-01
-1.666666666666667e-01 -3.333333333333333e-01 -1.666666666666665e-01
-1.666666666666667e-01 -3.333333333333333e-01 -1.666666666666665e-01
-1.666666666666667e-01 -3.333333333333333e-01 -1.666666666666665e-01
-1.666666666666667e-01 -3.333333333333333e-01 -1.666666666666665e-01
-1.666666666666667e-01 -3.333333333333333e-01 -1.666666666666665e-01
-1.666666666666667e-01 -3.333333333333333e-01 -1.666666666666665e-01
-1.666666666666667e-01 -3.333333333333333e-01 -1.666666666666665e-01
-1.666666666666667e-01 -3.333333333333333e-01 -1.666666666666665e-01
-1.666666666666667e-01 -3.333333333333333e-01 -1.666666666666665e-01
-1.666666666666667e-01 -3.333333333333333e-01 -1.666666666666665e-01
-1.666666666666667e-01 -3.333333333333333e-01 -1.666666666666665e-01
-1.666666666666667e-01 -3.333333333333333e-01 -1.666666666666665e-01
-1.666666666666667e-01 -3.333333333333333e-01 -1.666666666666665e-01
-1.666666666666667e-01 -3.333333333333333e-01 -1.666666666666665e-01
-1.666666666666667e-01 -3.333333333333333e-01 -1.666666666666665e-01
-1.666666666666667e-01 -3.333333333333333e-01 -1.666666666666665e-01
-1.666666666666667e-01 -3.333333333333333e-01 -1.666666666666665e-01
-1.666666666666667e-01 -3.333333333333333e-01 -1.666666666666665e-01
-1.666666666666667e-01 -3.333333333333333e-01 -1.666666666666665e-01
-1.666666666666667e-01 -3.333333333333333e-01 -1.666666666666665e-01
-1.666666666666667e-01 -3.333333333333333e-01 -1.666666666666665e-01
-1.666666666666667e-01 -3.333333333333333e-01 -1.666666666666665e-01
-1.666666666666667e-01 -3.333333333333333e-01 -1.666666666666665e-01
-1.666666666666667e-01 -3.333333333333333e-01 -1.666666666666665e-01
-1.666666666666667e-01 -3.333333333333333e-01 -1.666666666666665e-01
-1.666666666666667e-01 -3.333333333333333e-01 -1.666666666666665e-01
-1.666666666666667e-01 -3.333333333333333e-01 -1.666666666666665e-01
-1.666666666666667e-01 -3.333333333333333e-01 -1.666666666666665e-01
-1.666666666666667e-01 -3.333333333333333e-01 -1.666666666666665e-01
-1.666666666666667e-01 -3.333333333333333e-01 -1.666666666666665e-01
-1.666666666666667e-01 -3.333333333333333e-01 -1.666666666666665e-01
-1.666666666666667e-01 -3.333333333333333e-01 -1.666666666666665e-01
-1.666666666666667e-01 -3.333333333333333e-01 -1.666666666666665e-01
-1.666666666666667e-01 -3.333333333333333e-01 -1.666666666666665e-01
-1.666666666666667e-01 -3.333333333333333e-01 -1.666666666666665e-01
-1.666666666666667e-01 -3.333333333333333e-01 -1.666666666666665e-01
-1.666666666666667e-01 -3.333333333333333e-01 -1.666666666666665e-01
-1.666666666666667e-01 -3.333333333333333e-01 -1.666666666666665e-01
-1.666666666666667e-01 -3.333333333333333e-01 -1.666666666666665e-01
-1.666666666666667e-01 -3.333333333333333e-01 -1.666666666666665e-01
-1.666666666666667e-01 -3.333333333333333e-01 -1.666666666666665e-01
-1.666666666666667e-01 -3.333333333333333e-01 -1.666666666666665e-01
-1.666666666666667e-01 -3.333333333333333e-01 -1.666666666666665e-01
-1.666666666666667e-01 -3.333333333333333e-01 -1.666666666666665e-01
-1.666666666666667e-01 -3.333333333333333e-01 -1.666666666666665e-01
-1.666666666666667e-01 -3.333333333333333e-01 -1.666666666666665e-01
-1.666666666666667e-01 -3.333333333333333e-01 -1.666666666666665e-01
-1.666666666666667e-01 -3.333333333333333e-01 -1.666666666666665e-01
-1.666666666666667e-01 -3.333333333333333e-01 -1.666666666666665e-01
-1.666666666666667e-01 -3.333333333333333e-01 -1.666666666666665e-01
-1.666666666666667e-01 -3.333333333333333e-01 -1.666666666666665e-01
-1.666666666666667e-01 -3.333333333333333e-01 -1.666666666666665e-01
-1.666666666666667e-01 -3.333333333333333e-01 -1.666666666666665e-01
-1.666666666666667e-01 -3.333333333333333e-01 -1.666666666666665e-01
-1.666666666666667e-01 -3.333333333333333e-01 -1.666666666666665e-01
-1.666666666666667e-01 -3.333333333333333e-01 -1.666666666666665e-01
-1.666666666666667e-01 -3.333333333333333e-01 -1.666666666666665e-01
-1.666666666666667e-01 -3.333333333333333e-01 -1.666666666666665e-01
-1.666666666666667e-01 -3.333333333333333e-01 -1.666666666666665e-01
-1.666666666666667e-01 -3.333333333333333e-01 -1.666666666666665e-01
-1.666666666666667e-01 -3.333333333333333e-01 -1.666666666666665e-01
-1.666666666666667e-01 -3.333333333333333e-01 -1.666666666666665e-01
-1.666666666666667e-01 -3.333333333333333e-01 -1.666666666666665e-01
-1.666666666666667e-01 -3.333333333333333e-01 -1.666666666666665e-01
-1.666666666666667e-01 -3.333333333333333e-01 -1.666666666666665e-01
-1.666666666666667e-01 -3.333333333333333e-01 -1.666666666666665e-01
-1.666666666666667e-01 -3.333333333333333e-01 -1.666666666666665e-01
-1.666666666666667e-01 -3.333333333333333e-01 -1.666666666666665e-01
-1.666666666666667e-01 -3.333333333333333e-01 -1.666666666666665e-01
-1.666666666666667e-01 -3.333333333333333e-01 -1.666666666666665e-01
-1.666666666666667e-01 -3.333333333333333e-01 -1.666666666666665e-01
-1.666666666666667e-01 -3.333333333333333e-01 -1.666666666666665e-01
-1.666666666666667e-01 -3.333333333333333e-01 -1.666666666666665e-01
-1.666666666666667e-01 -3.333333333333333e-01 -1.666666666666665e-01
-1.666666666666667e-01 -3.333333333333333e-01 -1.666666666666665e-01
-1.666666666666667e-01 -3.333333333333333e-01 -1.666666666666665e-01
-1.666666666666667e-01 -3.333333333333333e-01 -1.666666666666665e-01
-1.666666666666667e-01 -3.333333333333333e-01 -1.666666666666665e-01
-1.666666666666667e-01 -3.333333333333333e-01 -1.666666666666665e-01
-1.666666666666667e-01 -3.333333333333333e-01 -1.666666666666665e-01
-1.666666666666667e-01 -3.333333333333333e-01 -1.666666666666665e-01
-1.666666666666667e-01 -3.333333333333333e-01 -1.666666666666665e-01
-1.666666666666667e-01 -3.333333333333333e-01 -1.666666666666665e-01
-1.666666666666667e-01 -3.333333333333333e-01 -1.666666666666665e-01
-1.666666666666667e-01 -3.333333333333333e-01 -1.666666666666665e-01
-1.666666666666667e-01 -3.333333333333333e-01 -1.666666666666665e-01
-1.666666666666667e-01 -3.333333333333333e-01 -1.666666666666665e-01
-1.666666666666667e-01 -3.333333333333333e-01 -1.666666666666665e-01
-1.666666666666667e-01 -3.333333333333333e-01 -1.666666666666665e-01
-1.666666666666667e-01 -3.333333333333333e-01 -1.666666666666665e-01
-1.666666666666667e-01 -3.333333333333333e-01 -1.666666666666665e-01
-1.666666666666667e-01 -3.333333333333333e-01 -1.666666666666665e-01
-1.666666666666667e-01 -3.333333333333333e-01 -1.666666666666665e-01
-1.666666666666667e-01 -3.333333333333333e-01 -1.666666666666665e-01
-1.666666666666667e-01 -3.333333333333333e-01 -1.666666666666665e-01
-1.666666666666667e-01 -3.333333333333333e-01 -1.666666666666665e-01
-1.666666666666667e-01 -3.333333333333333e-01 -1.666666666666665e-01
-1.666666666666667e-01 -3.333333333333333e-01 -1.666666666666665e-01
-1.666666666666667e-01 -3.333333333333333e-01 -1.666666666666665e-01
-1.666666666666667e-01 -3.333333333333333e-01 -1.666666666666665e-01
-1.666666666666667e-01 -3.333333333333333e-01 -1.666666666666665e-01
-1.666666666666667e-01 -3.333333333333333e-01 -1.666666666666665e-01
-1.666666666666667e-01 -3.333333333333333e-01 -1.666666666666665e-01
-1.666666666666667e-01 -3.333333333333333e-01 -1.666666666666665e-01
-1.666666666666667e-01 -3.333333333333333e-01 -1.666666666666665e-01
-1.666666666666667e-01 -3.333333333333333e-01 -1.666666666666665e-01
-1.666666666666667e-01 -3.333333333333333e-01 -1.666666666666665e-01
-1.666666666666667e-01 -3.333333333333333e-01 -1.666666666666665e-01
-1.666666666666667e-01 -3.333333333333333e-01 -1.666666666666665e-01
-1.666666666666667e-01 -3.333333333333333e-01 -1.666666666666665e-01
-1.666666666666667e-01 -3.333333333333333e-01 -1.666666666666665e-01
-1.666666666666667e-01 -3.333333333333333e-01 -1.666666666666665e-01
-1.666666666666667e-01 -3.333333333333333e-01 -1.666666666666665e-01
-1.666666666666667e-01 -3.333333333333333e-01 -1.666666666666665e-01
-1.666666666666667e-01 -3.333333333333333e-01 -1.666666666666665e-01
-1.666666666666667e-01 -3.333333333333333e-01 -1.666666666666665e-01
-1.666666666666667e-01 -3.333333333333333e-01 -1.666666666666665e-01
-1.666666666666667e-01 -3.333333333333333e-01 -1.666666666666665e-01
-1.666666666666667e-01 -3.333333333333333e-01 -1.666666666666665e-01
-1.666666666666667e-01 -3.333333333333333e-01 -1.666666666666665e-01
-1.666666666666667e-01 -3.333333333333333e-01 -1.666666666666665e-01
-1.666666666666667e-01 -3.333333333333333e-01 -1.666666666666665e-01
-1.666666666666667e-01 -3.333333333333333e-01 -1.666666666666665e-01
-1.666666666666667e-01 -3.333333333333333e-01 -1.666666666666665e-01
-1.666666666666667e-01 -3.333333333333333e-01 -1.666666666666665e-01
-1.666666666666667e-01 -3.333333333333333e-01 -1.666666666666665e-01
-1.666666666666667e-01 -3.333333333333333e-01 -1.666666666666665e-01
-1.666666666666667e-01 -3.333333333333333e-01 -1.666666666666665e-01
-1.666666666666667e-01 -3.333333333333333e-01 -1.666666666666665e-01
-1.666666666666667e-01 -3.333333333333333e-01 -1.666666666666665e-01
-1.666666666666667e-01 -3.333333333333333e-01 -1.666666666666665e-01
-1.666666666666667e-01 -3.333333333333333e-01 -1.666666666666665e-01
-1.666666666666667e-01 -3.333333333333333e-01 -1.666666666666665e-01
-1.666666666666667e-01 -3.333333333333333e-01 -1.666666666666665e-01
-1.666666666666667e-01 -3.333333333333333e-01 -1.666666666666665e-01
-1.666666666666667e-01 -3.333333333333333e-01 -1.666666666666665e-01
-1.666666666666667e-01 -3.333333333333333e-01 -1.666666666666665e-01
-1.666666666666667e-01 -3.333333333333333e-01 -1.666666666666665e-01
-1.666666666666667e-01 -3.333333333333333e-01 -1.666666666666665e-01
-1.666666666666667e-01 -3.333333333333333e-01 -1.666666666666665e-01
-1.666666666666667e-01 -3.333333333333333e-01 -1.666666666666665e-01
-1.666666666666667e-01 -3.333333333333333e-01 -1.666666666666665e-01
-1.666666666666667e-01 -3.333333333333333e-01 -1.666666666666665e-01
-1.666666666666667e-01 -3.333333333333333e-01 -1.666666666666665e-01
-1.666666666666667e-01 -3.333333333333333e-01 -1.666666666666665e-01
-1.666666666666667e-01 -3.333333333333333e-01 -1.666666666666665e-01
1.666666666666667e-01 3.333333333333333e-01 1.666666666666665e-01
-1.666666666666667e-01 -3.333333333333333e-01 -1.666666666666665e-01
1.666666666666667e-01 3.333333333333333e-01 1.666666666666665e-01
1.666666666666667e-01 3.333333333333333e-01 1.666666666666665e-01
1.666666666666667e-01 3.333333333333333e-01 1.666666666666665e-01
1.666666666666667e-01 3.333333333333333e-01 1.666666666666665e-01
1.666666666666667e-01 3.333333333333333e-01 1.666666666666665e-01
1.666666666666667e-01 3.333333333333333e-01 1.666666666666665e-01
1.666666666666667e-01 3.333333333333333e-01 1.666666666666665e-01
1.666666666666667e-01 3.333333333333333e-01 1.666666666666665e-01
1.666666666666667e-01 3.333333333333333e-01 1.666666666666665e-01
1.666666666666667e-01 3.333333333333333e-01 1.666666666666665e-01
1.666666666666667e-01 3.333333333333333e-01 1.666666666666665e-01
1.666666666666667e-01 3.333333333333333e-01 1.666666666666665e-01
1.666666666666667e-01 3.333333333333333e-01 1.666666666666665e-01
1.666666666666667e-01 3.333333333333333e-01 1.666666666666665e-01
1.666666666666667e-01 3.333333333333333e-01 1.666666666666665e-01
1.666666666666667e-01 3.333333333333333e-01 1.666666666666665e-01
1.666666666666667e-01 3.333333333333333e-01 1.666666666666665e-01
1.666666666666667e-01 3.333333333333333e-01 1.666666666666665e-01
1.666666666666667e-01 3.333333333333333e-01 1.666666666666665e-01
1.666666666666667e-01 3.333333333333333e-01 1.666666666666665e-01
1.666666666666667e-01 3.333333333333333e-01 1.666666666666665e-01
1.666666666666667e-01 3.333333333333333e-01 1.666666666666665e-01
1.666666666666667e-01 3.333333333333333e-01 1.666666666666665e-01
1.666666666666667e-01 3.333333333333333e-01 1.666666666666665e-01
1.666666666666667e-01 3.333333333333333e-01 1.666666666666665e-01
1.666666666666667e-01 3.333333333333333e-01 1.666666666666665e-01
1.666666666666667e-01 3.333333333333333e-01 1.666666666666665e-01
1.666666666666667e-01 3.333333333333333e-01 1.666666666666665e-01
1.666666666666667e-01 3.333333333333333e-01 1.666666666666665e-01
1.666666666666667e-01 3.333333333333333e-01 1.666666666666665e-01
1.666666666666667e-01 3.333333333333333e-01 1.666666666666665e-01
1.666666666666667e-01 3.333333333333333e-01 1.666666666666665e-01
1.666666666666667e-01 3.333333333333333e-01 1.666666666666665e-01
1.666666666666667e-01 3.333333333333333e-01 1.666666666666665e-01
1.666666666666667e-01 3.333333333333333e-01 1.666666666666665e-01
1.666666666666667e-01 3.333333333333333e-01 1.666666666666665e-01
1.666666666666667e-01 3.333333333333333e-01 1.666666666666665e-01
1.666666666666667e-01 3.333333333333333e-01 1.666666666666665e-01
1.666666666666667e-01 3.333333333333333e-01 1.666666666666665e-01
1.666666666666667e-01 3.333333333333333e-01 1.666666666666665e-01
1.666666666666667e-01 3.333333333333333e-01 1.666666666666665e-01
1.666666666666667e-01 3.333333333333333e-01 1.666666666666665e-01
1.666666666666667e-01 3.333333333333333e-01 1.666666666666665e-01
1.666666666666667e-01 3.333333333333333e-01 1.666666666666665e-01
1.666666666666667e-01 3.333333333333333e-01 1.666666666666665e-01
1.666666666666667e-01 3.333333333333333e-01 1.666666666666665e-01
1.666666666666667e-01 3.333333333333333e-01 1.666666666666665e-01
1.666666666666667e-01 3.333333333333333e-01 1.666666666666665e-01
1.666666666666667e-01 3.333333333333333e-01 1.666666666666665e-01
1.666666666666667e-01 3.333333333333333e-01 1.666666666666665e-01
1.666666666666667e-01 3.333333333333333e-01 1.666666666666665e-01
1.666666666666667e-01 3.333333333333333e-01 1.666666666666665e-01
1.666666666666667e-01 3.333333333333333e-01 1.666666666666665e-01
1.666666666666667e-01 3.333333333333333e-01 1.666666666666665e-01
1.666666666666667e-01 3.333333333333333e-01 1.666666666666665e-01
1.666666666666667e-01 3.333333333333333e-01 1.666666666666665e-01
1.666666666666667e-01 3.333333333333333e-01 1.666666666666665e-01
1.666666666666667e-01 3.333333333333333e-01 1.666666666666665e-01
1.666666666666667e-01 3.333333333333333e-01 1.666666666666665e-01
1.666666666666667e-01 3.333333333333333e-01 1.666666666666665e-01
1.666666666666667e-01 3.333333333333333e-01 1.666666666666665e-01
1.666666666666667e-01 3.333333333333333e-01 1.666666666666665e-01
1.666666666666667e-01 3.333333333333333e-01 1.666666666666665e-01
1.666666666666667e-01 3.333333333333333e-01 1.666666666666665e-01
1.666666666666667e-01 3.333333333333333e-01 1.666666666666665e-01
1.666666666666667e-01 3.333333333333333e-01 1.666666666666665e-01
1.666666666666667e-01 3.333333333333333e-01 1.666666666666665e-01
1.666666666666667e-01 3.333333333333333e-01 1.666666666666665e-01
1.666666666666667e-01 3.333333333333333e-01 1.666666666666665e-01
1.666666666666667e-01 3.333333333333333e-01 1.666666666666665e-01
1.666666666666667e-01 3.333333333333333e-01 1.666666666666665e-01
1.666666666666667e-01 3.333333333333333e-01 1.666666666666665e-01
1.666666666666667e-01 3.333333333333333e-01 1.666666666666665e-01
1.666666666666667e-01 3.333333333333333e-01 1.666666666666665e-01
1.666666666666667e-01 3.333333333333333e-01 1.666666666666665e-01
1.666666666666667e-01 3.333333333333333e-01 1.666666666666665e-01
1.666666666666667e-01 3.333333333333333e-01 1.666666666666665e-01
1.666666666666667e-01 3.333333333333333e-01 1.666666666666665e-01
1.666666666666667e-01 3.333333333333333e-01 1.666666666666665e-01
1.666666666666667e-01 3.333333333333333e-01 1.666666666666665e-01
1.666666666666667e-01 3.333333333333333e-01 1.666666666666665e-01
1.666666666666667e-01 3.333333333333333e-01 1.666666666666665e-01
1.666666666666667e-01 3.333333333333333e-01 1.666666666666665e-01
1.666666666666667e-01 3.333333333333333e-01 1.666666666666665e-01
1.666666666666667e-01 3.333333333333333e-01 1.666666666666665e-01
1.666666666666667e-01 3.333333333333333e-01 1.666666666666665e-01
1.666666666666667e-01 3.333333333333333e-01 1.666666666666665e-01
1.666666666666667e-01 3.333333333333333e-01 1.666666666666665e-01
1.666666666666667e-01 3.333333333333333e-01 1.666666666666665e-01
1.666666666666667e-01 3.333333333333333e-01 1.666666666666665e-01
1.666666666666667e-01 3.333333333333333e-01 1.666666666666665e-01
1.666666666666667e-01 3.333333333333333e-01 1.666666666666665e-01
1.666666666666667e-01 3.333333333333333e-01 1.666666666666665e-01
1.666666666666667e-01 3.333333333333333e-01 1.666666666666665e-01
1.666666666666667e-01 3.333333333333333e-01 1.666666666666665e-01
1.666666666666667e-01 3.333333333333333e-01 1.666666666666665e-01
1.666666666666667e-01 3.333333333333333e-01 1.666666666666665e-01
1.666666666666667e-01 3.333333333333333e-01 1.666666666666665e-01
1.666666666666667e-01 3.333333333333333e-01 1.666666666666665e-01
1.666666666666667e-01 3.333333333333333e-01 1.666666666666665e-01
1.666666666666667e-01 3.333333333333333e-01 1.666666666666665e-01
1.666666666666667e-01 3.333333333333333e-01 1.666666666666665e-01
1.666666666666667e-01 3.333333333333333e-01 1.666666666666665e-01
1.666666666666667e-01 3.333333333333333e-01 1.666666666666665e-01
1.666666666666667e-01 3.333333333333333e-01 1.666666666666665e-01
1.666666666666667e-01 3.333333333333333e-01 1.666666666666665e-01
1.666666666666667e-01 3.333333333333333e-01 1.666666666666665e-01
1.666666666666667e-01 3.333333333333333e-01 1.666666666666665e-01
1.666666666666667e-01 3.333333333333333e-01 1.666666666666665e-01
1.666666666666667e-01 3.333333333333333e-01 1.666666666666665e-01
1.666666666666667e-01 3.333333333333333e-01 1.666666666666665e-01
1.666666666666667e-01 3.333333333333333e-01 1.666666666666665e-01
1.666666666666667e-01 3.333333333333333e-01 1.666666666666665e-01
1.666666666666667e-01 3.333333333333333e-01 1.666666666666665e-01
1.666666666666667e-01 3.333333333333333e-01 1.666666666666665e-01
1.666666666666667e-01 3.333333333333333e-01 1.666666666666665e-01
1.666666666666667e-01 3.333333333333333e-01 1.666666666666665e-01
1.666666666666667e-01 3.333333333333333e-01 1.666666666666665e-01
1.666666666666667e-01 3.333333333333333e-01 1.666666666666665e-01
1.666666666666667e-01 3.333333333333333e-01 1.666666666666665e-01
1.666666666666667e-01 3.333333333333333e-01 1.666666666666665e-01
1.666666666666667e-01 3.333333333333333e-01 1.666666666666665e-01
1.666666666666667e-01 3.333333333333333e-01 1.666666666666665e-01
1.666666666666667e-01 3.333333333333333e-01 1.666666666666665e-01
1.666666666666667e-01 3.333333333333333e-01 1.666666666666665e-01
1.666666666666667e-01 3.333333333333333e-01 1.666666666666665e-01
1.666666666666667e-01 3.333333333333333e-01 1.666666666666665e-01
1.666666666666667e-01 3.333333333333333e-01 1.666666666666665e-01
1.666666666666667e-01 3.333333333333333e-01 1.666666666666665e-01
1.666666666666667e-01 3.333333333333333e-01 1.666666666666665e-01
1.666666666666667e-01 3.333333333333333e-01 1.666666666666665e-01
1.666666666666667e-01 3.333333333333333e-01 1.666666666666665e-01
1.666666666666667e-01 3.333333333333333e-01 1.666666666666665e-01
1.666666666666667e-01 3.333333333333333e-01 1.666666666666665e-01
1.666666666666667e-01 3.333333333333333e-01 1.666666666666665e-01
1.666666666666667e-01 3.333333333333333e-01 1.666666666666665e-01
1.666666666666667e-01 3.333333333333333e-01 1.666666666666665e-01
1.666666666666667e-01 3.333333333333333e-01 1.666666666666665e-01
1.666666666666667e-01 3.333333333333333e-01 1.666666666666665e-01
1.666666666666667e-01 3.333333333333333e-01 1.666666666666665e-01
1.666666666666667e-01 3.333333333333333e-01 1.666666666666665e-01
1.666666666666667e-01 3.333333333333333e-01 1.666666666666665e-01
1.666666666666667e-01 3.333333333333333e-01 1.666666666666665e-01
1.666666666666667e-01 3.333333333333333e-01 1.666666666666665e-01
1.666666666666667e-01 3.333333333333333e-01 1.666666666666665e-01
1.666666666666667e-01 3.333333333333333e-01 1.666666666666665e-01
1.666666666666667e-01 3.333333333333333e-01 1.666666666666665e-01
1.666666666666667e-01 3.333333333333333e-01 1.666666666666665e-01
1.666666666666667e-01 3.333333333333333e-01 1.666666666666665e-01
1.666666666666667e-01 3.333333333333333e-01 1.666666666666665e-01
1.666666666666667e-01 3.333333333333333e-01 1.666666666666665e-01
1.666666666666667e-01 3.333333333333333e-01 1.666666666666665e-01
1.666666666666667e-01 3.333333333333333e-01 1.666666666666665e-01
1.666666666666667e-01 3.333333333333333e-01 1.666666666666665e-01
1.666666666666667e-01 3.333333333333333e-01 1.666666666666665e-01
1.666666666666667e-01 3.333333333333333e-01 1.666666666666665e-01
1.666666666666667e-01 3.333333333333333e-01 1.666666666666665e-01
1.666666666666667e-01 3.333333333333333e-01 1.666666666666665e-01
1.666666666666667e-01 3.333333333333333e-01 1.666666666666665e-01
1.666666666666667e-01 3.333333333333333e-01 1.666666666666665e-01
1.666666666666667e-01 3.333333333333333e-01 1.666666666666665e-01
1.666666666666667e-01 3.333333333333333e-01 1.666666666666665e-01
1.666666666666667e-01 3.333333333333333e-01 1.666666666666665e-01
1.666666666666667e-01 3.333333333333333e-01 1.666666666666665e-01
1.666666666666667e-01 3.333333333333333e-01 1.666666666666665e-01
1.666666666666667e-01 3.333333333333333e-01 1.666666666666665e-01
1.666666666666667e-01 3.333333333333333e-01 1.666666666666665e-01
1.666666666666667e-01 3.333333333333333e-01 1.666666666666665e-01
1.666666666666667e-01 3.333333333333333e-01 1.666666666666665e-01
1.666666666666667e-01 3.333333333333333e-01 1.666666666666665e-01
1.666666666666667e-01 3.333333333333333e-01 1.666666666666665e-01
-1.666666666666667e-01 -3.333333333333333e-01 -1.666666666666665e-01
1.666666666666667e-01 3.333333333333333e-01 1.666666666666665e-01
1.666666666666667e-01 3.333333333333333e-01 1.666666666666665e-01
1.666666666666667e-01 3.333333333333333e-01 1.666666666666665e-01
1.666666666666667e-01 3.333333333333333e-01 1.666666666666665e-01
1.666666666666667e-01 3.333333333333333e-01 1.666666666666665e-01
1.666666666666667e-01 3.333333333333333e-01 1.666666666666665e-01
1.666666666666667e-01 3.333333333333333e-01 1.666666666666665e-01
1.666666666666667e-01 3.333333333333333e-01 1.666666666666665e-01
1.666666666666667e-01 3.333333333333333e-01 1.666666666666665e-01
1.666666666666667e-01 3.333333333333333e-01 1.666666666666665e-01
1.666666666666667e-01 3.333333333333333e-01 1.666666666666665e-01
1.666666666666667e-01 3.333333333333333e-01 1.666666666666665e-01
1.666666666666667e-01 3.333333333333333e-01 1.666666666666665e-01
1.666666666666667e-01 3.333333333333333e-01 1.666666666666665e-01
1.666666666666667e-01 3.333333333333333e-01 1.666666666666665e-01
1.666666666666667e-01 3.333333333333333e-01 1.666666666666665e-01
1.666666666666667e-01 3.333333333333333e-01 1.666666666666665e-01
1.666666666666667e-01 3.333333333333333e-01 1.666666666666665e-01
1.666666666666667e-01 3.333333333333333e-01 1.666666666666665e-01
1.666666666666667e-01 3.333333333333333e-01 1.666666666666665e-01
1.666666666666667e-01 3.333333333333333e-01 1.666666666666665e-01
1.666666666666667e-01 3.333333333333333e-01 1.666666666666665e-01
1.666666666666667e-01 3.333333333333333e-01 1.666666666666665e-01
1.666666666666667e-01 3.333333333333333e-01 1.666666666666665e-01
1.666666666666667e-01 3.333333333333333e-01 1.666666666666665e-01
1.666666666666667e-01 3.333333333333333e-01 1.666666666666665e-01
1.666666666666667e-01 3.333333333333333e-01 1.666666666666665e-01
1.666666666666667e-01 3.333333333333333e-01 1.666666666666665e-01
1.666666666666667e-01 3.333333333333333e-01 1.666666666666665e-01
1.666666666666667e-01 3.333333333333333e-01 1.666666666666665e-01
1.666666666666667e-01 3.333333333333333e-01 1.666666666666665e-01
1.666666666666667e-01 3.333333333333333e-01 1.666666666666665e-01
1.666666666666667e-01 3.333333333333333e-01 1.666666666666665e-01
1.666666666666667e-01 3.333333333333333e-01 1.666666666666665e-01
1.666666666666667e-01 3.333333333333333e-01 1.666666666666665e-01
1.666666666666667e-01 3.333333333333333e-01 1.666666666666665e-01
1.666666666666667e-01 3.333333333333333e-01 1.666666666666665e-01
1.666666666666667e-01 3.333333333333333e-01 1.666666666666665e-01
1.666666666666667e-01 3.333333333333333e-01 1.666666666666665e-01
1.666666666666667e-01 3.333333333333333e-01 1.666666666666665e-01
1.666666666666667e-01 3.333333333333333e-01 1.666666666666665e-01
1.666666666666667e-01 3.333333333333333e-01 1.666666666666665e-01
1.666666666666667e-01 3.333333333333333e-01 1.666666666666665e-01
1.666666666666667e-01 3.333333333333333e-01 1.666666666666665e-01
1.666666666666667e-01 3.333333333333333e-01 1.666666666666665e-01
1.666666666666667e-01 3.333333333333333e-01 1.666666666666665e-01
1.666666666666667e-01 3.333333333333333e-01 1.666666666666665e-01
1.666666666666667e-01 3.333333333333333e-01 1.666666666666665e-01
1.666666666666667e-01 3.333333333333333e-01 1.666666666666665e-01
1.666666666666667e-01 3.333333333333333e-01 1.666666666666665e-01
1.666666666666667e-01 3.333333333333333e-01 1.666666666666665e-01
1.666666666666667e-01 3.333333333333333e-01 1.666666666666665e-01
1.666666666666667e-01 3.333333333333333e-01 1.666666666666665e-01
1.666666666666667e-01 3.333333333333333e-01 1.666666666666665e-01
1.666666666666667e-01 3.333333333333333e-01 1.666666666666665e-01
1.666666666666667e-01 3.333333333333333e-01 1.666666666666665e-01
1.666666666666667e-01 3.333333333333333e-01 1.666666666666665e-01
1.666666666666667e-01 3.333333333333333e-01 1.666666666666665e-01
1.666666666666667e-01 3.333333333333333e-01 1.666666666666665e-01
1.666666666666667e-01 3.333333333333333e-01 1.666666666666665e-01
1.666666666666667e-01 3.333333333333333e-01 1.666666666666665e-01
1.666666666666667e-01 3.333333333333333e-01 1.666666666666665e-01
1.666666666666667e-01 3.333333333333333e-01 1.666666666666665e-01
1.666666666666667e-01 3.333333333333333e-01 1.666666666666665e-01
1.666666666666667e-01 3.333333333333333e-01 1.666666666666665e-01
1.666666666666667e-01 3.333333333333333e-01 1.666666666666665e-01
1.666666666666667e-01 3.333333333333333e-01 1.666666666666665e-01
1.666666666666667e-01 3.333333333333333e-01 1.666666666666665e-01
1.666666666666667e-01 3.333333333333333e-01 1.666666666666665e-01
1.666666666666667e-01 3.333333333333333e-01 1.666666666666665e-01
1.666666666666667e-01 3.333333333333333e-01 1.666666666666665e-01
1.666666666666667e-01 3.333333333333333e-01 1.666666666666665e-01
1.666666666666667e-01 3.333333333333333e-01 1.666666666666665e-01
1.666666666666667e-01 3.333333333333333e-01 1.666666666666665e-01
1.666666666666667e-01 3.333333333333333e-01 1.666666666666665e-01
1.666666666666667e-01 3.333333333333333e-01 1.666666666666665e-01
1.666666666666667e-01 3.333333333333333e-01 1.666666666666665e-01
1.666666666666667e-01 3.333333333333333e-01 1.666666666666665e-01
1.666666666666667e-01 3.333333333333333e-01 1.666666666666665e-01
1.666666666666667e-01 3.333333333333333e-01 1.666666666666665e-01
1.666666666666667e-01 3.333333333333333e-01 1.666666666666665e-01
1.666666666666667e-01 3.333333333333333e-01 1.666666666666665e-01
1.666666666666667e-01 3.333333333333333e-01 1.666666666666665e-01
1.666666666666667e-01 3.333333333333333e-01 1.666666666666665e-01
1.666666666666667e-01 3.333333333333333e-01 1.666666666666665e-01
1.666666666666667e-01 3.333333333333333e-01 1.666666666666665e-01
1.666666666666667e-01 3.333333333333333e-01 1.666666666666665e-01
1.666666666666667e-01 3.333333333333333e-01 1.666666666666665e-01
1.666666666666667e-01 3.333333333333333e-01 1.666666666666665e-01
1.666666666666667e-01 3.333333333333333e-01 1.666666666666665e-01
1.666666666666667e-01 3.333333333333333e-01 1.666666666666665e-01
1.666666666666667e-01 3.333333333333333e-01 1.666666666666665e-01
1.666666666666667e-01 3.333333333333333e-01 1.666666666666665e-01
1.666666666666667e-01 3.333333333333333e-01 1.666666666666665e-01
1.666666666666667e-01 3.333333333333333e-01 1.666666666666665e-01
1.666666666666667e-01 3.333333333333333e-01 1.666666666666665e-01
1.666666666666667e-01 3.333333333333333e-01 1.666666666666665e-01
1.666666666666667e-01 3.333333333333333e-01 1.666666666666665e-01
1.666666666666667e-01 3.333333333333333e-01 1.666666666666665e-01
1.666666666666667e-01 3.333333333333333e-01 1.666666666666665e-01
1.666666666666667e-01 3.333333333333333e-01 1.666666666666665e-01
1.666666666666667e-01 3.333333333333333e-01 1.666666666666665e-01
1.666666666666667e-01 3.333333333333333e-01 1.666666666666665e-01
1.666666666666667e-01 3.333333333333333e-01 1.666666666666665e-01
1.666666666666667e-01 3.333333333333333e-01 1.666666666666665e-01
1.666666666666667e-01 3.333333333333333e-01 1.666666666666665e-01
1.666666666666667e-01 3.333333333333333e-01 1.666666666666665e-01
1.666666666666667e-01 3.333333333333333e-01 1.666666666666665e-01
1.666666666666667e-01 3.333333333333333e-01 1.666666666666665e-01
1.666666666666667e-01 3.333333333333333e-01 1.666666666666665e-01
1.666666666666667e-01 3.333333333333333e-01 1.666666666666665e-01
1.666666666666667e-01 3.333333333333333e-01 1.666666666666665e-01
1.666666666666667e-01 3.333333333333333e-01 1.666666666666665e-01
1.666666666666667e-01 3.333333333333333e-01 1.666666666666665e-01
1.666666666666667e-01 3.333333333333333e-01 1.666666666666665e-01
1.666666666666667e-01 3.333333333333333e-01 1.666666666666665e-01
1.666666666666667e-01 3.333333333333333e-01 1.666666666666665e-01
1.666666666666667e-01 3.333333333333333e-01 1.666666666666665e-01
1.666666666666667e-01 3.333333333333333e-01 1.666666666666665e-01
1.666666666666667e-01 3.333333333333333e-01 1.666666666666665e-01
1.666666666666667e-01 3.333333333333333e-01 1.666666666666665e-01
1.666666666666667e-01 3.333333333333333e-01 1.666666666666665e-01
1.666666666666667e-01 3.333333333333333e-01 1.666666666666665e-01
1.666666666666667e-01 3.333333333333333e-01 1.666666666666665e-01
1.666666666666667e-01 3.333333333333333e-01 1.666666666666665e-01
1.666666666666667e-01 3.333333333333333e-01 1.666666666666665e-01
1.666666666666667e-01 3.333333333333333e-01 1.666666666666665e-01
1.666666666666667e-01 3.333333333333333e-01 1.666666666666665e-01
1.666666666666667e-01 3.333333333333333e-01 1.666666666666665e-01
1.666666666666667e-01 3.333333333333333e-01 1.666666666666665e-01
1.666666666666667e-01 3.333333333333333e-01 1.666666666666665e-01
1.666666666666667e-01 3.333333333333333e-01 1.666666666666665e-01
1.666666666666667e-01 3.333333333333333e-01 1.666666666666665e-01
1.666666666666667e-01 3.333333333333333e-01 1.666666666666665e-01
1.666666666666667e-01 3.333333333333333e-01 1.666666666666665e-01
1.666666666666667e-01 3.333333333333333e-01 1.666666666666665e-01
1.666666666666667e-01 3.333333333333333e-01 1.666666666666665e-01
1.666666666666667e-01 3.333333333333333e-01 1.666666666666665e-01
1.666666666666667e-01 3.333333333333333e-01 1.666666666666665e-01
1.666666666666667e-01 3.333333333333333e-01 1.666666666666665e-01
1.666666666666667e-01 3.333333333333333e-01 1.666666666666665e-01
1.666666666666667e-01 3.333333333333333e-01 1.666666666666665e-01
1.666666666666667e-01 3.333333333333333e-01 1.666666666666665e-01
1.666666666666667e-01 3.333333333333333e-01 1.666666666666665e-01
1.666666666666667e-01 3.333333333333333e-01 1.666666666666665e-01
1.666666666666667e-01 3.333333333333333e-01 1.666666666666665e-01
1.666666666666667e-01 3.333333333333333e-01 1.666666666666665e-01
1.666666666666667e-01 3.333333333333333e-01 1.666666666666665e-01
1.666666666666667e-01 3.333333333333333e-01 1.666666666666665e-01
1.666666666666667e-01 3.333333333333333e-01 1.666666666666665e-01
1.666666666666667e-01 3.333333333333333e-01 1.666666666666665e-01
1.666666666666667e-01 3.333333333333333e-01 1.666666666666665e-01
1.666666666666667e-01 3.333333333333333e-01 1.666666666666665e-01
1.666666666666667e-01 3.333333333333333e-01 1.666666666666665e-01
1.666666666666667e-01 3.333333333333333e-01 1.666666666666665e-01
1.666666666666667e-01 3.333333333333333e-01 1.666666666666665e-01
1.666666666666667e-01 3.333333333333333e-01 1.666666666666665e-01
1.666666666666667e-01 3.333333333333333e-01 1.666666666666665e-01
1.666666666666667e-01 3.333333333333333e-01 1.666666666666665e-01
1.666666666666667e-01 3.333333333333333e-01 1.666666666666665e-01
1.666666666666667e-01 3.333333333333333e-01 1.666666666666665e-01
1.666666666666667e-01 3.333333333333333e-01 1.666666666666665e-01
1.666666666666667e-01 3.333333333333333e-01 1.666666666666665e-01
1.666666666666667e-01 3.333333333333333e-01 1.666666666666665e-01
1.666666666666667e-01 3.333333333333333e-01 1.666666666666665e-01
1.666666666666667e-01 3.333333333333333e-01 1.666666666666665e-01
1.666666666666667e-01 3.333333333333333e-01 1.666666666666665e-01
1.666666666666667e-01 3.333333333333333e-01 1.666666666666665e-01
1.666666666666667e-01 3.333333333333333e-01 1.666666666666665e-01
1.666666666666667e-01 3.333333333333333e-01 1.666666666666665e-01
1.666666666666667e-01 3.333333333333333e-01 1.666666666666665e-01
1.666666666666667e-01 3.333333333333333e-01 1.666666666666665e-01
1.666666666666667e-01 3.333333333333333e-01 1.666666666666665e-01
 1.666666666666667e-01 -1.666666666666665e-01 -3.333333333333333e-01
-1.666666666666667e-01  1.666666666666665e-01  3.333333333333333e-01
 1.666666666666667e-01 -1.666666666666665e-01 -3.333333333333333e-01
 1.666666666666667e-01 -1.666666666666665e-01 -3.333333333333333e-01
 1.666666666666667e-01 -1.666666666666665e-01 -3.333333333333333e-01
 1.666666666666667e-01 -1.666666666666665e-01 -3.333333333333333e-01
 1.666666666666667e-01 -1.666666666666665e-01 -3.333333333333333e-01
 1.666666666666667e-01 -1.666666666666665e-01 -3.333333333333333e-01
 1.666666666666667e-01 -1.666666666666665e-01 -3.333333333333333e-01
 1.666666666666667e-01 -1.666666666666665e-01 -3.333333333333333e-01
 1.666666666666667e-01 -1.666666666666665e-01 -3.333333333333333e-01
 1.666666666666667e-01 -1.666666666666665e-01 -3.333333333333333e-01
 1.666666666666667e-01 -1.666666666666665e-01 -3.333333333333333e-01
 1.666666666666667e-01 -1.666666666666665e-01 -3.333333333333333e-01
 1.666666666666667e-01 -1.666666666666665e-01 -3.333333333333333e-01
 1.666666666666667e-01 -1.666666666666665e-01 -3.333333333333333e-01
 1.666666666666667e-01 -1.666666666666665e-01 -3.333333333333333e-01
 1.666666666666667e-01 -1.666666666666665e-01 -3.333333333333333e-01
 1.666666666666667e-01 -1.666666666666665e-01 -3.333333333333333e-01
 1.666666666666667e-01 -1.666666666666665e-01 -3.333333333333333e-01
 1.666666666666667e-01 -1.666666666666665e-01 -3.333333333333333e-01
 1.666666666666667e-01 -1.666666666666665e-01 -3.333333333333333e-01
 1.666666666666667e-01 -1.666666666666665e-01 -3.333333333333333e-01
 1.666666666666667e-01 -1.666666666666665e-01 -3.333333333333333e-01
 1.666666666666667e-01 -1.666666666666665e-01 -3.333333333333333e-01
 1.666666666666667e-01 -1.666666666666665e-01 -3.333333333333333e-01
 1.666666666666667e-01 -1.666666666666665e-01 -3.333333333333333e-01
 1.666666666666667e-01 -1.666666666666665e-01 -3.333333333333333e-01
 1.666666666666667e-01 -1.666666666666665e-01 -3.333333333333333e-01
 1.666666666666667e-01 -1.666666666666665e-01 -3.333333333333333e-01
 1.666666666666667e-01 -1.666666666666665e-01 -3.333333333333333e-01
 1.666666666666667e-01 -1.666666666666665e-01 -3.333333333333333e-01
 1.666666666666667e-01 -1.666666666666665e-01 -3.333333333333333e-01
 1.666666666666667e-01 -1.666666666666665e-01 -3.333333333333333e-01
 1.666666666666667e-01 -1.666666666666665e-01 -3.333333333333333e-01
 1.666666666666667e-01 -1.666666666666665e-01 -3.333333333333333e-01
 1.666666666666667e-01 -1.666666666666665e-01 -3.333333333333333e-01
 1.666666666666667e-01 -1.666666666666665e-01 -3.333333333333333e-01
 1.666666666666667e-01 -1.666666666666665e-01 -3.333333333333333e-01
 1.666666666666667e-01 -1.666666666666665e-01 -3.333333333333333e-01
 1.666666666666667e-01 -1.666666666666665e-01 -3.333333333333333e-01
 1.666666666666667e-01 -1.666666666666665e-01 -3.333333333333333e-01
 1.666666666666667e-01 -1.666666666666665e-01 -3.333333333333333e-01
 1.666666666666667e-01 -1.666666666666665e-01 -3.333333333333333e-01
 1.666666666666667e-01 -1.666666666666665e-01 -3.333333333333333e-01
 1.666666666666667e-01 -1.666666666666665e-01 -3.333333333333333e-01
 1.666666666666667e-01 -1.666666666666665e-01 -3.333333333333333e-01
 1.666666666666667e-01 -1.666666666666665e-01 -3.333333333333333e-01
 1.666666666666667e-01 -1.666666666666665e-01 -3.333333333333333e-01
 1.666666666666667e-01 -1.666666666666665e-01 -3.333333333333333e-01
 1.666666666666667e-01 -1.666666666666665e-01 -3.333333333333333e-01
 1.666666666666667e-01 -1.666666666666665e-01 -3.333333333333333e-01
 1.666666666666667e-01 -1.666666666666665e-01 -3.333333333333333e-01
 1.666666666666667e-01 -1.666666666666665e-01 -3.333333333333333e-01
 1.666666666666667e-01 -1.666666666666665e-01 -3.333333333333333e-01
 1.666666666666667e-01 -1.666666666666665e-01 -3.333333333333333e-01
 1.666666666666667e-01 -1.666666666666665e-01 -3.333333333333333e-01
 1.666666666666667e-01 -1.666666666666665e-01 -3.333333333333333e-01
 1.666666666666667e-01 -1.666666666666665e-01 -3.333333333333333e-01
 1.666666666666667e-01 -1.666666666666665e-01 -3.333333333333333e-01
 1.666666666666667e-01 -1.666666666666665e-01 -3.333333333333333e-01
 1.666666666666667e-01 -1.666666666666665e-01 -3.333333333333333e-01
 1.666666666666667e-01 -1.666666666666665e-01 -3.333333333333333e-01
 1.666666666666667e-01 -1.666666666666665e-01 -3.333333333333333e-01
 1.666666666666667e-01 -1.666666666666665e-01 -3.333333333333333e-01
 1.666666666666667e-01 -1.666666666666665e-01 -3.333333333333333e-01
 1.666666666666667e-01 -1.666666666666665e-01 -3.333333333333333e-01
 1.666666666666667e-01 -1.666666666666665e-01 -3.333333333333333e-01
 1.666666666666667e-01 -1.666666666666665e-01 -3.333333333333333e-01
 1.666666666666667e-01 -1.666666666666665e-01 -3.333333333333333e-01
 1.666666666666667e-01 -1.666666666666665e-01 -3.333333333333333e-01
 1.666666666666667e-01 -1.666666666666665e-01 -3.333333333333333e-01
 1.666666666666667e-01 -1.666666666666665e-01 -3.333333333333333e-01
 1.666666666666667e-01 -1.666666666666665e-01 -3.333333333333333e-01
 1.666666666666667e-01 -1.666666666666665e-01 -3.333333333333333e-01
 1.666666666666667e-01 -1.666666666666665e-01 -3.333333333333333e-01
 1.666666666666667e-01 -1.666666666666665e-01 -3.333333333333333e-01
 1.666666666666667e-01 -1.666666666666665e-01 -3.333333333333333e-01
 1.666666666666667e-01 -1.666666666666665e-01 -3.333333333333333e-01
 1.666666666666667e-01 -1.666666666666665e-01 -3.333333333333333e-01
 1.666666666666667e-01 -1.666666666666665e-01 -3.333333333333333e-01
 1.666666666666667e-01 -1.666666666666665e-01 -3.333333333333333e-01
 1.666666666666667e-01 -1.666666666666665e-01 -3.333333333333333e-01
 1.666666666666667e-01 -1.666666666666665e-01 -3.333333333333333e-01
 1.666666666666667e-01 -1.666666666666665e-01 -3.333333333333333e-01
 1.666666666666667e-01 -1.666666666666665e-01 -3.333333333333333e-01
 1.666666666666667e-01 -1.666666666666665e-01 -3.333333333333333e-01
 1.666666666666667e-01 -1.666666666666665e-01 -3.333333333333333e-01
 1.666666666666667e-01 -1.666666666666665e-01 -3.333333333333333e-01
 1.666666666666667e-01 -1.666666666666665e-01 -3.333333333333333e-01
 1.666666666666667e-01 -1.666666666666665e-01 -3.333333333333333e-01
 1.666666666666667e-01 -1.666666666666665e-01 -3.333333333333333e-01
 1.666666666666667e-01 -1.666666666666665e-01 -3.333333333333333e-01
 1.666666666666667e-01 -1.666666666666665e-01 -3.333333333333333e-01
 1.666666666666667e-01 -1.666666666666665e-01 -3.333333333333333e-01
 1.666666666666667e-01 -1.666666666666665e-01 -3.333333333333333e-01
 1.666666666666667e-01 -1.666666666666665e-01 -3.333333333333333e-01
 1.666666666666667e-01 -1.666666666666665e-01 -3.333333333333333e-01
 1.666666666666667e-01 -1.666666666666665e-01 -3.333333333333333e-01
 1.666666666666667e-01 -1.666666666666665e-01 -3.333333333333333e-01
 1.666666666666667e-01 -1.666666666666665e-01 -3.333333333333333e-01
 1.666666666666667e-01 -1.666666666666665e-01 -3.333333333333333e-01
 1.666666666666667e-01 -1.666666666666665e-01 -3.333333333333333e-01
 1.666666666666667e-01 -1.666666666666665e-01 -3.333333333333333e-01
 1.666666666666667e-01 -1.666666666666665e-01 -3.333333333333333e-01
 1.666666666666667e-01 -1.666666666666665e-01 -3.333333333333333e-01
 1.666666666666667e-01 -1.666666666666665e-01 -3.333333333333333e-01
 1.666666666666667e-01 -1.666666666666665e-01 -3.333333333333333e-01
 1.666666666666667e-01 -1.666666666666665e-01 -3.333333333333333e-01
 1.666666666666667e-01 -1.666666666666665e-01 -3.333333333333333e-01
 1.666666666666667e-01 -1.666666666666665e-01 -3.333333333333333e-01
 1.666666666666667e-01 -1.666666666666665e-01 -3.333333333333333e-01
 1.666666666666667e-01 -1.666666666666665e-01 -3.333333333333333e-01
 1.666666666666667e-01 -1.666666666666665e-01 -3.333333333333333e-01
 1.666666666666667e-01 -1.666666666666665e-01 -3.333333333333333e-01
 1.666666666666667e-01 -1.666666666666665e-01 -3.333333333333333e-01
 1.666666666666667e-01 -1.666666666666665e-01 -3.333333333333333e-01
 1.666666666666667e-01 -1.666666666666665e-01 -3.333333333333333e-01
 1.666666666666667e-01 -1.666666666666665e-01 -3.333333333333333e-01
 1.666666666666667e-01 -1.666666666666665e-01 -3.333333333333333e-01
 1.666666666666667e-01 -1.666666666666665e-01 -3.333333333333333e-01
 1.666666666666667e-01 -1.666666666666665e-01 -3.333333333333333e-01
 1.666666666666667e-01 -1.666666666666665e-01 -3.333333333333333e-01
 1.666666666666667e-01 -1.666666666666665e-01 -3.333333333333333e-01
 1.666666666666667e-01 -1.666666666666665e-01 -3.333333333333333e-01
 1.666666666666667e-01 -1.666666666666665e-01 -3.333333333333333e-01
 1.666666666666667e-01 -1.666666666666665e-01 -3.333333333333333e-01
 1.666666666666667e-01 -1.666666666666665e-01 -3.333333333333333e-01
 1.666666666666667e-01 -1.666666666666665e-01 -3.333333333333333e-01
 1.666666666666667e-01 -1.666666666666665e-01 -3.333333333333333e-01
 1.666666666666667e-01 -1.666666666666665e-01 -3.333333333333333e-01
 1.666666666666667e-01 -1.666666666666665e-01 -3.333333333333333e-01
 1.666666666666667e-01 -1.666666666666665e-01 -3.333333333333333e-01
 1.666666666666667e-01 -1.666666666666665e-01 -3.333333333333333e-01
 1.666666666666667e-01 -1.666666666666665e-01 -3.333333333333333e-01
 1.666666666666667e-01 -1.666666666666665e-01 -3.333333333333333e-01
 1.666666666666667e-01 -1.666666666666665e-01 -3.333333333333333e-01
 1.666666666666667e-01 -1.666666666666665e-01 -3.333333333333333e-01
 1.666666666666667e-01 -1.666666666666665e-01 -3.333333333333333e-01
 1.666666666666667e-01 -1.666666666666665e-01 -3.333333333333333e-01
 1.666666666666667e-01 -1.666666666666665e-01 -3.333333333333333e-01
 1.666666666666667e-01 -1.666666666666665e-01 -3.333333333333333e-01
 1.666666666666667e-01 -1.666666666666665e-01 -3.333333333333333e-01
 1.666666666666667e-01 -1.666666666666665e-01 -3.333333333333333e-01
 1.666666666666667e-01 -1.666666666666665e-01 -3.333333333333333e-01
 1.666666666666667e-01 -1.666666666666665e-01 -3.333333333333333e-01
 1.666666666666667e-01 -1.666666666666665e-01 -3.333333333333333e-01
 1.666666666666667e-01 -1.666666666666665e-01 -3.333333333333333e-01
 1.666666666666667e-01 -1.666666666666665e-01 -3.333333333333333e-01
 1.666666666666667e-01 -1.666666666666665e-01 -3.333333333333333e-01
 1.666666666666667e-01 -1.666666666666665e-01 -3.333333333333333e-01
 1.666666666666667e-01 -1.666666666666665e-01 -3.333333333333333e-01
 1.666666666666667e-01 -1.666666666666665e-01 -3.333333333333333e-01
 1.666666666666667e-01 -1.666666666666665e-01 -3.333333333333333e-01
 1.666666666666667e-01 -1.666666666666665e-01 -3.333333333333333e-01
 1.666666666666667e-01 -1.666666666666665e-01 -3.333333333333333e-01
 1.666666666666667e-01 -1.666666666666665e-01 -3.333333333333333e-01
 1.666666666666667e-01 -1.666666666666665e-01 -3.333333333333333e-01
 1.666666666666667e-01 -1.666666666666665e-01 -3.333333333333333e-01
 1.666666666666667e-01 -1.666666666666665e-01 -3.333333333333333e-01
 1.666666666666667e-01 -1.666666666666665e-01 -3.333333333333333e-01
 1.666666666666667e-01 -1.666666666666665e-01 -3.333333333333333e-01
 1.666666666666667e-01 -1.666666666666665e-01 -3.333333333333333e-01
 1.666666666666667e-01 -1.666666666666665e-01 -3.333333333333333e-01
 1.666666666666667e-01 -1.666666666666665e-01 -3.333333333333333e-01
 1.666666666666667e-01 -1.666666666666665e-01 -3.333333333333333e-01
 1.666666666666667e-01 -1.666666666666665e-01 -3.333333333333333e-01
 1.666666666666667e-01 -1.666666666666665e-01 -3.333333333333333e-01
 1.666666666666667e-01 -1.666666666666665e-01 -3.333333333333333e-01
 1.666666666666667e-01 -1.666666666666665e-01 -3.333333333333333e-01
 1.666666666666667e-01 -1.666666666666665e-01 -3.333333333333333e-01
 1.666666666666667e-01 -1.666666666666665e-01 -3.333333333333333e-01
 1.666666666666667e-01 -1.666666666666665e-01 -3.333333333333333e-01
 1.666666666666667e-01 -1.666666666666665e-01 -3.333333333333333e-01
 1.666666666666667e-01 -1.666666666666665e-01 -3.333333333333333e-01
 1.666666666666667e-01 -1.666666666666665e-01 -3.333333333333333e-01
 1.666666666666667e-01 -1.666666666666665e-01 -3.333333333333333e-01
 1.666666666666667e-01 -1.666666666666665e-01 -3.333333333333333e-01
 1.666666666666667e-01 -1.666666666666665e-01 -3.333333333333333e-01
 1.666666666666667e-01 -1.666666666666665e-01 -3.333333333333333e-01
 1.666666666666667e-01 -1.666666666666665e-01 -3.333333333333333e-01
 1.666666666666667e-01 -1.666666666666665e-01 -3.333333333333333e-01
 1.666666666666667e-01 -1.666666666666665e-01 -3.333333333333333e-01
 1.666666666666667e-01 -1.666666666666665e-01 -3.333333333333333e-01
 1.666666666666667e-01 -1.666666666666665e-01 -3.333333333333333e-01
 1.666666666666667e-01 -1.666666666666665e-01 -3.333333333333333e-01
 1.666666666666667e-01 -1.666666666666665e-01 -3.333333333333333e-01
 1.666666666666667e-01 -1.666666666666665e-01 -3.333333333333333e-01
 1.666666666666667e-01 -1.666666666666665e-01 -3.333333333333333e-01
 1.666666666666667e-01 -1.666666666666665e-01 -3.333333333333333e-01
 1.666666666666667e-01 -1.666666666666665e-01 -3.333333333333333e-01
 1.666666666666667e-01 -1.666666666666665e-01 -3.333333333333333e-01
 1.666666666666667e-01 -1.666666666666665e-01 -3.333333333333333e-01
 1.666666666666667e-01 -1.666666666666665e-01 -3.333333333333333e-01
 1.666666666666667e-01 -1.666666666666665e-01 -3.333333333333333e-01
 1.666666666666667e-01 -1.666666666666665e-01 -3.333333333333333e-01
 1.666666666666667e-01 -1.666666666666665e-01 -3.333333333333333e-01
 1.666666666666667e-01 -1.666666666666665e-01 -3.333333333333333e-01
 1.666666666666667e-01 -1.666666666666665e-01 -3.333333333333333e-01
 1.666666666666667e-01 -1.666666666666665e-01 -3.333333333333333e-01
 1.666666666666667e-01 -1.666666666666665e-01 -3.333333333333333e-01
 1.666666666666667e-01 -1.666666666666665e-01 -3.333333333333333e-01
-1.666666666666667e-01  1.666666666666665e-01  3.333333333333333e-01
 1.666666666666667e-01 -1.666666666666665e-01 -3.333333333333333e-01
 1.666666666666667e-01 -1.666666666666665e-01 -3.333333333333333e-01
 1.666666666666667e-01 -1.666666666666665e-01 -3.333333333333333e-01
 1.666666666666667e-01 -1.666666666666665e-01 -3.333333333333333e-01
 1.666666666666667e-01 -1.666666666666665e-01 -3.333333333333333e-01
 1.666666666666667e-01 -1.666666666666665e-01 -3.333333333333333e-01
 1.666666666666667e-01 -1.666666666666665e-01 -3.333333333333333e-01
 1.666666666666667e-01 -1.666666666666665e-01 -3.333333333333333e-01
 1.666666666666667e-01 -1.666666666666665e-01 -3.333333333333333e-01
 1.666666666666667e-01 -1.666666666666665e-01 -3.333333333333333e-01
 1.666666666666667e-01 -1.666666666666665e-01 -3.333333333333333e-01
 1.666666666666667e-01 -1.666666666666665e-01 -3.333333333333333e-01
 1.666666666666667e-01 -1.666666666666665e-01 -3.333333333333333e-01
 1.666666666666667e-01 -1.666666666666665e-01 -3.333333333333333e-01
 1.666666666666667e-01 -1.666666666666665e-01 -3.333333333333333e-01
 1.666666666666667e-01 -1.666666666666665e-01 -3.333333333333333e-01
 1.666666666666667e-01 -1.666666666666665e-01 -3.333333333333333e-01
 1.666666666666667e-01 -1.666666666666665e-01 -3.333333333333333e-01
 1.666666666666667e-01 -1.666666666666665e-01 -3.333333333333333e-01
 1.666666666666667e-01 -1.666666666666665e-01 -3.333333333333333e-01
 1.666666666666667e-01 -1.666666666666665e-01 -3.333333333333333e-01
 1.666666666666667e-01 -1.666666666666665e-01 -3.333333333333333e-01
 1.666666666666667e-01 -1.666666666666665e-01 -3.333333333333333e-01
 1.666666666666667e-01 -1.666666666666665e-01 -3.333333333333333e-01
 1.666666666666667e-01 -1.666666666666665e-01 -3.333333333333333e-01
 1.666666666666667e-01 -1.666666666666665e-01 -3.333333333333333e-01
 1.666666666666667e-01 -1.666666666666665e-01 -3.333333333333333e-01
 1.666666666666667e-01 -1.666666666666665e-01 -3.333333333333333e-01
 1.666666666666667e-01 -1.666666666666665e-01 -3.333333333333333e-01
 1.666666666666667e-01 -1.666666666666665e-01 -3.333333333333333e-01
 1.666666666666667e-01 -1.666666666666665e-01 -3.333333333333333e-01
 1.666666666666667e-01 -1.666666666666665e-01 -3.333333333333333e-01
 1.666666666666667e-01 -1.666666666666665e-01 -3.333333333333333e-01
 1.666666666666667e-01 -1.666666666666665e-01 -3.333333333333333e-01
 1.666666666666667e-01 -1.666666666666665e-01 -3.333333333333333e-01
 1.666666666666667e-01 -1.666666666666665e-01 -3.333333333333333e-01
 1.666666666666667e-01 -1.666666666666665e-01 -3.333333333333333e-01
 1.666666666666667e-01 -1.666666666666665e-01 -3.333333333333333e-01
 1.666666666666667e-01 -1.666666666666665e-01 -3.333333333333333e-01
 1.666666666666667e-01 -1.666666666666665e-01 -3.333333333333333e-01
 1.666666666666667e-01 -1.666666666666665e-01 -3.333333333333333e-01
 1.666666666666667e-01 -1.666666666666665e-01 -3.333333333333333e-01
 1.666666666666667e-01 -1.666666666666665e-01 -3.333333333333333e-01
 1.666666666666667e-01 -1.666666666666665e-01 -3.333333333333333e-01
 1.666666666666667e-01 -1.666666666666665e-01 -3.333333333333333e-01
 1.666666666666667e-01 -1.666666666666665e-01 -3.333333333333333e-01
 1.666666666666667e-01 -1.666666666666665e-01 -3.333333333333333e-01
 1.666666666666667e-01 -1.666666666666665e-01 -3.333333333333333e-01
 1.666666666666667e-01 -1.666666666666665e-01 -3.333333333333333e-01
 1.666666666666667e-01 -1.666666666666665e-01 -3.333333333333333e-01
 1.666666666666667e-01 -1.666666666666665e-01 -3.333333333333333e-01
 1.666666666666667e-01 -1.666666666666665e-01 -3.333333333333333e-01
 1.666666666666667e-01 -1.666666666666665e-01 -3.333333333333333e-01
 1.666666666666667e-01 -1.666666666666665e-01 -3.333333333333333e-01
 1.666666666666667e-01 -1.666666666666665e-01 -3.333333333333333e-01
 1.666666666666667e-01 -1.666666666666665e-01 -3.333333333333333e-01
 1.666666666666667e-01 -1.666666666666665e-01 -3.333333333333333e-01
 1.666666666666667e-01 -1.666666666666665e-01 -3.333333333333333e-01
 1.666666666666667e-01 -1.666666666666665e-01 -3.333333333333333e-01
 1.666666666666667e-01 -1.666666666666665e-01 -3.333333333333333e-01
 1.666666666666667e-01 -1.666666666666665e-01 -3.333333333333333e-01
 1.666666666666667e-01 -1.666666666666665e-01 -3.333333333333333e-01
 1.666666666666667e-01 -1.666666666666665e-01 -3.333333333333333e-01
 1.666666666666667e-01 -1.666666666666665e-01 -3.333333333333333e-01
 1.666666666666667e-01 -1.666666666666665e-01 -3.333333333333333e-01
 1.666666666666667e-01 -1.666666666666665e-01 -3.333333333333333e-01
 1.666666666666667e-01 -1.666666666666665e-01 -3.333333333333333e-01
 1.666666666666667e-01 -1.666666666666665e-01 -3.333333333333333e-01
 1.666666666666667e-01 -1.666666666666665e-01 -3.333333333333333e-01
 1.666666666666667e-01 -1.666666666666665e-01 -3.333333333333333e-01
 1.666666666666667e-01 -1.666666666666665e-01 -3.333333333333333e-01
 1.666666666666667e-01 -1.666666666666665e-01 -3.333333333333333e-01
 1.666666666666667e-01 -1.666666666666665e-01 -3.333333333333333e-01
 1.666666666666667e-01 -1.666666666666665e-01 -3.333333333333333e-01
 1.666666666666667e-01 -1.666666666666665e-01 -3.333333333333333e-01
 1.666666666666667e-01 -1.666666666666665e-01 -3.333333333333333e-01
 1.666666666666667e-01 -1.666666666666665e-01 -3.333333333333333e-01
 1.666666666666667e-01 -1.666666666666665e-01 -3.333333333333333e-01
 1.666666666666667e-01 -1.666666666666665e-01 -3.333333333333333e-01
 1.666666666666667e-01 -1.666666666666665e-01 -3.333333333333333e-01
 1.666666666666667e-01 -1.666666666666665e-01 -3.333333333333333e-01
 1.666666666666667e-01 -1.666666666666665e-01 -3.333333333333333e-01
 1.666666666666667e-01 -1.666666666666665e-01 -3.333333333333333e-01
 1.666666666666667e-01 -1.666666666666665e-01 -3.333333333333333e-01
 1.666666666666667e-01 -1.666666666666665e-01 -3.333333333333333e-01
 1.666666666666667e-01 -1.666666666666665e-01 -3.333333333333333e-01
 1.666666666666667e-01 -1.666666666666665e-01 -3.333333333333333e-01
 1.666666666666667e-01 -1.666666666666665e-01 -3.333333333333333e-01
 1.666666666666667e-01 -1.666666666666665e-01 -3.333333333333333e-01
 1.666666666666667e-01 -1.666666666666665e-01 -3.333333333333333e-01
 1.666666666666667e-01 -1.666666666666665e-01 -3.333333333333333e-01
 1.666666666666667e-01 -1.666666666666665e-01 -3.333333333333333e-01
 1.666666666666667e-01 -1.666666666666665e-01 -3.333333333333333e-01
 1.666666666666667e-01 -1.666666666666665e-01 -3.333333333333333e-01
 1.666666666666667e-01 -1.666666666666665e-01 -3.333333333333333e-01
 1.666666666666667e-01 -1.666666666666665e-01 -3.333333333333333e-01
 1.666666666666667e-01 -1.666666666666665e-01 -3.333333333333333e-01
 1.666666666666667e-01 -1.666666666666665e-01 -3.333333333333333e-01
 1.666666666666667e-01 -1.666666666666665e-01 -3.333333333333333e-01
 1.666666666666667e-01 -1.666666666666665e-01 -3.333333333333333e-01
 1.666666666666667e-01 -1.666666666666665e-01 -3.333333333333333e-01
 1.666666666666667e-01 -1.666666666666665e-01 -3.333333333333333e-01
 1.666666666666667e-01 -1.666666666666665e-01 -3.333333333333333e-01
 1.666666666666667e-01 -1.666666666666665e-01 -3.333333333333333e-01
 1.666666666666667e-01 -1.666666666666665e-01 -3.333333333333333e-01
 1.666666666666667e-01 -1.666666666666665e-01 -3.333333333333333e-01
 1.666666666666667e-01 -1.666666666666665e-01 -3.333333333333333e-01
 1.666666666666667e-01 -1.666666666666665e-01 -3.333333333333333e-01
 1.666666666666667e-01 -1.666666666666665e-01 -3.333333333333333e-01
 1.666666666666667e-01 -1.666666666666665e-01 -3.333333333333333e-01
 1.666666666666667e-01 -1.666666666666665e-01 -3.333333333333333e-01
 1.666666666666667e-01 -1.666666666666665e-01 -3.333333333333333e-01
 1.666666666666667e-01 -1.666666666666665e-01 -3.333333333333333e-01
 1.666666666666667e-01 -1.666666666666665e-01 -3.333333333333333e-01
 1.666666666666667e-01 -1.666666666666665e-01 -3.333333333333333e-01
 1.666666666666667e-01 -1.666666666666665e-01 -3.333333333333333e-01
 1.666666666666667e-01 -1.666666666666665e-01 -3.333333333333333e-01
 1.666666666666667e-01 -1.666666666666665e-01 -3.333333333333333e-01
 1.666666666666667e-01 -1.666666666666665e-01 -3.333333333333333e-01
 1.666666666666667e-01 -1.666666666666665e-01 -3.333333333333333e-01
 1.666666666666667e-01 -1.666666666666665e-01 -3.333333333333333e-01
 1.666666666666667e-01 -1.666666666666665e-01 -3.333333333333333e-01
 1.666666666666667e-01 -1.666666666666665e-01 -3.333333333333333e-01
 1.666666666666667e-01 -1.666666666666665e-01 -3.333333333333333e-01
 1.666666666666667e-01 -1.666666666666665e-01 -3.333333333333333e-01
 1.666666666666667e-01 -1.666666666666665e-01 -3.333333333333333e-01
 1.666666666666667e-01 -1.666666666666665e-01 -3.333333333333333e-01
 1.666666666666667e-01 -1.666666666666665e-01 -3.333333333333333e-01
 1.666666666666667e-01 -1.666666666666665e-01 -3.333333333333333e-01
 1.666666666666667e-01 -1.666666666666665e-01 -3.333333333333333e-01
 1.666666666666667e-01 -1.666666666666665e-01 -3.333333333333333e-01
 1.666666666666667e-01 -1.666666666666665e-01 -3.333333333333333e-01
 1.666666666666667e-01 -1.666666666666665e-01 -3.333333333333333e-01
 1.666666666666667e-01 -1.666666666666665e-01 -3.333333333333333e-01
 1.666666666666667e-01 -1.666666666666665e-01 -3.333333333333333e-01
 1.666666666666667e-01 -1.666666666666665e-01 -3.333333333333333e-01
 1.666666666666667e-01 -1.666666666666665e-01 -3.333333333333333e-01
 1.666666666666667e-01 -1.666666666666665e-01 -3.333333333333333e-01
 1.666666666666667e-01 -1.666666666666665e-01 -3.333333333333333e-01
 1.666666666666667e-01 -1.666666666666665e-01 -3.333333333333333e-01
 1.666666666666667e-01 -1.666666666666665e-01 -3.333333333333333e-01
 1.666666666666667e-01 -1.666666666666665e-01 -3.333333333333333e-01
 1.666666666666667e-01 -1.666666666666665e-01 -3.333333333333333e-01
 1.666666666666667e-01 -1.666666666666665e-01 -3.333333333333333e-01
 1.666666666666667e-01 -1.666666666666665e-01 -3.333333333333333e-01
 1.666666666666667e-01 -1.666666666666665e-01 -3.333333333333333e-01
 1.666666666666667e-01 -1.666666666666665e-01 -3.333333333333333e-01
 1.666666666666667e-01 -1.666666666666665e-01 -3.333333333333333e-01
 1.666666666666667e-01 -1.666666666666665e-01 -3.333333333333333e-01
 1.666666666666667e-01 -1.666666666666665e-01 -3.333333333333333e-01
 1.666666666666667e-01 -1.666666666666665e-01 -3.333333333333333e-01
 1.666666666666667e-01 -1.666666666666665e-01 -3.333333333333333e-01
 1.666666666666667e-01 -1.666666666666665e-01 -3.333333333333333e-01
 1.666666666666667e-01 -1.666666666666665e-01 -3.333333333333333e-01
 1.666666666666667e-01 -1.666666666666665e-01 -3.333333333333333e-01
 1.666666666666667e-01 -1.666666666666665e-01 -3.333333333333333e-01
 1.666666666666667e-01 -1.666666666666665e-01 -3.333333333333333e-01
 1.666666666666667e-01 -1.666666666666665e-01 -3.333333333333333e-01
 1.666666666666667e-01 -1.666666666666665e-01 -3.333333333333333e-01
 1.666666666666667e-01 -1.666666666666665e-01 -3.333333333333333e-01
 1.666666666666667e-01 -1.666666666666665e-01 -3.333333333333333e-01
 1.666666666666667e-01 -1.666666666666665e-01 -3.333333333333333e-01
 1.666666666666667e-01 -1.666666666666665e-01 -3.333333333333333e-01
 1.666666666666667e-01 -1.666666666666665e-01 -3.333333333333333e-01
 1.666666666666667e-01 -1.666666666666665e-01 -3.333333333333333e-01
 1.666666666666667e-01 -1.666666666666665e-01 -3.333333333333333e-01
 1.666666666666667e-01 -1.666666666666665e-01 -3.333333333333333e-01
 1.666666666666667e-01 -1.666666666666665e-01 -3.333333333333333e-01
 1.666666666666667e-01 -1.666666666666665e-01 -3.333333333333333e-01
 1.666666666666667e-01 -1.666666666666665e-01 -3.333333333333333e-01
 1.666666666666667e-01 -1.666666666666665e-01 -3.333333333333333e-01
 1.666666666666667e-01 -1.666666666666665e-01 -3.333333333333333e-01
 1.666666666666667e-01 -1.666666666666665e-01 -3.333333333333333e-01
 1.666666666666667e-01 -1.666666666666665e-01 -3.333333333333333e-01
 1.666666666666667e-01 -1.666666666666665e-01 -3.333333333333333e-01
 1.666666666666667e-01 -1.666666666666665e-01 -3.333333333333333e-01
 1.666666666666667e-01 -1.666666666666665e-01 -3.333333333333333e-01
 1.666666666666667e-01 -1.666666666666665e-01 -3.333333333333333e-01
 1.666666666666667e-01 -1.666666666666665e-01 -3.333333333333333e-01
 1.666666666666667e-01 -1.666666666666665e-01 -3.333333333333333e-01
 1.666666666666667e-01 -1.666666666666665e-01 -3.333333333333333e-01
 1.666666666666667e-01 -1.666666666666665e-01 -3.333333333333333e-01
 1.666666666666667e-01 -1.666666666666665e-01 -3.333333333333333e-01
 1.666666666666667e-01 -1.666666666666665e-01 -3.333333333333333e-01
 1.666666666666667e-01 -1.666666666666665e-01 -3.333333333333333e-01
 1.666666666666667e-01 -1.666666666666665e-01 -3.333333333333333e-01
-1.666666666666667e-01  1.666666666666665e-01  3.333333333333333e-01
 1.666666666666667e-01 -1.666666666666665e-01 -3.333333333333333e-01
-1.666666666666667e-01  1.666666666666665e-01  3.333333333333333e-01
-1.666666666666667e-01  1.666666666666665e-01  3.333333333333333e-01
-1.666666666666667e-01  1.666666666666665e-01  3.333333333333333e-01
-1.666666666666667e-01  1.666666666666665e-01  3.333333333333333e-01
-1.666666666666667e-01  1.666666666666665e-01  3.333333333333333e-01
-1.666666666666667e-01  1.666666666666665e-01  3.333333333333333e-01
-1.666666666666667e-01  1.666666666666665e-01  3.333333333333333e-01
-1.666666666666667e-01  1.666666666666665e-01  3.333333333333333e-01
-1.666666666666667e-01  1.666666666666665e-01  3.333333333333333e-01
-1.666666666666667e-01  1.666666666666665e-01  3.333333333333333e-01
-1.666666666666667e-01  1.666666666666665e-01  3.333333333333333e-01
-1.666666666666667e-01  1.666666666666665e-01  3.333333333333333e-01
-1.666666666666667e-01  1.666666666666665e-01  3.333333333333333e-01
-1.666666666666667e-01  1.666666666666665e-01  3.333333333333333e-01
-1.666666666666667e-01  1.666666666666665e-01  3.333333333333333e-01
-1.666666666666667e-01  1.666666666666665e-01  3.333333333333333e-01
-1.666666666666667e-01  1.666666666666665e-01  3.333333333333333e-01
-1.666666666666667e-01  1.666666666666665e-01  3.333333333333333e-01
-1.666666666666667e-01  1.666666666666665e-01  3.333333333333333e-01
-1.666666666666667e-01  1.666666666666665e-01  3.333333333333333e-01
-1.666666666666667e-01  1.666666666666665e-01  3.333333333333333e-01
-1.666666666666667e-01  1.666666666666665e-01  3.333333333333333e-01
-1.666666666666667e-01  1.666666666666665e-01  3.333333333333333e-01
-1.666666666666667e-01  1.666666666666665e-01  3.333333333333333e-01
-1.666666666666667e-01  1.666666666666665e-01  3.333333333333333e-01
-1.666666666666667e-01  1.666666666666665e-01  3.333333333333333e-01
-1.666666666666667e-01  1.666666666666665e-01  3.333333333333333e-01
-1.666666666666667e-01  1.666666666666665e-01  3.333333333333333e-01
-1.666666666666667e-01  1.666666666666665e-01  3.333333333333333e-01
-1.666666666666667e-01  1.666666666666665e-01  3.333333333333333e-01
-1.666666666666667e-01  1.666666666666665e-01  3.333333333333333e-01
-1.666666666666667e-01  1.666666666666665e-01  3.333333333333333e-01
-1.666666666666667e-01  1.666666666666665e-01  3.333333333333333e-01
-1.666666666666667e-01  1.666666666666665e-01  3.333333333333333e-01
-1.666666666666667e-01  1.666666666666665e-01  3.333333333333333e-01
-1.666666666666667e-01  1.666666666666665e-01  3.333333333333333e-01
-1.666666666666667e-01  1.666666666666665e-01  3.333333333333333e-01
-1.666666666666667e-01  1.666666666666665e-01  3.333333333333333e-01
-1.666666666666667e-01  1.666666666666665e-01  3.333333333333333e-01
-1.666666666666667e-01  1.666666666666665e-01  3.333333333333333e-01
-1.666666666666667e-01  1.666666666666665e-01  3.333333333333333e-01
-1.666666666666667e-01  1.666666666666665e-01  3.333333333333333e-01
-1.666666666666667e-01  1.666666666666665e-01  3.333333333333333e-01
-1.666666666666667e-01  1.666666666666665e-01  3.333333333333333e-01
-1.666666666666667e-01  1.666666666666665e-01  3.333333333333333e-01
-1.666666666666667e-01  1.666666666666665e-01  3.333333333333333e-01
-1.666666666666667e-01  1.666666666666665e-01  3.333333333333333e-01
-1.666666666666667e-01  1.666666666666665e-01  3.333333333333333e-01
-1.666666666666667e-01  1.666666666666665e-01  3.333333333333333e-01
-1.666666666666667e-01  1.666666666666665e-01  3.333333333333333e-01
-1.666666666666667e-01  1.666666666666665e-01  3.333333333333333e-01
-1.666666666666667e-01  1.666666666666665e-01  3.333333333333333e-01
-1.666666666666667e-01  1.666666666666665e-01  3.333333333333333e-01
-1.666666666666667e-01  1.666666666666665e-01  3.333333333333333e-01
-1.666666666666667e-01  1.666666666666665e-01  3.333333333333333e-01
-1.666666666666667e-01  1.666666666666665e-01  3.333333333333333e-01
-1.666666666666667e-01  1.666666666666665e-01  3.333333333333333e-01
-1.666666666666667e-01  1.666666666666665e-01  3.333333333333333e-01
-1.666666666666667e-01  1.666666666666665e-01  3.333333333333333e-01
-1.666666666666667e-01  1.666666666666665e-01  3.333333333333333e-01
-1.666666666666667e-01  1.666666666666665e-01  3.333333333333333e-01
-1.666666666666667e-01  1.666666666666665e-01  3.333333333333333e-01
-1.666666666666667e-01  1.666666666666665e-01  3.333333333333333e-01
-1.666666666666667e-01  1.666666666666665e-01  3.333333333333333e-01
-1.666666666666667e-01  1.666666666666665e-01  3.333333333333333e-01
-1.666666666666667e-01  1.666666666666665e-01  3.333333333333333e-01
-1.666666666666667e-01  1.666666666666665e-01  3.333333333333333e-01
-1.666666666666667e-01  1.666666666666665e-01  3.333333333333333e-01
-1.666666666666667e-01  1.666666666666665e-01  3.333333333333333e-01
-1.666666666666667e-01  1.666666666666665e-01  3.333333333333333e-01
-1.666666666666667e-01  1.666666666666665e-01  3.333333333333333e-01
-1.666666666666667e-01  1.666666666666665e-01  3.333333333333333e-01
-1.666666666666667e-01  1.666666666666665e-01  3.333333333333333e-01
-1.666666666666667e-01  1.666666666666665e-01  3.333333333333333e-01
-1.666666666666667e-01  1.666666666666665e-01  3.333333333333333e-01
-1.666666666666667e-01  1.666666666666665e-01  3.333333333333333e-01
-1.666666666666667e-01  1.666666666666665e-01  3.333333333333333e-01
-1.666666666666667e-01  1.666666666666665e-01  3.333333333333333e-01
-1.666666666666667e-01  1.666666666666665e-01  3.333333333333333e-01
-1.666666666666667e-01  1.666666666666665e-01  3.333333333333333e-01
-1.666666666666667e-01  1.666666666666665e-01  3.333333333333333e-01
-1.666666666666667e-01  1.666666666666665e-01  3.333333333333333e-01
-1.666666666666667e-01  1.666666666666665e-01  3.333333333333333e-01
-1.666666666666667e-01  1.666666666666665e-01  3.333333333333333e-01
-1.666666666666667e-01  1.666666666666665e-01  3.333333333333333e-01
-1.666666666666667e-01  1.666666666666665e-01  3.333333333333333e-01
-1.666666666666667e-01  1.666666666666665e-01  3.333333333333333e-01
-1.666666666666667e-01  1.666666666666665e-01  3.333333333333333e-01
-1.666666666666667e-01  1.666666666666665e-01  3.333333333333333e-01
-1.666666666666667e-01  1.666666666666665e-01  3.333333333333333e-01
-1.666666666666667e-01  1.666666666666665e-01  3.333333333333333e-01
-1.666666666666667e-01  1.666666666666665e-01  3.333333333333333e-01
-1.666666666666667e-01  1.666666666666665e-01  3.333333333333333e-01
-1.666666666666667e-01  1.666666666666665e-01  3.333333333333333e-01
-1.666666666666667e-01  1.666666666666665e-01  3.333333333333333e-01
-1.666666666666667e-01  1.666666666666665e-01  3.333333333333333e-01
-1.666666666666667e-01  1.666666666666665e-01  3.333333333333333e-01
-1.666666666666667e-01  1.666666666666665e-01  3.333333333333333e-01
-1.666666666666667e-01  1.666666666666665e-01  3.333333333333333e-01
-1.666666666666667e-01  1.666666666666665e-01  3.333333333333333e-01
-1.666666666666667e-01  1.666666666666665e-01  3.333333333333333e-01
-1.666666666666667e-01  1.666666666666665e-01  3.333333333333333e-01
-1.666666666666667e-01  1.666666666666665e-01  3.333333333333333e-01
-1.666666666666667e-01  1.666666666666665e-01  3.333333333333333e-01
-1.666666666666667e-01  1.666666666666665e-01  3.333333333333333e-01
-1.666666666666667e-01  1.666666666666665e-01  3.333333333333333e-01
-1.666666666666667e-01  1.666666666666665e-01  3.333333333333333e-01
-1.666666666666667e-01  1.666666666666665e-01  3.333333333333333e-01
-1.666666666666667e-01  1.666666666666665e-01  3.333333333333333e-01
-1.666666666666667e-01  1.666666666666665e-01  3.333333333333333e-01
-1.666666666666667e-01  1.666666666666665e-01  3.333333333333333e-01
-1.666666666666667e-01  1.666666666666665e-01  3.333333333333333e-01
-1.666666666666667e-01  1.666666666666665e-01  3.333333333333333e-01
-1.666666666666667e-01  1.666666666666665e-01  3.333333333333333e-01
-1.666666666666667e-01  1.666666666666665e-01  3.333333333333333e-01
-1.666666666666667e-01  1.666666666666665e-01  3.333333333333333e-01
-1.666666666666667e-01  1.666666666666665e-01  3.333333333333333e-01
-1.666666666666667e-01  1.666666666666665e-01  3.333333333333333e-01
-1.666666666666667e-01  1.666666666666665e-01  3.333333333333333e-01
-1.666666666666667e-01  1.666666666666665e-01  3.333333333333333e-01
-1.666666666666667e-01  1.666666666666665e-01  3.333333333333333e-01
-1.666666666666667e-01  1.666666666666665e-01  3.333333333333333e-01
-1.666666666666667e-01  1.666666666666665e-01  3.333333333333333e-01
-1.666666666666667e-01  1.666666666666665e-01  3.333333333333333e-01
-1.666666666666667e-01  1.666666666666665e-01  3.333333333333333e-01
-1.666666666666667e-01  1.666666666666665e-01  3.333333333333333e-01
-1.666666666666667e-01  1.666666666666665e-01  3.333333333333333e-01
-1.666666666666667e-01  1.666666666666665e-01  3.333333333333333e-01
-1.666666666666667e-01  1.666666666666665e-01  3.333333333333333e-01
-1.666666666666667e-01  1.666666666666665e-01  3.333333333333333e-01
-1.666666666666667e-01  1.666666666666665e-01  3.333333333333333e-01
-1.666666666666667e-01  1.666666666666665e-01  3.333333333333333e-01
-1.666666666666667e-01  1.666666666666665e-01  3.333333333333333e-01
-1.666666666666667e-01  1.666666666666665e-01  3.333333333333333e-01
-1.666666666666667e-01  1.666666666666665e-01  3.333333333333333e-01
-1.666666666666667e-01  1.666666666666665e-01  3.333333333333333e-01
-1.666666666666667e-01  1.666666666666665e-01  3.333333333333333e-01
-1.666666666666667e-01  1.666666666666665e-01  3.333333333333333e-01
-1.666666666666667e-01  1.666666666666665e-01  3.333333333333333e-01
-1.666666666666667e-01  1.666666666666665e-01  3.333333333333333e-01
-1.666666666666667e-01  1.666666666666665e-01  3.333333333333333e-01
-1.666666666666667e-01  1.666666666666665e-01  3.333333333333333e-01
-1.666666666666667e-01  1.666666666666665e-01  3.333333333333333e-01
-1.666666666666667e-01  1.666666666666665e-01  3.333333333333333e-01
-1.666666666666667e-01  1.666666666666665e-01  3.333333333333333e-01
-1.666666666666667e-01  1.666666666666665e-01  3.333333333333333e-01
-1.666666666666667e-01  1.666666666666665e-01  3.333333333333333e-01
-1.666666666666667e-01  1.666666666666665e-01  3.333333333333333e-01
-1.666666666666667e-01  1.666666666666665e-01  3.333333333333333e-01
-1.666666666666667e-01  1.666666666666665e-01  3.333333333333333e-01
-1.666666666666667e-01  1.666666666666665e-01  3.333333333333333e-01
-1.666666666666667e-01  1.666666666666665e-01  3.333333333333333e-01
-1.666666666666667e-01  1.666666666666665e-01  3.333333333333333e-01
 1.666666666666667e-01 -1.666666666666665e-01 -3.333333333333333e-01
-1.666666666666667e-01  1.666666666666665e-01  3.333333333333333e-01
-1.666666666666667e-01  1.666666666666665e-01  3.333333333333333e-01
-1.666666666666667e-01  1.666666666666665e-01  3.333333333333333e-01
-1.666666666666667e-01  1.666666666666665e-01  3.333333333333333e-01
-1.666666666666667e-01  1.666666666666665e-01  3.333333333333333e-01
-1.666666666666667e-01  1.666666666666665e-01  3.333333333333333e-01
-1.666666666666667e-01  1.666666666666665e-01  3.333333333333333e-01
-1.666666666666667e-01  1.666666666666665e-01  3.333333333333333e-01
-1.666666666666667e-01  1.666666666666665e-01  3.333333333333333e-01
-1.666666666666667e-01  1.666666666666665e-01  3.333333333333333e-01
-1.666666666666667e-01  1.666666666666665e-01  3.333333333333333e-01
-1.666666666666667e-01  1.666666666666665e-01  3.333333333333333e-01
-1.666666666666667e-01  1.666666666666665e-01  3.333333333333333e-01
-1.666666666666667e-01  1.666666666666665e-01  3.333333333333333e-01
-1.666666666666667e-01  1.666666666666665e-01  3.333333333333333e-01
-1.666666666666667e-01  1.666666666666665e-01  3.333333333333333e-01
-1.666666666666667e-01  1.666666666666665e-01  3.333333333333333e-01
-1.666666666666667e-01  1.666666666666665e-01  3.333333333333333e-01
-1.666666666666667e-01  1.666666666666665e-01  3.333333333333333e-01
-1.666666666666667e-01  1.666666666666665e-01  3.333333333333333e-01
-1.666666666666667e-01  1.666666666666665e-01  3.333333333333333e-01
-1.666666666666667e-01  1.666666666666665e-01  3.333333333333333e-01
-1.666666666666667e-01  1.666666666666665e-01  3.333333333333333e-01
-1.666666666666667e-01  1.666666666666665e-01  3.333333333333333e-01
-1.666666666666667e-01  1.666666666666665e-01  3.333333333333333e-01
-1.666666666666667e-01  1.666666666666665e-01  3.333333333333333e-01
-1.666666666666667e-01  1.666666666666665e-01  3.333333333333333e-01
-1.666666666666667e-01  1.666666666666665e-01  3.333333333333333e-01
-1.666666666666667e-01  1.666666666666665e-01  3.333333333333333e-01
-1.666666666666667e-01  1.666666666666665e-01  3.333333333333333e-01
-1.666666666666667e-01  1.666666666666665e-01  3.333333333333333e-01
-1.666666666666667e-01  1.666666666666665e-01  3.333333333333333e-01
-1.666666666666667e-01  1.666666666666665e-01  3.333333333333333e-01
-1.666666666666667e-01  1.666666666666665e-01  3.333333333333333e-01
-1.666666666666667e-01  1.666666666666665e-01  3.333333333333333e-01
-1.666666666666667e-01  1.666666666666665e-01  3.333333333333333e-01
-1.666666666666667e-01  1.666666666666665e-01  3.333333333333333e-01
-1.666666666666667e-01  1.666666666666665e-01  3.333333333333333e-01
-1.666666666666667e-01  1.666666666666665e-01  3.333333333333333e-01
-1.666666666666667e-01  1.666666666666665e-01  3.333333333333333e-01
-1.666666666666667e-01  1.666666666666665e-01  3.333333333333333e-01
-1.666666666666667e-01  1.666666666666665e-01  3.333333333333333e-01
-1.666666666666667e-01  1.666666666666665e-01  3.333333333333333e-01
-1.666666666666667e-01  1.666666666666665e-01  3.333333333333333e-01
-1.666666666666667e-01  1.666666666666665e-01  3.333333333333333e-01
-1.666666666666667e-01  1.666666666666665e-01  3.333333333333333e-01
-1.666666666666667e-01  1.666666666666665e-01  3.333333333333333e-01
-1.666666666666667e-01  1.666666666666665e-01  3.333333333333333e-01
-1.666666666666667e-01  1.666666666666665e-01  3.333333333333333e-01
-1.666666666666667e-01  1.666666666666665e-01  3.333333333333333e-01
-1.666666666666667e-01  1.666666666666665e-01  3.333333333333333e-01
-1.666666666666667e-01  1.666666666666665e-01  3.333333333333333e-01
-1.666666666666667e-01  1.666666666666665e-01  3.333333333333333e-01
-1.666666666666667e-01  1.666666666666665e-01  3.333333333333333e-01
-1.666666666666667e-01  1.666666666666665e-01  3.333333333333333e-01
-1.666666666666667e-01  1.666666666666665e-01  3.333333333333333e-01
-1.666666666666667e-01  1.666666666666665e-01  3.333333333333333e-01
-1.666666666666667e-01  1.666666666666665e-01  3.333333333333333e-01
-1.666666666666667e-01  1.666666666666665e-01  3.333333333333333e-01
-1.666666666666667e-01  1.666666666666665e-01  3.333333333333333e-01
-1.666666666666667e-01  1.666666666666665e-01  3.333333333333333e-01
-1.666666666666667e-01  1.666666666666665e-01  3.333333333333333e-01
-1.666666666666667e-01  1.666666666666665e-01  3.333333333333333e-01
-1.666666666666667e-01  1.666666666666665e-01  3.333333333333333e-01
-1.666666666666667e-01  1.666666666666665e-01  3.333333333333333e-01
-1.666666666666667e-01  1.666666666666665e-01  3.333333333333333e-01
-1.666666666666667e-01  1.666666666666665e-01  3.333333333333333e-01
-1.666666666666667e-01  1.666666666666665e-01  3.333333333333333e-01
-1.666666666666667e-01  1.666666666666665e-01  3.333333333333333e-01
-1.666666666666667e-01  1.666666666666665e-01  3.333333333333333e-01
-1.666666666666667e-01  1.666666666666665e-01  3.333333333333333e-01
-1.666666666666667e-01  1.666666666666665e-01  3.333333333333333e-01
-1.666666666666667e-01  1.666666666666665e-01  3.333333333333333e-01
-1.666666666666667e-01  1.666666666666665e-01  3.333333333333333e-01
-1.666666666666667e-01  1.666666666666665e-01  3.333333333333333e-01
-1.666666666666667e-01  1.666666666666665e-01  3.333333333333333e-01
-1.666666666666667e-01  1.666666666666665e-01  3.333333333333333e-01
-1.666666666666667e-01  1.666666666666665e-01  3.333333333333333e-01
-1.666666666666667e-01  1.666666666666665e-01  3.333333333333333e-01
-1.666666666666667e-01  1.666666666666665e-01  3.333333333333333e-01
-1.666666666666667e-01  1.666666666666665e-01  3.333333333333333e-01
-1.666666666666667e-01  1.666666666666665e-01  3.333333333333333e-01
-1.666666666666667e-01  1.666666666666665e-01  3.333333333333333e-01
-1.666666666666667e-01  1.666666666666665e-01  3.333333333333333e-01
-1.666666666666667e-01  1.666666666666665e-01  3.333333333333333e-01
-1.666666666666667e-01  1.666666666666665e-01  3.333333333333333e-01
-1.666666666666667e-01  1.666666666666665e-01  3.333333333333333e-01
-1.666666666666667e-01  1.666666666666665e-01  3.333333333333333e-01
-1.666666666666667e-01  1.666666666666665e-01  3.333333333333333e-01
-1.666666666666667e-01  1.666666666666665e-01  3.333333333333333e-01
-1.666666666666667e-01  1.666666666666665e-01  3.333333333333333e-01
-1.666666666666667e-01  1.666666666666665e-01  3.333333333333333e-01
-1.666666666666667e-01  1.666666666666665e-01  3.333333333333333e-01
-1.666666666666667e-01  1.666666666666665e-01  3.333333333333333e-01
-1.666666666666667e-01  1.666666666666665e-01  3.333333333333333e-01
-1.666666666666667e-01  1.666666666666665e-01  3.333333333333333e-01
-1.666666666666667e-01  1.666666666666665e-01  3.333333333333333e-01
-1.666666666666667e-01  1.666666666666665e-01  3.333333333333333e-01
-1.666666666666667e-01  1.666666666666665e-01  3.333333333333333e-01
-1.666666666666667e-01  1.666666666666665e-01  3.333333333333333e-01
-1.666666666666667e-01  1.666666666666665e-01  3.333333333333333e-01
-1.666666666666667e-01  1.666666666666665e-01  3.333333333333333e-01
-1.666666666666667e-01  1.666666666666665e-01  3.333333333333333e-01
-1.666666666666667e-01  1.666666666666665e-01  3.333333333333333e-01
-1.666666666666667e-01  1.666666666666665e-01  3.333333333333333e-01
-1.666666666666667e-01  1.666666666666665e-01  3.333333333333333e-01
-1.666666666666667e-01  1.666666666666665e-01  3.333333333333333e-01
-1.666666666666667e-01  1.666666666666665e-01  3.333333333333333e-01
-1.666666666666667e-01  1.666666666666665e-01  3.333333333333333e-01
-1.666666666666667e-01  1.666666666666665e-01  3.333333333333333e-01
-1.666666666666667e-01  1.666666666666665e-01  3.333333333333333e-01
-1.666666666666667e-01  1.666666666666665e-01  3.333333333333333e-01
-1.666666666666667e-01  1.666666666666665e-01  3.333333333333333e-01
-1.666666666666667e-01  1.666666666666665e-01  3.333333333333333e-01
-1.666666666666667e-01  1.666666666666665e-01  3.333333333333333e-01
-1.666666666666667e-01  1.666666666666665e-01  3.333333333333333e-01
-1.666666666666667e-01  1.666666666666665e-01  3.333333333333333e-01
-1.666666666666667e-01  1.666666666666665e-01  3.333333333333333e-01
-1.666666666666667e-01  1.666666666666665e-01  3.333333333333333e-01
-1.666666666666667e-01  1.666666666666665e-01  3.333333333333333e-01
-1.666666666666667e-01  1.666666666666665e-01  3.333333333333333e-01
-1.666666666666667e-01  1.666666666666665e-01  3.333333333333333e-01
-1.666666666666667e-01  1.666666666666665e-01  3.333333333333333e-01
-1.666666666666667e-01  1.666666666666665e-01  3.333333333333333e-01
-1.666666666666667e-01  1.666666666666665e-01  3.333333333333333e-01
-1.666666666666667e-01  1.666666666666665e-01  3.333333333333333e-01
-1.666666666666667e-01  1.666666666666665e-01  3.333333333333333e-01
-1.666666666666667e-01  1.666666666666665e-01  3.333333333333333e-01
-1.666666666666667e-01  1.666666666666665e-01  3.333333333333333e-01
-1.666666666666667e-01  1.666666666666665e-01  3.333333333333333e-01
-1.666666666666667e-01  1.666666666666665e-01  3.333333333333333e-01
-1.666666666666667e-01  1.666666666666665e-01  3.333333333333333e-01
-1.666666666666667e-01  1.666666666666665e-01  3.333333333333333e-01
-1.666666666666667e-01  1.666666666666665e-01  3.333333333333333e-01
-1.666666666666667e-01  1.666666666666665e-01  3.333333333333333e-01
-1.666666666666667e-01  1.666666666666665e-01  3.333333333333333e-01
-1.666666666666667e-01  1.666666666666665e-01  3.333333333333333e-01
-1.666666666666667e-01  1.666666666666665e-01  3.333333333333333e-01
-1.666666666666667e-01  1.666666666666665e-01  3.333333333333333e-01
-1.666666666666667e-01  1.666666666666665e-01  3.333333333333333e-01
-1.666666666666667e-01  1.666666666666665e-01  3.333333333333333e-01
-1.666666666666667e-01  1.666666666666665e-01  3.333333333333333e-01
-1.666666666666667e-01  1.666666666666665e-01  3.333333333333333e-01
-1.666666666666667e-01  1.666666666666665e-01  3.333333333333333e-01
-1.666666666666667e-01  1.666666666666665e-01  3.333333333333333e-01
-1.666666666666667e-01  1.666666666666665e-01  3.333333333333333e-01
-1.666666666666667e-01  1.666666666666665e-01  3.333333333333333e-01
-1.666666666666667e-01  1.666666666666665e-01  3.333333333333333e-01
-1.666666666666667e-01  1.666666666666665e-01  3.333333333333333e-01
-1.666666666666667e-01  1.666666666666665e-01  3.333333333333333e-01
-1.666666666666667e-01  1.666666666666665e-01  3.333333333333333e-01
-1.666666666666667e-01  1.666666666666665e-01  3.333333333333333e-01
-1.666666666666667e-01  1.666666666666665e-01  3.333333333333333e-01
-1.666666666666667e-01  1.666666666666665e-01  3.333333333333333e-01
-1.666666666666667e-01  1.666666666666665e-01  3.333333333333333e-01
-1.666666666666667e-01  1.666666666666665e-01  3.333333333333333e-01
-1.666666666666667e-01  1.666666666666665e-01  3.333333333333333e-01
-1.666666666666667e-01  1.666666666666665e-01  3.333333333333333e-01
-1.666666666666667e-01  1.666666666666665e-01  3.333333333333333e-01
-1.666666666666667e-01  1.666666666666665e-01  3.333333333333333e-01
